 vasp.5.4.4.18Apr17-6-g9f103f2a35 (build Aug 13 2019 17:33:20) gamma-only

 executed on             LinuxIFC date 2020.05.11  17:16:18

 INCAR:
 POTCAR:    PAW_PBE Ni_pv 06Sep2000
 POTCAR:    PAW_PBE S 06Sep2000
 POTCAR:    PAW_PBE Ni_pv 06Sep2000
   VRHFIN =Ni:

   TITEL  = PAW_PBE Ni_pv 06Sep2000
   POMASS =   58.690; ZVAL   =   16.000    mass and valenz
   ENMAX  =  367.986; ENMIN  =  275.989 eV

 POTCAR:    PAW_PBE S 06Sep2000
   VRHFIN =S : s2p4

   TITEL  = PAW_PBE S 06Sep2000
   POMASS =   32.066; ZVAL   =    6.000    mass and valenz
   ENMAX  =  258.689; ENMIN  =  194.016 eV

 Optimization of the real space projectors (new method)

 maximal supplied QI-value         = 18.90
 optimisation between [QCUT,QGAM] = [ 10.77, 21.73] = [ 32.49,132.25] Ry
 Optimized for a Real-space Cutoff    1.38 Angstroem

   l    n(q)    QCUT    max X(q) W(low)/X(q) W(high)/X(q)  e(spline)
   1      8    10.771     2.836    0.40E-04    0.29E-04    0.12E-06
   1      8    10.771     4.023    0.10E-03    0.48E-04    0.29E-06
   2      8    10.771    73.368    0.42E-03    0.97E-04    0.44E-06
   2      8    10.771    69.010    0.42E-03    0.99E-04    0.45E-06
   0      9    10.771    54.797    0.10E-03    0.56E-04    0.74E-07
   0      9    10.771    24.266    0.89E-04    0.49E-04    0.67E-07
 Optimization of the real space projectors (new method)

 maximal supplied QI-value         = 19.84
 optimisation between [QCUT,QGAM] = [ 10.71, 21.63] = [ 32.15,130.99] Ry
 Optimized for a Real-space Cutoff    1.19 Angstroem

   l    n(q)    QCUT    max X(q) W(low)/X(q) W(high)/X(q)  e(spline)
   0      8    10.715   187.594    0.41E-03    0.53E-04    0.66E-07
   0      8    10.715   164.243    0.41E-03    0.53E-04    0.65E-07
   1      7    10.715    67.533    0.19E-03    0.59E-03    0.68E-07
   1      7    10.715    50.729    0.19E-03    0.58E-03    0.67E-07
  PAW_PBE Ni_pv 06Sep2000               :
  PAW_PBE S 06Sep2000                   :

 POSCAR: Type_036 Type_136
  positions in cartesian coordinates
 exchange correlation table for  LEXCH =        8
   RHO(1)=    0.500       N(1)  =     2000
   RHO(2)=  100.500       N(2)  =     4000

 ion  position               nearest neighbor table
   1  0.780  0.145  0.121-  49 2.07  63 2.07  41 2.25  50 2.36  64 2.36
   2  0.795  0.145  0.283-  64 2.04  50 2.04  42 2.05
   3  0.234  0.645  0.082-  43 2.06  44 2.07  61 2.16  51 2.16   4 2.42
   4  0.297  0.645  0.216-  52 2.14  62 2.14  44 2.24  51 2.26  61 2.26   3 2.42  28 2.53  16 2.53

   5  0.421  0.145  0.102-  45 2.05  67 2.08  53 2.08   6 2.49
   6  0.470  0.145  0.248-  68 2.08  54 2.08  46 2.25  53 2.26  67 2.26   5 2.49  31 2.53  19 2.53

[...]

  37  0.010  0.145  0.345-  10 2.06  14 2.08  26 2.08  38 2.65
  38  0.991  0.145  0.182-  14 2.07  26 2.07  13 2.21  25 2.21   9 2.25  37 2.65
  39  0.474  0.645  0.087-  11 2.02  27 2.02  15 2.02  28 2.26  16 2.26
  40  0.509  0.645  0.278-  17 2.07  29 2.07  11 2.18  12 2.25  28 2.36  16 2.36
  41  0.647  0.145  0.119-  30 2.03  18 2.03   1 2.25  31 2.26  19 2.26  42 2.79
  42  0.673  0.145  0.289-   2 2.05  19 2.10  31 2.10  41 2.79
  43  0.121  0.645  0.035-   3 2.06  32 2.07  20 2.07  44 2.61
  44  0.167  0.645  0.189-   3 2.07  32 2.19  20 2.19   4 2.24  43 2.61
  45  0.303  0.145  0.073-   5 2.05  21 2.07  33 2.07
  46  0.336  0.145  0.246-  22 2.03  34 2.03   6 2.25  33 2.36  21 2.36
  47  0.819  0.645  0.151-   7 2.25  35 2.26  23 2.26  36 2.26  24 2.26
  48  0.835  0.645  0.330-   8 2.00  24 2.08  36 2.08
  49  0.821  0.293  0.037-  23 2.02  25 2.06   1 2.07
  50  0.829  0.314  0.214-   2 2.04  25 2.10  23 2.13  26 2.18  24 2.25   1 2.36
  51  0.312  0.814  0.119-  27 1.99   3 2.16  21 2.25   4 2.26  28 2.26
  52  0.342  0.809  0.292-  29 2.05  22 2.10   4 2.14  28 2.17
  53  0.484  0.314  0.151-  30 2.00   5 2.08  16 2.25  31 2.26   6 2.26
  54  0.521  0.298  0.323-  17 2.02  31 2.08   6 2.08
  55  0.996  0.810  0.233-   8 2.06   7 2.18  14 2.18  32 2.24  56 2.63
  56  0.970  0.816  0.073-  32 2.09  13 2.09   7 2.10  55 2.63
  57  0.141  0.322  0.107-  33 2.11   9 2.12  20 2.13  58 2.61
  58  0.173  0.303  0.264-  34 2.03  10 2.04   9 2.15  33 2.18  57 2.61
  59  0.657  0.814  0.183-  11 2.19  19 2.25  36 2.26  12 2.26  35 2.28  60 2.77
  60  0.692  0.797  0.350-  12 2.03  36 2.03  59 2.77
  61  0.312  0.477  0.119-  15 1.99   3 2.16  33 2.25   4 2.26  16 2.26
  62  0.342  0.481  0.292-  17 2.05  34 2.10   4 2.14  16 2.17
  63  0.821  0.997  0.037-  35 2.02  13 2.06   1 2.07
  64  0.829  0.977  0.214-   2 2.04  13 2.10  35 2.13  14 2.18  36 2.25   1 2.36
  65  0.996  0.481  0.233-   8 2.06   7 2.18  26 2.18  20 2.24  66 2.63
  66  0.970  0.475  0.073-  20 2.09  25 2.09   7 2.10  65 2.63
  67  0.484  0.977  0.151-  18 2.00   5 2.08  28 2.25  19 2.26   6 2.26
  68  0.521  0.993  0.323-  29 2.02  19 2.08   6 2.08
  69  0.657  0.477  0.183-  11 2.19  31 2.25  24 2.26  12 2.26  23 2.28  70 2.77
  70  0.692  0.494  0.350-  12 2.03  24 2.03  69 2.77
  71  0.141  0.969  0.107-  21 2.11   9 2.12  32 2.13  72 2.61
  72  0.173  0.988  0.264-  22 2.03  10 2.04   9 2.15  21 2.18  71 2.61

  LATTYP: Found a simple orthorhombic cell.
 ALAT       =     9.5784100000
 B/A-ratio  =     1.6880763216
 C/A-ratio  =     1.7627867312

  Lattice vectors:

 A1 = (   0.0000000000,   9.5784100000,   0.0000000000)
 A2 = (   0.0000000000,   0.0000000000, -16.1690871197)
 A3 = ( -16.8846940542,   0.0000000000,   0.0000000000)

Analysis of symmetry for initial positions (statically):
 Subroutine PRICEL returns:
 Original cell was already a primitive cell.

 Routine SETGRP: Setting up the symmetry group for a
 simple orthorhombic supercell.

 Subroutine GETGRP returns: Found  2 space group operations
 (whereof  1 operations were pure point group operations)
 out of a pool of  8 trial point group operations.

The static configuration has the point symmetry C_1 .
 The point group associated with its full space group is C_1h.

Analysis of symmetry for dynamics (positions and initial velocities):
 Subroutine PRICEL returns:
 Original cell was already a primitive cell.

 Routine SETGRP: Setting up the symmetry group for a
 simple orthorhombic supercell.

 Subroutine GETGRP returns: Found  2 space group operations
 (whereof  1 operations were pure point group operations)
 out of a pool of  8 trial point group operations.

The dynamic configuration has the point symmetry C_1 .
 The point group associated with its full space group is C_1h.

 Subroutine INISYM returns: Found  2 space group operations
 (whereof  1 operations are pure point group operations),
 and found     1 'primitive' translations

 KPOINTS: gamma-point-only calculation. no periodi

Automatic generation of k-mesh.
Space group operators:
 irot       det(A)        alpha          n_x          n_y          n_z        tau_x        tau_y        tau_z
    1     1.000000     0.000000     1.000000     0.000000     0.000000     0.000000     0.000000     0.000000
    2    -1.000000   180.000000     0.000000     1.000000     0.000000     0.000000     0.290594     0.000000

 Subroutine IBZKPT returns following result:

 Found      1 irreducible k-points:

 Following reciprocal coordinates:
            Coordinates               Weight
  0.000000  0.000000  0.000000      1.000000

 Following cartesian coordinates:
            Coordinates               Weight
  0.000000  0.000000  0.000000      1.000000

 SYSTEM =  "Millerite NiS"
 POSCAR =  Type_036 Type_136

 Startparameter for this run:
   NWRITE =      2    write-flag & timer
   PREC   = normal    normal or accurate (medium, high low for compatibility)
   ISTART =      0    job   : 0-new  1-cont  2-samecut
   ICHARG =      2    charge: 1-file 2-atom 10-const
   ISPIN  =      1    spin polarized calculation?
   LNONCOLLINEAR =      F non collinear calculations
   LSORBIT =      F    spin-orbit coupling
   INIWAV =      1    electr: 0-lowe 1-rand  2-diag
   LASPH  =      F    aspherical Exc in radial PAW
   METAGGA=      F    non-selfconsistent MetaGGA calc.

 Electronic Relaxation 1
   ENCUT  =  450.0 eV  33.07 Ry    5.75 a.u.  29.20 16.57 27.97*2*pi/ulx,y,z
   ENINI  =  450.0     initial cutoff
   ENAUG  =  703.4 eV  augmentation charge cutoff
   NELM   =    100;   NELMIN=  2; NELMDL= -5     # of ELM steps
   EDIFF  = 0.1E-03   stopping-criterion for ELM
   LREAL  =      T    real-space projection
   NLSPLINE    = F    spline interpolate recip. space projectors
   LCOMPAT=      F    compatible to vasp.4.4
   GGA_COMPAT  = T    GGA compatible to vasp.4.4-vasp.4.6
   LMAXPAW     = -100 max onsite density
   LMAXMIX     =    2 max onsite mixed and CHGCAR
   VOSKOWN=      0    Vosko Wilk Nusair interpolation
   ROPT   =   -0.00050  -0.00050
 Ionic relaxation
   EDIFFG = 0.1E-02   stopping-criterion for IOM
   NSW    =      0    number of steps for IOM
   NBLOCK =      1;   KBLOCK =      1    inner block; outer block
   IBRION =     -1    ionic relax: 0-MD 1-quasi-New 2-CG
   NFREE  =      0    steps in history (QN), initial steepest desc. (CG)
   ISIF   =      2    stress and relaxation
   IWAVPR =     10    prediction:  0-non 1-charg 2-wave 3-comb
   ISYM   =      2    0-nonsym 1-usesym 2-fastsym
   LCORR  =      T    Harris-Foulkes like correction to forces

   POTIM  = 0.5000    time-step for ionic-motion
   TEIN   =    0.0    initial temperature
   TEBEG  =    0.0;   TEEND  =   0.0 temperature during run
   SMASS  =  -3.00    Nose mass-parameter (am)
   estimated Nose-frequenzy (Omega)   =  0.10E-29 period in steps =****** mass=  -0.652E-26a.u.
   SCALEE = 1.0000    scale energy and forces
   NPACO  =    256;   APACO  = 16.0  distance and # of slots for P.C.
   PSTRESS=    0.0 pullay stress

  Mass of Ions in am
   POMASS =  58.69 32.07
  Ionic Valenz
   ZVAL   =  16.00  6.00
  Atomic Wigner-Seitz radii
  virtual crystal weights
   VCA    =   1.00  1.00
   NELECT =     792.0000    total number of electrons
   NUPDOWN=      -1.0000    fix difference up-down

 DOS related values:
   EMIN   =  10.00;   EMAX   =-10.00  energy-range for DOS
   EFERMI =   0.00
   ISMEAR =     0;   SIGMA  =   0.20  broadening in eV -4-tet -1-fermi 0-gaus

 Electronic relaxation 2 (details)
   IALGO  =     38    algorithm
   LDIAG  =      T    sub-space diagonalisation (order eigenvalues)
   LSUBROT=      F    optimize rotation matrix (better conditioning)
   TURBO    =      0    0=normal 1=particle mesh
   IRESTART =      0    0=no restart 2=restart with 2 vectors
   NREBOOT  =      0    no. of reboots
   NMIN     =      0    reboot dimension
   EREF     =   0.00    reference energy to select bands
   IMIX   =      4    mixing-type and parameters
     AMIX     =   0.40;   BMIX     =  1.00
     AMIX_MAG =   1.60;   BMIX_MAG =  1.00
     AMIN     =   0.10
     WC   =   100.;   INIMIX=   1;  MIXPRE=   1;  MAXMIX= -45

 Intra band minimization:
   WEIMIN = 0.0000     energy-eigenvalue tresh-hold
   EBREAK =  0.53E-07  absolut break condition
   DEPER  =   0.30     relativ break condition

   TIME   =   0.40     timestep for ELM

  volume/ion in A,a.u.               =      36.32       245.10
  Fermi-wavevector in a.u.,A,eV,Ry     =   1.099409  2.077581 16.445356  1.208700
[...]
  Fock        0.00000     0.00000     0.00000     0.00000     0.00000     0.00000
  Total     112.08267   107.72191   139.13614     0.00000     0.00000    -1.04682
  in kB      68.67156    65.99979    85.24686     0.00000     0.00000    -0.64137

 VOLUME and BASIS-vectors are now :
  energy-cutoff  :      450.00
  volume of cell :     2615.00
      direct lattice vectors                 reciprocal lattice vectors
    16.884694054  0.000000000  0.000000000     0.059225237  0.000000000  0.000000000
     0.000000000  9.578410000  0.000000000     0.000000000  0.104401461  0.000000000
     0.000000000  0.000000000 16.169087120     0.000000000  0.000000000  0.061846411

  length of vectors
    16.884694054  9.578410000 16.169087120     0.059225237  0.104401461  0.061846411

 FORCES acting on ions
    electron-ion (+dipol)            ewald-force                    non-local-force                 convergence-correction
   0.298E+03 -.960E-03 0.196E+04   -.302E+03 -.398E-07 -.197E+04   0.440E+01 0.000E+00 0.554E+01   -.242E-01 -.273E-06 -.150E-01
   0.672E+02 -.113E-02 -.292E+04   -.716E+02 0.274E-07 0.292E+04   0.480E+01 0.000E+00 0.188E+01   -.321E-01 -.188E-06 -.502E-02
   0.546E+03 -.906E-03 0.279E+04   -.549E+03 0.334E-08 -.279E+04   0.371E+01 0.000E+00 0.404E+01   0.245E-01 0.104E-07 -.620E-02
   0.109E+04 -.832E-03 -.135E+04   -.109E+04 -.167E-08 0.135E+04   0.420E+00 0.000E+00 -.525E+01   0.115E-01 -.712E-07 -.190E-01
   0.505E+03 -.688E-03 0.262E+04   -.511E+03 0.850E-07 -.263E+04   0.661E+01 0.000E+00 0.453E+01   0.191E-04 -.435E-07 -.603E-03
   0.399E+03 -.801E-03 -.183E+04   -.403E+03 0.233E-07 0.183E+04   0.284E+01 0.000E+00 -.534E+01   -.553E-02 0.510E-07 -.163E-01
   0.191E+03 -.906E-03 0.117E+04   -.198E+03 0.412E-07 -.117E+04   0.618E+01 0.000E+00 0.287E+01   0.506E-02 -.186E-07 -.276E-01
   -.602E+03 -.114E-02 -.312E+04   0.602E+03 -.148E-07 0.312E+04   0.107E+01 0.000E+00 0.537E+00   0.885E-02 -.947E-07 -.652E-02
   0.709E+03 -.774E-03 0.651E+03   -.715E+03 -.164E-07 -.655E+03   0.491E+01 0.000E+00 0.375E+01   0.300E-01 -.104E-06 -.192E-01
   0.388E+03 -.927E-03 -.351E+04   -.391E+03 -.243E-08 0.352E+04   0.376E+01 0.000E+00 -.124E+00   0.263E-01 -.966E-07 -.209E-02
   -.509E+03 -.834E-03 0.161E+04   0.513E+03 -.121E-07 -.161E+04   -.288E+01 0.000E+00 0.456E+01   -.279E-01 -.830E-07 -.122E-01
   0.694E+02 -.809E-03 -.236E+04   -.721E+02 0.119E-07 0.237E+04   0.210E+01 0.000E+00 -.670E+01   -.260E-01 0.202E-07 0.143E-03
   -.686E+03 0.141E+03 0.222E+04   0.691E+03 -.143E+03 -.223E+04   -.521E+01 0.264E+01 0.635E+01   -.351E-02 -.395E-02 -.279E-01
   -.335E+03 0.511E+03 -.241E+04   0.337E+03 -.514E+03 0.241E+04   -.268E+01 0.267E+01 -.309E+01   0.436E-02 -.651E-02 -.907E-02
   0.172E+02 0.617E+03 0.381E+04   -.192E+02 -.613E+03 -.381E+04   0.224E+01 -.430E+01 -.171E+01   -.640E-02 0.148E-02 -.156E-02
   -.217E+02 0.473E+03 0.639E+02   0.219E+02 -.477E+03 -.643E+02   -.129E+00 0.331E+01 -.544E+00   -.965E-02 -.862E-02 -.903E-02
   0.122E+02 0.139E+03 -.367E+04   -.109E+02 -.142E+03 0.367E+04   -.118E+01 0.342E+01 0.273E+01   -.569E-02 -.559E-02 -.303E-04
   -.371E+03 0.674E+03 0.349E+04   0.369E+03 -.668E+03 -.350E+04   0.155E+01 -.604E+01 -.505E+00   -.248E-01 0.130E-01 0.431E-02
   -.534E+03 0.448E+03 -.999E+03   0.537E+03 -.453E+03 0.100E+04   -.286E+01 0.469E+01 -.362E+01   -.289E-01 0.149E-01 -.102E-01
   -.133E+03 0.487E+03 0.132E+04   0.134E+03 -.494E+03 -.132E+04   -.143E+01 0.544E+01 0.149E+01   0.259E-01 0.101E-02 -.167E-01
   0.276E+03 0.442E+03 0.119E+04   -.274E+03 -.445E+03 -.120E+04   -.121E+01 0.222E+01 0.511E+01   0.226E-01 0.230E-02 -.176E-01
   0.245E+03 0.456E+03 -.325E+04   -.244E+03 -.458E+03 0.325E+04   -.600E+00 0.122E+01 0.118E+01   0.223E-01 -.141E-02 -.103E-01
   0.216E+03 -.454E+03 0.245E+04   -.218E+03 0.456E+03 -.246E+04   0.145E+01 -.184E+01 0.725E+01   -.145E-01 -.261E-02 -.162E-01
   -.388E+03 0.347E+03 -.173E+04   0.390E+03 -.349E+03 0.174E+04   -.178E+01 0.256E+01 -.449E+01   -.131E-01 -.681E-02 -.173E-01
   -.686E+03 -.141E+03 0.222E+04   0.691E+03 0.143E+03 -.223E+04   -.521E+01 -.264E+01 0.635E+01   -.351E-02 0.395E-02 -.279E-01
   -.335E+03 -.511E+03 -.241E+04   0.337E+03 0.514E+03 0.241E+04   -.268E+01 -.267E+01 -.309E+01   0.436E-02 0.651E-02 -.907E-02
   0.172E+02 -.617E+03 0.381E+04   -.192E+02 0.613E+03 -.381E+04   0.224E+01 0.430E+01 -.171E+01   -.640E-02 -.148E-02 -.156E-02
   -.217E+02 -.473E+03 0.639E+02   0.219E+02 0.477E+03 -.643E+02   -.129E+00 -.331E+01 -.544E+00   -.965E-02 0.862E-02 -.903E-02
   0.122E+02 -.139E+03 -.367E+04   -.109E+02 0.142E+03 0.367E+04   -.118E+01 -.342E+01 0.273E+01   -.569E-02 0.559E-02 -.303E-04
   -.371E+03 -.674E+03 0.349E+04   0.369E+03 0.668E+03 -.350E+04   0.155E+01 0.604E+01 -.505E+00   -.248E-01 -.130E-01 0.431E-02
   -.534E+03 -.448E+03 -.999E+03   0.537E+03 0.453E+03 0.100E+04   -.286E+01 -.469E+01 -.362E+01   -.289E-01 -.149E-01 -.102E-01
   -.133E+03 -.487E+03 0.132E+04   0.134E+03 0.494E+03 -.132E+04   -.143E+01 -.544E+01 0.149E+01   0.259E-01 -.101E-02 -.167E-01
   0.276E+03 -.442E+03 0.119E+04   -.274E+03 0.445E+03 -.120E+04   -.121E+01 -.222E+01 0.511E+01   0.226E-01 -.230E-02 -.176E-01
   0.245E+03 -.456E+03 -.325E+04   -.244E+03 0.458E+03 0.325E+04   -.600E+00 -.122E+01 0.118E+01   0.223E-01 0.141E-02 -.103E-01
   0.216E+03 0.454E+03 0.245E+04   -.218E+03 -.456E+03 -.246E+04   0.145E+01 0.184E+01 0.725E+01   -.145E-01 0.261E-02 -.162E-01
   -.388E+03 -.347E+03 -.173E+04   0.390E+03 0.349E+03 0.174E+04   -.178E+01 -.256E+01 -.449E+01   -.131E-01 0.681E-02 -.173E-01
   -.769E+00 -.207E-04 -.144E+04   0.129E+01 -.846E-09 0.145E+04   -.814E+00 0.000E+00 -.200E+01   0.113E-01 -.875E-08 0.632E-02
   -.309E+03 0.656E-05 0.299E+03   0.312E+03 -.441E-10 -.304E+03   -.716E+00 0.000E+00 0.169E+01   0.114E-01 -.178E-07 -.128E-01
   -.392E+03 -.353E-04 0.113E+04   0.395E+03 -.318E-07 -.114E+04   -.167E+01 0.000E+00 0.174E+01   -.161E-01 -.150E-07 -.938E-02
   -.153E+03 0.899E-05 -.897E+03   0.153E+03 0.179E-07 0.902E+03   0.968E+00 0.000E+00 -.355E+01   -.138E-01 -.226E-07 0.681E-02
   -.337E+03 0.836E-05 0.765E+03   0.339E+03 -.245E-07 -.767E+03   0.215E+00 0.000E+00 0.132E+01   -.124E-01 -.206E-07 -.188E-02
   -.129E+03 -.662E-05 -.117E+04   0.131E+03 0.128E-07 0.118E+04   -.231E+00 0.000E+00 -.199E+01   -.134E-01 -.431E-07 -.446E-02
   0.115E+03 -.329E-05 0.154E+04   -.116E+03 0.117E-07 -.155E+04   0.105E+01 0.000E+00 0.271E+01   0.866E-02 0.265E-07 -.177E-02
   0.160E+03 -.721E-05 -.486E+03   -.162E+03 0.967E-08 0.492E+03   0.176E+01 0.000E+00 -.372E+01   0.104E-01 0.749E-08 -.637E-02
   0.172E+03 0.734E-05 0.141E+04   -.172E+03 0.189E-07 -.141E+04   0.891E+00 0.000E+00 0.180E+01   0.878E-02 -.204E-07 0.171E-02
   -.961E+02 0.556E-04 -.470E+03   0.969E+02 0.509E-08 0.472E+03   0.833E+00 0.000E+00 -.217E+01   0.975E-02 0.224E-07 -.914E-02
   -.801E+02 -.637E-04 0.684E+03   0.815E+02 -.172E-07 -.687E+03   -.101E+01 0.000E+00 0.197E+01   -.350E-02 0.397E-07 -.772E-02
   -.164E+03 -.216E-04 -.145E+04   0.168E+03 -.932E-08 0.145E+04   -.239E+01 0.000E+00 -.197E+01   -.630E-02 0.153E-07 0.418E-03
   -.295E+02 -.838E+02 0.165E+04   0.298E+02 0.849E+02 -.166E+04   -.468E+00 -.361E+00 0.275E+01   -.497E-02 0.401E-03 -.414E-02
   -.137E+02 -.121E+03 -.396E+03   0.135E+02 0.121E+03 0.400E+03   -.494E+00 0.716E+00 -.197E+01   -.108E-01 0.142E-02 -.749E-02
   0.284E+03 -.260E+03 0.666E+03   -.285E+03 0.263E+03 -.669E+03   -.276E-01 -.814E+00 0.303E+01   0.627E-02 -.468E-03 -.745E-02
   0.360E+03 0.349E+02 -.109E+04   -.361E+03 -.346E+02 0.109E+04   0.422E+00 -.139E+00 -.168E+01   0.883E-02 -.292E-03 -.220E-02
   0.794E+02 -.211E+03 0.409E+03   -.811E+02 0.213E+03 -.411E+03   0.381E+00 -.271E+00 0.205E+01   -.516E-02 -.742E-02 -.356E-02
   -.131E+03 0.359E+02 -.140E+04   0.131E+03 -.351E+02 0.141E+04   -.765E-01 -.620E+00 -.215E+01   -.833E-02 -.261E-03 -.458E-02
   -.266E+03 -.942E+02 -.591E+03   0.267E+03 0.943E+02 0.595E+03   -.726E+00 0.392E+00 -.144E+01   0.925E-02 -.140E-02 -.820E-02
   0.983E+01 -.513E+02 0.132E+04   -.110E+02 0.509E+02 -.133E+04   0.628E+00 0.976E+00 0.387E+01   0.339E-02 -.143E-02 -.648E-02
   0.171E+03 -.425E+01 0.102E+04   -.172E+03 0.334E+01 -.103E+04   0.195E+00 0.960E+00 0.393E+01   0.100E-01 -.649E-03 -.266E-02
   0.306E+03 -.484E+03 -.719E+03   -.309E+03 0.490E+03 0.721E+03   0.179E+01 -.331E+01 -.149E+01   0.814E-02 0.222E-03 -.733E-02
   -.229E+02 -.606E+02 0.325E+03   0.209E+02 0.632E+02 -.327E+03   0.166E+01 -.164E+01 0.810E+00   -.614E-02 0.881E-02 -.467E-02
   -.273E+02 -.258E+03 -.154E+04   0.261E+02 0.262E+03 0.154E+04   0.804E+00 -.179E+01 -.107E+01   -.876E-02 0.445E-02 0.140E-02
   0.284E+03 0.260E+03 0.666E+03   -.285E+03 -.263E+03 -.669E+03   -.276E-01 0.814E+00 0.303E+01   0.627E-02 0.468E-03 -.745E-02
   0.360E+03 -.349E+02 -.109E+04   -.361E+03 0.346E+02 0.109E+04   0.422E+00 0.139E+00 -.168E+01   0.883E-02 0.292E-03 -.220E-02
   -.295E+02 0.838E+02 0.165E+04   0.298E+02 -.849E+02 -.166E+04   -.468E+00 0.361E+00 0.275E+01   -.497E-02 -.401E-03 -.414E-02
   -.137E+02 0.121E+03 -.396E+03   0.135E+02 -.121E+03 0.400E+03   -.494E+00 -.716E+00 -.197E+01   -.108E-01 -.142E-02 -.749E-02
   -.266E+03 0.942E+02 -.591E+03   0.267E+03 -.943E+02 0.595E+03   -.726E+00 -.392E+00 -.144E+01   0.925E-02 0.140E-02 -.820E-02
   0.983E+01 0.513E+02 0.132E+04   -.110E+02 -.509E+02 -.133E+04   0.628E+00 -.976E+00 0.387E+01   0.339E-02 0.143E-02 -.648E-02
   0.794E+02 0.211E+03 0.409E+03   -.811E+02 -.213E+03 -.411E+03   0.381E+00 0.271E+00 0.205E+01   -.516E-02 0.742E-02 -.356E-02
   -.131E+03 -.359E+02 -.140E+04   0.131E+03 0.351E+02 0.141E+04   -.765E-01 0.620E+00 -.215E+01   -.833E-02 0.261E-03 -.458E-02
   -.229E+02 0.606E+02 0.325E+03   0.209E+02 -.632E+02 -.327E+03   0.166E+01 0.164E+01 0.810E+00   -.614E-02 -.881E-02 -.467E-02
   -.273E+02 0.258E+03 -.154E+04   0.261E+02 -.262E+03 0.154E+04   0.804E+00 0.179E+01 -.107E+01   -.876E-02 -.445E-02 0.140E-02
   0.171E+03 0.425E+01 0.102E+04   -.172E+03 -.334E+01 -.103E+04   0.195E+00 -.960E+00 0.393E+01   0.100E-01 0.649E-03 -.266E-02
   0.306E+03 0.484E+03 -.719E+03   -.309E+03 -.490E+03 0.721E+03   0.179E+01 0.331E+01 -.149E+01   0.814E-02 -.222E-03 -.733E-02
   -.213E+02 -.742E-02 -.392E+02   -.796E-12 0.227E-12 -.125E-11   0.213E+02 0.178E-14 0.397E+02   -.740E-01 -.214E-06 -.545E+00

 POSITION                                       TOTAL-FORCE (eV/Angst)
     13.17084      1.39171      1.94975        -0.007986     -0.000000      0.904123
     13.41883      1.39171      4.58030         0.304932     -0.000000      0.818415
      3.95391      6.18092      1.32306         1.053875     -0.000000     -1.075103
      5.02033      6.18092      3.49202        -0.225595     -0.000000     -0.300223
      7.11478      1.39171      1.64967         0.755518     -0.000000     -1.200587
      7.93172      1.39171      4.00611        -0.922978     -0.000000     -1.418695
     16.08224      6.18092      2.46384        -1.020037     -0.000000     -0.150815
     16.04514      6.18092      4.84514         0.816048     -0.000000      1.045794
      2.10894      1.39171      2.97793        -0.924065     -0.000000     -0.293389
      2.22695      1.39171      5.45541         0.576913     -0.000000      1.292790
      9.64944      6.18092      2.58180         0.280418     -0.000000     -0.666943
     10.84312      6.18092      4.52020        -0.601817     -0.000000     -0.892246
     15.42685      9.51771      1.93201         0.556897      0.766387      0.014160
     15.96367      0.09530      4.36974        -0.832463     -0.543826      0.393141
      6.64106      4.96499      0.54412         0.193095     -0.520357     -1.126571
      7.17375      4.91558      3.08454         0.070758     -0.306278     -1.017867
      7.70709      4.55000      5.41964         0.119226      0.458032      0.977623
      9.53329      0.19287      1.03567         0.081244     -0.358015     -1.121832
     10.08514      0.12638      3.59863         0.339738     -0.492499     -1.412127
      1.35096      4.91558      2.05636         0.187322     -0.656116      1.506543
      4.26235      0.12638      2.57045         0.510390     -0.792112      0.813738
      4.77348      9.55279      5.10938         0.330590     -0.250864      1.192001
     13.06482      4.12196      1.91090        -0.906342      0.992037      0.330013
     12.99653      4.91558      4.11272         0.367029      0.039600     -1.443611
     15.42685      2.84413      1.93201         0.556897     -0.766387      0.014160
     15.96367      2.68813      4.36974        -0.832463      0.543826      0.393141
      6.64106      7.39685      0.54412         0.193095      0.520357     -1.126571
      7.17375      7.44626      3.08454         0.070758      0.306278     -1.017867
      7.70709      7.81183      5.41964         0.119226     -0.458032      0.977623
      9.53329      2.59056      1.03567         0.081244      0.358015     -1.121832
     10.08514      2.65705      3.59863         0.339738      0.492499     -1.412127
      1.35096      7.44626      2.05636         0.187322      0.656116      1.506543
      4.26235      2.65705      2.57045         0.510390      0.792112      0.813738
      4.77348      2.80905      5.10938         0.330590      0.250864      1.192001
     13.06482      8.23988      1.91090        -0.906342     -0.992037      0.330013
     12.99653      7.44626      4.11272         0.367029     -0.039600     -1.443611
      0.17283      1.39171      5.58064        -0.278405     -0.000000      2.978788
     16.74052      1.39171      2.94940         1.506421     -0.000000     -2.836784
      8.00634      6.18092      1.40713         1.518553     -0.000000     -1.542743
      8.59001      6.18092      4.49167         0.689159     -0.000000      1.140980
     10.91773      1.39171      1.92122         1.958603     -0.000000     -1.069995
     11.36613      1.39171      4.67015         0.971047     -0.000000      2.733543
      2.03993      6.18092      0.56706         0.513247     -0.000000     -4.091849
      2.82692      6.18092      3.05718        -0.319480     -0.000000      2.409043
      5.11859      1.39171      1.17700         0.686240     -0.000000     -3.658575
      5.67861      1.39171      3.97758         1.708703     -0.000000     -0.140657
     13.82913      6.18092      2.43531         0.335232     -0.000000     -1.557149
     14.10525      6.18092      5.34136         0.751825     -0.000000      2.790219
     13.85493      2.80904      0.59881        -0.181760      0.733769     -3.867927
     13.99844      3.00295      3.46826        -0.684318      1.041969      1.896686
      5.26426      7.79215      1.92599        -1.084435      1.455621     -0.181605
      5.78044      7.75280      4.72170        -0.824118      0.190888      1.996560
      8.17565      3.00295      2.44008        -1.302873      1.780364      0.295466
      8.79016      2.85352      5.21885         0.296801      0.144219      2.852820
     16.82194      7.75927      3.76565         0.829688      0.514070      2.287566
     16.38170      7.81518      1.17315        -0.501393      0.510136     -3.064659
      2.37969      3.08122      1.72506        -0.670625      0.046394     -2.326725
      2.92851      2.89763      4.27263        -1.264599      2.525709      0.934296
     11.08705      7.79215      2.95417        -0.300392      0.986401     -1.153569
     11.68673      7.63485      5.65191        -0.392648      1.690395      3.616908
      5.26426      4.56969      1.92599        -1.084435     -1.455621     -0.181605
      5.78044      4.60904      4.72170        -0.824118     -0.190888      1.996560
     13.85493      9.55280      0.59881        -0.181760     -0.733769     -3.867927
     13.99844      9.35889      3.46826        -0.684318     -1.041969      1.896686
     16.82194      4.60257      3.76565         0.829688     -0.514070      2.287566
     16.38170      4.54665      1.17315        -0.501393     -0.510136     -3.064659
      8.17565      9.35889      2.44008        -1.302873     -1.780364      0.295466
      8.79016      9.50832      5.21885         0.296801     -0.144219      2.852820
     11.08705      4.56969      2.95417        -0.300392     -0.986401     -1.153569
     11.68673      4.72698      5.65191        -0.392648     -1.690395      3.616908
      2.37969      9.28062      1.72506        -0.670625     -0.046394     -2.326725
      2.92851      9.46421      4.27263        -1.264599     -2.525709      0.934296
    total drift:                               -0.003281     -0.007419      0.005567

  FREE ENERGIE OF THE ION-ELECTRON SYSTEM (eV)
  free  energy   TOTEN  =      -340.42157491 eV

  energy  without entropy=     -339.08870763  energy(sigma->0) =     -339.75514127