 vasp.5.4.4.18Apr17-6-g9f103f2a35 (build Aug 13 2019 17:33:20) gamma-only

 executed on             LinuxIFC date 2020.05.10  17:04:36

 INCAR:
 POTCAR:    PAW_PBE Ni_pv 06Sep2000
 POTCAR:    PAW_PBE S 06Sep2000
 POTCAR:    PAW_PBE Ni_pv 06Sep2000
   VRHFIN =Ni:

   TITEL  = PAW_PBE Ni_pv 06Sep2000
   POMASS =   58.690; ZVAL   =   16.000    mass and valenz
   ENMAX  =  367.986; ENMIN  =  275.989 eV

 POTCAR:    PAW_PBE S 06Sep2000
   VRHFIN =S : s2p4

   TITEL  = PAW_PBE S 06Sep2000
   POMASS =   32.066; ZVAL   =    6.000    mass and valenz
   ENMAX  =  258.689; ENMIN  =  194.016 eV

 Optimization of the real space projectors (new method)

 maximal supplied QI-value         = 18.90
 optimisation between [QCUT,QGAM] = [ 10.77, 21.73] = [ 32.49,132.25] Ry
 Optimized for a Real-space Cutoff    1.38 Angstroem

   l    n(q)    QCUT    max X(q) W(low)/X(q) W(high)/X(q)  e(spline)
   1      8    10.771     2.836    0.40E-04    0.29E-04    0.12E-06
   1      8    10.771     4.023    0.10E-03    0.48E-04    0.29E-06
   2      8    10.771    73.368    0.42E-03    0.97E-04    0.44E-06
   2      8    10.771    69.010    0.42E-03    0.99E-04    0.45E-06
   0      9    10.771    54.797    0.10E-03    0.56E-04    0.74E-07
   0      9    10.771    24.266    0.89E-04    0.49E-04    0.67E-07
 Optimization of the real space projectors (new method)

 maximal supplied QI-value         = 19.84
 optimisation between [QCUT,QGAM] = [ 10.71, 21.63] = [ 32.15,130.99] Ry
 Optimized for a Real-space Cutoff    1.19 Angstroem

   l    n(q)    QCUT    max X(q) W(low)/X(q) W(high)/X(q)  e(spline)
   0      8    10.715   187.594    0.41E-03    0.53E-04    0.66E-07
   0      8    10.715   164.243    0.41E-03    0.53E-04    0.65E-07
   1      7    10.715    67.533    0.19E-03    0.59E-03    0.68E-07
   1      7    10.715    50.729    0.19E-03    0.58E-03    0.67E-07
  PAW_PBE Ni_pv 06Sep2000               :
  PAW_PBE S 06Sep2000                   :

 POSCAR: Type_048 Type_148
  positions in cartesian coordinates
 exchange correlation table for  LEXCH =        8
   RHO(1)=    0.500       N(1)  =     2000
   RHO(2)=  100.500       N(2)  =     4000

 ion  position               nearest neighbor table
   1  0.261  0.479  0.253-  74 2.25  59 2.26  81 2.26  55 2.36  60 2.36   7 2.53  21 2.53
   2  0.355  0.385  0.388-  75 2.25  55 2.26  60 2.26   3 2.36  61 2.36  67 2.36   8 2.53  22 2.53

   3  0.369  0.370  0.497-  53 2.04  61 2.10  67 2.11   2 2.36
   4  0.167  0.073  0.118-  56 2.07  82 2.08  65 2.25  57 2.36  83 2.36  36 2.44  30 2.53
   5  0.041  0.054  0.466-  50 2.02  73 2.02  78 2.07
   6  0.274  0.333  0.083-  51 1.99  58 2.07  56 2.10  52 2.36  59 2.36  12 2.48  28 2.53
   7  0.368  0.239  0.218-  57 2.25  59 2.26  52 2.26  60 2.36  62 2.36   1 2.53  21 2.53
   8  0.462  0.145  0.353-  79 2.25  60 2.26  62 2.26  61 2.36  63 2.36   2 2.53  22 2.53
   9  0.000  0.372  0.218-  59 2.25  65 2.26  93 2.26  49 2.36  68 2.36  13 2.53  19 2.53  24 2.54

[...]

  39  0.870  0.871  0.497-  90 2.04  78 2.10  96 2.11  38 2.36
  40  0.634  0.606  0.174-  77 2.01  93 2.18  71 2.19  86 2.21  13 2.29
  41  0.551  0.550  0.473-  87 2.05  66 2.08  67 2.11  85 2.13  27 2.47
  42  0.788  0.831  0.104-  88 1.99  94 2.03  89 2.04  48 2.46
  43  0.868  0.739  0.218-  93 2.25  94 2.26  89 2.26  95 2.36  74 2.36  37 2.53  33 2.53
  44  0.962  0.645  0.353-  68 2.25  95 2.26  74 2.26  96 2.36  75 2.36  38 2.53  34 2.53
  45  0.500  0.872  0.218-  94 2.25  77 2.26  57 2.26  86 2.36  79 2.36  25 2.53  31 2.53
  46  0.594  0.778  0.353-  95 2.25  86 2.26  79 2.26  91 2.36  87 2.36  32 2.53  26 2.53
  47  0.690  0.689  0.473-  87 2.05  66 2.08  96 2.11  91 2.13  27 2.47
  48  0.906  0.965  0.083-  88 2.00  69 2.07  82 2.10  89 2.36  70 2.36  42 2.46
  49  0.073  0.167  0.270-  25 2.25  10 2.26  20 2.26   9 2.36  19 2.36
  50  0.167  0.073  0.405-  11 2.02   5 2.02  26 2.25  10 2.36  20 2.36
  51  0.364  0.396  0.020-   6 1.99  12 2.01  80 2.77
  52  0.479  0.261  0.135-  12 2.12  16 2.22   7 2.26  21 2.26   6 2.36
  53  0.207  0.532  0.528-   3 2.04  35 2.07  29 2.07  75 2.72
  54  0.030  0.378  0.451-  11 2.02  15 2.12  29 2.14  10 2.36  14 2.36
  55  0.436  0.472  0.315-  32 2.25   2 2.26  22 2.26   1 2.36  21 2.36
  56  0.271  0.151  0.067-   4 2.07   6 2.10  36 2.14  57 2.64  76 2.75
  57  0.342  0.066  0.180-  36 2.06   7 2.25  25 2.26  45 2.26   4 2.36  56 2.64
  58  0.089  0.482  0.060-  28 2.05  24 2.06   6 2.07
  59  0.174  0.397  0.180-   9 2.25   7 2.26   1 2.26   6 2.36  28 2.36
  60  0.268  0.303  0.315-  10 2.25   2 2.26   8 2.26   7 2.36   1 2.36
  61  0.362  0.209  0.451-  11 2.07   3 2.10  17 2.10   8 2.36   2 2.36
  62  0.573  0.167  0.270-  37 2.25  22 2.26   8 2.26  21 2.36   7 2.36
  63  0.667  0.073  0.405-  17 2.04  23 2.05  38 2.25  22 2.36   8 2.36  90 2.72
  64  0.787  0.438  0.068-  24 2.05  18 2.05  65 2.63
  65  0.979  0.261  0.135-  24 2.06  18 2.09   4 2.25  19 2.26   9 2.26  64 2.63
  66  0.703  0.536  0.530-  15 2.04  47 2.08  41 2.08  87 2.76
  67  0.530  0.378  0.451-  23 2.10   3 2.11  41 2.11  22 2.36   2 2.36
  68  0.936  0.472  0.315-  44 2.25  14 2.26  10 2.26  13 2.36   9 2.36
  69  0.740  0.143  0.066-  18 2.05  48 2.07  16 2.08  70 2.73  88 2.74
  70  0.842  0.066  0.180-  16 2.07  19 2.25  37 2.26  33 2.26  48 2.36  18 2.63  69 2.73
  71  0.674  0.397  0.180-  18 2.11  40 2.19  21 2.25  19 2.26  13 2.26
  72  0.768  0.303  0.315-  22 2.25  14 2.26  20 2.26  19 2.36  13 2.36
  73  0.862  0.209  0.451-   5 2.02  15 2.12  23 2.14  20 2.36  14 2.36
  74  0.073  0.667  0.270-   1 2.25  34 2.26  44 2.26  33 2.36  43 2.36
  75  0.167  0.573  0.405-  35 2.04  29 2.05   2 2.25  34 2.36  44 2.36  53 2.72
  76  0.360  0.899  0.020-  30 1.99  36 2.01  56 2.75
  77  0.479  0.761  0.135-  40 2.01  36 2.14  31 2.26  45 2.26  30 2.36
  78  0.030  0.878  0.451-   5 2.07  39 2.10  35 2.10  34 2.36  38 2.36
  79  0.436  0.972  0.315-   8 2.25  26 2.26  46 2.26  25 2.36  45 2.36
  80  0.272  0.650  0.067-  28 2.08  30 2.10  12 2.14  81 2.63  51 2.77
  81  0.342  0.566  0.180-  12 2.06  31 2.25   1 2.26  21 2.26  28 2.36  80 2.63
  82  0.082  0.979  0.064-   4 2.08  30 2.09  48 2.10  83 2.74
  83  0.174  0.897  0.180-  33 2.25  31 2.26  25 2.26  30 2.36   4 2.36  82 2.74
  84  0.268  0.803  0.315-  34 2.25  26 2.26  32 2.26  31 2.36  25 2.36
  85  0.362  0.709  0.451-  27 2.00  41 2.13  35 2.15  32 2.36  26 2.36
  86  0.573  0.667  0.270-  40 2.21  13 2.25  46 2.26  32 2.26  45 2.36  31 2.36
  87  0.667  0.573  0.405-  41 2.05  47 2.05  14 2.25  46 2.36  32 2.36  66 2.76
  88  0.824  0.889  0.023-  42 1.99  48 2.00  69 2.74
  89  0.979  0.761  0.135-  42 2.04  28 2.25  43 2.26  33 2.26  48 2.36
  90  0.707  0.033  0.528-  39 2.04  17 2.07  23 2.07  63 2.72
  91  0.530  0.878  0.451-  27 2.00  47 2.13  17 2.15  46 2.36  26 2.36
  92  0.936  0.972  0.315-  20 2.25  38 2.26  34 2.26  37 2.36  33 2.36
  93  0.842  0.566  0.180-  24 2.09  40 2.18  43 2.25  13 2.26   9 2.26
  94  0.674  0.897  0.180-  42 2.03  16 2.19  45 2.25  43 2.26  37 2.26
  95  0.768  0.803  0.315-  46 2.25  38 2.26  44 2.26  43 2.36  37 2.36
  96  0.862  0.709  0.451-  29 2.10  39 2.11  47 2.11  44 2.36  38 2.36

  LATTYP: Found a base centered orthorhombic cell.
 ALAT       =    11.8257374459
 B/A-ratio  =     1.6199260857
 C/A-ratio  =     1.8387210052

  Lattice vectors:

 A1 = (  11.2564630382,   0.0000000000,   0.0000000000)
 A2 = (  -5.0445621212, -10.0628203371,   0.0000000000)
 A3 = (   0.0000000000,   0.0000000000, -21.7442318436)

Analysis of symmetry for initial positions (statically):
 Subroutine PRICEL returns:
 Original cell was already a primitive cell.

 Routine SETGRP: Setting up the symmetry group for a
 base centered orthorhombic supercell.

 Subroutine GETGRP returns: Found  1 space group operations
 (whereof  1 operations were pure point group operations)
 out of a pool of  8 trial point group operations.

The static configuration has the point symmetry C_1 .

Analysis of symmetry for dynamics (positions and initial velocities):
 Subroutine PRICEL returns:
 Original cell was already a primitive cell.

 Routine SETGRP: Setting up the symmetry group for a
 base centered orthorhombic supercell.

 Subroutine GETGRP returns: Found  1 space group operations
 (whereof  1 operations were pure point group operations)
 out of a pool of  8 trial point group operations.

The dynamic configuration has the point symmetry C_1 .

 Subroutine INISYM returns: Found  1 space group operations
 (whereof  1 operations are pure point group operations),
 and found     1 'primitive' translations

 KPOINTS: gamma-point-only calculation. no periodi

Automatic generation of k-mesh.
Space group operators:
 irot       det(A)        alpha          n_x          n_y          n_z        tau_x        tau_y        tau_z
    1     1.000000     0.000000     1.000000     0.000000     0.000000     0.000000     0.000000     0.000000

 Subroutine IBZKPT returns following result:

 Found      1 irreducible k-points:

 Following reciprocal coordinates:
            Coordinates               Weight
  0.000000  0.000000  0.000000      1.000000

 Following cartesian coordinates:
            Coordinates               Weight
  0.000000  0.000000  0.000000      1.000000

 SYSTEM =  "Millerite NiS"
 POSCAR =  Type_048 Type_148

 Startparameter for this run:
   NWRITE =      2    write-flag & timer
   PREC   = normal    normal or accurate (medium, high low for compatibility)
   ISTART =      0    job   : 0-new  1-cont  2-samecut
   ICHARG =      2    charge: 1-file 2-atom 10-const
   ISPIN  =      1    spin polarized calculation?
   LNONCOLLINEAR =      F non collinear calculations
   LSORBIT =      F    spin-orbit coupling
   INIWAV =      1    electr: 0-lowe 1-rand  2-diag
   LASPH  =      F    aspherical Exc in radial PAW
   METAGGA=      F    non-selfconsistent MetaGGA calc.

 Electronic Relaxation 1
   ENCUT  =  450.0 eV  33.07 Ry    5.75 a.u.  19.47 19.47 37.61*2*pi/ulx,y,z
   ENINI  =  450.0     initial cutoff
   ENAUG  =  703.4 eV  augmentation charge cutoff
   NELM   =    100;   NELMIN=  2; NELMDL= -5     # of ELM steps
   EDIFF  = 0.1E-03   stopping-criterion for ELM
   LREAL  =      T    real-space projection
   NLSPLINE    = F    spline interpolate recip. space projectors
   LCOMPAT=      F    compatible to vasp.4.4
   GGA_COMPAT  = T    GGA compatible to vasp.4.4-vasp.4.6
   LMAXPAW     = -100 max onsite density
   LMAXMIX     =    2 max onsite mixed and CHGCAR
   VOSKOWN=      0    Vosko Wilk Nusair interpolation
   ROPT   =   -0.00050  -0.00050
 Ionic relaxation
   EDIFFG = 0.1E-02   stopping-criterion for IOM
   NSW    =      0    number of steps for IOM
   NBLOCK =      1;   KBLOCK =      1    inner block; outer block
   IBRION =     -1    ionic relax: 0-MD 1-quasi-New 2-CG
   NFREE  =      0    steps in history (QN), initial steepest desc. (CG)
   ISIF   =      2    stress and relaxation
   IWAVPR =     10    prediction:  0-non 1-charg 2-wave 3-comb
   ISYM   =      2    0-nonsym 1-usesym 2-fastsym
   LCORR  =      T    Harris-Foulkes like correction to forces

   POTIM  = 0.5000    time-step for ionic-motion
   TEIN   =    0.0    initial temperature
[...]
     0.000000000  0.000000000 21.744231844     0.000000000  0.000000000  0.045989208

  length of vectors
    11.256463038 11.256463038 21.744231844     0.099375718  0.099375718  0.045989208

 FORCES acting on ions
    electron-ion (+dipol)            ewald-force                    non-local-force                 convergence-correction
   0.266E+03 -.406E+03 0.656E+03   -.266E+03 0.407E+03 -.655E+03   0.565E+00 -.760E+00 -.349E+00   -.834E-01 -.155E-02 -.190E+00
   0.253E+03 -.350E+03 -.236E+04   -.253E+03 0.351E+03 0.236E+04   0.450E+00 -.938E+00 -.781E-01   -.557E-01 -.202E-02 0.652E-01
   0.318E+02 0.909E+02 -.559E+04   -.341E+02 -.868E+02 0.559E+04   0.293E+01 -.493E+01 0.340E+00   -.252E-01 -.313E-01 0.130E+00
   0.287E+03 -.486E+03 0.409E+04   -.291E+03 0.490E+03 -.409E+04   0.250E+01 -.358E+01 0.258E+01   -.324E-01 0.603E-01 -.152E+00
   -.159E+03 0.309E+03 -.501E+04   0.159E+03 -.311E+03 0.501E+04   0.114E+01 0.112E+01 0.102E+01   -.105E+00 0.462E-01 0.189E+00
   0.211E+03 0.526E+03 0.505E+04   -.214E+03 -.531E+03 -.506E+04   0.213E+01 0.298E+01 0.434E+01   -.118E+00 0.231E-02 0.927E-01
   0.273E+03 0.466E+03 0.179E+04   -.273E+03 -.466E+03 -.180E+04   0.186E+00 0.706E-01 0.118E+01   -.221E-01 0.736E-01 -.220E+00
   0.305E+03 0.453E+03 -.142E+04   -.306E+03 -.453E+03 0.142E+04   0.102E+01 0.286E+00 0.213E+01   0.404E-01 0.931E-01 -.455E-01
   -.538E+03 0.254E+02 0.168E+04   0.540E+03 -.256E+02 -.168E+04   -.117E+01 0.145E+00 -.957E+00   0.817E-02 0.379E-01 -.236E+00
   -.508E+03 0.206E+02 -.140E+04   0.509E+03 -.199E+02 0.140E+04   -.956E+00 -.766E+00 0.170E+01   -.342E-01 0.143E+00 0.198E-01
   -.205E+03 0.279E+03 -.501E+04   0.207E+03 -.279E+03 0.501E+04   -.157E+01 -.506E+00 0.946E+00   -.512E-01 0.112E+00 0.173E+00
   -.925E+03 -.617E+02 0.485E+04   0.929E+03 0.611E+02 -.485E+04   -.220E+01 0.688E+00 0.424E+01   -.706E-01 -.133E-01 0.549E-01
   0.108E+03 -.203E+03 0.530E+03   -.107E+03 0.201E+03 -.527E+03   -.473E+00 0.102E+01 -.185E+01   0.992E-01 -.846E-01 -.142E+00
   0.180E+03 -.301E+03 -.237E+04   -.181E+03 0.302E+03 0.237E+04   0.502E+00 -.791E+00 -.141E+00   0.631E-01 -.509E-02 0.122E+00
   -.124E+03 0.199E+03 -.560E+04   0.123E+03 -.197E+03 0.560E+04   0.222E+01 -.359E+01 -.611E-01   0.448E-01 -.507E-01 0.954E-01
   0.541E+03 -.303E+03 0.388E+04   -.545E+03 0.305E+03 -.388E+04   0.327E+01 -.210E+01 0.163E+01   0.121E+00 -.129E+00 -.163E+00
   0.448E+03 0.203E+03 -.489E+04   -.451E+03 -.206E+03 0.489E+04   0.266E+01 0.327E+01 -.192E+01   0.107E+00 0.204E-01 0.172E+00
   0.202E+03 -.197E+03 0.495E+04   -.207E+03 0.197E+03 -.495E+04   0.371E+01 -.113E+00 0.670E+01   0.664E-01 -.523E-01 -.106E+00
   0.143E+03 0.451E+03 0.162E+04   -.143E+03 -.452E+03 -.162E+04   0.114E+00 0.396E+00 -.143E+01   -.170E-01 -.161E-01 -.280E+00
   0.196E+03 0.461E+03 -.141E+04   -.197E+03 -.462E+03 0.141E+04   0.113E+01 0.434E+00 0.177E+01   -.707E-01 0.764E-01 -.845E-03
   -.488E+03 -.193E+02 0.178E+04   0.489E+03 0.188E+02 -.178E+04   -.139E+01 0.564E+00 -.673E+00   -.271E-01 -.320E-01 -.213E+00
   -.475E+03 -.138E+02 -.140E+04   0.476E+03 0.146E+02 0.140E+04   -.656E+00 -.917E+00 0.199E+01   0.274E-01 -.224E-01 -.341E-01
   -.335E+03 -.144E+03 -.488E+04   0.339E+03 0.146E+03 0.488E+04   -.434E+01 -.159E+01 -.193E+01   0.781E-01 -.494E-01 0.132E+00
   0.524E+02 -.319E+03 0.498E+04   -.492E+02 0.323E+03 -.499E+04   -.287E+01 -.345E+01 0.600E+01   0.989E-03 -.236E-01 -.878E-01
   0.263E+03 -.413E+03 0.622E+03   -.264E+03 0.414E+03 -.622E+03   0.720E+00 -.104E+01 -.530E+00   -.108E+00 0.112E+00 -.258E+00
   0.327E+03 -.527E+03 -.271E+04   -.328E+03 0.528E+03 0.271E+04   0.662E+00 -.112E+01 0.137E+01   -.508E-01 0.850E-01 0.608E-01
   0.391E+03 -.633E+03 -.579E+04   -.390E+03 0.631E+03 0.579E+04   -.115E+01 0.195E+01 0.590E+01   -.293E-01 0.562E-02 0.303E+00
   0.316E+03 -.540E+03 0.408E+04   -.319E+03 0.544E+03 -.408E+04   0.255E+01 -.312E+01 0.305E+01   -.757E-01 -.417E-01 -.189E-01
   0.278E+03 0.236E+03 -.487E+04   -.282E+03 -.239E+03 0.488E+04   0.338E+01 0.317E+01 -.193E+01   -.893E-01 0.434E-01 0.434E-01
   0.165E+03 0.562E+03 0.505E+04   -.168E+03 -.566E+03 -.505E+04   0.203E+01 0.281E+01 0.492E+01   -.345E-01 0.141E+00 -.409E-01
   0.387E+03 0.380E+03 0.181E+04   -.389E+03 -.380E+03 -.181E+04   0.175E+01 -.540E+00 0.775E+00   -.138E+00 -.829E-01 -.268E+00
   0.323E+03 0.371E+03 -.141E+04   -.324E+03 -.371E+03 0.140E+04   0.132E+01 0.211E+00 0.145E+01   -.343E-01 -.145E+00 -.466E-01
   -.566E+03 0.341E+02 0.177E+04   0.567E+03 -.342E+02 -.177E+04   -.705E+00 0.161E+00 0.740E+00   -.134E+00 -.163E-01 -.204E+00
   -.542E+03 -.530E+02 -.141E+04   0.543E+03 0.535E+02 0.141E+04   -.881E+00 -.731E+00 0.208E+01   -.229E+00 -.776E-02 -.398E-01
   -.381E+03 -.308E+03 -.488E+04   0.386E+03 0.309E+03 0.489E+04   -.413E+01 -.800E+00 -.184E+01   -.155E+00 0.506E-01 0.125E+00
   -.901E+03 0.543E+02 0.486E+04   0.904E+03 -.549E+02 -.486E+04   -.180E+01 0.506E+00 0.465E+01   -.953E-01 0.946E-01 -.139E+00
   0.233E+03 -.334E+03 0.548E+03   -.234E+03 0.334E+03 -.546E+03   0.555E+00 -.253E+00 -.185E+01   0.983E-01 -.792E-01 -.186E+00
   0.197E+03 -.371E+03 -.237E+04   -.197E+03 0.372E+03 0.237E+04   0.569E+00 -.913E+00 -.599E-01   0.485E-01 -.848E-01 0.159E+00
   -.962E+02 0.149E+02 -.559E+04   0.935E+02 -.110E+02 0.559E+04   0.309E+01 -.490E+01 0.341E+00   0.397E-01 0.296E-02 0.134E+00
   0.219E+02 -.742E+02 0.366E+04   -.203E+02 0.717E+02 -.367E+04   -.155E+01 0.246E+01 0.408E+01   0.102E+00 -.104E+00 -.230E+00
   0.380E+03 0.406E+03 -.475E+04   -.383E+03 -.409E+03 0.476E+04   0.290E+01 0.346E+01 -.225E+01   0.871E-03 -.167E+00 0.176E+00
   0.708E+03 0.560E+03 0.497E+04   -.710E+03 -.560E+03 -.498E+04   0.965E+00 -.730E+00 0.387E+01   0.905E-01 -.510E-02 -.584E-01
   0.210E+03 0.508E+03 0.178E+04   -.210E+03 -.510E+03 -.178E+04   0.157E+00 0.198E+01 -.731E+00   0.814E-01 0.384E-01 -.231E+00
   0.216E+03 0.431E+03 -.138E+04   -.217E+03 -.431E+03 0.138E+04   0.937E+00 0.186E+00 0.210E+01   0.256E-02 0.377E-01 -.399E-01
   -.532E+03 -.145E+03 0.179E+04   0.534E+03 0.147E+03 -.179E+04   -.145E+01 -.130E+01 -.650E+00   0.126E+00 0.326E-01 -.277E+00
   -.475E+03 -.117E+03 -.141E+04   0.476E+03 0.118E+03 0.141E+04   -.572E+00 -.101E+01 0.141E+01   0.224E+00 -.417E-01 -.598E-01
   -.534E+03 -.156E+03 -.475E+04   0.538E+03 0.158E+03 0.476E+04   -.433E+01 -.104E+01 -.223E+01   0.189E+00 -.676E-01 0.141E+00
   -.390E+03 0.179E+02 0.514E+04   0.396E+03 -.183E+02 -.514E+04   -.428E+01 0.287E+00 0.402E+01   -.878E-01 -.295E-01 0.183E-01
   -.873E+02 0.132E+03 0.268E+03   0.887E+02 -.134E+03 -.269E+03   -.143E+01 0.214E+01 0.177E+01   -.273E-01 0.466E-01 -.765E-01
   -.117E+03 0.188E+03 -.103E+04   0.118E+03 -.190E+03 0.103E+04   -.174E+00 0.515E+00 -.162E+01   -.232E-01 0.612E-01 0.412E-01
   -.165E+03 0.573E+02 0.237E+04   0.166E+03 -.578E+02 -.238E+04   0.545E-01 0.476E+00 0.985E+00   -.319E-01 -.131E-01 0.447E-01
   -.758E+02 0.205E+03 0.160E+04   0.761E+02 -.207E+03 -.160E+04   -.670E+00 0.955E+00 0.237E+01   -.245E-01 0.228E-01 -.461E-01
   0.432E+01 0.155E+01 -.235E+04   -.394E+01 -.226E+01 0.235E+04   -.250E+00 0.367E+00 -.191E+01   -.406E-02 -.267E-01 0.760E-01
   -.107E+03 -.707E+02 -.161E+04   0.109E+03 0.714E+02 0.161E+04   -.205E+01 0.445E+00 -.137E+01   -.541E-01 -.241E-02 0.371E-01
   -.563E+02 -.153E+03 -.209E+03   0.577E+02 0.156E+03 0.210E+03   -.138E+01 -.259E+01 -.415E+00   -.348E-01 -.411E-01 -.391E-01
   -.520E+02 -.965E+02 0.213E+04   0.509E+02 0.978E+02 -.213E+04   0.161E+01 -.101E+01 0.287E+01   -.427E-01 0.157E-01 0.255E-01
   -.851E+02 -.197E+03 0.951E+03   0.865E+02 0.200E+03 -.950E+03   -.126E+01 -.181E+01 0.173E+01   -.253E-01 0.646E-01 -.148E+00
   0.212E+03 -.140E+03 0.224E+04   -.214E+03 0.142E+03 -.225E+04   0.107E+01 -.114E+01 0.197E+01   -.120E-01 -.189E-01 0.429E-01
   0.144E+03 0.242E+01 0.970E+03   -.145E+03 -.296E+01 -.971E+03   0.145E+01 0.104E+00 0.145E+01   0.495E-02 0.131E-01 -.106E+00
   0.174E+03 0.681E+01 -.208E+03   -.177E+03 -.686E+01 0.208E+03   0.302E+01 0.503E-01 -.472E+00   -.888E-02 0.359E-01 -.347E-01
[...]
   0.171E+03 0.716E+01 0.986E+03   -.174E+03 -.760E+01 -.986E+03   0.220E+01 0.247E+00 0.859E+00   -.515E-01 0.280E-01 -.132E+00
   0.176E+03 -.206E+02 -.229E+03   -.179E+03 0.208E+02 0.229E+03   0.304E+01 -.738E-01 -.191E+00   -.898E-01 -.127E-01 -.490E-01
   0.249E+03 -.738E+02 -.154E+04   -.252E+03 0.742E+02 0.154E+04   0.953E+00 0.847E-01 -.115E+01   -.418E-01 -.285E-01 0.662E-01
   -.415E+02 0.668E+02 0.153E+03   0.426E+02 -.683E+02 -.151E+03   -.113E+01 0.151E+01 -.754E+00   0.386E-01 -.533E-01 -.715E-01
   -.793E+02 0.128E+03 -.877E+03   0.804E+02 -.129E+03 0.873E+03   -.605E+00 0.104E+01 0.680E+00   0.598E-01 -.948E-01 0.144E-01
   0.153E+03 0.938E+02 0.236E+04   -.154E+03 -.951E+02 -.236E+04   0.808E-01 0.547E+00 0.344E+00   -.301E-02 -.150E-01 0.742E-01
   -.129E+03 0.184E+03 0.155E+04   0.132E+03 -.185E+03 -.155E+04   -.894E+00 0.724E+00 0.197E+01   -.649E-01 0.322E-01 -.563E-01
   -.330E+01 -.279E+01 -.235E+04   0.369E+01 0.222E+01 0.235E+04   -.204E+00 0.371E+00 -.198E+01   0.764E-01 -.899E-01 0.621E-01
   -.453E+02 -.256E+03 -.154E+04   0.462E+02 0.258E+03 0.154E+04   -.507E+00 -.849E+00 -.129E+01   0.497E-01 0.318E-01 0.561E-01
   -.900E+02 -.144E+03 -.216E+03   0.917E+02 0.147E+03 0.216E+03   -.164E+01 -.261E+01 -.176E+00   -.474E-01 -.303E-01 -.419E-01
   -.617E+02 -.194E+03 0.114E+04   0.631E+02 0.197E+03 -.114E+04   -.832E+00 -.144E+01 0.251E+01   0.534E-01 -.243E-02 -.953E-01
   0.261E+03 0.837E+01 0.104E+04   -.265E+03 -.874E+01 -.104E+04   0.150E+01 0.940E+00 0.343E+01   0.114E+00 -.287E-01 -.135E+00
   0.161E+03 -.857E+01 -.211E+03   -.164E+03 0.845E+01 0.211E+03   0.316E+01 0.581E-01 -.172E+00   0.943E-01 -.174E-01 -.334E-01
   0.113E+03 0.517E+02 -.157E+04   -.116E+03 -.526E+02 0.157E+04   0.192E+01 0.128E+01 -.188E+01   0.899E-01 0.707E-01 0.349E-01
   -.125E+02 0.154E+02 -.805E+02   -.909E-12 -.497E-12 0.568E-11   0.126E+02 -.153E+02 0.829E+02   -.345E+00 -.188E+00 -.234E+01

 POSITION                                       TOTAL-FORCE (eV/Angst)
      5.35228      4.81788      5.50842        -0.014551     -0.205726     -0.024448
      5.93595      3.87238      8.44448         0.013876      0.210103     -1.071416
      6.02000      3.72511     10.79691         0.612883     -0.840821      0.697158
      2.24633      0.73197      2.57236        -0.975493      0.476863      2.050821
      0.73577      0.54397     10.13448         0.419666     -0.424114      0.959091
      4.76861      3.35453      1.79664        -0.486829     -1.441240      2.294145
      5.35228      2.40903      4.73270        -0.057285      0.210428      0.335173
      5.93595      1.46353      7.66876         0.150588     -0.004027      0.026974
      1.87746      3.73836      4.73270         0.225625     -0.058725      0.534203
      2.46113      2.79286      7.66876        -0.090208      0.080428     -0.288532
      3.09137      1.99812     10.13444         0.187950     -0.541043      0.942958
      6.87613      4.60275      2.18024         1.766653      0.078026      0.375984
     10.98051      4.81788      5.50842         0.487704     -0.787235      1.110257
     11.56418      3.87238      8.44448        -0.110873      0.204864     -1.278938
     11.62301      3.77709     10.78636         0.553191     -0.900445      0.839638
      7.94140      0.78521      3.05596        -1.266249     -0.117694     -0.269371
      6.46068      0.54829     10.27398        -0.856409     -0.020444      0.489067
     10.32087      2.73410      2.39515        -0.417621     -0.121820     -0.283869
     10.98051      2.40903      4.73270         0.107719     -0.305534      0.916686
     11.56418      1.46353      7.66876        -0.040888      0.090845     -0.280420
      7.50570      3.73836      4.73270         0.087034      0.033185      0.167434
      8.08937      2.79286      7.66876        -0.017906     -0.135964     -0.054759
      8.68292      1.91748     10.27056         0.198037      0.613843      0.442074
     12.93428      4.49361      2.31980         0.381278      0.683637     -0.680133
      7.87456      9.84929      5.50842         0.051022     -0.218723     -0.158560
      8.45823      8.90379      8.44448         0.048597     -0.053212      0.085368
      9.08025      7.89617     10.98343         0.021063     -0.051121      1.399081
      4.76861      5.76338      2.57236        -0.578812      0.811136      2.101571
      3.34652      5.57203     10.27035        -0.612555      0.069500      0.444637
      7.29089      8.38594      1.79664        -0.870561     -1.410528      2.352340
      7.87456      7.44044      4.73270         0.035633      0.174976      0.155594
      8.45823      6.49494      7.66876        -0.038359     -0.275933     -0.075884
      4.39975      8.76977      4.73270         0.244080     -0.047033      0.206805
      4.98341      7.82427      7.66876        -0.112539     -0.158715      0.005923
      5.56647      6.94506     10.27377         0.410080      0.805721      0.514989
      9.40112      9.64312      2.17521         1.832073      0.001879      0.423580
     13.50279      9.84929      5.50842         0.068940      0.057269     -0.007974
     14.08646      8.90379      8.44448        -0.225210      0.078870     -1.096989
     14.18053      8.76252     10.79697         0.479940     -0.931655      0.693209
     10.19325      6.10149      3.78112         0.097946     -0.181579     -0.557544
      8.97671      5.53501     10.27591        -0.800676      0.089288      0.404931
     13.06699      8.36481      2.26332        -1.058715     -0.818553     -0.382109
     13.50279      7.44044      4.73270         0.039487     -0.009245     -0.042219
     14.08646      6.49494      7.66876         0.110278     -0.074843     -0.045166
     10.02798      8.76977      4.73270         0.074980      0.058144      0.051974
     10.61165      7.82427      7.66876         0.169355     -0.091332     -0.077878
     11.23742      6.93055     10.27595         0.309346      0.756962      0.433608
     15.07254      9.71527      1.79664         1.706774     -0.079505      1.861230
      1.66190      1.67871      5.87212         0.004528     -0.022316     -0.006179
      2.24556      0.73321      8.80817         0.826928     -1.314084     -1.433116
      6.09073      3.98261      0.44168         1.139747     -0.011465     -4.192005
      6.70646      2.62422      2.93606        -0.460510     -1.246261      0.692657
      5.01391      5.35664     11.48412         0.133033     -0.371482      2.854445
      2.24556      3.80055      9.79595        -0.552210      1.150014      0.167712
      7.29013      4.74605      6.85989         0.016802      0.013425     -0.021434
      3.80717      1.51985      1.46026         0.497666      0.358354     -2.277185
      4.18418      0.66015      3.92384         0.047451      1.079409      2.193570
      3.43309      4.85249      1.30418        -1.359626      0.864020     -2.739086
      3.96438      3.99884      3.92384         0.147724     -0.427645      0.758562
      4.54805      3.05334      6.85989        -0.045796      0.027421     -0.154788
[...]
      5.86782      9.85480      1.38987        -0.935538      0.597055     -2.218790
      6.48666      9.03025      3.92384        -0.187941     -0.170382      0.838884
      7.07033      8.08475      6.85989        -0.070021      0.065762      0.072158
      7.65400      7.13925      9.79595        -1.731941      0.415301     -0.679674
      9.81241      6.71012      5.87212         0.009983     -0.050845      0.644801
     10.39608      5.76462      8.80817         0.506789     -0.780189     -3.049025
     13.76025      8.94597      0.49062        -1.081276     -0.822015     -3.380588
     14.85697      7.65563      2.93606         1.544248     -0.624194      0.689725
      8.12833      0.33029     11.48419         0.266578     -0.290905      2.867560
     10.39608      8.83196      9.79595         0.409255      1.733915     -0.708732
     15.44064      9.77746      6.85989        -0.000089      0.108188     -0.109224
     12.33469      5.69156      3.92384         0.651898      1.154898      1.018809
     12.11489      9.03025      3.92384        -1.958201      0.546808      1.856540
     12.69856      8.08475      6.85989         0.084463     -0.075134     -0.054572
     13.28223      7.13925      9.79595        -0.405017      0.502781     -0.128990
    total drift:                               -0.287253     -0.045039      0.119958

  FREE ENERGIE OF THE ION-ELECTRON SYSTEM (eV)
  free  energy   TOTEN  =      -473.28139482 eV

  energy  without entropy=     -472.09785652  energy(sigma->0) =     -472.68962567