 vasp.6.1.0 28Jan20 (build Mar 31 2020 17:42:31) gamma-only

 executed on             LinuxIFC date 2020.04.13  04:14:49

 INCAR:
 POTCAR:    PAW_PBE Ni_pv 06Sep2000
 POTCAR:    PAW_PBE S 06Sep2000
 POTCAR:    PAW_PBE Ni_pv 06Sep2000
   VRHFIN =Ni:

   TITEL  = PAW_PBE Ni_pv 06Sep2000
   POMASS =   58.690; ZVAL   =   16.000    mass and valenz
   ENMAX  =  367.986; ENMIN  =  275.989 eV

 POTCAR:    PAW_PBE S 06Sep2000
   VRHFIN =S : s2p4

   TITEL  = PAW_PBE S 06Sep2000
   POMASS =   32.066; ZVAL   =    6.000    mass and valenz
   ENMAX  =  258.689; ENMIN  =  194.016 eV

 Optimization of the real space projectors (new method)

 maximal supplied QI-value         = 18.90
 optimisation between [QCUT,QGAM] = [ 10.77, 21.73] = [ 32.49,132.25] Ry
 Optimized for a Real-space Cutoff    1.38 Angstroem

   l    n(q)    QCUT    max X(q) W(low)/X(q) W(high)/X(q)  e(spline)
   1      8    10.771     2.836    0.40E-04    0.29E-04    0.12E-06
   1      8    10.771     4.023    0.10E-03    0.48E-04    0.29E-06
   2      8    10.771    73.368    0.42E-03    0.97E-04    0.44E-06
   2      8    10.771    69.010    0.42E-03    0.99E-04    0.45E-06
   0      9    10.771    54.797    0.10E-03    0.56E-04    0.74E-07
   0      9    10.771    24.266    0.89E-04    0.49E-04    0.67E-07
 Optimization of the real space projectors (new method)

 maximal supplied QI-value         = 19.84
 optimisation between [QCUT,QGAM] = [ 10.71, 21.63] = [ 32.15,130.99] Ry
 Optimized for a Real-space Cutoff    1.19 Angstroem

   l    n(q)    QCUT    max X(q) W(low)/X(q) W(high)/X(q)  e(spline)
   0      8    10.715   187.594    0.41E-03    0.53E-04    0.66E-07
   0      8    10.715   164.243    0.41E-03    0.53E-04    0.65E-07
   1      7    10.715    67.533    0.19E-03    0.59E-03    0.68E-07
   1      7    10.715    50.729    0.19E-03    0.58E-03    0.67E-07
  PAW_PBE Ni_pv 06Sep2000               :
  PAW_PBE S 06Sep2000                   :

 POSCAR: Structure 35 made from 02-1-6.xsd file
  positions in direct lattice
 exchange correlation table for  LEXCH =        8
   RHO(1)=    0.500       N(1)  =     2000
   RHO(2)=  100.500       N(2)  =     4000

 ion  position               nearest neighbor table
   1  0.580  0.074  0.349-  43 2.25  64 2.26  50 2.26  61 2.36  51 2.36  26 2.53  14 2.53
   2  0.763  0.165  0.227-  44 2.25  61 2.26  51 2.26  52 2.36  62 2.36  15 2.53  27 2.53
   3  0.398  0.983  0.472-  63 2.26  64 2.36  50 2.36  25 2.53  13 2.53
   4  0.035  0.802  0.268-  45 2.25  55 2.26  68 2.26  65 2.36  53 2.36  29 2.53  20 2.53
   5  0.217  0.893  0.146-  46 2.25  53 2.26  65 2.26  66 2.36  54 2.36  30 2.53  17 2.53
   6  0.399  0.984  0.024-  47 2.25  54 2.26  66 2.26  31 2.53
   7  0.671  0.620  0.512-  67 2.36  56 2.36  32 2.53  18 2.53
   8  0.853  0.711  0.390-  48 2.25  56 2.26  67 2.26  68 2.36  55 2.36  33 2.53  19 2.53
   9  0.126  0.347  0.431-  37 2.25  72 2.26  57 2.36  69 2.36  24 2.53  34 2.53
  10  0.308  0.438  0.309-  38 2.25  57 2.26  69 2.26  58 2.36  70 2.36  35 2.53  21 2.53
  11  0.490  0.529  0.187-  39 2.25  58 2.26  70 2.26  59 2.36  71 2.36  36 2.53  22 2.53
  12  0.672  0.620  0.065-  40 2.25  59 2.26  71 2.26  60 2.36  23 2.53
  13  0.230  0.031  0.407-  55 2.25  63 2.26  37 2.26  64 2.36  38 2.36   3 2.53  25 2.53
  14  0.412  0.122  0.285-  53 2.25  38 2.26  64 2.26  61 2.36  39 2.36  26 2.53   1 2.53
  15  0.595  0.214  0.163-  54 2.25  61 2.26  39 2.26  62 2.36  40 2.36   2 2.53  27 2.53
  16  0.777  0.305  0.041-  62 2.26  40 2.26  28 2.53
  17  0.049  0.941  0.081-  60 2.25  41 2.26  65 2.26  42 2.36  66 2.36  30 2.53   5 2.53
  18  0.503  0.668  0.448-  57 2.25  43 2.36  67 2.36   7 2.53  32 2.53
  19  0.685  0.759  0.326-  58 2.25  43 2.26  67 2.26  68 2.36  44 2.36  33 2.53   8 2.53
  20  0.867  0.850  0.203-  59 2.25  68 2.26  44 2.26  41 2.36  65 2.36   4 2.53  29 2.53
  21  0.140  0.486  0.244-  52 2.25  45 2.26  69 2.26  70 2.36  46 2.36  10 2.53  35 2.53
  22  0.322  0.577  0.122-  49 2.25  46 2.26  70 2.26  47 2.36  71 2.36  36 2.53  11 2.53
  23  0.504  0.668  0.000-  47 2.26  71 2.26  12 2.53
  24  0.958  0.395  0.366-  51 2.25  48 2.26  72 2.26  45 2.36  69 2.36  34 2.53   9 2.53
  25  0.398  0.248  0.472-  37 2.26  38 2.36  50 2.36   3 2.53  13 2.53
  26  0.580  0.339  0.349-  67 2.25  38 2.26  50 2.26  39 2.36  51 2.36   1 2.53  14 2.53
  27  0.763  0.430  0.227-  68 2.25  39 2.26  51 2.26  52 2.36  40 2.36  15 2.53   2 2.53
  28  0.945  0.521  0.105-  65 2.25  40 2.26  52 2.26  49 2.36  16 2.53
  29  0.035  0.066  0.268-  69 2.25  44 2.26  55 2.26  41 2.36  53 2.36   4 2.53  20 2.53
  30  0.217  0.157  0.146-  70 2.25  53 2.26  41 2.26  42 2.36  54 2.36   5 2.53  17 2.53
  31  0.399  0.248  0.024-  71 2.25  54 2.26  42 2.26   6 2.53
  32  0.671  0.884  0.512-  43 2.36  56 2.36   7 2.53  18 2.53
  33  0.853  0.975  0.390-  72 2.25  56 2.26  43 2.26  44 2.36  55 2.36   8 2.53  19 2.53
  34  0.126  0.611  0.431-  63 2.25  48 2.26  57 2.36  45 2.36  24 2.53   9 2.53
  35  0.308  0.702  0.309-  64 2.25  57 2.26  45 2.26  58 2.36  46 2.36  10 2.53  21 2.53
  36  0.490  0.793  0.187-  61 2.25  58 2.26  46 2.26  59 2.36  47 2.36  11 2.53  22 2.53
  37  0.184  0.177  0.481-   9 2.25  25 2.26  13 2.26
  38  0.367  0.268  0.359-  10 2.25  26 2.26  14 2.26  25 2.36  13 2.36
  39  0.549  0.359  0.237-  11 2.25  15 2.26  27 2.26  26 2.36  14 2.36
  40  0.731  0.450  0.114-  12 2.25  16 2.26  28 2.26  27 2.36  15 2.36
  41  0.003  0.086  0.155-  30 2.26  17 2.26  29 2.36  20 2.36
  42  0.185  0.177  0.033-  31 2.26  30 2.36  17 2.36
  43  0.639  0.904  0.399-   1 2.25  33 2.26  19 2.26  32 2.36  18 2.36
  44  0.821  0.995  0.277-   2 2.25  29 2.26  20 2.26  33 2.36  19 2.36
  45  0.094  0.631  0.318-   4 2.25  21 2.26  35 2.26  24 2.36  34 2.36
  46  0.276  0.722  0.196-   5 2.25  22 2.26  36 2.26  21 2.36  35 2.36
  47  0.458  0.814  0.074-   6 2.25  23 2.26  22 2.36  36 2.36
  48  0.912  0.540  0.440-   8 2.25  24 2.26  34 2.26
  49  0.127  0.480  0.074-  22 2.25  28 2.36
  50  0.580  0.206  0.441-   1 2.26  26 2.26   3 2.36  25 2.36
  51  0.763  0.298  0.319-  24 2.25  27 2.26   2 2.26  26 2.36   1 2.36
  52  0.945  0.389  0.197-  21 2.25  28 2.26  27 2.36   2 2.36
  53  0.217  0.025  0.237-  14 2.25   5 2.26  30 2.26   4 2.36  29 2.36
  54  0.399  0.116  0.115-  15 2.25   6 2.26  31 2.26  30 2.36   5 2.36
  55  0.035  0.934  0.359-  13 2.25   4 2.26  29 2.26   8 2.36  33 2.36
  56  0.853  0.843  0.481-  33 2.26   8 2.26  32 2.36   7 2.36
  57  0.308  0.570  0.400-  18 2.25  10 2.26  35 2.26   9 2.36  34 2.36
  58  0.490  0.661  0.278-  19 2.25  36 2.26  11 2.26  10 2.36  35 2.36
  59  0.672  0.752  0.156-  20 2.25  12 2.26  36 2.36  11 2.36
  60  0.854  0.843  0.034-  17 2.25  12 2.36
  61  0.549  0.022  0.237-  36 2.25  15 2.26   2 2.26   1 2.36  14 2.36
  62  0.731  0.113  0.114-  16 2.26  15 2.36   2 2.36
  63  0.184  0.840  0.481-  34 2.25   3 2.26  13 2.26
  64  0.367  0.931  0.359-  35 2.25   1 2.26  14 2.26   3 2.36  13 2.36
  65  0.003  0.750  0.155-  28 2.25   5 2.26  17 2.26   4 2.36  20 2.36
  66  0.185  0.841  0.033-   6 2.26   5 2.36  17 2.36
  67  0.639  0.568  0.399-  26 2.25   8 2.26  19 2.26   7 2.36  18 2.36
  68  0.821  0.659  0.277-  27 2.25   4 2.26  20 2.26   8 2.36  19 2.36
  69  0.094  0.295  0.318-  29 2.25  21 2.26  10 2.26   9 2.36  24 2.36
  70  0.276  0.386  0.196-  30 2.25  22 2.26  11 2.26  21 2.36  10 2.36
  71  0.458  0.477  0.074-  31 2.25  12 2.26  23 2.26  22 2.36  11 2.36
  72  0.912  0.204  0.440-  33 2.25  24 2.26   9 2.26

  Warning from LATTYP: Monoclinic adjustment (A1->A3, A2->A1, A3->A2)!
  LATTYP: Found a base centered orthorhombic cell.
 ALAT       =     9.5784100000
 B/A-ratio  =     2.1722506661
 C/A-ratio  =     2.1403095979

  Lattice vectors:

 A1 = (  10.4033537511,  -4.7892050000,   0.0000000000)
 A2 = ( -10.4033537511,  -4.7892050000,   0.0000000000)
 A3 = (   0.0000000000,   0.0000000000, -20.5007628560)

Analysis of symmetry for initial positions (statically):
 Subroutine PRICEL returns:
 Original cell was already a primitive cell.

 Routine SETGRP: Setting up the symmetry group for a
 base centered orthorhombic supercell.

 Subroutine GETGRP returns: Found  1 space group operations
 (whereof  1 operations were pure point group operations)
 out of a pool of  8 trial point group operations.

The static configuration has the point symmetry C_1 .

Analysis of symmetry for dynamics (positions and initial velocities):
 Subroutine PRICEL returns:
 Original cell was already a primitive cell.

 Routine SETGRP: Setting up the symmetry group for a
 base centered orthorhombic supercell.

 Subroutine GETGRP returns: Found  1 space group operations
 (whereof  1 operations were pure point group operations)
 out of a pool of  8 trial point group operations.

The dynamic configuration has the point symmetry C_1 .

 Subroutine INISYM returns: Found  1 space group operations
 (whereof  1 operations are pure point group operations),
 and found     1 'primitive' translations

                                     Primitive cell

  volume of cell :    2042.8516

  direct lattice vectors                    reciprocal lattice vectors
    10.403353751 -4.789205000  0.000000000     0.096122849  0.000000000  0.000000000
     0.000000000  9.578410000  0.000000000     0.048061424  0.104401461  0.000000000
     0.000000000  0.000000000 20.500762856     0.000000000  0.000000000  0.048778673

  length of vectors
    11.452783670  9.578410000 20.500762856     0.096122849  0.114932874  0.048778673

  position of ions in fractional coordinates (direct lattice)
     0.580446796  0.074375138  0.349415127
     0.762560812  0.165432146  0.227316517
     0.398332781  0.983318131  0.471513737
     0.035189473  0.801746477  0.268016054
     0.217303488  0.892803484  0.145917444
     0.399417503  0.983860492  0.023818834
     0.670961443  0.619632462  0.512213274
     0.853075458  0.710689469  0.390114664
     0.125704120  0.347003800  0.430814200
     0.307818135  0.438060808  0.308715591
     0.489932150  0.529117815  0.186616981
     0.672046165  0.620174823  0.064518371
     0.230358012  0.031433746  0.406995366
     0.412472027  0.122490754  0.284896756
     0.594586043  0.213547761  0.162798147
     0.776700058  0.304604769  0.040699537
     0.049328719  0.940919100  0.081399073
     0.502986674  0.667748077  0.447694903
     0.685100689  0.758805085  0.325596293
     0.867214704  0.849862092  0.203497683
     0.139843366  0.486176423  0.244197220
     0.321957381  0.577233431  0.122098610
     0.504071396  0.668290438  0.000000000
     0.957729351  0.395119416  0.366295830
     0.398332781  0.247524131  0.471513737
     0.580446796  0.338581138  0.349415127
     0.762560812  0.429638146  0.227316517
     0.944674827  0.520695154  0.105217907
     0.035189473  0.065952477  0.268016054
     0.217303488  0.157009484  0.145917444
     0.399417503  0.248066492  0.023818834
     0.670961443  0.883838462  0.512213274
     0.853075458  0.974895469  0.390114664
     0.125704120  0.611209800  0.430814200
     0.307818135  0.702266808  0.308715591
     0.489932150  0.793323815  0.186616981
     0.184411117  0.176675299  0.480705402
[...]
  Fock        0.00000     0.00000     0.00000     0.00000     0.00000     0.00000
  Total     -36.61681   -27.03363   -29.22118    -0.42849     0.33346    14.46462
  in kB     -28.71800   -21.20206   -22.91773    -0.33606     0.26153    11.34438

 VOLUME and BASIS-vectors are now :
  energy-cutoff  :      450.00
  volume of cell :     2042.85
      direct lattice vectors                 reciprocal lattice vectors
    10.403353751 -4.789205000  0.000000000     0.096122849  0.000000000  0.000000000
     0.000000000  9.578410000  0.000000000     0.048061424  0.104401461  0.000000000
     0.000000000  0.000000000 20.500762856     0.000000000  0.000000000  0.048778673

  length of vectors
    11.452783670  9.578410000 20.500762856     0.096122849  0.114932874  0.048778673

 FORCES acting on ions
    electron-ion (+dipol)            ewald-force                    non-local-force                 convergence-correction
   -.386E+03 0.390E+03 -.211E+04   0.385E+03 -.391E+03 0.211E+04   0.112E+00 0.733E+00 -.152E+01   0.568E-02 0.265E-01 -.928E-01
   -.454E+03 0.502E+03 0.996E+03   0.456E+03 -.502E+03 -.998E+03   -.875E+00 0.872E+00 0.140E+01   0.243E-02 0.170E-01 -.539E-01
   -.179E+03 0.475E+03 -.459E+04   0.173E+03 -.470E+03 0.459E+04   0.555E+01 -.434E+01 0.257E+01   -.248E-01 0.171E-01 -.326E-01
   -.179E+03 0.458E+03 -.201E+03   0.179E+03 -.459E+03 0.203E+03   0.625E+00 0.654E+00 -.107E+01   0.107E-02 -.855E-02 -.454E-01
   -.114E+03 0.496E+03 0.249E+04   0.113E+03 -.498E+03 -.249E+04   0.792E+00 0.154E+01 0.107E+01   0.138E-01 -.483E-02 -.118E-01
   -.264E+03 0.348E+03 0.453E+04   0.257E+03 -.347E+03 -.453E+04   0.588E+01 -.149E+01 -.528E+01   0.967E-02 0.186E-02 0.221E-01
   -.158E+03 0.747E+03 -.475E+04   0.158E+03 -.735E+03 0.474E+04   0.641E+00 -.111E+02 0.831E+01   0.584E-01 -.643E-01 0.286E-01
   -.350E+03 0.569E+03 -.300E+04   0.351E+03 -.572E+03 0.300E+04   -.120E+01 0.275E+01 -.227E+01   0.393E-01 -.167E-01 -.922E-01
   0.224E+02 0.270E+03 -.410E+04   -.240E+02 -.274E+03 0.410E+04   0.136E+01 0.319E+01 -.178E+01   -.250E-01 -.866E-02 -.592E-01
   -.145E+03 0.430E+03 -.114E+04   0.144E+03 -.431E+03 0.114E+04   0.708E+00 0.950E+00 -.112E+01   -.342E-01 0.281E-02 -.944E-01
   -.281E+03 0.356E+03 0.161E+04   0.282E+03 -.356E+03 -.161E+04   -.859E+00 0.177E+00 -.136E+01   -.110E-01 -.637E-02 -.339E-01
   -.532E+03 -.182E+02 0.403E+04   0.536E+03 0.223E+02 -.403E+04   -.275E+01 -.360E+01 -.718E+00   -.109E-01 -.392E-02 0.134E-01
   0.557E+03 -.335E+01 -.301E+04   -.561E+03 0.339E+01 0.301E+04   0.300E+01 0.184E-01 -.290E+01   -.231E-01 -.114E-02 -.674E-01
   0.359E+03 0.110E+02 -.146E+03   -.361E+03 -.111E+02 0.147E+03   0.171E+01 0.361E-01 -.279E+00   0.497E-02 0.319E-02 -.645E-01
   0.143E+03 0.154E+03 0.262E+04   -.143E+03 -.156E+03 -.263E+04   0.251E+00 0.173E+01 0.117E+01   0.148E-01 -.219E-02 -.219E-01
   -.242E+03 0.428E+03 0.462E+04   0.242E+03 -.429E+03 -.460E+04   -.506E+00 0.608E+00 -.155E+02   -.152E-01 -.813E-02 0.327E-01
   0.617E+03 -.207E+03 0.426E+04   -.620E+03 0.207E+03 -.427E+04   0.221E+01 -.460E+00 0.347E+01   0.598E-02 0.191E-02 0.136E-01
   0.644E+03 -.260E+01 -.380E+04   -.643E+03 0.255E+01 0.380E+04   -.579E+00 0.311E-01 0.522E+00   -.330E-01 0.384E-02 -.853E-01
   0.328E+03 -.283E+02 -.980E+03   -.329E+03 0.283E+02 0.980E+03   0.102E+01 -.179E-01 0.318E+00   0.331E-01 -.219E-02 -.121E+00
   0.425E+03 -.177E+03 0.189E+04   -.426E+03 0.178E+03 -.189E+04   0.179E+01 -.759E+00 0.907E+00   -.843E-02 0.399E-02 -.294E-01
   0.561E+03 0.730E+02 0.933E+03   -.564E+03 -.729E+02 -.933E+03   0.263E+01 -.321E-01 0.516E-01   0.688E-02 -.645E-02 -.406E-01
   0.625E+03 -.500E+01 0.348E+04   -.629E+03 0.638E+01 -.349E+04   0.396E+01 -.102E+01 0.215E+01   -.613E-02 -.608E-02 -.839E-03
   -.141E+02 -.273E+03 0.471E+04   0.153E+02 0.272E+03 -.469E+04   -.155E+01 0.471E+00 -.150E+02   -.105E-02 -.507E-03 0.341E-01
   0.527E+03 0.190E+02 -.227E+04   -.530E+03 -.190E+02 0.227E+04   0.226E+01 -.216E-01 -.318E+01   0.827E-02 -.710E-02 -.721E-01
   -.176E+03 -.474E+03 -.459E+04   0.170E+03 0.469E+03 0.459E+04   0.545E+01 0.416E+01 0.257E+01   -.308E-01 -.283E-01 -.365E-01
   -.374E+03 -.370E+03 -.213E+04   0.373E+03 0.371E+03 0.214E+04   0.271E+00 -.652E+00 -.166E+01   0.736E-02 -.245E-01 -.979E-01
   -.362E+03 -.322E+03 0.770E+03   0.363E+03 0.322E+03 -.769E+03   -.789E+00 -.210E+00 -.104E+01   -.275E-02 -.182E-01 -.463E-01
   -.342E+03 0.136E+03 0.362E+04   0.344E+03 -.139E+03 -.361E+04   -.175E+01 0.288E+01 -.204E+01   -.987E-02 -.171E-01 0.115E-01
   -.139E+03 -.553E+03 -.110E+03   0.139E+03 0.553E+03 0.110E+03   0.630E+00 -.954E+00 0.526E-01   0.270E-02 0.155E-01 -.469E-01
   0.412E+02 -.603E+03 0.252E+04   -.426E+02 0.605E+03 -.252E+04   0.143E+01 -.163E+01 0.113E+01   0.104E-01 0.829E-02 -.506E-02
   -.109E+03 -.242E+03 0.456E+04   0.101E+03 0.240E+03 -.455E+04   0.611E+01 0.245E+01 -.535E+01   0.100E-01 -.113E-01 0.241E-01
   -.159E+03 -.749E+03 -.474E+04   0.159E+03 0.738E+03 0.473E+04   0.656E+00 0.110E+02 0.822E+01   0.561E-01 0.712E-01 0.308E-01
   -.350E+03 -.587E+03 -.297E+04   0.351E+03 0.590E+03 0.298E+04   -.121E+01 -.277E+01 -.214E+01   0.419E-01 0.173E-01 -.908E-01
   0.184E+02 -.264E+03 -.411E+04   -.200E+02 0.268E+03 0.411E+04   0.133E+01 -.316E+01 -.186E+01   -.232E-01 -.177E-02 -.578E-01
   -.171E+03 -.425E+03 -.114E+04   0.171E+03 0.426E+03 0.115E+04   0.500E+00 -.987E+00 -.953E+00   -.319E-01 -.823E-02 -.911E-01
   -.439E+03 -.467E+03 0.176E+04   0.440E+03 0.467E+03 -.176E+04   -.710E+00 -.724E+00 -.993E-01   -.856E-02 -.506E-02 -.363E-01
   0.220E+03 -.533E+02 -.182E+04   -.222E+03 0.523E+02 0.182E+04   0.344E+01 0.142E+01 -.376E+01   -.138E-01 0.487E-03 -.118E-01
   0.102E+03 -.147E+03 -.792E+03   -.103E+03 0.149E+03 0.792E+03   0.184E+01 -.243E+01 0.567E+00   -.858E-02 -.160E-02 -.382E-01
   0.610E+02 -.135E+03 0.243E+03   -.623E+02 0.137E+03 -.244E+03   0.137E+01 -.211E+01 0.880E+00   0.340E-02 -.417E-02 -.216E-01
   -.155E+02 -.840E+02 0.124E+04   0.139E+02 0.863E+02 -.124E+04   0.216E+01 -.261E+01 -.584E+00   -.587E-02 -.652E-02 0.169E-02
   0.217E+03 -.376E+03 0.108E+04   -.220E+03 0.382E+03 -.108E+04   0.286E+01 -.616E+01 0.248E+01   -.941E-03 0.588E-02 -.211E-02
   0.266E+03 -.265E+03 0.178E+04   -.268E+03 0.269E+03 -.178E+04   0.216E+01 -.387E+01 0.350E+01   0.447E-02 0.146E-02 0.821E-02
   0.665E+02 -.200E+03 -.110E+04   -.676E+02 0.202E+03 0.110E+04   0.684E+00 -.187E+01 0.174E+01   0.197E-01 0.269E-01 -.526E-01
   0.702E+02 -.182E+03 -.350E+02   -.722E+02 0.185E+03 0.347E+02   0.192E+01 -.237E+01 0.247E+00   0.182E-02 0.435E-02 -.248E-01
   0.124E+03 -.119E+03 -.458E+03   -.126E+03 0.121E+03 0.458E+03   0.163E+01 -.236E+01 0.230E+00   0.301E-02 -.755E-02 -.288E-01
   0.122E+03 -.117E+03 0.607E+03   -.123E+03 0.119E+03 -.608E+03   0.153E+01 -.214E+01 0.976E+00   -.580E-02 -.810E-02 -.908E-02
   -.133E+03 -.117E+03 0.146E+04   0.134E+03 0.119E+03 -.146E+04   -.104E+01 -.225E+01 -.534E+00   -.245E-02 0.118E-02 -.270E-03
   0.147E+03 0.673E+02 -.165E+04   -.149E+03 -.683E+02 0.166E+04   0.300E+01 0.802E+00 -.340E+01   0.585E-02 -.501E-02 -.201E-01
   0.151E+03 0.125E+03 0.160E+04   -.152E+03 -.127E+03 -.160E+04   0.470E+00 0.242E+01 0.297E+01   0.623E-02 -.124E-02 0.930E-02
   -.353E+03 0.155E+01 -.166E+04   0.358E+03 -.151E+01 0.166E+04   -.647E+01 -.277E-01 -.244E+01   0.771E-02 -.247E-02 -.246E-01
   -.150E+03 0.140E+02 -.650E+03   0.152E+03 -.140E+02 0.652E+03   -.128E+01 -.147E+00 -.172E+01   0.213E-02 0.410E-03 -.315E-01
   -.107E+03 0.153E+03 0.659E+03   0.108E+03 -.155E+03 -.660E+03   -.161E+01 0.224E+01 0.136E+01   -.485E-03 -.288E-02 -.520E-02
   -.760E+02 -.116E+02 0.941E+02   0.777E+02 0.116E+02 -.929E+02   -.174E+01 0.703E-01 -.148E+01   0.236E-02 0.137E-02 -.165E-01
   -.119E+03 0.201E+02 0.106E+04   0.121E+03 -.202E+02 -.106E+04   -.101E+01 0.262E+00 -.217E+01   0.630E-02 -.203E-02 -.266E-02
   -.104E+03 -.633E+01 -.984E+03   0.105E+03 0.628E+01 0.985E+03   -.999E+00 0.565E-01 -.880E+00   0.352E-02 0.966E-03 -.231E-01
   -.354E+03 -.126E+01 -.181E+04   0.360E+03 0.133E+01 0.181E+04   -.701E+01 -.709E-01 -.229E+01   0.331E-01 0.673E-03 -.155E-01
   -.629E+02 0.467E+00 -.133E+04   0.642E+02 -.483E+00 0.133E+04   -.137E+01 0.202E-01 -.802E-01   -.416E-01 -.242E-02 -.502E-01
   -.118E+03 -.102E+02 -.234E+03   0.119E+03 0.102E+02 0.236E+03   -.137E+01 0.144E+00 -.214E+01   -.791E-02 -.419E-02 -.319E-01
   -.168E+03 -.164E+03 0.940E+03   0.169E+03 0.166E+03 -.941E+03   -.922E+00 -.251E+01 0.106E+01   -.402E-04 -.280E-02 -.881E-02
   0.120E+02 -.170E+03 0.170E+04   -.131E+02 0.173E+03 -.170E+04   0.169E+00 -.355E+01 0.322E+01   -.615E-02 -.290E-03 0.763E-02
   0.330E+02 0.160E+03 0.280E+03   -.345E+02 -.162E+03 -.281E+03   0.138E+01 0.230E+01 0.717E+00   0.587E-02 0.948E-02 -.208E-01
   -.153E+03 0.303E+03 0.136E+04   0.152E+03 -.308E+03 -.136E+04   0.265E+00 0.560E+01 0.140E+01   -.240E-02 0.751E-02 0.181E-02
   0.219E+03 0.526E+02 -.182E+04   -.221E+03 -.516E+02 0.182E+04   0.349E+01 -.146E+01 -.371E+01   -.746E-02 0.391E-02 -.953E-02
   0.959E+02 0.147E+03 -.791E+03   -.978E+02 -.149E+03 0.790E+03   0.195E+01 0.252E+01 0.337E+00   -.738E-02 0.310E-02 -.336E-01
   0.121E+03 0.167E+03 0.957E+03   -.122E+03 -.170E+03 -.958E+03   0.139E+01 0.235E+01 0.941E+00   0.439E-03 -.244E-02 -.210E-02
   0.193E+03 0.225E+03 0.181E+04   -.195E+03 -.228E+03 -.181E+04   0.237E+01 0.383E+01 0.316E+01   0.897E-02 -.137E-02 0.702E-02
   0.687E+02 0.197E+03 -.111E+04   -.698E+02 -.199E+03 0.111E+04   0.688E+00 0.203E+01 0.179E+01   0.211E-01 -.268E-01 -.556E-01
   0.747E+02 0.154E+03 -.841E+02   -.763E+02 -.156E+03 0.836E+02   0.158E+01 0.212E+01 0.406E+00   -.370E-03 -.397E-02 -.232E-01
   0.135E+03 0.128E+03 -.438E+03   -.137E+03 -.130E+03 0.437E+03   0.170E+01 0.239E+01 0.255E+00   0.419E-02 0.623E-02 -.261E-01
   0.173E+03 0.124E+03 0.617E+03   -.175E+03 -.126E+03 -.618E+03   0.180E+01 0.212E+01 0.863E+00   -.144E-02 0.783E-02 -.787E-02
   0.870E+02 0.936E+02 0.144E+04   -.890E+02 -.961E+02 -.144E+04   0.248E+01 0.288E+01 -.829E+00   0.530E-03 0.311E-02 0.618E-02
   0.147E+03 -.649E+02 -.165E+04   -.149E+03 0.660E+02 0.165E+04   0.300E+01 -.853E+00 -.342E+01   0.105E-01 0.545E-02 -.195E-01
   -.587E+02 0.901E+00 0.354E+02   0.117E-11 -.284E-12 0.455E-11   0.586E+02 -.828E+00 -.335E+02   0.716E-01 -.664E-01 -.189E+01

 POSITION                                       TOTAL-FORCE (eV/Angst)
      6.03859     -2.06748      7.16328        -0.272487      0.104322      0.114648
      7.93319     -2.06748      4.66016         0.371220      0.367851     -0.336533
      4.14400      7.51093      9.66639        -0.293256      0.139508     -1.096220
      0.36609      7.51093      5.49453        -0.021088      0.007199      0.125756
      2.26069      7.51093      2.99142         0.064146      0.015132     -0.366751
      4.15528      7.51093      0.48830        -1.210494     -0.369225      1.631703
      6.98025      2.72172     10.50076         0.648747      0.853280     -1.815363
      8.87485      2.72172      7.99765         0.000194     -0.221010      0.350453
      1.30774      2.72172      8.83202        -0.298004     -0.740198     -0.398871
      3.20234      2.72172      6.32891        -0.090351     -0.110958      0.052612
      5.09694      2.72172      3.82579         0.170760      0.196232      0.073503
      6.99153      2.72172      1.32268         0.738888      0.508194      0.776922
      2.39650     -0.80215      8.34372        -0.255667      0.057400      0.190963
      4.29109     -0.80215      5.84060         0.140430     -0.050201      0.113886
      6.18569     -0.80215      3.33749         0.289328     -0.311553     -0.281452
      8.08029     -0.80215      0.83437        -0.356366     -0.212928      2.176641
      0.51318      8.77626      1.66874        -0.020571     -0.045452     -0.768056
      5.23275      3.98706      9.17809         0.454393     -0.016946     -0.680306
      7.12734      3.98706      6.67497        -0.077519     -0.021370      0.178452
      9.02194      3.98706      4.17186         0.304656      0.020949      0.078768
      1.45484      3.98706      5.00623         0.006225      0.058337      0.195337
      3.34944      3.98706      2.50311        -0.350670      0.350907     -0.547403
      5.24403      3.98706      0.00000        -0.283009      0.149656      2.155635
      9.96360     -0.80215      7.50934        -0.048988     -0.023521      0.610679
      4.14400      0.46319      9.66639        -0.306060     -0.158578     -1.110660
      6.03859      0.46319      7.16328        -0.304797     -0.061435      0.149400
      7.93319      0.46319      4.66016         0.294137     -0.187837      0.146295
      9.82779      0.46319      2.15705         0.559625     -0.862077      0.826541
      0.36609      0.46319      5.49453         0.011897     -0.166293     -0.079371
      2.26069      0.46319      2.99142         0.037714     -0.006940     -0.306846
      4.15528      0.46319      0.48830        -1.107604      0.107061      1.569686
      6.98025      5.25240     10.50076         0.659260     -0.858992     -1.817057
      8.87485      5.25240      7.99765        -0.016740      0.230047      0.327160
      1.30774      5.25240      8.83202        -0.289748      0.772626     -0.404483
      3.20234      5.25240      6.32891        -0.088548      0.029658      0.044736
      5.09694      5.25240      3.82579         0.193378     -0.247810     -0.194386
      1.91849      0.80909      9.85483         1.047110      0.426244      0.006195
      3.81309      0.80909      7.35171         0.040527     -0.234583     -0.014259
      5.70769      0.80909      4.84860         0.064158     -0.051481     -0.231372
      7.60228      0.80909      2.34548         0.525973     -0.337566     -1.429162
      0.03518      0.80909      3.17986        -0.178029     -0.233932      0.250496
      1.92978      0.80909      0.67674         0.154805     -0.340074      0.655037
      6.64934      5.59829      8.18608        -0.371929     -0.112927      0.904858
      8.54394      5.59829      5.68297        -0.025179     -0.074304     -0.085057
      0.97684      5.59829      6.51734         0.041615     -0.301380     -0.244463
      2.87143      5.59829      4.01423        -0.028078     -0.144368      0.000034
      4.76603      5.59829      1.51111         0.146666     -0.437764     -1.445382
      9.48560      0.80909      9.02046         0.757920     -0.230148     -0.118213
      1.31873      3.98706      1.52661        -0.480175      0.856403     -0.578280
      6.03829     -0.80215      9.03596        -0.799533      0.010800      1.433815
      7.93289     -0.80215      6.53284         0.027792     -0.124637      0.063901
      9.82749     -0.80215      4.02973        -0.345362      0.119073     -0.298539
      2.26038     -0.80215      4.86410         0.036293      0.054489     -0.231250
      4.15498     -0.80215      2.36099         0.446496      0.066863     -1.061114
      0.36579      8.77626      7.36722         0.044154      0.013260      0.111257
      8.87455      3.98706      9.87033        -1.233192      0.000495      1.212602
      3.20204      3.98706      8.20159        -0.060155      0.002534      1.627600
      5.09664      3.98706      5.69847        -0.119840      0.097798     -0.052274
      6.99123      3.98706      3.19536        -0.117414     -0.118530     -0.489614
      8.88583      3.98706      0.69224        -0.911403     -0.624998     -0.010184
      5.70769     -2.41338      4.84860        -0.084303      0.110820     -0.109147
      7.60228     -2.41338      2.34548        -0.243230      1.033779     -0.516869
      1.91849      7.16503      9.85483         1.031016     -0.427653      0.017818
      3.81309      7.16503      7.35171         0.066669      0.190225     -0.030007
      0.03518      7.16503      3.17986         0.030069      0.042014     -0.306270
      1.92978      7.16503      0.67674         0.349961      0.310491      0.588000
      6.64934      2.37583      8.18608        -0.377069      0.138732      0.893994
      8.54394      2.37583      5.68297        -0.087604      0.128206     -0.100551
      0.97684      2.37583      6.51734         0.071355      0.289272     -0.263624
      2.87143      2.37583      4.01423        -0.026523      0.050003     -0.163171
      4.76603      2.37583      1.51111         0.565434      0.331445     -1.543027
      9.48560     -2.41338      9.02046         0.787972      0.226364     -0.129796
    total drift:                               -0.040836      0.006994     -0.012262

  FREE ENERGIE OF THE ION-ELECTRON SYSTEM (eV)
  free  energy   TOTEN  =      -351.74998335 eV

  energy  without entropy=     -350.58689564  energy(sigma->0) =     -351.16843950