 vasp.5.4.4.18Apr17-6-g9f103f2a35 (build Aug 13 2019 17:33:20) gamma-only

 executed on             LinuxIFC date 2020.05.11  19:59:51

 INCAR:
 POTCAR:    PAW_PBE Ni_pv 06Sep2000
 POTCAR:    PAW_PBE S 06Sep2000
 POTCAR:    PAW_PBE Ni_pv 06Sep2000
   VRHFIN =Ni:

   TITEL  = PAW_PBE Ni_pv 06Sep2000
   POMASS =   58.690; ZVAL   =   16.000    mass and valenz
   ENMAX  =  367.986; ENMIN  =  275.989 eV

 POTCAR:    PAW_PBE S 06Sep2000
   VRHFIN =S : s2p4

   TITEL  = PAW_PBE S 06Sep2000
   POMASS =   32.066; ZVAL   =    6.000    mass and valenz
   ENMAX  =  258.689; ENMIN  =  194.016 eV

 Optimization of the real space projectors (new method)

 maximal supplied QI-value         = 18.90
 optimisation between [QCUT,QGAM] = [ 10.77, 21.73] = [ 32.49,132.25] Ry
 Optimized for a Real-space Cutoff    1.38 Angstroem

   l    n(q)    QCUT    max X(q) W(low)/X(q) W(high)/X(q)  e(spline)
   1      8    10.771     2.836    0.40E-04    0.29E-04    0.12E-06
   1      8    10.771     4.023    0.10E-03    0.48E-04    0.29E-06
   2      8    10.771    73.368    0.42E-03    0.97E-04    0.44E-06
   2      8    10.771    69.010    0.42E-03    0.99E-04    0.45E-06
   0      9    10.771    54.797    0.10E-03    0.56E-04    0.74E-07
   0      9    10.771    24.266    0.89E-04    0.49E-04    0.67E-07
 Optimization of the real space projectors (new method)

 maximal supplied QI-value         = 19.84
 optimisation between [QCUT,QGAM] = [ 10.71, 21.63] = [ 32.15,130.99] Ry
 Optimized for a Real-space Cutoff    1.19 Angstroem

   l    n(q)    QCUT    max X(q) W(low)/X(q) W(high)/X(q)  e(spline)
   0      8    10.715   187.594    0.41E-03    0.53E-04    0.66E-07
   0      8    10.715   164.243    0.41E-03    0.53E-04    0.65E-07
   1      7    10.715    67.533    0.19E-03    0.59E-03    0.68E-07
   1      7    10.715    50.729    0.19E-03    0.58E-03    0.67E-07
  PAW_PBE Ni_pv 06Sep2000               :
  PAW_PBE S 06Sep2000                   :

 POSCAR: Type_036 Type_136
  positions in cartesian coordinates
 exchange correlation table for  LEXCH =        8
   RHO(1)=    0.500       N(1)  =     2000
   RHO(2)=  100.500       N(2)  =     4000

 ion  position               nearest neighbor table
   1  0.780  0.145  0.121-  63 2.02  49 2.08  41 2.14  50 2.36  64 2.36  26 2.54
   2  0.795  0.144  0.282-  64 2.02  50 2.05  42 2.06
   3  0.215  0.621  0.095-  43 2.03  44 2.12  61 2.17   4 2.41  51 2.50  15 2.50
   4  0.297  0.645  0.216-  52 2.13  62 2.14  44 2.25  51 2.26  61 2.26   3 2.41  29 2.53  16 2.53

   5  0.389  0.129  0.126-  45 2.04  46 2.14  67 2.21  53 2.34   6 2.41  18 2.53
   6  0.470  0.145  0.248-  68 2.11  54 2.11  53 2.13  46 2.25  67 2.26   5 2.41  31 2.53  19 2.53

[...]

  26  0.909  0.282  0.116-  49 2.06  66 2.11  50 2.11  38 2.19   1 2.54
  27  0.944  0.278  0.271-  37 2.06  38 2.08  50 2.17  65 2.18
  28  0.413  0.888  0.060-  51 2.08  67 2.08  29 2.37  15 2.50  39 2.58
  29  0.425  0.777  0.191-  52 2.17  67 2.25  39 2.26  51 2.26  40 2.36  28 2.37  30 2.46  16 2.53
                             4 2.53
  30  0.463  0.821  0.335-  68 2.00  52 2.04  40 2.07  29 2.46
  31  0.597  0.277  0.223-  54 2.07  42 2.12  41 2.18  69 2.25  53 2.32  18 2.52   6 2.53  19 2.53

  32  0.080  0.777  0.127-  43 2.06  56 2.08  71 2.11  44 2.36  55 2.36   7 2.53  20 2.53
  33  0.112  0.789  0.291-  55 2.02  44 2.05  72 2.09
  34  0.252  0.277  0.159-  45 2.07  57 2.09  61 2.25  46 2.36  58 2.36   9 2.53  22 2.53
  35  0.291  0.311  0.310-  58 2.04  62 2.04  46 2.04
  36  0.770  0.777  0.254-  60 2.01  48 2.08  59 2.22  64 2.25  47 2.33  12 2.53  25 2.53
  37  0.992  0.145  0.358-  10 2.02  14 2.06  27 2.06
  38  0.991  0.145  0.182-  27 2.08  14 2.10  13 2.13  26 2.19   9 2.25
  39  0.474  0.645  0.087-  11 2.01  15 2.02  29 2.26  16 2.26  28 2.58
  40  0.509  0.645  0.278-  30 2.07  17 2.07  11 2.15  12 2.25  29 2.36  16 2.36
  41  0.654  0.145  0.131-  18 2.05   1 2.14  19 2.17  31 2.18  42 2.62
  42  0.673  0.145  0.292-   2 2.06  19 2.12  31 2.12  41 2.62
  43  0.112  0.645  0.032-   3 2.03  20 2.06  32 2.06
  44  0.164  0.645  0.214-  21 2.05  33 2.05   3 2.12   4 2.25  32 2.36  20 2.36
  45  0.283  0.145  0.063-   5 2.04  22 2.06  34 2.07
  46  0.336  0.145  0.246-  23 2.04  35 2.04   5 2.14   6 2.25  34 2.36  22 2.36
  47  0.821  0.624  0.157-  25 2.09  24 2.16   7 2.22  36 2.33  48 2.70
  48  0.846  0.648  0.321-   8 2.05  36 2.08  25 2.11  47 2.70
  49  0.815  0.294  0.034-  24 2.02  26 2.06   1 2.08  63 2.70
  50  0.829  0.314  0.214-   2 2.05  26 2.11  24 2.13  27 2.17  25 2.25   1 2.36
  51  0.312  0.814  0.119-  15 2.05  28 2.08  22 2.25   4 2.26  29 2.26   3 2.50
  52  0.349  0.793  0.298-  23 2.04  30 2.04   4 2.13  29 2.17
  53  0.475  0.311  0.160-  18 2.06   6 2.13  16 2.18  31 2.32   5 2.34
  54  0.528  0.286  0.328-  17 2.00  31 2.07   6 2.11  68 2.75
  55  0.001  0.814  0.246-  33 2.02   8 2.03  14 2.20   7 2.36  32 2.36  56 2.75
  56  0.968  0.821  0.080-   7 2.07  32 2.08  13 2.09  55 2.75
  57  0.141  0.323  0.110-  34 2.09   9 2.10  20 2.11  58 2.78
  58  0.174  0.314  0.278-  35 2.04  21 2.09  10 2.12   9 2.36  34 2.36  57 2.78
  59  0.652  0.809  0.195-  12 2.09  11 2.17  19 2.21  36 2.22  60 2.71
  60  0.699  0.784  0.354-  36 2.01  12 2.04  59 2.71  70 2.78
  61  0.312  0.477  0.119-  15 2.04   3 2.17  34 2.25   4 2.26  16 2.26
  62  0.350  0.496  0.297-  35 2.04  17 2.05   4 2.14  16 2.14
  63  0.826  0.013  0.037-  13 2.00   1 2.02  49 2.70
  64  0.829  0.977  0.214-   2 2.02  13 2.10  14 2.15  36 2.25   1 2.36
  65  0.001  0.477  0.246-  21 2.03   8 2.03  27 2.18   7 2.36  20 2.36  66 2.74
  66  0.967  0.467  0.081-   7 2.08  20 2.10  26 2.11  65 2.74
  67  0.484  0.977  0.151-  18 2.06  28 2.08   5 2.21  29 2.25  19 2.26   6 2.26
  68  0.525  0.999  0.326-  30 2.00  19 2.08   6 2.11  54 2.75
  69  0.657  0.477  0.183-  11 2.22  24 2.23  31 2.25  25 2.26  12 2.26  70 2.78
  70  0.693  0.494  0.350-  25 2.03  12 2.04  69 2.78  60 2.78
  71  0.140  0.969  0.110-   9 2.09  22 2.10  32 2.11  72 2.77
  72  0.174  0.977  0.278-  23 2.04  33 2.09  10 2.12   9 2.36  22 2.36  71 2.77

  LATTYP: Found a simple orthorhombic cell.
 ALAT       =     9.5784100000
 B/A-ratio  =     1.6880763216
 C/A-ratio  =     1.7627867312

  Lattice vectors:

 A1 = (   0.0000000000,   9.5784100000,   0.0000000000)
 A2 = (   0.0000000000,   0.0000000000, -16.1690871197)
 A3 = ( -16.8846940542,   0.0000000000,   0.0000000000)

Analysis of symmetry for initial positions (statically):
 Subroutine PRICEL returns:
 Original cell was already a primitive cell.

 Routine SETGRP: Setting up the symmetry group for a
 simple orthorhombic supercell.

 Subroutine GETGRP returns: Found  1 space group operations
 (whereof  1 operations were pure point group operations)
 out of a pool of  8 trial point group operations.

The static configuration has the point symmetry C_1 .

Analysis of symmetry for dynamics (positions and initial velocities):
 Subroutine PRICEL returns:
 Original cell was already a primitive cell.

 Routine SETGRP: Setting up the symmetry group for a
 simple orthorhombic supercell.

 Subroutine GETGRP returns: Found  1 space group operations
 (whereof  1 operations were pure point group operations)
 out of a pool of  8 trial point group operations.

The dynamic configuration has the point symmetry C_1 .

 Subroutine INISYM returns: Found  1 space group operations
 (whereof  1 operations are pure point group operations),
 and found     1 'primitive' translations

 KPOINTS: gamma-point-only calculation. no periodi

Automatic generation of k-mesh.
Space group operators:
 irot       det(A)        alpha          n_x          n_y          n_z        tau_x        tau_y        tau_z
    1     1.000000     0.000000     1.000000     0.000000     0.000000     0.000000     0.000000     0.000000

 Subroutine IBZKPT returns following result:

 Found      1 irreducible k-points:

 Following reciprocal coordinates:
            Coordinates               Weight
  0.000000  0.000000  0.000000      1.000000

 Following cartesian coordinates:
            Coordinates               Weight
  0.000000  0.000000  0.000000      1.000000

 SYSTEM =  "Millerite NiS"
 POSCAR =  Type_036 Type_136

 Startparameter for this run:
   NWRITE =      2    write-flag & timer
   PREC   = normal    normal or accurate (medium, high low for compatibility)
   ISTART =      0    job   : 0-new  1-cont  2-samecut
   ICHARG =      2    charge: 1-file 2-atom 10-const
   ISPIN  =      1    spin polarized calculation?
   LNONCOLLINEAR =      F non collinear calculations
   LSORBIT =      F    spin-orbit coupling
   INIWAV =      1    electr: 0-lowe 1-rand  2-diag
   LASPH  =      F    aspherical Exc in radial PAW
   METAGGA=      F    non-selfconsistent MetaGGA calc.

 Electronic Relaxation 1
   ENCUT  =  450.0 eV  33.07 Ry    5.75 a.u.  29.20 16.57 27.97*2*pi/ulx,y,z
   ENINI  =  450.0     initial cutoff
   ENAUG  =  703.4 eV  augmentation charge cutoff
   NELM   =    100;   NELMIN=  2; NELMDL= -5     # of ELM steps
   EDIFF  = 0.1E-03   stopping-criterion for ELM
   LREAL  =      T    real-space projection
   NLSPLINE    = F    spline interpolate recip. space projectors
   LCOMPAT=      F    compatible to vasp.4.4
   GGA_COMPAT  = T    GGA compatible to vasp.4.4-vasp.4.6
   LMAXPAW     = -100 max onsite density
   LMAXMIX     =    2 max onsite mixed and CHGCAR
   VOSKOWN=      0    Vosko Wilk Nusair interpolation
   ROPT   =   -0.00050  -0.00050
 Ionic relaxation
   EDIFFG = 0.1E-02   stopping-criterion for IOM
   NSW    =      0    number of steps for IOM
   NBLOCK =      1;   KBLOCK =      1    inner block; outer block
   IBRION =     -1    ionic relax: 0-MD 1-quasi-New 2-CG
   NFREE  =      0    steps in history (QN), initial steepest desc. (CG)
   ISIF   =      2    stress and relaxation
   IWAVPR =     10    prediction:  0-non 1-charg 2-wave 3-comb
   ISYM   =      2    0-nonsym 1-usesym 2-fastsym
   LCORR  =      T    Harris-Foulkes like correction to forces

   POTIM  = 0.5000    time-step for ionic-motion
   TEIN   =    0.0    initial temperature
   TEBEG  =    0.0;   TEEND  =   0.0 temperature during run
   SMASS  =  -3.00    Nose mass-parameter (am)
   estimated Nose-frequenzy (Omega)   =  0.10E-29 period in steps =****** mass=  -0.652E-26a.u.
   SCALEE = 1.0000    scale energy and forces
   NPACO  =    256;   APACO  = 16.0  distance and # of slots for P.C.
   PSTRESS=    0.0 pullay stress

  Mass of Ions in am
   POMASS =  58.69 32.07
  Ionic Valenz
   ZVAL   =  16.00  6.00
  Atomic Wigner-Seitz radii
  virtual crystal weights
   VCA    =   1.00  1.00
   NELECT =     792.0000    total number of electrons
   NUPDOWN=      -1.0000    fix difference up-down

 DOS related values:
   EMIN   =  10.00;   EMAX   =-10.00  energy-range for DOS
   EFERMI =   0.00
   ISMEAR =     0;   SIGMA  =   0.20  broadening in eV -4-tet -1-fermi 0-gaus

 Electronic relaxation 2 (details)
   IALGO  =     38    algorithm
   LDIAG  =      T    sub-space diagonalisation (order eigenvalues)
   LSUBROT=      F    optimize rotation matrix (better conditioning)
   TURBO    =      0    0=normal 1=particle mesh
   IRESTART =      0    0=no restart 2=restart with 2 vectors
[...]
  Fock        0.00000     0.00000     0.00000     0.00000     0.00000     0.00000
  Total     119.02724   115.86119   136.02333     0.80701     0.71995     0.76112
  in kB      72.92641    70.98661    83.33969     0.49444     0.44110     0.46633

 VOLUME and BASIS-vectors are now :
  energy-cutoff  :      450.00
  volume of cell :     2615.00
      direct lattice vectors                 reciprocal lattice vectors
    16.884694054  0.000000000  0.000000000     0.059225237  0.000000000  0.000000000
     0.000000000  9.578410000  0.000000000     0.000000000  0.104401461  0.000000000
     0.000000000  0.000000000 16.169087120     0.000000000  0.000000000  0.061846411

  length of vectors
    16.884694054  9.578410000 16.169087120     0.059225237  0.104401461  0.061846411

 FORCES acting on ions
    electron-ion (+dipol)            ewald-force                    non-local-force                 convergence-correction
   0.756E+03 0.468E+03 0.218E+04   -.761E+03 -.470E+03 -.218E+04   0.455E+01 0.303E+01 0.443E+01   -.136E-01 -.588E-02 -.515E-02
   0.397E+03 0.120E+03 -.262E+04   -.401E+03 -.122E+03 0.262E+04   0.385E+01 0.211E+01 0.162E+01   0.116E-01 -.143E-01 0.171E-01
   0.183E+03 0.101E+03 0.294E+04   -.183E+03 -.101E+03 -.294E+04   0.880E+00 0.976E+00 0.784E+01   0.312E-01 0.307E-02 0.610E-02
   0.484E+03 0.480E+02 -.108E+04   -.487E+03 -.485E+02 0.109E+04   0.220E+01 0.301E+00 -.440E+01   -.180E-01 -.897E-02 -.212E-01
   -.108E+03 -.409E+03 0.241E+04   0.107E+03 0.409E+03 -.242E+04   0.144E+01 -.120E+00 0.810E+01   0.300E-02 -.735E-02 -.177E-01
   0.237E+02 -.622E+02 -.175E+04   -.269E+02 0.618E+02 0.175E+04   0.258E+01 0.296E+00 -.702E+01   -.408E-01 0.178E-01 -.296E-01
   0.913E+03 -.123E+03 0.148E+04   -.919E+03 0.123E+03 -.148E+04   0.532E+01 -.412E+00 0.394E+01   0.404E-01 0.336E-02 0.231E-01
   0.420E+03 -.297E+02 -.318E+04   -.422E+03 0.298E+02 0.318E+04   0.179E+01 0.113E-01 0.426E+00   0.622E-01 0.801E-02 0.180E-01
   0.631E+03 0.153E+00 0.912E+03   -.635E+03 -.557E-01 -.915E+03   0.402E+01 0.266E-01 0.300E+01   0.197E-01 -.223E-02 0.383E-01
   0.141E+03 0.491E+01 -.341E+04   -.145E+03 -.488E+01 0.341E+04   0.503E+01 -.823E-01 -.387E+00   0.187E-01 -.201E-02 0.137E-01
   -.774E+03 0.228E+02 0.197E+04   0.777E+03 -.225E+02 -.197E+04   -.289E+01 -.473E+00 0.393E+01   -.439E-01 -.221E-02 -.152E-01
   -.379E+02 -.510E+02 -.205E+04   0.344E+02 0.497E+02 0.205E+04   0.265E+01 0.761E+00 -.611E+01   -.385E-01 0.458E-02 0.341E-02
   0.162E+01 0.485E+03 0.243E+04   0.254E+01 -.489E+03 -.243E+04   -.348E+01 0.457E+01 0.530E+01   0.206E-01 -.362E-02 0.622E-02
   0.235E+03 0.530E+03 -.214E+04   -.234E+03 -.533E+03 0.215E+04   -.128E+01 0.261E+01 -.385E+01   0.417E-01 -.756E-02 0.322E-01
   -.230E+03 0.450E+03 0.400E+04   0.229E+03 -.451E+03 -.400E+04   0.760E+00 0.814E+00 0.500E+01   -.203E-01 0.164E-01 0.342E-02
   -.461E+03 0.605E+03 0.595E+03   0.461E+03 -.608E+03 -.596E+03   0.362E+00 0.337E+01 0.122E+00   -.356E-01 -.608E-02 -.673E-02
   -.299E+03 0.135E+03 -.349E+04   0.301E+03 -.139E+03 0.349E+04   -.244E+01 0.416E+01 0.152E+01   -.367E-01 -.111E-01 0.238E-02
   -.676E+03 -.207E+03 0.346E+04   0.677E+03 0.208E+03 -.347E+04   -.176E+01 -.714E+00 0.428E+01   -.463E-01 0.169E-02 -.234E-01
   -.855E+03 0.591E+03 -.465E+03   0.860E+03 -.598E+03 0.467E+03   -.341E+01 0.616E+01 -.294E+01   -.302E-01 0.175E-01 -.243E-01
   0.267E+03 0.617E+03 0.206E+04   -.268E+03 -.623E+03 -.206E+04   0.440E+00 0.471E+01 0.430E+01   0.469E-01 0.958E-02 0.242E-01
   -.602E+02 0.150E+03 -.279E+04   0.605E+02 -.152E+03 0.279E+04   0.527E-01 0.250E+01 -.162E+00   0.167E-01 0.177E-01 0.156E-01
   0.285E+03 0.350E+03 0.134E+04   -.287E+03 -.353E+03 -.135E+04   0.205E+01 0.199E+01 0.367E+01   0.176E-01 -.355E-02 -.885E-03
   0.112E+02 0.119E+03 -.323E+04   -.102E+02 -.123E+03 0.323E+04   -.807E+00 0.424E+01 0.204E+01   -.205E-01 0.658E-02 -.338E-03
   0.539E+03 -.528E+03 0.263E+04   -.542E+03 0.531E+03 -.264E+04   0.184E+01 -.214E+01 0.703E+01   -.502E-02 -.105E-01 -.308E-01
   -.157E+03 0.211E+03 -.149E+04   0.159E+03 -.214E+03 0.149E+04   -.109E+01 0.289E+01 -.589E+01   0.123E-01 0.263E-02 0.945E-02
   -.350E+03 -.194E+03 0.252E+04   0.357E+03 0.197E+03 -.252E+04   -.547E+01 -.329E+01 0.516E+01   0.246E-01 0.269E-02 -.717E-02
   0.168E+03 -.454E+03 -.215E+04   -.166E+03 0.457E+03 0.216E+04   -.339E+01 -.230E+01 -.405E+01   0.466E-01 -.568E-02 0.251E-01
   -.537E+03 -.277E+03 0.391E+04   0.535E+03 0.278E+03 -.391E+04   0.245E+01 -.837E+00 -.193E+01   -.235E-01 0.175E-02 -.702E-02
   -.519E+03 -.264E+03 0.116E+03   0.519E+03 0.266E+03 -.114E+03   0.284E-01 -.234E+01 -.172E+01   -.389E-01 0.266E-02 -.424E-01
   -.320E+03 -.114E+03 -.360E+04   0.322E+03 0.118E+03 0.360E+04   -.230E+01 -.405E+01 0.224E+01   -.321E-01 -.605E-02 0.893E-03
   -.668E+03 -.547E+03 -.493E+03   0.672E+03 0.554E+03 0.494E+03   -.248E+01 -.583E+01 -.166E+01   -.446E-01 -.254E-02 -.209E-01
   0.207E+03 -.637E+03 0.208E+04   -.207E+03 0.642E+03 -.208E+04   -.135E+00 -.483E+01 0.447E+01   0.453E-01 -.551E-02 0.314E-01
   -.473E+02 -.157E+03 -.277E+04   0.473E+02 0.159E+03 0.277E+04   0.362E+00 -.262E+01 -.468E+00   0.896E-02 -.128E-01 0.161E-01
   0.460E+02 -.424E+03 0.143E+04   -.473E+02 0.427E+03 -.143E+04   0.162E+01 -.236E+01 0.390E+01   0.172E-01 0.637E-02 0.162E-01
   -.278E+02 -.147E+03 -.318E+04   0.288E+02 0.151E+03 0.318E+04   -.839E+00 -.448E+01 0.183E+01   -.934E-02 0.811E-02 0.564E-02
   -.191E+03 -.552E+03 -.906E+03   0.194E+03 0.557E+03 0.904E+03   -.224E+01 -.488E+01 -.883E+00   0.167E-01 0.228E-01 0.645E-02
   0.140E+03 0.574E+01 -.157E+04   -.140E+03 -.577E+01 0.157E+04   -.862E+00 0.752E-01 -.153E+01   0.224E-01 -.409E-02 -.319E-03
   -.190E+03 0.767E+01 0.395E+03   0.192E+03 -.796E+01 -.398E+03   0.386E+00 0.433E+00 0.134E+01   0.182E-01 -.109E-02 0.120E-01
   -.478E+03 0.158E+03 0.138E+04   0.482E+03 -.160E+03 -.139E+04   -.285E+01 0.264E+01 0.268E+01   -.244E-01 0.501E-02 -.611E-02
   -.232E+03 0.113E+02 -.828E+03   0.232E+03 -.113E+02 0.834E+03   0.923E+00 -.507E-01 -.396E+01   -.160E-01 -.847E-02 0.338E-03
   -.226E+03 0.779E+02 0.945E+03   0.226E+03 -.781E+02 -.950E+03   0.157E-01 -.986E-01 0.257E+01   -.189E-01 0.302E-02 -.906E-02
   -.129E+03 0.309E+02 -.108E+04   0.130E+03 -.310E+02 0.108E+04   -.763E+00 0.103E+00 -.332E+01   -.100E-02 0.285E-02 0.660E-03
   0.148E+03 -.316E+02 0.174E+04   -.148E+03 0.318E+02 -.174E+04   0.419E+00 -.716E-01 0.178E+01   0.197E-01 -.189E-03 0.577E-02
   -.768E+02 -.237E+02 -.281E+03   0.771E+02 0.240E+02 0.285E+03   0.132E+01 -.174E+00 -.346E+01   0.832E-03 0.192E-02 0.117E-01
   0.121E+03 -.880E+02 0.165E+04   -.122E+03 0.885E+02 -.165E+04   0.158E+01 -.382E+00 0.204E+01   0.129E-01 -.314E-02 0.338E-02
   -.106E+03 -.442E+02 -.585E+03   0.106E+03 0.442E+02 0.591E+03   0.565E+00 -.108E+00 -.459E+01   -.446E-02 0.772E-02 -.256E-02
   0.785E+02 -.270E+03 0.755E+03   -.793E+02 0.272E+03 -.759E+03   0.132E+01 -.493E+00 0.204E+01   0.101E-01 0.806E-02 -.589E-02
   -.132E+02 -.293E+02 -.123E+04   0.150E+02 0.295E+02 0.124E+04   -.714E+00 -.145E+00 -.300E+01   0.244E-01 0.822E-02 0.979E-02
   0.126E+03 -.861E+02 0.168E+04   -.126E+03 0.884E+02 -.169E+04   -.386E+00 -.191E+01 0.226E+01   0.251E-03 -.238E-02 -.944E-02
   0.113E+03 -.134E+03 -.307E+03   -.113E+03 0.133E+03 0.311E+03   -.939E+00 0.135E+01 -.230E+01   0.773E-02 -.118E-01 0.409E-02
   0.283E+03 -.194E+03 0.810E+03   -.286E+03 0.197E+03 -.811E+03   0.101E+01 -.133E+01 0.341E+00   0.712E-02 -.737E-02 -.103E-01
   0.178E+03 0.611E+02 -.118E+04   -.179E+03 -.606E+02 0.118E+04   0.279E+00 -.106E-01 -.251E+01   -.113E-01 -.258E-02 -.494E-02
   -.850E+02 -.292E+03 0.650E+03   0.839E+02 0.294E+03 -.652E+03   0.527E+00 -.808E+00 0.101E+01   -.977E-02 -.941E-02 -.733E-02
   -.212E+03 0.452E+02 -.140E+04   0.213E+03 -.441E+02 0.141E+04   -.812E+00 -.908E+00 -.249E+01   -.158E-01 0.685E-02 -.206E-02
   0.208E+03 -.175E+03 -.440E+03   -.208E+03 0.177E+03 0.441E+03   -.534E+00 -.468E+00 -.138E+01   0.255E-01 -.585E-02 0.182E-01
   0.239E+03 -.739E+02 0.134E+04   -.241E+03 0.735E+02 -.135E+04   0.917E+00 0.114E+01 0.381E+01   0.125E-01 -.366E-02 0.244E-03
   0.168E+03 0.584E+02 0.114E+04   -.169E+03 -.601E+02 -.115E+04   0.506E+00 0.131E+01 0.396E+01   0.104E-01 0.349E-02 0.530E-02
   0.869E+02 -.123E+03 -.810E+03   -.877E+02 0.124E+03 0.812E+03   0.141E-02 -.151E+01 -.154E+01   0.319E-02 0.297E-02 0.109E-01
   -.208E+03 -.180E+03 0.445E+03   0.208E+03 0.182E+03 -.449E+03   0.111E+00 0.566E-01 0.247E+01   -.699E-02 0.120E-02 -.478E-02
   -.312E+02 -.247E+03 -.148E+04   0.306E+02 0.250E+03 0.148E+04   0.303E+00 -.213E+01 -.154E+01   -.173E-02 0.414E-02 0.613E-02
   -.199E+02 0.369E+03 0.918E+03   0.199E+02 -.372E+03 -.921E+03   -.696E+00 0.184E+01 0.271E+01   -.216E-02 0.119E-01 -.303E-02
   0.164E+03 -.377E+02 -.114E+04   -.166E+03 0.372E+02 0.115E+04   -.360E-02 0.537E-01 -.244E+01   -.785E-02 -.943E-02 -.138E-03
   0.215E+03 0.314E+03 0.153E+04   -.216E+03 -.318E+03 -.153E+04   0.314E+00 0.208E+01 0.155E+01   -.399E-02 -.392E-03 -.904E-02
   0.248E+03 0.310E+03 -.955E+02   -.250E+03 -.312E+03 0.968E+02   0.117E+01 -.275E+00 -.347E+00   0.260E-02 0.217E-02 0.100E-01
   0.184E+03 0.161E+03 -.454E+03   -.184E+03 -.163E+03 0.456E+03   -.618E+00 0.400E+00 -.126E+01   0.244E-01 0.929E-02 0.155E-01
   0.152E+03 0.504E+02 0.133E+04   -.154E+03 -.502E+02 -.134E+04   0.129E+01 -.992E+00 0.389E+01   0.109E-01 0.314E-03 -.583E-03
   -.321E+03 0.183E+03 0.551E+03   0.322E+03 -.186E+03 -.552E+03   -.175E+01 0.158E+01 0.293E+00   -.210E-01 0.779E-02 -.206E-01
   -.227E+03 -.408E+02 -.138E+04   0.228E+03 0.399E+02 0.139E+04   -.565E+00 0.590E+00 -.212E+01   -.131E-01 0.369E-02 0.243E-02
   0.241E+02 0.508E+02 0.473E+03   -.264E+02 -.532E+02 -.476E+03   0.152E+01 0.153E+01 0.196E+01   -.205E-01 -.603E-02 -.641E-02
   -.128E+02 0.242E+03 -.147E+04   0.117E+02 -.245E+03 0.148E+04   0.480E+00 0.176E+01 -.664E+00   -.123E-01 -.313E-02 0.129E-01
   0.183E+03 -.315E+02 0.114E+04   -.184E+03 0.327E+02 -.115E+04   0.547E+00 -.108E+01 0.388E+01   0.996E-02 -.403E-02 0.601E-02
   0.998E+02 0.125E+03 -.810E+03   -.101E+03 -.127E+03 0.813E+03   0.141E-02 0.147E+01 -.150E+01   -.853E-02 -.525E-02 0.852E-02
   -.143E+02 -.932E+01 -.434E+02   -.264E-11 0.639E-12 -.591E-11   0.143E+02 0.920E+01 0.433E+02   0.274E-01 0.378E-01 0.103E+00

 POSITION                                       TOTAL-FORCE (eV/Angst)
     13.17084      1.39171      1.94975         0.196442      0.322321      1.598292
     13.42035      1.37655      4.56755         0.139251      0.339445      1.195508
      3.62718      5.94489      1.54058         0.969553      0.322254     -0.151688
      5.02033      6.18092      3.49202        -0.316649     -0.174264     -0.178242
      6.56004      1.23091      2.03135         0.567503      0.252460     -0.399773
      7.93172      1.39171      4.00611        -0.696152     -0.035313      0.011749
     16.08224      6.18092      2.46384        -0.422445     -0.381873      2.005998
     16.32908      6.18271      5.07254         0.268816      0.073034      0.788354
      2.10894      1.39171      2.97793        -0.583699      0.122527      0.545646
      1.84175      1.39182      5.32493         1.336438     -0.051939      0.878372
      9.61666      6.19085      2.60275         0.411099     -0.210756     -0.500032
     10.84312      6.18092      4.52020        -0.857531     -0.522086     -0.229326
     15.42585      0.04343      1.94517         0.695484      0.467251     -0.053756
     15.90229      0.12074      4.39725        -0.745782     -0.665658      0.102039
      6.04456      6.17839      0.94084        -0.388280     -0.039197     -1.596110
      7.17375      4.91558      3.08454         0.432070     -0.020674     -1.110858
      7.86140      4.44378      5.36159        -0.109489      0.675902      0.903192
      9.05029      1.46270      1.63447        -0.030705      0.121821     -1.843894
     10.08514      0.12638      3.59863         1.138922     -0.783674     -0.936194
      1.35096      4.91558      2.05636        -0.010909     -0.558962      1.540225
      1.90110      4.80663      4.71012         0.425297      0.467156      1.090079
      4.26235      0.12638      2.57045         0.020769     -0.823842      1.131825
      4.91229      9.38568      5.01559         0.198149      0.077547      0.779576
     13.00448      4.08785      1.92384        -0.844747      0.738143      0.088659
     12.99653      4.91558      4.11272         0.661019     -0.522667     -0.563927
     15.34373      2.69826      1.87602         1.245310     -0.458344      0.041135
     15.93160      2.66323      4.38289        -0.996910      0.868533     -0.107352
      6.97011      8.50547      0.96976         0.278960      0.207939     -0.749397
      7.17375      7.44626      3.08454         0.635960     -0.359556      0.069661
      7.82353      7.86540      5.41574        -0.135890     -0.520928      0.712183
     10.08514      2.65705      3.59863         0.901045      0.782459     -1.111703
      1.35096      7.44626      2.05636         0.328176      0.438654      1.777538
      1.89894      7.55499      4.71208         0.349557     -0.461102      1.041901
      4.26235      2.65705      2.57045         0.399382      0.614167      1.214966
      4.91113      2.97784      5.01408         0.195940     -0.085720      0.636342
     12.99653      7.44626      4.11272         0.776230      0.531753     -2.927167
     16.75536      1.38988      5.78288        -0.232024      0.044372      3.205278
     16.74052      1.39171      2.94940         2.207603      0.147295     -1.979423
      8.00634      6.18092      1.40713         1.141794      0.337740     -2.630161
      8.59001      6.18092      4.49167         0.871685     -0.082424      1.352167
     11.04160      1.38804      2.11015         0.439119     -0.320305     -1.869922
     11.36904      1.38423      4.71374         0.821082     -0.006396      2.477948
      1.88511      6.18049      0.52459         0.093328      0.131713     -3.927211
      2.76722      6.18092      3.46349         1.558077      0.158013      0.689578
      4.78673      1.39037      1.02563         0.380553      0.049661     -3.743655
      5.67861      1.39171      3.97758         0.929049     -0.070479      1.049147
     13.86912      5.97674      2.53227         0.514957      1.503686     -1.802363
     14.28132      6.20652      5.18692         1.074323      0.042432      2.568710
     13.76477      2.81670      0.55518        -0.302736      0.319902     -4.017718
     13.99844      3.00295      3.46826        -0.565415      1.019697      1.846980
      5.26426      7.79215      1.92599        -1.813818      1.176082     -0.479496
      5.88543      7.59986      4.82403        -1.121962      0.443382      1.822709
      8.02239      2.97583      2.58537        -0.557289      1.248170     -1.128169
      8.90678      2.73781      5.30438         0.092644      0.146867      2.699022
      0.02514      7.79215      3.98236        -0.962867      1.541561      0.584153
     16.34220      7.85974      1.28797        -0.828007      0.776857     -2.956200
      2.37833      3.09718      1.77757        -0.831193     -0.357590     -2.689819
      2.93654      3.00295      4.49645        -0.832884      0.049068      1.049430
     11.01383      7.75293      3.15279         0.058932      1.679036     -1.521064
     11.80965      7.50556      5.72989        -0.371515      1.272205      3.750721
      5.26426      4.56969      1.92599        -0.769414     -1.665037     -0.294420
      5.91055      4.74669      4.80567        -1.188318     -0.430332      1.953362
     13.95208      0.12301      0.59266        -0.763159     -1.664981     -3.593254
     13.99844      9.35889      3.46826        -1.172779     -2.220995      0.910945
      0.02514      4.56969      3.98236        -0.845495     -1.436372      0.627072
     16.32871      4.46931      1.30506        -0.394096     -0.782332     -2.805342
      8.17565      9.35889      2.44008        -0.253715     -1.312801     -0.467830
      8.86733      9.57063      5.27498         0.046338     -0.279147      2.734418
     11.08705      4.56969      2.95417        -0.877300     -0.853889     -1.071100
     11.70186      4.72937      5.65973        -0.593447     -1.473366      3.738512
      2.35969      9.27773      1.78549        -0.618275      0.069088     -2.733829
      2.93654      9.35889      4.49645        -0.765960      0.052813      0.957002
    total drift:                                0.011563     -0.078630      0.036342

  FREE ENERGIE OF THE ION-ELECTRON SYSTEM (eV)
  free  energy   TOTEN  =      -342.74096622 eV

  energy  without entropy=     -341.67443364  energy(sigma->0) =     -342.20769993