 vasp.6.1.0 28Jan20 (build Mar 31 2020 17:42:31) gamma-only

 executed on             LinuxIFC date 2020.04.12  20:59:25

 INCAR:
 POTCAR:    PAW_PBE Ni_pv 06Sep2000
 POTCAR:    PAW_PBE S 06Sep2000
 POTCAR:    PAW_PBE Ni_pv 06Sep2000
   VRHFIN =Ni:

   TITEL  = PAW_PBE Ni_pv 06Sep2000
   POMASS =   58.690; ZVAL   =   16.000    mass and valenz
   ENMAX  =  367.986; ENMIN  =  275.989 eV

 POTCAR:    PAW_PBE S 06Sep2000
   VRHFIN =S : s2p4

   TITEL  = PAW_PBE S 06Sep2000
   POMASS =   32.066; ZVAL   =    6.000    mass and valenz
   ENMAX  =  258.689; ENMIN  =  194.016 eV

 Optimization of the real space projectors (new method)

 maximal supplied QI-value         = 18.90
 optimisation between [QCUT,QGAM] = [ 10.77, 21.73] = [ 32.49,132.25] Ry
 Optimized for a Real-space Cutoff    1.38 Angstroem

   l    n(q)    QCUT    max X(q) W(low)/X(q) W(high)/X(q)  e(spline)
   1      8    10.771     2.836    0.40E-04    0.29E-04    0.12E-06
   1      8    10.771     4.023    0.10E-03    0.48E-04    0.29E-06
   2      8    10.771    73.368    0.42E-03    0.97E-04    0.44E-06
   2      8    10.771    69.010    0.42E-03    0.99E-04    0.45E-06
   0      9    10.771    54.797    0.10E-03    0.56E-04    0.74E-07
   0      9    10.771    24.266    0.89E-04    0.49E-04    0.67E-07
 Optimization of the real space projectors (new method)

 maximal supplied QI-value         = 19.84
 optimisation between [QCUT,QGAM] = [ 10.71, 21.63] = [ 32.15,130.99] Ry
 Optimized for a Real-space Cutoff    1.19 Angstroem

   l    n(q)    QCUT    max X(q) W(low)/X(q) W(high)/X(q)  e(spline)
   0      8    10.715   187.594    0.41E-03    0.53E-04    0.66E-07
   0      8    10.715   164.243    0.41E-03    0.53E-04    0.65E-07
   1      7    10.715    67.533    0.19E-03    0.59E-03    0.68E-07
   1      7    10.715    50.729    0.19E-03    0.58E-03    0.67E-07
  PAW_PBE Ni_pv 06Sep2000               :
  PAW_PBE S 06Sep2000                   :

 POSCAR: Structure 25 made from 0-21-10.xsd file
  positions in direct lattice
 exchange correlation table for  LEXCH =        8
   RHO(1)=    0.500       N(1)  =     2000
   RHO(2)=  100.500       N(2)  =     4000

 ion  position               nearest neighbor table
   1  0.638  0.429  0.080-  46 2.25  66 2.26  67 2.36  55 2.36  29 2.53  15 2.53
   2  0.729  0.611  0.200-  47 2.25  55 2.26  67 2.26  68 2.36  56 2.36  16 2.53  30 2.53
   3  0.820  0.793  0.320-  48 2.25  56 2.26  68 2.26  69 2.36  54 2.36  27 2.53  17 2.53
   4  0.911  0.975  0.440-  44 2.25  54 2.26  69 2.26  53 2.36  18 2.53  28 2.53
   5  0.456  0.066  0.280-  49 2.25  74 2.26  57 2.26  70 2.36  58 2.36  31 2.53  22 2.53
   6  0.547  0.248  0.400-  50 2.25  70 2.26  58 2.26  71 2.36  59 2.36  19 2.53  32 2.53
   7  0.274  0.702  0.040-  72 2.26  73 2.36  60 2.36  33 2.53  20 2.53
   8  0.365  0.884  0.160-  52 2.25  60 2.26  73 2.26  74 2.36  57 2.36  21 2.53  34 2.53
   9  0.002  0.156  0.120-  42 2.25  61 2.26  78 2.26  77 2.36  62 2.36  25 2.53  35 2.53
  10  0.093  0.339  0.240-  43 2.25  62 2.26  77 2.26  75 2.36  63 2.36  36 2.53  23 2.53
  11  0.184  0.521  0.360-  40 2.25  75 2.26  63 2.26  76 2.36  64 2.36  24 2.53  37 2.53
  12  0.275  0.703  0.480-  41 2.25  76 2.26  64 2.26  65 2.36  38 2.53
  13  0.911  0.974  0.000-  78 2.36  61 2.36  26 2.53  39 2.53
  14  0.595  0.079  0.023-  60 2.25  66 2.36  42 2.36
  15  0.686  0.261  0.143-  57 2.25  42 2.26  66 2.26  67 2.36  43 2.36  29 2.53   1 2.53
  16  0.777  0.443  0.264-  58 2.25  67 2.26  43 2.26  68 2.36  40 2.36   2 2.53  30 2.53
  17  0.868  0.625  0.384-  59 2.25  40 2.26  68 2.26  69 2.36  41 2.36  27 2.53   3 2.53
  18  0.959  0.807  0.504-  69 2.26  41 2.26   4 2.53  28 2.53
  19  0.596  0.080  0.464-  65 2.25  70 2.26  44 2.26  71 2.36  45 2.36   6 2.53  32 2.53
  20  0.322  0.534  0.103-  62 2.25  46 2.26  72 2.26  47 2.36  73 2.36  33 2.53   7 2.53
  21  0.413  0.716  0.224-  63 2.25  47 2.26  73 2.26  74 2.36  48 2.36   8 2.53  34 2.53
  22  0.504  0.898  0.344-  64 2.25  48 2.26  74 2.26  70 2.36  44 2.36  31 2.53   5 2.53
  23  0.141  0.171  0.304-  54 2.25  49 2.26  77 2.26  50 2.36  75 2.36  36 2.53  10 2.53
  24  0.232  0.353  0.424-  53 2.25  50 2.26  75 2.26  76 2.36  51 2.36  11 2.53  37 2.53
  25  0.050  0.988  0.184-  56 2.25  52 2.26  78 2.26  77 2.36  49 2.36   9 2.53  35 2.53
  26  0.959  0.806  0.063-  55 2.25  78 2.36  52 2.36  13 2.53  39 2.53
  27  0.084  0.793  0.320-  74 2.25  56 2.26  40 2.26  54 2.36  41 2.36  17 2.53   3 2.53
  28  0.175  0.975  0.440-  70 2.25  54 2.26  41 2.26  53 2.36   4 2.53  18 2.53
  29  0.902  0.429  0.080-  72 2.25  42 2.26  43 2.36  55 2.36  15 2.53   1 2.53
  30  0.993  0.611  0.200-  73 2.25  55 2.26  43 2.26  40 2.36  56 2.36   2 2.53  16 2.53
  31  0.721  0.066  0.280-  77 2.25  48 2.26  57 2.26  44 2.36  58 2.36  22 2.53   5 2.53
  32  0.812  0.248  0.400-  75 2.25  44 2.26  58 2.26  45 2.36  59 2.36   6 2.53  19 2.53
  33  0.538  0.702  0.040-  46 2.26  47 2.36  60 2.36  20 2.53   7 2.53
  34  0.630  0.884  0.160-  78 2.25  47 2.26  60 2.26  48 2.36  57 2.36   8 2.53  21 2.53
  35  0.266  0.156  0.120-  66 2.25  61 2.26  52 2.26  49 2.36  62 2.36   9 2.53  25 2.53
  36  0.357  0.339  0.240-  67 2.25  62 2.26  49 2.26  50 2.36  63 2.36  23 2.53  10 2.53
  37  0.448  0.521  0.360-  68 2.25  50 2.26  63 2.26  51 2.36  64 2.36  11 2.53  24 2.53
  38  0.539  0.703  0.480-  69 2.25  51 2.26  64 2.26  65 2.36  12 2.53
  39  0.175  0.974  0.000-  52 2.36  61 2.36  13 2.53  26 2.53
  40  0.013  0.579  0.311-  11 2.25  17 2.26  27 2.26  30 2.36  16 2.36
  41  0.104  0.761  0.431-  12 2.25  28 2.26  18 2.26  27 2.36  17 2.36
  42  0.831  0.215  0.071-   9 2.25  29 2.26  15 2.26  14 2.36
  43  0.922  0.397  0.191-  10 2.25  30 2.26  16 2.26  29 2.36  15 2.36
  44  0.741  0.034  0.391-   4 2.25  32 2.26  19 2.26  31 2.36  22 2.36
  45  0.832  0.216  0.511-  32 2.36  19 2.36
  46  0.468  0.488  0.031-   1 2.25  33 2.26  20 2.26
  47  0.559  0.670  0.151-   2 2.25  34 2.26  21 2.26  33 2.36  20 2.36
  48  0.650  0.852  0.271-   3 2.25  31 2.26  22 2.26  34 2.36  21 2.36
  49  0.286  0.125  0.231-   5 2.25  23 2.26  36 2.26  35 2.36  25 2.36
  50  0.377  0.307  0.351-   6 2.25  37 2.26  24 2.26  36 2.36  23 2.36
  51  0.468  0.489  0.471-  38 2.26  37 2.36  24 2.36
  52  0.195  0.942  0.111-   8 2.25  25 2.26  35 2.26  39 2.36  26 2.36
  53  0.134  0.157  0.471-  24 2.25  28 2.36   4 2.36
  54  0.043  0.975  0.350-  23 2.25  28 2.26   4 2.26  27 2.36   3 2.36
  55  0.861  0.611  0.110-  26 2.25  30 2.26   2 2.26  29 2.36   1 2.36
  56  0.952  0.793  0.230-  25 2.25  27 2.26   3 2.26  30 2.36   2 2.36
  57  0.588  0.066  0.190-  15 2.25   5 2.26  31 2.26   8 2.36  34 2.36
  58  0.680  0.248  0.310-  16 2.25   6 2.26  32 2.26   5 2.36  31 2.36
  59  0.771  0.430  0.430-  17 2.25   6 2.36  32 2.36
  60  0.497  0.884  0.070-  14 2.25   8 2.26  34 2.26   7 2.36  33 2.36
[...]
  64  0.407  0.703  0.390-  22 2.25  12 2.26  38 2.26  11 2.36  37 2.36
  65  0.498  0.885  0.511-  19 2.25  12 2.36  38 2.36
  66  0.495  0.215  0.071-  35 2.25   1 2.26  15 2.26  14 2.36
  67  0.586  0.397  0.191-  36 2.25  16 2.26   2 2.26   1 2.36  15 2.36
  68  0.677  0.579  0.311-  37 2.25  17 2.26   3 2.26  16 2.36   2 2.36
  69  0.768  0.761  0.431-  38 2.25  18 2.26   4 2.26  17 2.36   3 2.36
  70  0.404  0.034  0.391-  28 2.25   6 2.26  19 2.26   5 2.36  22 2.36
  71  0.495  0.216  0.511-   6 2.36  19 2.36
  72  0.131  0.488  0.031-  29 2.25   7 2.26  20 2.26
  73  0.222  0.670  0.151-  30 2.25   8 2.26  21 2.26   7 2.36  20 2.36
  74  0.313  0.852  0.271-  27 2.25   5 2.26  22 2.26   8 2.36  21 2.36
  75  0.041  0.307  0.351-  32 2.25  11 2.26  24 2.26  10 2.36  23 2.36
  76  0.132  0.489  0.471-  12 2.26  11 2.36  24 2.36
  77  0.950  0.125  0.231-  31 2.25  23 2.26  10 2.26  25 2.36   9 2.36
  78  0.859  0.942  0.111-  34 2.25  25 2.26   9 2.26  26 2.36  13 2.36

  LATTYP: Found a base centered orthorhombic cell.
 ALAT       =     9.5784100000
 B/A-ratio  =     2.1722506660
 C/A-ratio  =     2.1764395278

  Lattice vectors:

 A1 = (   8.7007307979,   7.4473846003,   0.0000000000)
 A2 = (   0.0000000000, -11.4527836704,   0.0000000000)
 A3 = (   0.0000000000,   0.0000000000, -20.8468301371)

Analysis of symmetry for initial positions (statically):
 Subroutine PRICEL returns:
 Original cell was already a primitive cell.

 Routine SETGRP: Setting up the symmetry group for a
 base centered orthorhombic supercell.

 Subroutine GETGRP returns: Found  2 space group operations
 (whereof  1 operations were pure point group operations)
 out of a pool of  8 trial point group operations.

The static configuration has the point symmetry C_1 .
 The point group associated with its full space group is C_1h.

Analysis of symmetry for dynamics (positions and initial velocities):
 Subroutine PRICEL returns:
 Original cell was already a primitive cell.

 Routine SETGRP: Setting up the symmetry group for a
 base centered orthorhombic supercell.

 Subroutine GETGRP returns: Found  2 space group operations
 (whereof  1 operations were pure point group operations)
 out of a pool of  8 trial point group operations.

The dynamic configuration has the point symmetry C_1 .
 The point group associated with its full space group is C_1h.

 Subroutine INISYM returns: Found  2 space group operations
 (whereof  1 operations are pure point group operations),
 and found     1 'primitive' translations

                                     Primitive cell

  volume of cell :    2077.3363

  direct lattice vectors                    reciprocal lattice vectors
     8.700730798 -4.005399070  0.000000000     0.114932874  0.000000000  0.000000000
     0.000000000 11.452783670  0.000000000     0.040195645  0.087315017  0.000000000
     0.000000000  0.000000000 20.846830137     0.000000000  0.000000000  0.047968923

  length of vectors
     9.578410000 11.452783670 20.846830137     0.114932874  0.096122849  0.047968923

  position of ions in fractional coordinates (direct lattice)
     0.637935914  0.429045576  0.080047810
     0.728992922  0.611159592  0.200119525
     0.820049929  0.793273607  0.320191240
     0.911106937  0.975387622  0.440262955
     0.456364260  0.065902268  0.280167335
     0.547421268  0.248016283  0.400239050
     0.274250245  0.701674238  0.040023905
     0.365307253  0.883788253  0.160095620
     0.001621584  0.156416915  0.120071715
     0.092678591  0.338530930  0.240143430
     0.183735599  0.520644945  0.360215145
     0.274792606  0.702758960  0.480286860
     0.910564576  0.974302900  0.000000000
     0.594994522  0.078956792  0.023423430
     0.686051530  0.261070807  0.143495145
     0.777108537  0.443184823  0.263566860
     0.868165545  0.625298838  0.383638575
     0.959222552  0.807412853  0.503710290
     0.595536883  0.080041514  0.463686385
     0.322365861  0.533699469  0.103471240
     0.413422868  0.715813484  0.223542955
     0.504479876  0.897927499  0.343614670
     0.140794207  0.170556161  0.303590765
     0.231851214  0.352670176  0.423662480
     0.049737199  0.988442146  0.183519050
     0.958680191  0.806328131  0.063447335
     0.084255929  0.793273607  0.320191240
     0.175312937  0.975387622  0.440262955
[...]
     0.000000000  0.000000000 20.846830137     0.000000000  0.000000000  0.047968923

  length of vectors
     9.578410000 11.452783670 20.846830137     0.114932874  0.096122849  0.047968923

 FORCES acting on ions
    electron-ion (+dipol)            ewald-force                    non-local-force                 convergence-correction
   0.231E+03 -.262E+03 0.427E+04   -.234E+03 0.263E+03 -.427E+04   0.255E+01 -.122E+01 0.166E+01   -.661E-03 0.655E-01 0.255E+00
   0.321E+03 -.341E+03 0.138E+04   -.322E+03 0.341E+03 -.138E+04   0.112E+01 0.389E-01 0.111E+01   0.388E-01 -.140E+00 0.422E+00
   0.319E+03 -.349E+03 -.135E+04   -.319E+03 0.350E+03 0.135E+04   0.512E+00 -.121E+00 0.132E+01   -.612E-02 -.339E-01 0.170E+00
   0.196E+03 -.539E+03 -.406E+04   -.193E+03 0.540E+03 0.406E+04   -.176E+01 0.993E-01 0.753E+00   -.251E-03 -.102E-01 0.176E-01
   0.287E+03 -.445E+03 -.459E+03   -.288E+03 0.445E+03 0.457E+03   0.792E+00 -.126E+00 0.977E+00   0.472E-01 -.373E-01 0.342E+00
   0.175E+03 -.605E+03 -.332E+04   -.175E+03 0.607E+03 0.332E+04   0.235E+00 -.218E+01 -.340E+01   0.264E-01 -.408E-01 0.895E-01
   0.454E+03 -.244E+03 0.477E+04   -.454E+03 0.237E+03 -.476E+04   -.284E+00 0.769E+01 -.239E+01   -.136E-01 -.308E+00 0.757E-01
   0.314E+03 -.393E+03 0.222E+04   -.315E+03 0.393E+03 -.222E+04   0.106E+01 -.398E+00 0.872E+00   -.474E-01 -.782E-01 0.492E+00
   0.261E+03 -.551E+03 0.315E+04   -.263E+03 0.551E+03 -.315E+04   0.106E+01 -.825E+00 0.187E+01   0.113E+00 0.118E+00 0.362E+00
   0.307E+03 -.416E+03 0.451E+03   -.308E+03 0.416E+03 -.452E+03   0.934E+00 0.172E+00 0.829E+00   -.843E-01 0.124E+00 0.259E+00
   0.372E+03 -.338E+03 -.235E+04   -.374E+03 0.338E+03 0.235E+04   0.161E+01 -.223E+00 -.134E+01   0.650E-01 0.662E-01 0.282E+00
   0.369E+03 -.385E+02 -.469E+04   -.367E+03 0.374E+02 0.469E+04   -.104E+01 0.125E+01 0.241E+01   0.948E-01 -.110E+00 -.336E-01
   0.494E+03 -.318E+03 0.496E+04   -.484E+03 0.313E+03 -.495E+04   -.876E+01 0.463E+01 -.810E+01   -.596E-01 0.302E+00 -.238E+00
   -.529E+02 -.115E+03 0.477E+04   0.526E+02 0.114E+03 -.476E+04   0.391E+00 0.849E+00 -.838E+01   0.495E-01 0.107E+00 0.623E-01
   0.130E+03 0.283E+03 0.229E+04   -.131E+03 -.284E+03 -.230E+04   0.586E+00 0.127E+01 0.164E+01   0.107E+00 0.232E+00 0.451E+00
   0.167E+03 0.363E+03 -.585E+03   -.168E+03 -.364E+03 0.585E+03   0.737E+00 0.160E+01 0.382E+00   0.519E-01 0.113E+00 0.170E+00
   0.255E+03 0.553E+03 -.337E+04   -.256E+03 -.556E+03 0.337E+04   0.148E+01 0.321E+01 -.104E+01   0.148E-03 0.339E-03 0.763E-02
   0.172E+03 0.373E+03 -.520E+04   -.170E+03 -.369E+03 0.519E+04   -.184E+01 -.399E+01 0.142E+02   0.288E-01 0.626E-01 -.766E-01
   0.463E+02 0.101E+03 -.473E+04   -.460E+02 -.998E+02 0.474E+04   -.193E+00 -.420E+00 -.487E+01   -.121E-01 -.264E-01 -.459E-01
   0.236E+03 0.512E+03 0.320E+04   -.237E+03 -.515E+03 -.320E+04   0.124E+01 0.268E+01 0.297E+01   -.161E-01 -.349E-01 0.179E+00
   0.180E+03 0.392E+03 0.355E+03   -.181E+03 -.393E+03 -.356E+03   0.681E+00 0.148E+01 0.283E+00   -.185E-01 -.403E-01 0.344E+00
   0.159E+03 0.346E+03 -.230E+04   -.160E+03 -.347E+03 0.230E+04   0.577E+00 0.125E+01 0.984E-02   -.750E-02 -.164E-01 0.244E+00
   0.140E+03 0.304E+03 -.149E+04   -.140E+03 -.304E+03 0.149E+04   0.574E+00 0.125E+01 -.259E+00   -.421E-01 -.913E-01 0.312E+00
   0.147E+03 0.319E+03 -.427E+04   -.147E+03 -.319E+03 0.427E+04   0.370E+00 0.803E+00 -.325E+01   0.622E-01 0.135E+00 0.104E+00
   0.154E+03 0.334E+03 0.122E+04   -.154E+03 -.335E+03 -.122E+04   0.481E+00 0.105E+01 -.383E+00   0.312E-01 0.679E-01 0.532E+00
   0.294E+03 0.640E+03 0.398E+04   -.294E+03 -.639E+03 -.398E+04   -.219E+00 -.476E+00 -.625E+00   -.825E-01 -.179E+00 0.380E+00
   -.473E+03 0.152E+02 -.135E+04   0.473E+03 -.153E+02 0.135E+04   -.425E+00 0.310E+00 0.132E+01   -.218E-01 -.267E-01 0.170E+00
   -.537E+03 -.202E+03 -.406E+04   0.535E+03 0.204E+03 0.406E+04   0.122E+01 -.127E+01 0.753E+00   -.767E-02 -.683E-02 0.176E-01
   -.349E+03 0.515E+01 0.427E+04   0.352E+03 -.670E+01 -.427E+04   -.259E+01 0.115E+01 0.166E+01   0.502E-01 0.420E-01 0.255E+00
   -.468E+03 0.218E+02 0.138E+04   0.469E+03 -.227E+02 -.138E+04   -.702E+00 0.880E+00 0.111E+01   -.132E+00 -.615E-01 0.422E+00
   -.525E+03 -.709E+02 -.459E+03   0.525E+03 0.704E+02 0.457E+03   -.611E+00 0.520E+00 0.977E+00   -.590E-01 0.115E-01 0.342E+00
   -.573E+03 -.261E+03 -.332E+04   0.575E+03 0.262E+03 0.332E+04   -.181E+01 -.124E+01 -.340E+01   -.481E-01 -.648E-02 0.895E-01
   -.481E+03 0.186E+03 0.477E+04   0.475E+03 -.191E+03 -.476E+04   0.603E+01 0.479E+01 -.239E+01   -.225E+00 -.210E+00 0.757E-01
   -.502E+03 -.166E+02 0.222E+04   0.503E+03 0.160E+02 -.222E+04   -.993E+00 0.548E+00 0.872E+00   -.285E-01 -.869E-01 0.492E+00
   -.589E+03 -.160E+03 0.315E+04   0.590E+03 0.159E+03 -.315E+04   -.132E+01 0.269E+00 0.187E+01   0.164E-01 0.163E+00 0.362E+00
   -.516E+03 -.374E+02 0.451E+03   0.516E+03 0.365E+02 -.452E+03   -.477E+00 0.822E+00 0.829E+00   0.149E+00 0.169E-01 0.259E+00
   -.499E+03 0.628E+02 -.235E+04   0.500E+03 -.640E+02 0.235E+04   -.122E+01 0.108E+01 -.134E+01   0.801E-02 0.925E-01 0.282E+00
   -.269E+03 0.255E+03 -.469E+04   0.267E+03 -.255E+03 0.469E+04   0.162E+01 0.224E-01 0.241E+01   -.145E+00 0.235E-03 -.336E-01
   -.562E+03 0.169E+03 0.496E+04   0.553E+03 -.164E+03 -.495E+04   0.921E+01 -.364E+01 -.810E+01   0.268E+00 0.151E+00 -.238E+00
   -.739E+02 0.165E+03 -.520E+03   0.750E+02 -.167E+03 0.521E+03   -.121E+01 0.228E+01 -.845E+00   -.711E-02 0.578E-02 0.375E-01
   -.589E+02 0.187E+03 -.145E+04   0.602E+02 -.189E+03 0.145E+04   -.153E+01 0.259E+01 0.706E+00   0.628E-01 -.136E-01 0.223E-01
   -.790E+02 0.423E+02 0.164E+04   0.798E+02 -.429E+02 -.164E+04   -.165E+01 0.932E+00 0.581E+00   0.142E+00 0.921E-01 0.131E+00
   -.886E+02 0.140E+03 0.539E+03   0.899E+02 -.143E+03 -.539E+03   -.149E+01 0.242E+01 -.324E+00   -.246E-01 0.924E-01 0.114E+00
   -.123E+03 0.110E+03 -.115E+04   0.125E+03 -.113E+03 0.115E+04   -.150E+01 0.256E+01 -.107E+01   -.209E-01 -.753E-02 0.544E-01
   -.193E+03 -.847E+02 -.193E+04   0.196E+03 0.846E+02 0.194E+04   -.342E+01 -.775E-01 -.447E+01   -.103E-01 -.870E-02 -.298E-01
   0.469E+02 0.203E+03 0.189E+04   -.486E+02 -.205E+03 -.189E+04   0.257E+01 0.263E+01 0.380E+01   -.181E-01 -.317E-02 0.257E-01
   -.877E+02 0.172E+03 0.862E+03   0.888E+02 -.175E+03 -.862E+03   -.126E+01 0.254E+01 -.594E+00   -.808E-02 -.699E-01 0.134E+00
   -.932E+02 0.148E+03 -.157E+03   0.946E+02 -.150E+03 0.157E+03   -.141E+01 0.238E+01 -.228E+00   0.797E-02 -.831E-02 0.145E+00
   -.103E+03 0.126E+03 0.178E+03   0.104E+03 -.128E+03 -.177E+03   -.134E+01 0.234E+01 -.351E+00   -.165E-02 -.395E-01 0.105E+00
   -.111E+03 0.130E+03 -.873E+03   0.113E+03 -.132E+03 0.874E+03   -.153E+01 0.228E+01 -.886E+00   0.368E-01 0.177E-01 0.115E+00
   -.119E+03 0.224E+03 -.186E+04   0.122E+03 -.228E+03 0.186E+04   -.312E+01 0.434E+01 -.346E+01   -.955E-02 0.688E-01 -.773E-02
   -.943E+02 0.155E+03 0.116E+04   0.955E+02 -.156E+03 -.116E+04   -.159E+01 0.150E+01 -.162E+01   0.988E-01 0.486E-01 0.254E+00
   -.618E+02 -.134E+03 -.182E+04   0.621E+02 0.135E+03 0.183E+04   -.711E+00 -.154E+01 -.429E+01   -.943E-02 -.205E-01 -.712E-02
   -.533E+02 -.116E+03 -.679E+03   0.539E+02 0.117E+03 0.677E+03   -.634E+00 -.138E+01 0.199E+01   -.157E-01 -.340E-01 0.999E-01
   -.303E+02 -.657E+02 0.141E+04   0.309E+02 0.670E+02 -.141E+04   -.532E+00 -.116E+01 -.395E-02   -.865E-01 -.188E+00 0.253E+00
   -.394E+02 -.855E+02 0.337E+03   0.399E+02 0.867E+02 -.339E+03   -.583E+00 -.127E+01 0.195E+01   -.259E-01 -.563E-01 0.164E+00
   -.557E+02 -.121E+03 0.679E+03   0.562E+02 0.122E+03 -.681E+03   -.619E+00 -.135E+01 0.196E+01   0.771E-02 0.167E-01 0.203E+00
   -.577E+02 -.125E+03 -.365E+03   0.585E+02 0.127E+03 0.364E+03   -.901E+00 -.196E+01 0.162E+01   0.657E-02 0.142E-01 0.856E-01
   -.420E+02 -.913E+02 -.164E+04   0.424E+02 0.921E+02 0.164E+04   -.572E+00 -.124E+01 -.561E+01   -.904E-02 -.197E-01 0.474E-02
   -.488E+02 -.106E+03 0.163E+04   0.496E+02 0.108E+03 -.163E+04   -.750E+00 -.163E+01 -.525E+00   -.651E-01 -.142E+00 0.131E+00
[...]
   -.330E+02 -.716E+02 -.189E+04   0.330E+02 0.717E+02 0.189E+04   -.734E+00 -.160E+01 -.399E+01   -.261E-01 -.567E-01 -.336E-01
   0.835E+02 -.325E+02 0.164E+04   -.845E+02 0.327E+02 -.164E+04   0.178E+01 -.651E+00 0.581E+00   -.224E-01 0.168E+00 0.131E+00
   0.164E+03 0.239E+02 0.539E+03   -.167E+03 -.245E+02 -.539E+03   0.280E+01 0.442E+00 -.324E+00   0.861E-01 0.414E-01 0.114E+00
   0.173E+03 0.508E+02 -.520E+03   -.175E+03 -.514E+02 0.521E+03   0.252E+01 0.561E+00 -.845E+00   0.902E-02 -.164E-02 0.375E-01
   0.180E+03 0.765E+02 -.145E+04   -.183E+03 -.770E+02 0.145E+04   0.296E+01 0.527E+00 0.706E+00   -.511E-01 0.389E-01 0.223E-01
   0.164E+03 -.220E+02 -.115E+04   -.167E+03 0.216E+02 0.115E+04   0.293E+01 0.526E+00 -.107E+01   0.787E-02 -.208E-01 0.544E-01
   0.614E+02 -.202E+03 -.193E+04   -.630E+02 0.204E+03 0.194E+04   0.217E+01 -.265E+01 -.447E+01   0.767E-04 -.135E-01 -.298E-01
   0.124E+03 0.168E+03 0.189E+04   -.124E+03 -.170E+03 -.189E+04   0.325E+00 0.366E+01 0.380E+01   0.936E-02 -.158E-01 0.257E-01
   0.188E+03 0.455E+02 0.862E+03   -.191E+03 -.462E+02 -.862E+03   0.275E+01 0.696E+00 -.594E+00   -.478E-01 -.516E-01 0.134E+00
   0.173E+03 0.252E+02 -.157E+03   -.176E+03 -.257E+02 0.157E+03   0.273E+01 0.475E+00 -.228E+00   -.115E-01 0.639E-03 0.145E+00
   0.171E+03 -.120E+00 -.873E+03   -.174E+03 -.337E+00 0.874E+03   0.273E+01 0.319E+00 -.886E+00   -.105E-01 0.395E-01 0.115E+00
   0.248E+03 0.553E+02 -.186E+04   -.253E+03 -.555E+02 0.186E+04   0.533E+01 0.449E+00 -.346E+01   0.585E-01 0.375E-01 -.773E-02
   0.162E+03 0.342E+01 0.178E+03   -.165E+03 -.397E+01 -.177E+03   0.265E+01 0.504E+00 -.351E+00   -.289E-01 -.269E-01 0.105E+00
   0.179E+03 0.288E+02 0.116E+04   -.181E+03 -.291E+02 -.116E+04   0.217E+01 -.237E+00 -.162E+01   -.273E-01 0.107E+00 0.254E+00
   -.159E+02 -.346E+02 0.116E+02   0.296E-11 0.107E-11 -.136E-10   0.157E+02 0.340E+02 -.228E+02   0.229E+00 0.497E+00 0.111E+02

 POSITION                                       TOTAL-FORCE (eV/Angst)
      5.55051      2.35858      1.66874        -0.609377      0.174771      0.373710
      6.34277      4.07957      4.17186        -0.119144     -0.073840     -0.062660
      7.13503      5.80056      6.67497         0.146321      0.087297     -0.014742
      7.92730      7.52156      9.17809         0.730263      0.313172     -0.581305
      3.97070     -1.07316      5.84060         0.199668     -0.100046     -0.036448
      4.76297      0.64784      8.34372         0.315359      0.199649      0.446681
      2.38618      6.93764      0.83437        -0.122970     -0.323339      0.987006
      3.17844      8.65863      3.33749        -0.095562     -0.164819     -0.037688
      0.01411      1.78491      2.50311        -0.071332     -0.123364     -0.258529
      0.80637      3.50591      5.00623        -0.058323     -0.019885     -0.126888
      1.59863      5.22690      7.50934        -0.025663     -0.037508      0.292038
      2.39090      6.94789     10.01246         0.690320     -0.045552     -0.865413
      7.92258      7.51131      0.00000         0.954370      0.294050      1.766813
      5.17689     -1.47892      0.48830         0.121708      0.264380      1.666819
      5.96915      0.24208      2.99142         0.031392      0.068191     -0.305012
      6.76141      1.96307      5.49453         0.079266      0.172185     -0.094468
      7.55367      3.68406      7.99765        -0.084081     -0.182644      0.227674
      8.34594      5.40506     10.50076        -0.137253     -0.298148     -1.709129
      5.18161     -1.46866      9.66639         0.125198      0.271962      0.712060
      2.80482      4.82114      2.15705        -0.101829     -0.221198     -0.198355
      3.59708      6.54213      4.66016         0.056254      0.122197      0.028611
      4.38934      8.26313      7.16328         0.022685      0.049278     -0.142539
      1.22501      1.38941      6.32891         0.089978      0.195455     -0.210411
      2.01727      3.11040      8.83202         0.211887      0.460271      0.699890
      0.43275     11.12120      3.82579        -0.069904     -0.151850     -0.190282
      8.34122      5.39480      1.32268         0.185369      0.402668      0.735356
      0.73309      8.74771      6.67497        -0.028828      0.167927     -0.014742
      1.52535     10.46871      9.17809        -0.236949      0.758430     -0.581305
      7.84929      1.30033      1.66874         0.529033     -0.349299      0.373710
      8.64156      3.02132      4.17186         0.021379     -0.138530     -0.062660
      6.26949     -2.13141      5.84060        -0.205843      0.086632     -0.036448
      7.06175     -0.41041      8.34372        -0.053394      0.369406      0.446681
      4.68496      5.87939      0.83437        -0.165679     -0.303678      0.987006
      5.47723      7.60038      3.33749        -0.063073     -0.179776     -0.037688
      2.31289      0.72666      2.50311        -0.047336     -0.134411     -0.258529
      3.10516      2.44766      5.00623         0.022819     -0.057239     -0.126888
      3.89742      4.16865      7.50934        -0.011807     -0.043886      0.292038
      4.68968      5.88964     10.01246        -0.483499      0.494818     -0.865413
      1.52063     10.45845      0.00000        -0.397206      0.916251      1.766813
      0.11665      6.58149      6.48654        -0.115483      0.083628      0.126038
      0.90891      8.30248      8.98965        -0.178548      0.376497      1.338331
      7.23286     -0.86589      1.48031        -0.752569      0.382468     -0.600761
      8.02512      0.85510      3.98342        -0.193586      0.151114      0.114021
      6.44531     -2.57663      8.15528         0.019781      0.217141      0.375677
      7.23758     -0.85564     10.65839        -1.068827     -0.255113     -1.386199
      4.06853      3.71317      0.64594         0.812149      0.745125     -0.005332
      4.86079      5.43416      3.14905        -0.215757      0.168267     -0.031845
      5.65305      7.15516      5.65216        -0.045247     -0.030088      0.098839
      2.48872      0.28144      4.81779        -0.069038     -0.023405      0.151376
      3.28098      2.00243      7.32091        -0.205857      0.089999      0.167446
      4.07325      3.72342      9.82402        -0.098975      0.493873     -0.688688
      1.69646     10.01323      2.31468        -0.294263     -0.335849     -0.927262
      1.16809      1.26577      9.80852        -0.472182     -1.025698      0.605337
      0.37583     10.99756      7.30541        -0.087574     -0.190232      0.185942
      7.49204      3.55017      2.29918        -0.019385     -0.042110     -1.576303
      8.28430      5.27117      4.80229        -0.032123     -0.069779      0.024794
      5.11997     -1.60255      3.96792        -0.059041     -0.128252     -0.025611
      5.91223      0.11844      6.47103        -0.023384     -0.050795      0.277690
      6.70449      1.83943      8.97415        -0.222312     -0.482918      0.477147
      4.32771      8.12924      1.46480         0.047113      0.102341     -1.917417
[...]
      3.54016      6.41849      8.13978        -0.055104     -0.119700      0.438210
      4.33243      8.13949     10.64289        -0.731799     -1.589650      0.227755
      4.30567      0.48164      1.48031         0.779935     -0.323023     -0.600761
      5.09793      2.20264      3.98342         0.240685     -0.048804      0.114021
      5.89020      3.92363      6.48654         0.138628     -0.033352      0.126038
      6.68246      5.64462      8.98965         0.402131      0.109180      1.338331
      3.51813     -1.22910      8.15528         0.152100      0.156227      0.375677
      4.31039      0.49189     10.65839         0.501214     -0.977885     -1.386199
      1.14134      5.06071      0.64594         0.037960      1.101525     -0.005332
      1.93360      6.78170      3.14905         0.268133     -0.054493     -0.031845
      2.72586      8.50269      5.65216         0.006565     -0.053940      0.098839
      0.35380      3.34996      7.32091         0.202235     -0.097868      0.167446
      1.14606      5.07096      9.82402         0.439558      0.245958     -0.688688
      8.26226     -2.37643      4.81779         0.027112     -0.067668      0.151376
      7.47000      7.35536      2.31468        -0.063796     -0.441945     -0.927262
    total drift:                               -0.020283     -0.040701     -0.083478

  FREE ENERGIE OF THE ION-ELECTRON SYSTEM (eV)
  free  energy   TOTEN  =      -385.22117076 eV

  energy  without entropy=     -384.08139169  energy(sigma->0) =     -384.65128122