 vasp.5.4.4.18Apr17-6-g9f103f2a35 (build Aug 13 2019 17:33:20) gamma-only

 executed on             LinuxIFC date 2020.05.11  11:32:27

 INCAR:
 POTCAR:    PAW_PBE Ni_pv 06Sep2000
 POTCAR:    PAW_PBE S 06Sep2000
 POTCAR:    PAW_PBE Ni_pv 06Sep2000
   VRHFIN =Ni:

   TITEL  = PAW_PBE Ni_pv 06Sep2000
   POMASS =   58.690; ZVAL   =   16.000    mass and valenz
   ENMAX  =  367.986; ENMIN  =  275.989 eV

 POTCAR:    PAW_PBE S 06Sep2000
   VRHFIN =S : s2p4

   TITEL  = PAW_PBE S 06Sep2000
   POMASS =   32.066; ZVAL   =    6.000    mass and valenz
   ENMAX  =  258.689; ENMIN  =  194.016 eV

 Optimization of the real space projectors (new method)

 maximal supplied QI-value         = 18.90
 optimisation between [QCUT,QGAM] = [ 10.77, 21.73] = [ 32.49,132.25] Ry
 Optimized for a Real-space Cutoff    1.38 Angstroem

   l    n(q)    QCUT    max X(q) W(low)/X(q) W(high)/X(q)  e(spline)
   1      8    10.771     2.836    0.40E-04    0.29E-04    0.12E-06
   1      8    10.771     4.023    0.10E-03    0.48E-04    0.29E-06
   2      8    10.771    73.368    0.42E-03    0.97E-04    0.44E-06
   2      8    10.771    69.010    0.42E-03    0.99E-04    0.45E-06
   0      9    10.771    54.797    0.10E-03    0.56E-04    0.74E-07
   0      9    10.771    24.266    0.89E-04    0.49E-04    0.67E-07
 Optimization of the real space projectors (new method)

 maximal supplied QI-value         = 19.84
 optimisation between [QCUT,QGAM] = [ 10.71, 21.63] = [ 32.15,130.99] Ry
 Optimized for a Real-space Cutoff    1.19 Angstroem

   l    n(q)    QCUT    max X(q) W(low)/X(q) W(high)/X(q)  e(spline)
   0      8    10.715   187.594    0.41E-03    0.53E-04    0.66E-07
   0      8    10.715   164.243    0.41E-03    0.53E-04    0.65E-07
   1      7    10.715    67.533    0.19E-03    0.59E-03    0.68E-07
   1      7    10.715    50.729    0.19E-03    0.58E-03    0.67E-07
  PAW_PBE Ni_pv 06Sep2000               :
  PAW_PBE S 06Sep2000                   :

 POSCAR: Type_048 Type_148
  positions in cartesian coordinates
 exchange correlation table for  LEXCH =        8
   RHO(1)=    0.500       N(1)  =     2000
   RHO(2)=  100.500       N(2)  =     4000

 ion  position               nearest neighbor table
   1  0.261  0.479  0.295-  73 2.25  58 2.26  80 2.26  59 2.36  54 2.36   6 2.53  19 2.53
   2  0.355  0.385  0.426-  65 2.06  60 2.06  74 2.25  54 2.26  59 2.26   7 2.53  20 2.53
   3  0.167  0.073  0.165-  81 2.12  55 2.12  64 2.25  56 2.36  82 2.36  28 2.45  35 2.53  29 2.53

   4  0.187  0.431  0.034-  57 2.00  51 2.01  36 2.39   5 2.43
   5  0.274  0.333  0.130-  51 2.11  57 2.13  55 2.14  52 2.36  58 2.36   4 2.43  10 2.53  26 2.53

[...]

  48  0.715  0.526  0.060-  63 2.01  91 2.06  69 2.06  40 2.43  22 2.51  16 2.53
  49  0.073  0.167  0.311-  23 2.25   9 2.26  18 2.26   8 2.36  17 2.36  50 2.61
  50  0.166  0.071  0.416-  18 2.14   9 2.16  24 2.23  49 2.61
  51  0.379  0.361  0.058-   4 2.01  36 2.02  10 2.11   5 2.11
  52  0.479  0.261  0.181-  14 2.25   6 2.26  19 2.26  10 2.36   5 2.36
  53  0.031  0.320  0.479-  13 2.00  27 2.01   9 2.09  12 2.15  72 2.77
  54  0.436  0.472  0.355-  31 2.25   2 2.26  20 2.26   1 2.36  19 2.36
  55  0.258  0.157  0.107-  28 2.06  35 2.12   3 2.12   5 2.14
  56  0.342  0.066  0.225-   6 2.25  23 2.26  45 2.26   3 2.36  35 2.36
  57  0.080  0.484  0.109-   4 2.00  26 2.09  22 2.11   5 2.13
  58  0.174  0.397  0.225-   8 2.25   1 2.26   6 2.26   5 2.36  26 2.36
  59  0.268  0.303  0.355-   9 2.25   7 2.26   2 2.26   6 2.36   1 2.36
  60  0.363  0.222  0.470-  15 2.01   2 2.06   7 2.08
  61  0.573  0.167  0.311-  37 2.25  20 2.26   7 2.26  19 2.36   6 2.36
  62  0.667  0.073  0.442-  21 2.03  15 2.03  38 2.25  20 2.36   7 2.36
  63  0.884  0.355  0.062-  48 2.01  16 2.06  22 2.07
  64  0.979  0.261  0.181-   3 2.25  17 2.26   8 2.26  22 2.36  16 2.36
  65  0.518  0.377  0.470-  21 2.01   2 2.06  20 2.08
  66  0.936  0.472  0.355-  44 2.25  12 2.26   9 2.26  11 2.36   8 2.36
  67  0.758  0.156  0.107-  41 2.06  47 2.11  14 2.11  16 2.15
  68  0.842  0.066  0.225-  17 2.25  37 2.26  32 2.26  14 2.36  47 2.36
  69  0.583  0.482  0.107-  48 2.06  16 2.12  40 2.12  10 2.14
  70  0.674  0.397  0.225-  19 2.25  11 2.26  17 2.26  16 2.36  40 2.36
  71  0.768  0.303  0.355-  20 2.25  18 2.26  12 2.26  17 2.36  11 2.36  72 2.77
  72  0.852  0.215  0.470-  13 2.00  21 2.06  18 2.10  12 2.17  71 2.77  53 2.77
  73  0.073  0.667  0.311-   1 2.25  33 2.26  44 2.26  32 2.36  43 2.36
  74  0.167  0.573  0.442-  39 2.06   2 2.25  34 2.28  27 2.28  33 2.36  44 2.36
  75  0.385  0.855  0.062-  28 2.01  35 2.06  29 2.07
  76  0.479  0.761  0.181-  40 2.25  30 2.26  45 2.26  35 2.36  29 2.36
  77  0.035  0.883  0.470-  39 2.03  33 2.07  34 2.14  38 2.25
  78  0.436  0.972  0.355-   7 2.25  24 2.26  46 2.26  23 2.36  45 2.36  89 2.77
  79  0.256  0.659  0.109-  36 2.01  26 2.10  29 2.12  10 2.13
  80  0.342  0.566  0.225-  30 2.25   1 2.26  19 2.26  26 2.36  10 2.36
  81  0.083  0.982  0.107-  28 2.06   3 2.12  29 2.12  47 2.15
  82  0.174  0.897  0.225-  32 2.25  23 2.26  30 2.26  29 2.36   3 2.36
  83  0.268  0.803  0.355-  33 2.25  31 2.26  24 2.26  30 2.36  23 2.36
  84  0.420  0.709  0.479-  25 2.00  34 2.01  31 2.09  24 2.15  89 2.77
  85  0.573  0.667  0.311-  11 2.25  46 2.26  31 2.26  45 2.36  30 2.36  86 2.61
  86  0.668  0.573  0.416-  46 2.14  31 2.16  12 2.23  85 2.61
  87  0.885  0.855  0.062-  41 2.01  47 2.06  42 2.06
  88  0.979  0.761  0.181-  26 2.25  43 2.26  32 2.26  47 2.36  42 2.36
  89  0.525  0.888  0.470-  25 2.00  15 2.06  46 2.10  24 2.17  78 2.77  84 2.77
  90  0.936  0.972  0.355-  18 2.25  38 2.26  33 2.26  37 2.36  32 2.36
  91  0.758  0.658  0.108-  48 2.06  40 2.11  22 2.12  42 2.13
  92  0.842  0.566  0.225-  43 2.25  11 2.26   8 2.26  40 2.36  22 2.36
  93  0.583  0.982  0.107-  41 2.06  42 2.12  14 2.12  35 2.15
  94  0.674  0.897  0.225-  45 2.25  37 2.26  43 2.26  42 2.36  14 2.36
  95  0.768  0.803  0.355-  46 2.25  44 2.26  38 2.26  43 2.36  37 2.36
  96  0.857  0.705  0.470-  39 2.03  44 2.07  27 2.14  38 2.25

  LATTYP: Found a base centered orthorhombic cell.
 ALAT       =    11.8257374459
 B/A-ratio  =     1.6199260857
 C/A-ratio  =     1.9043172636

  Lattice vectors:

 A1 = (  11.2564630382,   0.0000000000,   0.0000000000)
 A2 = (  -5.0445621212, -10.0628203371,   0.0000000000)
 A3 = (   0.0000000000,   0.0000000000, -22.5199559732)

Analysis of symmetry for initial positions (statically):
 Subroutine PRICEL returns:
 Original cell was already a primitive cell.

 Routine SETGRP: Setting up the symmetry group for a
 base centered orthorhombic supercell.

 Subroutine GETGRP returns: Found  1 space group operations
 (whereof  1 operations were pure point group operations)
 out of a pool of  8 trial point group operations.

The static configuration has the point symmetry C_1 .

Analysis of symmetry for dynamics (positions and initial velocities):
 Subroutine PRICEL returns:
 Original cell was already a primitive cell.

 Routine SETGRP: Setting up the symmetry group for a
 base centered orthorhombic supercell.

 Subroutine GETGRP returns: Found  1 space group operations
 (whereof  1 operations were pure point group operations)
 out of a pool of  8 trial point group operations.

The dynamic configuration has the point symmetry C_1 .

 Subroutine INISYM returns: Found  1 space group operations
 (whereof  1 operations are pure point group operations),
 and found     1 'primitive' translations

 KPOINTS: gamma-point-only calculation. no periodi

Automatic generation of k-mesh.
Space group operators:
 irot       det(A)        alpha          n_x          n_y          n_z        tau_x        tau_y        tau_z
    1     1.000000     0.000000     1.000000     0.000000     0.000000     0.000000     0.000000     0.000000

 Subroutine IBZKPT returns following result:

 Found      1 irreducible k-points:

 Following reciprocal coordinates:
            Coordinates               Weight
  0.000000  0.000000  0.000000      1.000000

 Following cartesian coordinates:
            Coordinates               Weight
  0.000000  0.000000  0.000000      1.000000

 SYSTEM =  "Millerite NiS"
 POSCAR =  Type_048 Type_148

 Startparameter for this run:
   NWRITE =      2    write-flag & timer
   PREC   = normal    normal or accurate (medium, high low for compatibility)
   ISTART =      0    job   : 0-new  1-cont  2-samecut
   ICHARG =      2    charge: 1-file 2-atom 10-const
   ISPIN  =      1    spin polarized calculation?
   LNONCOLLINEAR =      F non collinear calculations
   LSORBIT =      F    spin-orbit coupling
   INIWAV =      1    electr: 0-lowe 1-rand  2-diag
   LASPH  =      F    aspherical Exc in radial PAW
   METAGGA=      F    non-selfconsistent MetaGGA calc.

 Electronic Relaxation 1
   ENCUT  =  450.0 eV  33.07 Ry    5.75 a.u.  19.47 19.47 38.95*2*pi/ulx,y,z
   ENINI  =  450.0     initial cutoff
   ENAUG  =  703.4 eV  augmentation charge cutoff
   NELM   =    100;   NELMIN=  2; NELMDL= -5     # of ELM steps
   EDIFF  = 0.1E-03   stopping-criterion for ELM
   LREAL  =      T    real-space projection
   NLSPLINE    = F    spline interpolate recip. space projectors
   LCOMPAT=      F    compatible to vasp.4.4
   GGA_COMPAT  = T    GGA compatible to vasp.4.4-vasp.4.6
   LMAXPAW     = -100 max onsite density
   LMAXMIX     =    2 max onsite mixed and CHGCAR
   VOSKOWN=      0    Vosko Wilk Nusair interpolation
   ROPT   =   -0.00050  -0.00050
 Ionic relaxation
   EDIFFG = 0.1E-02   stopping-criterion for IOM
   NSW    =      0    number of steps for IOM
   NBLOCK =      1;   KBLOCK =      1    inner block; outer block
   IBRION =     -1    ionic relax: 0-MD 1-quasi-New 2-CG
   NFREE  =      0    steps in history (QN), initial steepest desc. (CG)
   ISIF   =      2    stress and relaxation
   IWAVPR =     10    prediction:  0-non 1-charg 2-wave 3-comb
   ISYM   =      2    0-nonsym 1-usesym 2-fastsym
   LCORR  =      T    Harris-Foulkes like correction to forces

   POTIM  = 0.5000    time-step for ionic-motion
   TEIN   =    0.0    initial temperature
   TEBEG  =    0.0;   TEEND  =   0.0 temperature during run
   SMASS  =  -3.00    Nose mass-parameter (am)
   estimated Nose-frequenzy (Omega)   =  0.10E-29 period in steps =****** mass=  -0.290E-26a.u.
   SCALEE = 1.0000    scale energy and forces
   NPACO  =    256;   APACO  = 16.0  distance and # of slots for P.C.
   PSTRESS=    0.0 pullay stress

  Mass of Ions in am
   POMASS =  58.69 32.07
  Ionic Valenz
   ZVAL   =  16.00  6.00
  Atomic Wigner-Seitz radii
  virtual crystal weights
   VCA    =   1.00  1.00
   NELECT =    1056.0000    total number of electrons
   NUPDOWN=      -1.0000    fix difference up-down

 DOS related values:
   EMIN   =  10.00;   EMAX   =-10.00  energy-range for DOS
   EFERMI =   0.00
   ISMEAR =     0;   SIGMA  =   0.20  broadening in eV -4-tet -1-fermi 0-gaus

 Electronic relaxation 2 (details)
   IALGO  =     38    algorithm
   LDIAG  =      T    sub-space diagonalisation (order eigenvalues)
   LSUBROT=      F    optimize rotation matrix (better conditioning)
   TURBO    =      0    0=normal 1=particle mesh
   IRESTART =      0    0=no restart 2=restart with 2 vectors
[...]
     0.000000000  0.000000000 22.519955973     0.000000000  0.000000000  0.044405060

  length of vectors
    11.256463038 11.256463038 22.519955973     0.099375718  0.099375718  0.044405060

 FORCES acting on ions
    electron-ion (+dipol)            ewald-force                    non-local-force                 convergence-correction
   0.222E+03 -.359E+03 -.555E+03   -.222E+03 0.360E+03 0.554E+03   0.721E+00 -.120E+01 0.166E+00   -.247E+00 0.303E+00 0.109E+00
   0.248E+03 -.402E+03 -.412E+04   -.249E+03 0.403E+03 0.412E+04   0.674E+00 -.111E+01 -.344E+01   -.181E+00 0.152E+00 0.374E+00
   0.350E+03 -.519E+03 0.260E+04   -.352E+03 0.522E+03 -.259E+04   0.174E+01 -.303E+01 -.126E+01   -.155E-01 -.725E-01 -.126E+01
   0.700E+03 0.897E+02 0.593E+04   -.696E+03 -.848E+02 -.593E+04   -.425E+01 -.458E+01 -.214E+01   0.231E-01 -.294E-01 -.230E+00
   0.204E+03 0.676E+03 0.363E+04   -.204E+03 -.679E+03 -.363E+04   0.796E+00 0.217E+01 0.339E+00   0.224E-01 -.157E+00 -.636E+00
   0.234E+03 0.471E+03 0.556E+03   -.234E+03 -.472E+03 -.557E+03   0.717E+00 0.635E+00 0.109E+01   -.127E+00 0.137E+00 -.308E+00
   0.299E+03 0.381E+03 -.260E+04   -.300E+03 -.383E+03 0.259E+04   0.172E+01 0.177E+01 0.172E+01   -.307E-01 0.725E-01 0.437E+00
   -.498E+03 0.938E+01 0.580E+03   0.498E+03 -.909E+01 -.581E+03   -.959E+00 -.465E+00 0.138E+01   0.254E+00 0.190E+00 -.275E+00
   -.580E+03 0.209E+03 -.285E+04   0.584E+03 -.209E+03 0.285E+04   -.404E+01 -.347E-01 0.152E+01   -.360E-01 0.193E+00 0.649E+00
   -.686E+03 0.126E+03 0.362E+04   0.688E+03 -.126E+03 -.361E+04   -.223E+01 0.253E+00 0.283E+00   0.181E+00 -.162E-01 -.744E+00
   0.265E+03 -.388E+03 -.557E+03   -.266E+03 0.388E+03 0.556E+03   0.502E+00 -.758E+00 0.117E+01   -.759E-01 0.293E+00 0.112E+00
   0.420E+03 -.501E+03 -.376E+04   -.421E+03 0.505E+03 0.376E+04   0.119E+01 -.312E+01 -.635E+00   0.188E+00 -.196E-01 0.569E+00
   0.804E+02 -.706E+02 -.602E+04   -.801E+02 0.661E+02 0.601E+04   -.710E+00 0.466E+01 0.749E+01   0.114E+00 0.476E-01 0.308E+00
   0.317E+03 -.513E+03 0.262E+04   -.320E+03 0.517E+03 -.261E+04   0.202E+01 -.324E+01 -.115E+01   0.124E+00 -.188E+00 -.139E+01
   0.624E+02 0.153E+03 -.571E+04   -.631E+02 -.152E+03 0.571E+04   0.771E+00 -.188E+01 0.409E+00   -.189E-01 -.278E-01 0.452E+00
   0.278E+03 0.708E+03 0.391E+04   -.280E+03 -.712E+03 -.391E+04   0.126E+01 0.303E+01 0.141E+01   -.831E-01 0.178E+00 -.118E+01
   0.246E+03 0.462E+03 0.577E+03   -.246E+03 -.462E+03 -.578E+03   0.751E+00 0.588E+00 0.130E+01   -.185E+00 -.173E+00 -.379E+00
   0.152E+03 0.535E+03 -.290E+04   -.153E+03 -.540E+03 0.290E+04   0.116E+01 0.445E+01 -.434E+00   0.211E-01 0.832E-01 0.587E+00
   -.525E+03 0.275E+01 0.555E+03   0.526E+03 -.252E+01 -.556E+03   -.881E+00 -.379E+00 0.110E+01   -.617E-01 0.153E+00 -.333E+00
   -.475E+03 -.963E+02 -.260E+04   0.477E+03 0.966E+02 0.259E+04   -.237E+01 -.750E+00 0.171E+01   0.228E-01 0.319E-01 0.445E+00
   -.165E+03 0.128E+02 -.571E+04   0.164E+03 -.117E+02 0.571E+04   0.131E+01 -.155E+01 0.405E+00   0.114E+00 0.244E-01 0.433E+00
   -.655E+03 0.229E+02 0.387E+04   0.661E+03 -.241E+02 -.387E+04   -.386E+01 0.661E+00 0.184E+01   -.398E+00 0.186E+00 -.105E+01
   0.228E+03 -.412E+03 -.556E+03   -.228E+03 0.412E+03 0.555E+03   0.427E+00 -.804E+00 0.118E+01   -.212E+00 0.285E+00 0.440E-01
   0.260E+03 -.600E+03 -.376E+04   -.263E+03 0.603E+03 0.376E+04   0.224E+01 -.247E+01 -.635E+00   0.156E-01 -.621E-02 0.520E+00
   0.270E+02 -.104E+03 -.602E+04   -.232E+02 0.101E+03 0.601E+04   -.385E+01 0.275E+01 0.749E+01   0.144E-01 -.159E-01 0.464E+00
   0.342E+03 -.557E+03 0.271E+04   -.344E+03 0.560E+03 -.271E+04   0.157E+01 -.269E+01 0.802E+00   -.136E-01 0.782E-01 -.563E+00
   0.141E+02 0.424E+03 -.531E+04   -.142E+02 -.426E+03 0.532E+04   0.599E+00 0.162E+01 -.292E+01   0.295E-01 0.770E-01 0.379E+00
   0.271E+03 -.359E+03 0.611E+04   -.272E+03 0.360E+03 -.611E+04   -.407E+00 0.539E+00 0.619E+01   -.360E-01 -.514E-03 -.492E+00
   0.280E+03 0.586E+03 0.386E+04   -.282E+03 -.591E+03 -.386E+04   0.132E+01 0.372E+01 0.178E+01   -.332E-02 0.295E+00 -.107E+01
   0.216E+03 0.448E+03 0.579E+03   -.217E+03 -.448E+03 -.580E+03   0.828E+00 0.651E+00 0.139E+01   -.241E+00 -.179E+00 -.388E+00
   0.732E+02 0.612E+03 -.285E+04   -.751E+02 -.616E+03 0.285E+04   0.183E+01 0.359E+01 0.153E+01   -.174E-01 -.771E-01 0.521E+00
   -.504E+03 -.396E+02 0.615E+03   0.505E+03 0.402E+02 -.616E+03   -.762E+00 -.440E+00 0.106E+01   0.136E-01 -.938E-01 -.380E+00
   -.436E+03 -.174E+03 -.231E+04   0.439E+03 0.174E+03 0.230E+04   -.270E+01 -.497E+00 0.306E+01   -.206E+00 -.179E+00 0.439E+00
   -.385E+03 0.178E+03 -.531E+04   0.387E+03 -.178E+03 0.532E+04   -.169E+01 0.190E+00 -.292E+01   -.237E+00 -.655E-01 0.446E+00
   -.755E+03 0.618E+02 0.391E+04   0.760E+03 -.623E+02 -.391E+04   -.326E+01 0.176E+00 0.137E+01   -.449E-01 0.895E-01 -.114E+01
   -.415E+03 -.565E+03 0.593E+04   0.408E+03 0.564E+03 -.593E+04   0.652E+01 0.174E+01 -.229E+01   0.178E+00 0.665E-01 -.236E+00
   0.254E+03 -.413E+03 -.555E+03   -.255E+03 0.414E+03 0.555E+03   0.786E+00 -.131E+01 0.616E-01   0.310E-02 -.447E-02 -.766E-01
   0.409E+03 -.663E+03 -.397E+04   -.411E+03 0.666E+03 0.397E+04   0.148E+01 -.240E+01 0.143E+00   0.860E-01 -.240E+00 0.514E+00
   0.542E+02 -.874E+02 -.619E+04   -.544E+02 0.881E+02 0.619E+04   0.371E+00 -.607E+00 -.534E+01   -.139E+00 -.173E+00 0.347E+00
   0.308E+03 -.544E+03 0.259E+04   -.311E+03 0.547E+03 -.259E+04   0.198E+01 -.287E+01 -.130E+01   0.810E-01 -.449E-01 -.132E+01
   0.218E+03 -.354E+03 0.612E+04   -.219E+03 0.355E+03 -.613E+04   -.353E+00 0.587E+00 0.629E+01   0.309E-01 -.399E-01 -.454E+00
   0.289E+03 0.655E+03 0.393E+04   -.290E+03 -.660E+03 -.393E+04   0.136E+01 0.286E+01 0.151E+01   0.321E-02 0.329E+00 -.111E+01
   0.260E+03 0.432E+03 0.614E+03   -.261E+03 -.432E+03 -.614E+03   0.708E+00 0.481E+00 0.105E+01   0.573E-01 -.997E-01 -.354E+00
   0.351E+03 0.312E+03 -.231E+04   -.352E+03 -.314E+03 0.230E+04   0.163E+01 0.218E+01 0.307E+01   0.111E+00 -.127E+00 0.587E+00
   -.522E+03 -.141E+02 0.576E+03   0.523E+03 0.144E+02 -.577E+03   -.860E+00 -.425E+00 0.129E+01   0.301E+00 0.684E-01 -.443E+00
   -.547E+03 0.104E+03 -.290E+04   0.551E+03 -.105E+03 0.290E+04   -.452E+01 0.954E+00 -.441E+00   0.132E+00 -.796E-01 0.533E+00
   -.724E+03 0.359E+02 0.393E+04   0.729E+03 -.364E+02 -.393E+04   -.331E+01 0.752E-01 0.152E+01   -.329E+00 0.140E+00 -.111E+01
   0.192E+03 -.407E+03 0.611E+04   -.193E+03 0.408E+03 -.611E+04   -.308E+00 0.606E+00 0.621E+01   -.317E-01 0.376E-01 -.468E+00
   -.706E+02 0.118E+03 -.188E+03   0.717E+02 -.119E+03 0.185E+03   -.151E+01 0.149E+01 0.140E+01   0.406E-01 -.783E-01 0.151E+00
   -.661E+02 0.733E+02 -.151E+04   0.665E+02 -.739E+02 0.151E+04   0.176E+00 0.602E-01 -.398E+00   -.347E-01 0.576E-01 0.183E+00
   -.285E+03 0.475E+03 0.214E+04   0.288E+03 -.480E+03 -.214E+04   -.143E+01 0.235E+01 0.142E+01   0.117E+00 -.896E-01 -.123E+00
   -.898E+02 0.147E+03 0.106E+04   0.907E+02 -.148E+03 -.107E+04   -.830E+00 0.135E+01 0.178E+01   0.413E-01 -.614E-01 -.447E+00
   -.282E+03 0.272E+03 -.208E+04   0.286E+03 -.273E+03 0.209E+04   -.223E+01 0.314E+00 -.149E+01   -.219E-01 0.822E-01 0.138E+00
   -.941E+02 -.142E+03 -.706E+03   0.952E+02 0.145E+03 0.706E+03   -.109E+01 -.228E+01 -.886E+00   -.109E+00 0.372E-01 0.163E+00
   -.890E+02 -.223E+03 0.177E+04   0.895E+02 0.225E+03 -.177E+04   0.840E-01 -.192E+00 0.868E+00   -.900E-01 -.165E+00 -.351E+00
   -.831E+02 -.150E+03 0.527E+03   0.842E+02 0.152E+03 -.528E+03   -.882E+00 -.247E+01 0.117E+01   -.444E-01 0.373E-01 -.338E+00
   0.270E+03 -.162E+03 0.164E+04   -.271E+03 0.165E+03 -.164E+04   -.382E+00 -.169E+01 0.211E+01   -.730E-01 0.294E-01 -.169E+00
   0.174E+03 0.454E+01 0.522E+03   -.176E+03 -.471E+01 -.522E+03   0.256E+01 -.147E+00 0.997E+00   0.944E-01 0.127E+00 -.194E+00
   0.169E+03 0.205E+02 -.705E+03   -.172E+03 -.204E+02 0.706E+03   0.255E+01 -.386E-01 -.897E+00   -.329E-01 0.133E+00 0.180E+00
   0.347E+03 -.104E+03 -.208E+04   -.352E+03 0.104E+03 0.208E+04   0.241E+01 0.519E+00 -.517E+00   -.533E-01 0.700E-01 0.154E+00
[...]
   0.133E+03 -.247E+02 -.631E+03   -.135E+03 0.252E+02 0.631E+03   0.218E+01 -.875E+00 0.966E-01   -.101E+00 -.790E-02 0.215E+00
   -.117E+03 0.374E+03 -.208E+04   0.115E+03 -.378E+03 0.209E+04   0.687E+00 0.216E+01 -.149E+01   0.282E-01 -.351E-02 0.185E+00
   -.734E+02 0.116E+03 -.188E+03   0.738E+02 -.117E+03 0.186E+03   -.639E+00 0.203E+01 0.137E+01   0.103E+00 -.104E+00 0.105E+00
   -.360E+02 0.921E+02 -.151E+04   0.363E+02 -.926E+02 0.151E+04   -.124E+00 -.135E+00 -.405E+00   0.698E-01 -.404E-01 0.188E+00
   -.206E+03 0.334E+03 0.230E+04   0.209E+03 -.337E+03 -.230E+04   -.605E+00 0.946E+00 0.809E+00   -.166E+00 0.268E+00 -.162E+00
   -.786E+02 0.126E+03 0.109E+04   0.792E+02 -.127E+03 -.109E+04   -.507E+00 0.852E+00 0.172E+01   -.213E-01 0.327E-01 -.347E+00
   -.246E+03 0.701E+02 -.185E+04   0.249E+03 -.698E+02 0.186E+04   -.165E+01 0.216E+00 -.533E+00   -.352E-02 -.432E-01 0.171E+00
   -.735E+02 -.191E+03 -.687E+03   0.749E+02 0.193E+03 0.686E+03   -.162E+01 -.230E+01 -.463E+00   0.210E-01 -.189E-01 0.172E+00
   -.100E+03 -.296E+03 0.180E+04   0.100E+03 0.297E+03 -.180E+04   0.656E+00 -.194E-01 0.116E+01   -.123E+00 -.617E-01 -.379E+00
   -.751E+02 -.159E+03 0.534E+03   0.762E+02 0.161E+03 -.534E+03   -.962E+00 -.248E+01 0.101E+01   -.348E-01 0.113E+00 -.302E+00
   0.293E+03 -.230E+02 0.181E+04   -.295E+03 0.238E+02 -.181E+04   -.352E+00 -.322E+00 0.117E+01   0.214E+00 0.134E-01 -.414E+00
   0.175E+03 0.113E+01 0.537E+03   -.178E+03 -.890E+00 -.537E+03   0.261E+01 -.417E+00 0.128E+01   0.781E-01 0.132E-01 -.356E+00
   0.203E+03 -.198E+02 -.687E+03   -.206E+03 0.197E+02 0.686E+03   0.280E+01 0.423E+00 -.460E+00   0.363E-01 -.666E-01 0.180E+00
   0.524E+03 -.109E+03 -.205E+04   -.530E+03 0.109E+03 0.205E+04   0.305E+01 0.136E+00 -.493E+00   0.113E+00 -.791E-01 0.162E+00
   -.531E+00 -.158E+00 -.584E+02   0.102E-11 -.384E-12 -.477E-11   0.129E+01 -.159E+01 0.702E+02   -.976E+00 0.172E+01 -.117E+02

 POSITION                                       TOTAL-FORCE (eV/Angst)
      5.35228      4.81788      6.64784         0.085541     -0.172706     -0.104316
      5.93595      3.87238      9.58390        -0.511388      0.815541     -1.182943
      2.24633      0.73197      3.71178        -0.436895      0.744626      2.277302
      4.27566      4.33895      0.76896        -0.682130      0.277994     -1.803582
      4.76861      3.35453      2.93606         0.014555     -0.849169      2.283194
      5.35228      2.40903      5.87212         0.019146      0.089210      0.016370
      5.93595      1.46353      8.80817         0.288321     -0.219571     -1.747279
      1.87746      3.73836      5.87212        -0.162714      0.016496      0.013720
      2.46113      2.79286      8.80817         0.301898     -0.010808     -1.677377
      6.92203      4.68386      2.93606         0.754513     -0.415138      2.392233
     10.98051      4.81788      6.64784         0.197823     -0.337645     -0.262876
     11.56418      3.87238      9.58390        -0.548252      0.895832     -1.698681
     11.58208      3.30102     11.93514        -0.358869      0.176253      1.405360
      7.87456      0.73197      3.71178        -0.465840      0.738021      2.330133
      6.25505      0.61847     11.16809         0.073428     -0.896118      1.231125
     10.39684      3.35453      2.93606        -0.482604     -1.444453      2.168981
     10.98051      2.40903      5.87212         0.105121      0.115839      0.055229
     11.56418      1.46353      8.80817        -0.120513     -0.132670     -1.703574
      7.50570      3.73836      5.87212        -0.083271      0.002278      0.017140
      8.08937      2.79286      8.80817         0.054716     -0.361662     -1.754948
      8.70181      2.12889     11.16809         0.744852     -0.482160      1.229633
     12.55026      4.68386      2.93606         1.259737     -0.352408      2.353542
      7.87456      9.84929      6.64784         0.192827     -0.344390     -0.264150
      8.45823      8.90379      9.58390        -0.566196      0.884384     -1.697622
      8.96099      8.63174     11.93514         0.008247      0.432303      1.410556
      4.76861      5.76338      3.71178        -0.208753      0.366817      2.073241
      2.69960      5.09233     10.64721         0.511763      0.128206      0.817932
      2.54499      0.24730      1.32928        -0.798583      1.246343     -1.949029
      7.29089      8.38594      2.93606        -0.274348     -1.281460      2.358545
      7.87456      7.44044      5.87212         0.052346      0.164625      0.012915
      8.45823      6.49494      8.80817        -0.136690     -0.283817     -1.669346
      4.39975      8.76977      5.87212        -0.019819      0.071266     -0.021966
      4.98341      7.82427      8.80817        -0.452080     -0.202973     -2.881463
      6.29573      7.31226     10.64721        -0.311646     -0.400686      0.827769
      9.44431      9.71527      2.93606         1.488020     -0.193133      2.129831
      6.32622      5.56304      0.75911         0.154729      0.702749     -1.789276
     13.50279      9.84929      6.64784         0.114900     -0.220476     -0.084592
     14.08646      8.90379      9.58390        -0.409005      0.652575     -0.336156
      3.88811      7.18973     11.15347         0.063987     -0.108397      1.695885
     10.39684      5.76338      3.71178        -0.499322      0.749554      2.323554
      8.17843      0.24272      1.33288        -0.729062      1.178771     -1.987470
     12.91912      8.38594      2.93606        -0.367917     -1.428634      2.112235
     13.50279      7.44044      5.87212        -0.068351      0.062697     -0.017072
     14.08646      6.49494      8.80817         0.372087      0.305061     -2.874048
     10.02798      8.76977      5.87212        -0.146867     -0.056508      0.053649
     10.61165      7.82427      8.80817         0.161150      0.040731     -1.709559
     15.07254      9.71527      2.93606         1.567633     -0.306439      2.125599
     10.70182      5.29244      1.34485        -0.750872      1.280275     -1.973984
      1.66190      1.67871      7.01153        -0.369770      0.302003     -1.007998
      2.23273      0.71808      9.36762         0.446927     -0.515580      1.781357
      6.08493      3.63692      1.30755         1.400449     -2.327902     -2.552759
      6.70646      2.62422      4.07548         0.045249     -0.058749     -0.007118
      1.96624      3.22186     10.79166         2.097221     -0.340665      2.457594
      7.29013      4.74605      7.99931        -0.120872      0.179644     -0.631552
      3.69124      1.57903      2.40717         0.492931      1.660183     -1.371006
      4.18418      0.66015      5.06325         0.127053     -0.043546      0.480209
      3.34525      4.87061      2.46136        -1.602324      0.872566     -1.329340
      3.96438      3.99884      5.06325        -0.063828     -0.191959      0.666242
      4.54805      3.05334      7.99931        -0.093535      0.194463     -0.629831
      5.20655      2.23356     10.59375        -2.429708      0.497452      2.276478
[...]
      6.48666      9.03025      5.06325        -0.023315     -0.118926      0.570870
      7.07033      8.08475      7.99931        -0.205927     -0.378477     -0.387498
      8.29651      7.12962     10.79166        -0.652235     -2.011332      2.455895
      9.81241      6.71012      7.01153        -0.086919      0.480357     -1.014064
     10.41536      5.76931      9.36762         0.271414     -0.630407      1.778006
     14.27704      8.59923      1.40038         1.331660     -2.163219     -3.532585
     14.85697      7.65563      4.07548         0.026526      0.001781      0.359216
     10.39074      8.93505     10.57688         1.519003      0.402487      1.998966
     15.44064      9.77746      7.99931        -0.227769      0.088638     -0.720707
     11.84726      6.61634      2.43080         0.405145      1.725729     -1.469075
     12.33469      5.69156      5.06325         0.107068     -0.048213      0.605462
     11.52128      9.88394      2.41094        -2.020855      0.424812     -1.373382
     12.11489      9.03025      5.06325         0.087860     -0.160572      0.658748
     12.69856      8.08475      7.99931         0.035876      0.246557     -0.715798
     13.19893      7.09214     10.58322        -2.562167      0.270220      2.222643
    total drift:                               -0.217764     -0.028783      0.146445

  FREE ENERGIE OF THE ION-ELECTRON SYSTEM (eV)
  free  energy   TOTEN  =      -466.92436247 eV

  energy  without entropy=     -465.54285587  energy(sigma->0) =     -466.23360917