 vasp.5.4.4.18Apr17-6-g9f103f2a35 (build Aug 13 2019 17:33:20) gamma-only

 executed on             LinuxIFC date 2020.05.10  11:18:39

 INCAR:
 POTCAR:    PAW_PBE Ni_pv 06Sep2000
 POTCAR:    PAW_PBE S 06Sep2000
 POTCAR:    PAW_PBE Ni_pv 06Sep2000
   VRHFIN =Ni:

   TITEL  = PAW_PBE Ni_pv 06Sep2000
   POMASS =   58.690; ZVAL   =   16.000    mass and valenz
   ENMAX  =  367.986; ENMIN  =  275.989 eV

 POTCAR:    PAW_PBE S 06Sep2000
   VRHFIN =S : s2p4

   TITEL  = PAW_PBE S 06Sep2000
   POMASS =   32.066; ZVAL   =    6.000    mass and valenz
   ENMAX  =  258.689; ENMIN  =  194.016 eV

 Optimization of the real space projectors (new method)

 maximal supplied QI-value         = 18.90
 optimisation between [QCUT,QGAM] = [ 10.77, 21.73] = [ 32.49,132.25] Ry
 Optimized for a Real-space Cutoff    1.38 Angstroem

   l    n(q)    QCUT    max X(q) W(low)/X(q) W(high)/X(q)  e(spline)
   1      8    10.771     2.836    0.40E-04    0.29E-04    0.12E-06
   1      8    10.771     4.023    0.10E-03    0.48E-04    0.29E-06
   2      8    10.771    73.368    0.42E-03    0.97E-04    0.44E-06
   2      8    10.771    69.010    0.42E-03    0.99E-04    0.45E-06
   0      9    10.771    54.797    0.10E-03    0.56E-04    0.74E-07
   0      9    10.771    24.266    0.89E-04    0.49E-04    0.67E-07
 Optimization of the real space projectors (new method)

 maximal supplied QI-value         = 19.84
 optimisation between [QCUT,QGAM] = [ 10.71, 21.63] = [ 32.15,130.99] Ry
 Optimized for a Real-space Cutoff    1.19 Angstroem

   l    n(q)    QCUT    max X(q) W(low)/X(q) W(high)/X(q)  e(spline)
   0      8    10.715   187.594    0.41E-03    0.53E-04    0.66E-07
   0      8    10.715   164.243    0.41E-03    0.53E-04    0.65E-07
   1      7    10.715    67.533    0.19E-03    0.59E-03    0.68E-07
   1      7    10.715    50.729    0.19E-03    0.58E-03    0.67E-07
  PAW_PBE Ni_pv 06Sep2000               :
  PAW_PBE S 06Sep2000                   :

 POSCAR: Type_026 Type_126
  positions in cartesian coordinates
 exchange correlation table for  LEXCH =        8
   RHO(1)=    0.500       N(1)  =     2000
   RHO(2)=  100.500       N(2)  =     4000

 ion  position               nearest neighbor table
   1  0.439  0.464  0.163-  44 2.06  35 2.09  28 2.25  36 2.36  45 2.36   5 2.53  22 2.53
   2  0.478  0.477  0.321-  41 2.05  36 2.06  45 2.08  29 2.14
   3  0.242  0.832  0.114-  33 2.01  28 2.02  37 2.03   7 2.48
   4  0.215  0.964  0.253-  38 2.07  34 2.18  27 2.25  37 2.26  33 2.26  12 2.53   8 2.53
   5  0.439  0.200  0.163-  39 2.04  35 2.11  33 2.25  36 2.36  40 2.36   1 2.53  22 2.53
   6  0.477  0.186  0.321-  41 2.05  36 2.06  40 2.08  34 2.14
   7  0.147  0.601  0.132-  30 2.03  31 2.12  28 2.22   8 2.40  37 2.43   3 2.48
   8  0.215  0.700  0.253-  38 2.08  29 2.21  31 2.25  37 2.26  28 2.26   7 2.40  12 2.53   4 2.53

   9  0.135  0.333  0.159-  30 2.06  35 2.10  31 2.12  27 2.15  10 2.53  14 2.53
  10  0.181  0.330  0.303-  32 2.04  27 2.09  31 2.11  36 2.18   9 2.53
  11  0.503  0.968  0.099-  50 2.07  33 2.10  51 2.15  39 2.18  16 2.38
  12  0.407  0.832  0.229-  29 2.14  34 2.15  51 2.25  28 2.26  33 2.26  13 2.39   4 2.53   8 2.53

[...]

  26  0.984  0.841  0.357-  38 2.01  47 2.07  43 2.07  25 2.38
  27  0.111  0.164  0.239-  19 2.08  10 2.09   9 2.15   4 2.25  18 2.28
  28  0.336  0.664  0.149-   3 2.02   7 2.22   1 2.25  12 2.26   8 2.26
  29  0.385  0.672  0.315-  13 2.06  12 2.14   2 2.14   8 2.21
  30  0.057  0.451  0.073-   7 2.03  14 2.04   9 2.06
  31  0.111  0.500  0.239-  15 2.07  10 2.11   7 2.12   9 2.12   8 2.25  14 2.36
  32  0.064  0.344  0.394-  19 2.04  10 2.04  15 2.05
  33  0.336  1.000  0.149-   3 2.01  11 2.10   5 2.25  12 2.26   4 2.26
  34  0.383  0.993  0.314-  13 2.06   6 2.14  12 2.15   4 2.18
  35  0.309  0.334  0.115-   1 2.09   9 2.10   5 2.11  36 2.73
  36  0.368  0.332  0.269-   6 2.06   2 2.06  10 2.18   1 2.36   5 2.36  35 2.73
  37  0.092  0.832  0.179-   3 2.03  25 2.25   8 2.26   4 2.26   7 2.43
  38  0.161  0.833  0.341-  26 2.01   4 2.07   8 2.08
  39  0.537  0.183  0.063-   5 2.04  16 2.08  11 2.18  22 2.20  50 2.62
  40  0.611  0.164  0.239-  23 2.07   6 2.08  17 2.25  16 2.26  22 2.36   5 2.36
  41  0.560  0.331  0.390-  23 2.05   2 2.05   6 2.05
  42  0.836  0.664  0.149-  24 2.08  20 2.16  14 2.25  25 2.26  21 2.26
  43  0.886  0.675  0.315-  26 2.07  25 2.12  15 2.15  21 2.21
  44  0.547  0.476  0.066-  20 2.02   1 2.06  22 2.08
  45  0.611  0.500  0.239-  23 2.07   2 2.08  20 2.12  21 2.25  22 2.36   1 2.36
  46  0.836  1.000  0.149-  16 2.02  24 2.05  18 2.18  25 2.26  17 2.26
  47  0.889  0.004  0.309-  26 2.07  25 2.15  19 2.15  17 2.21
  48  0.814  0.308  0.116-  18 2.10  22 2.11  14 2.21  16 2.53  49 2.72
  49  0.868  0.332  0.269-  15 2.07  18 2.08  19 2.10  23 2.18  14 2.36  48 2.72
  50  0.651  0.953  0.028-  24 2.05  11 2.07  16 2.13  39 2.62
  51  0.592  0.832  0.179-  24 2.06  11 2.15  12 2.25  21 2.26  17 2.26  20 2.49
  52  0.664  0.832  0.343-  13 2.01  17 2.08  21 2.09

  LATTYP: Found a simple orthorhombic cell.
 ALAT       =     9.5784100000
 B/A-ratio  =     1.1751911892
 C/A-ratio  =     1.7949213288

  Lattice vectors:

 A1 = (   0.0000000000,  -9.5784100000,   0.0000000000)
 A2 = ( -11.2564630382,   0.0000000000,   0.0000000000)
 A3 = (   0.0000000000,   0.0000000000, -17.1924924047)

Analysis of symmetry for initial positions (statically):
 Subroutine PRICEL returns:
 Original cell was already a primitive cell.

 Routine SETGRP: Setting up the symmetry group for a
 simple orthorhombic supercell.

 Subroutine GETGRP returns: Found  1 space group operations
 (whereof  1 operations were pure point group operations)
 out of a pool of  8 trial point group operations.

The static configuration has the point symmetry C_1 .

Analysis of symmetry for dynamics (positions and initial velocities):
 Subroutine PRICEL returns:
 Original cell was already a primitive cell.

 Routine SETGRP: Setting up the symmetry group for a
 simple orthorhombic supercell.

 Subroutine GETGRP returns: Found  1 space group operations
 (whereof  1 operations were pure point group operations)
 out of a pool of  8 trial point group operations.

The dynamic configuration has the point symmetry C_1 .

 Subroutine INISYM returns: Found  1 space group operations
 (whereof  1 operations are pure point group operations),
 and found     1 'primitive' translations

 KPOINTS: gamma-point-only calculation. no periodi

Automatic generation of k-mesh.
Space group operators:
 irot       det(A)        alpha          n_x          n_y          n_z        tau_x        tau_y        tau_z
    1     1.000000     0.000000     1.000000     0.000000     0.000000     0.000000     0.000000     0.000000

 Subroutine IBZKPT returns following result:

 Found      1 irreducible k-points:

 Following reciprocal coordinates:
            Coordinates               Weight
  0.000000  0.000000  0.000000      1.000000

 Following cartesian coordinates:
            Coordinates               Weight
  0.000000  0.000000  0.000000      1.000000

 SYSTEM =  "Millerite NiS"
 POSCAR =  Type_026 Type_126

 Startparameter for this run:
   NWRITE =      2    write-flag & timer
   PREC   = normal    normal or accurate (medium, high low for compatibility)
   ISTART =      0    job   : 0-new  1-cont  2-samecut
   ICHARG =      2    charge: 1-file 2-atom 10-const
   ISPIN  =      1    spin polarized calculation?
   LNONCOLLINEAR =      F non collinear calculations
   LSORBIT =      F    spin-orbit coupling
   INIWAV =      1    electr: 0-lowe 1-rand  2-diag
   LASPH  =      F    aspherical Exc in radial PAW
   METAGGA=      F    non-selfconsistent MetaGGA calc.

 Electronic Relaxation 1
   ENCUT  =  450.0 eV  33.07 Ry    5.75 a.u.  19.47 16.57 29.74*2*pi/ulx,y,z
   ENINI  =  450.0     initial cutoff
   ENAUG  =  703.4 eV  augmentation charge cutoff
   NELM   =    100;   NELMIN=  2; NELMDL= -5     # of ELM steps
   EDIFF  = 0.1E-03   stopping-criterion for ELM
   LREAL  =      T    real-space projection
   NLSPLINE    = F    spline interpolate recip. space projectors
   LCOMPAT=      F    compatible to vasp.4.4
   GGA_COMPAT  = T    GGA compatible to vasp.4.4-vasp.4.6
   LMAXPAW     = -100 max onsite density
   LMAXMIX     =    2 max onsite mixed and CHGCAR
   VOSKOWN=      0    Vosko Wilk Nusair interpolation
   ROPT   =   -0.00050  -0.00050
 Ionic relaxation
   EDIFFG = 0.1E-02   stopping-criterion for IOM
   NSW    =      0    number of steps for IOM
   NBLOCK =      1;   KBLOCK =      1    inner block; outer block
   IBRION =     -1    ionic relax: 0-MD 1-quasi-New 2-CG
   NFREE  =      0    steps in history (QN), initial steepest desc. (CG)
   ISIF   =      2    stress and relaxation
   IWAVPR =     10    prediction:  0-non 1-charg 2-wave 3-comb
   ISYM   =      2    0-nonsym 1-usesym 2-fastsym
   LCORR  =      T    Harris-Foulkes like correction to forces

   POTIM  = 0.5000    time-step for ionic-motion
   TEIN   =    0.0    initial temperature
   TEBEG  =    0.0;   TEEND  =   0.0 temperature during run
   SMASS  =  -3.00    Nose mass-parameter (am)
   estimated Nose-frequenzy (Omega)   =  0.10E-29 period in steps =****** mass=  -0.290E-26a.u.
   SCALEE = 1.0000    scale energy and forces
   NPACO  =    256;   APACO  = 16.0  distance and # of slots for P.C.
   PSTRESS=    0.0 pullay stress

  Mass of Ions in am
   POMASS =  58.69 32.07
  Ionic Valenz
   ZVAL   =  16.00  6.00
  Atomic Wigner-Seitz radii
  virtual crystal weights
   VCA    =   1.00  1.00
   NELECT =     572.0000    total number of electrons
   NUPDOWN=      -1.0000    fix difference up-down

 DOS related values:
   EMIN   =  10.00;   EMAX   =-10.00  energy-range for DOS
   EFERMI =   0.00
   ISMEAR =     0;   SIGMA  =   0.20  broadening in eV -4-tet -1-fermi 0-gaus

 Electronic relaxation 2 (details)
   IALGO  =     38    algorithm
   LDIAG  =      T    sub-space diagonalisation (order eigenvalues)
   LSUBROT=      F    optimize rotation matrix (better conditioning)
   TURBO    =      0    0=normal 1=particle mesh
   IRESTART =      0    0=no restart 2=restart with 2 vectors
   NREBOOT  =      0    no. of reboots
   NMIN     =      0    reboot dimension
   EREF     =   0.00    reference energy to select bands
   IMIX   =      4    mixing-type and parameters
     AMIX     =   0.40;   BMIX     =  1.00
     AMIX_MAG =   1.60;   BMIX_MAG =  1.00
     AMIN     =   0.10
     WC   =   100.;   INIMIX=   1;  MIXPRE=   1;  MAXMIX= -45

 Intra band minimization:
   WEIMIN = 0.0000     energy-eigenvalue tresh-hold
   EBREAK =  0.73E-07  absolut break condition
   DEPER  =   0.30     relativ break condition

   TIME   =   0.40     timestep for ELM

  volume/ion in A,a.u.               =      35.65       240.56
  Fermi-wavevector in a.u.,A,eV,Ry     =   1.106272  2.090552 16.651337  1.223839
  Thomas-Fermi vector in A             =   2.242771

 Write flags
   LWAVE        =      F    write WAVECAR
   LDOWNSAMPLE  =      F    k-point downsampling of WAVECAR
   LCHARG       =      F    write CHGCAR
   LVTOT        =      F    write LOCPOT, total local potential
   LVHAR        =      F    write LOCPOT, Hartree potential only
[...]
      26 -87.5830      27 -93.2298      28 -92.9029      29 -92.7276      30 -92.3304
      31 -93.6977      32 -92.1622      33 -93.0169      34 -92.6753      35 -92.3612
      36 -93.2898      37 -92.8760      38 -92.2720      39 -93.1706      40 -93.4121
      41 -92.1933      42 -92.8766      43 -92.6919      44 -92.4595      45 -93.5675
      46 -93.0788      47 -92.8682      48 -92.5503      49 -93.3195      50 -92.4255
      51 -93.5406      52 -92.2126

 E-fermi :  -0.2011     XC(G=0):  -5.3830     alpha+bet : -5.1393

 k-point     1 :       0.0000    0.0000    0.0000
  band No.  band energies     occupation
      1     -64.9700      2.00000
      2     -64.9308      2.00000
      3     -64.8268      2.00000
      4     -64.8170      2.00000
      5     -64.7600      2.00000
      6     -64.7535      2.00000
      7     -64.7321      2.00000
      8     -64.7277      2.00000
      9     -64.7273      2.00000
     10     -64.7058      2.00000
     11     -64.7015      2.00000
     12     -64.6891      2.00000
     13     -64.6665      2.00000
     14     -64.6396      2.00000
     15     -64.6226      2.00000
     16     -64.6135      2.00000
     17     -64.6106      2.00000
     18     -64.6081      2.00000
     19     -64.6042      2.00000
     20     -64.6031      2.00000
     21     -64.5899      2.00000
     22     -64.5842      2.00000
     23     -64.5838      2.00000
     24     -64.5726      2.00000
     25     -64.5564      2.00000
     26     -64.5557      2.00000
     27     -64.5405      2.00000
     28     -64.5286      2.00000
     29     -64.5170      2.00000
     30     -64.5031      2.00000
     31     -64.4903      2.00000
     32     -64.4873      2.00000
     33     -64.4693      2.00000
     34     -64.4686      2.00000
     35     -64.4621      2.00000
     36     -64.4509      2.00000
     37     -64.4489      2.00000
     38     -64.4480      2.00000
     39     -64.4306      2.00000
     40     -64.4283      2.00000
     41     -64.4014      2.00000
     42     -64.3950      2.00000
     43     -64.3946      2.00000
     44     -64.3777      2.00000
     45     -64.3635      2.00000
     46     -64.3453      2.00000
     47     -64.3381      2.00000
     48     -64.3274      2.00000
     49     -64.3245      2.00000
     50     -64.3222      2.00000
     51     -64.3130      2.00000
     52     -64.3122      2.00000
     53     -64.3064      2.00000
     54     -64.3032      2.00000
     55     -64.2979      2.00000
     56     -64.2828      2.00000
     57     -64.2743      2.00000
     58     -64.2613      2.00000
     59     -64.2424      2.00000
     60     -64.2397      2.00000
[...]
    330       4.9896      0.00000
    331       5.0341      0.00000
    332       5.1205      0.00000
    333       5.1410      0.00000
    334       5.2169      0.00000
    335       5.2552      0.00000
    336       5.3635      0.00000
    337       5.4263      0.00000
    338       5.4853      0.00000
    339       5.5427      0.00000
    340       5.6121      0.00000
    341       5.6558      0.00000
    342       5.7263      0.00000
    343       5.8006      0.00000
    344       5.8169      0.00000

 soft charge-density along one line, spin component           1
         0         1         2         3         4         5         6         7         8         9
 total charge-density along one line

------------------------ aborting loop because EDIFF is reached ----------------------------------------

  FORCE on cell =-STRESS in cart. coord.  units (eV):
  Direction    XX          YY          ZZ          XY          YZ          ZX
  Alpha Z  1046.73971  1046.73971  1046.73971
  Ewald  164511.38404168412.42560************  1314.94532   -63.32928  1202.59253
  Hartree189173.24134192687.43599************  1105.35050   -38.72089   832.61285
  E(xc)   -3652.30106 -3652.46116 -3657.91729     0.07013    -0.02116     0.93840
  Local  ************************358794.02330 -2421.64450    98.48947 -2006.93358
  n-local  -410.66143  -424.15738  -423.31227    -2.34847    -1.97860     0.71111
  augment  4178.80435  4180.16635  4191.72751     0.22593     3.51297   -10.08088
  Kinetic  8022.29629  8008.08665  8089.36553     0.05617     2.52615   -23.22847
  Fock        0.00000     0.00000     0.00000     0.00000     0.00000     0.00000
  Total     100.45120    89.56053   105.88658    -3.34493     0.47867    -3.38805
  in kB      86.82234    77.40928    91.52027    -2.89110     0.41372    -2.92837

 VOLUME and BASIS-vectors are now :
  energy-cutoff  :      450.00
  volume of cell :     1853.68
      direct lattice vectors                 reciprocal lattice vectors
    11.256463038  0.000000000  0.000000000     0.088837852  0.000000000  0.000000000
     0.000000000  9.578410000  0.000000000     0.000000000  0.104401461  0.000000000
     0.000000000  0.000000000 17.192492405     0.000000000  0.000000000  0.058164923

  length of vectors
    11.256463038  9.578410000 17.192492405     0.088837852  0.104401461  0.058164923

 FORCES acting on ions
    electron-ion (+dipol)            ewald-force                    non-local-force                 convergence-correction
   0.570E+03 -.411E+03 0.167E+04   -.573E+03 0.413E+03 -.167E+04   0.291E+01 -.195E+01 0.427E+01   0.217E-02 0.760E-03 0.176E+00
   0.279E+03 -.408E+03 -.315E+04   -.282E+03 0.412E+03 0.315E+04   0.251E+01 -.253E+01 -.382E+01   0.120E+00 -.196E+00 0.143E+00
   0.422E+03 -.394E+03 0.365E+04   -.423E+03 0.395E+03 -.366E+04   0.109E+01 -.687E+00 0.456E+01   -.155E+00 -.116E+00 0.494E-01
   0.407E+03 -.659E+03 -.101E+04   -.410E+03 0.664E+03 0.101E+04   0.263E+01 -.311E+01 -.342E+01   -.121E+00 0.985E-01 0.691E-01
   0.829E+03 0.142E+03 0.149E+04   -.832E+03 -.141E+03 -.149E+04   0.301E+01 -.501E+00 0.194E+01   -.323E-01 0.154E+00 0.171E+00
   0.313E+03 0.383E+03 -.317E+04   -.317E+03 -.387E+03 0.317E+04   0.285E+01 0.285E+01 -.415E+01   0.123E+00 0.314E+00 0.168E+00
   0.167E+03 -.117E+03 0.296E+04   -.167E+03 0.120E+03 -.296E+04   0.319E+00 -.143E+01 0.782E+01   -.111E+00 -.203E+00 0.126E-01
   0.206E+03 0.358E+03 -.144E+04   -.207E+03 -.360E+03 0.144E+04   0.972E+00 0.183E+01 -.493E+01   -.755E-01 -.179E+00 -.942E-03
   -.265E+03 0.640E+03 0.225E+04   0.269E+03 -.645E+03 -.226E+04   -.321E+01 0.427E+01 0.489E+01   -.167E+00 0.691E-01 0.216E-01
   -.605E+03 0.796E+02 -.258E+04   0.611E+03 -.802E+02 0.258E+04   -.433E+01 0.713E+00 -.377E+01   -.109E-01 0.773E-02 -.121E-01
   0.679E+03 0.393E+03 0.342E+04   -.681E+03 -.394E+03 -.343E+04   0.667E+00 0.913E+00 0.384E+01   0.280E-01 -.447E-02 -.112E+00
   -.171E+03 0.894E+02 -.202E+03   0.175E+03 -.906E+02 0.202E+03   -.287E+01 0.126E+01 -.216E+01   -.135E+00 -.110E+00 0.414E-02
   -.600E+02 0.101E+02 -.399E+04   0.638E+02 -.997E+01 0.399E+04   -.401E+01 -.530E-01 0.172E+01   -.561E-01 -.641E-01 0.924E-01
   0.289E+03 -.274E+03 0.189E+04   -.292E+03 0.275E+03 -.189E+04   0.267E+01 -.987E+00 0.515E+01   0.803E-01 -.125E+00 0.413E-02
   0.221E+03 -.448E+03 -.305E+04   -.224E+03 0.453E+03 0.306E+04   0.215E+01 -.282E+01 -.422E+01   -.438E-01 -.159E+00 -.604E-01
   -.629E+03 -.225E+03 0.276E+04   0.631E+03 0.228E+03 -.276E+04   -.257E+01 -.195E+01 0.238E+01   0.204E+00 0.202E+00 0.312E-01
   -.246E+01 -.392E+03 -.160E+04   0.542E+00 0.395E+03 0.160E+04   0.169E+01 -.192E+01 -.568E+01   0.639E-01 0.227E+00 0.116E+00
   -.321E+03 0.454E+03 0.147E+04   0.322E+03 -.456E+03 -.147E+04   0.330E+00 0.163E+01 0.334E+01   0.785E-01 0.178E+00 0.631E-01
   0.113E+03 0.475E+03 -.321E+04   -.114E+03 -.478E+03 0.321E+04   0.757E+00 0.108E+01 -.414E+01   -.635E-01 0.950E-01 -.406E-01
   -.726E+02 0.250E+02 0.280E+04   0.724E+02 -.238E+02 -.280E+04   0.214E+00 -.239E+00 0.697E+01   0.808E-01 -.167E+00 0.182E-01
   -.841E+01 0.467E+03 -.156E+04   0.812E+01 -.470E+03 0.156E+04   0.450E+00 0.257E+01 -.579E+01   -.740E-02 -.298E+00 0.618E-01
   -.441E+03 -.253E+03 0.233E+04   0.444E+03 0.254E+03 -.233E+04   -.405E+01 -.764E+00 0.320E+01   0.192E+00 0.105E+00 0.183E+00
   -.616E+03 -.435E+02 -.267E+04   0.622E+03 0.428E+02 0.267E+04   -.418E+01 0.742E+00 -.297E+01   -.263E-01 0.549E-01 0.158E+00
   -.654E+03 0.274E+03 0.351E+04   0.656E+03 -.278E+03 -.352E+04   -.136E+01 0.249E+01 0.932E+01   0.771E-01 -.791E-01 -.116E+00
   -.680E+03 -.242E+02 0.133E+03   0.684E+03 0.231E+02 -.135E+03   -.460E+01 0.103E+01 -.453E+00   0.712E-01 -.905E-02 -.363E-01
   -.145E+03 -.290E+02 -.386E+04   0.148E+03 0.286E+02 0.386E+04   -.320E+01 0.557E+00 0.181E+01   0.379E-01 0.268E-01 0.933E-01
   -.135E+03 0.290E+03 -.256E+02   0.137E+03 -.292E+03 0.238E+02   -.694E+00 -.327E+00 0.155E+00   -.509E-01 0.720E-01 0.119E-01
   -.157E+03 0.162E+03 0.928E+03   0.160E+03 -.162E+03 -.932E+03   -.203E+01 -.100E+01 0.239E+01   -.657E-01 -.727E-01 0.163E-01
   0.120E+03 0.185E+03 -.116E+04   -.119E+03 -.187E+03 0.116E+04   -.119E+01 0.681E+00 -.689E+00   -.398E-01 -.176E+00 0.200E-01
   0.541E+02 0.691E+02 0.178E+04   -.549E+02 -.693E+02 -.178E+04   0.588E+00 0.214E+00 0.182E+01   -.302E-02 -.910E-02 0.196E-01
   -.714E+02 -.144E+03 -.311E+03   0.729E+02 0.146E+03 0.314E+03   -.865E+00 0.519E+00 -.229E+01   -.812E-02 -.448E-01 -.399E-01
   -.948E+02 -.294E+02 -.182E+04   0.952E+02 0.294E+02 0.183E+04   0.572E-01 0.113E+00 -.896E+00   -.115E-01 -.233E-01 0.481E-03
   0.288E+03 -.253E+03 0.856E+03   -.291E+03 0.255E+03 -.860E+03   0.209E+01 -.323E+00 0.302E+01   -.767E-01 0.422E-01 0.248E-01
   0.152E+03 -.190E+03 -.115E+04   -.151E+03 0.192E+03 0.116E+04   -.657E+00 -.393E+00 -.897E+00   -.557E-01 0.130E+00 0.357E-01
   0.217E+03 0.680E+02 0.131E+04   -.218E+03 -.680E+02 -.132E+04   0.101E-01 -.716E+00 0.434E+01   -.108E+00 0.287E-01 -.132E-01
   0.272E+03 0.904E+01 -.567E+03   -.275E+03 -.928E+01 0.567E+03   0.970E+00 0.224E+00 -.302E+00   0.300E-01 0.434E-01 0.115E+00
   0.297E+03 -.188E+03 0.630E+03   -.300E+03 0.190E+03 -.632E+03   0.161E+01 -.241E+01 0.195E+01   0.201E-02 -.318E-01 -.447E-04
   -.781E+02 -.735E+01 -.146E+04   0.790E+02 0.721E+01 0.147E+04   -.746E+00 -.546E-01 -.250E+01   0.313E-01 -.125E-01 0.170E-01
   0.176E+03 -.148E+03 0.181E+04   -.178E+03 0.149E+03 -.182E+04   0.137E+01 -.979E+00 0.368E+01   0.247E-01 0.568E-01 -.865E-01
   -.753E+02 0.116E+03 -.385E+03   0.760E+02 -.117E+03 0.387E+03   0.949E-01 -.311E+00 -.263E+01   0.529E-01 0.145E+00 0.137E+00
   -.792E+02 -.257E+01 -.183E+04   0.797E+02 0.252E+01 0.184E+04   -.147E+00 -.163E-01 -.862E+00   0.280E-01 0.353E-01 -.617E-01
   -.342E+03 0.127E+03 0.929E+03   0.345E+03 -.128E+03 -.933E+03   -.130E+01 -.684E+00 0.297E+01   0.422E-01 -.109E+00 -.195E-01
   0.579E+02 0.179E+03 -.115E+04   -.567E+02 -.180E+03 0.115E+04   -.115E+01 0.198E+00 -.702E+00   -.129E-01 -.106E+00 0.225E-01
   0.130E+03 -.105E+03 0.179E+04   -.131E+03 0.107E+03 -.180E+04   0.102E+01 -.108E+01 0.234E+01   0.354E-01 0.114E-01 -.590E-01
   -.845E+02 -.124E+03 -.348E+03   0.857E+02 0.125E+03 0.350E+03   -.533E+00 0.459E+00 -.276E+01   0.213E-01 -.111E+00 0.132E+00
   -.507E+03 -.685E+02 0.918E+03   0.511E+03 0.701E+02 -.923E+03   0.738E-01 -.118E+01 0.431E+01   0.735E-01 0.958E-01 -.889E-02
   0.322E+02 -.159E+03 -.106E+04   -.318E+02 0.159E+03 0.106E+04   -.677E+00 0.498E+00 -.121E+01   0.990E-02 0.137E+00 0.219E-01
   -.171E+03 -.481E+02 0.131E+04   0.172E+03 0.479E+02 -.132E+04   -.132E+01 0.869E-01 0.513E+01   0.721E-01 0.246E-01 0.329E-01
   0.195E+03 -.500E+02 -.596E+03   -.198E+03 0.504E+02 0.597E+03   0.726E+00 0.250E+00 -.198E+00   -.393E-01 -.168E-01 0.128E-01
   -.105E+03 0.709E+02 0.191E+04   0.106E+03 -.722E+02 -.192E+04   -.950E+00 0.105E+01 0.281E+01   0.485E-01 0.641E-02 -.130E+00
   0.208E+03 0.125E+03 0.342E+03   -.211E+03 -.126E+03 -.340E+03   0.136E+01 -.589E+00 -.256E+00   0.187E-01 -.545E-01 0.107E-01
   -.110E+03 0.799E+01 -.153E+04   0.111E+03 -.790E+01 0.154E+04   -.966E+00 -.220E+00 -.246E+01   0.777E-01 -.166E-01 0.552E-01
   0.122E+02 0.319E+01 -.334E+02   0.249E-11 -.427E-12 -.118E-10   -.124E+02 -.301E+01 0.320E+02   0.251E+00 -.132E+00 0.153E+01

 POSITION                                       TOTAL-FORCE (eV/Angst)
      4.94536      4.44331      2.79952        -0.500676      0.349995      1.974829
      5.37881      4.56614      5.52023        -0.801824      1.746099      0.588771
      2.72453      7.97392      1.95876        -0.379267      0.067930     -2.059418
      2.42308      9.23251      4.34179        -0.143102      1.023561     -0.875761
      4.94536      1.91264      2.79952        -0.732087      0.214048      2.075023
      5.37313      1.78388      5.51874        -0.807354     -1.797858      0.429411
      1.65431      5.75967      2.27159         0.108874      0.722357     -0.057677
      2.42308      6.70184      4.34179        -0.021446     -0.604074     -0.182848
      1.51570      3.19288      2.73031         0.111475     -0.748656      0.028705
      2.03504      3.16512      5.20491         1.561442      0.049304      0.186811
      5.65852      9.26841      1.69515        -1.179079     -0.623613      0.209049
      4.57649      7.96718      3.93431         0.346260     -0.102604     -2.045224
      5.48015      7.98254      6.14853        -0.288782      0.002969      1.297685
     10.57359      4.44331      2.79952        -1.006305     -0.004677      1.366283
     11.00160      4.58532      5.51636        -0.920214      1.922968      0.351314
      7.66516      0.91254      2.08954         0.003619      1.028736     -0.243205
      8.05131      9.23251      4.34179        -0.165401      0.807780     -0.881326
     10.43506      1.81253      3.19892         1.036333     -0.045132     -0.577367
     11.09245      1.86709      5.60375        -0.629058     -1.615206      0.556417
      7.35840      5.72624      2.26279         0.179696      0.778819     -0.298417
      8.05131      6.70184      4.34179         0.150402     -0.661413     -0.160980
      7.09877      3.17797      2.39204        -0.062832      0.587768      1.481132
      7.65101      3.17704      5.16047         1.854142      0.148735      0.263762
      8.32290      7.98499      1.86867         0.668676     -1.133051     -1.442705
     10.20472      7.96718      3.93431         0.094355     -0.089015     -2.176542
     11.08046      8.05905      6.14286        -0.268938      0.112961      1.210864
      1.25497      1.56674      4.10795         0.959428     -2.392875     -1.606402
      3.77725      6.35595      2.56568         1.261593     -1.529028     -0.821563
      4.33326      6.43409      5.41096        -0.156449     -1.041587      1.452744
      0.63632      4.32349      1.25230        -0.222339     -0.018594     -4.145242
      1.25497      4.78920      4.10795         0.660377      2.046976      0.590079
      0.72376      3.29193      6.76765         0.450821      0.102527      4.503927
      3.77725      9.57841      2.56568        -0.548379      1.948101     -0.534466
      4.30597      9.50770      5.40537         0.023917      1.260026      1.820251
      3.47982      3.19816      1.97971        -0.646812     -0.729330     -2.391533
      4.14113      3.17797      4.62682        -1.911927      0.031775     -0.454965
      1.03518      7.96718      3.08454        -1.740645     -0.133285     -0.202046
      1.81087      7.97992      5.86926         0.144648     -0.200880      2.790101
      6.04611      1.74842      1.08708        -0.147882      0.299306     -2.950175
      6.88320      1.56674      4.10795         0.792110     -1.608241     -0.826980
      6.30511      3.17273      6.70117         0.326981     -0.031402      4.170237
      9.40548      6.35595      2.56568         1.741906     -1.739119     -0.402474
      9.97274      6.46904      5.41839        -0.038837     -1.167085      1.877578
      6.15590      4.55516      1.14257        -0.275820      0.879345     -3.751068
      6.88320      4.78920      4.10795         0.747367      1.558857     -0.447944
      9.40548      9.57841      2.56568         4.055621      0.602170     -0.260155
     10.00566      0.03388      5.30517        -0.300874      0.669849      1.998718
      9.15799      2.95365      1.98715         0.563198     -0.100099     -2.218895
      9.76936      3.17797      4.62682        -2.346387      0.711915      0.435455
      7.32970      9.12460      0.48953         0.202714     -0.283091     -3.806864
      6.66341      7.96718      3.08454        -1.965461     -1.126507      1.405709
      7.47714      7.97374      5.89190         0.162223     -0.148457      2.757388
    total drift:                                0.031081      0.046614      0.103109

  FREE ENERGIE OF THE ION-ELECTRON SYSTEM (eV)
  free  energy   TOTEN  =      -249.54773624 eV

  energy  without entropy=     -248.65779083  energy(sigma->0) =     -249.10276353