 vasp.5.4.4.18Apr17-6-g9f103f2a35 (build Aug 13 2019 17:33:20) gamma-only

 executed on             LinuxIFC date 2020.05.12  13:29:31

 INCAR:
 POTCAR:    PAW_PBE Ni_pv 06Sep2000
 POTCAR:    PAW_PBE S 06Sep2000
 POTCAR:    PAW_PBE Ni_pv 06Sep2000
   VRHFIN =Ni:

   TITEL  = PAW_PBE Ni_pv 06Sep2000
   POMASS =   58.690; ZVAL   =   16.000    mass and valenz
   ENMAX  =  367.986; ENMIN  =  275.989 eV

 POTCAR:    PAW_PBE S 06Sep2000
   VRHFIN =S : s2p4

   TITEL  = PAW_PBE S 06Sep2000
   POMASS =   32.066; ZVAL   =    6.000    mass and valenz
   ENMAX  =  258.689; ENMIN  =  194.016 eV

 Optimization of the real space projectors (new method)

 maximal supplied QI-value         = 18.90
 optimisation between [QCUT,QGAM] = [ 10.77, 21.73] = [ 32.49,132.25] Ry
 Optimized for a Real-space Cutoff    1.38 Angstroem

   l    n(q)    QCUT    max X(q) W(low)/X(q) W(high)/X(q)  e(spline)
   1      8    10.771     2.836    0.40E-04    0.29E-04    0.12E-06
   1      8    10.771     4.023    0.10E-03    0.48E-04    0.29E-06
   2      8    10.771    73.368    0.42E-03    0.97E-04    0.44E-06
   2      8    10.771    69.010    0.42E-03    0.99E-04    0.45E-06
   0      9    10.771    54.797    0.10E-03    0.56E-04    0.74E-07
   0      9    10.771    24.266    0.89E-04    0.49E-04    0.67E-07
 Optimization of the real space projectors (new method)

 maximal supplied QI-value         = 19.84
 optimisation between [QCUT,QGAM] = [ 10.71, 21.63] = [ 32.15,130.99] Ry
 Optimized for a Real-space Cutoff    1.19 Angstroem

   l    n(q)    QCUT    max X(q) W(low)/X(q) W(high)/X(q)  e(spline)
   0      8    10.715   187.594    0.41E-03    0.53E-04    0.66E-07
   0      8    10.715   164.243    0.41E-03    0.53E-04    0.65E-07
   1      7    10.715    67.533    0.19E-03    0.59E-03    0.68E-07
   1      7    10.715    50.729    0.19E-03    0.58E-03    0.67E-07
  PAW_PBE Ni_pv 06Sep2000               :
  PAW_PBE S 06Sep2000                   :

 POSCAR: Type_036 Type_136
  positions in cartesian coordinates
 exchange correlation table for  LEXCH =        8
   RHO(1)=    0.500       N(1)  =     2000
   RHO(2)=  100.500       N(2)  =     4000

 ion  position               nearest neighbor table
   1  0.374  0.751  0.095-  60 2.05  49 2.06  41 2.25  61 2.36  50 2.36  14 2.39  33 2.44
   2  0.525  0.601  0.223-  42 2.25  50 2.26  61 2.26  62 2.36  51 2.36  15 2.53  27 2.53
   3  0.675  0.451  0.351-  43 2.25  62 2.26  51 2.26  63 2.36  52 2.36  32 2.42  28 2.53  16 2.53

   4  0.760  0.341  0.464-  64 2.04  63 2.05  44 2.06  52 2.07
   5  0.793  0.087  0.022-  45 2.01  67 2.05  53 2.06   6 2.48  29 2.51  20 2.53
   6  0.758  0.035  0.138-  53 2.11  67 2.12  46 2.25  54 2.36  68 2.36   5 2.48  29 2.53  20 2.53

   7  0.008  0.767  0.378-  65 2.02  55 2.05  48 2.11
   8  0.908  0.884  0.266-  47 2.25  54 2.26  68 2.26  55 2.36  65 2.36  30 2.53  17 2.53
   9  0.141  0.318  0.180-  69 2.04  40 2.25  56 2.26  12 2.30  70 2.36  57 2.36
  10  0.291  0.168  0.308-  37 2.25  57 2.26  70 2.26  58 2.36  71 2.36  35 2.53  22 2.53
  11  0.427  0.028  0.423-  71 2.04  38 2.10  58 2.10  72 2.21  23 2.52
  12  0.961  0.471  0.118-  39 2.00  56 2.06  69 2.11  40 2.14   9 2.30
  13  0.010  0.116  0.412-  64 2.05  38 2.13  55 2.25  63 2.26  37 2.26  25 2.48
  14  0.571  0.566  0.049-  61 2.05  60 2.07  39 2.07   1 2.39
  15  0.709  0.416  0.155-  53 2.14  39 2.26  61 2.26  40 2.36  62 2.36  27 2.53   2 2.53
  16  0.860  0.266  0.283-  54 2.25  62 2.26  40 2.26  37 2.36  63 2.36   3 2.53  28 2.53
  17  0.093  0.700  0.198-  56 2.25  41 2.26  68 2.26  42 2.36  65 2.36  30 2.53   8 2.53
  18  0.243  0.549  0.326-  66 2.09  57 2.25  65 2.26  42 2.26  43 2.36
  19  0.395  0.403  0.437-  43 2.02  44 2.09  66 2.09  58 2.09
  20  0.943  0.850  0.070-  59 2.02  45 2.08  67 2.12  68 2.36  41 2.36  33 2.52   6 2.53  29 2.53
                             5 2.53
  21  0.401  0.003  0.133-  49 2.03  50 2.16  70 2.23  46 2.26  22 2.32
  22  0.476  0.983  0.241-  50 2.25  70 2.26  46 2.26  21 2.32  47 2.36  71 2.36  35 2.53  10 2.53

[...]

  36  0.657  0.074  0.388-  47 2.05  58 2.10  48 2.13  63 2.15
  37  0.064  0.262  0.341-  25 2.05  10 2.25  13 2.26  16 2.36  28 2.36  38 2.58
  38  0.208  0.128  0.440-  11 2.10  13 2.13  25 2.18  37 2.58  64 2.60
  39  0.763  0.563  0.085-  12 2.00  14 2.07  26 2.17  15 2.26  27 2.26
  40  0.914  0.412  0.213-  12 2.14   9 2.25  16 2.26  28 2.26  27 2.36  15 2.36
  41  0.147  0.846  0.128-  33 2.13   1 2.25  17 2.26  30 2.26  20 2.36  29 2.36
  42  0.297  0.696  0.256-  31 2.03   2 2.25  18 2.26  30 2.36  17 2.36
  43  0.447  0.545  0.384-  19 2.02  32 2.12   3 2.25  18 2.36  44 2.63  31 2.63
  44  0.553  0.429  0.496-   4 2.06  32 2.08  19 2.09  43 2.63
  45  0.003  0.988  0.012-   5 2.01  29 2.06  20 2.08
  46  0.530  0.129  0.171-  34 2.22   6 2.25  21 2.26  22 2.26  35 2.26
  47  0.680  0.979  0.299-  36 2.05   8 2.25  23 2.26  35 2.36  22 2.36  48 2.75
  48  0.804  0.872  0.416-  24 2.04   7 2.11  36 2.13  23 2.19  47 2.75
  49  0.429  0.903  0.045-  21 2.03   1 2.06  26 2.07
  50  0.528  0.798  0.171-  26 2.07  21 2.16  22 2.25  27 2.26   2 2.26   1 2.36
  51  0.678  0.648  0.299-  23 2.25  28 2.26   3 2.26  27 2.36   2 2.36
  52  0.829  0.497  0.427-   4 2.07  24 2.08  25 2.24  32 2.30  28 2.36   3 2.36
  53  0.769  0.225  0.099-   5 2.06   6 2.11  15 2.14  29 2.15
  54  0.911  0.081  0.214-  16 2.25   8 2.26  30 2.26   6 2.36  29 2.36
  55  0.062  0.931  0.342-   7 2.05  31 2.06  13 2.25  30 2.36   8 2.36
  56  0.145  0.515  0.129-  12 2.06  33 2.07  17 2.25   9 2.26
  57  0.295  0.364  0.257-  34 2.15  18 2.25  10 2.26  35 2.26   9 2.36
  58  0.445  0.214  0.385-  19 2.09  36 2.10  11 2.10  35 2.36  10 2.36
  59  0.014  0.669  0.017-  33 2.01  20 2.02
  60  0.365  0.639  0.013-   1 2.05  14 2.07  33 2.09  61 2.73
  61  0.477  0.512  0.128-  34 2.02  14 2.05  15 2.26   2 2.26   1 2.36  60 2.73
  62  0.628  0.362  0.256-  34 2.20  35 2.25   3 2.26  16 2.26   2 2.36  15 2.36
  63  0.778  0.212  0.384-   4 2.05  36 2.15  13 2.26  16 2.36   3 2.36
  64  0.961  0.231  0.496-   4 2.04  13 2.05  25 2.08  38 2.60
  65  0.011  0.645  0.299-   7 2.02  28 2.25  18 2.26   8 2.36  17 2.36
  66  0.183  0.464  0.409-  19 2.09  18 2.09  25 2.19
  67  0.721  0.932  0.053-   5 2.05  26 2.12   6 2.12  20 2.12
  68  0.861  0.795  0.171-  27 2.25  17 2.26   8 2.26   6 2.36  20 2.36
  69  0.054  0.249  0.104-   9 2.04  12 2.11  29 2.13
  70  0.244  0.079  0.214-  21 2.23  30 2.25  22 2.26  10 2.26   9 2.36
  71  0.395  0.928  0.342-  11 2.04  31 2.16  23 2.26  10 2.36  22 2.36
  72  0.550  0.814  0.461-  23 2.08  24 2.08  32 2.13  11 2.21

  LATTYP: Found a base centered orthorhombic cell.
 ALAT       =    11.4527836704
 B/A-ratio  =     1.4485816945
 C/A-ratio  =     1.7908432109

  Lattice vectors:

 A1 = (  10.0797329849,   0.0000000000,   0.0000000000)
 A2 = (  -3.5732980427,  -9.4251025535,   0.0000000000)
 A3 = (   0.0000000000,   0.0000000000, -20.5101398818)

Analysis of symmetry for initial positions (statically):
 Subroutine PRICEL returns:
 Original cell was already a primitive cell.

 Routine SETGRP: Setting up the symmetry group for a
 base centered orthorhombic supercell.

 Subroutine GETGRP returns: Found  1 space group operations
 (whereof  1 operations were pure point group operations)
 out of a pool of  8 trial point group operations.

The static configuration has the point symmetry C_1 .

Analysis of symmetry for dynamics (positions and initial velocities):
 Subroutine PRICEL returns:
 Original cell was already a primitive cell.

 Routine SETGRP: Setting up the symmetry group for a
 base centered orthorhombic supercell.

 Subroutine GETGRP returns: Found  1 space group operations
 (whereof  1 operations were pure point group operations)
 out of a pool of  8 trial point group operations.

The dynamic configuration has the point symmetry C_1 .

 Subroutine INISYM returns: Found  1 space group operations
 (whereof  1 operations are pure point group operations),
 and found     1 'primitive' translations

 KPOINTS: gamma-point-only calculation. no periodi

Automatic generation of k-mesh.
Space group operators:
 irot       det(A)        alpha          n_x          n_y          n_z        tau_x        tau_y        tau_z
    1     1.000000     0.000000     1.000000     0.000000     0.000000     0.000000     0.000000     0.000000

 Subroutine IBZKPT returns following result:

 Found      1 irreducible k-points:

 Following reciprocal coordinates:
            Coordinates               Weight
  0.000000  0.000000  0.000000      1.000000

 Following cartesian coordinates:
            Coordinates               Weight
  0.000000  0.000000  0.000000      1.000000

 SYSTEM =  "Millerite NiS"
 POSCAR =  Type_036 Type_136

 Startparameter for this run:
   NWRITE =      2    write-flag & timer
   PREC   = normal    normal or accurate (medium, high low for compatibility)
   ISTART =      0    job   : 0-new  1-cont  2-samecut
   ICHARG =      2    charge: 1-file 2-atom 10-const
   ISPIN  =      1    spin polarized calculation?
   LNONCOLLINEAR =      F non collinear calculations
   LSORBIT =      F    spin-orbit coupling
   INIWAV =      1    electr: 0-lowe 1-rand  2-diag
   LASPH  =      F    aspherical Exc in radial PAW
   METAGGA=      F    non-selfconsistent MetaGGA calc.

 Electronic Relaxation 1
   ENCUT  =  450.0 eV  33.07 Ry    5.75 a.u.  17.43 17.43 35.48*2*pi/ulx,y,z
   ENINI  =  450.0     initial cutoff
   ENAUG  =  703.4 eV  augmentation charge cutoff
   NELM   =    100;   NELMIN=  2; NELMDL= -5     # of ELM steps
   EDIFF  = 0.1E-03   stopping-criterion for ELM
   LREAL  =      T    real-space projection
   NLSPLINE    = F    spline interpolate recip. space projectors
   LCOMPAT=      F    compatible to vasp.4.4
   GGA_COMPAT  = T    GGA compatible to vasp.4.4-vasp.4.6
   LMAXPAW     = -100 max onsite density
   LMAXMIX     =    2 max onsite mixed and CHGCAR
   VOSKOWN=      0    Vosko Wilk Nusair interpolation
   ROPT   =   -0.00050  -0.00050
 Ionic relaxation
   EDIFFG = 0.1E-02   stopping-criterion for IOM
   NSW    =      0    number of steps for IOM
   NBLOCK =      1;   KBLOCK =      1    inner block; outer block
   IBRION =     -1    ionic relax: 0-MD 1-quasi-New 2-CG
   NFREE  =      0    steps in history (QN), initial steepest desc. (CG)
   ISIF   =      2    stress and relaxation
   IWAVPR =     10    prediction:  0-non 1-charg 2-wave 3-comb
   ISYM   =      2    0-nonsym 1-usesym 2-fastsym
   LCORR  =      T    Harris-Foulkes like correction to forces

   POTIM  = 0.5000    time-step for ionic-motion
   TEIN   =    0.0    initial temperature
   TEBEG  =    0.0;   TEEND  =   0.0 temperature during run
   SMASS  =  -3.00    Nose mass-parameter (am)
   estimated Nose-frequenzy (Omega)   =  0.10E-29 period in steps =****** mass=  -0.232E-26a.u.
   SCALEE = 1.0000    scale energy and forces
   NPACO  =    256;   APACO  = 16.0  distance and # of slots for P.C.
   PSTRESS=    0.0 pullay stress

  Mass of Ions in am
   POMASS =  58.69 32.07
  Ionic Valenz
   ZVAL   =  16.00  6.00
  Atomic Wigner-Seitz radii
  virtual crystal weights
   VCA    =   1.00  1.00
   NELECT =     792.0000    total number of electrons
[...]
  Fock        0.00000     0.00000     0.00000     0.00000     0.00000     0.00000
  Total      91.96244    82.42671   105.97220     0.91387     0.13594     0.83949
  in kB      75.61663    67.77582    87.13624     0.75144     0.11177     0.69027

 VOLUME and BASIS-vectors are now :
  energy-cutoff  :      450.00
  volume of cell :     1948.51
      direct lattice vectors                 reciprocal lattice vectors
    10.079732985  0.000000000  0.000000000     0.099208977 -0.037612667  0.000000000
     3.573298043  9.425102554  0.000000000     0.000000000  0.106099641  0.000000000
     0.000000000  0.000000000 20.510139882     0.000000000  0.000000000  0.048756372

  length of vectors
    10.079732985 10.079732985 20.510139882     0.106099641  0.106099641  0.048756372

 FORCES acting on ions
    electron-ion (+dipol)            ewald-force                    non-local-force                 convergence-correction
   0.309E+03 -.341E+03 0.374E+04   -.311E+03 0.344E+03 -.374E+04   0.140E+01 -.249E+01 0.261E+01   -.120E+00 -.177E+00 -.194E+00
   0.448E+03 -.226E+03 0.375E+03   -.449E+03 0.227E+03 -.374E+03   0.558E+00 -.109E+01 -.614E+00   -.300E-01 0.128E+00 -.234E+00
   0.437E+03 0.428E+01 -.217E+04   -.438E+03 -.351E+01 0.216E+04   0.106E+01 -.123E+01 0.205E+01   0.337E-02 0.344E-01 0.199E+00
   0.179E+03 0.528E+03 -.522E+04   -.183E+03 -.531E+03 0.522E+04   0.362E+01 0.402E+01 -.553E+01   0.141E+00 -.257E-01 0.251E+00
   0.493E+03 -.823E+03 0.560E+04   -.493E+03 0.827E+03 -.561E+04   -.127E+01 -.243E+01 0.591E+01   0.144E+00 -.156E+00 0.931E-01
   0.595E+03 -.369E+03 0.242E+04   -.600E+03 0.370E+03 -.241E+04   0.410E+01 -.116E+01 -.183E+01   0.205E+00 -.216E+00 -.438E-02
   -.196E+03 0.650E+02 -.395E+04   0.194E+03 -.630E+02 0.395E+04   0.158E+01 -.230E+01 0.605E+00   0.345E-01 0.426E-01 0.576E-01
   0.332E+03 -.209E+03 -.572E+03   -.333E+03 0.210E+03 0.571E+03   0.145E+01 -.908E+00 0.133E+01   0.131E+00 -.366E-01 -.190E+00
   -.428E+03 0.305E+03 0.201E+04   0.431E+03 -.308E+03 -.201E+04   -.163E+01 0.220E+01 -.160E+01   -.416E-01 -.134E-01 -.187E+00
   0.493E+03 -.200E+03 -.148E+04   -.493E+03 0.201E+03 0.148E+04   0.107E+01 -.138E+01 0.202E+01   -.475E-01 -.499E-01 -.115E+00
   0.400E+03 -.101E+03 -.481E+04   -.398E+03 0.102E+03 0.481E+04   -.147E+01 -.258E+00 -.198E+01   -.526E-01 -.498E-01 0.986E-01
   -.347E+03 0.236E+03 0.404E+04   0.350E+03 -.235E+03 -.405E+04   -.313E+01 -.164E+01 0.584E+01   0.267E-03 0.105E+00 -.188E+00
   0.342E+02 0.927E+03 -.395E+04   -.368E+02 -.933E+03 0.395E+04   0.170E+01 0.422E+01 0.833E+00   -.300E-01 -.262E-01 0.114E+00
   -.108E+02 0.753E+03 0.538E+04   0.100E+02 -.752E+03 -.539E+04   0.137E+01 -.124E+01 0.135E+01   0.114E-01 0.318E-01 -.151E+00
   0.180E+02 0.653E+03 0.275E+04   -.183E+02 -.654E+03 -.275E+04   0.405E-01 0.107E+01 0.745E-01   0.487E-01 0.150E+00 -.276E+00
   -.132E+03 0.599E+03 -.498E+03   0.132E+03 -.601E+03 0.498E+03   -.282E-01 0.160E+01 -.154E+00   0.112E+00 -.203E+00 -.126E+00
   -.475E+02 0.576E+03 0.131E+04   0.463E+02 -.578E+03 -.131E+04   0.139E+01 0.172E+01 -.284E+00   0.270E-01 0.145E+00 -.281E+00
   0.564E+02 0.178E+03 -.192E+04   -.582E+02 -.179E+03 0.191E+04   0.177E+01 0.117E+01 0.148E+01   -.431E-01 0.126E+00 -.493E-01
   0.433E+03 -.311E+02 -.474E+04   -.434E+03 0.295E+02 0.474E+04   -.281E+00 0.717E+00 -.148E+01   -.295E-01 0.441E-01 0.165E+00
   0.110E+03 0.452E+03 0.445E+04   -.112E+03 -.456E+03 -.445E+04   0.243E+01 0.383E+01 0.375E+01   0.216E+00 -.210E+00 0.119E+00
   0.264E+03 -.914E+03 0.360E+04   -.266E+03 0.919E+03 -.360E+04   0.170E+01 -.395E+01 0.481E+01   -.668E-01 -.254E-01 -.490E-01
   0.682E+01 0.270E+03 0.308E+03   -.573E+01 -.270E+03 -.305E+03   -.533E+00 0.160E-01 -.127E+01   -.350E-01 -.158E-01 -.130E+00
   0.547E+02 0.121E+03 -.253E+04   -.550E+02 -.123E+03 0.253E+04   0.409E-01 0.393E+01 0.244E+01   0.672E-01 -.135E+00 0.926E-01
   -.783E+03 -.146E+03 -.525E+04   0.784E+03 0.147E+03 0.526E+04   -.120E+01 -.822E+00 0.273E+00   0.601E-01 -.509E-01 0.219E+00
   -.692E+03 -.304E+03 -.460E+04   0.697E+03 0.310E+03 0.460E+04   -.308E+01 -.373E+01 -.282E+01   -.101E+00 -.202E-02 0.174E+00
   -.348E+03 -.310E+03 0.454E+04   0.351E+03 0.310E+03 -.455E+04   -.216E+01 -.109E+01 0.457E+01   0.820E-03 -.212E+00 -.120E+00
   -.410E+03 -.283E+03 0.130E+04   0.411E+03 0.284E+03 -.130E+04   -.765E+00 -.959E+00 -.290E+01   0.276E-01 0.492E-01 -.262E+00
   -.636E+03 -.217E+03 -.153E+04   0.636E+03 0.218E+03 0.153E+04   -.162E+00 -.127E+01 0.985E+00   0.165E+00 0.694E-01 0.715E-02
   -.923E+03 -.555E+03 0.356E+04   0.928E+03 0.558E+03 -.356E+04   -.374E+01 -.258E+01 0.104E+01   0.957E-01 -.232E+00 0.778E-01
   -.431E+03 -.409E+03 0.459E+03   0.431E+03 0.411E+03 -.459E+03   -.263E+00 -.172E+01 0.209E+00   -.591E-01 -.502E-01 -.186E+00
   -.191E+03 -.104E+03 -.295E+04   0.192E+03 0.105E+03 0.295E+04   -.290E+00 -.140E+01 0.357E+00   -.960E-01 0.669E-01 -.569E-01
   0.643E+03 -.554E+03 -.481E+04   -.646E+03 0.558E+03 0.482E+04   0.364E+01 -.258E+01 -.326E+01   0.157E+00 0.451E-01 0.287E+00
   -.318E+02 0.774E+03 0.460E+04   0.332E+02 -.779E+03 -.460E+04   -.270E+00 0.433E+01 0.649E+01   -.864E-01 0.107E+00 -.921E-01
   0.492E+03 0.199E+02 0.235E+04   -.496E+03 -.216E+02 -.235E+04   0.390E+01 0.145E+01 0.139E+01   -.239E-01 0.369E-01 -.137E+00
   -.243E+03 -.973E+02 -.600E+03   0.244E+03 0.958E+02 0.601E+03   -.278E-01 0.342E+00 -.594E-01   -.536E-01 -.111E+00 -.953E-01
   -.416E+03 -.139E+03 -.379E+04   0.418E+03 0.142E+03 0.379E+04   -.139E+01 -.252E+01 -.195E+01   0.825E-01 -.443E-01 0.582E-01
   -.142E+03 0.882E+02 -.632E+03   0.142E+03 -.873E+02 0.628E+03   -.144E+01 -.723E+00 0.133E+01   0.408E-02 -.488E-01 0.641E-01
   -.749E+02 0.174E+03 -.185E+04   0.760E+02 -.175E+03 0.185E+04   -.546E+00 0.657E+00 -.115E+01   -.101E+00 0.212E-01 0.347E-01
   -.189E+03 0.143E+03 0.187E+04   0.191E+03 -.143E+03 -.187E+04   -.212E+01 0.647E+00 0.303E+01   -.531E-01 0.234E-01 -.762E-01
   -.141E+03 0.132E+03 0.351E+03   0.140E+03 -.133E+03 -.348E+03   0.471E-01 0.126E+01 -.121E+01   0.235E-01 0.143E-01 -.116E+00
   -.195E+03 -.163E+03 0.116E+04   0.197E+03 0.165E+03 -.116E+04   -.132E+01 -.102E+01 0.270E+00   -.103E+00 -.175E-01 -.699E-01
   -.840E+02 0.707E+02 0.567E+02   0.854E+02 -.723E+02 -.580E+02   -.151E+01 0.746E+00 -.261E+00   -.294E-01 0.603E-01 -.543E-01
   0.185E+03 -.191E+03 -.114E+04   -.185E+03 0.193E+03 0.114E+04   -.293E+00 -.362E+00 0.139E+01   -.395E-01 0.509E-01 0.487E-01
   0.266E+03 0.513E+02 -.219E+04   -.267E+03 -.532E+02 0.219E+04   -.355E+00 0.107E+01 -.223E+01   0.705E-01 -.812E-02 0.676E-01
   -.437E+03 -.731E+02 0.222E+04   0.441E+03 0.732E+02 -.222E+04   -.159E+01 0.560E-01 0.860E+00   0.539E-01 -.960E-01 0.854E-01
   0.313E+02 -.124E+03 0.110E+04   -.308E+02 0.125E+03 -.110E+04   0.159E-01 -.708E+00 0.264E+01   -.701E-02 -.588E-01 -.175E-01
   -.126E+03 0.546E+02 -.272E+03   0.127E+03 -.560E+02 0.269E+03   -.217E+01 0.873E+00 0.379E+00   0.941E-02 -.227E-01 -.832E-01
   -.305E+03 -.124E+03 -.170E+04   0.309E+03 0.124E+03 0.170E+04   -.165E+01 -.905E+00 -.152E+01   0.204E-01 -.969E-01 0.864E-01
   0.831E+02 -.420E+03 0.217E+04   -.835E+02 0.424E+03 -.218E+04   -.141E+00 -.126E+01 0.255E+01   -.728E-02 -.354E-01 -.446E-01
   0.503E+02 -.898E+02 0.579E+03   -.506E+02 0.893E+02 -.576E+03   -.349E+00 0.387E+00 -.617E+00   0.457E-02 -.130E-01 -.451E-01
   0.102E+02 -.188E+03 -.420E+03   -.105E+02 0.190E+03 0.421E+03   0.257E+00 -.236E+01 -.131E+01   0.366E-02 0.764E-01 -.560E-01
   -.301E+03 -.821E+02 -.161E+04   0.304E+03 0.851E+02 0.161E+04   -.127E+01 -.197E+01 -.784E+00   0.216E-01 0.181E-01 0.165E+00
   0.951E+02 -.317E+03 0.150E+04   -.970E+02 0.320E+03 -.150E+04   0.116E+01 -.151E+01 0.645E+00   0.706E-01 0.540E-02 0.268E-01
   -.286E+02 -.170E+03 0.299E+03   0.286E+02 0.172E+03 -.298E+03   0.381E-01 -.234E+01 0.515E+00   0.442E-01 -.936E-01 -.110E+00
   -.397E+02 -.178E+03 -.102E+04   0.405E+02 0.180E+03 0.102E+04   -.761E+00 -.279E+00 -.132E+01   0.188E-01 0.358E-02 -.494E-02
   -.180E+03 0.300E+03 0.127E+04   0.183E+03 -.302E+03 -.127E+04   -.153E+01 0.173E+01 0.175E+01   0.180E-01 0.105E+00 -.109E+00
   0.155E+03 -.139E+03 0.231E+02   -.156E+03 0.142E+03 -.225E+02   0.379E+00 -.204E+01 -.443E+00   -.307E-01 -.313E-02 -.182E-01
   0.611E+02 -.159E+03 -.133E+04   -.603E+02 0.161E+03 0.133E+04   -.581E+00 -.176E+01 -.119E+01   -.215E-01 0.323E-01 -.537E-02
   0.171E+03 0.352E+03 0.214E+04   -.173E+03 -.354E+03 -.215E+04   0.864E+00 0.367E+00 0.124E+01   0.708E-01 0.389E-01 0.609E-01
   0.124E+03 0.186E+03 0.223E+04   -.125E+03 -.185E+03 -.224E+04   -.208E+00 -.833E+00 0.166E+01   -.750E-02 -.300E-01 0.730E-02
   0.323E+03 0.207E+03 0.131E+04   -.328E+03 -.209E+03 -.131E+04   0.431E+01 0.194E+01 0.537E+00   0.413E-01 0.880E-01 -.158E+00
   0.555E+02 0.967E+02 -.542E+02   -.550E+02 -.986E+02 0.563E+02   -.177E+00 0.188E+01 -.150E+01   -.251E-01 -.141E-01 -.800E-01
   0.794E+02 0.257E+03 -.117E+04   -.820E+02 -.259E+03 0.117E+04   0.238E+01 0.120E+01 -.466E+00   0.891E-01 -.268E-01 0.128E+00
   -.899E+02 0.243E+03 -.226E+04   0.902E+02 -.244E+03 0.226E+04   -.364E+00 0.644E+00 -.212E+01   -.411E-01 0.208E-01 -.580E-02
   0.698E+02 0.150E+03 -.408E+03   -.715E+02 -.151E+03 0.408E+03   0.100E+01 0.311E+00 -.163E+01   0.335E-01 0.550E-01 -.404E-01
   0.769E+02 -.124E+03 -.161E+04   -.777E+02 0.126E+03 0.161E+04   -.147E-01 -.132E+01 -.162E+00   -.389E-01 0.130E-01 0.570E-01
   0.365E+03 -.519E+02 0.193E+04   -.368E+03 0.530E+02 -.194E+04   0.109E+01 -.106E+01 0.100E+01   0.342E-01 -.119E+00 0.309E-01
   0.116E+03 0.484E+02 0.722E+03   -.118E+03 -.497E+02 -.723E+03   0.193E+01 0.137E+01 0.164E+01   0.694E-01 0.823E-02 -.982E-01
   -.198E+03 0.108E+03 0.170E+04   0.201E+03 -.109E+03 -.171E+04   -.304E+01 -.170E+00 0.191E+01   -.283E-01 -.407E-01 -.388E-01
   0.164E+03 -.994E+02 0.482E+03   -.167E+03 0.991E+02 -.482E+03   0.230E+01 0.612E+00 0.636E+00   -.346E-01 -.452E-01 -.468E-01
   0.213E+03 0.107E+03 -.818E+03   -.216E+03 -.110E+03 0.817E+03   0.219E+01 0.175E+01 -.107E+01   -.506E-01 -.223E-01 -.516E-01
   0.295E+03 -.191E+03 -.209E+04   -.296E+03 0.191E+03 0.209E+04   0.142E+00 0.162E+00 -.181E+01   0.606E-01 -.795E-01 0.819E-01
   -.877E+01 0.123E+02 -.263E+02   -.568E-13 -.853E-12 0.637E-11   0.784E+01 -.111E+02 0.278E+02   0.958E+00 -.110E+01 -.150E+01

 POSITION                                       TOTAL-FORCE (eV/Angst)
      6.45801      7.08167      1.95077        -0.198217      0.707395      2.079775
      7.43572      5.66537      4.57627        -0.141437     -0.039145      0.048914
      8.41343      4.24907      7.20177        -0.031259     -0.429693     -0.926141
      8.87764      3.21104      9.51573        -0.620532      0.508457      0.782853
      8.30852      0.82413      0.45605        -0.942955      1.323034     -1.412443
      7.76163      0.32617      2.82594        -0.509700     -0.429500      2.411127
      2.82399      7.22515      7.74978         0.275804     -0.283325      1.402594
     12.31264      8.33497      5.45144         0.113079      0.175977     -0.169631
      2.55881      2.99577      3.70110         1.466024     -0.827001      1.846894
      3.53652      1.57947      6.32660         0.322190     -0.258144     -0.199516
      4.40247      0.26398      8.68428         0.376337      0.202530      1.056317
     11.36917      4.43820      2.42988         0.019464     -0.396797     -0.820216
      0.51382      1.09100      8.43993        -0.914854     -1.364477     -2.157975
      7.77212      5.33017      0.99662         0.638142     -0.848318     -0.896088
      8.63813      3.92359      3.18892        -0.245079      0.188141      0.524362
      9.61584      2.50729      5.81443         0.006341     -0.356164     -0.229892
      3.43531      6.59319      4.06409         0.216349     -0.277918      0.208980
      4.41302      5.17689      6.68959        -0.078289      0.613610     -0.852120
      5.42237      3.79839      8.97099        -0.994577     -0.797586      1.130287
     12.53733      8.00949      1.43859        -0.019600     -0.290864      1.444226
      4.05155      0.02758      2.72721         0.031480      0.765279      0.183623
      8.31222      9.26279      4.93926         0.524917      0.023286      1.085015
      9.28993      7.84650      7.56476        -0.114323      0.885235     -2.138823
     10.26241      6.65242      9.43034         0.301511     -0.365047      0.729178
      1.72026      3.21033      8.90444         1.831043      1.540066      0.753017
      9.11812      7.38743      1.68433         0.494541     -0.792053     -0.589016
      9.84053      6.03956      3.88260         0.024015      0.138836     -0.023615
     10.81824      4.62327      6.50810         0.184421      0.001451     -0.157634
     10.16643      0.70036      2.13226         0.953910      0.252482      1.993232
      4.63771      8.70917      4.75776         0.057918     -0.065127      0.228683
      5.54812      7.47455      7.06144         0.903751     -0.275660      1.286995
      8.05892      5.59874      9.18158         0.404828      1.188214      0.356276
      4.23547      6.22983      1.42405         1.065369     -0.145627     -0.013618
      5.91191      3.40122      3.87156        -0.356143     -0.192982     -0.577531
      5.94133      1.95367      5.63293         0.135942     -1.263591      1.088763
      6.88701      0.70107      7.96711         0.342301      0.475548      0.870524
      1.57981      2.47018      7.00134        -0.816335      0.095303     -2.875658
      2.55807      1.20577      9.02441         0.456525     -0.932386      2.212004
      9.70412      5.30277      1.75033        -0.513916      0.778943     -1.695923
     10.68183      3.88647      4.37584        -0.595250      0.076042      1.682263
      4.50130      7.97237      2.62550         0.529176      0.978566      0.949677
      5.47901      6.55607      5.25100        -0.176443     -0.860263     -1.529550
      6.45673      5.13978      7.87651         0.155817      2.064444     -1.574034
      7.10946      4.03934     10.17419        -1.541961     -0.813546      2.442322
      3.56352      9.30890      0.24390         1.885587      0.070804     -3.468402
      5.80492      1.21687      3.50067         0.420979     -0.297286     -0.691535
     10.35593      9.22568      6.12617        -0.407287     -0.526253     -2.366640
     11.21820      8.21708      8.53515         1.561346     -0.246429      1.664692
      7.54516      8.50731      0.92743        -0.538715      2.307278     -3.421668
      8.17302      7.52069      3.51693        -0.645201     -0.087359      2.573407
      9.15074      6.10439      6.14243        -0.041243     -0.052672     -0.539569
     10.12845      4.68809      8.76794         1.650025      1.103105     -0.385898
      8.55706      2.11960      2.03909        -0.700888      1.859400     -0.970631
      9.47664      0.76519      4.39210         0.024165     -0.435688      0.619175
      3.94792      8.77399      7.01760         0.017312      1.425999      0.091036
      3.29611      4.85108      2.64176         1.253809     -0.394687      1.140608
      4.27382      3.43479      5.26727        -0.774328      0.252706      0.136611
      5.25153      2.01849      7.89277         0.281164      0.490107     -0.377907
      2.52968      6.30596      0.35542        -1.434289     -1.686193     -2.092465
      5.96251      6.02225      0.27110        -0.481716     -0.540774     -3.521170
      6.64193      4.82628      2.63363        -0.508877      0.153402      0.567104
      7.61964      3.40999      5.25914         0.313288     -0.049147      0.535854
      8.59735      1.99369      7.88464        -0.151786     -1.182667     -1.145016
     10.51578      2.17899     10.17031        -0.100541     -0.616048      3.913118
      2.41682      6.07959      6.13430        -0.613625     -1.077831     -1.572575
      3.50112      4.37705      8.39751        -0.893937      1.015649      1.825084
     10.59469      8.78621      1.09117        -1.550658     -0.121550     -1.822386
     11.51884      7.49589      3.50880         0.306730      0.165485      0.889602
      1.43610      2.35141      2.12895         0.429300     -1.367511     -2.455354
      2.74272      0.74039      4.38397        -0.386417      0.241505      0.150597
      7.29374      8.74919      7.00947        -0.790849     -1.177298     -2.036986
      8.45232      7.67551      9.45928        -1.143674      0.096327      2.802839
    total drift:                                0.025926      0.116603      0.016116

  FREE ENERGIE OF THE ION-ELECTRON SYSTEM (eV)
  free  energy   TOTEN  =      -351.02716097 eV

  energy  without entropy=     -350.07876784  energy(sigma->0) =     -350.55296441