 vasp.5.4.4.18Apr17-6-g9f103f2a35 (build Aug 13 2019 17:33:20) gamma-only

 executed on             LinuxIFC date 2020.05.10  18:12:52

 INCAR:
 POTCAR:    PAW_PBE Ni_pv 06Sep2000
 POTCAR:    PAW_PBE S 06Sep2000
 POTCAR:    PAW_PBE Ni_pv 06Sep2000
   VRHFIN =Ni:

   TITEL  = PAW_PBE Ni_pv 06Sep2000
   POMASS =   58.690; ZVAL   =   16.000    mass and valenz
   ENMAX  =  367.986; ENMIN  =  275.989 eV

 POTCAR:    PAW_PBE S 06Sep2000
   VRHFIN =S : s2p4

   TITEL  = PAW_PBE S 06Sep2000
   POMASS =   32.066; ZVAL   =    6.000    mass and valenz
   ENMAX  =  258.689; ENMIN  =  194.016 eV

 Optimization of the real space projectors (new method)

 maximal supplied QI-value         = 18.90
 optimisation between [QCUT,QGAM] = [ 10.77, 21.73] = [ 32.49,132.25] Ry
 Optimized for a Real-space Cutoff    1.38 Angstroem

   l    n(q)    QCUT    max X(q) W(low)/X(q) W(high)/X(q)  e(spline)
   1      8    10.771     2.836    0.40E-04    0.29E-04    0.12E-06
   1      8    10.771     4.023    0.10E-03    0.48E-04    0.29E-06
   2      8    10.771    73.368    0.42E-03    0.97E-04    0.44E-06
   2      8    10.771    69.010    0.42E-03    0.99E-04    0.45E-06
   0      9    10.771    54.797    0.10E-03    0.56E-04    0.74E-07
   0      9    10.771    24.266    0.89E-04    0.49E-04    0.67E-07
 Optimization of the real space projectors (new method)

 maximal supplied QI-value         = 19.84
 optimisation between [QCUT,QGAM] = [ 10.71, 21.63] = [ 32.15,130.99] Ry
 Optimized for a Real-space Cutoff    1.19 Angstroem

   l    n(q)    QCUT    max X(q) W(low)/X(q) W(high)/X(q)  e(spline)
   0      8    10.715   187.594    0.41E-03    0.53E-04    0.66E-07
   0      8    10.715   164.243    0.41E-03    0.53E-04    0.65E-07
   1      7    10.715    67.533    0.19E-03    0.59E-03    0.68E-07
   1      7    10.715    50.729    0.19E-03    0.58E-03    0.67E-07
  PAW_PBE Ni_pv 06Sep2000               :
  PAW_PBE S 06Sep2000                   :

 POSCAR: Type_048 Type_148
  positions in cartesian coordinates
 exchange correlation table for  LEXCH =        8
   RHO(1)=    0.500       N(1)  =     2000
   RHO(2)=  100.500       N(2)  =     4000

 ion  position               nearest neighbor table
   1  0.261  0.479  0.253-  72 2.25  58 2.26  80 2.26  54 2.36  59 2.36   7 2.53  21 2.53
   2  0.355  0.385  0.388-  73 2.25  54 2.26  59 2.26   3 2.35  60 2.36  65 2.36   8 2.53  22 2.53

   3  0.366  0.373  0.496-  52 2.04  65 2.12  60 2.12   2 2.35
   4  0.167  0.073  0.118-  55 2.06  81 2.07  63 2.25  56 2.36  82 2.36  36 2.53  30 2.53
   5  0.050  0.055  0.473-  50 2.05  76 2.07  71 2.10  77 2.15
   6  0.280  0.313  0.102-  58 2.05  55 2.08  57 2.11  51 2.17
   7  0.368  0.239  0.218-  56 2.25  58 2.26  51 2.26  59 2.36  61 2.36   1 2.53  21 2.53
   8  0.462  0.145  0.353-  78 2.25  59 2.26  61 2.26  60 2.36  62 2.36   2 2.53  22 2.53
   9  0.000  0.372  0.218-  58 2.25  63 2.26  92 2.26  49 2.36  66 2.36  13 2.53  19 2.53
  10  0.094  0.278  0.353-  59 2.25  49 2.26  66 2.26  53 2.36  50 2.36  20 2.53  14 2.53
  11  0.186  0.190  0.472-  50 2.05  76 2.07  53 2.10  60 2.14
  12  0.404  0.456  0.103-  80 2.02  51 2.09  79 2.10  28 2.41
  13  0.761  0.479  0.253-  85 2.25  69 2.26  92 2.26  66 2.36  70 2.36  19 2.53   9 2.53
  14  0.855  0.385  0.388-  86 2.25  66 2.26  70 2.26  71 2.36  53 2.36  15 2.37  20 2.53  10 2.53

[...]

  27  0.372  0.868  0.497-  76 2.04  89 2.09  84 2.10  26 2.37
  28  0.167  0.573  0.118-  57 2.06  79 2.07  88 2.25  80 2.36  58 2.36  12 2.41
  29  0.051  0.550  0.473-  73 2.05  52 2.08  53 2.11  96 2.13  39 2.46
  30  0.274  0.833  0.083-  74 1.99  81 2.08  79 2.15  75 2.36  82 2.36  36 2.53   4 2.53
  31  0.368  0.739  0.218-  80 2.25  82 2.26  75 2.26  83 2.36  85 2.36  25 2.53  45 2.53
  32  0.462  0.645  0.353-  54 2.25  83 2.26  85 2.26  84 2.36  86 2.36  26 2.53  46 2.53
  33  0.000  0.872  0.218-  82 2.25  88 2.26  68 2.26  72 2.36  90 2.36  37 2.53  43 2.53
  34  0.094  0.778  0.353-  83 2.25  72 2.26  90 2.26  77 2.36  73 2.36  44 2.53  38 2.53
  35  0.189  0.689  0.473-  73 2.05  52 2.08  84 2.11  77 2.13  39 2.46
  36  0.406  0.965  0.083-  74 1.99  55 2.07  93 2.10  75 2.36  56 2.36   4 2.53  30 2.53
  37  0.761  0.979  0.253-  61 2.25  94 2.26  68 2.26  90 2.36  95 2.36  43 2.53  33 2.53
  38  0.855  0.885  0.388-  62 2.25  90 2.26  95 2.26  96 2.36  77 2.36  44 2.53  34 2.53
  39  0.955  0.784  0.505-  96 2.00  77 2.00  29 2.46  35 2.46
  40  0.666  0.589  0.144-  92 2.03  91 2.14  75 2.14  69 2.26
  41  0.549  0.554  0.472-  86 2.05  64 2.07  84 2.10  65 2.14
  42  0.774  0.833  0.083-  87 1.99  93 2.07  91 2.17  88 2.36  94 2.36  48 2.53  16 2.53
  43  0.868  0.739  0.218-  92 2.25  94 2.26  88 2.26  95 2.36  72 2.36  37 2.53  33 2.53
  44  0.962  0.645  0.353-  66 2.25  95 2.26  72 2.26  96 2.36  73 2.36  38 2.53  34 2.53
  45  0.500  0.872  0.218-  94 2.25  75 2.26  56 2.26  85 2.36  78 2.36  25 2.53  31 2.53
  46  0.594  0.778  0.353-  95 2.25  85 2.26  78 2.26  89 2.36  86 2.36  32 2.53  26 2.53
  47  0.685  0.690  0.473-  86 2.05  64 2.07  89 2.10  96 2.15
  48  0.906  0.965  0.083-  87 2.01  67 2.06  81 2.10  88 2.36  68 2.36  16 2.53  42 2.53
  49  0.073  0.167  0.270-  25 2.25  10 2.26  20 2.26   9 2.36  19 2.36
  50  0.167  0.073  0.405-   5 2.05  11 2.05  26 2.25  10 2.36  20 2.36  76 2.71
  51  0.479  0.261  0.135-  12 2.09   6 2.17  16 2.25   7 2.26  21 2.26
  52  0.205  0.535  0.530-   3 2.04  29 2.08  35 2.08  73 2.75
  53  0.030  0.378  0.451-  15 2.10  11 2.10  29 2.11  10 2.36  14 2.36
  54  0.436  0.472  0.315-  32 2.25   2 2.26  22 2.26   1 2.36  21 2.36
  55  0.260  0.155  0.063-   4 2.06  36 2.07   6 2.08  56 2.75
  56  0.342  0.066  0.180-   7 2.25  25 2.26  45 2.26   4 2.36  36 2.36  55 2.75
  57  0.101  0.462  0.066-  28 2.06  24 2.09   6 2.11  58 2.62
  58  0.174  0.397  0.180-   6 2.05   9 2.25   7 2.26   1 2.26  28 2.36  57 2.62
  59  0.268  0.303  0.315-  10 2.25   2 2.26   8 2.26   7 2.36   1 2.36
  60  0.362  0.209  0.451-  17 2.02   3 2.12  11 2.14   8 2.36   2 2.36
  61  0.573  0.167  0.270-  37 2.25  22 2.26   8 2.26  21 2.36   7 2.36
  62  0.667  0.073  0.405-  17 2.02  23 2.02  38 2.25  22 2.36   8 2.36
  63  0.979  0.261  0.135-  24 2.18  18 2.24   4 2.25  19 2.26   9 2.26
  64  0.709  0.531  0.527-  15 2.04  47 2.07  41 2.07  86 2.71
  65  0.530  0.378  0.451-  23 2.02   3 2.12  41 2.14  22 2.36   2 2.36
  66  0.936  0.472  0.315-  44 2.25  14 2.26  10 2.26  13 2.36   9 2.36
  67  0.750  0.136  0.050-  18 2.02  16 2.05  48 2.06
  68  0.842  0.066  0.180-  18 2.13  19 2.25  37 2.26  33 2.26  16 2.36  48 2.36
  69  0.674  0.397  0.180-  21 2.25  19 2.26  13 2.26  40 2.26  18 2.27
  70  0.768  0.303  0.315-  22 2.25  14 2.26  20 2.26  19 2.36  13 2.36
  71  0.862  0.209  0.451-  23 2.07  15 2.09   5 2.10  20 2.36  14 2.36
  72  0.073  0.667  0.270-   1 2.25  34 2.26  44 2.26  33 2.36  43 2.36
  73  0.167  0.573  0.405-  35 2.05  29 2.05   2 2.25  34 2.36  44 2.36  52 2.75
  74  0.355  0.885  0.012-  30 1.99  36 1.99
  75  0.479  0.761  0.135-  40 2.14  31 2.26  45 2.26  30 2.36  36 2.36
  76  0.209  0.031  0.527-  27 2.04   5 2.07  11 2.07  50 2.71
  77  0.030  0.878  0.451-  39 2.00  35 2.13   5 2.15  34 2.36  38 2.36
  78  0.436  0.972  0.315-   8 2.25  26 2.26  46 2.26  25 2.36  45 2.36
  79  0.277  0.644  0.067-  28 2.07  12 2.10  30 2.15  80 2.60
  80  0.342  0.566  0.180-  12 2.02  31 2.25   1 2.26  21 2.26  28 2.36  79 2.60
  81  0.083  0.979  0.064-   4 2.07  30 2.08  48 2.10  82 2.73
  82  0.174  0.897  0.180-  33 2.25  31 2.26  25 2.26  30 2.36   4 2.36  81 2.73
  83  0.268  0.803  0.315-  34 2.25  26 2.26  32 2.26  31 2.36  25 2.36
  84  0.362  0.709  0.451-  27 2.10  41 2.10  35 2.11  32 2.36  26 2.36
  85  0.573  0.667  0.270-  13 2.25  46 2.26  32 2.26  45 2.36  31 2.36
  86  0.667  0.573  0.405-  47 2.05  41 2.05  14 2.25  46 2.36  32 2.36  64 2.71
  87  0.871  0.867  0.014-  42 1.99  48 2.01
  88  0.979  0.761  0.135-  28 2.25  43 2.26  33 2.26  42 2.36  48 2.36
  89  0.530  0.878  0.451-  17 2.07  27 2.09  47 2.10  46 2.36  26 2.36
  90  0.936  0.972  0.315-  20 2.25  38 2.26  34 2.26  37 2.36  33 2.36
  91  0.769  0.644  0.075-  40 2.14  24 2.14  42 2.17  92 2.45
  92  0.842  0.566  0.180-  24 2.03  40 2.03  43 2.25  13 2.26   9 2.26  91 2.45
  93  0.584  0.977  0.064-  42 2.07  16 2.09  36 2.10  94 2.73
  94  0.674  0.897  0.180-  45 2.25  43 2.26  37 2.26  42 2.36  16 2.36  93 2.73
  95  0.768  0.803  0.315-  46 2.25  38 2.26  44 2.26  43 2.36  37 2.36
  96  0.862  0.709  0.451-  39 2.00  29 2.13  47 2.15  44 2.36  38 2.36

  LATTYP: Found a base centered orthorhombic cell.
 ALAT       =    11.8257374459
 B/A-ratio  =     1.6199260857
 C/A-ratio  =     1.8387210052

  Lattice vectors:

 A1 = (  11.2564630382,   0.0000000000,   0.0000000000)
 A2 = (  -5.0445621212, -10.0628203371,   0.0000000000)
 A3 = (   0.0000000000,   0.0000000000, -21.7442318436)

Analysis of symmetry for initial positions (statically):
 Subroutine PRICEL returns:
 Original cell was already a primitive cell.

 Routine SETGRP: Setting up the symmetry group for a
 base centered orthorhombic supercell.

 Subroutine GETGRP returns: Found  1 space group operations
 (whereof  1 operations were pure point group operations)
 out of a pool of  8 trial point group operations.

The static configuration has the point symmetry C_1 .

Analysis of symmetry for dynamics (positions and initial velocities):
 Subroutine PRICEL returns:
 Original cell was already a primitive cell.

 Routine SETGRP: Setting up the symmetry group for a
 base centered orthorhombic supercell.

 Subroutine GETGRP returns: Found  1 space group operations
 (whereof  1 operations were pure point group operations)
 out of a pool of  8 trial point group operations.

The dynamic configuration has the point symmetry C_1 .

 Subroutine INISYM returns: Found  1 space group operations
 (whereof  1 operations are pure point group operations),
 and found     1 'primitive' translations

 KPOINTS: gamma-point-only calculation. no periodi

Automatic generation of k-mesh.
Space group operators:
 irot       det(A)        alpha          n_x          n_y          n_z        tau_x        tau_y        tau_z
    1     1.000000     0.000000     1.000000     0.000000     0.000000     0.000000     0.000000     0.000000

 Subroutine IBZKPT returns following result:

 Found      1 irreducible k-points:

 Following reciprocal coordinates:
            Coordinates               Weight
  0.000000  0.000000  0.000000      1.000000

 Following cartesian coordinates:
            Coordinates               Weight
  0.000000  0.000000  0.000000      1.000000

 SYSTEM =  "Millerite NiS"
 POSCAR =  Type_048 Type_148

 Startparameter for this run:
   NWRITE =      2    write-flag & timer
   PREC   = normal    normal or accurate (medium, high low for compatibility)
   ISTART =      0    job   : 0-new  1-cont  2-samecut
   ICHARG =      2    charge: 1-file 2-atom 10-const
   ISPIN  =      1    spin polarized calculation?
   LNONCOLLINEAR =      F non collinear calculations
   LSORBIT =      F    spin-orbit coupling
   INIWAV =      1    electr: 0-lowe 1-rand  2-diag
   LASPH  =      F    aspherical Exc in radial PAW
[...]
     0.000000000  0.000000000 21.744231844     0.000000000  0.000000000  0.045989208

  length of vectors
    11.256463038 11.256463038 21.744231844     0.099375718  0.099375718  0.045989208

 FORCES acting on ions
    electron-ion (+dipol)            ewald-force                    non-local-force                 convergence-correction
   0.230E+03 -.433E+03 0.638E+03   -.230E+03 0.434E+03 -.638E+03   0.277E+00 -.889E+00 -.380E+00   0.395E-02 -.249E-01 0.312E-01
   0.193E+03 -.318E+03 -.234E+04   -.193E+03 0.320E+03 0.234E+04   0.406E+00 -.913E+00 -.644E-01   -.713E-02 -.179E-01 0.185E+00
   -.118E+03 0.189E+03 -.557E+04   0.116E+03 -.186E+03 0.558E+04   0.241E+01 -.376E+01 0.214E+00   0.143E-01 -.351E-01 0.150E+00
   0.284E+03 -.470E+03 0.399E+04   -.286E+03 0.475E+03 -.399E+04   0.230E+01 -.410E+01 0.218E+01   0.307E-01 0.168E-01 -.219E-01
   0.442E+03 0.213E+03 -.487E+04   -.446E+03 -.217E+03 0.487E+04   0.255E+01 0.343E+01 -.175E+01   -.125E-01 0.140E-01 0.150E+00
   0.759E+02 0.267E+03 0.495E+04   -.758E+02 -.271E+03 -.496E+04   0.642E+00 0.418E+01 0.453E+01   0.101E-01 -.671E-02 -.349E-01
   0.197E+03 0.499E+03 0.165E+04   -.197E+03 -.500E+03 -.165E+04   0.359E+00 0.102E+01 -.934E+00   -.213E-02 0.212E-01 0.896E-02
   0.211E+03 0.453E+03 -.139E+04   -.213E+03 -.454E+03 0.139E+04   0.106E+01 0.399E+00 0.175E+01   -.715E-02 -.133E-01 0.177E+00
   -.477E+03 0.160E+02 0.171E+04   0.478E+03 -.165E+02 -.171E+04   -.560E+00 0.430E+00 -.494E+00   0.306E-01 0.299E-01 0.141E-01
   -.491E+03 -.150E+02 -.137E+04   0.492E+03 0.157E+02 0.137E+04   -.745E+00 -.820E+00 0.195E+01   0.391E-01 0.169E-01 0.138E+00
   -.341E+03 -.140E+03 -.486E+04   0.346E+03 0.142E+03 0.486E+04   -.449E+01 -.153E+01 -.183E+01   0.529E-01 0.282E-01 0.152E+00
   -.815E+03 0.458E+01 0.512E+04   0.814E+03 -.525E+01 -.512E+04   0.197E+01 0.335E+00 0.123E+01   -.724E-01 -.891E-02 -.129E-01
   0.260E+03 -.346E+03 0.625E+03   -.261E+03 0.346E+03 -.623E+03   0.316E+00 -.371E+00 -.162E+01   0.442E-02 0.362E-01 0.422E-01
   0.247E+03 -.357E+03 -.236E+04   -.247E+03 0.358E+03 0.236E+04   0.474E+00 -.104E+01 0.688E-01   0.449E-03 0.120E-01 0.173E+00
   0.362E+02 0.803E+02 -.558E+04   -.387E+02 -.760E+02 0.558E+04   0.301E+01 -.504E+01 0.621E+00   -.175E-01 0.612E-02 0.170E+00
   0.447E+03 -.465E+03 0.397E+04   -.450E+03 0.468E+03 -.397E+04   0.291E+01 -.278E+01 0.251E+01   -.578E-01 -.447E-02 -.417E-01
   -.156E+03 0.311E+03 -.498E+04   0.155E+03 -.313E+03 0.498E+04   0.127E+01 0.121E+01 0.852E+00   0.154E-01 0.322E-01 0.138E+00
   -.115E+02 -.618E+03 0.470E+04   0.114E+02 0.622E+03 -.470E+04   0.679E+00 -.314E+01 0.455E+01   -.280E-01 -.959E-02 -.492E-01
   0.131E+03 0.331E+03 0.156E+04   -.129E+03 -.330E+03 -.156E+04   -.602E+00 -.178E+00 -.130E+01   0.181E-01 0.312E-01 0.592E-01
   0.287E+03 0.463E+03 -.142E+04   -.288E+03 -.463E+03 0.142E+04   0.113E+01 0.485E+00 0.220E+01   -.707E-02 0.127E-03 0.142E+00
   -.582E+03 -.478E+02 0.176E+04   0.584E+03 0.480E+02 -.176E+04   -.219E+01 -.226E+00 -.426E+00   -.573E-01 0.116E-01 0.300E-01
   -.494E+03 0.777E+01 -.139E+04   0.495E+03 -.688E+01 0.139E+04   -.850E+00 -.813E+00 0.182E+01   -.137E-01 -.907E-02 0.178E+00
   -.207E+03 0.278E+03 -.498E+04   0.209E+03 -.278E+03 0.498E+04   -.160E+01 -.544E+00 0.886E+00   -.525E-01 -.940E-02 0.152E+00
   0.121E+03 0.915E+02 0.507E+04   -.116E+03 -.940E+02 -.508E+04   -.558E+01 0.197E+01 0.494E+01   0.825E-02 0.104E-01 -.579E-01
   0.242E+03 -.373E+03 0.661E+03   -.243E+03 0.373E+03 -.660E+03   0.578E+00 -.834E+00 -.397E+00   0.330E-01 0.247E-02 0.391E-01
   0.208E+03 -.377E+03 -.235E+04   -.209E+03 0.378E+03 0.235E+04   0.713E+00 -.793E+00 -.238E-01   0.156E-01 0.539E-02 0.165E+00
   -.881E+02 0.487E+01 -.557E+04   0.855E+02 -.912E+00 0.557E+04   0.310E+01 -.484E+01 0.516E+00   0.281E-01 0.103E-01 0.163E+00
   0.245E+03 -.460E+03 0.421E+04   -.248E+03 0.464E+03 -.421E+04   0.220E+01 -.330E+01 0.422E+01   -.882E-03 -.402E-01 -.485E-02
   0.374E+03 0.408E+03 -.472E+04   -.378E+03 -.412E+03 0.473E+04   0.283E+01 0.355E+01 -.228E+01   0.359E-02 0.324E-01 0.146E+00
   0.199E+03 0.620E+03 0.488E+04   -.201E+03 -.626E+03 -.489E+04   0.160E+01 0.379E+01 0.456E+01   0.409E-02 0.119E-02 -.253E-01
   0.250E+03 0.467E+03 0.183E+04   -.250E+03 -.467E+03 -.183E+04   0.254E+00 -.546E-01 0.867E+00   0.189E-01 -.514E-02 0.271E-01
   0.241E+03 0.428E+03 -.136E+04   -.242E+03 -.428E+03 0.136E+04   0.117E+01 0.348E+00 0.196E+01   -.136E-01 -.195E-01 0.129E+00
   -.524E+03 0.416E+02 0.174E+04   0.525E+03 -.422E+02 -.174E+04   -.969E+00 0.553E+00 0.626E+00   0.308E-01 -.341E-01 0.415E-01
   -.476E+03 -.865E+02 -.135E+04   0.477E+03 0.872E+02 0.135E+04   -.633E+00 -.750E+00 0.251E+01   -.896E-02 -.245E-01 0.146E+00
   -.534E+03 -.152E+03 -.472E+04   0.539E+03 0.154E+03 0.472E+04   -.443E+01 -.101E+01 -.231E+01   -.357E-01 -.678E-03 0.152E+00
   -.515E+03 0.652E+02 0.488E+04   0.520E+03 -.657E+02 -.488E+04   -.378E+01 0.719E-01 0.428E+01   0.396E-01 0.225E-01 -.130E-01
   0.266E+03 -.368E+03 0.591E+03   -.268E+03 0.368E+03 -.590E+03   0.114E+01 -.463E+00 -.107E+01   -.556E-01 0.512E-02 0.629E-01
   0.317E+03 -.512E+03 -.269E+04   -.318E+03 0.513E+03 0.269E+04   0.686E+00 -.122E+01 0.136E+01   -.215E-01 -.266E-02 0.210E+00
   0.389E+03 -.630E+03 -.577E+04   -.388E+03 0.628E+03 0.576E+04   -.136E+01 0.202E+01 0.603E+01   -.116E-01 0.144E-02 0.119E+00
   0.431E+03 0.179E+02 0.405E+04   -.437E+03 -.165E+02 -.405E+04   0.484E+01 -.193E+01 0.237E+01   0.125E-01 0.138E-01 -.139E-01
   0.280E+03 0.241E+03 -.486E+04   -.284E+03 -.244E+03 0.486E+04   0.346E+01 0.329E+01 -.184E+01   -.225E-01 -.266E-01 0.161E+00
   0.346E+03 0.587E+03 0.492E+04   -.348E+03 -.592E+03 -.492E+04   0.179E+01 0.367E+01 0.474E+01   -.524E-01 0.315E-01 -.168E-01
   0.220E+03 0.433E+03 0.175E+04   -.221E+03 -.433E+03 -.176E+04   0.553E+00 -.165E+00 0.109E+01   -.386E-01 -.450E-01 0.336E-01
   0.287E+03 0.378E+03 -.136E+04   -.288E+03 -.378E+03 0.135E+04   0.800E+00 0.189E+00 0.251E+01   0.152E-02 -.892E-02 0.139E+00
   -.489E+03 -.266E+02 0.177E+04   0.489E+03 0.274E+02 -.177E+04   -.727E+00 -.629E+00 0.874E+00   0.182E-02 0.457E-02 0.124E-01
   -.536E+03 -.586E+02 -.141E+04   0.537E+03 0.593E+02 0.141E+04   -.907E+00 -.830E+00 0.186E+01   0.203E-01 0.981E-02 0.125E+00
   -.387E+03 -.301E+03 -.487E+04   0.392E+03 0.303E+03 0.487E+04   -.424E+01 -.867E+00 -.183E+01   0.448E-02 0.173E-01 0.154E+00
   -.529E+03 0.111E+03 0.492E+04   0.535E+03 -.113E+03 -.493E+04   -.423E+01 0.158E+01 0.387E+01   -.171E-01 0.270E-01 -.417E-01
   -.764E+02 0.125E+03 0.270E+03   0.776E+02 -.127E+03 -.272E+03   -.126E+01 0.201E+01 0.249E+01   0.190E-01 -.178E-02 0.165E-01
   -.680E+02 0.125E+03 -.896E+03   0.693E+02 -.127E+03 0.892E+03   -.839E+00 0.116E+01 0.949E+00   0.188E-01 0.126E-01 0.626E-01
   -.153E+03 0.151E+03 0.157E+04   0.154E+03 -.152E+03 -.157E+04   -.970E+00 -.367E+00 0.231E+01   -.171E-01 -.185E-01 -.227E-02
   -.339E+02 0.546E+02 -.236E+04   0.348E+02 -.560E+02 0.236E+04   -.611E+00 0.104E+01 -.202E+01   0.419E-02 -.723E-02 0.506E-01
   -.102E+03 -.838E+02 -.156E+04   0.104E+03 0.856E+02 0.156E+04   -.183E+01 -.127E+01 -.169E+01   0.382E-02 -.587E-02 0.675E-01
   -.800E+02 -.152E+03 -.199E+03   0.815E+02 0.155E+03 0.199E+03   -.146E+01 -.246E+01 -.233E+00   -.130E-01 0.603E-02 0.208E-01
   0.212E+02 -.201E+03 0.218E+04   -.226E+02 0.203E+03 -.218E+04   0.139E+01 -.130E+01 0.341E+01   0.971E-02 0.193E-01 -.199E-01
   -.679E+02 -.119E+03 0.961E+03   0.692E+02 0.121E+03 -.961E+03   -.119E+01 -.240E+01 0.977E+00   0.115E-01 0.824E-02 0.473E-02
   0.118E+03 -.396E+02 0.223E+04   -.119E+03 0.407E+02 -.223E+04   0.249E+00 -.141E+01 0.348E+01   -.118E-02 -.102E-01 -.218E-01
   0.190E+03 -.597E+02 0.919E+03   -.192E+03 0.603E+02 -.917E+03   0.203E+01 -.816E-02 0.862E+00   0.178E-01 -.299E-02 -.674E-03
   0.166E+03 0.396E+01 -.207E+03   -.169E+03 -.400E+01 0.208E+03   0.297E+01 -.427E-02 -.837E+00   0.336E-02 0.629E-02 0.222E-01
   0.115E+03 0.633E+02 -.160E+04   -.117E+03 -.642E+02 0.160E+04   0.407E+00 0.184E+01 -.128E+01   0.173E-01 -.105E-01 0.760E-01
[...]
   0.169E+03 -.402E+01 -.196E+03   -.172E+03 0.399E+01 0.196E+03   0.299E+01 0.475E-01 -.161E+00   -.121E-02 -.516E-02 0.292E-01
   0.120E+03 0.534E+02 -.155E+04   -.123E+03 -.541E+02 0.155E+04   0.192E+01 0.107E+01 -.179E+01   0.446E-02 -.737E-02 0.694E-01
   -.589E+02 0.111E+03 0.261E+03   0.598E+02 -.113E+03 -.262E+03   -.784E+00 0.139E+01 0.184E+01   0.293E-02 -.325E-02 0.398E-02
   -.794E+02 0.115E+03 -.897E+03   0.805E+02 -.117E+03 0.893E+03   -.685E+00 0.119E+01 0.113E+01   -.946E-02 -.770E-02 0.636E-01
   -.629E+02 0.159E+03 0.234E+04   0.633E+02 -.161E+03 -.235E+04   0.171E+00 0.115E+01 0.955E+00   -.488E-02 0.730E-02 -.346E-01
   -.920E+02 0.164E+03 0.150E+04   0.924E+02 -.165E+03 -.150E+04   -.418E+00 0.807E+00 0.196E+01   0.840E-03 -.167E-01 -.150E-01
   -.177E+03 -.102E+03 -.160E+04   0.179E+03 0.105E+03 0.160E+04   -.178E+01 -.175E+01 -.192E+01   0.682E-02 0.334E-01 0.736E-01
   -.629E+02 -.150E+03 -.232E+03   0.641E+02 0.153E+03 0.232E+03   -.108E+01 -.265E+01 0.107E+00   -.167E-03 -.326E-02 0.548E-01
   0.128E+03 0.354E+02 0.212E+04   -.129E+03 -.345E+02 -.212E+04   0.974E+00 -.633E+00 0.405E+01   -.889E-02 -.223E-01 -.203E-01
   -.880E+02 -.160E+03 0.967E+03   0.901E+02 0.162E+03 -.964E+03   -.558E+00 -.129E+01 -.683E-01   -.864E-02 -.668E-02 -.124E-01
   0.132E+03 -.708E+02 0.210E+04   -.133E+03 0.730E+02 -.210E+04   -.335E+00 -.158E+01 0.434E+01   0.102E-01 0.216E-01 -.995E-02
   0.175E+03 0.247E+01 0.970E+03   -.178E+03 -.262E+01 -.970E+03   0.237E+01 -.425E-01 0.105E+01   -.197E-01 0.115E-01 -.144E-01
   0.166E+03 -.166E+02 -.228E+03   -.169E+03 0.166E+02 0.228E+03   0.292E+01 0.641E-02 -.308E-01   -.663E-03 -.765E-02 0.452E-01
   0.248E+03 -.726E+02 -.153E+04   -.250E+03 0.729E+02 0.153E+04   0.861E+00 0.326E-01 -.149E+01   0.262E-01 0.153E-01 0.677E-01
   -.137E+02 0.176E+02 -.868E+02   -.239E-11 -.158E-11 -.614E-11   0.136E+02 -.177E+02 0.821E+02   -.184E+00 0.107E+00 0.486E+01

 POSITION                                       TOTAL-FORCE (eV/Angst)
      5.35228      4.81788      5.50842        -0.010570     -0.093821      0.027775
      5.93595      3.87238      8.44448        -0.110737      0.213165     -1.204594
      6.00809      3.75553     10.79372         0.548239     -0.907480      0.885803
      2.24633      0.73197      2.57236        -0.229814      0.348757      2.190293
      0.83315      0.54856     10.27569        -0.895718     -0.012018      0.510138
      4.73152      3.15455      2.22468         0.755140     -0.131414     -0.978538
      5.35228      2.40903      4.73270        -0.052254      0.144748      0.183789
      5.93595      1.46353      7.66876        -0.024306      0.011850     -0.300578
      1.87746      3.73836      4.73270         0.087571     -0.115311      0.321305
      2.46113      2.79286      7.66876        -0.021795     -0.160524     -0.057975
      3.05283      1.91629     10.27312         0.194587      0.652395      0.496855
      6.84109      4.58573      2.23404         1.118755     -0.343165     -1.254537
     10.98051      4.81788      5.50842        -0.074527     -0.084243      0.163131
     11.56418      3.87238      8.44448        -0.102228      0.161097     -0.983083
     11.66703      3.69754     10.80681         0.550059     -0.790235      0.770624
      7.87456      0.73197      2.57236        -0.823471     -0.061427      1.935561
      6.36418      0.54361     10.13368         0.440875     -0.424288      0.969397
     10.15055      2.26610      2.56951         0.539014      1.296728     -0.120652
     10.98051      2.40903      4.73270         0.464017      0.152913      1.191332
     11.56418      1.46353      7.66876         0.126240     -0.024927     -0.009486
      7.50570      3.73836      4.73270         0.005320      0.037997      0.217067
      8.08937      2.79286      7.66876        -0.051289      0.071814     -0.290533
      8.71977      1.99774     10.13379         0.189079     -0.558894      0.977327
     12.80033      4.63785      2.24924        -0.579775     -0.478101     -1.082645
      7.87456      9.84929      5.50842         0.083121     -0.046382     -0.089706
      8.45823      8.90379      8.44448        -0.146776      0.081394     -1.030689
      8.56831      8.73371     10.80670         0.472855     -0.867720      0.738981
      4.76861      5.76338      2.57236        -0.822495      0.928077      1.601349
      3.34955      5.53690     10.27629        -0.842101      0.131421      0.416457
      7.29089      8.38594      1.79664        -0.717434     -1.504685      2.599609
      7.87456      7.44044      4.73270         0.016544      0.175035      0.139999
      8.45823      6.49494      7.66876         0.045202     -0.055706      0.017811
      4.39975      8.76977      4.73270         0.147149     -0.128934      0.091262
      4.98341      7.82427      7.66876         0.006440     -0.133527     -0.053238
      5.60705      6.93051     10.27623         0.313947      0.829938      0.418070
      9.44431      9.71527      1.79664         1.313395     -0.431755      2.788669
     13.50279      9.84929      5.50842        -0.108532      0.019903     -0.060760
     14.08646      8.90379      8.44448         0.041340     -0.090087      0.044395
     14.71063      7.89269     10.98303         0.037196     -0.063671      1.382631
     10.47468      5.93046      3.13631        -1.016158     -0.477898     -0.886237
      8.97670      5.57319     10.27333        -0.597564      0.084525      0.490593
     12.91912      8.38594      1.79664        -0.755042     -1.542256      2.690597
     13.50279      7.44044      4.73270         0.196474      0.114852      0.177539
     14.08646      6.49494      7.66876         0.061909     -0.074721     -0.076274
     10.02798      8.76977      4.73270        -0.069757      0.122644      0.190619
     10.61165      7.82427      7.66876        -0.088798     -0.123694     -0.053433
     11.19410      6.94451     10.27587         0.403304      0.803235      0.492895
     15.07254      9.71527      1.79664         1.274623     -0.447674      2.361883
      1.66190      1.67871      5.87212        -0.032090     -0.070381      0.062579
      2.24556      0.73321      8.80817         0.500433     -0.649383     -3.046773
      6.70646      2.62422      2.93606         0.392980     -1.118515     -0.099059
      5.00444      5.38145     11.52172         0.253869     -0.419996      2.596067
      2.24556      3.80055      9.79595        -0.085889      0.590367     -0.224880
      7.29013      4.74605      6.85989         0.041241      0.039246      0.057010
      3.70632      1.55533      1.37325         0.066835      1.346253     -2.650414
      4.18418      0.66015      3.92384         0.145133     -0.373905      0.840294
      3.46413      4.64703      1.43352        -0.615649     -0.275716     -2.455111
      3.96438      3.99884      3.92384        -0.459096      0.579268      2.688383
      4.54805      3.05334      6.85989        -0.026888     -0.028733     -0.017956
      5.13172      2.10784      9.79595        -0.909304      1.003981      0.105663
[...]
      6.48666      9.03025      3.92384        -0.125540     -0.213575      0.686389
      7.07033      8.08475      6.85989        -0.026831      0.017754     -0.021192
      7.65400      7.13925      9.79595        -0.501645      0.389058     -0.164618
      9.81241      6.71012      5.87212         0.045312     -0.054499      0.212553
     10.39608      5.76462      8.80817         0.423858     -0.751868     -3.143864
     14.17538      8.72721      0.29500         0.635717     -0.768695     -4.272505
     14.85697      7.65563      2.93606         0.045396     -0.319959      0.167272
     10.39608      8.83196      9.79595         0.084760      0.679706     -0.116044
     15.44064      9.77746      6.85989         0.037286      0.041596      0.065665
     11.89753      6.47551      1.64075        -0.292450      0.207709     -1.650456
     12.33469      5.69156      3.92384         1.496563      0.661439      3.261231
     11.49699      9.82966      1.38797        -1.054760      0.709023     -2.328945
     12.11489      9.03025      3.92384        -0.043602     -0.186542      0.712596
     12.69856      8.08475      6.85989        -0.002230     -0.009880      0.079189
     13.28223      7.13925      9.79595        -1.739179      0.358205     -0.720064
    total drift:                               -0.212495      0.003874      0.136135

  FREE ENERGIE OF THE ION-ELECTRON SYSTEM (eV)
  free  energy   TOTEN  =      -476.27623059 eV

  energy  without entropy=     -475.11836414  energy(sigma->0) =     -475.69729736