 vasp.5.4.4.18Apr17-6-g9f103f2a35 (build Aug 13 2019 17:33:20) gamma-only

 executed on             LinuxIFC date 2020.05.12  15:36:36

 INCAR:
 POTCAR:    PAW_PBE Ni_pv 06Sep2000
 POTCAR:    PAW_PBE S 06Sep2000
 POTCAR:    PAW_PBE Ni_pv 06Sep2000
   VRHFIN =Ni:

   TITEL  = PAW_PBE Ni_pv 06Sep2000
   POMASS =   58.690; ZVAL   =   16.000    mass and valenz
   ENMAX  =  367.986; ENMIN  =  275.989 eV

 POTCAR:    PAW_PBE S 06Sep2000
   VRHFIN =S : s2p4

   TITEL  = PAW_PBE S 06Sep2000
   POMASS =   32.066; ZVAL   =    6.000    mass and valenz
   ENMAX  =  258.689; ENMIN  =  194.016 eV

 Optimization of the real space projectors (new method)

 maximal supplied QI-value         = 18.90
 optimisation between [QCUT,QGAM] = [ 10.77, 21.73] = [ 32.49,132.25] Ry
 Optimized for a Real-space Cutoff    1.38 Angstroem

   l    n(q)    QCUT    max X(q) W(low)/X(q) W(high)/X(q)  e(spline)
   1      8    10.771     2.836    0.40E-04    0.29E-04    0.12E-06
   1      8    10.771     4.023    0.10E-03    0.48E-04    0.29E-06
   2      8    10.771    73.368    0.42E-03    0.97E-04    0.44E-06
   2      8    10.771    69.010    0.42E-03    0.99E-04    0.45E-06
   0      9    10.771    54.797    0.10E-03    0.56E-04    0.74E-07
   0      9    10.771    24.266    0.89E-04    0.49E-04    0.67E-07
 Optimization of the real space projectors (new method)

 maximal supplied QI-value         = 19.84
 optimisation between [QCUT,QGAM] = [ 10.71, 21.63] = [ 32.15,130.99] Ry
 Optimized for a Real-space Cutoff    1.19 Angstroem

   l    n(q)    QCUT    max X(q) W(low)/X(q) W(high)/X(q)  e(spline)
   0      8    10.715   187.594    0.41E-03    0.53E-04    0.66E-07
   0      8    10.715   164.243    0.41E-03    0.53E-04    0.65E-07
   1      7    10.715    67.533    0.19E-03    0.59E-03    0.68E-07
   1      7    10.715    50.729    0.19E-03    0.58E-03    0.67E-07
  PAW_PBE Ni_pv 06Sep2000               :
  PAW_PBE S 06Sep2000                   :

 POSCAR: Type_036 Type_136
  positions in cartesian coordinates
 exchange correlation table for  LEXCH =        8
   RHO(1)=    0.500       N(1)  =     2000
   RHO(2)=  100.500       N(2)  =     4000

 ion  position               nearest neighbor table
   1  0.374  0.751  0.095-  61 2.05  49 2.06  41 2.25  62 2.36  50 2.36  14 2.39  33 2.44
   2  0.525  0.601  0.223-  42 2.25  50 2.26  62 2.26  63 2.36  51 2.36  15 2.53  27 2.53
   3  0.675  0.451  0.351-  43 2.25  63 2.26  51 2.26   4 2.33  64 2.36  52 2.36  28 2.53  16 2.53

   4  0.711  0.374  0.459-  44 2.03  52 2.10  64 2.16   3 2.33
   5  0.793  0.088  0.022-  45 2.01  67 2.05  53 2.06   6 2.48  29 2.51  20 2.53
   6  0.758  0.035  0.138-  53 2.11  67 2.12  46 2.25  54 2.36  68 2.36   5 2.48  29 2.53  20 2.53

   7  0.058  0.734  0.394-  56 2.07  66 2.17  65 2.26  55 2.26  18 2.53  31 2.53
   8  0.908  0.884  0.266-  47 2.25  54 2.26  68 2.26  55 2.36  65 2.36  30 2.53  17 2.53
   9  0.141  0.318  0.180-  69 2.04  40 2.25  57 2.26  12 2.30  70 2.36  58 2.36
  10  0.291  0.168  0.308-  37 2.25  58 2.26  70 2.26  59 2.36  71 2.36  35 2.53  22 2.53
  11  0.391  0.047  0.422-  71 2.03  59 2.09  38 2.13  72 2.16
  12  0.961  0.470  0.118-  39 2.00  57 2.06  69 2.12  40 2.14   9 2.30
  13  0.001  0.126  0.396-  37 2.03  64 2.12  38 2.12  55 2.15
  14  0.571  0.566  0.049-  62 2.05  61 2.07  39 2.07   1 2.39
  15  0.709  0.416  0.155-  53 2.14  39 2.26  62 2.26  40 2.36  63 2.36  27 2.53   2 2.53
  16  0.860  0.266  0.283-  54 2.25  63 2.26  40 2.26  37 2.36  64 2.36   3 2.53  28 2.53
  17  0.093  0.700  0.198-  57 2.25  41 2.26  68 2.26  42 2.36  65 2.36  30 2.53   8 2.53
  18  0.243  0.549  0.326-  66 2.11  58 2.25  65 2.26  42 2.26  43 2.36   7 2.53  31 2.53
  19  0.371  0.416  0.436-  43 2.03  44 2.09  66 2.12  59 2.17
  20  0.943  0.850  0.070-  60 2.02  45 2.08  67 2.12  68 2.36  41 2.36  33 2.51   6 2.53  29 2.53
                             5 2.53
  21  0.402  1.000  0.132-  49 2.04  50 2.14  70 2.25  46 2.28  22 2.34
  22  0.476  0.983  0.241-  50 2.25  70 2.26  46 2.26  21 2.34  47 2.36  71 2.36  35 2.53  10 2.53

[...]

  36  0.655  0.068  0.390-  47 2.06  59 2.11  48 2.14  64 2.21  23 2.53
  37  0.064  0.262  0.341-  25 2.02  13 2.03  10 2.25  16 2.36  28 2.36  38 2.54
  38  0.174  0.148  0.448-  25 2.11  13 2.12  11 2.13  37 2.54
  39  0.763  0.563  0.085-  12 2.00  14 2.07  26 2.17  15 2.26  27 2.26
  40  0.914  0.412  0.213-  12 2.14   9 2.25  16 2.26  28 2.26  27 2.36  15 2.36
  41  0.147  0.846  0.128-  33 2.13   1 2.25  17 2.26  30 2.26  20 2.36  29 2.36
  42  0.297  0.696  0.256-   2 2.25  31 2.26  18 2.26  30 2.36  17 2.36
  43  0.447  0.545  0.384-  32 2.03  19 2.03   3 2.25  31 2.36  18 2.36  44 2.61
  44  0.516  0.445  0.502-   4 2.03  32 2.08  19 2.09  43 2.61
  45  0.003  0.988  0.012-   5 2.01  29 2.06  20 2.08
  46  0.530  0.129  0.171-  34 2.22   6 2.25  22 2.26  35 2.26  21 2.28
  47  0.680  0.979  0.299-  36 2.06   8 2.25  23 2.26  35 2.36  22 2.36
  48  0.757  0.868  0.436-  23 2.03  24 2.12  36 2.14  72 2.76
  49  0.430  0.900  0.044-  21 2.04   1 2.06  26 2.07
  50  0.528  0.798  0.171-  26 2.07  21 2.14  22 2.25  27 2.26   2 2.26   1 2.36
  51  0.678  0.648  0.299-  23 2.25  28 2.26   3 2.26  27 2.36   2 2.36
  52  0.829  0.497  0.427-  24 2.05   4 2.10  25 2.13  28 2.36   3 2.36
  53  0.769  0.225  0.100-   5 2.06   6 2.11  15 2.14  29 2.15
  54  0.911  0.081  0.214-  16 2.25   8 2.26  30 2.26   6 2.36  29 2.36
  55  0.062  0.931  0.342-  13 2.15  31 2.26   7 2.26  30 2.36   8 2.36
  56  0.223  0.743  0.452-  31 2.04   7 2.07  32 2.12
  57  0.145  0.515  0.129-  12 2.06  33 2.06  17 2.25   9 2.26  60 2.77
  58  0.295  0.364  0.257-  34 2.15  18 2.25  10 2.26  35 2.26   9 2.36
  59  0.445  0.214  0.385-  11 2.09  36 2.11  19 2.17  35 2.36  10 2.36
  60  0.011  0.666  0.019-  33 2.02  20 2.02  57 2.77
  61  0.365  0.639  0.013-   1 2.05  14 2.07  33 2.09  62 2.73
  62  0.477  0.512  0.128-  34 2.02  14 2.05  15 2.26   2 2.26   1 2.36  61 2.73
  63  0.628  0.362  0.256-  34 2.20  35 2.25   3 2.26  16 2.26   2 2.36  15 2.36
  64  0.778  0.212  0.384-  13 2.12   4 2.16  36 2.21  16 2.36   3 2.36
  65  0.011  0.645  0.299-  28 2.25   7 2.26  18 2.26   8 2.36  17 2.36
  66  0.153  0.509  0.413-  18 2.11  19 2.12  25 2.15   7 2.17
  67  0.721  0.932  0.053-   5 2.05  26 2.12   6 2.12  20 2.12
  68  0.861  0.795  0.171-  27 2.25  17 2.26   8 2.26   6 2.36  20 2.36
  69  0.055  0.249  0.104-   9 2.04  12 2.12  29 2.13
  70  0.244  0.079  0.214-  21 2.25  30 2.25  22 2.26  10 2.26   9 2.36
  71  0.395  0.928  0.342-  11 2.03  31 2.25  23 2.26  10 2.36  22 2.36  72 2.66
  72  0.500  0.836  0.459-  24 2.04  32 2.11  11 2.16  23 2.24  71 2.66  48 2.76

  LATTYP: Found a base centered orthorhombic cell.
 ALAT       =    11.4527836704
 B/A-ratio  =     1.4485816945
 C/A-ratio  =     1.7908432109

  Lattice vectors:

 A1 = (  10.0797329849,   0.0000000000,   0.0000000000)
 A2 = (  -3.5732980427,  -9.4251025535,   0.0000000000)
 A3 = (   0.0000000000,   0.0000000000, -20.5101398818)

Analysis of symmetry for initial positions (statically):
 Subroutine PRICEL returns:
 Original cell was already a primitive cell.

 Routine SETGRP: Setting up the symmetry group for a
 base centered orthorhombic supercell.

 Subroutine GETGRP returns: Found  1 space group operations
 (whereof  1 operations were pure point group operations)
 out of a pool of  8 trial point group operations.

The static configuration has the point symmetry C_1 .

Analysis of symmetry for dynamics (positions and initial velocities):
 Subroutine PRICEL returns:
 Original cell was already a primitive cell.

 Routine SETGRP: Setting up the symmetry group for a
 base centered orthorhombic supercell.

 Subroutine GETGRP returns: Found  1 space group operations
 (whereof  1 operations were pure point group operations)
 out of a pool of  8 trial point group operations.

The dynamic configuration has the point symmetry C_1 .

 Subroutine INISYM returns: Found  1 space group operations
 (whereof  1 operations are pure point group operations),
 and found     1 'primitive' translations

 KPOINTS: gamma-point-only calculation. no periodi

Automatic generation of k-mesh.
Space group operators:
 irot       det(A)        alpha          n_x          n_y          n_z        tau_x        tau_y        tau_z
    1     1.000000     0.000000     1.000000     0.000000     0.000000     0.000000     0.000000     0.000000

 Subroutine IBZKPT returns following result:

 Found      1 irreducible k-points:

 Following reciprocal coordinates:
            Coordinates               Weight
  0.000000  0.000000  0.000000      1.000000

 Following cartesian coordinates:
            Coordinates               Weight
  0.000000  0.000000  0.000000      1.000000

 SYSTEM =  "Millerite NiS"
 POSCAR =  Type_036 Type_136

 Startparameter for this run:
   NWRITE =      2    write-flag & timer
   PREC   = normal    normal or accurate (medium, high low for compatibility)
   ISTART =      0    job   : 0-new  1-cont  2-samecut
   ICHARG =      2    charge: 1-file 2-atom 10-const
   ISPIN  =      1    spin polarized calculation?
   LNONCOLLINEAR =      F non collinear calculations
   LSORBIT =      F    spin-orbit coupling
   INIWAV =      1    electr: 0-lowe 1-rand  2-diag
   LASPH  =      F    aspherical Exc in radial PAW
   METAGGA=      F    non-selfconsistent MetaGGA calc.

 Electronic Relaxation 1
   ENCUT  =  450.0 eV  33.07 Ry    5.75 a.u.  17.43 17.43 35.48*2*pi/ulx,y,z
   ENINI  =  450.0     initial cutoff
   ENAUG  =  703.4 eV  augmentation charge cutoff
   NELM   =    100;   NELMIN=  2; NELMDL= -5     # of ELM steps
   EDIFF  = 0.1E-03   stopping-criterion for ELM
   LREAL  =      T    real-space projection
   NLSPLINE    = F    spline interpolate recip. space projectors
   LCOMPAT=      F    compatible to vasp.4.4
   GGA_COMPAT  = T    GGA compatible to vasp.4.4-vasp.4.6
   LMAXPAW     = -100 max onsite density
   LMAXMIX     =    2 max onsite mixed and CHGCAR
   VOSKOWN=      0    Vosko Wilk Nusair interpolation
   ROPT   =   -0.00050  -0.00050
 Ionic relaxation
   EDIFFG = 0.1E-02   stopping-criterion for IOM
   NSW    =      0    number of steps for IOM
   NBLOCK =      1;   KBLOCK =      1    inner block; outer block
   IBRION =     -1    ionic relax: 0-MD 1-quasi-New 2-CG
   NFREE  =      0    steps in history (QN), initial steepest desc. (CG)
   ISIF   =      2    stress and relaxation
   IWAVPR =     10    prediction:  0-non 1-charg 2-wave 3-comb
   ISYM   =      2    0-nonsym 1-usesym 2-fastsym
   LCORR  =      T    Harris-Foulkes like correction to forces

   POTIM  = 0.5000    time-step for ionic-motion
   TEIN   =    0.0    initial temperature
   TEBEG  =    0.0;   TEEND  =   0.0 temperature during run
   SMASS  =  -3.00    Nose mass-parameter (am)
   estimated Nose-frequenzy (Omega)   =  0.10E-29 period in steps =****** mass=  -0.232E-26a.u.
   SCALEE = 1.0000    scale energy and forces
   NPACO  =    256;   APACO  = 16.0  distance and # of slots for P.C.
   PSTRESS=    0.0 pullay stress

  Mass of Ions in am
   POMASS =  58.69 32.07
  Ionic Valenz
   ZVAL   =  16.00  6.00
  Atomic Wigner-Seitz radii
  virtual crystal weights
   VCA    =   1.00  1.00
[...]
  Fock        0.00000     0.00000     0.00000     0.00000     0.00000     0.00000
  Total      86.02351    75.75234    98.24524    -0.20094    -4.34069     3.98885
  in kB      70.73332    62.28779    80.78270    -0.16522    -3.56916     3.27985

 VOLUME and BASIS-vectors are now :
  energy-cutoff  :      450.00
  volume of cell :     1948.51
      direct lattice vectors                 reciprocal lattice vectors
    10.079732985  0.000000000  0.000000000     0.099208977 -0.037612667  0.000000000
     3.573298043  9.425102554  0.000000000     0.000000000  0.106099641  0.000000000
     0.000000000  0.000000000 20.510139882     0.000000000  0.000000000  0.048756372

  length of vectors
    10.079732985 10.079732985 20.510139882     0.106099641  0.106099641  0.048756372

 FORCES acting on ions
    electron-ion (+dipol)            ewald-force                    non-local-force                 convergence-correction
   0.317E+03 -.336E+03 0.373E+04   -.319E+03 0.339E+03 -.373E+04   0.145E+01 -.247E+01 0.256E+01   0.175E-01 0.463E-01 0.707E-01
   0.409E+03 -.229E+03 0.398E+03   -.410E+03 0.230E+03 -.397E+03   0.858E+00 -.118E+01 -.757E+00   0.235E-01 -.128E-01 0.488E-01
   0.300E+03 -.509E+02 -.230E+04   -.301E+03 0.519E+02 0.230E+04   0.272E+00 -.661E+00 -.492E+00   0.136E-01 -.149E-01 -.509E-01
   -.150E+03 0.662E+03 -.520E+04   0.147E+03 -.662E+03 0.520E+04   0.474E+01 0.100E+00 0.553E-01   0.317E-03 -.227E-01 -.311E-01
   0.492E+03 -.821E+03 0.559E+04   -.492E+03 0.825E+03 -.560E+04   -.129E+01 -.237E+01 0.601E+01   -.204E-01 0.177E-01 -.228E-01
   0.594E+03 -.362E+03 0.238E+04   -.598E+03 0.362E+03 -.238E+04   0.428E+01 -.124E+01 -.191E+01   -.291E-01 0.173E-01 0.474E-01
   0.681E+03 -.429E+03 -.404E+04   -.682E+03 0.430E+03 0.403E+04   0.666E+00 -.529E+00 -.334E+00   -.113E-01 0.757E-02 -.284E-01
   0.366E+03 -.161E+03 -.771E+03   -.367E+03 0.162E+03 0.771E+03   0.947E+00 -.849E+00 0.425E+00   -.730E-03 0.108E-02 0.123E-01
   -.418E+03 0.310E+03 0.202E+04   0.421E+03 -.312E+03 -.201E+04   -.159E+01 0.216E+01 -.167E+01   -.214E-01 0.829E-02 0.377E-01
   0.479E+03 -.197E+03 -.140E+04   -.480E+03 0.197E+03 0.140E+04   0.864E+00 -.112E+01 0.130E+01   -.167E-01 0.733E-02 -.350E-03
   0.220E+03 -.183E+03 -.468E+04   -.222E+03 0.186E+03 0.468E+04   0.214E+01 -.290E+01 -.307E+01   -.101E-01 0.107E-01 -.265E-01
   -.337E+03 0.237E+03 0.403E+04   0.340E+03 -.236E+03 -.404E+04   -.289E+01 -.124E+01 0.568E+01   -.974E-03 -.158E-01 0.639E-01
   0.190E+03 0.607E+03 -.394E+04   -.192E+03 -.612E+03 0.394E+04   0.168E+01 0.436E+01 -.370E-02   0.504E-02 0.178E-01 -.360E-01
   -.123E+02 0.755E+03 0.537E+04   0.115E+02 -.755E+03 -.537E+04   0.146E+01 -.868E+00 0.129E+01   0.175E-01 -.141E-01 0.398E-01
   0.103E+02 0.657E+03 0.273E+04   -.106E+02 -.658E+03 -.273E+04   -.211E-01 0.936E+00 0.108E+00   0.222E-01 -.202E-01 0.813E-01
   -.749E+02 0.576E+03 -.515E+03   0.745E+02 -.577E+03 0.514E+03   0.379E+00 0.115E+01 0.785E+00   -.114E-02 0.194E-01 0.792E-02
   -.166E+02 0.533E+03 0.129E+04   0.154E+02 -.535E+03 -.129E+04   0.149E+01 0.180E+01 -.952E-01   -.203E-01 -.381E-02 0.702E-01
   0.135E+03 0.353E+03 -.147E+04   -.135E+03 -.355E+03 0.147E+04   0.431E+00 0.195E+01 0.340E+01   -.944E-02 -.727E-02 -.220E-01
   0.392E+03 0.472E+03 -.462E+04   -.393E+03 -.477E+03 0.462E+04   0.554E+00 0.397E+01 -.104E+01   0.441E-02 -.156E-01 -.185E-01
   0.109E+03 0.443E+03 0.443E+04   -.111E+03 -.447E+03 -.444E+04   0.231E+01 0.360E+01 0.381E+01   -.406E-01 0.198E-01 0.104E-01
   0.258E+03 -.934E+03 0.358E+04   -.259E+03 0.940E+03 -.359E+04   0.163E+01 -.431E+01 0.466E+01   0.898E-02 0.872E-02 0.375E-01
   -.304E+02 0.274E+03 0.313E+03   0.311E+02 -.274E+03 -.311E+03   -.265E+00 0.128E+00 -.130E+01   0.291E-02 -.197E-03 0.200E-01
   -.213E+03 0.127E+03 -.252E+04   0.212E+03 -.131E+03 0.251E+04   -.112E+01 0.443E+01 0.271E+01   0.425E-02 0.107E-01 -.461E-01
   -.625E+03 -.190E+02 -.516E+04   0.629E+03 0.171E+02 0.516E+04   -.401E+01 0.166E+01 0.209E+01   0.980E-02 -.926E-03 -.204E-01
   -.270E+03 -.946E+02 -.472E+04   0.272E+03 0.979E+02 0.473E+04   -.260E+01 -.270E+01 -.303E+01   -.685E-02 -.154E-01 -.394E-01
   -.359E+03 -.309E+03 0.453E+04   0.362E+03 0.309E+03 -.453E+04   -.221E+01 -.103E+01 0.446E+01   0.360E-01 0.404E-01 0.487E-01
   -.427E+03 -.294E+03 0.127E+04   0.428E+03 0.296E+03 -.127E+04   -.780E+00 -.947E+00 -.262E+01   0.986E-02 -.138E-01 0.597E-01
   -.536E+03 -.297E+03 -.157E+04   0.536E+03 0.298E+03 0.157E+04   -.165E+00 -.176E+01 0.104E+01   -.212E-01 -.176E-01 -.249E-01
   -.916E+03 -.550E+03 0.354E+04   0.921E+03 0.552E+03 -.354E+04   -.377E+01 -.265E+01 0.112E+01   0.910E-03 0.383E-01 0.298E-01
   -.413E+03 -.379E+03 0.409E+03   0.414E+03 0.380E+03 -.408E+03   -.329E+00 -.133E+01 -.512E+00   -.856E-02 0.836E-02 0.418E-01
   -.176E+03 -.489E+03 -.257E+04   0.177E+03 0.492E+03 0.257E+04   -.106E+01 -.281E+01 0.749E+00   0.362E-03 0.145E-01 -.275E-01
   0.171E+03 -.354E+03 -.513E+04   -.168E+03 0.357E+03 0.514E+04   -.246E+01 -.191E+01 -.333E+01   -.112E-01 -.873E-02 -.213E-01
   -.353E+02 0.765E+03 0.460E+04   0.370E+02 -.769E+03 -.460E+04   -.605E+00 0.431E+01 0.645E+01   -.213E-01 -.129E-01 0.389E-01
   0.477E+03 0.429E+02 0.236E+04   -.482E+03 -.447E+02 -.236E+04   0.372E+01 0.153E+01 0.137E+01   0.695E-02 -.922E-02 0.476E-01
   -.302E+03 -.367E+02 -.618E+03   0.302E+03 0.352E+02 0.620E+03   0.144E+00 0.182E+00 -.364E+00   0.153E-01 0.864E-02 0.793E-02
   -.554E+03 -.870E+02 -.385E+04   0.556E+03 0.888E+02 0.385E+04   -.194E+01 -.132E+01 -.127E+01   0.701E-02 0.557E-02 -.309E-01
   -.138E+03 0.640E+02 -.646E+03   0.140E+03 -.629E+02 0.640E+03   -.152E+01 -.365E+00 0.192E+01   -.791E-02 0.268E-02 -.676E-02
   0.953E+01 0.125E+03 -.198E+04   -.917E+01 -.126E+03 0.198E+04   -.371E+00 0.695E+00 -.268E+01   -.584E-03 0.179E-02 -.913E-02
   -.189E+03 0.143E+03 0.186E+04   0.191E+03 -.143E+03 -.187E+04   -.217E+01 0.651E+00 0.321E+01   0.251E-01 -.519E-02 0.283E-01
   -.135E+03 0.126E+03 0.346E+03   0.134E+03 -.127E+03 -.344E+03   -.209E+00 0.964E+00 -.499E+00   -.206E-02 -.440E-03 0.165E-01
   -.191E+03 -.165E+03 0.115E+04   0.193E+03 0.167E+03 -.115E+04   -.129E+01 -.118E+01 0.567E+00   0.603E-02 0.101E-01 0.340E-01
   -.798E+02 0.675E+01 0.674E+02   0.816E+02 -.778E+01 -.689E+02   -.174E+01 0.115E+01 0.137E+01   0.247E-02 0.846E-03 0.204E-02
   -.446E+02 0.366E+02 -.977E+03   0.465E+02 -.368E+02 0.972E+03   -.797E+00 0.166E+00 0.162E+01   0.103E-01 -.899E-02 -.169E-01
   0.937E+02 0.206E+03 -.219E+04   -.939E+02 -.208E+03 0.219E+04   -.196E+00 0.112E+01 -.195E+01   0.572E-03 -.106E-01 0.104E-02
   -.435E+03 -.723E+02 0.222E+04   0.438E+03 0.722E+02 -.222E+04   -.157E+01 0.204E+00 0.771E+00   0.262E-02 0.101E-01 -.186E-01
   0.318E+02 -.117E+03 0.109E+04   -.315E+02 0.117E+03 -.110E+04   -.214E-01 -.505E+00 0.240E+01   0.436E-02 0.198E-02 0.109E-01
   -.165E+03 0.728E+02 -.313E+03   0.167E+03 -.738E+02 0.310E+03   -.193E+01 0.322E+00 0.105E+01   0.691E-02 -.353E-03 -.250E-03
   -.431E+03 -.833E+02 -.186E+04   0.435E+03 0.839E+02 0.186E+04   -.619E+00 -.120E+01 -.112E+01   0.812E-02 0.112E-01 -.122E-01
   0.818E+02 -.420E+03 0.218E+04   -.821E+02 0.424E+03 -.218E+04   -.296E+00 -.114E+01 0.264E+01   0.581E-02 0.145E-01 0.338E-02
   0.415E+02 -.879E+02 0.571E+03   -.419E+02 0.876E+02 -.568E+03   -.190E+00 0.140E+00 -.650E+00   0.632E-02 -.400E-02 0.222E-01
   -.282E+02 -.187E+03 -.448E+03   0.281E+02 0.189E+03 0.449E+03   0.244E-01 -.230E+01 -.124E+01   0.194E-02 -.133E-01 -.677E-02
   -.245E+03 -.649E+02 -.168E+04   0.245E+03 0.662E+02 0.168E+04   -.235E+00 -.134E+01 -.256E+01   0.419E-02 -.171E-01 -.230E-01
   0.947E+02 -.315E+03 0.149E+04   -.966E+02 0.318E+03 -.149E+04   0.125E+01 -.152E+01 0.858E+00   -.468E-02 0.359E-02 0.160E-01
   -.180E+02 -.160E+03 0.287E+03   0.181E+02 0.162E+03 -.287E+03   -.941E-01 -.259E+01 0.513E+00   -.209E-02 0.799E-02 0.259E-01
   0.612E+02 -.141E+03 -.960E+03   -.614E+02 0.143E+03 0.962E+03   -.438E+00 -.281E+01 -.143E+01   -.391E-02 0.709E-02 -.925E-02
   0.221E+03 -.236E+03 -.208E+04   -.223E+03 0.238E+03 0.209E+04   0.710E+00 -.926E+00 -.152E+01   -.683E-02 0.460E-02 -.393E-02
   -.178E+03 0.298E+03 0.126E+04   0.181E+03 -.300E+03 -.126E+04   -.180E+01 0.192E+01 0.139E+01   -.179E-01 -.176E-01 0.319E-01
   0.155E+03 -.122E+03 0.470E+02   -.156E+03 0.125E+03 -.462E+02   0.258E+00 -.253E+01 -.577E+00   -.459E-02 -.284E-02 0.164E-02
   -.162E+02 -.130E+03 -.134E+04   0.171E+02 0.132E+03 0.134E+04   -.105E+01 -.113E+01 -.198E+01   -.746E-03 -.361E-02 -.698E-02
   0.173E+03 0.354E+03 0.213E+04   -.176E+03 -.356E+03 -.214E+04   0.863E+00 0.233E+00 0.156E+01   -.206E-01 -.913E-02 -.118E-01
   0.126E+03 0.188E+03 0.223E+04   -.127E+03 -.187E+03 -.223E+04   -.142E-02 -.800E+00 0.153E+01   -.389E-02 0.352E-02 -.180E-01
   0.321E+03 0.208E+03 0.131E+04   -.326E+03 -.210E+03 -.131E+04   0.429E+01 0.174E+01 0.424E+00   -.163E-02 -.125E-01 0.416E-01
   0.404E+02 0.111E+03 -.596E+02   -.400E+02 -.113E+03 0.622E+02   -.758E-02 0.132E+01 -.221E+01   0.125E-01 0.273E-02 0.121E-01
   0.704E+02 0.262E+03 -.129E+04   -.718E+02 -.264E+03 0.129E+04   0.566E+00 0.225E+01 -.312E+00   0.450E-02 0.574E-02 -.160E-01
   0.139E+03 0.386E+02 -.428E+03   -.142E+03 -.397E+02 0.428E+03   0.219E+01 0.157E+01 -.437E+00   -.901E-02 -.244E-03 -.659E-02
   0.185E+03 0.131E+02 -.166E+04   -.186E+03 -.144E+02 0.166E+04   -.563E-01 0.474E+00 -.556E+00   -.873E-02 -.462E-02 -.637E-02
   0.363E+03 -.536E+02 0.193E+04   -.366E+03 0.544E+02 -.193E+04   0.106E+01 -.950E+00 0.960E+00   -.992E-02 0.773E-02 0.497E-02
   0.117E+03 0.443E+02 0.702E+03   -.119E+03 -.453E+02 -.703E+03   0.204E+01 0.123E+01 0.174E+01   -.813E-02 -.514E-02 0.273E-01
   -.198E+03 0.108E+03 0.170E+04   0.201E+03 -.109E+03 -.170E+04   -.310E+01 -.115E+00 0.191E+01   0.440E-02 0.133E-01 0.183E-01
   0.162E+03 -.929E+02 0.489E+03   -.165E+03 0.925E+02 -.489E+03   0.223E+01 0.482E+00 0.669E+00   -.571E-02 0.682E-02 0.134E-01
   0.165E+03 0.843E+02 -.727E+03   -.168E+03 -.867E+02 0.725E+03   0.234E+01 0.135E+01 -.853E+00   -.749E-04 0.541E-02 -.221E-02
   0.996E+02 -.238E+03 -.197E+04   -.101E+03 0.238E+03 0.197E+04   0.791E+00 0.134E+00 -.236E+01   -.638E-02 0.171E-01 -.864E-02
   -.177E+01 0.714E+01 -.329E+02   -.171E-12 0.341E-12 0.819E-11   0.184E+01 -.718E+01 0.324E+02   -.639E-01 0.126E+00 0.503E+00

 POSITION                                       TOTAL-FORCE (eV/Angst)
      6.45801      7.08167      1.95077        -0.265158      0.772127      2.140141
      7.43572      5.66537      4.57627        -0.118475     -0.017205      0.064559
      8.41343      4.24907      7.20177        -0.326353      0.396035     -1.037759
      8.50288      3.52379      9.41190         0.966326     -0.754393      0.527126
      8.30723      0.82660      0.45800        -0.898740      1.292187     -1.442841
      7.76163      0.32617      2.82594        -0.443283     -0.384044      2.489832
      3.21062      6.91868      8.07694        -1.041285      0.366141     -0.769724
     12.31264      8.33497      5.45144         0.163409      0.019614      0.107400
      2.55881      2.99577      3.70110         1.500648     -0.790438      1.934792
      3.53652      1.57947      6.32660         0.280290     -0.171639     -0.022447
      4.10558      0.44680      8.65966         0.153846      0.437680      0.987181
     11.37101      4.43405      2.42273         0.088235     -0.274527     -1.016268
      0.46544      1.19036      8.11518        -0.360102     -0.480885      0.803540
      7.77260      5.33181      0.99631         0.602858     -0.819468     -0.927773
      8.63813      3.92359      3.18892        -0.333967      0.129442      0.537982
      9.61584      2.50729      5.81443        -0.108221     -0.432306     -0.155566
      3.43531      6.59319      4.06409         0.222418     -0.103209      0.355595
      4.41302      5.17689      6.68959         0.209815      0.228003     -1.176528
      5.22764      3.92358      8.94134        -0.837394     -0.912864      0.242074
     12.53733      8.00949      1.43859        -0.046269     -0.367190      1.419536
      7.61958      9.42191      2.71240         0.050409      0.814295      0.204796
      8.31222      9.26279      4.93926         0.463626      0.011414      0.968877
      9.28993      7.84650      7.56476        -1.529008      0.840160     -2.110085
      9.54447      6.51360      9.50496        -0.111682     -0.246538      0.885018
      1.75086      3.40314      8.78744         0.057377      0.606189      0.974445
      9.12051      7.38826      1.68196         0.478422     -0.842712     -0.521876
      9.84053      6.03956      3.88260         0.045280      0.151739      0.010671
     10.81824      4.62327      6.50810        -0.013725      0.017939      0.093019
     10.16643      0.70036      2.13226         0.926756      0.217585      2.009706
      4.63771      8.70917      4.75776        -0.049197     -0.223411      0.256606
      5.61542      7.29287      7.38327         0.411216     -0.030583     -1.776401
      6.82189      6.16146      9.59158         0.541072      0.962968      0.886416
      4.23000      6.23031      1.42377         1.048435     -0.090420     -0.155918
      5.91243      3.40048      3.87038        -0.319739     -0.213231     -0.649507
      5.94133      1.95367      5.63293         0.070821     -1.311651      1.233593
      6.84718      0.64522      8.00066         0.597662      0.476293      0.787245
      1.57981      2.47018      7.00134         0.436994      0.695263     -3.509849
      2.27892      1.39654      9.19491        -0.005002     -0.688332      2.182965
      9.70412      5.30277      1.75033        -0.513551      0.713131     -1.570521
     10.68183      3.88647      4.37584        -0.529713      0.105306      1.621263
      4.50130      7.97237      2.62550         0.496424      0.972836      0.934827
      5.47901      6.55607      5.25100         0.133392      0.125695     -0.173572
      6.45673      5.13978      7.87651         1.101742      0.010491     -3.402310
      6.79702      4.19864     10.29213        -0.399743     -1.303949      2.682056
      3.56205      9.30781      0.24390         1.884474      0.143103     -3.456873
      5.80492      1.21687      3.50067         0.361572     -0.300788     -0.866621
     10.35593      9.22568      6.12617         0.156088     -0.717568     -1.575890
     10.73326      8.17921      8.94968         3.572676     -0.552786      1.527587
      7.54712      8.48477      0.90253        -0.567939      2.336285     -3.374964
      8.17302      7.52069      3.51693        -0.599639     -0.160408      2.559489
      9.15074      6.10439      6.14243        -0.018122     -0.062163     -0.329245
     10.12845      4.68809      8.76794         0.502955     -0.053330      0.263795
      8.55817      2.11980      2.04108        -0.707196      1.840505     -0.983559
      9.47664      0.76519      4.39210        -0.034239     -0.437777      0.521918
      3.94792      8.77399      7.01760        -0.648996     -0.312037     -0.184425
      4.90106      7.00607      9.27263        -0.651614      1.715487      3.204625
      3.29611      4.85108      2.64176         1.273341     -0.481478      1.176234
      4.27382      3.43479      5.26727        -0.912320      0.139712      0.253700
      5.25153      2.01849      7.89277        -0.140419      1.389341     -0.044931
      2.49322      6.27443      0.39989        -1.453265     -1.725169     -1.935598
      5.95883      6.01832      0.27156        -0.450914     -0.609321     -3.443451
      6.64193      4.82628      2.63363        -0.453333      0.114049      0.553019
      7.61964      3.40999      5.25914         0.368897     -0.050104      0.461100
      8.59735      1.99369      7.88464        -0.805970     -0.231996      0.543191
      2.41682      6.07959      6.13430        -0.367351      0.434891     -0.308813
      3.35499      4.79461      8.47673        -0.868340     -0.769242      2.024549
     10.59508      8.78822      1.09154        -1.510071     -0.107437     -1.793155
     11.51884      7.49589      3.50880         0.320891      0.220024      0.867606
      1.44101      2.34346      2.12772         0.496534     -1.346700     -2.505307
      2.74272      0.74039      4.38397        -0.329994      0.137177      0.192082
      7.29374      8.74919      7.00947        -0.706472     -1.014333     -2.402331
      8.03307      7.88398      9.41560        -0.508101      0.558525      2.133954
    total drift:                                0.009537      0.085988      0.025230

  FREE ENERGIE OF THE ION-ELECTRON SYSTEM (eV)
  free  energy   TOTEN  =      -351.84057451 eV

  energy  without entropy=     -350.87495199  energy(sigma->0) =     -351.35776325