 vasp.6.1.0 28Jan20 (build Mar 31 2020 17:42:31) gamma-only

 executed on             LinuxIFC date 2020.04.11  20:28:55

 INCAR:
 POTCAR:    PAW_PBE Ni_pv 06Sep2000
 POTCAR:    PAW_PBE S 06Sep2000
 POTCAR:    PAW_PBE Ni_pv 06Sep2000
   VRHFIN =Ni:

   TITEL  = PAW_PBE Ni_pv 06Sep2000
   POMASS =   58.690; ZVAL   =   16.000    mass and valenz
   ENMAX  =  367.986; ENMIN  =  275.989 eV

 POTCAR:    PAW_PBE S 06Sep2000
   VRHFIN =S : s2p4

   TITEL  = PAW_PBE S 06Sep2000
   POMASS =   32.066; ZVAL   =    6.000    mass and valenz
   ENMAX  =  258.689; ENMIN  =  194.016 eV

 Optimization of the real space projectors (new method)

 maximal supplied QI-value         = 18.90
 optimisation between [QCUT,QGAM] = [ 10.77, 21.73] = [ 32.49,132.25] Ry
 Optimized for a Real-space Cutoff    1.38 Angstroem

   l    n(q)    QCUT    max X(q) W(low)/X(q) W(high)/X(q)  e(spline)
   1      8    10.771     2.836    0.40E-04    0.29E-04    0.12E-06
   1      8    10.771     4.023    0.10E-03    0.48E-04    0.29E-06
   2      8    10.771    73.368    0.42E-03    0.97E-04    0.44E-06
   2      8    10.771    69.010    0.42E-03    0.99E-04    0.45E-06
   0      9    10.771    54.797    0.10E-03    0.56E-04    0.74E-07
   0      9    10.771    24.266    0.89E-04    0.49E-04    0.67E-07
 Optimization of the real space projectors (new method)

 maximal supplied QI-value         = 19.84
 optimisation between [QCUT,QGAM] = [ 10.71, 21.63] = [ 32.15,130.99] Ry
 Optimized for a Real-space Cutoff    1.19 Angstroem

   l    n(q)    QCUT    max X(q) W(low)/X(q) W(high)/X(q)  e(spline)
   0      8    10.715   187.594    0.41E-03    0.53E-04    0.66E-07
   0      8    10.715   164.243    0.41E-03    0.53E-04    0.65E-07
   1      7    10.715    67.533    0.19E-03    0.59E-03    0.68E-07
   1      7    10.715    50.729    0.19E-03    0.58E-03    0.67E-07
  PAW_PBE Ni_pv 06Sep2000               :
  PAW_PBE S 06Sep2000                   :

 POSCAR: Structure 32 made from -102-8.xsd file
  positions in direct lattice
 exchange correlation table for  LEXCH =        8
   RHO(1)=    0.500       N(1)  =     2000
   RHO(2)=  100.500       N(2)  =     4000

 ion  position               nearest neighbor table
   1  0.439  0.464  0.163-  30 2.25  35 2.26  44 2.26  36 2.36  45 2.36   5 2.53  22 2.53
   2  0.491  0.464  0.342-  36 2.26  45 2.26  46 2.36   6 2.53  23 2.53
   3  0.163  0.964  0.073-  27 2.25  37 2.26  38 2.36  34 2.36  11 2.53   7 2.53
   4  0.215  0.964  0.253-  28 2.25  38 2.26  34 2.26  39 2.36  12 2.53   8 2.53
   5  0.439  0.200  0.163-  34 2.25  35 2.26  40 2.26  36 2.36  41 2.36   1 2.53  22 2.53
   6  0.491  0.200  0.342-  36 2.26  41 2.26  42 2.36   2 2.53  23 2.53
   7  0.163  0.700  0.073-  31 2.25  37 2.26  38 2.36  30 2.36  11 2.53   3 2.53
   8  0.215  0.700  0.253-  32 2.25  38 2.26  30 2.26  39 2.36  12 2.53   4 2.53
   9  0.131  0.332  0.139-  35 2.25  27 2.26  31 2.26  28 2.36  32 2.36  18 2.53  14 2.53
  10  0.182  0.332  0.319-  36 2.25  28 2.26  32 2.26  29 2.36  33 2.36  19 2.53  15 2.53
  11  0.355  0.832  0.049-  50 2.25  30 2.36  34 2.36   7 2.53   3 2.53
  12  0.407  0.832  0.229-  51 2.25  30 2.26  34 2.26   8 2.53   4 2.53
  13  0.458  0.832  0.408-  52 2.25
  14  0.939  0.464  0.163-  43 2.25  48 2.26  31 2.26  49 2.36  32 2.36  18 2.53   9 2.53
  15  0.991  0.464  0.342-  49 2.26  32 2.26  33 2.36  19 2.53  10 2.53
  16  0.663  0.964  0.073-  40 2.25  50 2.26  51 2.36  47 2.36  24 2.53  20 2.53
  17  0.715  0.964  0.253-  41 2.25  51 2.26  47 2.26  52 2.36  25 2.53  21 2.53
  18  0.939  0.200  0.163-  47 2.25  48 2.26  27 2.26  49 2.36  28 2.36  14 2.53   9 2.53
  19  0.991  0.200  0.342-  49 2.26  28 2.26  29 2.36  15 2.53  10 2.53
  20  0.663  0.700  0.073-  44 2.25  50 2.26  51 2.36  43 2.36  24 2.53  16 2.53
  21  0.715  0.700  0.253-  45 2.25  51 2.26  43 2.26  52 2.36  25 2.53  17 2.53
  22  0.631  0.332  0.139-  48 2.25  40 2.26  44 2.26  41 2.36  45 2.36   5 2.53   1 2.53
  23  0.682  0.332  0.319-  49 2.25  41 2.26  45 2.26  42 2.36  46 2.36   6 2.53   2 2.53
  24  0.855  0.832  0.049-  37 2.25  43 2.36  47 2.36  20 2.53  16 2.53
  25  0.907  0.832  0.229-  38 2.25  43 2.26  47 2.26  21 2.53  17 2.53
  26  0.958  0.832  0.408-  39 2.25
  27  0.060  0.164  0.060-   3 2.25   9 2.26  18 2.26
  28  0.111  0.164  0.239-   4 2.25  10 2.26  19 2.26   9 2.36  18 2.36
  29  0.163  0.164  0.418-  10 2.36  19 2.36
  30  0.336  0.664  0.149-   1 2.25  12 2.26   8 2.26  11 2.36   7 2.36
  31  0.060  0.500  0.060-   7 2.25   9 2.26  14 2.26
  32  0.111  0.500  0.239-   8 2.25  10 2.26  15 2.26   9 2.36  14 2.36
  33  0.163  0.500  0.418-  10 2.36  15 2.36
  34  0.336  1.000  0.149-   5 2.25  12 2.26   4 2.26  11 2.36   3 2.36
  35  0.316  0.332  0.090-   9 2.25   5 2.26   1 2.26
  36  0.368  0.332  0.269-  10 2.25   6 2.26   2 2.26   1 2.36   5 2.36
  37  0.040  0.832  0.000-  24 2.25   7 2.26   3 2.26
  38  0.092  0.832  0.179-  25 2.25   8 2.26   4 2.26   3 2.36   7 2.36
  39  0.144  0.832  0.359-  26 2.25   8 2.36   4 2.36
  40  0.560  0.164  0.060-  16 2.25  22 2.26   5 2.26
  41  0.611  0.164  0.239-  17 2.25  23 2.26   6 2.26  22 2.36   5 2.36
  42  0.663  0.164  0.418-  23 2.36   6 2.36
  43  0.836  0.664  0.149-  14 2.25  25 2.26  21 2.26  24 2.36  20 2.36
  44  0.560  0.500  0.060-  20 2.25  22 2.26   1 2.26
  45  0.611  0.500  0.239-  21 2.25  23 2.26   2 2.26  22 2.36   1 2.36
  46  0.663  0.500  0.418-  23 2.36   2 2.36
  47  0.836  1.000  0.149-  18 2.25  25 2.26  17 2.26  24 2.36  16 2.36
  48  0.816  0.332  0.090-  22 2.25  18 2.26  14 2.26
  49  0.868  0.332  0.269-  23 2.25  19 2.26  15 2.26  14 2.36  18 2.36
  50  0.540  0.832  0.000-  11 2.25  16 2.26  20 2.26
  51  0.592  0.832  0.179-  12 2.25  17 2.26  21 2.26  20 2.36  16 2.36
  52  0.644  0.832  0.359-  13 2.25  17 2.36  21 2.36

  LATTYP: Found a simple orthorhombic cell.
 ALAT       =     9.5784100000
 B/A-ratio  =     1.1751911892
 C/A-ratio  =     1.7949213288

  Lattice vectors:

 A1 = (   0.0000000000,  -9.5784100000,   0.0000000000)
 A2 = ( -11.2564630382,   0.0000000000,   0.0000000000)
 A3 = (   0.0000000000,   0.0000000000, -17.1924924047)

Analysis of symmetry for initial positions (statically):
 Subroutine PRICEL returns following result:

[...]

   2 primitive cells build up your supercell.

 Routine SETGRP: Setting up the symmetry group for a
 simple orthorhombic supercell.

 Subroutine GETGRP returns: Found  2 space group operations
 (whereof  1 operations were pure point group operations)
 out of a pool of  8 trial point group operations.

The static configuration has the point symmetry C_1 .
 The point group associated with its full space group is C_1h.

Analysis of symmetry for dynamics (positions and initial velocities):
 Subroutine PRICEL returns following result:

  LATTYP: Found a simple orthorhombic cell.
 ALAT       =     5.6282315191
 B/A-ratio  =     1.7018507443
 C/A-ratio  =     3.0546881994

  Lattice vectors:

 A1 = (   5.6282315191,   0.0000000000,   0.0000000000)
 A2 = (   0.0000000000,   9.5784100000,   0.0000000000)
 A3 = (   0.0000000000,   0.0000000000,  17.1924924047)

   2 primitive cells build up your supercell.

 Routine SETGRP: Setting up the symmetry group for a
 simple orthorhombic supercell.

 Subroutine GETGRP returns: Found  2 space group operations
 (whereof  1 operations were pure point group operations)
 out of a pool of  8 trial point group operations.

The dynamic configuration has the point symmetry C_1 .
 The point group associated with its full space group is C_1h.

 Subroutine INISYM returns: Found  2 space group operations
 (whereof  1 operations are pure point group operations),
 and found     2 'primitive' translations

                                     Primitive cell

  volume of cell :     926.8388

  direct lattice vectors                    reciprocal lattice vectors
     5.628231519  0.000000000  0.000000000     0.177675704  0.000000000  0.000000000
     0.000000000  9.578410000  0.000000000     0.000000000  0.104401461  0.000000000
     0.000000000  0.000000000 17.192492405     0.000000000  0.000000000  0.058164923

  length of vectors
     5.628231519  9.578410000 17.192492405     0.177675704  0.104401461  0.058164923

  position of ions in fractional coordinates (direct lattice)
     0.878669980  0.463887997  0.162833771
     0.982373848  0.463887997  0.342246010
     0.430521928  0.963887997  0.252539890
     0.878669980  0.199681997  0.162833771
     0.982373848  0.199681997  0.342246010
     0.430521928  0.699681997  0.252539890
     0.709427456  0.831784997  0.049426756
     0.813131324  0.831784997  0.228838995
     0.916835194  0.831784997  0.408251235
     0.326818060  0.963887997  0.073127651
     0.326818060  0.699681997  0.073127651
     0.261279406  0.331784997  0.139132876
     0.364983274  0.331784997  0.318545115
     0.671126126  0.663569997  0.149232409
     0.671126126  0.999999997  0.149232409
     0.632073738  0.331784997  0.089706120
     0.735777606  0.331784997  0.269118359
     0.119274206  0.163569997  0.059526290
     0.222978076  0.163569997  0.238938529
     0.326681944  0.163569997  0.418350768
     0.119274206  0.499999997  0.059526290
     0.222978076  0.499999997  0.238938529
     0.326681944  0.499999997  0.418350768
     0.080221820  0.831784997  0.000000000
     0.183925688  0.831784997  0.179412239
     0.287629556  0.831784997  0.358824478

  ion indices of the primitive-cell ions
   primitive index   ion index
                 1           1
                 2           2
                 3           4
                 4           5
                 5           6
                 6           8
                 7          11
                 8          12
                 9          13
                10          16
                11          20
                12          22
                13          23
                14          30
                15          34
                16          35
                17          36
                18          40
                19          41
                20          42
                21          44
                22          45
                23          46
                24          50
                25          51
                26          52

 KPOINTS: gamma-point-only calculation. no periodi

Automatic generation of k-mesh.
Space group operators:
 irot       det(A)        alpha          n_x          n_y          n_z        tau_x        tau_y        tau_z
    1     1.000000     0.000000     1.000000     0.000000     0.000000     0.000000     0.000000     0.000000
    2    -1.000000   180.000000     0.000000     1.000000     0.000000     0.000000    -0.336430     0.000000

 Subroutine IBZKPT returns following result:

 Found      1 irreducible k-points:

 Following reciprocal coordinates:
            Coordinates               Weight
  0.000000  0.000000  0.000000      1.000000

 Following cartesian coordinates:
            Coordinates               Weight
  0.000000  0.000000  0.000000      1.000000

 SYSTEM =  "Millerite NiS"
 POSCAR =  Structure 32 made from -102-8.xsd file

 Startparameter for this run:
   NWRITE =      2    write-flag & timer
[...]
      26 -86.4160      27 -92.1406      28 -93.0911      29 -91.7247      30 -93.0729
      31 -92.1406      32 -93.0911      33 -91.7247      34 -93.0729      35 -92.2022
      36 -92.8620      37 -92.0763      38 -93.3442      39 -92.3382      40 -92.1406
      41 -93.0911      42 -91.7247      43 -93.0729      44 -92.1406      45 -93.0911
      46 -91.7247      47 -93.0729      48 -92.2022      49 -92.8620      50 -92.0763
      51 -93.3442      52 -92.3382

 E-fermi :  -0.4871     XC(G=0):  -5.8233     alpha+bet : -5.1393

 k-point     1 :       0.0000    0.0000    0.0000
  band No.  band energies     occupation
      1     -64.5483      2.00000
      2     -64.5483      2.00000
      3     -64.5430      2.00000
      4     -64.5430      2.00000
      5     -64.5034      2.00000
      6     -64.5033      2.00000
      7     -64.4889      2.00000
      8     -64.4888      2.00000
      9     -64.4827      2.00000
     10     -64.4827      2.00000
     11     -64.4421      2.00000
     12     -64.4421      2.00000
     13     -64.4218      2.00000
     14     -64.4217      2.00000
     15     -64.3861      2.00000
     16     -64.3861      2.00000
     17     -64.3719      2.00000
     18     -64.3718      2.00000
     19     -64.3597      2.00000
     20     -64.3597      2.00000
     21     -64.3034      2.00000
     22     -64.3034      2.00000
     23     -64.2396      2.00000
     24     -64.2396      2.00000
     25     -64.2063      2.00000
     26     -64.2063      2.00000
     27     -64.1587      2.00000
     28     -64.1587      2.00000
     29     -64.1454      2.00000
     30     -64.1453      2.00000
     31     -64.1249      2.00000
     32     -64.1249      2.00000
     33     -64.1065      2.00000
     34     -64.1065      2.00000
     35     -64.0979      2.00000
     36     -64.0979      2.00000
     37     -64.0876      2.00000
     38     -64.0876      2.00000
     39     -64.0709      2.00000
     40     -64.0709      2.00000
     41     -64.0708      2.00000
     42     -64.0708      2.00000
     43     -64.0521      2.00000
     44     -64.0521      2.00000
     45     -64.0063      2.00000
     46     -64.0061      2.00000
     47     -63.9070      2.00000
     48     -63.9069      2.00000
     49     -63.8951      2.00000
     50     -63.8951      2.00000
     51     -63.8315      2.00000
     52     -63.8315      2.00000
     53     -63.8266      2.00000
     54     -63.8266      2.00000
     55     -63.8257      2.00000
     56     -63.8257      2.00000
     57     -63.8084      2.00000
     58     -63.8084      2.00000
     59     -63.7296      2.00000
     60     -63.7296      2.00000
[...]
    330       4.4706      0.00000
    331       4.5392      0.00000
    332       4.6172      0.00000
    333       4.6456      0.00000
    334       4.8265      0.00000
    335       4.9341      0.00000
    336       4.9453      0.00000
    337       4.9477      0.00000
    338       4.9657      0.00000
    339       5.0498      0.00000
    340       5.1603      0.00000
    341       5.2399      0.00000
    342       5.3030      0.00000
    343       5.3769      0.00000
    344       5.4050      0.00000

 soft charge-density along one line, spin component           1
         0         1         2         3         4         5         6         7         8         9
 total charge-density along one line

------------------------ aborting loop because EDIFF is reached ----------------------------------------

  FORCE on cell =-STRESS in cart. coord.  units (eV):
  Direction    XX          YY          ZZ          XY          YZ          ZX
  Alpha Z  1046.73971  1046.73971  1046.73971
  Ewald  121677.24694118960.90847************     0.00000     0.00000  -450.67889
  Hartree147313.49653145253.95785************    -0.00127     0.00062  -338.19979
  E(xc)   -3622.23861 -3623.29620 -3625.80072     0.00007    -0.00002     0.10824
  Local  ************************266561.95107     0.00415    -0.00206   779.93168
  n-local  -498.29567  -519.88669  -508.04704     0.00534     0.01462     4.47877
  augment  4168.66931  4201.44191  4173.58622    -0.01944     0.00126     0.61173
  Kinetic  7885.78161  7900.80474  7906.29966    -0.00096     0.00072    -0.44504
  Fock        0.00000     0.00000     0.00000     0.00000     0.00000     0.00000
  Total     -44.49257   -32.52139   -45.81272     0.00000     0.00000    -4.19331
  in kB     -38.45598   -28.10900   -39.59702     0.00000     0.00000    -3.62437

 VOLUME and BASIS-vectors are now :
  energy-cutoff  :      450.00
  volume of cell :     1853.68
      direct lattice vectors                 reciprocal lattice vectors
    11.256463038  0.000000000  0.000000000     0.088837852  0.000000000  0.000000000
     0.000000000  9.578410000  0.000000000     0.000000000  0.104401461  0.000000000
     0.000000000  0.000000000 17.192492405     0.000000000  0.000000000  0.058164923

  length of vectors
    11.256463038  9.578410000 17.192492405     0.088837852  0.104401461  0.058164923

 FORCES acting on ions
    electron-ion (+dipol)            ewald-force                    non-local-force                 convergence-correction
   0.294E+03 -.375E+03 0.113E+04   -.295E+03 0.375E+03 -.114E+04   0.868E+00 -.484E+00 0.447E+01   0.223E-02 -.517E-03 -.913E-02
   0.416E+03 -.613E+03 -.285E+04   -.408E+03 0.609E+03 0.285E+04   -.673E+01 0.350E+01 0.136E+01   -.763E-03 0.122E-01 -.122E-02
   0.119E+03 -.633E+03 0.277E+04   -.122E+03 0.634E+03 -.277E+04   0.238E+01 -.957E+00 0.198E+01   -.633E-02 0.417E-02 0.319E-02
   0.416E+02 -.396E+03 -.135E+04   -.431E+02 0.394E+03 0.134E+04   0.770E+00 0.146E+01 0.885E+00   -.332E-02 -.447E-02 -.271E-02
   0.294E+03 0.375E+03 0.113E+04   -.295E+03 -.375E+03 -.114E+04   0.868E+00 0.484E+00 0.447E+01   0.223E-02 0.518E-03 -.913E-02
   0.416E+03 0.613E+03 -.285E+04   -.408E+03 -.609E+03 0.285E+04   -.673E+01 -.350E+01 0.136E+01   -.764E-03 -.122E-01 -.122E-02
   0.119E+03 0.633E+03 0.277E+04   -.122E+03 -.634E+03 -.277E+04   0.238E+01 0.957E+00 0.198E+01   -.633E-02 -.417E-02 0.319E-02
   0.416E+02 0.396E+03 -.135E+04   -.431E+02 -.394E+03 0.134E+04   0.770E+00 -.146E+01 0.885E+00   -.332E-02 0.447E-02 -.271E-02
   -.474E+03 0.448E-02 0.184E+04   0.478E+03 0.272E-13 -.184E+04   -.302E+01 0.466E-20 0.485E+01   0.152E-02 0.172E-05 -.872E-02
   -.567E+03 0.540E-02 -.225E+04   0.569E+03 0.127E-12 0.226E+04   -.129E+01 0.411E-19 -.434E+01   0.544E-02 0.188E-05 -.739E-02
   -.350E+03 0.422E-02 0.325E+04   0.353E+03 -.846E-14 -.325E+04   -.297E+01 -.236E-18 -.224E+01   -.314E-02 0.195E-06 0.165E-02
   -.426E+03 0.484E-02 -.787E+03   0.424E+03 0.335E-13 0.783E+03   0.250E+01 0.143E-19 0.223E+01   0.222E-02 0.133E-06 0.397E-02
   0.183E+03 0.538E-02 -.326E+04   -.168E+03 -.650E-13 0.325E+04   -.135E+02 0.321E-18 0.124E+02   0.186E-02 0.277E-06 0.262E-02
   0.294E+03 -.375E+03 0.113E+04   -.295E+03 0.375E+03 -.114E+04   0.868E+00 -.484E+00 0.447E+01   0.223E-02 -.517E-03 -.913E-02
   0.416E+03 -.613E+03 -.285E+04   -.408E+03 0.609E+03 0.285E+04   -.673E+01 0.350E+01 0.136E+01   -.763E-03 0.122E-01 -.122E-02
   0.119E+03 -.633E+03 0.277E+04   -.122E+03 0.634E+03 -.277E+04   0.238E+01 -.957E+00 0.198E+01   -.633E-02 0.417E-02 0.319E-02
   0.416E+02 -.396E+03 -.135E+04   -.431E+02 0.394E+03 0.134E+04   0.770E+00 0.146E+01 0.885E+00   -.332E-02 -.447E-02 -.271E-02
   0.294E+03 0.375E+03 0.113E+04   -.295E+03 -.375E+03 -.114E+04   0.868E+00 0.484E+00 0.447E+01   0.223E-02 0.518E-03 -.913E-02
   0.416E+03 0.613E+03 -.285E+04   -.408E+03 -.609E+03 0.285E+04   -.673E+01 -.350E+01 0.136E+01   -.764E-03 -.122E-01 -.122E-02
   0.119E+03 0.633E+03 0.277E+04   -.122E+03 -.634E+03 -.277E+04   0.238E+01 0.957E+00 0.198E+01   -.633E-02 -.417E-02 0.319E-02
   0.416E+02 0.396E+03 -.135E+04   -.431E+02 -.394E+03 0.134E+04   0.770E+00 -.146E+01 0.885E+00   -.332E-02 0.447E-02 -.271E-02
   -.474E+03 0.448E-02 0.184E+04   0.478E+03 -.263E-13 -.184E+04   -.302E+01 0.362E-20 0.485E+01   0.152E-02 0.172E-05 -.872E-02
   -.567E+03 0.540E-02 -.225E+04   0.569E+03 -.906E-13 0.226E+04   -.129E+01 0.116E-19 -.434E+01   0.544E-02 0.188E-05 -.739E-02
   -.350E+03 0.422E-02 0.325E+04   0.353E+03 0.318E-13 -.325E+04   -.297E+01 0.400E-18 -.224E+01   -.314E-02 0.195E-06 0.165E-02
   -.426E+03 0.484E-02 -.787E+03   0.424E+03 0.810E-13 0.783E+03   0.250E+01 -.252E-19 0.223E+01   0.222E-02 0.133E-06 0.397E-02
   0.183E+03 0.538E-02 -.326E+04   -.168E+03 -.363E-13 0.325E+04   -.135E+02 0.279E-18 0.124E+02   0.186E-02 0.277E-06 0.262E-02
   0.390E+02 -.532E+02 0.135E+04   -.400E+02 0.536E+02 -.135E+04   0.158E+01 -.707E+00 0.558E+01   0.171E-02 0.138E-02 0.889E-03
   -.722E+02 0.166E+03 -.186E+03   0.740E+02 -.168E+03 0.185E+03   -.199E+01 0.252E+01 0.140E+01   0.106E-02 -.197E-02 -.559E-02
   -.133E+03 0.162E+03 -.140E+04   0.134E+03 -.164E+03 0.140E+04   -.241E+01 0.253E+01 -.423E+01   0.600E-03 -.409E-02 0.302E-02
   -.814E+02 0.191E+03 0.514E+03   0.822E+02 -.193E+03 -.514E+03   -.827E+00 0.189E+01 0.268E+00   -.154E-02 -.227E-02 0.957E-03
   0.390E+02 0.532E+02 0.135E+04   -.400E+02 -.536E+02 -.135E+04   0.158E+01 0.707E+00 0.558E+01   0.171E-02 -.138E-02 0.889E-03
   -.722E+02 -.166E+03 -.186E+03   0.740E+02 0.168E+03 0.185E+03   -.199E+01 -.252E+01 0.140E+01   0.106E-02 0.197E-02 -.559E-02
   -.133E+03 -.162E+03 -.140E+04   0.134E+03 0.164E+03 0.140E+04   -.241E+01 -.253E+01 -.423E+01   0.600E-03 0.409E-02 0.302E-02
   -.814E+02 -.191E+03 0.514E+03   0.822E+02 0.193E+03 -.514E+03   -.827E+00 -.189E+01 0.268E+00   -.154E-02 0.227E-02 0.957E-03
   0.615E+02 -.567E-05 0.121E+04   -.614E+02 -.508E-13 -.121E+04   -.209E+00 -.523E-19 0.625E+01   -.183E-02 0.291E-06 0.183E-03
   0.170E+03 -.466E-05 -.466E+03   -.173E+03 0.691E-14 0.467E+03   0.315E+01 0.542E-19 0.598E+00   -.141E-02 0.349E-06 -.518E-02
   0.789E+02 0.417E-04 0.148E+04   -.792E+02 0.389E-13 -.149E+04   0.504E+00 0.385E-19 0.494E+01   0.450E-02 -.186E-06 -.130E-02
   0.174E+03 -.300E-04 0.179E+03   -.175E+03 0.678E-13 -.179E+03   0.192E+01 -.356E-19 0.345E+00   0.173E-02 -.269E-06 -.741E-03
   -.650E+02 0.685E-05 -.120E+04   0.678E+02 0.286E-13 0.120E+04   -.362E+01 0.327E-22 -.390E+01   -.461E-02 -.224E-06 0.243E-02
   0.390E+02 -.532E+02 0.135E+04   -.400E+02 0.536E+02 -.135E+04   0.158E+01 -.707E+00 0.558E+01   0.171E-02 0.138E-02 0.889E-03
   -.722E+02 0.166E+03 -.186E+03   0.740E+02 -.168E+03 0.185E+03   -.199E+01 0.252E+01 0.140E+01   0.106E-02 -.197E-02 -.559E-02
   -.133E+03 0.162E+03 -.140E+04   0.134E+03 -.164E+03 0.140E+04   -.241E+01 0.253E+01 -.423E+01   0.600E-03 -.409E-02 0.302E-02
   -.814E+02 0.191E+03 0.514E+03   0.822E+02 -.193E+03 -.514E+03   -.827E+00 0.189E+01 0.268E+00   -.154E-02 -.227E-02 0.957E-03
   0.390E+02 0.532E+02 0.135E+04   -.400E+02 -.536E+02 -.135E+04   0.158E+01 0.707E+00 0.558E+01   0.171E-02 -.138E-02 0.889E-03
   -.722E+02 -.166E+03 -.186E+03   0.740E+02 0.168E+03 0.185E+03   -.199E+01 -.252E+01 0.140E+01   0.106E-02 0.197E-02 -.559E-02
   -.133E+03 -.162E+03 -.140E+04   0.134E+03 0.164E+03 0.140E+04   -.241E+01 -.253E+01 -.423E+01   0.600E-03 0.409E-02 0.302E-02
   -.814E+02 -.191E+03 0.514E+03   0.822E+02 0.193E+03 -.514E+03   -.827E+00 -.189E+01 0.268E+00   -.154E-02 0.227E-02 0.957E-03
   0.615E+02 -.567E-05 0.121E+04   -.614E+02 -.492E-13 -.121E+04   -.209E+00 -.165E-21 0.625E+01   -.183E-02 0.291E-06 0.183E-03
   0.170E+03 -.466E-05 -.466E+03   -.173E+03 0.114E-13 0.467E+03   0.315E+01 -.105E-18 0.598E+00   -.141E-02 0.349E-06 -.518E-02
   0.789E+02 0.417E-04 0.148E+04   -.792E+02 0.311E-13 -.149E+04   0.504E+00 -.212E-18 0.494E+01   0.450E-02 -.186E-06 -.130E-02
   0.174E+03 -.300E-04 0.179E+03   -.175E+03 0.917E-13 -.179E+03   0.192E+01 -.325E-19 0.345E+00   0.173E-02 -.269E-06 -.741E-03
   -.650E+02 0.685E-05 -.120E+04   0.678E+02 0.158E-13 0.120E+04   -.362E+01 -.102E-19 -.390E+01   -.461E-02 -.224E-06 0.243E-02
   0.588E+02 0.563E-01 -.891E+02   0.739E-12 -.297E-12 -.455E-11   -.585E+02 -.133E-14 0.892E+02   -.128E-01 0.608E-05 -.674E-01

 POSITION                                       TOTAL-FORCE (eV/Angst)
      4.94536      4.44331      2.79952        -0.238266      0.025336     -0.240081
      5.52903      4.44331      5.88406         1.171764     -0.091200     -0.054544
      1.83941      9.23251      1.25725        -0.865704     -0.193002      0.308085
      2.42308      9.23251      4.34179        -0.734427     -0.459967     -0.128005
      4.94536      1.91264      2.79952        -0.238266     -0.025336     -0.240081
      5.52903      1.91264      5.88406         1.171764      0.091200     -0.054544
      1.83941      6.70184      1.25725        -0.865704      0.193002      0.308085
      2.42308      6.70184      4.34179        -0.734427      0.459967     -0.128005
      1.47054      3.17797      2.39204         0.424346     -0.000000     -0.299337
      2.05421      3.17797      5.47658         0.095458     -0.000000      0.672417
      3.99282      7.96718      0.84977         0.704301     -0.000000      1.150743
      4.57649      7.96718      3.93431         0.320900     -0.000000     -0.877914
      5.16016      7.96718      7.01886         1.455593     -0.000000     -1.845644
     10.57359      4.44331      2.79952        -0.238266      0.025336     -0.240081
     11.15726      4.44331      5.88406         1.171764     -0.091200     -0.054544
      7.46764      9.23251      1.25725        -0.865704     -0.193002      0.308085
      8.05131      9.23251      4.34179        -0.734427     -0.459967     -0.128005
     10.57359      1.91264      2.79952        -0.238266     -0.025336     -0.240081
     11.15726      1.91264      5.88406         1.171764      0.091200     -0.054544
      7.46764      6.70184      1.25725        -0.865704      0.193002      0.308085
      8.05131      6.70184      4.34179        -0.734427      0.459967     -0.128005
      7.09877      3.17797      2.39204         0.424346     -0.000000     -0.299337
      7.68244      3.17797      5.47658         0.095458     -0.000000      0.672417
      9.62105      7.96718      0.84977         0.704301     -0.000000      1.150743
     10.20472      7.96718      3.93431         0.320900     -0.000000     -0.877914
     10.78839      7.96718      7.01886         1.455593     -0.000000     -1.845644
      0.67130      1.56674      1.02341         0.596435     -0.292410      0.241199
      1.25497      1.56674      4.10795        -0.169251      0.253439      0.400137
      1.83864      1.56674      7.19249        -1.112660      0.714761     -1.323181
      3.77725      6.35595      2.56568        -0.035838      0.323506     -0.269543
      0.67130      4.78920      1.02341         0.596435      0.292410      0.241199
      1.25497      4.78920      4.10795        -0.169251     -0.253439      0.400137
      1.83864      4.78920      7.19249        -1.112660     -0.714761     -1.323181
      3.77725      9.57841      2.56568        -0.035838     -0.323506     -0.269543
      3.55746      3.17797      1.54227        -0.155645     -0.000000      0.826555
      4.14113      3.17797      4.62682         0.235895     -0.000000      1.023916
      0.45151      7.96718      0.00000         0.203096     -0.000000      0.789570
      1.03518      7.96718      3.08454         0.314448     -0.000000      0.303957
      1.61885      7.96718      6.16909        -0.822499     -0.000000      0.387604
      6.29953      1.56674      1.02341         0.596435     -0.292410      0.241199
      6.88320      1.56674      4.10795        -0.169251      0.253439      0.400137
      7.46687      1.56674      7.19249        -1.112660      0.714761     -1.323181
      9.40548      6.35595      2.56568        -0.035838      0.323506     -0.269543
      6.29953      4.78920      1.02341         0.596435      0.292410      0.241199
      6.88320      4.78920      4.10795        -0.169251     -0.253439      0.400137
      7.46687      4.78920      7.19249        -1.112660     -0.714761     -1.323181
      9.40548      9.57841      2.56568        -0.035838     -0.323506     -0.269543
      9.18569      3.17797      1.54227        -0.155645     -0.000000      0.826555
      9.76936      3.17797      4.62682         0.235895     -0.000000      1.023916
      6.07974      7.96718      0.00000         0.203096     -0.000000      0.789570
      6.66341      7.96718      3.08454         0.314448     -0.000000      0.303957
      7.24708      7.96718      6.16909        -0.822499     -0.000000      0.387604
    total drift:                                0.305038      0.056316      0.074272

  FREE ENERGIE OF THE ION-ELECTRON SYSTEM (eV)
  free  energy   TOTEN  =      -247.69773226 eV

  energy  without entropy=     -246.84392224  energy(sigma->0) =     -247.27082725