 vasp.5.4.4.18Apr17-6-g9f103f2a35 (build Aug 13 2019 17:33:20) gamma-only

 executed on             LinuxIFC date 2020.05.12  05:57:16

 INCAR:
 POTCAR:    PAW_PBE Ni_pv 06Sep2000
 POTCAR:    PAW_PBE S 06Sep2000
 POTCAR:    PAW_PBE Ni_pv 06Sep2000
   VRHFIN =Ni:

   TITEL  = PAW_PBE Ni_pv 06Sep2000
   POMASS =   58.690; ZVAL   =   16.000    mass and valenz
   ENMAX  =  367.986; ENMIN  =  275.989 eV

 POTCAR:    PAW_PBE S 06Sep2000
   VRHFIN =S : s2p4

   TITEL  = PAW_PBE S 06Sep2000
   POMASS =   32.066; ZVAL   =    6.000    mass and valenz
   ENMAX  =  258.689; ENMIN  =  194.016 eV

 Optimization of the real space projectors (new method)

 maximal supplied QI-value         = 18.90
 optimisation between [QCUT,QGAM] = [ 10.77, 21.73] = [ 32.49,132.25] Ry
 Optimized for a Real-space Cutoff    1.38 Angstroem

   l    n(q)    QCUT    max X(q) W(low)/X(q) W(high)/X(q)  e(spline)
   1      8    10.771     2.836    0.40E-04    0.29E-04    0.12E-06
   1      8    10.771     4.023    0.10E-03    0.48E-04    0.29E-06
   2      8    10.771    73.368    0.42E-03    0.97E-04    0.44E-06
   2      8    10.771    69.010    0.42E-03    0.99E-04    0.45E-06
   0      9    10.771    54.797    0.10E-03    0.56E-04    0.74E-07
   0      9    10.771    24.266    0.89E-04    0.49E-04    0.67E-07
 Optimization of the real space projectors (new method)

 maximal supplied QI-value         = 19.84
 optimisation between [QCUT,QGAM] = [ 10.71, 21.63] = [ 32.15,130.99] Ry
 Optimized for a Real-space Cutoff    1.19 Angstroem

   l    n(q)    QCUT    max X(q) W(low)/X(q) W(high)/X(q)  e(spline)
   0      8    10.715   187.594    0.41E-03    0.53E-04    0.66E-07
   0      8    10.715   164.243    0.41E-03    0.53E-04    0.65E-07
   1      7    10.715    67.533    0.19E-03    0.59E-03    0.68E-07
   1      7    10.715    50.729    0.19E-03    0.58E-03    0.67E-07
  PAW_PBE Ni_pv 06Sep2000               :
  PAW_PBE S 06Sep2000                   :

 POSCAR: Type_038 Type_138
  positions in cartesian coordinates
 exchange correlation table for  LEXCH =        8
   RHO(1)=    0.500       N(1)  =     2000
   RHO(2)=  100.500       N(2)  =     4000

 ion  position               nearest neighbor table
   1  0.780  0.145  0.128-  51 2.06  66 2.06  43 2.25  52 2.36  67 2.36
   2  0.803  0.145  0.292-  67 2.03  52 2.03  44 2.07
   3  0.224  0.645  0.100-  45 2.02  46 2.21  64 2.23  53 2.23   4 2.34
   4  0.297  0.645  0.222-  65 2.14  54 2.14  46 2.25  53 2.26  64 2.26   3 2.34  29 2.53  16 2.53

   5  0.470  0.145  0.254-  71 2.09  56 2.09  48 2.25  55 2.28  70 2.28  32 2.53  19 2.53
   6  0.952  0.645  0.159-  69 2.08  58 2.08  49 2.25  57 2.36  68 2.36  33 2.53  20 2.53
   7  0.969  0.645  0.320-  68 2.03  57 2.03  50 2.06
   8  0.183  0.145  0.052-  47 2.01  75 2.06  59 2.06   9 2.47
   9  0.125  0.145  0.191-  75 2.15  59 2.15  40 2.25  10 2.34  60 2.36  76 2.36   8 2.47  35 2.53
                            22 2.53
  10  0.104  0.145  0.333-  39 2.02  76 2.15  60 2.15   9 2.34
  11  0.608  0.645  0.096-  61 2.07  72 2.07  41 2.25  62 2.36  73 2.36
  12  0.642  0.645  0.285-  74 2.02  63 2.02  42 2.25  62 2.26  73 2.26  38 2.53  25 2.53
  13  0.910  0.005  0.125-  66 2.07  67 2.09  58 2.10  40 2.19
  14  0.943  0.012  0.277-  39 2.06  40 2.09  67 2.16  57 2.18
  15  0.393  0.519  0.042-  64 1.99  41 2.01  28 2.41
  16  0.425  0.513  0.197-  65 2.13  55 2.19  41 2.26  64 2.26  42 2.36  17 2.40  29 2.53   4 2.53

  17  0.468  0.461  0.334-  56 2.00  65 2.06  42 2.06  16 2.40
  18  0.604  0.932  0.094-  61 2.02  62 2.12  43 2.23  70 2.23  19 2.34
  19  0.597  0.013  0.229-  70 2.08  71 2.08  44 2.13  62 2.25  43 2.26  18 2.34   5 2.53  32 2.53

[...]

  36  0.292  0.313  0.313-  48 2.03  65 2.04  60 2.05  35 2.51
  37  0.749  0.815  0.104-  61 2.07  66 2.08  62 2.08  49 2.19
  38  0.770  0.777  0.260-  63 2.02  50 2.10  67 2.25  62 2.26  49 2.26  12 2.53  25 2.53
  39  0.989  0.145  0.365-  10 2.02  27 2.06  14 2.06
  40  0.991  0.145  0.189-  27 2.09  14 2.09  26 2.19  13 2.19   9 2.25
  41  0.474  0.645  0.094-  15 2.01  28 2.01  11 2.25  29 2.26  16 2.26
  42  0.509  0.645  0.284-  17 2.06  30 2.06  12 2.25  29 2.36  16 2.36
  43  0.647  0.145  0.126-  31 2.23  18 2.23   1 2.25  32 2.26  19 2.26  44 2.71
  44  0.681  0.145  0.288-   2 2.07  32 2.13  19 2.13  43 2.71
  45  0.118  0.645  0.043-   3 2.02  33 2.05  20 2.05
  46  0.164  0.645  0.220-  34 2.05  21 2.05   3 2.21   4 2.25  33 2.36  20 2.36
  47  0.299  0.145  0.078-   8 2.01  22 2.07  35 2.07
  48  0.336  0.145  0.252-  23 2.03  36 2.03   5 2.25  35 2.36  22 2.36
  49  0.819  0.645  0.157-  37 2.19  24 2.19   6 2.25  38 2.26  25 2.26  50 2.76
  50  0.847  0.645  0.324-   7 2.06  25 2.10  38 2.10  49 2.76
  51  0.810  0.310  0.052-   1 2.06  26 2.07  24 2.08  52 2.77
  52  0.829  0.314  0.221-   2 2.03  26 2.09  27 2.16  25 2.25   1 2.36  51 2.77
  53  0.312  0.814  0.126-  28 1.99   3 2.23  22 2.25   4 2.26  29 2.26
  54  0.352  0.793  0.303-  23 2.04  30 2.06  29 2.13   4 2.14
  55  0.494  0.327  0.166-  32 2.08  16 2.19  31 2.23   5 2.28
  56  0.527  0.281  0.334-  17 2.00  32 2.08   5 2.09  71 2.61
  57  0.001  0.814  0.252-  34 2.03   7 2.03  14 2.18   6 2.36  33 2.36  58 2.75
  58  0.968  0.822  0.087-   6 2.08  33 2.09  13 2.10  57 2.75
  59  0.141  0.320  0.110-   8 2.06  35 2.13   9 2.15  20 2.15
  60  0.174  0.314  0.284-  36 2.05  21 2.10  10 2.15   9 2.36  35 2.36
  61  0.659  0.792  0.020-  18 2.02  11 2.07  37 2.07  62 2.77
  62  0.657  0.814  0.189-  37 2.08  18 2.12  19 2.25  38 2.26  12 2.26  11 2.36  61 2.77
  63  0.695  0.790  0.357-  38 2.02  12 2.02  74 2.77
  64  0.312  0.477  0.126-  15 1.99   3 2.23  35 2.25   4 2.26  16 2.26
  65  0.352  0.498  0.303-  36 2.04  17 2.06  16 2.13   4 2.14
  66  0.810  0.981  0.052-   1 2.06  13 2.07  37 2.08  67 2.77
  67  0.829  0.977  0.221-   2 2.03  13 2.09  14 2.16  38 2.25   1 2.36  66 2.77
  68  0.001  0.477  0.252-  21 2.03   7 2.03  27 2.18   6 2.36  20 2.36  69 2.75
  69  0.968  0.468  0.087-   6 2.08  20 2.09  26 2.10  68 2.75
  70  0.494  0.964  0.166-  19 2.08  29 2.19  18 2.23   5 2.28
  71  0.527  0.009  0.334-  30 2.00  19 2.08   5 2.09  56 2.61
  72  0.659  0.498  0.020-  31 2.02  11 2.07  24 2.07  73 2.77
  73  0.657  0.477  0.189-  24 2.08  31 2.12  32 2.25  25 2.26  12 2.26  11 2.36  72 2.77
  74  0.695  0.501  0.357-  25 2.02  12 2.02  63 2.77
  75  0.141  0.970  0.110-   8 2.06  22 2.13   9 2.15  33 2.15
  76  0.174  0.977  0.284-  23 2.05  34 2.10  10 2.15   9 2.36  22 2.36

  LATTYP: Found a simple orthorhombic cell.
 ALAT       =     9.5784100000
 B/A-ratio  =     1.7016870630
 C/A-ratio  =     1.7627867312

  Lattice vectors:

 A1 = (   0.0000000000,   9.5784100000,   0.0000000000)
 A2 = (   0.0000000000,   0.0000000000, -16.2994563815)
 A3 = ( -16.8846940542,   0.0000000000,   0.0000000000)

Analysis of symmetry for initial positions (statically):
 Subroutine PRICEL returns:
 Original cell was already a primitive cell.

 Routine SETGRP: Setting up the symmetry group for a
 simple orthorhombic supercell.

 Subroutine GETGRP returns: Found  2 space group operations
 (whereof  1 operations were pure point group operations)
 out of a pool of  8 trial point group operations.

The static configuration has the point symmetry C_1 .
 The point group associated with its full space group is C_1h.

Analysis of symmetry for dynamics (positions and initial velocities):
 Subroutine PRICEL returns:
 Original cell was already a primitive cell.

 Routine SETGRP: Setting up the symmetry group for a
 simple orthorhombic supercell.

 Subroutine GETGRP returns: Found  2 space group operations
 (whereof  1 operations were pure point group operations)
 out of a pool of  8 trial point group operations.

The dynamic configuration has the point symmetry C_1 .
 The point group associated with its full space group is C_1h.

 Subroutine INISYM returns: Found  2 space group operations
 (whereof  1 operations are pure point group operations),
 and found     1 'primitive' translations

 KPOINTS: gamma-point-only calculation. no periodi

Automatic generation of k-mesh.
Space group operators:
 irot       det(A)        alpha          n_x          n_y          n_z        tau_x        tau_y        tau_z
    1     1.000000     0.000000     1.000000     0.000000     0.000000     0.000000     0.000000     0.000000
    2    -1.000000   180.000000     0.000000     1.000000     0.000000     0.000000     0.290594     0.000000

 Subroutine IBZKPT returns following result:

 Found      1 irreducible k-points:

 Following reciprocal coordinates:
            Coordinates               Weight
  0.000000  0.000000  0.000000      1.000000

 Following cartesian coordinates:
            Coordinates               Weight
  0.000000  0.000000  0.000000      1.000000

 SYSTEM =  "Millerite NiS"
 POSCAR =  Type_038 Type_138

 Startparameter for this run:
   NWRITE =      2    write-flag & timer
   PREC   = normal    normal or accurate (medium, high low for compatibility)
   ISTART =      0    job   : 0-new  1-cont  2-samecut
   ICHARG =      2    charge: 1-file 2-atom 10-const
   ISPIN  =      1    spin polarized calculation?
   LNONCOLLINEAR =      F non collinear calculations
   LSORBIT =      F    spin-orbit coupling
   INIWAV =      1    electr: 0-lowe 1-rand  2-diag
   LASPH  =      F    aspherical Exc in radial PAW
   METAGGA=      F    non-selfconsistent MetaGGA calc.

 Electronic Relaxation 1
   ENCUT  =  450.0 eV  33.07 Ry    5.75 a.u.  29.20 16.57 28.19*2*pi/ulx,y,z
   ENINI  =  450.0     initial cutoff
   ENAUG  =  703.4 eV  augmentation charge cutoff
   NELM   =    100;   NELMIN=  2; NELMDL= -5     # of ELM steps
   EDIFF  = 0.1E-03   stopping-criterion for ELM
   LREAL  =      T    real-space projection
   NLSPLINE    = F    spline interpolate recip. space projectors
   LCOMPAT=      F    compatible to vasp.4.4
   GGA_COMPAT  = T    GGA compatible to vasp.4.4-vasp.4.6
   LMAXPAW     = -100 max onsite density
   LMAXMIX     =    2 max onsite mixed and CHGCAR
   VOSKOWN=      0    Vosko Wilk Nusair interpolation
   ROPT   =   -0.00050  -0.00050
 Ionic relaxation
   EDIFFG = 0.1E-02   stopping-criterion for IOM
   NSW    =      0    number of steps for IOM
   NBLOCK =      1;   KBLOCK =      1    inner block; outer block
   IBRION =     -1    ionic relax: 0-MD 1-quasi-New 2-CG
   NFREE  =      0    steps in history (QN), initial steepest desc. (CG)
   ISIF   =      2    stress and relaxation
   IWAVPR =     10    prediction:  0-non 1-charg 2-wave 3-comb
   ISYM   =      2    0-nonsym 1-usesym 2-fastsym
   LCORR  =      T    Harris-Foulkes like correction to forces

   POTIM  = 0.5000    time-step for ionic-motion
   TEIN   =    0.0    initial temperature
   TEBEG  =    0.0;   TEEND  =   0.0 temperature during run
   SMASS  =  -3.00    Nose mass-parameter (am)
   estimated Nose-frequenzy (Omega)   =  0.10E-29 period in steps =****** mass=  -0.652E-26a.u.
   SCALEE = 1.0000    scale energy and forces
   NPACO  =    256;   APACO  = 16.0  distance and # of slots for P.C.
   PSTRESS=    0.0 pullay stress

  Mass of Ions in am
   POMASS =  58.69 32.07
  Ionic Valenz
   ZVAL   =  16.00  6.00
  Atomic Wigner-Seitz radii
[...]

  length of vectors
    16.884694054  9.578410000 16.299456382     0.059225237  0.104401461  0.061351739

 FORCES acting on ions
    electron-ion (+dipol)            ewald-force                    non-local-force                 convergence-correction
   0.399E+03 -.851E-03 0.191E+04   -.403E+03 0.125E-07 -.191E+04   0.463E+01 0.000E+00 0.651E+01   0.101E-01 -.717E-08 -.870E-02
   0.392E+03 -.743E-03 -.301E+04   -.394E+03 0.439E-08 0.301E+04   0.162E+01 0.000E+00 0.104E+01   0.280E-01 0.366E-07 -.497E-02
   0.891E+02 -.869E-03 0.285E+04   -.900E+02 -.213E-07 -.286E+04   0.176E+01 0.000E+00 0.661E+01   0.891E-02 -.115E-06 0.644E-02
   0.417E+03 -.856E-03 -.114E+04   -.418E+03 0.574E-08 0.115E+04   0.129E+01 0.000E+00 -.276E+01   -.201E-01 -.131E-06 -.113E-01
   0.545E+03 -.880E-03 -.114E+04   -.551E+03 0.143E-07 0.114E+04   0.558E+01 0.000E+00 -.693E+00   -.401E-01 0.835E-08 -.334E-02
   0.522E+03 -.761E-03 0.128E+04   -.527E+03 -.704E-08 -.128E+04   0.444E+01 0.000E+00 0.427E+01   0.132E-01 -.675E-07 0.738E-02
   0.257E+03 -.775E-03 -.338E+04   -.258E+03 -.129E-08 0.338E+04   0.134E+01 0.000E+00 0.509E+00   0.172E-01 -.143E-06 0.829E-02
   0.243E+03 -.813E-03 0.411E+04   -.243E+03 0.205E-07 -.411E+04   -.113E+01 0.000E+00 0.530E+01   0.640E-02 0.372E-07 0.182E-01
   0.568E+03 -.836E-03 0.353E+03   -.572E+03 0.380E-07 -.352E+03   0.354E+01 0.000E+00 -.222E+00   0.811E-02 0.399E-08 0.249E-01
   -.412E+02 -.100E-02 -.353E+04   0.385E+02 0.750E-08 0.353E+04   0.400E+01 0.000E+00 -.770E+00   0.956E-02 -.142E-07 -.769E-02
   0.363E+03 -.909E-03 0.239E+04   -.367E+03 -.340E-07 -.240E+04   0.382E+01 0.000E+00 0.535E+01   -.617E-02 -.149E-06 -.866E-02
   0.443E+03 -.816E-03 -.241E+04   -.449E+03 -.417E-07 0.241E+04   0.399E+01 0.000E+00 -.543E+01   0.185E-01 -.109E-06 0.733E-02
   -.440E+03 0.237E+03 0.236E+04   0.445E+03 -.240E+03 -.237E+04   -.343E+01 0.358E+01 0.468E+01   0.958E-02 0.280E-02 0.694E-02
   0.151E+02 0.511E+03 -.233E+04   -.143E+02 -.514E+03 0.233E+04   -.173E+01 0.231E+01 -.381E+01   0.301E-01 0.283E-02 0.105E-01
   -.849E+01 0.834E+03 0.380E+04   0.678E+01 -.829E+03 -.380E+04   0.187E+01 -.562E+01 -.196E+01   -.255E-01 0.120E-02 -.373E-03
   -.204E+03 0.567E+03 0.160E+03   0.206E+03 -.570E+03 -.161E+03   -.168E+01 0.336E+01 0.596E-01   -.421E-01 0.603E-02 -.131E-01
   -.135E+03 0.151E+03 -.354E+04   0.138E+03 -.153E+03 0.354E+04   -.301E+01 0.263E+01 0.101E+01   -.308E-01 -.145E-02 0.737E-03
   0.476E+03 -.496E+03 0.297E+04   -.478E+03 0.498E+03 -.298E+04   0.127E+01 -.131E+01 0.639E+01   -.473E-02 0.483E-02 -.131E-01
   -.189E+03 0.108E+03 -.109E+04   0.192E+03 -.111E+03 0.109E+04   -.172E+01 0.246E+01 -.390E+01   -.356E-02 -.446E-02 -.283E-02
   0.300E+02 0.534E+03 0.194E+04   -.308E+02 -.537E+03 -.194E+04   0.102E+01 0.250E+01 0.487E+01   0.246E-01 -.172E-02 0.804E-02
   -.217E+03 0.151E+03 -.290E+04   0.217E+03 -.153E+03 0.290E+04   0.127E+00 0.241E+01 -.270E+00   0.149E-01 -.354E-02 0.605E-02
   -.490E+03 0.411E+03 0.103E+04   0.492E+03 -.415E+03 -.103E+04   -.210E+01 0.303E+01 0.181E+01   -.625E-02 -.297E-03 0.179E-01
   -.119E+03 0.618E+02 -.314E+04   0.120E+03 -.648E+02 0.314E+04   -.120E+01 0.287E+01 0.209E+01   -.256E-01 0.530E-02 -.513E-02
   -.502E+03 0.360E+02 0.253E+04   0.507E+03 -.371E+02 -.254E+04   -.463E+01 0.173E+01 0.706E+01   0.184E-01 -.605E-02 0.277E-02
   -.355E+03 0.484E+03 -.189E+04   0.358E+03 -.488E+03 0.189E+04   -.195E+01 0.384E+01 -.517E+01   0.197E-01 0.597E-02 0.759E-02
   -.440E+03 -.237E+03 0.236E+04   0.445E+03 0.240E+03 -.237E+04   -.343E+01 -.358E+01 0.468E+01   0.958E-02 -.280E-02 0.694E-02
   0.151E+02 -.511E+03 -.233E+04   -.143E+02 0.514E+03 0.233E+04   -.173E+01 -.231E+01 -.381E+01   0.301E-01 -.283E-02 0.105E-01
   -.849E+01 -.834E+03 0.380E+04   0.678E+01 0.829E+03 -.380E+04   0.187E+01 0.562E+01 -.196E+01   -.255E-01 -.120E-02 -.373E-03
   -.204E+03 -.567E+03 0.160E+03   0.206E+03 0.570E+03 -.161E+03   -.168E+01 -.336E+01 0.596E-01   -.421E-01 -.603E-02 -.131E-01
   -.135E+03 -.151E+03 -.354E+04   0.138E+03 0.153E+03 0.354E+04   -.301E+01 -.263E+01 0.101E+01   -.308E-01 0.145E-02 0.737E-03
   0.476E+03 0.496E+03 0.297E+04   -.478E+03 -.498E+03 -.298E+04   0.127E+01 0.131E+01 0.639E+01   -.473E-02 -.483E-02 -.131E-01
   -.189E+03 -.108E+03 -.109E+04   0.192E+03 0.111E+03 0.109E+04   -.172E+01 -.246E+01 -.390E+01   -.356E-02 0.446E-02 -.283E-02
   0.300E+02 -.534E+03 0.194E+04   -.308E+02 0.537E+03 -.194E+04   0.102E+01 -.250E+01 0.487E+01   0.246E-01 0.172E-02 0.804E-02
   -.217E+03 -.151E+03 -.290E+04   0.217E+03 0.153E+03 0.290E+04   0.127E+00 -.241E+01 -.270E+00   0.149E-01 0.354E-02 0.605E-02
   -.490E+03 -.411E+03 0.103E+04   0.492E+03 0.415E+03 -.103E+04   -.210E+01 -.303E+01 0.181E+01   -.625E-02 0.297E-03 0.179E-01
   -.119E+03 -.618E+02 -.314E+04   0.120E+03 0.648E+02 0.314E+04   -.120E+01 -.287E+01 0.209E+01   -.256E-01 -.530E-02 -.513E-02
   -.502E+03 -.360E+02 0.253E+04   0.507E+03 0.371E+02 -.254E+04   -.463E+01 -.173E+01 0.706E+01   0.184E-01 0.605E-02 0.277E-02
   -.355E+03 -.484E+03 -.189E+04   0.358E+03 0.488E+03 0.189E+04   -.195E+01 -.384E+01 -.517E+01   0.197E-01 -.597E-02 0.759E-02
   0.948E+02 -.257E-04 -.165E+04   -.941E+02 0.183E-07 0.166E+04   -.986E+00 0.000E+00 -.125E+01   0.997E-02 0.235E-07 -.418E-02
   -.219E+03 -.130E-04 0.335E+03   0.220E+03 0.725E-08 -.339E+03   0.136E+00 0.000E+00 0.902E+00   0.114E-01 0.120E-07 0.955E-02
   -.271E+03 0.651E-05 0.963E+03   0.273E+03 -.745E-08 -.966E+03   0.269E+00 0.000E+00 0.184E+01   -.179E-01 -.295E-07 -.300E-02
   -.177E+03 -.498E-04 -.813E+03   0.179E+03 -.146E-07 0.815E+03   -.515E+00 0.000E+00 -.145E+01   -.820E-02 -.256E-07 -.364E-02
   0.205E+02 -.135E-04 0.871E+03   -.192E+02 -.223E-07 -.876E+03   -.711E+00 0.000E+00 0.234E+01   0.700E-02 0.342E-07 -.523E-02
   -.665E+02 -.687E-05 -.111E+04   0.674E+02 0.109E-07 0.112E+04   -.665E-01 0.000E+00 -.257E+01   0.335E-02 0.194E-07 0.143E-02
   0.852E+02 0.124E-04 0.170E+04   -.856E+02 0.462E-08 -.170E+04   0.394E+00 0.000E+00 0.176E+01   0.122E-01 -.198E-07 0.199E-02
   -.137E+03 -.910E-05 -.299E+03   0.137E+03 0.611E-08 0.303E+03   0.157E+01 0.000E+00 -.380E+01   0.635E-02 -.298E-07 0.216E-02
   -.539E+03 -.826E-05 0.133E+04   0.543E+03 0.167E-07 -.133E+04   -.105E+01 0.000E+00 0.961E+00   -.617E-03 0.141E-07 0.590E-02
   -.256E+03 0.377E-05 -.394E+03   0.257E+03 -.262E-08 0.396E+03   0.237E+00 0.000E+00 -.244E+01   -.134E-01 0.174E-07 0.943E-03
   -.238E+03 0.450E-04 0.530E+03   0.239E+03 -.184E-07 -.533E+03   -.516E+00 0.000E+00 0.202E+01   0.112E-02 -.101E-07 0.575E-02
   -.702E+02 0.108E-05 -.134E+04   0.722E+02 0.311E-08 0.135E+04   -.103E+01 0.000E+00 -.267E+01   0.156E-02 -.297E-07 0.371E-04
   -.567E+02 -.365E+02 0.156E+04   0.566E+02 0.367E+02 -.156E+04   0.384E+00 0.302E+00 0.325E+01   0.137E-02 -.465E-02 0.355E-03
   0.109E+03 -.186E+03 -.318E+03   -.110E+03 0.187E+03 0.320E+03   0.455E+00 0.795E-01 -.111E+01   0.623E-02 0.341E-02 -.735E-04
   0.106E+03 -.294E+03 0.744E+03   -.107E+03 0.296E+03 -.747E+03   -.644E+00 -.580E+00 0.337E+01   -.706E-02 -.555E-02 0.783E-03
   0.176E+03 0.311E+02 -.119E+04   -.177E+03 -.305E+02 0.119E+04   -.193E-01 -.257E+00 -.283E+01   -.157E-01 0.325E-03 -.463E-02
   0.241E+03 0.154E+03 0.560E+03   -.244E+03 -.155E+03 -.564E+03   0.979E+00 0.105E+01 0.186E+01   -.138E-01 0.117E-02 -.320E-02
   -.117E+03 0.750E+02 -.145E+04   0.118E+03 -.732E+02 0.145E+04   -.582E+00 -.147E+01 -.238E+01   -.684E-02 -.216E-02 0.474E-02
   0.121E+03 -.164E+03 -.512E+03   -.122E+03 0.166E+03 0.513E+03   -.502E+00 -.793E+00 -.137E+01   0.956E-02 0.617E-02 0.689E-02
   0.701E+02 -.685E+02 0.131E+04   -.715E+02 0.680E+02 -.132E+04   0.808E+00 0.116E+01 0.374E+01   0.635E-02 0.344E-02 -.189E-02
   0.187E+03 -.179E+03 0.102E+04   -.188E+03 0.179E+03 -.103E+04   0.302E-01 0.649E+00 0.170E+01   0.362E-02 0.108E-02 0.849E-02
   0.242E+02 -.119E+03 -.884E+03   -.241E+02 0.120E+03 0.887E+03   -.605E+00 -.160E+01 -.142E+01   -.197E-04 -.258E-02 0.117E-02
[...]
   0.149E+02 -.255E+03 -.160E+04   -.161E+02 0.258E+03 0.160E+04   0.693E+00 -.237E+01 -.608E+00   0.733E-02 -.119E-02 0.227E-02
   0.106E+03 0.294E+03 0.744E+03   -.107E+03 -.296E+03 -.747E+03   -.644E+00 0.580E+00 0.337E+01   -.706E-02 0.555E-02 0.783E-03
   0.176E+03 -.311E+02 -.119E+04   -.177E+03 0.305E+02 0.119E+04   -.193E-01 0.257E+00 -.283E+01   -.157E-01 -.325E-03 -.463E-02
   -.567E+02 0.365E+02 0.156E+04   0.566E+02 -.367E+02 -.156E+04   0.384E+00 -.302E+00 0.325E+01   0.137E-02 0.465E-02 0.355E-03
   0.109E+03 0.186E+03 -.318E+03   -.110E+03 -.187E+03 0.320E+03   0.455E+00 -.795E-01 -.111E+01   0.623E-02 -.341E-02 -.735E-04
   0.121E+03 0.164E+03 -.512E+03   -.122E+03 -.166E+03 0.513E+03   -.502E+00 0.793E+00 -.137E+01   0.956E-02 -.617E-02 0.689E-02
   0.701E+02 0.685E+02 0.131E+04   -.715E+02 -.680E+02 -.132E+04   0.808E+00 -.116E+01 0.374E+01   0.635E-02 -.344E-02 -.189E-02
   0.241E+03 -.154E+03 0.560E+03   -.244E+03 0.155E+03 -.564E+03   0.979E+00 -.105E+01 0.186E+01   -.138E-01 -.117E-02 -.320E-02
   -.117E+03 -.750E+02 -.145E+04   0.118E+03 0.732E+02 0.145E+04   -.582E+00 0.147E+01 -.238E+01   -.684E-02 0.216E-02 0.474E-02
   -.330E+02 0.550E+02 0.172E+04   0.337E+02 -.561E+02 -.172E+04   -.583E+00 0.526E+00 0.309E+01   0.170E-02 -.220E-02 -.843E-02
   0.831E+02 0.584E+02 -.919E+02   -.844E+02 -.584E+02 0.952E+02   0.297E+00 -.528E-01 -.155E+01   0.610E-02 0.784E-04 0.331E-02
   0.149E+02 0.255E+03 -.160E+04   -.161E+02 -.258E+03 0.160E+04   0.693E+00 0.237E+01 -.608E+00   0.733E-02 0.119E-02 0.227E-02
   0.187E+03 0.179E+03 0.102E+04   -.188E+03 -.179E+03 -.103E+04   0.302E-01 -.649E+00 0.170E+01   0.362E-02 -.108E-02 0.849E-02
   0.242E+02 0.119E+03 -.884E+03   -.241E+02 -.120E+03 0.887E+03   -.605E+00 0.160E+01 -.142E+01   -.198E-04 0.258E-02 0.117E-02
   0.454E+00 -.873E-02 -.527E+02   0.141E-11 0.227E-11 0.409E-11   -.321E+00 -.888E-15 0.526E+02   0.216E-01 -.228E-06 0.111E+00

 POSITION                                       TOTAL-FORCE (eV/Angst)
     13.17084      1.39171      2.08012        -0.012277      0.000000      1.916891
     13.55962      1.39171      4.75706         0.011555      0.000000      1.135220
      3.78704      6.18092      1.63661         0.823222      0.000000     -0.030014
      5.02033      6.18092      3.62239         0.350907      0.000000     -0.172318
      7.93172      1.39171      4.13648        -0.671551      0.000000     -2.078282
     16.08224      6.18092      2.59421        -0.491331      0.000000      1.769299
     16.35691      6.18092      5.21520         0.240376      0.000000      0.733823
      3.08423      1.39171      0.83971        -1.002760      0.000000     -2.126569
      2.10894      1.39171      3.10830        -0.948947      0.000000      0.453249
      1.75658      1.39171      5.42208         1.371125      0.000000      0.708494
     10.25945      6.18092      1.56603        -0.546969      0.000000      0.846582
     10.84312      6.18092      4.65057        -2.112986      0.000000     -1.980357
     15.36031      0.04632      2.03562         0.802181      0.655745     -0.520199
     15.92309      0.11794      4.51973        -0.830577     -0.791326      0.047950
      6.64369      4.97419      0.68297         0.127887     -0.541109     -1.171011
      7.17375      4.91558      3.21491         0.456410      0.004470     -1.196779
      7.90165      4.41930      5.44585        -0.282976      0.637186      1.147319
     10.20358      8.92947      1.52435        -0.959914      0.749632     -0.047960
     10.08514      0.12638      3.72900         1.182517      0.137208      0.013401
      1.35096      4.91558      2.18673         0.221901     -0.697517      1.611027
      1.90115      4.81152      4.84492         0.287495      0.258032      1.019675
      4.26235      0.12638      2.70082         0.540145     -1.239468      1.296039
      4.93427      9.36460      5.09569         0.099580     -0.139376      1.169486
     12.64745      4.55835      1.70197         0.473124      0.605585      0.300472
     12.99653      4.91558      4.24309         1.061439     -0.355198     -2.273251
     15.36031      2.73711      2.03562         0.802181     -0.655745     -0.520199
     15.92309      2.66548      4.51973        -0.830577      0.791326      0.047950
      6.64369      7.38765      0.68297         0.127887      0.541109     -1.171011
      7.17375      7.44626      3.21491         0.456410     -0.004470     -1.196779
      7.90165      7.94254      5.44585        -0.282976     -0.637186      1.147319
     10.20358      3.43237      1.52435        -0.959914     -0.749632     -0.047960
     10.08514      2.65705      3.72900         1.182517     -0.137208      0.013401
      1.35096      7.44626      2.18673         0.221901      0.697517      1.611027
      1.90115      7.55032      4.84492         0.287495     -0.258032      1.019675
      4.26235      2.65705      2.70082         0.540145      1.239468      1.296039
      4.93427      2.99724      5.09569         0.099580      0.139376      1.169486
     12.64745      7.80349      1.70197         0.473124     -0.605585      0.300472
     12.99653      7.44626      4.24309         1.061439      0.355198     -2.273251
     16.69175      1.39171      5.95059        -0.263732      0.000000      3.319189
     16.74052      1.39171      3.07977         1.854874      0.000000     -2.195231
      8.00634      6.18092      1.53750         2.639017      0.000000     -0.346534
      8.59001      6.18092      4.62204         1.651437      0.000000      0.604985
     10.91773      1.39171      2.05159         0.540511      0.000000     -2.413031
     11.49091      1.39171      4.70050         0.780601      0.000000      2.527363
      1.99189      6.18092      0.70010         0.090523      0.000000     -4.151206
      2.76722      6.18092      3.59386         1.685284      0.000000     -0.051807
      5.04745      1.39171      1.26638         3.127388      0.000000     -2.686607
      5.67861      1.39171      4.10795         1.580754      0.000000     -0.375114
     13.82913      6.18092      2.56568         1.012630      0.000000     -1.166121
     14.30274      6.18092      5.28743         0.915213      0.000000      2.608903
     13.67772      2.96738      0.84851         0.275631      0.504574     -3.137790
     13.99844      3.00295      3.59863        -0.758723      1.608668      1.389641
      5.26426      7.79215      2.05636        -1.626695      1.238468     -0.071648
      5.93757      7.59532      4.94061        -1.387294      0.423620      2.091346
      8.33479      3.12954      2.71077        -1.847955     -0.198205     -1.671189
      8.90526      2.69472      5.44165         0.321572      0.397295      2.937746
      0.02514      7.79215      4.11272        -0.799964      1.498680      0.417321
     16.34292      7.87812      1.42385        -0.642051      0.722939     -2.889529
      2.37747      3.06783      1.79678        -1.079120      0.722122     -1.436831
      2.93654      3.00295      4.62682        -0.595285     -0.321502      0.905705
     11.11965      7.58824      0.31992         0.135778      0.549917     -3.670924
     11.08705      7.79215      3.08454        -1.023192     -0.036210      1.770942
     11.73918      7.56700      5.81565        -0.464347      1.470523      3.543637
      5.26426      4.56969      2.05636        -1.626695     -1.238468     -0.071648
      5.93757      4.76652      4.94061        -1.387294     -0.423620      2.091346
     13.67772      9.39446      0.84851         0.275631     -0.504574     -3.137790
     13.99844      9.35889      3.59863        -0.758723     -1.608668      1.389641
      0.02514      4.56969      4.11272        -0.799964     -1.498680      0.417321
     16.34292      4.48372      1.42385        -0.642051     -0.722939     -2.889529
      8.33479      9.23230      2.71077        -1.847955      0.198205     -1.671189
      8.90526      0.08871      5.44165         0.321572     -0.397295      2.937746
     11.11965      4.77360      0.31992         0.135778     -0.549917     -3.670924
     11.08705      4.56969      3.08454        -1.023192      0.036210      1.770942
     11.73918      4.79484      5.81565        -0.464347     -1.470523      3.543637
      2.37747      9.29401      1.79678        -1.079120     -0.722122     -1.436831
      2.93654      9.35889      4.62682        -0.595285      0.321502      0.905705
    total drift:                                0.155182     -0.008733     -0.028664

  FREE ENERGIE OF THE ION-ELECTRON SYSTEM (eV)
  free  energy   TOTEN  =      -362.12389675 eV

  energy  without entropy=     -360.97749660  energy(sigma->0) =     -361.55069667