 vasp.5.4.4.18Apr17-6-g9f103f2a35 (build Aug 13 2019 17:33:20) gamma-only

 executed on             LinuxIFC date 2020.05.11  07:37:38

 INCAR:
 POTCAR:    PAW_PBE Ni_pv 06Sep2000
 POTCAR:    PAW_PBE S 06Sep2000
 POTCAR:    PAW_PBE Ni_pv 06Sep2000
   VRHFIN =Ni:

   TITEL  = PAW_PBE Ni_pv 06Sep2000
   POMASS =   58.690; ZVAL   =   16.000    mass and valenz
   ENMAX  =  367.986; ENMIN  =  275.989 eV

 POTCAR:    PAW_PBE S 06Sep2000
   VRHFIN =S : s2p4

   TITEL  = PAW_PBE S 06Sep2000
   POMASS =   32.066; ZVAL   =    6.000    mass and valenz
   ENMAX  =  258.689; ENMIN  =  194.016 eV

 Optimization of the real space projectors (new method)

 maximal supplied QI-value         = 18.90
 optimisation between [QCUT,QGAM] = [ 10.77, 21.73] = [ 32.49,132.25] Ry
 Optimized for a Real-space Cutoff    1.38 Angstroem

   l    n(q)    QCUT    max X(q) W(low)/X(q) W(high)/X(q)  e(spline)
   1      8    10.771     2.836    0.40E-04    0.29E-04    0.12E-06
   1      8    10.771     4.023    0.10E-03    0.48E-04    0.29E-06
   2      8    10.771    73.368    0.42E-03    0.97E-04    0.44E-06
   2      8    10.771    69.010    0.42E-03    0.99E-04    0.45E-06
   0      9    10.771    54.797    0.10E-03    0.56E-04    0.74E-07
   0      9    10.771    24.266    0.89E-04    0.49E-04    0.67E-07
 Optimization of the real space projectors (new method)

 maximal supplied QI-value         = 19.84
 optimisation between [QCUT,QGAM] = [ 10.71, 21.63] = [ 32.15,130.99] Ry
 Optimized for a Real-space Cutoff    1.19 Angstroem

   l    n(q)    QCUT    max X(q) W(low)/X(q) W(high)/X(q)  e(spline)
   0      8    10.715   187.594    0.41E-03    0.53E-04    0.66E-07
   0      8    10.715   164.243    0.41E-03    0.53E-04    0.65E-07
   1      7    10.715    67.533    0.19E-03    0.59E-03    0.68E-07
   1      7    10.715    50.729    0.19E-03    0.58E-03    0.67E-07
  PAW_PBE Ni_pv 06Sep2000               :
  PAW_PBE S 06Sep2000                   :

 POSCAR: Type_048 Type_148
  positions in cartesian coordinates
 exchange correlation table for  LEXCH =        8
   RHO(1)=    0.500       N(1)  =     2000
   RHO(2)=  100.500       N(2)  =     4000

 ion  position               nearest neighbor table
   1  0.261  0.479  0.295-  73 2.25  58 2.26  80 2.26  59 2.36  54 2.36   7 2.53  21 2.53
   2  0.355  0.385  0.426-  60 2.08  65 2.10  74 2.20  54 2.26  59 2.26   8 2.53  22 2.53
   3  0.167  0.073  0.165-  55 2.10  64 2.25  56 2.36  82 2.36  81 2.43  13 2.47  37 2.53  31 2.53

   4  0.029  0.054  0.494-  72 2.02  50 2.03  77 2.04  20 2.50
   5  0.202  0.531  0.056-  51 2.02  57 2.06  79 2.07  38 2.48  29 2.49
   6  0.274  0.333  0.130-  57 2.10  55 2.13  51 2.25  52 2.36  58 2.36  12 2.53  29 2.53
   7  0.368  0.239  0.261-  56 2.25  58 2.26  52 2.26  59 2.36  61 2.36   1 2.53  21 2.53
   8  0.462  0.145  0.391-  60 2.08  62 2.14  78 2.25  59 2.26  61 2.26   2 2.53  22 2.53
   9  0.000  0.372  0.261-  58 2.25  64 2.26  92 2.26  49 2.36  66 2.36  19 2.53  14 2.53
  10  0.094  0.278  0.391-  53 2.07  59 2.25  49 2.26  66 2.26  50 2.36  11 2.48  15 2.53  20 2.53

[...]

  49  0.073  0.167  0.311-  26 2.25  10 2.26  20 2.26   9 2.36  19 2.36
  50  0.167  0.073  0.442-  11 2.02   4 2.03  27 2.25  10 2.36  20 2.36
  51  0.384  0.373  0.055-   5 2.02  12 2.05  38 2.17   6 2.25
  52  0.479  0.261  0.181-  16 2.25   7 2.26  21 2.26  12 2.36   6 2.36
  53  0.019  0.377  0.470-  11 2.01  15 2.07  10 2.07
  54  0.436  0.472  0.355-  33 2.25   2 2.26  22 2.26   1 2.36  21 2.36
  55  0.258  0.157  0.109-  13 2.07   3 2.10  37 2.11   6 2.13
  56  0.342  0.066  0.225-   7 2.25  26 2.26  45 2.26   3 2.36  37 2.36
  57  0.083  0.480  0.109-   5 2.06   6 2.10  29 2.11  24 2.12
  58  0.174  0.397  0.225-   9 2.25   1 2.26   7 2.26   6 2.36  29 2.36
  59  0.268  0.303  0.355-  10 2.25   8 2.26   2 2.26   7 2.36   1 2.36  60 2.71
  60  0.351  0.222  0.468-  11 2.03   8 2.08   2 2.08  59 2.71  65 2.77
  61  0.573  0.167  0.311-  39 2.25  22 2.26   8 2.26  21 2.36   7 2.36  62 2.71
  62  0.664  0.067  0.421-  23 2.03   8 2.14  40 2.21  22 2.24  61 2.71
  63  0.885  0.354  0.062-  17 2.01  18 2.05  24 2.06
  64  0.979  0.261  0.181-   3 2.25  19 2.26   9 2.26  24 2.36  18 2.36
  65  0.530  0.328  0.476-  22 2.03  23 2.06   2 2.10  60 2.77
  66  0.936  0.472  0.355-  44 2.25  15 2.26  10 2.26  14 2.36   9 2.36
  67  0.758  0.156  0.107-  25 2.06  48 2.11  16 2.12  18 2.14
  68  0.842  0.066  0.225-  19 2.25  39 2.26  34 2.26  16 2.36  48 2.36
  69  0.576  0.487  0.100-  17 2.05  12 2.14  38 2.20  18 2.23  41 2.23
  70  0.674  0.397  0.225-  21 2.25  14 2.26  19 2.26  18 2.36  41 2.36
  71  0.768  0.303  0.355-  22 2.25  20 2.26  15 2.26  19 2.36  14 2.36
  72  0.866  0.226  0.475-   4 2.02  23 2.03  15 2.06  20 2.16
  73  0.073  0.667  0.311-   1 2.25  35 2.26  44 2.26  34 2.36  43 2.36  74 2.73
  74  0.170  0.572  0.422-  36 2.03  35 2.19   2 2.20  44 2.21  73 2.73
  75  0.382  0.850  0.057-  13 2.04  31 2.10  30 2.10  37 2.19
  76  0.479  0.761  0.181-  41 2.25  32 2.26  45 2.26  37 2.36  31 2.36
  77  0.024  0.879  0.473-   4 2.04  36 2.05  35 2.12  40 2.16  96 2.66
  78  0.436  0.972  0.355-   8 2.25  27 2.26  46 2.26  26 2.36  45 2.36
  79  0.258  0.660  0.100-   5 2.07  38 2.12  30 2.12  31 2.16  12 2.19  29 2.25
  80  0.342  0.566  0.225-  32 2.25   1 2.26  21 2.26  29 2.36  12 2.36
  81  0.088  0.961  0.094-  13 2.06  31 2.10  48 2.19  30 2.22   3 2.43
  82  0.174  0.897  0.225-  34 2.25  26 2.26  32 2.26  31 2.36   3 2.36
  83  0.268  0.803  0.355-  35 2.25  33 2.26  27 2.26  32 2.36  26 2.36  84 2.71
  84  0.341  0.721  0.468-  28 2.05  36 2.08  33 2.14  27 2.15  83 2.71
  85  0.573  0.667  0.311-  14 2.25  46 2.26  33 2.26  45 2.36  32 2.36
  86  0.675  0.581  0.431-  28 2.07  47 2.14  46 2.17  15 2.23  33 2.35
  87  0.883  0.856  0.062-  25 2.01  42 2.06  48 2.07
  88  0.979  0.761  0.181-  29 2.25  43 2.26  34 2.26  48 2.36  42 2.36
  89  0.535  0.869  0.473-  28 2.03  46 2.08  47 2.15  27 2.23
  90  0.936  0.972  0.355-  20 2.25  40 2.26  35 2.26  39 2.36  34 2.36
  91  0.757  0.656  0.108-  17 2.06  41 2.11  24 2.12  42 2.15
  92  0.842  0.566  0.225-  43 2.25  14 2.26   9 2.26  41 2.36  24 2.36
  93  0.583  0.982  0.107-  25 2.06  42 2.12  16 2.12  37 2.14
  94  0.674  0.897  0.225-  45 2.25  39 2.26  43 2.26  42 2.36  16 2.36
  95  0.768  0.803  0.355-  46 2.25  44 2.26  40 2.26  43 2.36  39 2.36
  96  0.916  0.713  0.477-  47 2.01  44 2.06  40 2.09  77 2.66

  LATTYP: Found a base centered orthorhombic cell.
 ALAT       =    11.8257374459
 B/A-ratio  =     1.6199260857
 C/A-ratio  =     1.9043172636

  Lattice vectors:

 A1 = (  11.2564630382,   0.0000000000,   0.0000000000)
 A2 = (  -5.0445621212, -10.0628203371,   0.0000000000)
 A3 = (   0.0000000000,   0.0000000000, -22.5199559732)

Analysis of symmetry for initial positions (statically):
 Subroutine PRICEL returns:
 Original cell was already a primitive cell.

 Routine SETGRP: Setting up the symmetry group for a
 base centered orthorhombic supercell.

 Subroutine GETGRP returns: Found  1 space group operations
 (whereof  1 operations were pure point group operations)
 out of a pool of  8 trial point group operations.

The static configuration has the point symmetry C_1 .

Analysis of symmetry for dynamics (positions and initial velocities):
 Subroutine PRICEL returns:
 Original cell was already a primitive cell.

 Routine SETGRP: Setting up the symmetry group for a
 base centered orthorhombic supercell.

 Subroutine GETGRP returns: Found  1 space group operations
 (whereof  1 operations were pure point group operations)
 out of a pool of  8 trial point group operations.

The dynamic configuration has the point symmetry C_1 .

 Subroutine INISYM returns: Found  1 space group operations
 (whereof  1 operations are pure point group operations),
 and found     1 'primitive' translations

 KPOINTS: gamma-point-only calculation. no periodi

Automatic generation of k-mesh.
Space group operators:
 irot       det(A)        alpha          n_x          n_y          n_z        tau_x        tau_y        tau_z
    1     1.000000     0.000000     1.000000     0.000000     0.000000     0.000000     0.000000     0.000000

 Subroutine IBZKPT returns following result:

 Found      1 irreducible k-points:

 Following reciprocal coordinates:
            Coordinates               Weight
  0.000000  0.000000  0.000000      1.000000

 Following cartesian coordinates:
            Coordinates               Weight
  0.000000  0.000000  0.000000      1.000000

 SYSTEM =  "Millerite NiS"
 POSCAR =  Type_048 Type_148

 Startparameter for this run:
   NWRITE =      2    write-flag & timer
   PREC   = normal    normal or accurate (medium, high low for compatibility)
   ISTART =      0    job   : 0-new  1-cont  2-samecut
   ICHARG =      2    charge: 1-file 2-atom 10-const
   ISPIN  =      1    spin polarized calculation?
   LNONCOLLINEAR =      F non collinear calculations
   LSORBIT =      F    spin-orbit coupling
   INIWAV =      1    electr: 0-lowe 1-rand  2-diag
   LASPH  =      F    aspherical Exc in radial PAW
   METAGGA=      F    non-selfconsistent MetaGGA calc.

 Electronic Relaxation 1
   ENCUT  =  450.0 eV  33.07 Ry    5.75 a.u.  19.47 19.47 38.95*2*pi/ulx,y,z
   ENINI  =  450.0     initial cutoff
   ENAUG  =  703.4 eV  augmentation charge cutoff
   NELM   =    100;   NELMIN=  2; NELMDL= -5     # of ELM steps
   EDIFF  = 0.1E-03   stopping-criterion for ELM
   LREAL  =      T    real-space projection
   NLSPLINE    = F    spline interpolate recip. space projectors
   LCOMPAT=      F    compatible to vasp.4.4
   GGA_COMPAT  = T    GGA compatible to vasp.4.4-vasp.4.6
   LMAXPAW     = -100 max onsite density
   LMAXMIX     =    2 max onsite mixed and CHGCAR
   VOSKOWN=      0    Vosko Wilk Nusair interpolation
   ROPT   =   -0.00050  -0.00050
 Ionic relaxation
   EDIFFG = 0.1E-02   stopping-criterion for IOM
   NSW    =      0    number of steps for IOM
   NBLOCK =      1;   KBLOCK =      1    inner block; outer block
   IBRION =     -1    ionic relax: 0-MD 1-quasi-New 2-CG
   NFREE  =      0    steps in history (QN), initial steepest desc. (CG)
   ISIF   =      2    stress and relaxation
   IWAVPR =     10    prediction:  0-non 1-charg 2-wave 3-comb
   ISYM   =      2    0-nonsym 1-usesym 2-fastsym
   LCORR  =      T    Harris-Foulkes like correction to forces

   POTIM  = 0.5000    time-step for ionic-motion
   TEIN   =    0.0    initial temperature
   TEBEG  =    0.0;   TEEND  =   0.0 temperature during run
   SMASS  =  -3.00    Nose mass-parameter (am)
   estimated Nose-frequenzy (Omega)   =  0.10E-29 period in steps =****** mass=  -0.290E-26a.u.
   SCALEE = 1.0000    scale energy and forces
   NPACO  =    256;   APACO  = 16.0  distance and # of slots for P.C.
   PSTRESS=    0.0 pullay stress

  Mass of Ions in am
   POMASS =  58.69 32.07
  Ionic Valenz
   ZVAL   =  16.00  6.00
  Atomic Wigner-Seitz radii
  virtual crystal weights
   VCA    =   1.00  1.00
   NELECT =    1056.0000    total number of electrons
   NUPDOWN=      -1.0000    fix difference up-down

 DOS related values:
   EMIN   =  10.00;   EMAX   =-10.00  energy-range for DOS
   EFERMI =   0.00
[...]
     0.000000000  0.000000000 22.519955973     0.000000000  0.000000000  0.044405060

  length of vectors
    11.256463038 11.256463038 22.519955973     0.099375718  0.099375718  0.044405060

 FORCES acting on ions
    electron-ion (+dipol)            ewald-force                    non-local-force                 convergence-correction
   0.252E+03 -.337E+03 -.796E+03   -.252E+03 0.338E+03 0.795E+03   0.695E+00 -.123E+01 0.904E+00   0.932E-01 0.760E-01 -.424E+00
   0.195E+03 -.415E+03 -.444E+04   -.196E+03 0.418E+03 0.444E+04   0.825E+00 -.226E+01 -.206E+01   0.580E-01 0.131E-01 0.291E-01
   0.371E+03 -.648E+03 0.245E+04   -.373E+03 0.650E+03 -.244E+04   0.188E+01 -.218E+01 -.119E+01   -.824E-01 -.413E-01 -.671E+00
   -.332E+02 0.198E+03 -.586E+04   0.344E+02 -.199E+03 0.586E+04   -.136E+01 0.686E+00 0.211E+01   0.393E-01 0.264E-01 0.234E+00
   0.975E+03 -.428E+02 0.590E+04   -.980E+03 0.416E+02 -.591E+04   0.320E+01 0.207E+01 0.533E+01   0.243E+00 0.173E+00 -.355E+00
   0.337E+03 0.789E+03 0.381E+04   -.338E+03 -.793E+03 -.381E+04   0.728E+00 0.267E+01 0.331E+00   0.960E-01 0.117E+00 -.641E+00
   0.242E+03 0.465E+03 0.375E+03   -.243E+03 -.465E+03 -.376E+03   0.935E+00 0.597E+00 0.119E+01   0.109E+00 -.487E-02 -.426E+00
   0.231E+03 0.453E+03 -.317E+04   -.233E+03 -.458E+03 0.317E+04   0.234E+01 0.413E+01 -.149E+01   0.584E-01 -.502E-01 -.107E+00
   -.517E+03 -.592E+01 0.411E+03   0.518E+03 0.632E+01 -.411E+03   -.963E+00 -.434E+00 0.847E+00   -.717E-01 0.798E-01 -.447E+00
   -.537E+03 -.122E+03 -.278E+04   0.540E+03 0.122E+03 0.278E+04   -.226E+01 -.575E+00 0.152E+01   -.229E-01 -.653E-01 -.943E-01
   -.428E+03 -.610E+02 -.587E+04   0.428E+03 0.623E+02 0.587E+04   0.443E+00 -.164E+01 0.138E+01   -.164E-01 -.435E-01 0.309E+00
   -.560E+03 0.435E+03 0.318E+04   0.563E+03 -.438E+03 -.317E+04   -.227E+01 0.227E+01 -.349E+01   0.190E+00 0.141E+00 -.756E+00
   -.133E+02 -.998E+03 0.594E+04   0.146E+02 0.100E+04 -.594E+04   -.146E+01 -.232E+01 0.470E+01   -.166E+00 -.353E+00 -.640E+00
   0.238E+03 -.362E+03 -.740E+03   -.238E+03 0.363E+03 0.740E+03   0.773E+00 -.113E+01 0.299E+00   -.478E-01 0.485E-02 -.447E+00
   0.296E+03 -.529E+03 -.430E+04   -.297E+03 0.531E+03 0.430E+04   0.561E+00 -.128E+01 -.275E+01   -.837E-01 -.105E-01 -.207E-01
   0.344E+03 -.523E+03 0.249E+04   -.346E+03 0.527E+03 -.249E+04   0.191E+01 -.306E+01 -.125E+01   0.887E-01 -.582E-01 -.796E+00
   -.109E+03 -.309E+03 0.606E+04   0.110E+03 0.310E+03 -.607E+04   -.206E+01 0.596E+00 0.563E+01   -.919E-01 0.719E-01 -.199E+00
   0.212E+03 0.717E+03 0.378E+04   -.214E+03 -.721E+03 -.378E+04   0.104E+01 0.334E+01 0.607E+00   -.113E+00 0.161E+00 -.645E+00
   0.233E+03 0.437E+03 0.430E+03   -.234E+03 -.438E+03 -.430E+03   0.894E+00 0.527E+00 0.103E+01   -.990E-01 0.259E-01 -.427E+00
   0.187E+03 0.319E+03 -.268E+04   -.188E+03 -.321E+03 0.268E+04   0.145E+01 0.198E+01 0.191E+01   -.470E-01 -.235E-02 -.160E+00
   -.509E+03 0.313E+02 0.339E+03   0.510E+03 -.307E+02 -.340E+03   -.983E+00 -.668E+00 0.161E+01   0.139E+00 0.525E-01 -.496E+00
   -.341E+03 -.227E+03 -.290E+04   0.345E+03 0.229E+03 0.290E+04   -.402E+01 -.228E+01 0.137E+01   0.105E+00 -.343E-01 -.133E+00
   0.182E+03 0.579E+02 -.571E+04   -.181E+03 -.558E+02 0.571E+04   -.953E+00 -.273E+01 0.841E+00   -.318E-01 -.662E-02 0.166E+00
   -.728E+03 0.703E+02 0.382E+04   0.732E+03 -.710E+02 -.382E+04   -.299E+01 0.228E+00 0.129E+01   -.170E+00 0.174E+00 -.626E+00
   0.298E+03 -.394E+03 0.610E+04   -.298E+03 0.395E+03 -.611E+04   -.157E+00 0.673E+00 0.630E+01   0.313E-01 0.780E-02 -.302E+00
   0.215E+03 -.439E+03 -.749E+03   -.215E+03 0.441E+03 0.749E+03   0.870E+00 -.129E+01 0.301E+00   -.340E-01 -.147E+00 -.309E+00
   0.217E+03 -.652E+03 -.415E+04   -.219E+03 0.656E+03 0.415E+04   0.150E+01 -.332E+01 -.656E+00   0.254E-01 -.151E-01 0.505E-01
   0.195E+03 0.463E+03 -.617E+04   -.195E+03 -.465E+03 0.617E+04   -.511E+00 0.461E-01 -.441E+01   0.489E-01 -.506E-02 0.293E+00
   0.467E+03 -.449E+03 0.232E+04   -.469E+03 0.452E+03 -.231E+04   0.190E+01 -.225E+01 -.260E+01   0.522E-01 0.105E+00 -.695E+00
   0.464E+03 -.134E+03 0.611E+04   -.463E+03 0.133E+03 -.611E+04   -.158E+01 0.777E+00 0.916E+00   0.177E-01 -.660E-01 -.299E+00
   0.812E+02 0.358E+03 0.307E+04   -.800E+02 -.360E+03 -.306E+04   -.445E+00 0.927E+00 -.358E+01   -.159E+00 -.308E+00 -.102E+01
   0.216E+03 0.450E+03 0.331E+03   -.217E+03 -.450E+03 -.332E+03   0.717E+00 0.693E+00 0.136E+01   0.373E-02 -.711E-01 -.466E+00
   0.327E+03 0.715E+03 -.285E+04   -.330E+03 -.719E+03 0.285E+04   0.192E+01 0.325E+01 0.170E+01   0.284E-01 -.262E-01 -.123E+00
   -.480E+03 -.313E+02 0.402E+03   0.480E+03 0.317E+02 -.403E+03   -.100E+01 -.435E+00 0.127E+01   -.258E-01 0.988E-03 -.498E+00
   -.416E+03 0.493E+01 -.272E+04   0.420E+03 -.344E+01 0.271E+04   -.423E+01 -.101E+01 0.189E+01   0.840E-01 0.305E-01 -.117E+00
   -.733E+02 0.489E+03 -.589E+04   0.746E+02 -.490E+03 0.589E+04   -.750E+00 0.166E+00 0.176E+01   0.847E-01 -.295E-01 0.303E+00
   -.869E+03 -.709E+02 0.376E+04   0.873E+03 0.706E+02 -.376E+04   -.294E+01 -.163E-01 0.116E+00   0.170E+00 -.150E+00 -.702E+00
   -.632E+03 0.217E+03 0.603E+04   0.632E+03 -.216E+03 -.604E+04   0.343E+00 -.975E+00 0.809E+00   -.304E-01 0.215E+00 -.119E+00
   0.269E+03 -.408E+03 -.699E+03   -.269E+03 0.408E+03 0.699E+03   0.580E+00 -.951E+00 0.609E+00   0.426E-01 -.511E-02 -.457E+00
   0.351E+03 -.417E+03 -.426E+04   -.353E+03 0.418E+03 0.426E+04   0.161E+01 -.111E+01 -.891E+00   -.538E-01 0.126E+00 0.754E-02
   0.204E+03 -.478E+03 0.242E+04   -.206E+03 0.481E+03 -.241E+04   0.197E+01 -.281E+01 -.176E+01   -.127E-01 -.224E-01 -.779E+00
   0.330E+03 0.651E+03 0.383E+04   -.332E+03 -.656E+03 -.382E+04   0.135E+01 0.298E+01 0.144E+01   -.109E-02 0.822E-01 -.649E+00
   0.254E+03 0.461E+03 0.424E+03   -.254E+03 -.461E+03 -.424E+03   0.818E+00 0.533E+00 0.102E+01   -.213E-01 0.309E-01 -.550E+00
   0.171E+03 0.626E+03 -.301E+04   -.173E+03 -.630E+03 0.301E+04   0.225E+01 0.287E+01 0.251E+00   -.482E-01 0.144E-01 -.166E+00
   -.543E+03 -.482E+02 0.401E+03   0.544E+03 0.489E+02 -.402E+03   -.779E+00 -.540E+00 0.120E+01   -.306E-01 -.129E+00 -.446E+00
   -.418E+03 -.216E+03 -.256E+04   0.421E+03 0.218E+03 0.255E+04   -.326E+01 -.157E+01 0.296E+01   -.219E-03 -.166E-01 -.802E-01
   -.432E+03 0.137E+03 -.558E+04   0.434E+03 -.138E+03 0.559E+04   -.235E+01 0.996E+00 -.283E+01   -.166E+00 0.236E-01 0.235E+00
   -.601E+03 -.835E+02 0.372E+04   0.606E+03 0.836E+02 -.372E+04   -.300E+01 -.423E+00 0.120E+01   -.140E+00 0.375E-02 -.699E+00
   -.837E+02 0.105E+03 -.237E+03   0.851E+02 -.107E+03 0.236E+03   -.131E+01 0.172E+01 0.796E+00   -.205E-01 -.733E-02 -.104E+00
   -.168E+03 0.165E+03 -.154E+04   0.169E+03 -.167E+03 0.154E+04   -.253E+00 0.207E-01 -.946E+00   0.140E-01 0.290E-01 0.441E-01
   -.496E+02 0.588E+03 0.224E+04   0.506E+02 -.594E+03 -.225E+04   -.763E+00 0.260E+01 0.139E+01   0.675E-01 0.102E+00 -.135E+00
   -.730E+02 0.167E+03 0.101E+04   0.737E+02 -.168E+03 -.101E+04   -.829E+00 0.116E+01 0.144E+01   0.851E-01 0.501E-02 -.238E+00
   -.958E+02 -.357E+03 -.215E+04   0.978E+02 0.361E+03 0.215E+04   -.128E+01 -.146E+01 -.836E+00   0.158E-01 -.367E-01 0.967E-01
   -.779E+02 -.126E+03 -.809E+03   0.791E+02 0.129E+03 0.809E+03   -.856E+00 -.224E+01 0.246E+00   0.389E-01 -.716E-02 -.112E+00
   -.114E+03 -.311E+03 0.175E+04   0.115E+03 0.312E+03 -.175E+04   0.205E+00 0.523E-01 0.854E+00   0.170E-01 -.131E-01 -.319E+00
   -.906E+02 -.171E+03 0.466E+03   0.916E+02 0.173E+03 -.465E+03   -.984E+00 -.222E+01 0.781E+00   0.519E-01 -.413E-01 -.132E+00
   0.349E+03 0.105E+02 0.173E+04   -.350E+03 -.973E+01 -.173E+04   -.236E+00 -.389E+00 0.598E+00   -.220E-01 0.556E-01 -.222E+00
   0.186E+03 0.176E+02 0.460E+03   -.188E+03 -.174E+02 -.460E+03   0.239E+01 -.410E+00 0.142E+01   -.355E-01 0.382E-01 -.189E+00
   0.150E+03 -.939E+01 -.776E+03   -.154E+03 0.972E+01 0.776E+03   0.298E+01 -.388E+00 -.114E+01   -.150E-01 -.130E-01 -.660E-01
   -.743E+02 0.750E+02 -.212E+04   0.741E+02 -.767E+02 0.213E+04   0.391E+00 0.969E+00 -.140E+01   -.328E-01 -.180E-01 0.975E-01
[...]
   0.159E+03 -.382E+01 -.728E+03   -.161E+03 0.387E+01 0.728E+03   0.289E+01 0.297E+00 -.105E+01   0.633E-02 0.103E-03 -.151E+00
   0.169E+03 0.108E+03 -.206E+04   -.170E+03 -.108E+03 0.206E+04   0.429E+00 -.217E+00 -.657E+00   -.890E-02 -.193E-01 0.119E+00
   -.694E+02 0.132E+03 -.235E+03   0.707E+02 -.134E+03 0.234E+03   -.126E+01 0.171E+01 0.966E+00   -.298E-01 -.296E-02 -.181E+00
   -.161E+02 0.374E+03 -.152E+04   0.170E+02 -.376E+03 0.152E+04   -.614E+00 0.706E+00 0.106E+01   -.242E-01 0.546E-02 0.439E-01
   -.109E+03 0.314E+03 0.229E+04   0.111E+03 -.317E+03 -.230E+04   -.626E+00 0.107E+01 0.634E+00   -.418E-01 0.109E+00 -.116E+00
   -.373E+02 0.127E+03 0.999E+03   0.377E+02 -.128E+03 -.100E+04   -.167E+00 0.805E+00 0.174E+01   -.260E-01 0.417E-01 -.219E+00
   -.147E+03 -.493E+03 -.217E+04   0.149E+03 0.498E+03 0.218E+04   -.134E+01 -.289E+01 -.840E+00   -.447E-02 -.223E-01 0.111E+00
   -.612E+02 -.147E+03 -.714E+03   0.623E+02 0.150E+03 0.714E+03   -.872E+00 -.276E+01 -.101E+01   0.372E-02 0.304E-01 -.114E+00
   -.135E+03 -.288E+03 0.177E+04   0.135E+03 0.290E+03 -.177E+04   0.771E+00 0.258E-01 0.128E+01   -.669E-01 -.626E-01 -.235E+00
   -.848E+02 -.148E+03 0.476E+03   0.857E+02 0.150E+03 -.476E+03   -.786E+00 -.236E+01 0.120E+01   -.136E-01 0.213E-01 -.228E+00
   0.281E+03 -.427E+02 0.178E+04   -.283E+03 0.433E+02 -.178E+04   0.703E-01 -.261E+00 0.117E+01   0.153E+00 0.188E-02 -.255E+00
   0.173E+03 -.401E+01 0.479E+03   -.176E+03 0.414E+01 -.480E+03   0.251E+01 -.268E+00 0.108E+01   0.317E-01 -.232E-01 -.223E+00
   0.150E+03 -.225E+02 -.713E+03   -.152E+03 0.229E+02 0.713E+03   0.240E+01 -.491E+00 -.430E+00   -.165E-01 0.141E-01 -.121E+00
   -.713E+02 0.162E+03 -.230E+04   0.707E+02 -.165E+03 0.231E+04   0.612E+00 0.164E+01 -.176E+01   -.400E-02 0.954E-02 0.129E+00
   0.922E+01 0.147E+02 -.180E+02   0.308E-11 0.426E-12 -.455E-12   -.943E+01 -.150E+02 0.393E+02   -.835E-01 0.257E+00 -.211E+02

 POSITION                                       TOTAL-FORCE (eV/Angst)
      5.35228      4.81788      6.64784         0.118072     -0.380067     -0.251842
      5.93595      3.87238      9.58390        -0.280147      0.799018     -1.380762
      2.24633      0.73197      3.71178        -0.688110      0.341049      1.403084
      0.59539      0.54069     11.11534        -0.148539     -0.379153      1.084933
      4.94559      5.33910      1.26220        -1.020008      1.030617     -1.752366
      4.76861      3.35453      2.93606         0.388047     -0.975218      0.969163
      5.35228      2.40903      5.87212        -0.070209      0.100313      0.033869
      5.93595      1.46353      8.80817        -0.389777     -0.188018     -1.919043
      1.87746      3.73836      5.87212        -0.020678      0.045429      0.011399
      2.46113      2.79286      8.80817        -0.072838     -0.348886     -1.983880
      3.12521      2.13326     11.10975         0.644401     -0.408062      1.255264
      6.92203      4.68386      2.93606         0.382586     -0.689032      3.574521
      2.57080      0.27586      1.30562        -0.291879      1.281092     -1.651378
     10.98051      4.81788      6.64784         0.171874     -0.334466     -0.163461
     11.56418      3.87238      9.58390        -0.583233      0.850683     -1.368893
      7.87456      0.73197      3.71178        -0.509080      0.765638      2.285313
     10.71512      5.28788      1.30458        -0.625583      1.118849     -1.904118
     10.39684      3.35453      2.93606        -0.776725     -0.843369      1.796897
     10.98051      2.40903      5.87212         0.081662      0.150709      0.044398
     11.56418      1.46353      8.80817         0.071965      0.032825     -1.388181
      7.50570      3.73836      5.87212        -0.106430      0.006723      0.012459
      8.08937      2.79286      8.80817         0.089771      0.118684     -2.801036
      8.93885      1.71781     10.80290         0.034373     -0.562597      1.262470
     12.55026      4.68386      2.93606         1.236417     -0.291874      2.092347
      8.16228      0.26285      1.33944        -0.781085      1.195315     -2.031430
      7.87456      9.84929      6.64784         0.093880     -0.232550     -0.109670
      8.45823      8.90379      9.58390        -0.524179      1.026195     -0.891050
      9.44591      7.00223     11.02541        -0.276530     -1.153984      1.742961
      4.76861      5.76338      3.71178        -0.234623      0.754819      1.579674
      6.60240      8.09743      0.74704        -0.690738     -0.379280     -1.054860
      7.29089      8.38594      2.93606         0.647665     -0.862872      3.823573
      7.87456      7.44044      5.87212         0.016451      0.161930      0.062052
      8.45823      6.49494      8.80817        -0.247022     -0.460117     -1.358523
      4.39975      8.76977      5.87212        -0.182875     -0.016042      0.048175
      4.98341      7.82427      8.80817        -0.228018      0.500825     -2.591630
      5.46368      6.96971     10.98256         0.603020     -0.719065      1.759586
      9.44431      9.71527      2.93606         0.908434     -0.448143      1.456493
      7.38326      5.54108      0.84606         0.820683      0.475295     -1.103233
     13.50279      9.84929      6.64784         0.142564     -0.455186     -0.214115
     14.08646      8.90379      9.58390        -0.278308      0.716975     -0.798219
     10.39684      5.76338      3.71178        -0.774104      0.527968      1.669455
     12.91912      8.38594      2.93606        -0.505236     -1.490534      2.263340
     13.50279      7.44044      5.87212         0.020856      0.093559      0.079588
     14.08646      6.49494      8.80817         0.058745     -0.478439     -1.683505
     10.02798      8.76977      5.87212        -0.060884      0.042625     -0.015503
     10.61165      7.82427      8.80817        -0.328105      0.571014     -3.462087
     11.89410      7.19454     10.63853        -0.269867     -0.089354      0.862739
     15.07254      9.71527      2.93606         1.509267     -0.369907      2.083201
      1.66190      1.67871      7.01153         0.092788     -0.245212     -0.094048
      2.24556      0.73321      9.94759         0.586304     -1.435330     -0.614989
      6.20687      3.75649      1.24846         0.379213     -2.721645     -2.846897
      6.70646      2.62422      4.07548         0.026677      0.030733      0.023020
      2.11742      3.79669     10.58793         0.798011      2.282264      2.317261
      7.29013      4.74605      7.99931         0.422168      0.214578     -0.011462
      3.69731      1.57895      2.44681         0.486931      1.618042     -1.396474
      4.18418      0.66015      5.06325         0.107600     -0.171556      0.750301
      3.35134      4.82708      2.45640        -1.698297      0.426945     -1.310884
      3.96438      3.99884      5.06325         0.156394     -0.234724      0.844326
      4.54805      3.05334      7.99931        -0.228180     -0.072837     -1.059090
      5.06791      2.23193     10.52925         0.158172     -0.815269      3.008486
[...]
      6.48666      9.03025      5.06325        -0.095382     -0.022446      0.066729
      7.07033      8.08475      7.99931         0.089417      0.349157     -1.036026
      7.47279      7.25903     10.55014        -0.659227     -0.439428      2.093312
      9.81241      6.71012      7.01153        -0.012842     -0.065866     -0.389328
     10.53127      5.84293      9.70051         0.239862     -1.918313      0.789636
     14.25260      8.61488      1.38846         1.204347     -2.095167     -3.490500
     14.85697      7.65563      4.07548         0.229608     -0.072894      0.212195
     10.40450      8.74804     10.65702         0.999553      2.558668      2.508225
     15.44064      9.77746      7.99931         0.244084      0.307826     -0.781870
     11.83312      6.60589      2.42149         0.500227      2.043246     -1.348475
     12.33469      5.69156      5.06325         0.089464     -0.129841      0.691169
     11.51024      9.87929      2.41982        -1.901663      0.351365     -1.443580
     12.11489      9.03025      5.06325        -0.012892     -0.166117      0.590398
     12.69856      8.08475      7.99931        -0.138018     -0.129353     -0.727039
     13.90104      7.16991     10.74436        -0.029399     -0.874439      3.144069
    total drift:                               -0.296928      0.037746      0.218766

  FREE ENERGIE OF THE ION-ELECTRON SYSTEM (eV)
  free  energy   TOTEN  =      -470.20996823 eV

  energy  without entropy=     -468.97236213  energy(sigma->0) =     -469.59116518