 vasp.5.4.4.18Apr17-6-g9f103f2a35 (build Aug 13 2019 17:33:20) gamma-only

 executed on             LinuxIFC date 2020.05.12  08:41:26

 INCAR:
 POTCAR:    PAW_PBE Ni_pv 06Sep2000
 POTCAR:    PAW_PBE S 06Sep2000
 POTCAR:    PAW_PBE Ni_pv 06Sep2000
   VRHFIN =Ni:

   TITEL  = PAW_PBE Ni_pv 06Sep2000
   POMASS =   58.690; ZVAL   =   16.000    mass and valenz
   ENMAX  =  367.986; ENMIN  =  275.989 eV

 POTCAR:    PAW_PBE S 06Sep2000
   VRHFIN =S : s2p4

   TITEL  = PAW_PBE S 06Sep2000
   POMASS =   32.066; ZVAL   =    6.000    mass and valenz
   ENMAX  =  258.689; ENMIN  =  194.016 eV

 Optimization of the real space projectors (new method)

 maximal supplied QI-value         = 18.90
 optimisation between [QCUT,QGAM] = [ 10.77, 21.73] = [ 32.49,132.25] Ry
 Optimized for a Real-space Cutoff    1.38 Angstroem

   l    n(q)    QCUT    max X(q) W(low)/X(q) W(high)/X(q)  e(spline)
   1      8    10.771     2.836    0.40E-04    0.29E-04    0.12E-06
   1      8    10.771     4.023    0.10E-03    0.48E-04    0.29E-06
   2      8    10.771    73.368    0.42E-03    0.97E-04    0.44E-06
   2      8    10.771    69.010    0.42E-03    0.99E-04    0.45E-06
   0      9    10.771    54.797    0.10E-03    0.56E-04    0.74E-07
   0      9    10.771    24.266    0.89E-04    0.49E-04    0.67E-07
 Optimization of the real space projectors (new method)

 maximal supplied QI-value         = 19.84
 optimisation between [QCUT,QGAM] = [ 10.71, 21.63] = [ 32.15,130.99] Ry
 Optimized for a Real-space Cutoff    1.19 Angstroem

   l    n(q)    QCUT    max X(q) W(low)/X(q) W(high)/X(q)  e(spline)
   0      8    10.715   187.594    0.41E-03    0.53E-04    0.66E-07
   0      8    10.715   164.243    0.41E-03    0.53E-04    0.65E-07
   1      7    10.715    67.533    0.19E-03    0.59E-03    0.68E-07
   1      7    10.715    50.729    0.19E-03    0.58E-03    0.67E-07
  PAW_PBE Ni_pv 06Sep2000               :
  PAW_PBE S 06Sep2000                   :

 POSCAR: Type_048 Type_148
  positions in cartesian coordinates
 exchange correlation table for  LEXCH =        8
   RHO(1)=    0.500       N(1)  =     2000
   RHO(2)=  100.500       N(2)  =     4000

 ion  position               nearest neighbor table
   1  0.256  0.016  0.152-  74 2.25  64 2.26  81 2.26  52 2.36  93 2.36   5 2.40   9 2.50
   2  0.256  0.016  0.481-  75 2.25  65 2.26  82 2.26  53 2.36  94 2.36  10 2.53   6 2.53
   3  0.006  0.266  0.317-  61 2.25  66 2.26  70 2.26  54 2.36  58 2.36   7 2.53  23 2.53
   4  0.014  0.262  0.638-  55 2.11  67 2.14  71 2.15  59 2.20   8 2.32  24 2.48
   5  0.222  0.022  0.070-  78 2.01  81 2.08  60 2.11   1 2.40  93 2.47
   6  0.256  0.016  0.394-  79 2.25  61 2.26  82 2.26  49 2.36  94 2.36   2 2.53  10 2.53
   7  0.006  0.266  0.230-  64 2.25  70 2.26  62 2.26  58 2.36  50 2.36   3 2.53  23 2.53
   8  0.006  0.266  0.558-  65 2.25  71 2.26  63 2.26   4 2.32  59 2.36  51 2.36  24 2.53
   9  0.185  0.225  0.120-  64 2.08  60 2.12  56 2.16  52 2.21   1 2.50
  10  0.190  0.215  0.438-  57 2.25  65 2.26  61 2.26  53 2.36  49 2.36   2 2.53   6 2.53
  11  0.440  0.465  0.273-  83 2.25  50 2.26  54 2.26  62 2.36  66 2.36  19 2.53  15 2.53
  12  0.440  0.465  0.602-  55 2.11  67 2.14  84 2.25  51 2.26  63 2.36  16 2.48  20 2.53
  13  0.756  0.016  0.152-  87 2.25  52 2.26  93 2.26  64 2.36  81 2.36  17 2.43  21 2.51
  14  0.756  0.016  0.481-  88 2.25  53 2.26  94 2.26  65 2.36  82 2.36  22 2.53  18 2.53
  15  0.506  0.266  0.317-  49 2.25  54 2.26  58 2.26  66 2.36  70 2.36  19 2.53  11 2.53
  16  0.514  0.262  0.638-  67 2.11  55 2.14  59 2.15  71 2.20  20 2.32  12 2.48
  17  0.815  0.021  0.070-  78 2.01  81 2.08  60 2.10  13 2.43  93 2.49
  18  0.756  0.016  0.394-  91 2.25  49 2.26  94 2.26  61 2.36  82 2.36  14 2.53  22 2.53
  19  0.506  0.266  0.230-  52 2.25  58 2.26  50 2.26  70 2.36  62 2.36  15 2.53  11 2.53
  20  0.506  0.266  0.558-  53 2.25  59 2.26  51 2.26  16 2.32  71 2.36  63 2.36  12 2.53
  21  0.708  0.226  0.120-  64 2.09  60 2.15  52 2.18  68 2.19  13 2.51
  22  0.690  0.215  0.438-  69 2.25  53 2.26  49 2.26  65 2.36  61 2.36  14 2.53  18 2.53
  23  0.940  0.465  0.273-  95 2.25  62 2.26  66 2.26  50 2.36  54 2.36   7 2.53   3 2.53
  24  0.940  0.465  0.602-  67 2.11  55 2.14  96 2.25  63 2.26  51 2.36   4 2.48   8 2.53
  25  0.256  0.516  0.152-  50 2.25  89 2.26  56 2.26  29 2.33  76 2.36  68 2.36  33 2.53
  26  0.256  0.516  0.481-  51 2.25  90 2.26  57 2.26  77 2.36  69 2.36  34 2.53  30 2.53
  27  0.006  0.766  0.317-  86 2.25  91 2.26  95 2.26  79 2.36  83 2.36  31 2.53  47 2.53
  28  0.014  0.762  0.638-  80 2.11  92 2.14  96 2.15  84 2.20  32 2.32  48 2.48
  29  0.265  0.512  0.073-  72 2.11  85 2.14  56 2.16  68 2.20  25 2.33  33 2.48
  30  0.256  0.516  0.394-  54 2.25  86 2.26  57 2.26  73 2.36  69 2.36  26 2.53  34 2.53
  31  0.006  0.766  0.230-  89 2.25  95 2.26  87 2.26  83 2.36  74 2.36  27 2.53  47 2.53
  32  0.006  0.766  0.558-  90 2.25  96 2.26  88 2.26  28 2.32  84 2.36  75 2.36  48 2.53
  33  0.190  0.715  0.109-  85 2.11  72 2.14  81 2.25  89 2.26  76 2.36  29 2.48  25 2.53
  34  0.190  0.715  0.438-  82 2.25  90 2.26  86 2.26  77 2.36  73 2.36  26 2.53  30 2.53
  35  0.440  0.965  0.273-  58 2.25  74 2.26  79 2.26  87 2.36  91 2.36  43 2.53  39 2.53
  36  0.440  0.965  0.602-  80 2.11  92 2.14  59 2.25  75 2.26  88 2.36  40 2.48  44 2.53
  37  0.756  0.516  0.152-  62 2.25  76 2.26  68 2.26  41 2.33  89 2.36  56 2.36  45 2.53
  38  0.756  0.516  0.481-  63 2.25  77 2.26  69 2.26  90 2.36  57 2.36  46 2.53  42 2.53
  39  0.506  0.766  0.317-  73 2.25  79 2.26  83 2.26  91 2.36  95 2.36  43 2.53  35 2.53
  40  0.514  0.762  0.638-  92 2.11  80 2.14  84 2.15  96 2.20  44 2.32  36 2.48
  41  0.762  0.512  0.073-  85 2.11  72 2.13  68 2.15  56 2.22  37 2.33  45 2.48
  42  0.756  0.516  0.394-  66 2.25  73 2.26  69 2.26  86 2.36  57 2.36  38 2.53  46 2.53
  43  0.506  0.766  0.230-  76 2.25  83 2.26  74 2.26  95 2.36  87 2.36  39 2.53  35 2.53
  44  0.506  0.766  0.558-  77 2.25  84 2.26  75 2.26  40 2.32  96 2.36  88 2.36  36 2.53
  45  0.690  0.715  0.109-  72 2.11  85 2.14  93 2.25  76 2.26  89 2.36  41 2.48  37 2.53
  46  0.690  0.715  0.438-  94 2.25  77 2.26  73 2.26  90 2.36  86 2.36  38 2.53  42 2.53
  47  0.940  0.965  0.273-  70 2.25  87 2.26  91 2.26  74 2.36  79 2.36  31 2.53  27 2.53
  48  0.940  0.965  0.602-  92 2.11  80 2.14  71 2.25  88 2.26  75 2.36  28 2.48  32 2.53
  49  0.468  0.167  0.382-  15 2.25  18 2.26  22 2.26   6 2.36  10 2.36
  50  0.218  0.417  0.218-  25 2.25  11 2.26  19 2.26  23 2.36   7 2.36
  51  0.218  0.417  0.547-  26 2.25  12 2.26  20 2.26  24 2.36   8 2.36
  52  0.468  0.167  0.164-  21 2.18   9 2.21  19 2.25  13 2.26   1 2.36
  53  0.468  0.167  0.493-  20 2.25  22 2.26  14 2.26  10 2.36   2 2.36
  54  0.218  0.417  0.329-  30 2.25  15 2.26  11 2.26   3 2.36  23 2.36
  55  0.218  0.391  0.642-   4 2.11  12 2.11  16 2.14  24 2.14  59 2.77
  56  0.053  0.414  0.109-   9 2.16  29 2.16  41 2.22  25 2.26  37 2.36  85 2.77
  57  0.053  0.414  0.438-  10 2.25  26 2.26  30 2.26  38 2.36  42 2.36
  58  0.303  0.164  0.273-  35 2.25  19 2.26  15 2.26   7 2.36   3 2.36
  59  0.303  0.164  0.602-  16 2.15   4 2.20  36 2.25  20 2.26   8 2.36  55 2.77
  60  0.966  0.173  0.072-  17 2.10   5 2.11   9 2.12  21 2.15  64 2.70  78 2.70
[...]
  82  0.053  0.914  0.438-  34 2.25   2 2.26   6 2.26  14 2.36  18 2.36
  83  0.303  0.664  0.273-  11 2.25  43 2.26  39 2.26  31 2.36  27 2.36
  84  0.303  0.664  0.602-  40 2.15  28 2.20  12 2.25  44 2.26  32 2.36  80 2.77
  85  0.968  0.641  0.069-  33 2.11  41 2.11  29 2.14  45 2.14  56 2.77
  86  0.968  0.667  0.382-  27 2.25  30 2.26  34 2.26  42 2.36  46 2.36
  87  0.718  0.917  0.218-  13 2.25  47 2.26  31 2.26  35 2.36  43 2.36
  88  0.718  0.917  0.547-  14 2.25  48 2.26  32 2.26  36 2.36  44 2.36
  89  0.968  0.667  0.164-  31 2.25  25 2.26  33 2.26  37 2.36  45 2.36
  90  0.968  0.667  0.493-  32 2.25  34 2.26  26 2.26  46 2.36  38 2.36
  91  0.718  0.917  0.329-  18 2.25  27 2.26  47 2.26  39 2.36  35 2.36
  92  0.718  0.891  0.642-  40 2.11  48 2.11  28 2.14  36 2.14  96 2.77
  93  0.553  0.914  0.109-  45 2.25  13 2.26   1 2.36   5 2.47  17 2.49
  94  0.553  0.914  0.438-  46 2.25  14 2.26  18 2.26   2 2.36   6 2.36
  95  0.803  0.664  0.273-  23 2.25  31 2.26  27 2.26  43 2.36  39 2.36
  96  0.803  0.664  0.602-  28 2.15  40 2.20  24 2.25  32 2.26  44 2.36  92 2.77

  LATTYP: Found a simple monoclinic cell.
 ALAT       =    13.8711386352
 B/A-ratio  =     2.1019774055
 C/A-ratio  =     1.3233367991
 COS(beta)  =    -0.9620914447

  Lattice vectors:

 A1 = (  -8.3714133957, -11.0601955134,   0.0000000000)
 A2 = (   0.0000000000,   0.0000000000, -29.1568200000)
 A3 = (  14.6499733957,  11.0601955134,   0.0000000000)

Analysis of symmetry for initial positions (statically):
 Subroutine PRICEL returns:
 Original cell was already a primitive cell.

 Routine SETGRP: Setting up the symmetry group for a
 simple monoclinic supercell.

 Subroutine GETGRP returns: Found  1 space group operations
 (whereof  1 operations were pure point group operations)
 out of a pool of  4 trial point group operations.

The static configuration has the point symmetry C_1 .

Analysis of symmetry for dynamics (positions and initial velocities):
 Subroutine PRICEL returns:
 Original cell was already a primitive cell.

 Routine SETGRP: Setting up the symmetry group for a
 simple monoclinic supercell.

 Subroutine GETGRP returns: Found  1 space group operations
 (whereof  1 operations were pure point group operations)
 out of a pool of  4 trial point group operations.

The dynamic configuration has the point symmetry C_1 .

 Subroutine INISYM returns: Found  1 space group operations
 (whereof  1 operations are pure point group operations),
 and found     1 'primitive' translations

 KPOINTS: gamma-point-only calculation. no periodi

Automatic generation of k-mesh.
Space group operators:
 irot       det(A)        alpha          n_x          n_y          n_z        tau_x        tau_y        tau_z
    1     1.000000     0.000000     1.000000     0.000000     0.000000     0.000000     0.000000     0.000000

 Subroutine IBZKPT returns following result:

 Found      1 irreducible k-points:

 Following reciprocal coordinates:
            Coordinates               Weight
  0.000000  0.000000  0.000000      1.000000

 Following cartesian coordinates:
            Coordinates               Weight
  0.000000  0.000000  0.000000      1.000000

 SYSTEM =  "Millerite NiS"
 POSCAR =  Type_048 Type_148

 Startparameter for this run:
   NWRITE =      2    write-flag & timer
   PREC   = normal    normal or accurate (medium, high low for compatibility)
   ISTART =      0    job   : 0-new  1-cont  2-samecut
   ICHARG =      2    charge: 1-file 2-atom 10-const
   ISPIN  =      1    spin polarized calculation?
   LNONCOLLINEAR =      F non collinear calculations
   LSORBIT =      F    spin-orbit coupling
   INIWAV =      1    electr: 0-lowe 1-rand  2-diag
   LASPH  =      F    aspherical Exc in radial PAW
   METAGGA=      F    non-selfconsistent MetaGGA calc.

 Electronic Relaxation 1
   ENCUT  =  450.0 eV  33.07 Ry    5.75 a.u.  10.86 19.47 50.43*2*pi/ulx,y,z
[...]
     0.000000000  0.000000000 29.156820000     0.000000000  0.000000000  0.034297293

  length of vectors
     6.278560000 11.256463038 29.156820000     0.162098538  0.090414315  0.034297293

 FORCES acting on ions
    electron-ion (+dipol)            ewald-force                    non-local-force                 convergence-correction
   -.196E+03 0.314E+03 0.432E+04   0.195E+03 -.316E+03 -.432E+04   0.455E+00 0.136E+01 0.833E+00   -.102E-01 -.218E-03 -.493E+00
   -.414E+02 0.257E+03 -.333E+04   0.405E+02 -.257E+03 0.334E+04   0.995E+00 0.481E+00 -.767E+00   0.737E-02 -.127E+00 -.695E+00
   -.418E+02 0.261E+03 0.436E+03   0.409E+02 -.261E+03 -.434E+03   0.917E+00 0.575E+00 -.831E+00   -.687E-02 0.658E-01 -.794E+00
   -.137E+02 0.456E+03 -.728E+04   0.139E+02 -.457E+03 0.728E+04   -.135E+00 0.101E+01 0.532E+00   0.874E-02 -.944E-02 0.821E+00
   -.687E+03 0.863E+02 0.703E+04   0.693E+03 -.868E+02 -.703E+04   -.348E+01 0.565E+00 0.407E+01   -.642E-01 -.158E-01 0.202E+00
   -.414E+02 0.260E+03 -.443E+03   0.405E+02 -.260E+03 0.442E+03   0.962E+00 0.498E+00 0.114E+01   0.944E-02 -.138E+00 -.366E+00
   -.471E+02 0.262E+03 0.328E+04   0.461E+02 -.263E+03 -.328E+04   0.109E+01 0.826E+00 0.145E+01   -.301E-02 0.113E+00 -.136E+01
   -.372E+02 0.275E+03 -.414E+04   0.361E+02 -.275E+03 0.414E+04   0.118E+01 0.815E+00 0.213E+01   -.780E-02 0.806E-01 -.160E+00
   -.366E+03 -.432E+03 0.581E+04   0.369E+03 0.432E+03 -.582E+04   -.222E+01 -.106E+01 0.184E+01   -.612E-01 0.137E+00 -.157E+00
   -.412E+02 -.514E+03 -.189E+04   0.404E+02 0.515E+03 0.189E+04   0.878E+00 -.124E+01 0.487E-01   0.125E-01 -.760E-01 -.556E+00
   -.404E+02 -.528E+03 0.188E+04   0.396E+02 0.528E+03 -.188E+04   0.978E+00 -.943E+00 0.200E+00   -.850E-03 0.244E+00 -.120E+01
   -.289E+02 -.674E+03 -.586E+04   0.288E+02 0.678E+03 0.586E+04   0.222E+00 -.415E+01 -.318E+00   -.283E-02 0.186E+00 0.239E+00
   0.133E+03 0.306E+03 0.436E+04   -.135E+03 -.308E+03 -.436E+04   0.220E+01 0.143E+01 0.111E+01   -.346E-02 0.230E-01 -.459E+00
   -.413E+02 0.257E+03 -.334E+04   0.404E+02 -.257E+03 0.334E+04   0.996E+00 0.486E+00 -.762E+00   -.678E-02 -.138E+00 -.670E+00
   -.408E+02 0.261E+03 0.438E+03   0.399E+02 -.261E+03 -.436E+03   0.101E+01 0.534E+00 -.827E+00   -.214E-02 0.468E-01 -.798E+00
   -.136E+02 0.456E+03 -.728E+04   0.138E+02 -.457E+03 0.728E+04   -.133E+00 0.101E+01 0.535E+00   0.691E-03 -.858E-02 0.772E+00
   0.673E+03 0.888E+02 0.702E+04   -.680E+03 -.886E+02 -.702E+04   0.428E+01 -.138E+00 0.448E+01   0.110E+00 -.108E-02 0.221E+00
   -.412E+02 0.260E+03 -.442E+03   0.403E+02 -.260E+03 0.442E+03   0.960E+00 0.500E+00 0.111E+01   0.127E-01 -.159E+00 -.364E+00
   -.308E+02 0.271E+03 0.331E+04   0.298E+02 -.271E+03 -.331E+04   0.110E+01 0.822E+00 0.210E+01   0.449E-02 0.875E-01 -.139E+01
   -.372E+02 0.275E+03 -.414E+04   0.361E+02 -.275E+03 0.414E+04   0.118E+01 0.817E+00 0.214E+01   -.116E-01 0.780E-01 -.200E+00
   0.302E+03 -.421E+03 0.581E+04   -.306E+03 0.422E+03 -.581E+04   0.270E+01 -.122E+01 0.342E+01   0.389E-01 0.187E+00 -.162E+00
   -.411E+02 -.514E+03 -.189E+04   0.404E+02 0.515E+03 0.189E+04   0.881E+00 -.124E+01 0.551E-01   0.818E-02 -.647E-01 -.537E+00
   -.418E+02 -.529E+03 0.188E+04   0.411E+02 0.530E+03 -.188E+04   0.909E+00 -.938E+00 0.321E+00   0.327E-02 0.252E+00 -.118E+01
   -.289E+02 -.674E+03 -.586E+04   0.288E+02 0.678E+03 0.586E+04   0.222E+00 -.414E+01 -.318E+00   -.958E-02 0.175E+00 0.268E+00
   -.461E+02 0.246E+03 0.418E+04   0.452E+02 -.247E+03 -.417E+04   0.971E+00 0.810E+00 -.169E+01   -.522E-02 0.946E-01 -.674E+00
   -.413E+02 0.255E+03 -.334E+04   0.405E+02 -.256E+03 0.334E+04   0.978E+00 0.483E+00 -.780E+00   -.302E-02 0.146E+00 -.821E+00
   -.411E+02 0.255E+03 0.452E+03   0.402E+02 -.255E+03 -.450E+03   0.976E+00 0.517E+00 -.107E+01   -.926E-02 -.889E-01 -.667E+00
   -.136E+02 0.456E+03 -.728E+04   0.138E+02 -.458E+03 0.728E+04   -.130E+00 0.101E+01 0.541E+00   0.598E-04 0.168E-01 0.673E+00
   -.210E+02 0.530E+03 0.730E+04   0.209E+02 -.531E+03 -.730E+04   0.102E+00 0.697E-01 -.470E+00   -.673E-02 0.175E+00 0.484E+00
   -.413E+02 0.255E+03 -.444E+03   0.404E+02 -.256E+03 0.444E+03   0.970E+00 0.499E+00 0.111E+01   -.729E-02 0.204E+00 -.372E+00
   -.388E+02 0.244E+03 0.336E+04   0.380E+02 -.244E+03 -.336E+04   0.966E+00 0.544E+00 0.976E+00   -.635E-03 -.120E+00 -.120E+01
   -.372E+02 0.275E+03 -.414E+04   0.361E+02 -.275E+03 0.414E+04   0.118E+01 0.816E+00 0.215E+01   -.170E-01 0.101E+00 -.303E+00
   -.455E+02 -.674E+03 0.583E+04   0.455E+02 0.678E+03 -.583E+04   0.168E+00 -.368E+01 0.824E+00   -.721E-02 -.394E+00 -.102E+00
   -.411E+02 -.515E+03 -.189E+04   0.404E+02 0.516E+03 0.189E+04   0.897E+00 -.127E+01 0.216E-01   -.211E-02 -.139E+00 -.641E+00
   -.432E+02 -.504E+03 0.191E+04   0.425E+02 0.505E+03 -.190E+04   0.884E+00 -.123E+01 0.365E-02   -.263E-02 0.440E-01 -.105E+01
   -.289E+02 -.674E+03 -.586E+04   0.288E+02 0.678E+03 0.586E+04   0.223E+00 -.414E+01 -.314E+00   -.570E-03 0.672E-01 0.230E+00
   -.324E+02 0.214E+03 0.417E+04   0.314E+02 -.215E+03 -.416E+04   0.113E+01 0.686E+00 -.193E+01   0.179E-02 0.671E-01 -.724E+00
   -.413E+02 0.255E+03 -.334E+04   0.404E+02 -.256E+03 0.334E+04   0.981E+00 0.480E+00 -.780E+00   0.152E-02 0.165E+00 -.844E+00
   -.415E+02 0.254E+03 0.452E+03   0.406E+02 -.254E+03 -.451E+03   0.996E+00 0.523E+00 -.106E+01   0.300E-02 -.706E-01 -.638E+00
   -.137E+02 0.456E+03 -.728E+04   0.139E+02 -.458E+03 0.728E+04   -.129E+00 0.101E+01 0.540E+00   0.724E-02 0.157E-01 0.718E+00
   -.712E+01 0.475E+03 0.731E+04   0.707E+01 -.476E+03 -.731E+04   0.220E+00 0.630E+00 -.476E+00   -.107E-01 0.144E+00 0.488E+00
   -.413E+02 0.255E+03 -.444E+03   0.404E+02 -.256E+03 0.444E+03   0.961E+00 0.510E+00 0.112E+01   0.179E-01 0.212E+00 -.362E+00
   -.438E+02 0.239E+03 0.336E+04   0.429E+02 -.239E+03 -.336E+04   0.986E+00 0.459E+00 0.108E+01   0.752E-02 -.994E-01 -.124E+01
   -.372E+02 0.275E+03 -.414E+04   0.361E+02 -.275E+03 0.414E+04   0.118E+01 0.809E+00 0.214E+01   -.647E-02 0.997E-01 -.230E+00
   -.158E+02 -.749E+03 0.586E+04   0.156E+02 0.754E+03 -.586E+04   0.193E+00 -.527E+01 0.669E+00   0.116E-01 -.433E+00 -.109E+00
   -.412E+02 -.515E+03 -.189E+04   0.404E+02 0.516E+03 0.189E+04   0.893E+00 -.127E+01 0.244E-01   0.175E-01 -.157E+00 -.640E+00
   -.391E+02 -.503E+03 0.190E+04   0.384E+02 0.503E+03 -.190E+04   0.906E+00 -.127E+01 0.103E+00   0.452E-02 -.214E-01 -.104E+01
   -.289E+02 -.674E+03 -.586E+04   0.288E+02 0.678E+03 0.586E+04   0.222E+00 -.415E+01 -.312E+00   -.814E-02 0.103E+00 0.188E+00
   0.398E+02 -.824E+02 -.877E+02   -.404E+02 0.835E+02 0.856E+02   0.505E+00 -.129E+01 0.253E+01   -.196E-01 -.112E+00 -.433E-01
   0.359E+02 -.929E+02 0.132E+04   -.365E+02 0.936E+02 -.132E+04   0.524E+00 -.111E+01 0.305E+01   0.354E-03 0.666E-01 -.512E+00
   0.391E+02 -.991E+02 -.150E+04   -.400E+02 0.100E+03 0.150E+04   0.778E+00 -.132E+01 0.218E+01   0.635E-02 0.165E+00 -.147E+00
   0.318E+02 -.253E+02 0.159E+04   -.333E+02 0.275E+02 -.158E+04   0.157E+01 -.198E+01 -.213E+01   0.144E-01 0.894E-02 -.229E+00
   0.399E+02 -.804E+02 -.133E+04   -.405E+02 0.816E+02 0.133E+04   0.502E+00 -.132E+01 -.251E+01   -.694E-02 -.962E-01 -.330E+00
   0.396E+02 -.849E+02 0.856E+02   -.402E+02 0.858E+02 -.833E+02   0.557E+00 -.136E+01 -.260E+01   -.175E-01 0.217E+00 -.158E+00
   0.155E+01 -.194E+03 -.280E+04   -.189E+01 0.198E+03 0.281E+04   0.308E+00 -.230E+01 -.435E+01   -.156E-01 0.420E-01 0.242E+00
   0.178E+02 0.216E+03 0.224E+04   -.179E+02 -.220E+03 -.224E+04   0.203E+00 0.281E+01 0.633E+00   -.262E-01 0.159E+00 0.157E-01
   0.396E+02 0.166E+03 -.708E+03   -.404E+02 -.168E+03 0.708E+03   0.700E+00 0.271E+01 0.194E-01   -.122E-02 0.125E+00 -.258E+00
   0.379E+02 0.173E+03 0.706E+03   -.387E+02 -.175E+03 -.705E+03   0.707E+00 0.283E+01 -.225E+00   -.643E-02 -.845E-01 -.503E+00
   0.367E+02 0.239E+03 -.218E+04   -.369E+02 -.242E+03 0.218E+04   0.956E-01 0.201E+01 -.856E-01   -.651E-02 -.125E+00 0.186E+00
   0.702E+01 -.316E+03 0.276E+04   -.724E+01 0.323E+03 -.277E+04   -.814E-01 -.510E+01 0.501E+01   0.371E-02 0.647E-01 0.713E-01
[...]
   0.393E+02 0.162E+03 0.711E+03   -.402E+02 -.164E+03 -.711E+03   0.759E+00 0.282E+01 -.958E-01   -.346E-01 -.609E-01 -.414E+00
   0.367E+02 0.239E+03 -.218E+04   -.369E+02 -.242E+03 0.218E+04   0.966E-01 0.202E+01 -.988E-01   0.168E-01 -.870E-01 0.147E+00
   0.806E+01 -.183E+03 0.279E+04   -.835E+01 0.186E+03 -.280E+04   0.324E+00 -.202E+01 0.421E+01   -.166E-01 -.648E-01 0.165E+00
   0.398E+02 -.841E+02 -.867E+02   -.404E+02 0.853E+02 0.846E+02   0.538E+00 -.136E+01 0.251E+01   -.727E-02 -.905E-01 -.623E-01
   0.448E+02 -.795E+02 0.135E+04   -.455E+02 0.809E+02 -.135E+04   0.596E+00 -.152E+01 0.261E+01   0.131E-01 0.266E-02 -.421E+00
   0.391E+02 -.989E+02 -.150E+04   -.400E+02 0.100E+03 0.150E+04   0.776E+00 -.132E+01 0.219E+01   0.275E-02 0.107E+00 -.146E+00
   0.412E+02 -.110E+03 0.151E+04   -.423E+02 0.112E+03 -.151E+04   0.106E+01 -.146E+01 -.249E+01   0.393E-02 -.139E+00 -.328E+00
   0.399E+02 -.807E+02 -.133E+04   -.405E+02 0.819E+02 0.133E+04   0.443E+00 -.133E+01 -.250E+01   -.137E-01 -.503E-01 -.389E+00
   0.398E+02 -.823E+02 0.902E+02   -.406E+02 0.833E+02 -.877E+02   0.687E+00 -.131E+01 -.268E+01   0.120E-01 0.366E-01 -.185E+00
   0.157E+01 -.194E+03 -.280E+04   -.189E+01 0.198E+03 0.281E+04   0.306E+00 -.230E+01 -.435E+01   -.329E-01 0.465E-01 0.211E+00
   0.259E+02 0.990E+02 0.227E+04   -.268E+02 -.100E+03 -.227E+04   0.108E+01 0.307E+01 -.253E+00   -.912E-02 -.498E-01 0.229E-02
   0.395E+02 0.167E+03 -.707E+03   -.404E+02 -.169E+03 0.707E+03   0.728E+00 0.269E+01 0.464E-01   0.444E-02 -.321E-01 -.220E+00
   0.397E+02 0.161E+03 0.711E+03   -.406E+02 -.164E+03 -.711E+03   0.794E+00 0.282E+01 -.135E+00   0.287E-01 -.696E-01 -.412E+00
   0.367E+02 0.239E+03 -.218E+04   -.369E+02 -.242E+03 0.218E+04   0.995E-01 0.202E+01 -.102E+00   -.235E-01 -.881E-01 0.144E+00
   -.626E+02 0.258E+02 -.160E+01   0.104E-11 0.179E-11 0.637E-11   0.626E+02 -.269E+02 0.262E+02   0.443E-01 0.106E+01 -.245E+02

 POSITION                                       TOTAL-FORCE (eV/Angst)
      1.64370      0.18204      4.44331         0.243588     -0.141082      0.649745
      1.64370      0.18204     14.02172         0.108277      0.126729     -0.345711
      0.59727      2.94708      9.23251         0.078709      0.204414     -0.324915
      0.63655      2.89509     18.60305         0.074093     -0.639807     -0.080547
      1.43717      0.24237      2.05041         2.430306     -0.037506      1.122768
      1.64370      0.18204     11.49105         0.091544      0.146766      0.318805
      0.59727      2.94708      6.70184         0.078142      0.000717      0.589723
      0.59727      2.94708     16.28025         0.096243      0.236350     -1.054538
      1.63086      2.49393      3.48889         1.032193     -0.583383     -0.005007
      1.64370      2.37366     12.75638         0.161808     -0.341408     -0.015419
      3.73655      5.13871      7.96718         0.207289     -0.353516      0.068856
      3.73655      5.13871     17.54559         0.100388      0.019182     -2.115532
      4.78298      0.18204      4.44331        -0.117626     -0.033614      0.472011
      4.78298      0.18204     14.02172         0.107791      0.127953     -0.343287
      3.73655      2.94708      9.23251         0.071640      0.193002     -0.333098
      3.77583      2.89509     18.60305         0.074585     -0.640965     -0.078198
      5.16009      0.23713      2.04018        -2.505659      0.000351      1.053320
      4.78298      0.18204     11.49105         0.104040      0.146403      0.316859
      3.73655      2.94708      6.70184         0.094655      0.119301      0.662984
      3.73655      2.94708     16.28025         0.095856      0.237171     -1.055417
      4.92101      2.49993      3.49930        -1.455793     -0.522900     -0.181078
      4.78298      2.37366     12.75638         0.172278     -0.344748     -0.019781
      6.87583      5.13871      7.96718         0.212124     -0.331358      0.066438
      6.87583      5.13871     17.54559         0.099802      0.019073     -2.115584
      2.69013      5.71213      4.44331         0.055431      0.411457      1.075716
      2.69013      5.71213     14.02172         0.109769      0.129027     -0.345931
      1.64370      8.47718      9.23251         0.069137      0.159593     -0.353137
      1.68298      8.42518     18.60305         0.073851     -0.640803     -0.075787
      2.73645      5.66671      2.11803        -0.000525     -0.792888      0.273347
      2.69013      5.71213     11.49105         0.090419      0.148734      0.304722
      1.64370      8.47718      6.70184         0.122584      0.148227      0.424567
      1.64370      8.47718     16.28025         0.091103      0.236884     -1.047769
      2.69013      7.90376      3.17797         0.125893      0.086291      2.247048
      2.69013      7.90376     12.75638         0.165391     -0.344382     -0.016427
      4.78298     10.66881      7.96718         0.174338     -0.356252      0.053266
      4.78298     10.66881     17.54559         0.101627      0.019370     -2.114516
      5.82941      5.71213      4.44331         0.112453      0.418902      0.996514
      5.82941      5.71213     14.02172         0.110108      0.127288     -0.345139
      4.78298      8.47718      9.23251         0.080376      0.174729     -0.357305
      4.82226      8.42518     18.60305         0.073365     -0.637947     -0.080559
      5.85952      5.66758      2.11735         0.163078     -0.730500      0.255700
      5.82941      5.71213     11.49105         0.091396      0.149881      0.313548
      4.78298      8.47718      6.70184         0.111591      0.124958      0.370893
      4.78298      8.47718     16.28025         0.092136      0.235105     -1.048655
      5.82941      7.90376      3.17797         0.030299      0.073075      2.177137
      5.82941      7.90376     12.75638         0.162017     -0.347890     -0.018863
      7.92226     10.66881      7.96718         0.168012     -0.402849      0.026175
      7.92226     10.66881     17.54559         0.101115      0.018454     -2.115241
      3.28961      1.84282     11.14515        -0.126617     -0.268211      0.392481
      2.24318      4.60787      6.35595        -0.120749     -0.346578      0.355881
      2.24318      4.60787     15.93436        -0.082732     -0.064970     -0.272583
      3.28961      1.84282      4.78920         0.067939      0.266512     -0.305359
      3.28961      1.84282     14.36761        -0.113962     -0.220534     -0.410362
      2.24318      4.60787      9.57841        -0.106009     -0.247763     -0.444318
      2.18778      4.32025     18.72332        -0.050659      1.295953      3.831098
      1.19676      4.58218      3.17797         0.063649     -0.336186      0.180703
      1.19676      4.58218     12.75638        -0.121781      0.527115      0.013271
      2.24318      1.81714      7.96718        -0.152389      0.603788     -0.027497
      2.24318      1.81714     17.54559        -0.131002     -0.830897     -0.010656
      6.42830      1.91076      2.08789        -0.298178      2.280501     -2.598658
[...]
      2.24318     10.11228     12.75638        -0.128853      0.527650      0.007056
      3.28961      7.34723      7.96718        -0.164042      0.550673     -0.024418
      3.28961      7.34723     17.54559        -0.128063     -0.829798     -0.014902
      7.41916      7.08603      2.00033         0.014815      1.553646     -3.991106
      7.47532      7.37292     11.14515        -0.119436     -0.262762      0.403200
      6.42889     10.13797      6.35595        -0.087885     -0.125948      0.300972
      6.42889     10.13797     15.93436        -0.085130     -0.067690     -0.273471
      7.47532      7.37292      4.78920        -0.099425     -0.135444      0.155274
      7.47532      7.37292     14.36761        -0.118486     -0.215684     -0.402734
      6.42889     10.13797      9.57841        -0.094951     -0.253035     -0.417585
      6.37348      9.85035     18.72332        -0.051626      1.295449      3.828791
      5.38246     10.11228      3.17797         0.210006      1.581625     -0.985761
      5.38246     10.11228     12.75638        -0.123895      0.524349      0.013480
      6.42889      7.34723      7.96718        -0.129762      0.546600      0.004729
      6.42889      7.34723     17.54559        -0.130064     -0.830025     -0.015968
    total drift:                                0.011288     -0.022009      0.104296

  FREE ENERGIE OF THE ION-ELECTRON SYSTEM (eV)
  free  energy   TOTEN  =      -481.55556702 eV

  energy  without entropy=     -480.34155058  energy(sigma->0) =     -480.94855880