 vasp.5.4.4.18Apr17-6-g9f103f2a35 (build Aug 13 2019 17:33:20) gamma-only

 executed on             LinuxIFC date 2020.05.12  10:00:30

 INCAR:
 POTCAR:    PAW_PBE Ni_pv 06Sep2000
 POTCAR:    PAW_PBE S 06Sep2000
 POTCAR:    PAW_PBE Ni_pv 06Sep2000
   VRHFIN =Ni:

   TITEL  = PAW_PBE Ni_pv 06Sep2000
   POMASS =   58.690; ZVAL   =   16.000    mass and valenz
   ENMAX  =  367.986; ENMIN  =  275.989 eV

 POTCAR:    PAW_PBE S 06Sep2000
   VRHFIN =S : s2p4

   TITEL  = PAW_PBE S 06Sep2000
   POMASS =   32.066; ZVAL   =    6.000    mass and valenz
   ENMAX  =  258.689; ENMIN  =  194.016 eV

 Optimization of the real space projectors (new method)

 maximal supplied QI-value         = 18.90
 optimisation between [QCUT,QGAM] = [ 10.77, 21.73] = [ 32.49,132.25] Ry
 Optimized for a Real-space Cutoff    1.38 Angstroem

   l    n(q)    QCUT    max X(q) W(low)/X(q) W(high)/X(q)  e(spline)
   1      8    10.771     2.836    0.40E-04    0.29E-04    0.12E-06
   1      8    10.771     4.023    0.10E-03    0.48E-04    0.29E-06
   2      8    10.771    73.368    0.42E-03    0.97E-04    0.44E-06
   2      8    10.771    69.010    0.42E-03    0.99E-04    0.45E-06
   0      9    10.771    54.797    0.10E-03    0.56E-04    0.74E-07
   0      9    10.771    24.266    0.89E-04    0.49E-04    0.67E-07
 Optimization of the real space projectors (new method)

 maximal supplied QI-value         = 19.84
 optimisation between [QCUT,QGAM] = [ 10.71, 21.63] = [ 32.15,130.99] Ry
 Optimized for a Real-space Cutoff    1.19 Angstroem

   l    n(q)    QCUT    max X(q) W(low)/X(q) W(high)/X(q)  e(spline)
   0      8    10.715   187.594    0.41E-03    0.53E-04    0.66E-07
   0      8    10.715   164.243    0.41E-03    0.53E-04    0.65E-07
   1      7    10.715    67.533    0.19E-03    0.59E-03    0.68E-07
   1      7    10.715    50.729    0.19E-03    0.58E-03    0.67E-07
  PAW_PBE Ni_pv 06Sep2000               :
  PAW_PBE S 06Sep2000                   :

 POSCAR: Type_048 Type_148
  positions in cartesian coordinates
 exchange correlation table for  LEXCH =        8
   RHO(1)=    0.500       N(1)  =     2000
   RHO(2)=  100.500       N(2)  =     4000

 ion  position               nearest neighbor table
   1  0.256  0.016  0.152-  75 2.25  66 2.26  81 2.26  53 2.36  93 2.36   5 2.53   9 2.53
   2  0.256  0.016  0.481-  76 2.25  67 2.26  82 2.26  54 2.36  94 2.36  36 2.38  10 2.53   6 2.53

   3  0.006  0.266  0.317-  63 2.25  69 2.26  72 2.26  56 2.36  60 2.36   7 2.53  23 2.53
   4  0.033  0.261  0.637-  57 2.11  61 2.11  73 2.22   8 2.31
   5  0.256  0.016  0.066-  91 2.07  79 2.07  49 2.20  62 2.20  81 2.26  93 2.36   9 2.53   1 2.53

[...]

  18  0.756  0.016  0.394-  92 2.25  50 2.26  94 2.26  63 2.36  82 2.36  14 2.53  22 2.53
  19  0.506  0.266  0.230-  53 2.25  60 2.26  51 2.26  72 2.36  64 2.36  15 2.53  11 2.53
  20  0.506  0.266  0.558-  54 2.25  61 2.26  52 2.26  73 2.36  65 2.36  16 2.45
  21  0.690  0.215  0.109-  62 2.08  49 2.08  70 2.25  53 2.26  66 2.36  17 2.53  13 2.53
  22  0.690  0.215  0.438-  71 2.25  54 2.26  50 2.26  67 2.36  63 2.36  14 2.53  18 2.53
  23  0.940  0.465  0.273-  95 2.25  64 2.26  69 2.26  51 2.36  56 2.36   7 2.53   3 2.53
  24  0.942  0.472  0.592-  65 2.11  57 2.16  52 2.18  96 2.20  28 2.39   8 2.48
  25  0.256  0.516  0.152-  51 2.25  89 2.26  58 2.26  77 2.36  70 2.36  29 2.41  33 2.48
  26  0.256  0.516  0.481-  52 2.25  90 2.26  59 2.26  78 2.36  71 2.36  34 2.53  30 2.53
  27  0.006  0.766  0.317-  86 2.25  92 2.26  95 2.26  80 2.36  83 2.36  31 2.53  47 2.53
  28  0.075  0.610  0.642-  84 2.04  96 2.08  57 2.11  24 2.39
  29  0.218  0.528  0.070-  55 2.03  85 2.12  58 2.12  68 2.18  25 2.41  70 2.52  33 2.53
  30  0.256  0.516  0.394-  56 2.25  86 2.26  59 2.26  74 2.36  71 2.36  26 2.53  34 2.53
  31  0.006  0.766  0.230-  89 2.25  95 2.26  87 2.26  83 2.36  75 2.36  27 2.53  47 2.53
  32  0.006  0.766  0.558-  90 2.25  96 2.26  88 2.26  84 2.36  76 2.36
  33  0.202  0.720  0.116-  85 2.14  77 2.17  68 2.18  89 2.18  81 2.23  25 2.48  29 2.53
  34  0.190  0.715  0.438-  82 2.25  90 2.26  86 2.26  78 2.36  74 2.36  26 2.53  30 2.53
  35  0.440  0.965  0.273-  60 2.25  75 2.26  80 2.26  87 2.36  92 2.36  43 2.53  39 2.53
  36  0.442  0.047  0.550-  88 2.06  61 2.09  54 2.16  76 2.21   2 2.38
  37  0.756  0.516  0.152-  64 2.25  77 2.26  70 2.26  89 2.36  58 2.36  41 2.39  45 2.49
  38  0.756  0.516  0.481-  65 2.25  78 2.26  71 2.26  90 2.36  59 2.36  46 2.53  42 2.53
  39  0.506  0.766  0.317-  74 2.25  80 2.26  83 2.26  92 2.36  95 2.36  43 2.53  35 2.53
  40  0.577  0.607  0.639-  96 1.98  84 2.04  12 2.40
  41  0.796  0.525  0.071-  55 2.03  85 2.14  58 2.15  68 2.20  37 2.39  70 2.41  45 2.54
  42  0.756  0.516  0.394-  69 2.25  74 2.26  71 2.26  86 2.36  59 2.36  38 2.53  46 2.53
  43  0.506  0.766  0.230-  77 2.25  83 2.26  75 2.26  95 2.36  87 2.36  39 2.53  35 2.53
  44  0.506  0.766  0.558-  78 2.25  84 2.26  76 2.26  96 2.36  88 2.36
  45  0.684  0.720  0.116-  77 2.11  85 2.13  68 2.17  93 2.20  89 2.26  37 2.49  41 2.54
  46  0.690  0.715  0.438-  94 2.25  78 2.26  74 2.26  90 2.36  86 2.36  38 2.53  42 2.53
  47  0.940  0.965  0.273-  72 2.25  87 2.26  92 2.26  75 2.36  80 2.36  31 2.53  27 2.53
  48  0.939  0.048  0.550-  73 2.07  76 2.07  67 2.18  88 2.21  14 2.39
  49  0.460  0.156  0.068-   9 2.08  21 2.08   5 2.20  17 2.20  91 2.48
  50  0.468  0.167  0.382-  15 2.25  18 2.26  22 2.26   6 2.36  10 2.36
  51  0.218  0.417  0.218-  25 2.25  11 2.26  19 2.26  23 2.36   7 2.36
  52  0.218  0.417  0.547-  12 2.04  24 2.18  26 2.25  20 2.26   8 2.36
  53  0.468  0.167  0.164-  19 2.25  13 2.26  21 2.26   1 2.36   9 2.36
  54  0.468  0.167  0.493-  36 2.16  20 2.25  22 2.26  14 2.26  10 2.36   2 2.36
  55  0.020  0.480  0.021-  41 2.03  29 2.03  85 2.63  58 2.66
  56  0.218  0.417  0.329-  30 2.25  15 2.26  11 2.26   3 2.36  23 2.36
  57  0.156  0.420  0.650-  16 2.10   4 2.11  28 2.11  24 2.16  12 2.18
  58  0.053  0.414  0.109-  29 2.12  41 2.15   9 2.25  25 2.26  37 2.36  55 2.66
  59  0.053  0.414  0.438-  10 2.25  26 2.26  30 2.26  38 2.36  42 2.36
  60  0.303  0.164  0.273-  35 2.25  19 2.26  15 2.26   7 2.36   3 2.36
  61  0.303  0.164  0.602-  16 2.02  36 2.09   4 2.11  20 2.26   8 2.36
  62  0.959  0.156  0.068-  21 2.08   9 2.08  17 2.20   5 2.20  79 2.48
  63  0.968  0.167  0.382-   3 2.25   6 2.26  10 2.26  18 2.36  22 2.36
  64  0.718  0.417  0.218-  37 2.25  23 2.26   7 2.26  11 2.36  19 2.36
  65  0.718  0.417  0.547-  24 2.11  38 2.25   8 2.26  20 2.36  12 2.62
  66  0.968  0.167  0.164-   7 2.25   1 2.26   9 2.26  13 2.36  21 2.36
  67  0.968  0.167  0.493-  48 2.18   8 2.25  10 2.26   2 2.26  22 2.36  14 2.36
  68  0.470  0.638  0.072-  45 2.17  33 2.18  29 2.18  41 2.20  70 2.70  77 2.70
  69  0.718  0.417  0.329-  42 2.25   3 2.26  23 2.26  15 2.36  11 2.36
  70  0.553  0.414  0.109-  21 2.25  37 2.26  25 2.36  41 2.41  29 2.52  68 2.70
  71  0.553  0.414  0.438-  22 2.25  38 2.26  42 2.26  26 2.36  30 2.36
  72  0.803  0.164  0.273-  47 2.25   7 2.26   3 2.26  19 2.36  15 2.36
  73  0.803  0.164  0.602-  48 2.07   4 2.22   8 2.26  20 2.36
  74  0.468  0.667  0.382-  39 2.25  42 2.26  46 2.26  30 2.36  34 2.36
  75  0.218  0.917  0.218-   1 2.25  35 2.26  43 2.26  47 2.36  31 2.36
  76  0.218  0.917  0.547-  48 2.07  36 2.21   2 2.25  44 2.26  32 2.36
  77  0.468  0.667  0.164-  45 2.11  33 2.17  43 2.25  37 2.26  25 2.36  68 2.70
[...]
  82  0.053  0.914  0.438-  34 2.25   2 2.26   6 2.26  14 2.36  18 2.36
  83  0.303  0.664  0.273-  11 2.25  43 2.26  39 2.26  31 2.36  27 2.36
  84  0.303  0.664  0.602-  28 2.04  40 2.04  12 2.11  44 2.26  32 2.36
  85  0.956  0.677  0.072-  29 2.12  45 2.13  41 2.14  33 2.14  55 2.63  89 2.70
  86  0.968  0.667  0.382-  27 2.25  30 2.26  34 2.26  42 2.36  46 2.36
  87  0.718  0.917  0.218-  13 2.25  47 2.26  31 2.26  35 2.36  43 2.36
  88  0.718  0.917  0.547-  36 2.06  48 2.21  14 2.25  32 2.26  44 2.36
  89  0.968  0.667  0.164-  33 2.18  31 2.25  25 2.26  45 2.26  37 2.36  85 2.70
  90  0.968  0.667  0.493-  32 2.25  34 2.26  26 2.26  46 2.36  38 2.36
  91  0.523  0.964  0.024-   5 2.07  17 2.07  49 2.48  93 2.55
  92  0.718  0.917  0.329-  18 2.25  27 2.26  47 2.26  39 2.36  35 2.36
  93  0.553  0.914  0.109-  45 2.20  17 2.26  13 2.26   5 2.36   1 2.36  91 2.55
  94  0.553  0.914  0.438-  46 2.25  14 2.26  18 2.26   2 2.36   6 2.36
  95  0.803  0.664  0.273-  23 2.25  31 2.26  27 2.26  43 2.36  39 2.36
  96  0.803  0.664  0.602-  40 1.98  28 2.08  24 2.20  32 2.26  44 2.36

  LATTYP: Found a simple monoclinic cell.
 ALAT       =    13.8711386352
 B/A-ratio  =     2.1019774055
 C/A-ratio  =     1.3233367991
 COS(beta)  =    -0.9620914447

  Lattice vectors:

 A1 = (  -8.3714133957, -11.0601955134,   0.0000000000)
 A2 = (   0.0000000000,   0.0000000000, -29.1568200000)
 A3 = (  14.6499733957,  11.0601955134,   0.0000000000)

Analysis of symmetry for initial positions (statically):
 Subroutine PRICEL returns:
 Original cell was already a primitive cell.

 Routine SETGRP: Setting up the symmetry group for a
 simple monoclinic supercell.

 Subroutine GETGRP returns: Found  1 space group operations
 (whereof  1 operations were pure point group operations)
 out of a pool of  4 trial point group operations.

The static configuration has the point symmetry C_1 .

Analysis of symmetry for dynamics (positions and initial velocities):
 Subroutine PRICEL returns:
 Original cell was already a primitive cell.

 Routine SETGRP: Setting up the symmetry group for a
 simple monoclinic supercell.

 Subroutine GETGRP returns: Found  1 space group operations
 (whereof  1 operations were pure point group operations)
 out of a pool of  4 trial point group operations.

The dynamic configuration has the point symmetry C_1 .

 Subroutine INISYM returns: Found  1 space group operations
 (whereof  1 operations are pure point group operations),
 and found     1 'primitive' translations

 KPOINTS: gamma-point-only calculation. no periodi

Automatic generation of k-mesh.
Space group operators:
 irot       det(A)        alpha          n_x          n_y          n_z        tau_x        tau_y        tau_z
    1     1.000000     0.000000     1.000000     0.000000     0.000000     0.000000     0.000000     0.000000

 Subroutine IBZKPT returns following result:

 Found      1 irreducible k-points:

 Following reciprocal coordinates:
            Coordinates               Weight
  0.000000  0.000000  0.000000      1.000000

 Following cartesian coordinates:
            Coordinates               Weight
  0.000000  0.000000  0.000000      1.000000

 SYSTEM =  "Millerite NiS"
 POSCAR =  Type_048 Type_148

 Startparameter for this run:
   NWRITE =      2    write-flag & timer
   PREC   = normal    normal or accurate (medium, high low for compatibility)
   ISTART =      0    job   : 0-new  1-cont  2-samecut
   ICHARG =      2    charge: 1-file 2-atom 10-const
   ISPIN  =      1    spin polarized calculation?
   LNONCOLLINEAR =      F non collinear calculations
   LSORBIT =      F    spin-orbit coupling
   INIWAV =      1    electr: 0-lowe 1-rand  2-diag
   LASPH  =      F    aspherical Exc in radial PAW
[...]
     0.000000000  0.000000000 29.156820000     0.000000000  0.000000000  0.034297293

  length of vectors
     6.278560000 11.256463038 29.156820000     0.162098538  0.090414315  0.034297293

 FORCES acting on ions
    electron-ion (+dipol)            ewald-force                    non-local-force                 convergence-correction
   -.421E+02 0.213E+03 0.403E+04   0.410E+02 -.214E+03 -.403E+04   0.106E+01 0.104E+01 -.217E+01   0.480E-01 -.350E-01 -.570E+00
   0.206E+02 0.548E+03 -.333E+04   -.210E+02 -.551E+03 0.333E+04   0.361E-01 0.232E+01 -.272E+00   -.192E-01 -.938E-02 0.515E+00
   -.411E+02 0.249E+03 0.248E+03   0.402E+02 -.249E+03 -.249E+03   0.101E+01 0.682E+00 -.119E+01   -.106E-01 -.749E-02 0.116E+01
   0.486E+03 0.832E+03 -.748E+04   -.489E+03 -.830E+03 0.748E+04   0.138E+01 -.287E+01 0.291E+01   0.169E+00 -.100E-01 0.296E+00
   -.160E+02 0.256E+03 0.689E+04   0.167E+02 -.259E+03 -.689E+04   -.627E+00 0.277E+01 0.340E+01   0.238E-01 -.306E-01 -.776E+00
   -.408E+02 0.305E+03 -.621E+03   0.399E+02 -.306E+03 0.619E+03   0.979E+00 0.709E+00 0.751E+00   0.773E-02 0.969E-01 0.108E+01
   -.402E+02 0.254E+03 0.315E+04   0.393E+02 -.254E+03 -.315E+04   0.101E+01 0.683E+00 0.103E+01   -.111E-01 0.546E-01 0.708E-01
   0.820E+02 0.169E+03 -.473E+04   -.829E+02 -.167E+03 0.473E+04   0.922E+00 -.191E+01 -.448E+00   0.381E-01 -.103E+00 0.533E+00
   -.428E+02 -.686E+03 0.563E+04   0.425E+02 0.689E+03 -.562E+04   0.269E+00 -.288E+01 -.725E+00   0.241E-01 0.172E+00 -.767E+00
   -.388E+02 -.573E+03 -.201E+04   0.385E+02 0.574E+03 0.201E+04   0.511E+00 -.128E+01 0.593E+00   0.913E-02 -.178E+00 0.738E+00
   -.416E+02 -.505E+03 0.168E+04   0.409E+02 0.506E+03 -.168E+04   0.878E+00 -.120E+01 -.107E+00   -.101E-01 0.867E-01 0.643E+00
   -.430E+03 -.327E+03 -.579E+04   0.436E+03 0.325E+03 0.580E+04   -.406E+01 0.992E+00 -.257E+01   0.122E+00 0.161E+00 0.643E+00
   -.420E+02 0.214E+03 0.403E+04   0.408E+02 -.215E+03 -.403E+04   0.125E+01 0.119E+01 -.218E+01   -.264E-02 -.102E-01 -.604E+00
   0.852E+01 0.542E+03 -.334E+04   -.891E+01 -.545E+03 0.333E+04   0.427E-01 0.222E+01 -.248E+00   -.218E-03 0.918E-03 0.525E+00
   -.415E+02 0.249E+03 0.248E+03   0.406E+02 -.249E+03 -.249E+03   0.982E+00 0.672E+00 -.122E+01   0.177E-02 -.206E-01 0.117E+01
   -.559E+03 0.791E+03 -.747E+04   0.559E+03 -.786E+03 0.747E+04   0.148E+01 -.457E+01 0.469E+01   -.613E-01 0.954E-01 0.216E+00
   -.796E+01 0.241E+03 0.688E+04   0.839E+01 -.243E+03 -.688E+04   -.382E+00 0.265E+01 0.344E+01   -.126E-01 -.111E-01 -.624E+00
   -.413E+02 0.304E+03 -.622E+03   0.404E+02 -.305E+03 0.620E+03   0.945E+00 0.754E+00 0.742E+00   0.677E-02 0.110E+00 0.110E+01
   -.425E+02 0.252E+03 0.315E+04   0.416E+02 -.252E+03 -.315E+04   0.985E+00 0.723E+00 0.104E+01   0.137E-01 0.219E-01 0.482E-01
   -.265E+03 0.124E+03 -.484E+04   0.266E+03 -.121E+03 0.484E+04   -.732E+00 -.189E+01 -.694E+00   -.546E-01 0.284E-01 0.633E+00
   -.126E+02 -.731E+03 0.565E+04   0.126E+02 0.736E+03 -.565E+04   -.109E-01 -.486E+01 -.915E+00   -.474E-02 0.593E-01 -.702E+00
   -.400E+02 -.577E+03 -.202E+04   0.396E+02 0.578E+03 0.202E+04   0.595E+00 -.123E+01 0.718E+00   0.714E-02 -.186E+00 0.746E+00
   -.407E+02 -.506E+03 0.168E+04   0.399E+02 0.506E+03 -.168E+04   0.913E+00 -.121E+01 -.294E-02   -.163E-01 0.100E+00 0.639E+00
   0.406E+03 -.380E+03 -.563E+04   -.411E+03 0.380E+03 0.563E+04   0.346E+01 -.979E+00 -.784E+00   0.177E-02 0.208E+00 0.585E+00
   -.103E+03 0.398E+03 0.405E+04   0.102E+03 -.400E+03 -.405E+04   0.139E+01 0.187E+01 -.137E+01   0.262E-01 -.200E-01 -.801E+00
   -.663E+02 0.118E+03 -.357E+04   0.653E+02 -.119E+03 0.357E+04   0.114E+01 0.756E+00 -.163E+01   0.183E-01 0.448E-01 0.611E+00
   -.412E+02 0.265E+03 0.207E+03   0.403E+02 -.266E+03 -.207E+03   0.981E+00 0.458E+00 -.116E+01   -.129E-01 -.131E-01 0.116E+01
   0.579E+02 -.112E+04 -.731E+04   -.595E+02 0.112E+04 0.731E+04   0.102E+01 -.874E-01 -.591E+00   0.101E+00 0.427E-01 0.922E-01
   -.398E+03 0.354E+03 0.708E+04   0.404E+03 -.357E+03 -.709E+04   -.305E+01 0.290E+01 0.745E+01   0.484E-01 0.253E-01 -.589E+00
   -.430E+02 0.219E+03 -.683E+03   0.421E+02 -.219E+03 0.682E+03   0.102E+01 0.573E+00 0.975E+00   0.753E-02 -.107E+00 0.946E+00
   -.381E+02 0.251E+03 0.308E+04   0.372E+02 -.251E+03 -.308E+04   0.104E+01 0.503E+00 0.117E+01   -.341E-01 -.677E-01 -.132E+00
   -.310E+02 -.384E+03 -.545E+04   0.294E+02 0.384E+03 0.545E+04   0.159E+01 0.473E+00 0.332E+01   0.359E-01 0.481E-01 0.510E+00
   -.772E+02 -.574E+03 0.552E+04   0.766E+02 0.578E+03 -.551E+04   0.215E+00 -.427E+01 -.165E+00   0.243E-01 -.271E+00 -.837E+00
   -.435E+02 -.515E+03 -.222E+04   0.429E+02 0.516E+03 0.222E+04   0.775E+00 -.115E+01 -.345E+00   0.692E-03 0.381E-01 0.898E+00
   -.416E+02 -.525E+03 0.167E+04   0.407E+02 0.525E+03 -.167E+04   0.101E+01 -.133E+01 -.102E+00   0.164E-01 0.374E+00 0.659E+00
   -.392E+02 0.594E+03 -.587E+04   0.371E+02 -.594E+03 0.587E+04   0.122E+01 0.709E+00 -.238E+01   0.122E-01 -.140E+00 0.380E+00
   0.297E+02 0.391E+03 0.404E+04   -.305E+02 -.394E+03 -.404E+04   0.765E+00 0.203E+01 -.144E+01   -.147E-01 0.313E-01 -.797E+00
   -.135E+02 0.123E+03 -.359E+04   0.126E+02 -.124E+03 0.360E+04   0.942E+00 0.106E+01 -.208E+01   -.224E-01 0.373E-01 0.568E+00
   -.414E+02 0.265E+03 0.206E+03   0.405E+02 -.266E+03 -.207E+03   0.984E+00 0.443E+00 -.109E+01   0.853E-02 -.189E-01 0.117E+01
   -.125E+03 -.729E+03 -.720E+04   0.123E+03 0.726E+03 0.720E+04   0.155E+01 0.298E+01 0.307E+01   -.977E-01 0.202E-01 0.114E+00
   0.375E+03 0.366E+03 0.706E+04   -.380E+03 -.369E+03 -.706E+04   0.262E+01 0.278E+01 0.771E+01   -.319E-01 0.684E-01 -.553E+00
   -.396E+02 0.219E+03 -.685E+03   0.387E+02 -.219E+03 0.683E+03   0.930E+00 0.565E+00 0.902E+00   0.818E-02 -.121E+00 0.940E+00
   -.416E+02 0.252E+03 0.307E+04   0.405E+02 -.252E+03 -.307E+04   0.115E+01 0.596E+00 0.138E+01   0.309E-01 -.904E-01 -.173E+00
   -.405E+02 -.341E+03 -.546E+04   0.390E+02 0.341E+03 0.546E+04   0.156E+01 0.551E+00 0.269E+01   -.120E-01 -.344E-01 0.562E+00
   0.163E+02 -.568E+03 0.553E+04   -.144E+02 0.573E+03 -.553E+04   -.129E+01 -.530E+01 0.448E+00   0.386E-03 -.219E+00 -.816E+00
   -.388E+02 -.514E+03 -.222E+04   0.381E+02 0.514E+03 0.222E+04   0.868E+00 -.113E+01 -.192E+00   0.187E-01 0.308E-01 0.889E+00
   -.409E+02 -.524E+03 0.167E+04   0.401E+02 0.525E+03 -.167E+04   0.987E+00 -.135E+01 -.138E+00   -.365E-01 0.347E+00 0.651E+00
   0.896E+01 0.584E+03 -.589E+04   -.102E+02 -.585E+03 0.589E+04   0.526E+00 0.102E+00 -.371E+01   -.589E-02 -.183E+00 0.357E+00
   -.635E+01 -.276E+03 0.271E+04   0.606E+01 0.282E+03 -.272E+04   0.131E+00 -.433E+01 0.298E+01   0.385E-01 0.437E-01 -.260E+00
   0.391E+02 -.853E+02 -.150E+03   -.401E+02 0.866E+02 0.147E+03   0.893E+00 -.157E+01 0.246E+01   0.958E-02 -.643E-01 0.439E+00
   0.377E+02 -.723E+02 0.126E+04   -.383E+02 0.732E+02 -.126E+04   0.454E+00 -.128E+01 0.256E+01   -.957E-02 0.126E+00 -.995E-01
   0.900E+01 -.695E+02 -.150E+04   -.924E+01 0.718E+02 0.150E+04   -.176E+00 -.333E+01 -.173E+01   0.618E-01 0.470E-01 0.212E+00
   0.367E+02 -.105E+03 0.144E+04   -.381E+02 0.107E+03 -.144E+04   0.121E+01 -.174E+01 -.158E+01   0.546E-01 -.539E-01 -.288E+00
   0.118E+02 -.188E+03 -.130E+04   -.121E+02 0.192E+03 0.130E+04   -.299E-01 -.285E+01 -.130E+01   0.143E-01 -.590E-01 0.131E+00
   0.252E+01 0.176E+03 0.286E+04   -.258E+01 -.178E+03 -.286E+04   0.104E+00 0.364E+00 0.293E+01   0.127E-01 0.381E-01 -.151E+00
   0.396E+02 -.879E+02 0.822E+01   -.403E+02 0.889E+02 -.645E+01   0.629E+00 -.133E+01 -.261E+01   0.470E-03 0.132E-01 0.429E+00
   0.572E+02 -.262E+02 -.293E+04   -.585E+02 0.260E+02 0.293E+04   0.129E+01 0.457E-02 -.368E+01   0.998E-01 -.331E-01 0.440E-01
   0.233E+02 0.285E+03 0.207E+04   -.240E+02 -.288E+03 -.207E+04   0.734E+00 0.270E+01 -.749E+00   0.217E-02 0.856E-01 -.287E+00
   0.405E+02 0.136E+03 -.786E+03   -.414E+02 -.138E+03 0.785E+03   0.748E+00 0.253E+01 0.380E+00   -.113E-02 -.705E-02 0.246E+00
   0.394E+02 0.163E+03 0.635E+03   -.403E+02 -.166E+03 -.635E+03   0.752E+00 0.278E+01 -.494E-01   -.536E-02 -.545E-01 0.309E+00
[...]
   0.396E+02 0.171E+03 0.618E+03   -.404E+02 -.173E+03 -.619E+03   0.656E+00 0.271E+01 -.246E+00   -.251E-01 -.165E+00 0.251E+00
   -.128E+02 -.477E+03 -.224E+04   0.133E+02 0.478E+03 0.224E+04   0.219E-01 0.120E+01 -.178E+01   0.554E-01 -.566E-01 0.213E+00
   0.269E+01 -.283E+03 0.272E+04   -.302E+01 0.291E+03 -.273E+04   0.236E+00 -.524E+01 0.469E+01   -.205E-01 -.719E-01 -.231E+00
   0.398E+02 -.852E+02 -.185E+03   -.405E+02 0.863E+02 0.183E+03   0.582E+00 -.135E+01 0.268E+01   -.259E-02 -.765E-01 0.442E+00
   0.387E+02 -.964E+02 0.124E+04   -.395E+02 0.975E+02 -.125E+04   0.643E+00 -.155E+01 0.209E+01   0.118E-01 0.167E+00 -.161E+00
   0.300E+01 0.225E+03 -.213E+04   -.391E+01 -.225E+03 0.214E+04   0.234E+01 -.101E+01 -.191E+01   0.228E-01 -.333E-01 0.151E+00
   0.402E+02 -.622E+02 0.141E+04   -.407E+02 0.635E+02 -.141E+04   0.255E+00 -.134E+01 -.208E+01   -.423E-01 -.982E-01 -.361E+00
   0.420E+02 -.145E+03 -.148E+04   -.426E+02 0.146E+03 0.149E+04   0.431E+00 -.140E+01 -.313E+01   0.936E-02 0.471E-01 0.258E+00
   0.214E+01 0.191E+03 0.281E+04   -.264E+01 -.194E+03 -.281E+04   0.427E+00 0.148E+01 0.348E+01   0.156E-01 -.299E-01 -.267E+00
   0.396E+02 -.783E+02 0.500E+01   -.404E+02 0.794E+02 -.319E+01   0.652E+00 -.153E+01 -.269E+01   0.136E-01 0.131E+00 0.491E+00
   0.400E+02 0.187E+03 0.209E+04   -.410E+02 -.188E+03 -.209E+04   0.118E+01 0.401E+00 0.192E+01   0.625E-01 -.521E-01 -.238E+00
   0.384E+02 0.222E+03 -.795E+03   -.394E+02 -.224E+03 0.794E+03   0.911E+00 0.268E+01 -.146E-01   0.925E-02 0.901E-01 0.302E+00
   0.395E+02 0.171E+03 0.619E+03   -.404E+02 -.173E+03 -.619E+03   0.709E+00 0.267E+01 -.180E+00   0.340E-02 -.166E+00 0.249E+00
   0.416E+02 -.437E+03 -.226E+04   -.429E+02 0.437E+03 0.226E+04   0.174E+01 0.840E+00 -.180E+01   -.677E-01 0.588E-02 0.221E+00
   -.683E+02 0.165E+02 -.430E+02   0.131E-11 0.392E-11 -.455E-11   0.679E+02 -.167E+02 0.262E+02   0.376E+00 0.335E+00 0.168E+02

 POSITION                                       TOTAL-FORCE (eV/Angst)
      1.64370      0.18204      4.44331        -0.023107     -0.137559      0.559936
      1.64370      0.18204     14.02172        -0.365928     -0.369038     -1.422794
      0.59727      2.94708      9.23251         0.093429      0.157987     -0.367593
      0.75353      2.88813     18.58118        -0.928176     -0.564577      0.122139
      1.64370      0.18204      1.91264         0.049486      0.026579      2.173524
      1.64370      0.18204     11.49105         0.103191      0.115192      0.259849
      0.59727      2.94708      6.70184         0.121552      0.135414      0.413894
      0.59727      2.94708     16.28025         0.094128      0.324575     -1.249053
      1.64370      2.37366      3.17797         0.001916      0.423482      2.403850
      1.64370      2.37366     12.75638         0.155906     -0.298134     -0.085512
      3.73655      5.13871      7.96718         0.151488     -0.376001      0.001071
      3.38214      5.23497     17.49999         1.812547     -0.182645     -0.142413
      4.78298      0.18204      4.44331        -0.001713     -0.136589      0.490797
      4.78298      0.18204     14.02172        -0.349676     -0.430195     -1.336667
      3.73655      2.94708      9.23251         0.086258      0.160775     -0.379651
      3.28838      3.12858     18.67908         1.408103     -0.078362      0.515457
      4.78298      0.18204      1.91264         0.036715      0.118163      2.197983
      4.78298      0.18204     11.49105         0.112018      0.114452      0.265899
      3.73655      2.94708      6.70184         0.092865      0.140051      0.402572
      3.73655      2.94708     16.28025         0.503780      0.514138     -0.025861
      4.78298      2.37366      3.17797         0.004476      0.531186      2.374178
      4.78298      2.37366     12.75638         0.174602     -0.266995     -0.079933
      6.87583      5.13871      7.96718         0.153889     -0.386834     -0.000516
      6.90334      5.22050     17.26107        -1.317348     -0.468216     -0.190972
      2.69013      5.71213      4.44331         0.150405     -0.295376      0.571993
      2.69013      5.71213     14.02172         0.145784      0.019500     -0.488511
      1.64370      8.47718      9.23251         0.088885      0.178907     -0.400219
      1.74569      6.74178     18.73118        -0.417691      0.819035      0.694605
      2.47599      5.84236      2.04453         2.268289     -0.339562      1.162625
      2.69013      5.71213     11.49105         0.056980      0.172825      0.300280
      1.64370      8.47718      6.70184         0.099912      0.122745      0.485473
      1.64370      8.47718     16.28025         0.039355      0.031323     -0.043600
      2.77306      7.95963      3.39630        -0.336344     -0.210049      0.489806
      2.69013      7.90376     12.75638         0.183876     -0.369821     -0.093696
      4.78298     10.66881      7.96718         0.157961     -0.425944      0.001466
      2.87144      0.52091     16.02995        -0.880384      0.063605      0.591214
      5.82941      5.71213      4.44331        -0.033831     -0.255802      0.669532
      5.82941      5.71213     14.02172         0.085369      0.037825     -0.487012
      4.78298      8.47718      9.23251         0.080380      0.169923     -0.388179
      4.89473      6.71174     18.63124        -0.149737     -0.222972      0.607810
      6.09431      5.80932      2.07493        -2.397509     -0.391068      1.320668
      5.82941      5.71213     11.49105         0.043200      0.162555      0.300450
      4.78298      8.47718      6.70184         0.145326      0.148999      0.543533
      4.78298      8.47718     16.28025         0.042320      0.049320     -0.110157
      5.79938      7.96298      3.38477         0.519304     -0.198630      0.696744
      5.82941      7.90376     12.75638         0.177764     -0.367354     -0.110280
      7.92226     10.66881      7.96718         0.154791     -0.415708      0.010590
      5.99784      0.53011     16.04823        -0.730380     -0.233946      0.193486
      3.21150      1.72206      1.97607        -0.113202      1.845544     -3.423050
      3.28961      1.84282     11.14515        -0.040953     -0.270112      0.396320
      2.24318      4.60787      6.35595        -0.122184     -0.230892      0.332403
      2.24318      4.60787     15.93436        -0.353420     -0.911455     -1.859647
      3.28961      1.84282      4.78920        -0.094900     -0.025716      0.566616
      3.28961      1.84282     14.36761        -0.250549      0.553139     -0.707303
      1.13182      5.30700      0.61588         0.062723     -1.807883     -4.127965
      2.24318      4.60787      9.57841        -0.067105     -0.259560     -0.402635
      1.86123      4.64374     18.94076         0.131931     -0.243050      2.893483
      1.19676      4.58218      3.17797         0.033618     -0.426668      1.336385
      1.19676      4.58218     12.75638        -0.157761      0.433855      0.145192
      2.24318      1.81714      7.96718        -0.127988      0.553998     -0.058331
[...]
      2.24318     10.11228     12.75638        -0.102584      0.546958     -0.134688
      3.28961      7.34723      7.96718        -0.123178      0.536724     -0.027321
      3.28961      7.34723     17.54559         0.506215      1.515487     -0.463254
      7.41697      7.48668      2.09121        -0.117594      2.477808     -2.549396
      7.47532      7.37292     11.14515        -0.172254     -0.284705      0.428713
      6.42889     10.13797      6.35595        -0.119803     -0.255284      0.271220
      6.42889     10.13797     15.93436         1.456849     -1.274324      0.330883
      7.47532      7.37292      4.78920        -0.263670     -0.092959      1.148119
      7.47532      7.37292     14.36761        -0.153076     -0.203349     -0.248189
      5.30417     10.66222      0.68924        -0.053770     -1.692472     -3.619891
      6.42889     10.13797      9.57841        -0.098958     -0.212230     -0.394652
      5.38246     10.11228      3.17797         0.254396     -0.426529      1.370485
      5.38246     10.11228     12.75638        -0.116474      0.515647     -0.132263
      6.42889      7.34723      7.96718        -0.162954      0.530905     -0.020897
      6.42889      7.34723     17.54559         0.420293      0.902672     -0.307503
    total drift:                                0.007553      0.136844      0.064376

  FREE ENERGIE OF THE ION-ELECTRON SYSTEM (eV)
  free  energy   TOTEN  =      -474.47191337 eV

  energy  without entropy=     -473.01190721  energy(sigma->0) =     -473.74191029