 vasp.5.4.4.18Apr17-6-g9f103f2a35 (build Aug 13 2019 17:33:20) gamma-only

 executed on             LinuxIFC date 2020.05.12  22:31:29

 INCAR:
 POTCAR:    PAW_PBE Ni_pv 06Sep2000
 POTCAR:    PAW_PBE S 06Sep2000
 POTCAR:    PAW_PBE Ni_pv 06Sep2000
   VRHFIN =Ni:

   TITEL  = PAW_PBE Ni_pv 06Sep2000
   POMASS =   58.690; ZVAL   =   16.000    mass and valenz
   ENMAX  =  367.986; ENMIN  =  275.989 eV

 POTCAR:    PAW_PBE S 06Sep2000
   VRHFIN =S : s2p4

   TITEL  = PAW_PBE S 06Sep2000
   POMASS =   32.066; ZVAL   =    6.000    mass and valenz
   ENMAX  =  258.689; ENMIN  =  194.016 eV

 Optimization of the real space projectors (new method)

 maximal supplied QI-value         = 18.90
 optimisation between [QCUT,QGAM] = [ 10.77, 21.73] = [ 32.49,132.25] Ry
 Optimized for a Real-space Cutoff    1.38 Angstroem

   l    n(q)    QCUT    max X(q) W(low)/X(q) W(high)/X(q)  e(spline)
   1      8    10.771     2.836    0.40E-04    0.29E-04    0.12E-06
   1      8    10.771     4.023    0.10E-03    0.48E-04    0.29E-06
   2      8    10.771    73.368    0.42E-03    0.97E-04    0.44E-06
   2      8    10.771    69.010    0.42E-03    0.99E-04    0.45E-06
   0      9    10.771    54.797    0.10E-03    0.56E-04    0.74E-07
   0      9    10.771    24.266    0.89E-04    0.49E-04    0.67E-07
 Optimization of the real space projectors (new method)

 maximal supplied QI-value         = 19.84
 optimisation between [QCUT,QGAM] = [ 10.71, 21.63] = [ 32.15,130.99] Ry
 Optimized for a Real-space Cutoff    1.19 Angstroem

   l    n(q)    QCUT    max X(q) W(low)/X(q) W(high)/X(q)  e(spline)
   0      8    10.715   187.594    0.41E-03    0.53E-04    0.66E-07
   0      8    10.715   164.243    0.41E-03    0.53E-04    0.65E-07
   1      7    10.715    67.533    0.19E-03    0.59E-03    0.68E-07
   1      7    10.715    50.729    0.19E-03    0.58E-03    0.67E-07
  PAW_PBE Ni_pv 06Sep2000               :
  PAW_PBE S 06Sep2000                   :

 POSCAR: Type_036 Type_136
  positions in cartesian coordinates
 exchange correlation table for  LEXCH =        8
   RHO(1)=    0.500       N(1)  =     2000
   RHO(2)=  100.500       N(2)  =     4000

 ion  position               nearest neighbor table
   1  0.397  0.795  0.118-  49 2.05  61 2.09  42 2.25  50 2.36  62 2.36  26 2.40
   2  0.547  0.645  0.245-  43 2.25  62 2.26  50 2.26  63 2.36  51 2.36  27 2.53  13 2.53
   3  0.698  0.494  0.372-  44 2.25  51 2.26  63 2.26  52 2.36  64 2.36  14 2.53  28 2.53
   4  0.838  0.342  0.480-  52 2.00  64 2.00  25 2.47  15 2.49
   5  0.114  0.412  0.160-  53 2.12  68 2.12  45 2.25  54 2.36  65 2.36  20 2.46  29 2.53  16 2.53

   6  0.264  0.261  0.287-  46 2.25  65 2.26  54 2.26  55 2.36  66 2.36  17 2.53  30 2.53
   7  0.414  0.111  0.414-  56 2.10  67 2.17  55 2.26  66 2.26  47 2.33  31 2.53  18 2.53
   8  0.099  0.781  0.443-  58 2.04  72 2.09  59 2.12  37 2.13
   9  0.683  0.180  0.107-  70 2.02  38 2.14  69 2.17  60 2.23
  10  0.831  0.028  0.203-  60 2.06  39 2.25  70 2.26  57 2.36  71 2.36  23 2.53  33 2.53
  11  0.981  0.878  0.330-  40 2.25  57 2.26  71 2.26  58 2.36  72 2.36  34 2.53  24 2.53
  12  0.364  0.549  0.105-  62 2.04  53 2.12  61 2.14  38 2.19  26 2.53
  13  0.508  0.420  0.212-  54 2.25  62 2.26  38 2.26  39 2.36  63 2.36  27 2.53   2 2.53
  14  0.658  0.270  0.338-  55 2.25  63 2.26  39 2.26  64 2.36  40 2.36   3 2.53  28 2.53
  15  0.791  0.122  0.450-  40 2.04  37 2.11  56 2.13  64 2.15   4 2.49
  16  0.074  0.187  0.127-  41 2.05  68 2.12  60 2.24  42 2.36  65 2.36  20 2.50  29 2.53   5 2.53

[...]

  32  0.734  0.818  0.443-  56 2.04  44 2.05  72 2.05  31 2.43
  33  0.015  0.843  0.136-  48 2.08  61 2.11  60 2.22  45 2.36  57 2.36  23 2.53  10 2.53
  34  0.166  0.693  0.263-  62 2.25  57 2.26  45 2.26  46 2.36  58 2.36  11 2.53  24 2.53
  35  0.316  0.543  0.390-  59 2.13  47 2.14  63 2.25  58 2.26  46 2.26  36 2.34  21 2.50
  36  0.445  0.432  0.481-  64 2.07  59 2.07  47 2.08  35 2.34
  37  0.004  0.997  0.472-  15 2.11  25 2.12   8 2.13  40 2.61
  38  0.586  0.406  0.108-  26 2.06   9 2.14  12 2.19  13 2.26  27 2.26
  39  0.736  0.256  0.235-  10 2.25  28 2.26  14 2.26  13 2.36  27 2.36
  40  0.886  0.105  0.362-  15 2.04  25 2.04  11 2.25  14 2.36  28 2.36  37 2.61
  41  0.162  0.167  0.036-  20 2.01  16 2.05  29 2.06
  42  0.303  0.023  0.151-   1 2.25  30 2.26  17 2.26  16 2.36  29 2.36
  43  0.453  0.872  0.278-   2 2.25  31 2.26  18 2.26  30 2.36  17 2.36
  44  0.603  0.722  0.405-  32 2.05  19 2.10   3 2.25  31 2.36  18 2.36  67 2.71
  45  0.019  0.639  0.193-   5 2.25  24 2.26  34 2.26  23 2.36  33 2.36
  46  0.170  0.489  0.320-  21 2.03   6 2.25  35 2.26  34 2.36  24 2.36
  47  0.307  0.354  0.433-  36 2.08  35 2.14  21 2.29   7 2.33
  48  0.848  0.836  0.078-  23 2.03  33 2.08  22 2.11  70 2.77
  49  0.513  0.802  0.038-   1 2.05  26 2.06  22 2.06  50 2.70
  50  0.636  0.692  0.151-  26 2.04  23 2.25  27 2.26   2 2.26   1 2.36  49 2.70
  51  0.787  0.542  0.278-  24 2.25   3 2.26  28 2.26  27 2.36   2 2.36
  52  0.937  0.391  0.405-   4 2.00  25 2.15  21 2.22   3 2.36  28 2.36
  53  0.222  0.446  0.078-  20 2.07  29 2.09   5 2.12  12 2.12
  54  0.353  0.308  0.193-  13 2.25   6 2.26  30 2.26  29 2.36   5 2.36
  55  0.503  0.158  0.320-  14 2.25   7 2.26  31 2.26   6 2.36  30 2.36  56 2.75
  56  0.634  0.031  0.433-  32 2.04   7 2.10  15 2.13  31 2.15  55 2.75
  57  0.070  0.925  0.236-  17 2.25  34 2.26  11 2.26  10 2.36  33 2.36
  58  0.220  0.775  0.363-   8 2.04  18 2.25  35 2.26  34 2.36  11 2.36
  59  0.278  0.624  0.485-  19 2.05  36 2.07   8 2.12  35 2.13
  60  0.917  0.076  0.120-  10 2.06  33 2.22   9 2.23  16 2.24
  61  0.215  0.758  0.090-   1 2.09  33 2.11  12 2.14  62 2.60
  62  0.350  0.641  0.194-  12 2.04  34 2.25  13 2.26   2 2.26   1 2.36  61 2.60
  63  0.501  0.491  0.321-  35 2.25   3 2.26  14 2.26   2 2.36  13 2.36
  64  0.651  0.341  0.448-   4 2.00  36 2.07  15 2.15  14 2.36   3 2.36
  65  0.067  0.258  0.236-  28 2.25   6 2.26  17 2.26   5 2.36  16 2.36
  66  0.218  0.108  0.363-  25 2.12  18 2.26   7 2.26  17 2.36   6 2.36
  67  0.408  0.934  0.472-  18 1.99   7 2.17  19 2.30  44 2.71
  68  0.924  0.397  0.123-  20 2.07  16 2.12   5 2.12  27 2.13
  69  0.511  0.148  0.055-  22 2.13  29 2.16   9 2.17  70 2.45
  70  0.634  0.025  0.152-   9 2.02  22 2.03  30 2.25  10 2.26  23 2.26  69 2.45  48 2.77
  71  0.784  0.874  0.279-  31 2.25  24 2.26  11 2.26  23 2.36  10 2.36
  72  0.934  0.724  0.405-  32 2.05   8 2.09  21 2.14  11 2.36  24 2.36

  LATTYP: Found a base centered orthorhombic cell.
 ALAT       =    11.4527836704
 B/A-ratio  =     1.4485816945
 C/A-ratio  =     1.8059804630

  Lattice vectors:

 A1 = (  10.0797329849,   0.0000000000,   0.0000000000)
 A2 = (  -3.5732980427,  -9.4251025535,   0.0000000000)
 A3 = (   0.0000000000,   0.0000000000, -20.6835035552)

Analysis of symmetry for initial positions (statically):
 Subroutine PRICEL returns:
 Original cell was already a primitive cell.

 Routine SETGRP: Setting up the symmetry group for a
 base centered orthorhombic supercell.

 Subroutine GETGRP returns: Found  1 space group operations
 (whereof  1 operations were pure point group operations)
 out of a pool of  8 trial point group operations.

The static configuration has the point symmetry C_1 .

Analysis of symmetry for dynamics (positions and initial velocities):
 Subroutine PRICEL returns:
 Original cell was already a primitive cell.

 Routine SETGRP: Setting up the symmetry group for a
 base centered orthorhombic supercell.

 Subroutine GETGRP returns: Found  1 space group operations
 (whereof  1 operations were pure point group operations)
 out of a pool of  8 trial point group operations.

The dynamic configuration has the point symmetry C_1 .

 Subroutine INISYM returns: Found  1 space group operations
 (whereof  1 operations are pure point group operations),
 and found     1 'primitive' translations

 KPOINTS: gamma-point-only calculation. no periodi

Automatic generation of k-mesh.
Space group operators:
 irot       det(A)        alpha          n_x          n_y          n_z        tau_x        tau_y        tau_z
    1     1.000000     0.000000     1.000000     0.000000     0.000000     0.000000     0.000000     0.000000

 Subroutine IBZKPT returns following result:

 Found      1 irreducible k-points:

 Following reciprocal coordinates:
            Coordinates               Weight
  0.000000  0.000000  0.000000      1.000000

 Following cartesian coordinates:
            Coordinates               Weight
  0.000000  0.000000  0.000000      1.000000

 SYSTEM =  "Millerite NiS"
 POSCAR =  Type_036 Type_136

 Startparameter for this run:
   NWRITE =      2    write-flag & timer
   PREC   = normal    normal or accurate (medium, high low for compatibility)
   ISTART =      0    job   : 0-new  1-cont  2-samecut
   ICHARG =      2    charge: 1-file 2-atom 10-const
   ISPIN  =      1    spin polarized calculation?
   LNONCOLLINEAR =      F non collinear calculations
   LSORBIT =      F    spin-orbit coupling
   INIWAV =      1    electr: 0-lowe 1-rand  2-diag
   LASPH  =      F    aspherical Exc in radial PAW
   METAGGA=      F    non-selfconsistent MetaGGA calc.

 Electronic Relaxation 1
   ENCUT  =  450.0 eV  33.07 Ry    5.75 a.u.  17.43 17.43 35.78*2*pi/ulx,y,z
   ENINI  =  450.0     initial cutoff
   ENAUG  =  703.4 eV  augmentation charge cutoff
   NELM   =    100;   NELMIN=  2; NELMDL= -5     # of ELM steps
   EDIFF  = 0.1E-03   stopping-criterion for ELM
   LREAL  =      T    real-space projection
   NLSPLINE    = F    spline interpolate recip. space projectors
   LCOMPAT=      F    compatible to vasp.4.4
   GGA_COMPAT  = T    GGA compatible to vasp.4.4-vasp.4.6
   LMAXPAW     = -100 max onsite density
   LMAXMIX     =    2 max onsite mixed and CHGCAR
   VOSKOWN=      0    Vosko Wilk Nusair interpolation
   ROPT   =   -0.00050  -0.00050
 Ionic relaxation
   EDIFFG = 0.1E-02   stopping-criterion for IOM
   NSW    =      0    number of steps for IOM
   NBLOCK =      1;   KBLOCK =      1    inner block; outer block
   IBRION =     -1    ionic relax: 0-MD 1-quasi-New 2-CG
   NFREE  =      0    steps in history (QN), initial steepest desc. (CG)
   ISIF   =      2    stress and relaxation
   IWAVPR =     10    prediction:  0-non 1-charg 2-wave 3-comb
   ISYM   =      2    0-nonsym 1-usesym 2-fastsym
   LCORR  =      T    Harris-Foulkes like correction to forces

   POTIM  = 0.5000    time-step for ionic-motion
   TEIN   =    0.0    initial temperature
   TEBEG  =    0.0;   TEEND  =   0.0 temperature during run
   SMASS  =  -3.00    Nose mass-parameter (am)
   estimated Nose-frequenzy (Omega)   =  0.10E-29 period in steps =****** mass=  -0.232E-26a.u.
   SCALEE = 1.0000    scale energy and forces
   NPACO  =    256;   APACO  = 16.0  distance and # of slots for P.C.
   PSTRESS=    0.0 pullay stress

  Mass of Ions in am
   POMASS =  58.69 32.07
  Ionic Valenz
   ZVAL   =  16.00  6.00
  Atomic Wigner-Seitz radii
  virtual crystal weights
   VCA    =   1.00  1.00
   NELECT =     792.0000    total number of electrons
   NUPDOWN=      -1.0000    fix difference up-down

 DOS related values:
   EMIN   =  10.00;   EMAX   =-10.00  energy-range for DOS
[...]
  Fock        0.00000     0.00000     0.00000     0.00000     0.00000     0.00000
  Total      67.36897    64.77469    91.42103     2.36475     0.81260    -1.73625
  in kB      54.93021    52.81493    74.54138     1.92813     0.66257    -1.41567

 VOLUME and BASIS-vectors are now :
  energy-cutoff  :      450.00
  volume of cell :     1964.98
      direct lattice vectors                 reciprocal lattice vectors
    10.079732985  0.000000000  0.000000000     0.099208977 -0.037612667  0.000000000
     3.573298043  9.425102554  0.000000000     0.000000000  0.106099641  0.000000000
     0.000000000  0.000000000 20.683503555     0.000000000  0.000000000  0.048347708

  length of vectors
    10.079732985 10.079732985 20.683503555     0.106099641  0.106099641  0.048347708

 FORCES acting on ions
    electron-ion (+dipol)            ewald-force                    non-local-force                 convergence-correction
   0.303E+03 -.579E+03 0.364E+04   -.305E+03 0.584E+03 -.364E+04   0.165E+01 -.429E+01 0.340E+01   0.131E-04 0.171E-01 -.282E+00
   -.618E+02 -.464E+03 0.317E+03   0.615E+02 0.465E+03 -.317E+03   0.313E+00 -.151E+01 -.964E-01   -.206E-02 0.742E-01 0.123E-01
   -.197E+03 -.515E+03 -.276E+04   0.198E+03 0.517E+03 0.275E+04   -.154E+00 -.188E+01 0.150E+01   -.356E-01 0.924E-01 0.441E+00
   -.409E+03 -.452E+03 -.552E+04   0.409E+03 0.450E+03 0.551E+04   0.442E+00 0.203E+01 0.572E+01   -.105E+00 0.159E+00 0.406E+00
   0.640E+02 -.642E+03 0.223E+04   -.635E+02 0.646E+03 -.223E+04   0.964E-01 -.378E+01 -.138E+01   -.149E+00 -.467E-01 -.877E+00
   0.278E+02 -.406E+03 -.759E+03   -.281E+02 0.407E+03 0.758E+03   0.258E+00 -.127E+01 0.622E+00   -.188E-01 0.115E+00 0.118E+00
   0.178E+03 -.529E+03 -.416E+04   -.180E+03 0.531E+03 0.416E+04   0.109E+01 -.176E+01 -.259E+01   0.984E-01 0.159E+00 0.428E+00
   0.180E+03 -.253E+03 -.478E+04   -.182E+03 0.257E+03 0.478E+04   0.162E+01 -.431E+01 -.150E+01   -.695E-01 -.159E+00 0.384E+00
   -.303E+03 -.240E+03 0.439E+04   0.306E+03 0.245E+03 -.439E+04   -.213E+01 -.396E+01 0.297E+01   0.736E-02 0.291E-01 -.384E+00
   -.132E+03 -.280E+03 0.136E+04   0.132E+03 0.280E+03 -.136E+04   -.507E+00 -.815E+00 -.167E+01   -.193E-01 0.582E-01 -.183E+00
   0.102E+02 -.425E+03 -.155E+04   -.105E+02 0.427E+03 0.155E+04   0.455E+00 -.144E+01 0.165E+01   -.788E-01 -.533E-01 0.231E+00
   0.476E+03 0.749E+02 0.439E+04   -.478E+03 -.768E+02 -.439E+04   0.198E+01 0.154E+01 0.321E+01   -.205E+00 -.120E+00 -.416E+00
   0.373E+03 0.326E+03 0.126E+04   -.373E+03 -.326E+03 -.126E+04   0.534E+00 0.515E+00 -.147E+01   -.924E-01 0.251E-01 -.162E+00
   0.435E+03 0.295E+03 -.159E+04   -.436E+03 -.295E+03 0.159E+04   0.144E+01 -.586E+00 0.223E+01   -.855E-01 0.404E-01 0.311E+00
   0.348E+03 0.402E+03 -.478E+04   -.350E+03 -.404E+03 0.478E+04   0.163E+01 0.221E+01 -.313E+01   -.167E+00 0.576E-01 0.396E+00
   0.661E+03 0.584E+03 0.343E+04   -.666E+03 -.589E+03 -.343E+04   0.391E+01 0.273E+01 0.104E+01   0.158E+00 0.479E+00 -.780E+00
   0.425E+03 0.308E+03 0.388E+03   -.426E+03 -.308E+03 -.388E+03   0.117E+01 0.230E+00 0.546E+00   -.238E-01 0.450E-01 -.588E-01
   0.359E+03 -.666E+02 -.263E+04   -.362E+03 0.668E+02 0.263E+04   0.247E+01 0.212E+00 0.836E+00   0.702E-01 -.105E+00 0.377E+00
   -.339E+03 -.911E+02 -.492E+04   0.338E+03 0.911E+02 0.492E+04   0.177E+01 0.246E+00 -.273E+01   0.491E-01 -.271E+00 0.420E+00
   0.495E+03 -.662E+03 0.558E+04   -.498E+03 0.663E+03 -.559E+04   0.210E+01 0.647E+00 0.596E+01   0.203E-01 0.263E-01 -.422E+00
   0.464E+03 0.369E+03 -.399E+04   -.467E+03 -.371E+03 0.399E+04   0.227E+01 0.152E+01 0.647E+00   0.208E-01 0.942E-02 0.372E+00
   -.514E+02 0.103E+03 0.506E+04   0.470E+02 -.106E+03 -.507E+04   0.502E+01 0.323E+01 0.644E+01   -.100E-01 0.451E-01 -.323E+00
   0.215E+03 0.492E+03 0.245E+04   -.215E+03 -.494E+03 -.245E+04   -.993E-01 0.238E+01 -.528E+00   -.417E-01 -.801E-01 -.268E+00
   0.437E+03 0.328E+03 -.592E+03   -.438E+03 -.328E+03 0.591E+03   0.131E+01 -.973E-01 0.150E+01   -.382E-01 -.776E-01 0.160E+00
   -.759E+03 0.133E+03 -.383E+04   0.764E+03 -.134E+03 0.384E+04   -.416E+01 0.112E+01 -.144E+01   0.285E-01 0.125E+00 0.333E+00
   -.464E+03 0.335E+03 0.525E+04   0.463E+03 -.334E+03 -.525E+04   0.185E+01 -.163E+01 0.143E+01   0.504E-01 -.663E-01 -.350E+00
   -.585E+03 0.186E+03 0.248E+04   0.586E+03 -.186E+03 -.248E+04   -.848E+00 0.274E+00 -.588E+00   0.236E+00 -.352E-01 -.348E+00
   -.491E+03 0.120E+03 -.565E+03   0.491E+03 -.119E+03 0.562E+03   -.483E-01 -.566E+00 0.245E+01   0.800E-01 0.370E-01 0.740E-01
   -.534E+03 0.313E+03 0.440E+04   0.541E+03 -.317E+03 -.440E+04   -.420E+01 0.204E+01 0.389E+01   -.438E+00 0.364E+00 -.641E+00
   -.361E+03 0.197E+03 0.134E+04   0.361E+03 -.197E+03 -.134E+04   -.144E+00 -.207E+00 0.125E+01   -.600E-03 0.371E-01 -.189E+00
   -.298E+03 0.131E+03 -.157E+04   0.299E+03 -.132E+03 0.157E+04   -.230E+01 0.130E+01 0.287E+01   0.113E+00 -.105E+00 0.515E+00
   -.188E+03 0.327E+03 -.486E+04   0.188E+03 -.328E+03 0.486E+04   -.332E+00 0.103E+01 0.201E+01   0.189E-01 -.978E-01 0.464E+00
   -.426E+03 0.159E+03 0.385E+04   0.430E+03 -.160E+03 -.385E+04   -.365E+01 0.191E+01 0.239E+01   0.624E-02 -.729E-01 -.324E+00
   -.377E+03 0.147E+03 0.473E+03   0.377E+03 -.146E+03 -.474E+03   0.137E-01 -.418E+00 0.118E+01   0.263E-01 -.112E+00 -.184E-01
   -.385E+02 0.197E+03 -.253E+04   0.421E+02 -.198E+03 0.252E+04   -.396E+01 0.160E+01 0.246E+01   0.127E+00 -.157E+00 0.553E+00
   0.194E+01 0.492E+03 -.536E+04   -.842E+00 -.495E+03 0.536E+04   -.390E+00 0.321E+01 0.268E+01   0.531E-01 -.885E-02 0.376E+00
   -.123E+03 0.962E+02 -.204E+04   0.124E+03 -.973E+02 0.204E+04   -.645E+00 0.794E+00 -.210E+01   -.215E-01 -.163E-01 0.158E+00
   -.394E+02 0.207E+03 0.172E+04   0.398E+02 -.209E+03 -.172E+04   -.383E+00 0.334E+00 0.261E+01   -.647E-02 -.187E-01 -.181E+00
   -.215E+02 0.122E+03 0.406E+03   0.206E+02 -.123E+03 -.408E+03   0.728E+00 0.162E+01 0.194E+01   0.280E-01 -.179E-01 -.372E-01
   -.682E+00 0.150E+03 -.656E+03   -.539E+00 -.152E+03 0.651E+03   0.596E+00 0.178E+01 0.144E+01   -.157E-01 0.154E-01 0.821E-01
   0.144E+03 0.395E+03 0.221E+04   -.145E+03 -.398E+03 -.222E+04   0.924E-01 0.112E+01 0.507E+00   -.390E-01 0.398E+00 -.134E+00
   0.787E+02 0.165E+03 0.122E+04   -.783E+02 -.167E+03 -.122E+04   -.444E+00 0.105E+01 0.138E+01   -.709E-02 0.377E-01 -.168E+00
   0.162E+02 0.111E+03 0.531E+02   -.165E+02 -.113E+03 -.539E+02   0.291E+00 0.243E+01 0.499E+00   -.704E-02 -.477E-01 0.242E-02
   -.120E+03 0.140E+03 -.127E+04   0.122E+03 -.143E+03 0.127E+04   -.105E+01 0.899E+00 -.169E+01   0.997E-01 0.218E-01 0.242E+00
   0.373E+02 0.107E+03 0.887E+03   -.374E+02 -.108E+03 -.887E+03   0.447E-01 0.125E+01 0.609E+00   -.924E-02 -.737E-01 -.124E+00
   0.131E+02 0.152E+03 -.307E+03   -.130E+02 -.154E+03 0.304E+03   0.333E+00 0.192E+01 0.386E-02   0.583E-02 -.237E-01 0.646E-01
   0.222E+03 0.270E+03 -.162E+04   -.224E+03 -.272E+03 0.162E+04   0.135E+01 0.214E+00 -.553E+00   0.109E+00 0.115E-01 0.191E+00
   -.172E+03 0.163E+03 0.207E+04   0.173E+03 -.165E+03 -.208E+04   -.850E+00 0.681E+00 0.173E+01   -.197E-01 -.391E-01 -.161E+00
   0.469E+02 -.910E+02 0.218E+04   -.484E+02 0.916E+02 -.218E+04   0.152E+01 -.317E+00 0.161E+01   0.967E-02 0.175E-01 -.120E+00
   -.211E+03 -.110E+03 0.106E+04   0.213E+03 0.112E+03 -.106E+04   -.178E+01 -.167E+01 0.254E+00   0.160E-01 0.191E-02 -.109E+00
   -.146E+03 -.116E+03 -.317E+02   0.147E+03 0.118E+03 0.324E+02   -.179E+01 -.170E+01 -.371E+00   0.223E-01 0.906E-02 0.198E-01
   -.252E+03 -.176E+03 -.129E+04   0.253E+03 0.177E+03 0.129E+04   -.204E+00 -.363E+00 -.119E+01   -.625E-02 0.331E-01 0.159E+00
   -.133E+03 -.325E+03 0.189E+04   0.133E+03 0.328E+03 -.189E+04   0.493E+00 -.953E+00 0.115E+01   -.329E+00 -.113E+00 -.272E+00
   -.958E+02 -.979E+02 0.688E+03   0.975E+02 0.994E+02 -.688E+03   -.165E+01 -.200E+01 0.149E+01   -.625E-01 0.278E-01 -.131E+00
   -.854E+02 -.110E+03 -.433E+03   0.875E+02 0.112E+03 0.432E+03   -.219E+01 -.169E+01 -.259E+00   -.175E-01 0.409E-01 0.124E+00
   -.299E+02 -.115E+03 -.172E+04   0.310E+02 0.114E+03 0.173E+04   -.674E-04 0.431E+00 -.869E+00   -.236E-01 -.118E+00 0.189E+00
   -.125E+03 -.108E+03 0.391E+03   0.128E+03 0.110E+03 -.391E+03   -.175E+01 -.191E+01 0.839E+00   0.138E-01 0.678E-02 -.432E-01
   -.119E+03 -.122E+03 -.723E+03   0.120E+03 0.124E+03 0.721E+03   -.671E+00 -.166E+01 -.677E+00   0.284E-01 -.491E-01 0.111E+00
   0.209E+03 -.611E+02 -.221E+04   -.210E+03 0.620E+02 0.222E+04   0.331E+00 -.218E+00 -.244E+01   0.102E+00 -.130E+00 0.137E+00
   -.152E+03 -.606E+02 0.166E+04   0.152E+03 0.620E+02 -.166E+04   0.836E+00 -.198E+00 0.132E+01   0.215E-01 0.642E-01 -.160E+00
   0.197E+03 -.138E+03 0.186E+04   -.199E+03 0.139E+03 -.186E+04   0.745E+00 -.907E+00 0.357E+01   -.211E-02 -.434E-01 -.141E+00
   0.165E+03 -.154E+03 0.586E+03   -.166E+03 0.155E+03 -.583E+03   0.119E+01 -.350E+00 -.105E+00   -.158E-01 0.740E-02 -.819E-01
   0.142E+03 -.551E+02 -.457E+03   -.144E+03 0.562E+02 0.458E+03   0.185E+01 -.110E+01 -.149E+01   -.263E-01 0.204E-01 0.124E+00
   0.150E+03 -.273E+02 -.172E+04   -.152E+03 0.284E+02 0.172E+04   0.427E+00 -.736E+00 -.252E+01   -.104E+00 0.902E-01 0.221E+00
   0.149E+03 -.638E+02 0.257E+03   -.151E+03 0.647E+02 -.256E+03   0.247E+01 -.118E+01 0.286E+00   -.294E-02 0.511E-01 -.673E-01
   0.957E+02 -.883E+02 -.970E+03   -.986E+02 0.895E+02 0.970E+03   0.322E+01 -.121E+01 -.131E+01   0.407E-01 0.418E-01 0.113E+00
   0.257E+02 -.145E+03 -.220E+04   -.258E+02 0.146E+03 0.220E+04   -.672E+00 -.127E+01 -.208E+01   0.760E-01 -.224E-01 0.142E+00
   0.268E+03 -.178E+03 0.141E+04   -.270E+03 0.180E+03 -.141E+04   0.436E+00 -.810E+00 0.107E+01   0.244E+00 -.840E-02 -.429E+00
   -.247E+02 -.116E+03 0.203E+04   0.236E+02 0.118E+03 -.204E+04   0.801E+00 -.112E+01 0.427E+01   -.419E-01 0.259E-01 -.131E+00
   0.117E+03 -.318E+02 0.974E+03   -.119E+03 0.320E+02 -.970E+03   0.822E+00 -.446E+00 -.184E+00   -.915E-02 0.722E-02 -.140E+00
   0.140E+03 -.514E+02 -.907E+02   -.143E+03 0.521E+02 0.917E+02   0.252E+01 -.664E+00 -.128E+01   -.119E-01 -.186E-01 0.317E-01
   0.180E+03 0.551E+02 -.141E+04   -.182E+03 -.544E+02 0.142E+04   0.159E+01 -.964E+00 -.238E+01   -.161E+00 0.373E-01 0.212E+00
   -.184E+02 0.688E+01 -.489E+02   -.824E-12 -.682E-12 -.477E-11   0.191E+02 -.746E+01 0.488E+02   -.538E+00 0.654E+00 0.396E-01

 POSITION                                       TOTAL-FORCE (eV/Angst)
      6.84285      7.49250      2.44401        -0.564467      0.803829      2.080603
      7.82056      6.07621      5.06951        -0.045606     -0.213916      0.014126
      8.79827      4.65991      7.69501         0.144534      0.064927      0.116058
      9.66480      3.22325      9.92130         0.350890      0.019255      1.323665
      2.61774      3.87870      3.31918         0.433259      0.455737      2.270423
      3.59545      2.46241      5.94468        -0.050420     -0.202643     -0.010208
      4.57317      1.04611      8.57018        -0.794000      1.016311     -0.761992
      3.79202      7.35816      9.15847        -0.448440      0.035659      0.962753
      7.53132      1.69853      2.21988         0.338377      0.567633     -1.125594
      8.47237      0.26490      4.19434        -0.201047     -0.290948      1.750877
     13.02338      8.27371      6.81985         0.090052     -0.226247     -0.350325
      5.63464      5.17330      2.17887        -0.072292     -0.449276     -1.248375
      6.61816      3.96023      4.37584        -0.039035      0.143464      0.103771
      7.59587      2.54394      7.00134         0.242512      0.008817      0.134348
      8.41455      1.15369      9.31690        -0.720619      0.275059      0.878252
      1.41534      1.76273      2.62550        -0.868069     -1.485027      2.332815
      2.39305      0.34643      5.25100         0.126930      0.062153     -0.055882
      6.94406      8.35524      7.87651        -0.700504      0.245601     -2.839270
      6.85078      6.60558      9.42797         0.623097      0.028786      0.571657
      1.97672      3.55033      0.97123        -0.811815      1.528413     -1.353755
      2.67328      4.82168      8.47951        -0.903675     -0.672748      1.257166
      9.62561      8.73763      1.38031         0.659444     -0.021196     -1.056759
     10.84326      7.57403      3.50067        -0.254977     -0.374945      1.675976
     11.82097      6.15773      6.12617         0.084142     -0.151868     -0.088938
      0.84703      1.55234      8.61478         0.797335      0.283224      0.674172
      8.03054      5.62851      1.50718         0.605600     -0.703187     -1.239344
      9.02296      4.33443      3.68216        -0.010434      0.236956      0.442112
     10.00068      2.91813      6.30767         0.046862     -0.071997     -0.108466
      3.82015      2.13692      1.93183         2.014023     -1.292773      1.604464
      4.79786      0.72063      4.55733        -0.200076     -0.004559      0.242129
      9.34887      8.72943      7.18283        -0.512195      0.301547     -1.572461
     10.31966      7.71016      9.16099         0.368816     -0.727946      1.253284
      3.16834      7.94822      2.80700         0.482612      0.421618      0.846209
      4.14605      6.53193      5.43250        -0.041326      0.085342     -0.138633
      5.12376      5.11563      8.05800        -0.231193      0.984221     -2.361344
      6.03376      4.07590      9.94658         0.756726     -0.218748      0.925641
      3.59706      9.39296      9.75449         0.607646     -0.266541      1.973185
      7.35546      3.82659      2.24358        -0.006609     -0.800121     -0.413021
      8.33317      2.41029      4.86908        -0.189819      0.221871      0.443540
      9.31088      0.99399      7.49458        -0.642583     -0.357996     -3.305505
      2.23390      1.57237      0.75104        -0.673096     -2.050698     -3.795243
      3.13035      0.21279      3.11874        -0.003747     -0.061083      0.350592
      7.68136      8.22159      5.74425         0.024722     -0.180089     -0.325504
      8.65907      6.80530      8.36975         0.411039     -1.731043     -0.393670
      2.47854      6.02409      3.99391        -0.038009     -0.105492      0.147664
      3.45626      4.60779      6.61941         0.449139      0.115856     -2.377525
      4.35587      3.33754      8.95734        -0.759669     -1.804066      1.539207
     11.53873      7.87949      1.61985         0.146876     -1.689452     -3.612419
      8.04000      7.55962      0.78135         0.007128      0.288758     -3.427705
      8.88655      6.52099      3.12687         0.658206      0.278850      2.128829
      9.86427      5.10469      5.75238        -0.027375     -0.032090      0.277661
     10.84198      3.68840      8.37788         1.395829      1.145266     -0.529885
      3.82915      4.20615      1.61349         0.676159      1.603841     -1.937903
      4.66145      2.90719      4.00204        -0.038498     -0.435641      0.815088
      5.63916      1.49089      6.62754        -0.132639      0.344048     -0.893177
      6.49840      0.29557      8.95411         1.000443      0.101173      1.924468
      4.00964      8.71849      4.87721         0.401193     -0.290336      0.693567
      4.98735      7.30220      7.50271         0.990612      0.205426     -2.010890
      5.03451      5.88480     10.03974        -0.421591      0.562503      3.373975
      9.51505      0.71508      2.48161         1.162818      1.190701     -2.043909
      4.87169      7.14335      1.85758        -1.047470      0.474725     -1.927630
      5.82436      6.04450      4.01017         0.620032      0.667999      2.666458
      6.80207      4.62821      6.63567         0.186907      0.019562     -0.574733
      7.77979      3.21191      9.26118        -1.224623      0.516710      0.091397
      1.59925      2.43070      4.88534         0.284373     -0.283841      0.397399
      2.57697      1.01441      7.51084         0.339919      0.061988     -0.597498
      7.44540      8.79920      9.75457        -0.648609      0.434312      3.754911
     10.72626      3.73719      2.54452        -1.612880      1.259599     -0.930722
      5.68367      1.39275      1.12948        -0.380352      0.558276     -1.515565
      6.47617      0.23320      3.13500        -1.139270     -0.324451      3.552937
     11.02718      8.24201      5.76051        -0.114342      0.045563     -0.234390
     12.00489      6.82571      8.38601        -0.956880     -0.144612     -0.433143
    total drift:                                0.135462      0.070383     -0.012175

  FREE ENERGIE OF THE ION-ELECTRON SYSTEM (eV)
  free  energy   TOTEN  =      -353.61536698 eV

  energy  without entropy=     -352.58349424  energy(sigma->0) =     -353.09943061