 vasp.5.4.4.18Apr17-6-g9f103f2a35 (build Aug 13 2019 17:33:20) gamma-only

 executed on             LinuxIFC date 2020.05.10  19:30:26

 INCAR:
 POTCAR:    PAW_PBE Ni_pv 06Sep2000
 POTCAR:    PAW_PBE S 06Sep2000
 POTCAR:    PAW_PBE Ni_pv 06Sep2000
   VRHFIN =Ni:

   TITEL  = PAW_PBE Ni_pv 06Sep2000
   POMASS =   58.690; ZVAL   =   16.000    mass and valenz
   ENMAX  =  367.986; ENMIN  =  275.989 eV

 POTCAR:    PAW_PBE S 06Sep2000
   VRHFIN =S : s2p4

   TITEL  = PAW_PBE S 06Sep2000
   POMASS =   32.066; ZVAL   =    6.000    mass and valenz
   ENMAX  =  258.689; ENMIN  =  194.016 eV

 Optimization of the real space projectors (new method)

 maximal supplied QI-value         = 18.90
 optimisation between [QCUT,QGAM] = [ 10.77, 21.73] = [ 32.49,132.25] Ry
 Optimized for a Real-space Cutoff    1.38 Angstroem

   l    n(q)    QCUT    max X(q) W(low)/X(q) W(high)/X(q)  e(spline)
   1      8    10.771     2.836    0.40E-04    0.29E-04    0.12E-06
   1      8    10.771     4.023    0.10E-03    0.48E-04    0.29E-06
   2      8    10.771    73.368    0.42E-03    0.97E-04    0.44E-06
   2      8    10.771    69.010    0.42E-03    0.99E-04    0.45E-06
   0      9    10.771    54.797    0.10E-03    0.56E-04    0.74E-07
   0      9    10.771    24.266    0.89E-04    0.49E-04    0.67E-07
 Optimization of the real space projectors (new method)

 maximal supplied QI-value         = 19.84
 optimisation between [QCUT,QGAM] = [ 10.71, 21.63] = [ 32.15,130.99] Ry
 Optimized for a Real-space Cutoff    1.19 Angstroem

   l    n(q)    QCUT    max X(q) W(low)/X(q) W(high)/X(q)  e(spline)
   0      8    10.715   187.594    0.41E-03    0.53E-04    0.66E-07
   0      8    10.715   164.243    0.41E-03    0.53E-04    0.65E-07
   1      7    10.715    67.533    0.19E-03    0.59E-03    0.68E-07
   1      7    10.715    50.729    0.19E-03    0.58E-03    0.67E-07
  PAW_PBE Ni_pv 06Sep2000               :
  PAW_PBE S 06Sep2000                   :

 POSCAR: Type_048 Type_148
  positions in cartesian coordinates
 exchange correlation table for  LEXCH =        8
   RHO(1)=    0.500       N(1)  =     2000
   RHO(2)=  100.500       N(2)  =     4000

 ion  position               nearest neighbor table
   1  0.261  0.479  0.253-  73 2.25  57 2.26  80 2.26  28 2.28  54 2.36  58 2.36   7 2.53  21 2.53

   2  0.355  0.385  0.388-  74 2.25  54 2.26  58 2.26  59 2.36  65 2.36   3 2.38   8 2.53  22 2.53

[...]

  27  0.375  0.865  0.497-  77 2.04  89 2.08  84 2.09  26 2.38
  28  0.130  0.609  0.177-  88 2.00  73 2.14  80 2.21  57 2.21   1 2.28
  29  0.051  0.551  0.473-  74 2.05  52 2.08  53 2.12  96 2.13  39 2.48
  30  0.283  0.833  0.100-  75 2.01  82 2.06  76 2.12  81 2.13   4 2.45  36 2.49
  31  0.368  0.739  0.218-  80 2.25  82 2.26  76 2.26  83 2.36  85 2.36  25 2.53  45 2.53
  32  0.462  0.645  0.353-  54 2.25  83 2.26  85 2.26  84 2.36  86 2.36  26 2.53  46 2.53
  33  0.000  0.872  0.218-  82 2.25  88 2.26  68 2.26  73 2.36  90 2.36  37 2.53  43 2.53
  34  0.094  0.778  0.353-  83 2.25  73 2.26  90 2.26  78 2.36  74 2.36  44 2.53  38 2.53
  35  0.189  0.689  0.473-  74 2.05  52 2.08  84 2.12  78 2.13  39 2.48
  36  0.406  0.965  0.083-  75 2.01  55 2.06  93 2.10  76 2.36  56 2.36  30 2.49   4 2.53
  37  0.761  0.979  0.253-  60 2.25  94 2.26  68 2.26  90 2.36  95 2.36  43 2.53  33 2.53
  38  0.855  0.885  0.388-  61 2.25  90 2.26  95 2.26  96 2.36  78 2.36  44 2.53  34 2.53
  39  0.953  0.787  0.505-  96 2.00  78 2.00  35 2.48  29 2.48
  40  0.667  0.573  0.118-  69 2.05  91 2.09  76 2.25  92 2.36  70 2.36  24 2.45  18 2.53
  41  0.549  0.554  0.473-  86 2.05  64 2.08  84 2.10  65 2.15
  42  0.774  0.833  0.083-  87 1.99  93 2.09  91 2.10  88 2.36  94 2.36  48 2.53  16 2.53
  43  0.868  0.739  0.218-  92 2.25  94 2.26  88 2.26  95 2.36  73 2.36  37 2.53  33 2.53
  44  0.962  0.645  0.353-  66 2.25  95 2.26  73 2.26  96 2.36  74 2.36  38 2.53  34 2.53
  45  0.500  0.872  0.218-  94 2.25  76 2.26  56 2.26  85 2.36  79 2.36  25 2.53  31 2.53
  46  0.594  0.778  0.353-  95 2.25  85 2.26  79 2.26  89 2.36  86 2.36  32 2.53  26 2.53
  47  0.685  0.690  0.473-  86 2.05  64 2.08  89 2.10  96 2.15
  48  0.906  0.965  0.083-  87 1.99  67 2.09  81 2.10  88 2.36  68 2.36  16 2.53  42 2.53
  49  0.073  0.167  0.270-  25 2.25  10 2.26  20 2.26   9 2.36  19 2.36
  50  0.167  0.073  0.405-   5 2.05  11 2.05  26 2.25  10 2.36  20 2.36  77 2.70
  51  0.479  0.261  0.135-   6 2.23  12 2.23  16 2.25   7 2.26  21 2.26
  52  0.210  0.530  0.528-   3 2.05  35 2.08  29 2.08  74 2.73
  53  0.030  0.378  0.451-  15 2.09  11 2.10  29 2.12  10 2.36  14 2.36
  54  0.436  0.472  0.315-  32 2.25   2 2.26  22 2.26   1 2.36  21 2.36
  55  0.250  0.136  0.050-   6 2.01   4 2.05  36 2.06
  56  0.342  0.066  0.180-   6 2.11   7 2.25  25 2.26  45 2.26   4 2.36  36 2.36
  57  0.174  0.397  0.180-  28 2.21   9 2.25   7 2.26   1 2.26   6 2.30
  58  0.268  0.303  0.315-  10 2.25   2 2.26   8 2.26   7 2.36   1 2.36
  59  0.362  0.209  0.451-  17 2.02   3 2.09  11 2.15   8 2.36   2 2.36
  60  0.573  0.167  0.270-  37 2.25  22 2.26   8 2.26  21 2.36   7 2.36
  61  0.667  0.073  0.405-  23 2.02  17 2.02  38 2.25  22 2.36   8 2.36
  62  0.878  0.382  0.021-  24 2.01  18 2.01
  63  0.979  0.261  0.135-  24 2.12   4 2.25  19 2.26   9 2.26  18 2.36
  64  0.711  0.528  0.527-  15 2.04  47 2.08  41 2.08  86 2.70
  65  0.530  0.378  0.451-  23 2.02   3 2.09  41 2.15  22 2.36   2 2.36
  66  0.936  0.472  0.315-  44 2.25  14 2.26  10 2.26  13 2.36   9 2.36
  67  0.760  0.157  0.064-  16 2.07  48 2.09  18 2.10  68 2.74
  68  0.842  0.066  0.180-  19 2.25  37 2.26  33 2.26  16 2.36  48 2.36  67 2.74
  69  0.604  0.490  0.050-  12 2.01  40 2.05  18 2.06
  70  0.674  0.397  0.180-  12 2.11  21 2.25  19 2.26  13 2.26  18 2.36  40 2.36
  71  0.768  0.303  0.315-  22 2.25  14 2.26  20 2.26  19 2.36  13 2.36
  72  0.862  0.209  0.451-  23 2.08  15 2.08   5 2.10  20 2.36  14 2.36
  73  0.073  0.667  0.270-  28 2.14   1 2.25  34 2.26  44 2.26  33 2.36  43 2.36
  74  0.167  0.573  0.405-  35 2.05  29 2.05   2 2.25  34 2.36  44 2.36  52 2.73
  75  0.357  0.862  0.021-  30 2.01  36 2.01
  76  0.479  0.761  0.135-  30 2.12  40 2.25  31 2.26  45 2.26  36 2.36
  77  0.211  0.029  0.527-  27 2.04   5 2.08  11 2.08  50 2.70
  78  0.030  0.878  0.451-  39 2.00  35 2.13   5 2.15  34 2.36  38 2.36
  79  0.436  0.972  0.315-   8 2.25  26 2.26  46 2.26  25 2.36  45 2.36
  80  0.342  0.566  0.180-  28 2.21  31 2.25   1 2.26  21 2.26  12 2.30
  81  0.091  0.966  0.067-   4 2.09  48 2.10  30 2.13  82 2.63
  82  0.174  0.897  0.180-  30 2.06  33 2.25  31 2.26  25 2.26   4 2.36  81 2.63
  83  0.268  0.803  0.315-  34 2.25  26 2.26  32 2.26  31 2.36  25 2.36
  84  0.362  0.709  0.451-  27 2.09  41 2.10  35 2.12  32 2.36  26 2.36
  85  0.573  0.667  0.270-  13 2.25  46 2.26  32 2.26  45 2.36  31 2.36
  86  0.667  0.573  0.405-  47 2.05  41 2.05  14 2.25  46 2.36  32 2.36  64 2.70
  87  0.855  0.885  0.013-  48 1.99  42 1.99
  88  0.979  0.761  0.135-  28 2.00  43 2.26  33 2.26  42 2.36  48 2.36
  89  0.530  0.878  0.451-  17 2.08  27 2.08  47 2.10  46 2.36  26 2.36
  90  0.936  0.972  0.315-  20 2.25  38 2.26  34 2.26  37 2.36  33 2.36
  91  0.774  0.649  0.067-  40 2.09  42 2.10  24 2.13  92 2.63
  92  0.842  0.566  0.180-  24 2.06  43 2.25  13 2.26   9 2.26  40 2.36  91 2.63
  93  0.583  0.980  0.064-  16 2.07  42 2.09  36 2.10  94 2.74
  94  0.674  0.897  0.180-  45 2.25  43 2.26  37 2.26  42 2.36  16 2.36  93 2.74
  95  0.768  0.803  0.315-  46 2.25  38 2.26  44 2.26  43 2.36  37 2.36
  96  0.862  0.709  0.451-  39 2.00  29 2.13  47 2.15  44 2.36  38 2.36

  LATTYP: Found a base centered orthorhombic cell.
 ALAT       =    11.8257374459
 B/A-ratio  =     1.6199260857
 C/A-ratio  =     1.8387210052

  Lattice vectors:

 A1 = (  11.2564630382,   0.0000000000,   0.0000000000)
 A2 = (  -5.0445621212, -10.0628203371,   0.0000000000)
 A3 = (   0.0000000000,   0.0000000000, -21.7442318436)

Analysis of symmetry for initial positions (statically):
 Subroutine PRICEL returns:
 Original cell was already a primitive cell.

 Routine SETGRP: Setting up the symmetry group for a
 base centered orthorhombic supercell.

 Subroutine GETGRP returns: Found  2 space group operations
 (whereof  1 operations were pure point group operations)
 out of a pool of  8 trial point group operations.

The static configuration has the point symmetry C_1 .
 The point group associated with its full space group is C_1h.

Analysis of symmetry for dynamics (positions and initial velocities):
 Subroutine PRICEL returns:
 Original cell was already a primitive cell.

 Routine SETGRP: Setting up the symmetry group for a
 base centered orthorhombic supercell.

 Subroutine GETGRP returns: Found  2 space group operations
 (whereof  1 operations were pure point group operations)
 out of a pool of  8 trial point group operations.

The dynamic configuration has the point symmetry C_1 .
 The point group associated with its full space group is C_1h.

 Subroutine INISYM returns: Found  2 space group operations
 (whereof  1 operations are pure point group operations),
 and found     1 'primitive' translations

 KPOINTS: gamma-point-only calculation. no periodi

Automatic generation of k-mesh.
Space group operators:
 irot       det(A)        alpha          n_x          n_y          n_z        tau_x        tau_y        tau_z
    1     1.000000     0.000000     1.000000     0.000000     0.000000     0.000000     0.000000     0.000000
    2    -1.000000   180.000000     0.850925     0.525287     0.000000     0.739701    -0.260299     0.000000

 Subroutine IBZKPT returns following result:

 Found      1 irreducible k-points:

 Following reciprocal coordinates:
            Coordinates               Weight
  0.000000  0.000000  0.000000      1.000000

 Following cartesian coordinates:
            Coordinates               Weight
  0.000000  0.000000  0.000000      1.000000

 SYSTEM =  "Millerite NiS"
 POSCAR =  Type_048 Type_148

 Startparameter for this run:
   NWRITE =      2    write-flag & timer
   PREC   = normal    normal or accurate (medium, high low for compatibility)
   ISTART =      0    job   : 0-new  1-cont  2-samecut
   ICHARG =      2    charge: 1-file 2-atom 10-const
   ISPIN  =      1    spin polarized calculation?
   LNONCOLLINEAR =      F non collinear calculations
   LSORBIT =      F    spin-orbit coupling
   INIWAV =      1    electr: 0-lowe 1-rand  2-diag
   LASPH  =      F    aspherical Exc in radial PAW
   METAGGA=      F    non-selfconsistent MetaGGA calc.

 Electronic Relaxation 1
   ENCUT  =  450.0 eV  33.07 Ry    5.75 a.u.  19.47 19.47 37.61*2*pi/ulx,y,z
   ENINI  =  450.0     initial cutoff
   ENAUG  =  703.4 eV  augmentation charge cutoff
   NELM   =    100;   NELMIN=  2; NELMDL= -5     # of ELM steps
   EDIFF  = 0.1E-03   stopping-criterion for ELM
   LREAL  =      T    real-space projection
   NLSPLINE    = F    spline interpolate recip. space projectors
   LCOMPAT=      F    compatible to vasp.4.4
   GGA_COMPAT  = T    GGA compatible to vasp.4.4-vasp.4.6
   LMAXPAW     = -100 max onsite density
   LMAXMIX     =    2 max onsite mixed and CHGCAR
   VOSKOWN=      0    Vosko Wilk Nusair interpolation
[...]
     0.000000000  0.000000000 21.744231844     0.000000000  0.000000000  0.045989208

  length of vectors
    11.256463038 11.256463038 21.744231844     0.099375718  0.099375718  0.045989208

 FORCES acting on ions
    electron-ion (+dipol)            ewald-force                    non-local-force                 convergence-correction
   0.106E+03 -.172E+03 0.674E+03   -.105E+03 0.170E+03 -.672E+03   -.613E+00 0.993E+00 -.130E+01   0.538E-01 -.873E-01 0.657E-01
   0.200E+03 -.324E+03 -.236E+04   -.200E+03 0.325E+03 0.236E+04   0.555E+00 -.899E+00 0.717E-01   0.468E-01 -.758E-01 0.479E-01
   -.999E+02 0.162E+03 -.560E+04   0.978E+02 -.158E+03 0.560E+04   0.260E+01 -.422E+01 0.451E+00   -.842E-02 0.137E-01 0.360E-01
   0.458E+03 -.474E+03 0.404E+04   -.461E+03 0.478E+03 -.404E+04   0.299E+01 -.314E+01 0.329E+01   0.507E-01 0.299E-01 0.809E-01
   0.435E+03 0.224E+03 -.487E+04   -.439E+03 -.228E+03 0.488E+04   0.264E+01 0.351E+01 -.186E+01   -.970E-01 -.400E-01 -.549E-01
   -.121E+03 -.781E+03 0.474E+04   0.121E+03 0.787E+03 -.475E+04   0.444E+00 -.402E+01 0.592E+01   0.433E-01 0.595E-02 0.680E-01
   0.114E+03 0.270E+03 0.166E+04   -.113E+03 -.270E+03 -.166E+04   -.291E+00 0.727E-01 -.131E+01   0.187E-01 -.217E-01 0.633E-01
   0.209E+03 0.452E+03 -.139E+04   -.210E+03 -.453E+03 0.139E+04   0.120E+01 0.533E+00 0.182E+01   0.186E-01 0.475E-01 -.445E-01
   -.571E+03 -.686E+01 0.179E+04   0.574E+03 0.651E+01 -.179E+04   -.221E+01 0.200E+00 -.205E+00   0.173E-01 -.352E-01 0.124E+00
   -.488E+03 -.150E+02 -.137E+04   0.489E+03 0.157E+02 0.137E+04   -.745E+00 -.817E+00 0.217E+01   -.121E-01 -.756E-02 -.589E-01
   -.347E+03 -.136E+03 -.486E+04   0.351E+03 0.138E+03 0.487E+04   -.453E+01 -.158E+01 -.190E+01   0.957E-01 0.863E-01 -.808E-01
   0.753E+03 -.242E+03 0.474E+04   -.757E+03 0.245E+03 -.475E+04   0.339E+01 -.220E+01 0.592E+01   -.247E-01 -.360E-01 0.680E-01
   0.230E+03 -.410E+03 0.617E+03   -.229E+03 0.411E+03 -.616E+03   -.245E+00 -.104E+01 -.132E+01   -.698E-01 0.203E-02 0.117E+00
   0.249E+03 -.360E+03 -.237E+04   -.250E+03 0.361E+03 0.236E+04   0.553E+00 -.108E+01 0.266E+00   0.152E-01 -.568E-01 -.104E+00
   0.411E+02 0.660E+02 -.559E+04   -.437E+02 -.615E+02 0.559E+04   0.316E+01 -.520E+01 0.667E+00   0.102E-01 -.167E-01 -.201E-01
   0.292E+03 -.472E+03 0.400E+04   -.295E+03 0.477E+03 -.400E+04   0.279E+01 -.452E+01 0.152E+01   -.186E-01 0.301E-01 0.109E+00
   -.147E+03 0.326E+03 -.498E+04   0.147E+03 -.327E+03 0.498E+04   0.103E+01 0.129E+01 0.110E+01   0.256E-01 0.744E-01 -.218E-01
   0.150E+03 0.511E+03 0.504E+04   -.152E+03 -.516E+03 -.505E+04   0.860E+00 0.423E+01 0.436E+01   -.902E-01 -.368E-02 0.807E-01
   0.224E+03 0.501E+03 0.174E+04   -.224E+03 -.502E+03 -.174E+04   0.516E-01 0.103E+01 0.269E+00   -.428E-01 0.150E-01 0.114E+00
   0.293E+03 0.459E+03 -.140E+04   -.293E+03 -.460E+03 0.140E+04   0.112E+01 0.370E+00 0.219E+01   0.212E-01 0.769E-01 -.445E-01
   -.292E+03 0.194E+02 0.166E+04   0.292E+03 -.199E+02 -.166E+04   0.653E-01 0.292E+00 -.131E+01   0.109E-01 -.265E-01 0.633E-01
   -.498E+03 0.161E+02 -.139E+04   0.499E+03 -.153E+02 0.139E+04   -.101E+01 -.832E+00 0.182E+01   -.508E-01 0.464E-02 -.445E-01
   -.225E+03 0.278E+03 -.498E+04   0.227E+03 -.278E+03 0.498E+04   -.161E+01 -.343E+00 0.110E+01   -.780E-01 0.104E-01 -.217E-01
   -.107E+04 -.113E+03 0.481E+04   0.107E+04 0.113E+03 -.481E+04   -.237E+01 0.269E+00 0.438E+01   0.411E-02 0.419E-02 0.500E-01
   0.264E+03 -.389E+03 0.617E+03   -.265E+03 0.389E+03 -.616E+03   0.104E+01 -.246E+00 -.132E+01   0.295E-01 0.633E-01 0.117E+00
   0.210E+03 -.384E+03 -.237E+04   -.211E+03 0.385E+03 0.236E+04   0.718E+00 -.979E+00 0.266E+00   0.440E-01 -.391E-01 -.104E+00
   -.774E+02 -.715E+01 -.559E+04   0.746E+02 0.115E+02 0.559E+04   0.324E+01 -.515E+01 0.667E+00   0.104E-01 -.166E-01 -.201E-01
   -.879E+02 0.142E+03 0.375E+04   0.899E+02 -.146E+03 -.375E+04   -.163E+01 0.264E+01 0.470E+01   0.534E-01 -.865E-01 0.161E-01
   0.365E+03 0.407E+03 -.475E+04   -.369E+03 -.410E+03 0.475E+04   0.281E+01 0.334E+01 -.231E+01   0.554E-01 0.669E-01 0.544E-01
   0.579E+03 0.902E+03 0.481E+04   -.581E+03 -.906E+03 -.481E+04   0.822E+00 0.224E+01 0.438E+01   -.558E-02 -.174E-02 0.500E-01
   0.262E+03 0.508E+03 0.179E+04   -.263E+03 -.510E+03 -.179E+04   0.813E+00 0.207E+01 -.205E+00   0.237E-01 -.312E-01 0.124E+00
   0.232E+03 0.430E+03 -.137E+04   -.233E+03 -.430E+03 0.137E+04   0.106E+01 0.300E+00 0.217E+01   0.122E-01 0.747E-02 -.589E-01
   -.498E+03 -.147E+03 0.182E+04   0.499E+03 0.149E+03 -.182E+04   -.519E+00 -.195E+01 0.861E+00   0.258E-01 0.499E-01 0.368E-01
   -.480E+03 -.107E+03 -.139E+04   0.481E+03 0.108E+03 0.139E+04   -.765E+00 -.116E+01 0.133E+01   0.725E-01 -.831E-02 0.370E-01
   -.527E+03 -.144E+03 -.475E+04   0.532E+03 0.146E+03 0.475E+04   -.425E+01 -.102E+01 -.231E+01   -.846E-01 -.196E-01 0.544E-01
   -.524E+03 0.945E+02 0.504E+04   0.530E+03 -.959E+02 -.505E+04   -.417E+01 0.113E+01 0.436E+01   0.437E-01 0.790E-01 0.807E-01
   0.248E+03 -.401E+03 0.641E+03   -.248E+03 0.402E+03 -.641E+03   0.636E+00 -.103E+01 -.426E+00   -.735E-01 0.119E+00 0.634E-01
   0.321E+03 -.520E+03 -.268E+04   -.321E+03 0.521E+03 0.268E+04   0.654E+00 -.106E+01 0.137E+01   -.209E-01 0.339E-01 0.848E-01
   0.380E+03 -.615E+03 -.577E+04   -.378E+03 0.613E+03 0.577E+04   -.144E+01 0.233E+01 0.570E+01   -.405E-02 0.658E-02 0.125E+00
   0.218E+03 -.622E+03 0.404E+04   -.220E+03 0.627E+03 -.404E+04   0.146E+01 -.408E+01 0.329E+01   -.494E-01 -.319E-01 0.809E-01
   0.277E+03 0.249E+03 -.486E+04   -.281E+03 -.252E+03 0.487E+04   0.344E+01 0.334E+01 -.190E+01   -.120E+00 -.469E-01 -.808E-01
   0.129E+03 0.579E+03 0.491E+04   -.132E+03 -.583E+03 -.491E+04   0.180E+01 0.288E+01 0.460E+01   -.272E-01 -.138E-01 0.821E-01
   0.355E+03 0.380E+03 0.182E+04   -.357E+03 -.379E+03 -.182E+04   0.198E+01 -.410E+00 0.861E+00   -.562E-01 -.690E-03 0.368E-01
   0.311E+03 0.381E+03 -.139E+04   -.312E+03 -.382E+03 0.139E+04   0.138E+01 0.163E+00 0.133E+01   -.251E-01 -.686E-01 0.370E-01
   -.548E+03 0.243E+02 0.174E+04   0.549E+03 -.249E+02 -.174E+04   -.948E+00 0.418E+00 0.269E+00   0.572E-02 0.450E-01 0.114E+00
   -.542E+03 -.556E+02 -.140E+04   0.543E+03 0.563E+02 0.140E+04   -.833E+00 -.834E+00 0.219E+01   -.782E-01 0.155E-01 -.445E-01
   -.395E+03 -.289E+03 -.487E+04   0.400E+03 0.290E+03 0.488E+04   -.432E+01 -.789E+00 -.186E+01   0.792E-01 0.688E-01 -.549E-01
   -.575E+03 0.144E+03 0.491E+04   0.580E+03 -.143E+03 -.491E+04   -.339E+01 -.322E+00 0.460E+01   0.245E-01 0.181E-01 0.821E-01
   -.654E+02 0.120E+03 0.275E+03   0.664E+02 -.122E+03 -.277E+03   -.103E+01 0.202E+01 0.227E+01   0.170E-01 -.150E-04 0.586E-01
   -.689E+02 0.126E+03 -.899E+03   0.703E+02 -.128E+03 0.895E+03   -.936E+00 0.118E+01 0.103E+01   0.813E-02 0.282E-02 -.842E-01
   0.323E+02 -.524E+02 0.169E+04   -.319E+02 0.517E+02 -.169E+04   -.188E+00 0.305E+00 0.278E+01   -.135E-01 0.218E-01 0.266E-01
   -.341E+02 0.553E+02 -.234E+04   0.349E+02 -.566E+02 0.235E+04   -.575E+00 0.932E+00 -.211E+01   0.231E-01 -.375E-01 0.320E-01
   -.107E+03 -.915E+02 -.155E+04   0.109E+03 0.934E+02 0.156E+04   -.157E+01 -.119E+01 -.179E+01   -.784E-03 0.180E-01 -.446E-01
   -.792E+02 -.145E+03 -.203E+03   0.805E+02 0.148E+03 0.203E+03   -.127E+01 -.266E+01 0.112E+00   0.266E-01 -.178E-01 0.192E-01
   0.342E+02 -.327E+03 0.237E+04   -.354E+02 0.330E+03 -.237E+04   0.837E+00 -.155E+01 0.142E+01   0.350E-01 0.151E-01 0.167E-01
   -.526E+02 -.539E+02 0.873E+03   0.534E+02 0.537E+02 -.871E+03   -.540E+00 -.298E+00 -.694E+00   0.124E-01 0.368E-01 0.170E-01
   0.916E+02 -.747E+02 0.127E+04   -.945E+02 0.754E+02 -.127E+04   0.207E+01 -.101E+01 0.224E+01   0.304E-01 -.341E-01 0.731E-02
   0.165E+03 0.577E+01 -.203E+03   -.168E+03 -.573E+01 0.203E+03   0.295E+01 -.531E-01 0.112E+00   0.398E-02 -.317E-01 0.192E-01
   0.129E+03 0.649E+02 -.159E+04   -.130E+03 -.659E+02 0.159E+04   0.217E+00 0.172E+01 -.154E+01   0.549E-01 0.616E-01 -.116E-01
   -.784E+02 0.127E+03 0.271E+03   0.797E+02 -.129E+03 -.273E+03   -.123E+01 0.199E+01 0.203E+01   -.130E-01 0.210E-01 0.362E-01
[...]
   0.164E+03 -.910E+01 -.205E+03   -.168E+03 0.901E+01 0.206E+03   0.304E+01 0.171E+00 -.215E+00   0.434E-01 -.606E-02 0.311E-01
   0.130E+03 0.548E+02 -.155E+04   -.132E+03 -.554E+02 0.156E+04   0.177E+01 0.875E+00 -.179E+01   -.158E-01 0.879E-02 -.446E-01
   -.782E+02 0.112E+03 0.275E+03   0.796E+02 -.114E+03 -.277E+03   -.135E+01 0.183E+01 0.227E+01   -.761E-02 -.152E-01 0.586E-01
   -.821E+02 0.118E+03 -.899E+03   0.832E+02 -.120E+03 0.895E+03   -.638E+00 0.137E+01 0.103E+01   -.616E-02 -.600E-02 -.842E-01
   -.940E+02 0.152E+03 0.234E+04   0.946E+02 -.153E+03 -.234E+04   -.304E+00 0.492E+00 0.525E+00   0.410E-02 -.664E-02 0.101E-01
   -.122E+03 0.198E+03 0.173E+04   0.124E+03 -.200E+03 -.174E+04   -.219E+01 0.355E+01 0.162E+01   -.228E-02 0.369E-02 -.172E-01
   -.179E+03 -.108E+03 -.159E+04   0.181E+03 0.110E+03 0.159E+04   -.152E+01 -.172E+01 -.176E+01   -.124E-01 0.114E-01 -.434E-01
   -.599E+02 -.163E+03 -.225E+03   0.610E+02 0.166E+03 0.226E+03   -.122E+01 -.267E+01 -.164E+00   0.127E-01 0.470E-01 0.163E-01
   -.105E+03 -.866E+02 0.211E+04   0.103E+03 0.874E+02 -.211E+04   0.155E+01 -.231E+00 0.383E+01   0.241E-02 0.208E-01 0.638E-02
   -.103E+03 -.203E+03 0.959E+03   0.104E+03 0.205E+03 -.959E+03   -.130E+01 -.169E+01 0.215E+01   -.259E-01 0.116E-02 0.243E-01
   0.976E+02 -.976E+02 0.212E+04   -.986E+02 0.100E+03 -.212E+04   0.265E+00 -.226E+01 0.310E+01   -.176E-01 0.963E-02 0.196E-01
   0.152E+03 0.625E+01 0.976E+03   -.154E+03 -.672E+01 -.976E+03   0.221E+01 0.299E+00 0.773E+00   -.706E-02 0.252E-01 0.106E-01
   0.173E+03 -.196E+02 -.225E+03   -.176E+03 0.197E+02 0.226E+03   0.294E+01 -.101E+00 -.164E+00   -.477E-01 0.970E-02 0.163E-01
   0.248E+03 -.660E+02 -.153E+04   -.251E+03 0.663E+02 0.154E+04   0.824E+00 0.111E-01 -.130E+01   0.475E-01 0.186E-01 0.400E-01
   -.125E+02 0.203E+02 -.883E+02   -.176E-11 0.924E-12 0.159E-10   0.126E+02 -.204E+02 0.864E+02   -.143E+00 0.232E+00 0.192E+01

 POSITION                                       TOTAL-FORCE (eV/Angst)
      5.35228      4.81788      5.50842         0.539175     -0.873423      1.252036
      5.93595      3.87238      8.44448        -0.086973      0.140889     -1.084388
      6.04830      3.69039     10.81103         0.486382     -0.787903      1.015256
      2.24633      0.73197      2.57236        -0.545844      0.661595      1.927754
      0.83246      0.55205     10.27627        -0.850991     -0.030563      0.558176
      4.54503      2.23270      2.56176         0.457274      1.284291      0.038484
      5.35228      2.40903      4.73270         0.387598      0.028001      1.191368
      5.93595      1.46353      7.66876         0.005411      0.066611     -0.291432
      1.87746      3.73836      4.73270         0.134078     -0.181310      0.218484
      2.46113      2.79286      7.66876        -0.008915     -0.106523     -0.061054
      3.04755      1.91784     10.27467         0.215092      0.587503      0.522034
      8.02510      4.38099      2.56176        -1.353031      0.166768      0.038484
     10.98051      4.81788      5.50842         0.075276      0.013620     -0.004743
     11.56418      3.87238      8.44448         0.019348      0.161167     -0.938876
     11.68708      3.66666     10.81570         0.506677     -0.733595      0.814982
      7.87456      0.73197      2.57236        -0.220243      0.356778      2.177787
      6.36746      0.54678     10.13936         0.367841     -0.461691      0.991796
     10.39684      3.35453      1.79664        -0.488879     -1.512681      2.050611
     10.98051      2.40903      4.73270         0.072755     -0.122719      0.092409
     11.56418      1.46353      7.66876         0.189603      0.016215     -0.035989
      7.50570      3.73836      4.73270        -0.198733     -0.333949      1.191368
      8.08937      2.79286      7.66876        -0.061973      0.025014     -0.291432
      8.71552      1.99627     10.13936         0.247886     -0.535741      0.991796
     12.51549      4.59825      2.18233         1.574401      0.052682      0.473730
      7.87456      9.84929      5.50842        -0.045910     -0.061190     -0.004743
      8.45823      8.90379      8.44448        -0.152747      0.054930     -0.938876
      8.58706      8.70173     10.81570         0.428738     -0.781707      0.814982
      4.54080      6.13243      3.83813         0.373970     -0.605803     -0.803802
      3.35252      5.54393     10.28147        -0.766726      0.070327      0.483962
      7.38300      8.37866      2.18233        -0.752660     -1.383842      0.473730
      7.87456      7.44044      4.73270         0.101997     -0.201114      0.218484
      8.45823      6.49494      7.66876         0.099222     -0.039768     -0.061054
      4.39975      8.76977      4.73270        -0.066787      0.097621      0.169957
      4.98341      7.82427      7.66876         0.202176     -0.077203     -0.103428
      5.59941      6.93096     10.28147         0.280737      0.716939      0.483962
      9.44431      9.71527      1.79664         1.571365     -0.240867      2.050611
     13.50279      9.84929      5.50842         0.042533     -0.068900     -0.197207
     14.08646      8.90379      8.44448         0.053291     -0.086328      0.041036
     14.69460      7.91866     10.98110         0.011664     -0.018895      1.365715
     10.39684      5.76338      2.57236        -0.346820      0.784455      1.927754
      8.97766      5.57857     10.27467        -0.621597      0.071004      0.522034
     12.91912      8.38594      1.79664        -0.636912     -1.184480      2.668740
     13.50279      7.44044      4.73270        -0.057339      0.103454      0.169957
     14.08646      6.49494      7.66876        -0.021588     -0.215335     -0.103428
     10.02798      8.76977      4.73270         0.077101     -0.120037      0.092409
     10.61165      7.82427      7.66876        -0.099466     -0.162231     -0.035989
     11.19131      6.94669     10.27627         0.408692      0.747054      0.558176
     15.07254      9.71527      1.79664         1.344308      0.038551      2.668740
      1.66190      1.67871      5.87212        -0.028704     -0.098808      0.157013
      2.24556      0.73321      8.80817         0.474776     -0.726226     -3.077927
      6.70646      2.62422      2.93606         0.196287     -0.317970     -0.603439
      5.03373      5.33392     11.49049         0.227652     -0.368779      2.441871
      2.24556      3.80055      9.79595         0.030665      0.743793     -0.239141
      7.29013      4.74605      6.85989         0.032243     -0.038093      0.072674
      3.49830      1.36356      1.07691        -0.324369      1.893942     -3.536186
      4.18418      0.66015      3.92384         0.242897     -0.432350      1.253871
      3.96438      3.99884      3.92384        -0.724907     -0.352706     -0.363693
      4.54805      3.05334      6.85989         0.019604     -0.045895      0.072674
      5.13172      2.10784      9.79595        -1.045337      0.826132     -0.039248
      7.29013      1.67871      5.87212         0.034457     -0.055818      0.120664
[...]
      6.48666      9.03025      3.92384        -0.794421      0.472499      2.190315
      7.07033      8.08475      6.85989         0.031232      0.070557     -0.014995
      7.65400      7.13925      9.79595        -0.678663      0.305916     -0.239141
      9.81241      6.71012      5.87212         0.101194     -0.018621      0.157013
     10.39608      5.76462      8.80817         0.436446     -0.749888     -3.077927
     14.08771      8.90177      0.27401         0.258214     -0.418288     -4.445070
     14.85697      7.65563      2.93606        -0.618212      1.001458     -1.199852
     10.39608      8.83196      9.79595         0.236564      0.781415     -0.198300
     15.44064      9.77746      6.85989        -0.075136      0.076868      0.068949
     11.98907      6.53244      1.45860         0.369560      0.512389     -2.298283
     12.33469      5.69156      3.92384        -0.066376      0.921930      2.190315
     11.50133      9.86231      1.38718        -0.838238      0.427357     -2.334830
     12.11489      9.03025      3.92384        -0.076349     -0.145096      0.754447
     12.69856      8.08475      6.85989        -0.035044      0.101617      0.068949
     13.28223      7.13925      9.79595        -1.785229      0.356349     -0.644185
    total drift:                               -0.082727      0.116046      0.074351

  FREE ENERGIE OF THE ION-ELECTRON SYSTEM (eV)
  free  energy   TOTEN  =      -475.02203678 eV

  energy  without entropy=     -473.87994304  energy(sigma->0) =     -474.45098991