 vasp.5.4.4.18Apr17-6-g9f103f2a35 (build Aug 13 2019 17:33:20) gamma-only

 executed on             LinuxIFC date 2020.05.11  20:57:34

 INCAR:
 POTCAR:    PAW_PBE Ni_pv 06Sep2000
 POTCAR:    PAW_PBE S 06Sep2000
 POTCAR:    PAW_PBE Ni_pv 06Sep2000
   VRHFIN =Ni:

   TITEL  = PAW_PBE Ni_pv 06Sep2000
   POMASS =   58.690; ZVAL   =   16.000    mass and valenz
   ENMAX  =  367.986; ENMIN  =  275.989 eV

 POTCAR:    PAW_PBE S 06Sep2000
   VRHFIN =S : s2p4

   TITEL  = PAW_PBE S 06Sep2000
   POMASS =   32.066; ZVAL   =    6.000    mass and valenz
   ENMAX  =  258.689; ENMIN  =  194.016 eV

 Optimization of the real space projectors (new method)

 maximal supplied QI-value         = 18.90
 optimisation between [QCUT,QGAM] = [ 10.77, 21.73] = [ 32.49,132.25] Ry
 Optimized for a Real-space Cutoff    1.38 Angstroem

   l    n(q)    QCUT    max X(q) W(low)/X(q) W(high)/X(q)  e(spline)
   1      8    10.771     2.836    0.40E-04    0.29E-04    0.12E-06
   1      8    10.771     4.023    0.10E-03    0.48E-04    0.29E-06
   2      8    10.771    73.368    0.42E-03    0.97E-04    0.44E-06
   2      8    10.771    69.010    0.42E-03    0.99E-04    0.45E-06
   0      9    10.771    54.797    0.10E-03    0.56E-04    0.74E-07
   0      9    10.771    24.266    0.89E-04    0.49E-04    0.67E-07
 Optimization of the real space projectors (new method)

 maximal supplied QI-value         = 19.84
 optimisation between [QCUT,QGAM] = [ 10.71, 21.63] = [ 32.15,130.99] Ry
 Optimized for a Real-space Cutoff    1.19 Angstroem

   l    n(q)    QCUT    max X(q) W(low)/X(q) W(high)/X(q)  e(spline)
   0      8    10.715   187.594    0.41E-03    0.53E-04    0.66E-07
   0      8    10.715   164.243    0.41E-03    0.53E-04    0.65E-07
   1      7    10.715    67.533    0.19E-03    0.59E-03    0.68E-07
   1      7    10.715    50.729    0.19E-03    0.58E-03    0.67E-07
  PAW_PBE Ni_pv 06Sep2000               :
  PAW_PBE S 06Sep2000                   :

 POSCAR: Type_036 Type_136
  positions in cartesian coordinates
 exchange correlation table for  LEXCH =        8
   RHO(1)=    0.500       N(1)  =     2000
   RHO(2)=  100.500       N(2)  =     4000

 ion  position               nearest neighbor table
   1  0.780  0.145  0.121-  49 2.08  63 2.08  41 2.25  50 2.36  64 2.36
   2  0.799  0.145  0.286-  64 2.04  50 2.04  42 2.07
   3  0.215  0.668  0.097-  43 2.03  44 2.10  51 2.17   4 2.39  61 2.48
   4  0.297  0.645  0.216-  62 2.11  52 2.13  44 2.25  51 2.26  61 2.26   3 2.39  28 2.53  15 2.53

   5  0.390  0.163  0.118-  45 2.05  46 2.06  53 2.22  17 2.43  67 2.45   6 2.50
   6  0.470  0.145  0.248-  68 2.08  54 2.10  46 2.24  53 2.26  67 2.26   5 2.50  31 2.53  18 2.53

[...]

   8  0.951  0.646  0.305-  48 2.01  55 2.05  65 2.06   7 2.47
   9  0.125  0.145  0.184-  57 2.08  71 2.13  58 2.15  38 2.25  10 2.31  72 2.36  20 2.37  34 2.53
                            21 2.53
  10  0.082  0.128  0.319-  37 2.03  58 2.21  72 2.22   9 2.31
  11  0.642  0.645  0.280-  60 2.01  70 2.01  40 2.25  69 2.33  59 2.33  36 2.53  24 2.53
  12  0.910  0.004  0.117-  63 2.06  56 2.09  64 2.10  38 2.20
  13  0.944  0.011  0.272-  37 2.05  38 2.10  55 2.17  64 2.18
  14  0.422  0.416  0.058-  53 2.08  61 2.19  39 2.19  15 2.34  27 2.44
  15  0.425  0.513  0.191-  39 2.06  62 2.10  53 2.25  61 2.26  14 2.34  40 2.36  16 2.47  28 2.53
                             4 2.53
  16  0.459  0.482  0.338-  54 2.02  62 2.02  40 2.03  15 2.47
  17  0.531  0.146  0.089-  41 2.02  53 2.05  67 2.06   5 2.43
  18  0.597  0.013  0.223-  68 2.06  42 2.11  59 2.21  67 2.26  41 2.26   6 2.53  31 2.53
  19  0.080  0.513  0.127-  57 2.05  43 2.07  66 2.10  44 2.36  65 2.36  20 2.37   7 2.53  32 2.53

[...]

  37  0.972  0.143  0.368-  10 2.03  13 2.05  26 2.06
  38  0.991  0.145  0.182-  26 2.08  13 2.10  25 2.19  12 2.20   9 2.25
  39  0.476  0.616  0.092-  27 2.02  15 2.06  14 2.19  28 2.38
  40  0.509  0.645  0.278-  16 2.03  29 2.05  11 2.25  28 2.36  15 2.36
  41  0.647  0.145  0.119-  17 2.02  30 2.03   1 2.25  31 2.26  18 2.26  42 2.75
  42  0.677  0.145  0.286-   2 2.07  18 2.11  31 2.11  41 2.75
  43  0.113  0.646  0.032-   3 2.03  32 2.06  19 2.07
  44  0.164  0.645  0.214-  33 2.03   3 2.10   4 2.25  32 2.36  19 2.36
  45  0.281  0.146  0.063-   5 2.05  34 2.06  21 2.07
  46  0.338  0.136  0.233-   5 2.06  22 2.07  21 2.21   6 2.24  34 2.31
  47  0.819  0.645  0.151-  35 2.20   7 2.25  36 2.26  24 2.26  23 2.26
  48  0.835  0.645  0.331-   8 2.01  24 2.08  36 2.09
  49  0.819  0.290  0.034-  23 2.03  25 2.07   1 2.08
  50  0.829  0.314  0.214-   2 2.04  25 2.10  23 2.15  26 2.23  24 2.25   1 2.36
  51  0.312  0.814  0.119-  27 2.03   3 2.17  21 2.25   4 2.26  28 2.26
  52  0.355  0.782  0.300-  22 2.03  29 2.05  28 2.13   4 2.13
  53  0.484  0.314  0.151-  17 2.05  14 2.08   5 2.22  15 2.25  31 2.26   6 2.26
  54  0.519  0.303  0.322-  16 2.02  31 2.09   6 2.10
  55  0.001  0.814  0.246-  33 2.01   8 2.05  13 2.17   7 2.36  32 2.36  56 2.77
  56  0.968  0.821  0.079-   7 2.08  12 2.09  32 2.10  55 2.77
  57  0.140  0.327  0.116-  19 2.05   9 2.08  34 2.08  20 2.18
  58  0.191  0.241  0.283-  20 2.00   9 2.15  10 2.21  34 2.28  72 2.55
  59  0.668  0.828  0.188-  36 2.08  35 2.19  18 2.21  11 2.33  60 2.69
  60  0.692  0.793  0.351-  11 2.01  36 2.05  59 2.69
  61  0.312  0.477  0.119-  27 2.06  14 2.19  34 2.25   4 2.26  15 2.26   3 2.48
  62  0.348  0.489  0.291-  16 2.02  15 2.10   4 2.11
  63  0.817  0.997  0.035-  35 2.02  12 2.06   1 2.08
  64  0.829  0.977  0.214-   2 2.04  12 2.10  35 2.14  13 2.18  36 2.25   1 2.36
  65  0.001  0.477  0.246-  20 2.03   8 2.06  26 2.14   7 2.36  19 2.36  66 2.79
  66  0.967  0.471  0.078-   7 2.08  25 2.10  19 2.10  65 2.79
  67  0.484  0.977  0.151-  17 2.06  28 2.25  18 2.26   6 2.26   5 2.45
  68  0.529  0.011  0.328-  29 2.00  18 2.06   6 2.08
  69  0.665  0.469  0.184-  30 2.05  24 2.15  23 2.19  31 2.26  11 2.33  70 2.74
  70  0.691  0.495  0.350-  11 2.01  24 2.04  69 2.74
  71  0.141  0.965  0.109-  21 2.10  32 2.10   9 2.13  72 2.79
  72  0.174  0.977  0.278-  33 2.03  22 2.09  10 2.22   9 2.36  21 2.36  58 2.55  71 2.79

  LATTYP: Found a simple orthorhombic cell.
 ALAT       =     9.5784100000
 B/A-ratio  =     1.6880763216
 C/A-ratio  =     1.7627867312

  Lattice vectors:

 A1 = (   0.0000000000,   9.5784100000,   0.0000000000)
 A2 = (   0.0000000000,   0.0000000000, -16.1690871197)
 A3 = ( -16.8846940542,   0.0000000000,   0.0000000000)

Analysis of symmetry for initial positions (statically):
 Subroutine PRICEL returns:
 Original cell was already a primitive cell.

 Routine SETGRP: Setting up the symmetry group for a
 simple orthorhombic supercell.

 Subroutine GETGRP returns: Found  1 space group operations
 (whereof  1 operations were pure point group operations)
 out of a pool of  8 trial point group operations.

The static configuration has the point symmetry C_1 .

Analysis of symmetry for dynamics (positions and initial velocities):
 Subroutine PRICEL returns:
 Original cell was already a primitive cell.

 Routine SETGRP: Setting up the symmetry group for a
 simple orthorhombic supercell.

 Subroutine GETGRP returns: Found  1 space group operations
 (whereof  1 operations were pure point group operations)
 out of a pool of  8 trial point group operations.

The dynamic configuration has the point symmetry C_1 .

 Subroutine INISYM returns: Found  1 space group operations
 (whereof  1 operations are pure point group operations),
 and found     1 'primitive' translations

 KPOINTS: gamma-point-only calculation. no periodi

Automatic generation of k-mesh.
Space group operators:
 irot       det(A)        alpha          n_x          n_y          n_z        tau_x        tau_y        tau_z
    1     1.000000     0.000000     1.000000     0.000000     0.000000     0.000000     0.000000     0.000000

 Subroutine IBZKPT returns following result:

 Found      1 irreducible k-points:

 Following reciprocal coordinates:
            Coordinates               Weight
  0.000000  0.000000  0.000000      1.000000

 Following cartesian coordinates:
            Coordinates               Weight
  0.000000  0.000000  0.000000      1.000000

 SYSTEM =  "Millerite NiS"
 POSCAR =  Type_036 Type_136

 Startparameter for this run:
   NWRITE =      2    write-flag & timer
   PREC   = normal    normal or accurate (medium, high low for compatibility)
   ISTART =      0    job   : 0-new  1-cont  2-samecut
   ICHARG =      2    charge: 1-file 2-atom 10-const
   ISPIN  =      1    spin polarized calculation?
   LNONCOLLINEAR =      F non collinear calculations
   LSORBIT =      F    spin-orbit coupling
   INIWAV =      1    electr: 0-lowe 1-rand  2-diag
   LASPH  =      F    aspherical Exc in radial PAW
   METAGGA=      F    non-selfconsistent MetaGGA calc.

 Electronic Relaxation 1
   ENCUT  =  450.0 eV  33.07 Ry    5.75 a.u.  29.20 16.57 27.97*2*pi/ulx,y,z
   ENINI  =  450.0     initial cutoff
   ENAUG  =  703.4 eV  augmentation charge cutoff
   NELM   =    100;   NELMIN=  2; NELMDL= -5     # of ELM steps
   EDIFF  = 0.1E-03   stopping-criterion for ELM
   LREAL  =      T    real-space projection
   NLSPLINE    = F    spline interpolate recip. space projectors
   LCOMPAT=      F    compatible to vasp.4.4
   GGA_COMPAT  = T    GGA compatible to vasp.4.4-vasp.4.6
   LMAXPAW     = -100 max onsite density
   LMAXMIX     =    2 max onsite mixed and CHGCAR
   VOSKOWN=      0    Vosko Wilk Nusair interpolation
   ROPT   =   -0.00050  -0.00050
 Ionic relaxation
   EDIFFG = 0.1E-02   stopping-criterion for IOM
   NSW    =      0    number of steps for IOM
   NBLOCK =      1;   KBLOCK =      1    inner block; outer block
   IBRION =     -1    ionic relax: 0-MD 1-quasi-New 2-CG
   NFREE  =      0    steps in history (QN), initial steepest desc. (CG)
   ISIF   =      2    stress and relaxation
   IWAVPR =     10    prediction:  0-non 1-charg 2-wave 3-comb
   ISYM   =      2    0-nonsym 1-usesym 2-fastsym
   LCORR  =      T    Harris-Foulkes like correction to forces

   POTIM  = 0.5000    time-step for ionic-motion
   TEIN   =    0.0    initial temperature
   TEBEG  =    0.0;   TEEND  =   0.0 temperature during run
   SMASS  =  -3.00    Nose mass-parameter (am)
   estimated Nose-frequenzy (Omega)   =  0.10E-29 period in steps =****** mass=  -0.652E-26a.u.
   SCALEE = 1.0000    scale energy and forces
   NPACO  =    256;   APACO  = 16.0  distance and # of slots for P.C.
   PSTRESS=    0.0 pullay stress

  Mass of Ions in am
   POMASS =  58.69 32.07
  Ionic Valenz
   ZVAL   =  16.00  6.00
  Atomic Wigner-Seitz radii
  virtual crystal weights
   VCA    =   1.00  1.00
   NELECT =     792.0000    total number of electrons
   NUPDOWN=      -1.0000    fix difference up-down

 DOS related values:
   EMIN   =  10.00;   EMAX   =-10.00  energy-range for DOS
   EFERMI =   0.00
   ISMEAR =     0;   SIGMA  =   0.20  broadening in eV -4-tet -1-fermi 0-gaus

 Electronic relaxation 2 (details)
   IALGO  =     38    algorithm
   LDIAG  =      T    sub-space diagonalisation (order eigenvalues)
   LSUBROT=      F    optimize rotation matrix (better conditioning)
   TURBO    =      0    0=normal 1=particle mesh
[...]
  Fock        0.00000     0.00000     0.00000     0.00000     0.00000     0.00000
  Total     117.96133   128.24836   142.43248    -3.38636    -0.92921    -4.77267
  in kB      72.27334    78.57607    87.26649    -2.07478    -0.56932    -2.92415

 VOLUME and BASIS-vectors are now :
  energy-cutoff  :      450.00
  volume of cell :     2615.00
      direct lattice vectors                 reciprocal lattice vectors
    16.884694054  0.000000000  0.000000000     0.059225237  0.000000000  0.000000000
     0.000000000  9.578410000  0.000000000     0.000000000  0.104401461  0.000000000
     0.000000000  0.000000000 16.169087120     0.000000000  0.000000000  0.061846411

  length of vectors
    16.884694054  9.578410000 16.169087120     0.059225237  0.104401461  0.061846411

 FORCES acting on ions
    electron-ion (+dipol)            ewald-force                    non-local-force                 convergence-correction
   0.596E+03 0.202E+03 0.201E+04   -.599E+03 -.203E+03 -.202E+04   0.315E+01 0.591E+00 0.537E+01   -.221E+00 0.442E-01 -.131E-01
   0.431E+03 0.279E+02 -.293E+04   -.436E+03 -.279E+02 0.293E+04   0.486E+01 0.410E-01 0.167E+01   -.312E+00 0.155E-01 0.192E-01
   0.671E+02 -.478E+02 0.273E+04   -.675E+02 0.484E+02 -.273E+04   0.114E+01 -.752E+00 0.627E+01   0.328E+00 -.231E-01 -.194E+00
   0.537E+03 0.158E+03 -.134E+04   -.540E+03 -.158E+03 0.135E+04   0.242E+01 0.383E+00 -.477E+01   0.295E+00 -.823E-01 -.101E+00
   0.126E+03 0.363E+03 0.228E+04   -.127E+03 -.364E+03 -.229E+04   0.168E+01 0.282E+00 0.854E+01   0.305E+00 0.507E-01 -.908E-01
   0.416E+03 0.497E+02 -.191E+04   -.420E+03 -.508E+02 0.192E+04   0.282E+01 0.774E+00 -.654E+01   0.185E+00 0.663E-02 -.102E+00
   0.508E+03 -.197E+02 0.134E+04   -.514E+03 0.197E+02 -.134E+04   0.543E+01 -.875E-01 0.374E+01   -.231E+00 -.356E-01 -.164E-01
   -.859E+02 0.576E+02 -.318E+04   0.836E+02 -.568E+02 0.318E+04   0.333E+01 -.931E+00 0.212E+00   -.192E+00 -.537E-01 0.960E-01
   0.189E+03 0.248E+03 0.924E+03   -.194E+03 -.252E+03 -.929E+03   0.441E+01 0.235E+01 0.438E+01   0.352E-01 0.122E-01 0.289E-01
   -.322E+03 0.108E+03 -.353E+04   0.320E+03 -.108E+03 0.353E+04   0.326E+01 -.431E+00 -.535E+01   0.944E-02 0.580E-01 0.234E+00
   0.572E+03 -.818E+02 -.172E+04   -.579E+03 0.818E+02 0.172E+04   0.511E+01 -.246E-02 -.333E+01   -.133E+00 0.789E-01 0.458E-01
   -.488E+03 0.243E+03 0.245E+04   0.495E+03 -.246E+03 -.246E+04   -.551E+01 0.292E+01 0.571E+01   -.182E+00 0.206E-01 -.106E+00
   0.986E+02 0.595E+03 -.225E+04   -.976E+02 -.599E+03 0.225E+04   -.152E+01 0.331E+01 -.476E+01   -.126E+00 0.794E-02 0.948E-01
   -.289E+03 0.195E+03 0.371E+04   0.288E+03 -.195E+03 -.371E+04   0.797E+00 -.104E+01 0.633E+00   0.963E-01 0.345E-01 -.347E-01
   -.444E+03 0.197E+03 -.204E+03   0.445E+03 -.198E+03 0.208E+03   -.110E+01 0.123E+01 -.252E+01   0.185E+00 -.330E-01 -.867E-01
   0.376E+02 0.183E+03 -.361E+04   -.372E+02 -.185E+03 0.361E+04   -.119E+00 0.147E+01 0.246E+01   0.117E+00 0.340E-01 0.127E-01
   -.181E+03 0.620E+03 0.335E+04   0.180E+03 -.622E+03 -.336E+04   0.983E+00 0.187E+01 0.532E+01   -.239E-01 -.243E-01 0.205E-01
   -.367E+03 0.779E+03 -.603E+03   0.371E+03 -.785E+03 0.604E+03   -.253E+01 0.625E+01 -.275E+01   -.314E-01 0.324E-01 -.626E-02
   -.701E+02 0.330E+03 0.196E+04   0.684E+02 -.331E+03 -.197E+04   0.182E+01 0.146E+01 0.397E+01   -.352E-01 -.141E-01 -.881E-01
   -.340E+03 -.588E+03 -.186E+04   0.341E+03 0.589E+03 0.186E+04   -.107E+01 -.592E+00 -.196E+01   0.297E-01 -.254E-01 0.147E+00
   -.530E+02 0.349E+03 0.127E+04   0.525E+02 -.353E+03 -.127E+04   0.659E+00 0.348E+01 0.368E+01   0.262E+00 0.264E-01 -.148E+00
   -.367E+02 -.917E+02 -.310E+04   0.377E+02 0.873E+02 0.310E+04   -.169E+01 0.445E+01 0.941E+00   0.244E+00 0.413E-01 0.812E-01
   0.195E+03 -.677E+03 0.247E+04   -.198E+03 0.680E+03 -.248E+04   0.230E+01 -.191E+01 0.839E+01   -.118E+00 0.162E-01 -.464E-01
   -.710E+02 0.220E+03 -.169E+04   0.743E+02 -.223E+03 0.169E+04   -.213E+01 0.212E+01 -.523E+01   -.144E+00 -.385E-01 -.486E-01
   -.494E+03 -.201E+03 0.243E+04   0.501E+03 0.203E+03 -.243E+04   -.575E+01 -.297E+01 0.587E+01   -.216E+00 0.474E-01 -.998E-01
   0.158E+03 -.571E+03 -.235E+04   -.158E+03 0.574E+03 0.235E+04   -.428E+00 -.252E+01 -.476E+01   -.128E+00 0.459E-01 0.632E-01
   -.209E+03 -.521E+03 0.377E+04   0.211E+03 0.522E+03 -.378E+04   -.292E+01 -.838E+00 0.526E+01   0.219E+00 -.620E-01 -.125E+00
   -.650E+03 -.478E+03 0.527E+03   0.651E+03 0.481E+03 -.528E+03   -.106E+01 -.274E+01 -.157E+00   0.237E+00 -.377E-01 -.607E-01
   -.218E+03 -.111E+03 -.335E+04   0.221E+03 0.114E+03 0.335E+04   -.297E+01 -.331E+01 0.167E+01   0.202E+00 -.339E-01 0.202E-01
   0.705E+02 -.656E+03 0.325E+04   -.681E+02 0.656E+03 -.325E+04   -.245E+01 0.617E+00 -.136E+01   -.104E+00 -.538E-01 0.334E-01
   -.289E+03 -.455E+03 -.116E+04   0.293E+03 0.460E+03 0.117E+04   -.352E+01 -.462E+01 -.553E+01   -.626E-01 -.114E+00 -.285E-02
   0.401E+02 -.537E+03 0.191E+04   -.409E+02 0.542E+03 -.191E+04   0.694E+00 -.484E+01 0.385E+01   -.356E-01 -.233E-02 -.142E+00
   -.234E+03 0.283E+03 -.289E+04   0.235E+03 -.282E+03 0.288E+04   -.902E+00 -.176E+01 0.191E+01   0.543E-02 -.156E-01 0.122E+00
   -.845E+02 -.479E+03 0.791E+03   0.847E+02 0.482E+03 -.793E+03   0.847E-01 -.232E+01 0.360E+01   0.308E+00 0.529E-01 -.700E-01
   0.643E+03 0.501E+03 0.257E+04   -.646E+03 -.504E+03 -.258E+04   0.253E+01 0.162E+01 0.849E+01   -.234E+00 -.192E-01 -.871E-01
   0.486E+01 -.300E+03 -.162E+04   -.131E+01 0.302E+03 0.162E+04   -.223E+01 -.195E+01 -.460E+01   -.241E+00 0.962E-02 0.555E-01
   0.119E+03 -.167E+02 -.173E+04   -.119E+03 0.166E+02 0.174E+04   -.103E+01 -.544E-01 -.164E+01   0.322E-02 0.795E-02 0.109E+00
   -.203E+03 0.450E+02 0.422E+03   0.204E+03 -.450E+02 -.426E+03   -.683E-01 -.553E+00 0.102E+01   -.432E-01 0.152E-01 -.332E-01
   -.660E+03 -.283E+03 0.110E+04   0.667E+03 0.285E+03 -.110E+04   -.287E+01 -.264E+00 -.161E+00   -.248E-01 -.160E-01 -.406E-01
   -.275E+03 -.112E+02 -.635E+03   0.276E+03 0.113E+02 0.637E+03   0.392E+00 0.245E+00 -.184E+01   -.236E-02 0.378E-02 0.392E-01
   -.162E+03 0.325E+03 0.885E+03   0.165E+03 -.328E+03 -.888E+03   -.659E-01 0.137E+01 0.215E+01   -.804E-01 -.353E-01 0.213E-01
   -.450E+02 0.297E+02 -.112E+04   0.460E+02 -.298E+02 0.112E+04   -.302E+00 0.525E-01 -.208E+01   -.790E-01 -.201E-01 -.111E-01
   0.730E+02 0.220E+02 0.171E+04   -.733E+02 -.220E+02 -.171E+04   0.238E+00 -.133E+00 0.223E+01   0.423E-01 0.114E-02 -.101E+00
   -.687E+02 0.170E+03 -.529E+03   0.680E+02 -.171E+03 0.534E+03   0.129E+01 0.319E+00 -.401E+01   0.723E-01 -.472E-01 -.196E-01
   0.120E+03 0.667E+02 0.158E+04   -.121E+03 -.668E+02 -.159E+04   0.159E+01 -.226E+00 0.232E+01   0.117E+00 0.112E-01 -.589E-01
   -.188E+02 -.164E+03 -.685E+03   0.179E+02 0.166E+03 0.690E+03   0.154E+01 -.107E+01 -.327E+01   0.131E+00 0.473E-01 -.457E-01
   0.449E+02 -.150E+02 0.703E+03   -.439E+02 0.152E+02 -.706E+03   -.743E-01 -.327E+00 0.187E+01   -.652E-01 -.352E-01 -.407E-01
   -.366E+02 -.228E+00 -.144E+04   0.394E+02 0.602E+00 0.144E+04   -.189E+01 -.307E+00 -.194E+01   -.336E-01 -.928E-02 0.579E-01
   0.107E+02 -.750E+02 0.171E+04   -.100E+02 0.757E+02 -.172E+04   -.818E+00 0.347E-01 0.318E+01   -.578E-01 0.412E-01 -.131E-01
   0.802E+02 -.144E+03 -.384E+03   -.803E+02 0.145E+03 0.388E+03   0.161E+00 0.815E+00 -.158E+01   -.903E-01 0.328E-01 -.489E-01
   -.294E+02 -.349E+03 0.866E+03   0.298E+02 0.352E+03 -.869E+03   -.101E+01 -.782E+00 0.271E+01   0.114E+00 -.439E-01 -.890E-01
   0.181E+03 0.791E+02 -.123E+04   -.182E+03 -.782E+02 0.124E+04   -.285E+00 -.165E+00 -.281E+01   0.155E+00 -.382E-01 0.475E-01
   -.831E+02 -.200E+03 0.348E+03   0.834E+02 0.203E+03 -.347E+03   -.511E+00 -.100E+01 -.100E+01   0.589E-02 -.242E-01 -.348E-01
   -.677E+02 0.165E+02 -.137E+04   0.684E+02 -.154E+02 0.138E+04   -.461E+00 -.980E+00 -.216E+01   -.557E-02 0.248E-01 -.105E-02
   0.541E+02 -.768E+02 -.544E+03   -.548E+02 0.786E+02 0.546E+03   -.362E+00 -.116E+01 -.139E+01   -.995E-01 -.321E-01 0.121E-01
   0.710E+02 -.566E+02 0.134E+04   -.726E+02 0.562E+02 -.135E+04   0.140E+01 0.101E+01 0.393E+01   -.642E-01 -.913E-02 -.508E-01
   0.165E+02 0.262E+02 0.116E+04   -.170E+02 -.277E+02 -.116E+04   -.158E-01 0.143E+01 0.533E+01   0.428E-01 -.425E-02 -.572E-01
   -.391E+03 -.172E+03 -.121E+04   0.395E+03 0.175E+03 0.121E+04   -.286E+01 -.134E+01 -.255E+01   0.387E-01 0.157E-01 0.757E-01
   0.313E+03 0.676E+02 0.380E+03   -.316E+03 -.684E+02 -.383E+03   0.897E+00 0.882E+00 0.237E+01   -.802E-01 0.315E-01 -.572E-02
   0.651E+02 -.238E+03 -.149E+04   -.663E+02 0.241E+03 0.149E+04   0.894E+00 -.158E+01 -.175E+01   -.747E-01 0.175E-01 0.444E-01
   0.274E+03 0.231E+03 0.704E+03   -.278E+03 -.234E+03 -.705E+03   0.208E+01 0.160E+01 -.137E+00   0.137E+00 0.204E-01 -.733E-01
   0.372E+03 0.230E+03 -.118E+04   -.375E+03 -.234E+03 0.118E+04   0.617E+00 0.211E+01 -.155E+01   0.126E+00 -.169E-01 0.410E-01
   0.105E+03 0.126E+03 0.169E+04   -.105E+03 -.127E+03 -.170E+04   -.514E+00 0.550E+00 0.267E+01   -.739E-01 -.144E-01 -.446E-01
   0.128E+03 0.158E+03 -.348E+03   -.128E+03 -.158E+03 0.352E+03   -.272E+00 -.690E+00 -.198E+01   -.983E-01 -.103E-02 -.187E-01
   0.113E+02 -.539E+02 -.653E+03   -.118E+02 0.535E+02 0.657E+03   -.554E+00 0.109E+01 -.242E+01   -.601E-01 0.244E-01 0.349E-01
   0.727E+02 0.379E+02 0.136E+04   -.740E+02 -.376E+02 -.137E+04   0.948E+00 -.960E+00 0.372E+01   -.869E-01 -.127E-01 -.425E-01
   -.456E+02 0.383E+03 0.656E+03   0.451E+02 -.386E+03 -.658E+03   -.468E+00 0.166E+01 0.229E+01   0.602E-01 0.421E-01 -.196E-01
   -.121E+03 -.389E+02 -.142E+04   0.122E+03 0.374E+02 0.143E+04   -.480E+00 0.140E+01 -.194E+01   0.236E-01 -.366E-01 -.132E-01
   0.211E+03 -.273E+03 0.180E+03   -.214E+03 0.274E+03 -.182E+03   0.153E+01 -.700E+00 0.770E+00   -.224E-01 -.340E-02 -.473E-02
   0.674E+02 0.230E+03 -.150E+04   -.687E+02 -.234E+03 0.151E+04   0.104E+01 0.181E+01 -.923E+00   -.523E-01 0.771E-02 0.271E-01
   0.936E+02 -.466E+02 0.112E+04   -.942E+02 0.478E+02 -.113E+04   -.184E+00 -.662E+00 0.331E+01   0.387E-01 0.678E-02 -.713E-01
   -.507E+02 0.701E+02 -.939E+03   0.506E+02 -.739E+02 0.941E+03   -.137E+00 0.348E+01 -.151E+00   0.167E-01 0.666E-01 0.485E-01
   -.913E+01 -.862E+01 -.400E+02   0.220E-11 -.114E-12 0.364E-11   0.899E+01 0.852E+01 0.409E+02   0.222E+00 -.151E-01 -.977E+00

 POSITION                                       TOTAL-FORCE (eV/Angst)
     13.17084      1.39171      1.94975         0.175664     -0.072935      0.888153
     13.49482      1.39169      4.61828        -0.034535     -0.002528      0.917920
      3.63582      6.39821      1.56121         1.093115     -0.168293     -0.352792
      5.02033      6.18092      3.49202        -0.590015      0.135049     -0.037161
      6.57896      1.56260      1.90655         0.864705      0.016751     -0.832705
      7.93172      1.39171      4.00611        -0.996000     -0.390524     -1.359817
     16.08224      6.18092      2.46384        -0.414047     -0.100818      1.640440
     16.05539      6.19003      4.92959         0.843537     -0.181411      0.798968
      2.10894      1.39171      2.97793        -0.520993     -1.561493     -0.880923
      1.38562      1.22376      5.16310         1.046193     -0.104807      0.201690
     10.84312      6.18092      4.52020        -1.710360      0.078964     -2.536221
     15.36988      0.03525      1.89274         0.934134      0.781657      0.234392
     15.93926      0.10434      4.39842        -0.692246     -0.544352     -0.404686
      7.12384      3.98906      0.93523        -0.188090     -0.784405     -0.905152
      7.17375      4.91558      3.08454         0.148763     -0.097403      1.312528
      7.74341      4.61715      5.47160         0.367535     -0.168084      1.045003
      8.96010      1.39717      1.43597        -0.072232      0.050330     -1.876868
     10.08514      0.12638      3.59863         0.664824     -0.364864     -1.697574
      1.35096      4.91558      2.05636         0.112143      0.796966      0.696697
      1.76855      3.53367      3.94101        -0.096518      0.861744      0.284247
      4.26235      0.12638      2.57045         0.385462     -0.969971      0.362294
      4.99787      9.25283      4.81599        -0.430725      0.118184      1.031278
     13.08950      4.11933      1.87680        -0.402324      0.738210      0.011324
     12.99653      4.91558      4.11272         0.982031     -0.237053     -1.141046
     15.38476      2.75787      1.90609         0.648702     -0.716627     -0.026678
     15.99740      2.67662      4.40705        -0.971399      0.990011     -0.243196
      6.10324      6.20247      0.99186        -0.704941      0.329197     -1.893264
      7.17375      7.44626      3.08454         0.405575      0.057116     -1.629452
      7.94435      7.93892      5.32320         0.040750     -0.269142      1.114819
     10.71817      3.33144      1.35608        -0.172262      0.599758     -1.222741
     10.08514      2.65705      3.59863         0.536009      0.364705     -0.386397
      1.35096      7.44626      2.05636        -0.084038      0.364321      1.395770
      1.92272      7.60993      4.63497         0.196853     -0.613736      1.106715
      4.26235      2.65705      2.57045         0.564295      0.666612      1.343080
     13.12681      8.19445      1.90157        -0.658565     -0.689353      0.212980
     12.99653      7.44626      4.11272         1.071550      0.116988     -0.573451
     16.40758      1.37232      5.94512        -0.814763     -0.115218      4.236778
     16.74052      1.39171      2.94940         1.554168     -0.542133     -2.556635
      8.03247      5.90244      1.49122         3.316791      1.087123     -2.202030
      8.59001      6.18092      4.49167         2.035338      0.268783      0.130087
     10.91773      1.39171      1.92122         1.992229     -1.227132     -1.345618
     11.42861      1.38968      4.62605         0.695288     -0.007879      2.697190
      1.90466      6.18693      0.52353        -0.004268     -0.140155     -3.671569
      2.76722      6.18092      3.46349         0.658360     -1.400166      1.457666
      4.74274      1.40183      1.01062         0.378087     -0.249042     -4.048122
      5.71179      1.30170      3.76156         0.707731      0.920438      2.146055
     13.82913      6.18092      2.43531         0.898893     -0.219851     -1.664594
     14.09191      6.17659      5.35987         0.926666      0.059281      2.701267
     13.82631      2.77542      0.54405        -0.260232      0.778024     -3.736288
     13.99844      3.00295      3.46826        -0.022535      1.206269      1.976451
      5.26426      7.79215      1.92599        -0.495200      1.692363     -0.035079
      5.99714      7.48928      4.85651        -1.272344      0.715071      1.964967
      8.17565      3.00295      2.44008        -0.190516      1.289521     -0.295009
      8.76820      2.90082      5.20580         0.192360      0.107409      2.749154
      0.02514      7.79215      3.98236        -1.163930      0.593103      0.856186
     16.33681      7.86303      1.26944        -0.316836      0.592455     -2.790782
      2.35745      3.13326      1.87664        -0.424816     -0.150528     -2.483580
      3.22213      2.30932      4.57270         1.256112      1.151683      3.034895
     11.27960      7.92980      3.03961        -2.201544      0.069151     -1.284095
     11.68386      7.59323      5.67452        -0.388207      1.726697      3.299463
      5.26426      4.56969      1.92599        -1.347838     -1.227862     -0.916801
      5.87186      4.68406      4.71154        -2.106498     -1.805560      1.927383
     13.79540      9.55004      0.56389        -0.441892     -0.675287     -3.958826
     13.99844      9.35889      3.46826        -0.075643     -1.187235      1.756028
      0.02514      4.56969      3.98236        -1.129850      0.751322      1.402514
     16.33510      4.50900      1.25637        -0.421607     -0.643931     -2.893828
      8.17565      9.35889      2.44008        -0.891698     -1.515881     -0.060235
      8.92688      0.10768      5.30719         0.247897     -0.111079      3.002069
     11.23179      4.49370      2.96747        -1.794342      0.585257     -0.306685
     11.67267      4.74467      5.65536        -0.372552     -1.706336      3.489912
      2.38410      9.24587      1.76236        -0.818604      0.490245     -2.741234
      2.93654      9.35889      4.49645        -0.246756     -0.187679      1.564771
    total drift:                                0.079686     -0.112359     -0.095298

  FREE ENERGIE OF THE ION-ELECTRON SYSTEM (eV)
  free  energy   TOTEN  =      -340.81559851 eV

  energy  without entropy=     -339.73808125  energy(sigma->0) =     -340.27683988