 vasp.5.4.4.18Apr17-6-g9f103f2a35 (build Aug 13 2019 17:33:20) gamma-only

 executed on             LinuxIFC date 2020.05.11  19:30:45

 INCAR:
 POTCAR:    PAW_PBE Ni_pv 06Sep2000
 POTCAR:    PAW_PBE S 06Sep2000
 POTCAR:    PAW_PBE Ni_pv 06Sep2000
   VRHFIN =Ni:

   TITEL  = PAW_PBE Ni_pv 06Sep2000
   POMASS =   58.690; ZVAL   =   16.000    mass and valenz
   ENMAX  =  367.986; ENMIN  =  275.989 eV

 POTCAR:    PAW_PBE S 06Sep2000
   VRHFIN =S : s2p4

   TITEL  = PAW_PBE S 06Sep2000
   POMASS =   32.066; ZVAL   =    6.000    mass and valenz
   ENMAX  =  258.689; ENMIN  =  194.016 eV

 Optimization of the real space projectors (new method)

 maximal supplied QI-value         = 18.90
 optimisation between [QCUT,QGAM] = [ 10.77, 21.73] = [ 32.49,132.25] Ry
 Optimized for a Real-space Cutoff    1.38 Angstroem

   l    n(q)    QCUT    max X(q) W(low)/X(q) W(high)/X(q)  e(spline)
   1      8    10.771     2.836    0.40E-04    0.29E-04    0.12E-06
   1      8    10.771     4.023    0.10E-03    0.48E-04    0.29E-06
   2      8    10.771    73.368    0.42E-03    0.97E-04    0.44E-06
   2      8    10.771    69.010    0.42E-03    0.99E-04    0.45E-06
   0      9    10.771    54.797    0.10E-03    0.56E-04    0.74E-07
   0      9    10.771    24.266    0.89E-04    0.49E-04    0.67E-07
 Optimization of the real space projectors (new method)

 maximal supplied QI-value         = 19.84
 optimisation between [QCUT,QGAM] = [ 10.71, 21.63] = [ 32.15,130.99] Ry
 Optimized for a Real-space Cutoff    1.19 Angstroem

   l    n(q)    QCUT    max X(q) W(low)/X(q) W(high)/X(q)  e(spline)
   0      8    10.715   187.594    0.41E-03    0.53E-04    0.66E-07
   0      8    10.715   164.243    0.41E-03    0.53E-04    0.65E-07
   1      7    10.715    67.533    0.19E-03    0.59E-03    0.68E-07
   1      7    10.715    50.729    0.19E-03    0.58E-03    0.67E-07
  PAW_PBE Ni_pv 06Sep2000               :
  PAW_PBE S 06Sep2000                   :

 POSCAR: Type_036 Type_136
  positions in cartesian coordinates
 exchange correlation table for  LEXCH =        8
   RHO(1)=    0.500       N(1)  =     2000
   RHO(2)=  100.500       N(2)  =     4000

 ion  position               nearest neighbor table
   1  0.780  0.145  0.121-  63 2.01  49 2.08  41 2.25  50 2.36  64 2.36  25 2.53
   2  0.805  0.143  0.290-  64 2.05  37 2.05  50 2.08  42 2.10
   3  0.214  0.616  0.096-  43 2.04  44 2.11  61 2.16   4 2.42  19 2.51  14 2.53  51 2.54
   4  0.297  0.645  0.216-  52 2.13  62 2.14  44 2.25  51 2.26  61 2.26   3 2.42  28 2.53  15 2.53

   5  0.387  0.123  0.126-  45 2.05  46 2.13  67 2.20   6 2.43  53 2.49  17 2.50
   6  0.470  0.145  0.248-  54 2.11  68 2.11  46 2.25  53 2.26  67 2.26   5 2.43  31 2.53  18 2.53

[...]

  16  0.467  0.463  0.332-  54 2.00  62 2.05  40 2.07  15 2.44
  17  0.530  0.147  0.089-  41 2.03  53 2.04  67 2.06   5 2.50
  18  0.597  0.013  0.223-  68 2.06  42 2.11  59 2.21  67 2.26  41 2.26   6 2.53  31 2.53
  19  0.080  0.513  0.127-  57 2.06  43 2.06  66 2.11  20 2.33  44 2.36  65 2.36   3 2.51   7 2.53
                            32 2.53
  20  0.124  0.454  0.259-  58 1.99  44 2.08  65 2.09  19 2.33  57 2.64
  21  0.252  0.013  0.159-  45 2.07  71 2.10  72 2.18  51 2.25  46 2.36  22 2.52   9 2.53  34 2.53

[...]

  25  0.909  0.281  0.115-  49 2.07  66 2.10  50 2.12  38 2.19   1 2.53  26 2.54
  26  0.941  0.282  0.269-  37 2.05  38 2.09  50 2.11  65 2.16  25 2.54
  27  0.414  0.886  0.060-  67 2.08  51 2.10  28 2.37  14 2.50  39 2.56
  28  0.425  0.777  0.191-  52 2.17  67 2.25  39 2.26  51 2.26  40 2.36  27 2.37  29 2.44  15 2.53
                             4 2.53
  29  0.469  0.830  0.331-  68 2.00  52 2.05  40 2.08  28 2.44
  30  0.631  0.348  0.084-  41 2.04  69 2.06  31 2.41
  31  0.597  0.277  0.223-  54 2.07  42 2.13  69 2.25  53 2.26  41 2.26  30 2.41   6 2.53  18 2.53

[...]

  33  0.123  0.837  0.260-  72 1.99  55 2.08  44 2.09  32 2.33  71 2.65
  34  0.252  0.277  0.159-  45 2.07  57 2.08  58 2.20  61 2.25  46 2.36   9 2.53  21 2.53
  35  0.297  0.315  0.310-  62 2.01  58 2.03  46 2.04
  36  0.770  0.777  0.254-  60 2.03  48 2.07  47 2.24  59 2.25  64 2.25  11 2.53  24 2.53
  37  0.906  0.146  0.359-  13 2.04  26 2.05   2 2.05
  38  0.991  0.145  0.182-  26 2.09  13 2.11  12 2.13  25 2.19   9 2.25
  39  0.474  0.645  0.087-  10 2.00  14 2.02  28 2.26  15 2.26  27 2.56
  40  0.509  0.645  0.278-  16 2.07  29 2.08  10 2.16  11 2.25  28 2.36  15 2.36
  41  0.647  0.145  0.119-  17 2.03  30 2.04   1 2.25  31 2.26  18 2.26  42 2.71
  42  0.680  0.143  0.282-   2 2.10  18 2.11  31 2.13  41 2.71
  43  0.111  0.645  0.032-   3 2.04  19 2.06  32 2.07
  44  0.164  0.645  0.214-  20 2.08  33 2.09   3 2.11   4 2.25  32 2.36  19 2.36
  45  0.283  0.145  0.063-   5 2.05  34 2.07  21 2.07
  46  0.336  0.145  0.246-  35 2.04  22 2.04   5 2.13   6 2.25  34 2.36  21 2.36
  47  0.826  0.631  0.163-  24 2.08   7 2.15  36 2.24  23 2.25
  48  0.827  0.647  0.338-   8 2.00  36 2.07  24 2.10  60 2.70  70 2.77
  49  0.815  0.292  0.033-  23 2.02  25 2.07   1 2.08  63 2.71
  50  0.829  0.314  0.214-   2 2.08  26 2.11  25 2.12  23 2.14  24 2.25   1 2.36
  51  0.312  0.814  0.119-  14 2.05  27 2.10  21 2.25   4 2.26  28 2.26   3 2.54
  52  0.355  0.778  0.303-  22 2.01  29 2.05   4 2.13  28 2.17  62 2.66
  53  0.484  0.314  0.151-  17 2.04  15 2.25  31 2.26   6 2.26   5 2.49
  54  0.528  0.284  0.328-  16 2.00  31 2.07   6 2.11  68 2.64
  55  0.001  0.814  0.246-  33 2.08   8 2.10  13 2.16   7 2.36  32 2.36  56 2.76
  56  0.968  0.822  0.079-   7 2.08  12 2.09  32 2.09  55 2.76
  57  0.140  0.328  0.115-  19 2.06  34 2.08   9 2.09  20 2.64  58 2.74
  58  0.184  0.276  0.275-  20 1.99  35 2.03   9 2.17  34 2.20  72 2.54  57 2.74
  59  0.651  0.808  0.193-  11 2.10  10 2.17  18 2.21  36 2.25  60 2.62
  60  0.692  0.799  0.349-  36 2.03  11 2.04  59 2.62  48 2.70
  61  0.312  0.477  0.119-  14 2.04   3 2.16  34 2.25   4 2.26  15 2.26
  62  0.352  0.500  0.298-  35 2.01  16 2.05  15 2.13   4 2.14  52 2.66
  63  0.824  0.009  0.038-  12 2.00   1 2.01  49 2.71
  64  0.829  0.977  0.214-   2 2.05  13 2.10  12 2.12  36 2.25   1 2.36
  65  0.001  0.477  0.246-  20 2.09   8 2.10  26 2.16   7 2.36  19 2.36  66 2.75
  66  0.967  0.466  0.080-   7 2.09  25 2.10  19 2.11  65 2.75
  67  0.484  0.977  0.151-  17 2.06  27 2.08   5 2.20  28 2.25  18 2.26   6 2.26
  68  0.530  0.009  0.329-  29 2.00  18 2.06   6 2.11  54 2.64
  69  0.657  0.477  0.183-  30 2.06  10 2.19  31 2.25  24 2.26  11 2.26  23 2.27  70 2.74
  70  0.690  0.488  0.348-  11 2.03  24 2.05  69 2.74  48 2.77
  71  0.139  0.964  0.115-  32 2.06   9 2.07  21 2.10  33 2.65  72 2.74
  72  0.187  0.011  0.275-  33 1.99  22 2.05  21 2.18   9 2.21  58 2.54  71 2.74

  LATTYP: Found a simple orthorhombic cell.
 ALAT       =     9.5784100000
 B/A-ratio  =     1.6880763216
 C/A-ratio  =     1.7627867312

  Lattice vectors:

 A1 = (   0.0000000000,   9.5784100000,   0.0000000000)
 A2 = (   0.0000000000,   0.0000000000, -16.1690871197)
 A3 = ( -16.8846940542,   0.0000000000,   0.0000000000)

Analysis of symmetry for initial positions (statically):
 Subroutine PRICEL returns:
 Original cell was already a primitive cell.

 Routine SETGRP: Setting up the symmetry group for a
 simple orthorhombic supercell.

 Subroutine GETGRP returns: Found  1 space group operations
 (whereof  1 operations were pure point group operations)
 out of a pool of  8 trial point group operations.

The static configuration has the point symmetry C_1 .

Analysis of symmetry for dynamics (positions and initial velocities):
 Subroutine PRICEL returns:
 Original cell was already a primitive cell.

 Routine SETGRP: Setting up the symmetry group for a
 simple orthorhombic supercell.

 Subroutine GETGRP returns: Found  1 space group operations
 (whereof  1 operations were pure point group operations)
 out of a pool of  8 trial point group operations.

The dynamic configuration has the point symmetry C_1 .

 Subroutine INISYM returns: Found  1 space group operations
 (whereof  1 operations are pure point group operations),
 and found     1 'primitive' translations

 KPOINTS: gamma-point-only calculation. no periodi

Automatic generation of k-mesh.
Space group operators:
 irot       det(A)        alpha          n_x          n_y          n_z        tau_x        tau_y        tau_z
    1     1.000000     0.000000     1.000000     0.000000     0.000000     0.000000     0.000000     0.000000

 Subroutine IBZKPT returns following result:

 Found      1 irreducible k-points:

 Following reciprocal coordinates:
            Coordinates               Weight
  0.000000  0.000000  0.000000      1.000000

 Following cartesian coordinates:
            Coordinates               Weight
  0.000000  0.000000  0.000000      1.000000

 SYSTEM =  "Millerite NiS"
 POSCAR =  Type_036 Type_136

 Startparameter for this run:
   NWRITE =      2    write-flag & timer
   PREC   = normal    normal or accurate (medium, high low for compatibility)
   ISTART =      0    job   : 0-new  1-cont  2-samecut
   ICHARG =      2    charge: 1-file 2-atom 10-const
   ISPIN  =      1    spin polarized calculation?
   LNONCOLLINEAR =      F non collinear calculations
   LSORBIT =      F    spin-orbit coupling
   INIWAV =      1    electr: 0-lowe 1-rand  2-diag
   LASPH  =      F    aspherical Exc in radial PAW
   METAGGA=      F    non-selfconsistent MetaGGA calc.

 Electronic Relaxation 1
   ENCUT  =  450.0 eV  33.07 Ry    5.75 a.u.  29.20 16.57 27.97*2*pi/ulx,y,z
   ENINI  =  450.0     initial cutoff
   ENAUG  =  703.4 eV  augmentation charge cutoff
   NELM   =    100;   NELMIN=  2; NELMDL= -5     # of ELM steps
   EDIFF  = 0.1E-03   stopping-criterion for ELM
   LREAL  =      T    real-space projection
   NLSPLINE    = F    spline interpolate recip. space projectors
   LCOMPAT=      F    compatible to vasp.4.4
   GGA_COMPAT  = T    GGA compatible to vasp.4.4-vasp.4.6
   LMAXPAW     = -100 max onsite density
   LMAXMIX     =    2 max onsite mixed and CHGCAR
   VOSKOWN=      0    Vosko Wilk Nusair interpolation
   ROPT   =   -0.00050  -0.00050
 Ionic relaxation
   EDIFFG = 0.1E-02   stopping-criterion for IOM
   NSW    =      0    number of steps for IOM
   NBLOCK =      1;   KBLOCK =      1    inner block; outer block
   IBRION =     -1    ionic relax: 0-MD 1-quasi-New 2-CG
   NFREE  =      0    steps in history (QN), initial steepest desc. (CG)
   ISIF   =      2    stress and relaxation
   IWAVPR =     10    prediction:  0-non 1-charg 2-wave 3-comb
   ISYM   =      2    0-nonsym 1-usesym 2-fastsym
   LCORR  =      T    Harris-Foulkes like correction to forces

   POTIM  = 0.5000    time-step for ionic-motion
   TEIN   =    0.0    initial temperature
   TEBEG  =    0.0;   TEEND  =   0.0 temperature during run
   SMASS  =  -3.00    Nose mass-parameter (am)
   estimated Nose-frequenzy (Omega)   =  0.10E-29 period in steps =****** mass=  -0.652E-26a.u.
   SCALEE = 1.0000    scale energy and forces
   NPACO  =    256;   APACO  = 16.0  distance and # of slots for P.C.
   PSTRESS=    0.0 pullay stress

  Mass of Ions in am
   POMASS =  58.69 32.07
  Ionic Valenz
   ZVAL   =  16.00  6.00
  Atomic Wigner-Seitz radii
  virtual crystal weights
   VCA    =   1.00  1.00
[...]
  Fock        0.00000     0.00000     0.00000     0.00000     0.00000     0.00000
  Total     127.84179   135.50454   144.89620     0.03295     1.24264     0.07798
  in kB      78.32697    83.02183    88.77598     0.02019     0.76135     0.04777

 VOLUME and BASIS-vectors are now :
  energy-cutoff  :      450.00
  volume of cell :     2615.00
      direct lattice vectors                 reciprocal lattice vectors
    16.884694054  0.000000000  0.000000000     0.059225237  0.000000000  0.000000000
     0.000000000  9.578410000  0.000000000     0.000000000  0.104401461  0.000000000
     0.000000000  0.000000000 16.169087120     0.000000000  0.000000000  0.061846411

  length of vectors
    16.884694054  9.578410000 16.169087120     0.059225237  0.104401461  0.061846411

 FORCES acting on ions
    electron-ion (+dipol)            ewald-force                    non-local-force                 convergence-correction
   0.474E+03 0.624E+03 0.201E+04   -.477E+03 -.627E+03 -.201E+04   0.336E+01 0.325E+01 0.507E+01   0.339E-02 -.178E-02 0.452E-02
   0.420E+03 0.138E+03 -.277E+04   -.424E+03 -.139E+03 0.277E+04   0.203E+01 0.104E+01 -.466E+01   0.607E-02 0.530E-03 -.175E-02
   0.227E+03 0.906E+02 0.284E+04   -.227E+03 -.907E+02 -.285E+04   0.106E+01 0.724E+00 0.639E+01   0.371E-02 -.165E-02 0.189E-02
   0.704E+03 0.441E+02 -.124E+04   -.707E+03 -.444E+02 0.125E+04   0.281E+01 0.153E+00 -.304E+01   0.719E-02 0.211E-03 0.156E-02
   0.113E+03 -.406E+03 0.226E+04   -.114E+03 0.406E+03 -.227E+04   0.122E+01 -.769E-01 0.813E+01   0.672E-02 -.786E-02 -.177E-02
   0.198E+03 -.706E+02 -.183E+04   -.201E+03 0.713E+02 0.184E+04   0.251E+01 -.319E+00 -.605E+01   -.363E-02 -.649E-03 -.836E-02
   0.613E+03 -.137E+03 0.142E+04   -.618E+03 0.137E+03 -.142E+04   0.480E+01 -.332E+00 0.341E+01   -.281E-02 0.628E-03 0.137E-01
   -.190E+03 -.576E+02 -.301E+04   0.190E+03 0.583E+02 0.301E+04   0.106E+01 -.841E+00 -.737E+00   -.164E-02 0.424E-02 0.184E-02
   0.812E+03 0.119E+02 0.258E+03   -.819E+03 -.119E+02 -.260E+03   0.600E+01 -.107E+00 0.363E+01   -.600E-02 0.704E-04 0.259E-02
   -.640E+03 -.200E+03 0.182E+04   0.643E+03 0.201E+03 -.182E+04   -.265E+01 -.163E+01 0.356E+01   -.617E-02 -.221E-03 0.349E-02
   -.557E+02 -.123E+03 -.222E+04   0.527E+02 0.122E+03 0.223E+04   0.210E+01 0.802E+00 -.777E+01   -.413E-02 -.160E-01 0.351E-02
   -.213E+03 0.478E+03 0.235E+04   0.217E+03 -.482E+03 -.236E+04   -.303E+01 0.415E+01 0.556E+01   0.153E-02 0.244E-02 0.101E-01
   -.438E+03 0.460E+03 -.230E+04   0.441E+03 -.464E+03 0.230E+04   -.177E+01 0.309E+01 -.363E+01   -.712E-03 -.284E-02 -.955E-03
   -.445E+02 0.423E+03 0.396E+04   0.432E+02 -.424E+03 -.396E+04   0.876E+00 0.819E+00 0.483E+01   0.756E-02 0.754E-02 0.107E-02
   -.207E+03 0.596E+03 0.446E+03   0.207E+03 -.600E+03 -.447E+03   0.637E+00 0.351E+01 0.195E+00   0.233E-02 -.351E-02 0.223E-02
   -.139E+03 0.121E+03 -.362E+04   0.142E+03 -.125E+03 0.361E+04   -.263E+01 0.434E+01 0.165E+01   0.648E-02 -.268E-02 -.402E-02
   -.308E+03 0.155E+03 0.349E+04   0.307E+03 -.155E+03 -.350E+04   0.371E+00 -.472E+00 0.531E+01   -.148E-01 -.361E-02 0.577E-02
   -.822E+03 0.621E+03 -.574E+03   0.826E+03 -.627E+03 0.577E+03   -.319E+01 0.550E+01 -.396E+01   -.665E-02 0.619E-02 -.275E-02
   0.339E+03 0.529E+03 0.196E+04   -.341E+03 -.531E+03 -.196E+04   0.198E+01 0.279E+01 0.401E+01   -.541E-02 -.558E-02 0.934E-02
   0.186E+03 0.802E+02 -.251E+04   -.186E+03 -.802E+02 0.251E+04   -.128E+01 0.619E+00 -.227E+01   -.496E-02 -.533E-03 0.119E-02
   0.456E+03 0.289E+03 0.121E+04   -.456E+03 -.292E+03 -.122E+04   0.393E+00 0.257E+01 0.464E+01   0.170E-01 0.265E-02 -.133E-02
   0.374E+03 0.430E+02 -.330E+04   -.372E+03 -.476E+02 0.330E+04   -.237E+01 0.518E+01 0.526E+00   0.771E-02 0.172E-02 -.595E-02
   -.241E+02 -.694E+03 0.250E+04   0.214E+02 0.696E+03 -.251E+04   0.172E+01 -.176E+01 0.704E+01   0.425E-02 -.460E-02 0.516E-02
   -.314E+03 0.199E+03 -.163E+04   0.315E+03 -.202E+03 0.163E+04   -.138E+01 0.283E+01 -.492E+01   -.234E-03 -.391E-02 0.135E-01
   -.605E+03 -.152E+03 0.244E+04   0.611E+03 0.154E+03 -.244E+04   -.509E+01 -.268E+01 0.520E+01   0.421E-02 -.384E-02 0.398E-02
   -.524E+03 -.365E+03 -.233E+04   0.528E+03 0.369E+03 0.233E+04   -.309E+01 -.242E+01 -.423E+01   -.646E-03 -.361E-02 -.386E-02
   -.377E+03 -.229E+03 0.389E+04   0.375E+03 0.230E+03 -.389E+04   0.242E+01 -.688E+00 -.170E+01   -.341E-02 0.109E-01 0.117E-01
   -.341E+03 -.256E+03 0.318E+02   0.341E+03 0.258E+03 -.303E+02   0.300E+00 -.228E+01 -.150E+01   0.145E-02 0.969E-02 -.279E-02
   -.226E+03 -.116E+03 -.363E+04   0.229E+03 0.121E+03 0.363E+04   -.348E+01 -.475E+01 0.143E+01   -.126E-02 0.194E-02 -.453E-02
   -.819E+02 -.465E+03 0.343E+04   0.839E+02 0.464E+03 -.343E+04   -.204E+01 0.172E+01 -.156E+01   -.626E-02 -.480E-02 0.552E-02
   -.509E+03 -.300E+03 -.106E+04   0.511E+03 0.304E+03 0.106E+04   -.189E+01 -.413E+01 -.454E+01   -.440E-02 -.137E-02 0.663E-02
   0.256E+03 -.557E+03 0.198E+04   -.258E+03 0.560E+03 -.199E+04   0.130E+01 -.285E+01 0.440E+01   -.636E-02 0.276E-02 0.610E-02
   0.201E+03 -.804E+02 -.249E+04   -.200E+03 0.807E+02 0.249E+04   -.176E+01 -.101E+01 -.205E+01   -.587E-02 0.175E-02 0.279E-02
   0.174E+03 -.364E+03 0.127E+04   -.173E+03 0.368E+03 -.127E+04   0.185E+00 -.293E+01 0.498E+01   0.108E-01 -.322E-02 -.799E-03
   0.326E+03 -.649E+02 -.334E+04   -.323E+03 0.692E+02 0.334E+04   -.223E+01 -.473E+01 0.158E+01   0.482E-02 -.158E-02 -.503E-02
   -.288E+03 -.611E+03 -.993E+03   0.291E+03 0.616E+03 0.990E+03   -.190E+01 -.431E+01 0.798E-01   0.144E-01 0.117E-03 -.275E-02
   -.133E+03 0.705E+01 -.168E+04   0.133E+03 -.716E+01 0.168E+04   0.103E+00 0.104E+00 -.799E+00   0.973E-03 -.197E-02 -.391E-02
   -.316E+03 0.122E+02 0.231E+03   0.318E+03 -.125E+02 -.232E+03   0.744E+00 0.624E+00 -.393E+00   -.368E-02 -.910E-03 0.154E-02
   -.393E+03 0.114E+03 0.137E+04   0.396E+03 -.116E+03 -.137E+04   -.293E+01 0.288E+01 0.264E+01   -.312E-02 0.233E-02 0.171E-02
   -.170E+03 -.240E+01 -.888E+03   0.171E+03 0.244E+01 0.894E+03   0.100E+01 -.122E+00 -.432E+01   -.244E-02 0.425E-03 0.160E-02
   -.297E+03 0.357E+03 0.915E+03   0.299E+03 -.359E+03 -.919E+03   -.802E-01 0.120E+01 0.227E+01   -.197E-02 -.128E-02 0.237E-02
   -.153E+03 0.629E+02 -.103E+04   0.155E+03 -.628E+02 0.103E+04   -.901E+00 0.851E-01 -.127E+01   -.170E-02 0.205E-02 -.117E-02
   0.147E+03 -.392E+02 0.172E+04   -.148E+03 0.395E+02 -.172E+04   0.425E+00 -.152E+00 0.204E+01   -.944E-03 -.298E-03 0.134E-05
   0.348E+02 -.323E+02 -.533E+03   -.336E+02 0.323E+02 0.539E+03   -.110E+00 0.247E+00 -.389E+01   -.205E-02 -.236E-02 0.340E-02
   0.184E+03 -.886E+02 0.163E+04   -.185E+03 0.890E+02 -.163E+04   0.150E+01 -.205E+00 0.175E+01   0.764E-02 -.211E-02 0.202E-02
   0.113E+02 -.607E+02 -.661E+03   -.976E+01 0.608E+02 0.666E+03   0.597E+00 0.780E-01 -.451E+01   0.526E-02 -.280E-02 -.443E-02
   0.226E+02 -.260E+03 0.678E+03   -.240E+02 0.262E+03 -.682E+03   0.173E+01 -.771E+00 0.220E+01   0.435E-02 0.170E-02 0.261E-02
   -.100E+03 -.318E+02 -.148E+04   0.103E+03 0.315E+02 0.149E+04   -.260E+01 0.221E+00 -.269E+01   0.696E-02 -.157E-02 -.774E-03
   -.112E+02 -.591E+02 0.170E+04   0.117E+02 0.608E+02 -.171E+04   -.871E+00 -.130E+01 0.271E+01   0.295E-02 -.287E-02 0.173E-02
   0.406E+02 -.115E+03 -.342E+03   -.404E+02 0.116E+03 0.344E+03   -.116E+01 0.176E+00 -.180E+01   0.267E-02 -.160E-02 0.103E-02
   0.340E+03 -.187E+03 0.788E+03   -.343E+03 0.189E+03 -.789E+03   0.131E+01 -.988E+00 0.388E+00   0.630E-02 0.349E-02 -.694E-03
   0.260E+03 0.102E+03 -.130E+04   -.261E+03 -.101E+03 0.131E+04   0.583E-01 -.549E+00 -.296E+01   0.428E-02 0.238E-02 -.982E-03
   0.919E+02 -.267E+03 0.636E+03   -.936E+02 0.269E+03 -.637E+03   0.642E+00 -.145E+01 0.101E+01   -.266E-02 -.402E-02 0.102E-02
   -.166E+03 0.575E+02 -.146E+04   0.167E+03 -.561E+02 0.147E+04   -.976E+00 -.115E+01 -.240E+01   0.321E-03 0.121E-02 -.186E-02
   0.470E+02 -.108E+03 -.662E+03   -.475E+02 0.109E+03 0.664E+03   0.130E+00 -.114E+01 -.134E+01   -.564E-02 -.107E-02 0.293E-02
   0.186E+03 -.761E+02 0.131E+04   -.188E+03 0.760E+02 -.132E+04   0.734E+00 0.794E+00 0.420E+01   -.196E-02 0.113E-02 0.349E-02
   0.180E+03 0.115E+03 0.106E+04   -.181E+03 -.117E+03 -.107E+04   0.407E+00 0.162E+01 0.538E+01   -.162E-02 0.775E-03 0.142E-02
   0.273E+03 0.889E+02 -.109E+04   -.274E+03 -.867E+02 0.109E+04   0.334E+00 -.150E+01 -.304E+01   -.245E-02 0.242E-02 -.147E-03
   -.224E+03 -.196E+03 0.432E+03   0.224E+03 0.197E+03 -.437E+03   -.610E-01 -.547E-01 0.261E+01   -.193E-02 0.249E-02 -.924E-03
   -.392E+02 -.270E+03 -.147E+04   0.384E+02 0.273E+03 0.148E+04   0.437E+00 -.178E+01 -.196E+01   -.188E-03 -.974E-03 -.135E-03
   0.335E+02 0.368E+03 0.881E+03   -.338E+02 -.371E+03 -.883E+03   -.225E+00 0.141E+01 0.228E+01   0.337E-02 -.130E-02 0.596E-03
   0.256E+03 -.487E+02 -.120E+04   -.258E+03 0.477E+02 0.121E+04   0.167E-01 0.631E+00 -.273E+01   0.361E-02 0.346E-03 -.117E-02
   0.154E+03 0.343E+03 0.151E+04   -.155E+03 -.347E+03 -.152E+04   0.281E+00 0.188E+01 0.160E+01   0.106E-02 0.104E-02 0.280E-02
   0.201E+03 0.306E+03 -.110E+03   -.203E+03 -.309E+03 0.110E+03   0.486E+00 0.322E+00 0.178E+00   0.439E-02 0.461E-03 0.340E-03
   0.176E+02 0.949E+02 -.680E+03   -.184E+02 -.959E+02 0.683E+03   0.637E+00 0.994E+00 -.106E+01   -.135E-02 0.278E-02 0.189E-02
   0.884E+02 0.466E+02 0.130E+04   -.901E+02 -.464E+02 -.131E+04   0.124E+01 -.836E+00 0.421E+01   -.129E-02 -.205E-02 0.313E-02
   -.276E+03 0.194E+03 0.492E+03   0.277E+03 -.197E+03 -.492E+03   -.139E+01 0.168E+01 0.607E-01   -.537E-02 0.274E-02 -.118E-02
   -.200E+03 -.515E+02 -.146E+04   0.201E+03 0.499E+02 0.147E+04   -.844E+00 0.124E+01 -.188E+01   -.288E-02 -.426E-03 -.249E-02
   -.642E+02 -.114E+03 0.220E+03   0.625E+02 0.113E+03 -.221E+03   0.129E+01 0.109E+01 -.589E+00   -.233E-02 -.195E-02 0.416E-02
   -.273E+02 0.241E+03 -.152E+04   0.259E+02 -.244E+03 0.152E+04   0.104E+01 0.135E+01 -.689E+00   -.128E-02 -.339E-02 0.649E-03
   0.193E+03 -.795E+02 0.105E+04   -.194E+03 0.811E+02 -.106E+04   0.626E+00 -.158E+01 0.527E+01   -.490E-03 0.282E-03 0.600E-03
   0.283E+03 -.884E+02 -.110E+04   -.283E+03 0.864E+02 0.111E+04   0.161E-02 0.142E+01 -.322E+01   0.945E-03 -.600E-03 0.363E-03
   -.101E+01 -.112E+02 -.284E+02   -.153E-11 0.682E-12 0.107E-10   0.962E+00 0.112E+02 0.282E+02   0.320E-01 -.259E-01 0.931E-01

 POSITION                                       TOTAL-FORCE (eV/Angst)
     13.17084      1.39171      1.94975        -0.232573      0.254684      1.728557
     13.58622      1.37395      4.68818        -1.943562      0.063865      0.717508
      3.60529      5.90110      1.54834         0.953834      0.597112     -0.457796
      5.02033      6.18092      3.49202        -0.179896     -0.112521     -0.317638
      6.53005      1.18235      2.03104         0.777680      0.376817     -0.321254
      7.93172      1.39171      4.00611        -0.681649      0.338803     -0.848476
     16.08224      6.18092      2.46384         0.063904     -0.160897      0.957889
     15.83977      6.18204      4.79793         0.810936     -0.125319      1.072391
      2.10894      1.39171      2.97793        -1.138229     -0.088285      0.920916
      9.61856      6.15975      2.59116         0.391611     -0.139533     -0.641606
     10.84312      6.18092      4.52020        -0.889744     -0.114431      0.182179
     15.42487      0.05472      1.93020         0.737402      0.317874     -0.019746
     15.87612      0.07723      4.36076         0.760507     -1.177451      0.426686
      6.04375      6.17514      0.93958        -0.389753     -0.016827     -1.638435
      7.17375      4.91558      3.08454         0.677102     -0.151119     -1.253889
      7.89316      4.43554      5.36641        -0.126546      0.464415      0.742239
      8.94512      1.40805      1.43303        -0.307998     -0.155877     -1.874477
     10.08514      0.12638      3.59863         1.014796     -0.528652     -1.544670
      1.35096      4.91558      2.05636        -0.629297      0.097926      0.168951
      2.09264      4.34613      4.18853        -0.706082      0.611211      0.929676
      4.26235      0.12638      2.57045         0.457457     -0.899806      0.512085
      5.09986      9.24778      4.90552        -0.046983      0.521992      0.856394
     13.04629      4.10919      1.89672        -0.899671      0.913518     -0.020928
     12.99653      4.91558      4.11272         0.334356     -0.860390     -0.339930
     15.34525      2.68796      1.86365         1.137497     -0.431063     -0.025242
     15.89565      2.70026      4.34229         0.819525      1.465719      0.179831
      6.99396      8.48785      0.96241         0.176809      0.096953     -0.749605
      7.17375      7.44626      3.08454         0.555181     -0.402466     -0.013523
      7.92323      7.95391      5.34739        -0.159745     -0.541789      0.748801
     10.66016      3.33533      1.35731        -0.101872      0.619915     -0.922676
     10.08514      2.65705      3.59863         0.492353      0.193259     -0.655579
      1.35096      7.44626      2.05636        -0.203027     -0.297498      0.476777
      2.08006      8.01472      4.20047        -0.744267     -0.688963      0.700552
      4.26235      2.65705      2.57045         0.949443      0.542510      0.826167
      5.01762      3.01643      5.01685         0.028881     -0.408274      0.598752
     12.99653      7.44626      4.11272         0.541367      0.859247     -2.664167
     15.30208      1.40097      5.80817         0.613219     -0.001335      4.450998
     16.74052      1.39171      2.94940         2.412187      0.301738     -1.232073
      8.00634      6.18092      1.40713         0.870384      0.443098     -2.781975
      8.59001      6.18092      4.49167         1.326602     -0.087188      1.261357
     10.91773      1.39171      1.92122         1.829321     -1.460939     -1.559961
     11.48827      1.37265      4.56539         0.702831      0.162129      2.341452
      1.87257      6.17945      0.51018         0.143366      0.118839     -3.688767
      2.76722      6.18092      3.46349         1.093900      0.171386      2.132244
      4.77002      1.39230      1.01105         0.377374      0.150187     -4.102533
      5.67861      1.39171      3.97758         2.184029      0.156040      0.872491
     13.93918      6.04090      2.64018         0.295160      1.174226     -2.045635
     13.95669      6.20080      5.46602         0.734787     -0.056885      3.059451
     13.75975      2.79494      0.53286        -0.274495      0.361348     -3.893976
     13.99844      3.00295      3.46826        -0.946060      1.356808      0.877083
      5.26426      7.79215      1.92599        -1.609539      1.002912     -0.364768
      5.99026      7.44804      4.90551        -1.404625      0.486287      1.860331
      8.17565      3.00295      2.44008        -1.098645      1.340752     -0.169406
      8.91822      2.72422      5.30893         0.200956      0.235860      2.704691
      0.02514      7.79215      3.98236        -0.443316     -0.036923      1.449224
     16.33675      7.86878      1.28026        -0.767051      0.621826     -2.968463
      2.36601      3.13759      1.85236        -0.789410     -0.305943     -2.610008
      3.10246      2.64475      4.43994        -0.694861      0.627403      2.339879
     10.99736      7.74412      3.12056         0.065517      1.515246     -1.512156
     11.68789      7.65444      5.65048        -0.326361      1.800916      3.157410
      5.26426      4.56969      1.92599        -0.551465     -1.779509     -0.221847
      5.95145      4.78619      4.82351        -1.129183     -0.382177      2.007395
     13.91881      0.09039      0.60836        -0.873422     -1.639748     -3.389746
     13.99844      9.35889      3.46826        -1.532113     -2.332247     -0.211089
      0.02514      4.56969      3.98236        -0.175516     -0.028489      1.517746
     16.31952      4.46150      1.29771        -0.443502     -0.605867     -2.822845
      8.17565      9.35889      2.44008        -0.126787     -1.341318      0.030649
      8.94976      0.08679      5.31709        -0.018885     -0.272827      2.930970
     11.08705      4.56969      2.95417        -0.464482     -0.403721     -0.819372
     11.64542      4.67834      5.63312        -0.310589     -1.842524      3.397390
      2.34412      9.23759      1.86628        -0.561410      0.050963     -2.739732
      3.15003      0.10215      4.44435        -0.607663     -0.534983      2.306875
    total drift:                               -0.012101      0.042253     -0.025159

  FREE ENERGIE OF THE ION-ELECTRON SYSTEM (eV)
  free  energy   TOTEN  =      -339.82591955 eV

  energy  without entropy=     -338.78432965  energy(sigma->0) =     -339.30512460