 vasp.5.4.4.18Apr17-6-g9f103f2a35 (build Aug 13 2019 17:33:20) gamma-only

 executed on             LinuxIFC date 2020.05.11  21:57:35

 INCAR:
 POTCAR:    PAW_PBE Ni_pv 06Sep2000
 POTCAR:    PAW_PBE S 06Sep2000
 POTCAR:    PAW_PBE Ni_pv 06Sep2000
   VRHFIN =Ni:

   TITEL  = PAW_PBE Ni_pv 06Sep2000
   POMASS =   58.690; ZVAL   =   16.000    mass and valenz
   ENMAX  =  367.986; ENMIN  =  275.989 eV

 POTCAR:    PAW_PBE S 06Sep2000
   VRHFIN =S : s2p4

   TITEL  = PAW_PBE S 06Sep2000
   POMASS =   32.066; ZVAL   =    6.000    mass and valenz
   ENMAX  =  258.689; ENMIN  =  194.016 eV

 Optimization of the real space projectors (new method)

 maximal supplied QI-value         = 18.90
 optimisation between [QCUT,QGAM] = [ 10.77, 21.73] = [ 32.49,132.25] Ry
 Optimized for a Real-space Cutoff    1.38 Angstroem

   l    n(q)    QCUT    max X(q) W(low)/X(q) W(high)/X(q)  e(spline)
   1      8    10.771     2.836    0.40E-04    0.29E-04    0.12E-06
   1      8    10.771     4.023    0.10E-03    0.48E-04    0.29E-06
   2      8    10.771    73.368    0.42E-03    0.97E-04    0.44E-06
   2      8    10.771    69.010    0.42E-03    0.99E-04    0.45E-06
   0      9    10.771    54.797    0.10E-03    0.56E-04    0.74E-07
   0      9    10.771    24.266    0.89E-04    0.49E-04    0.67E-07
 Optimization of the real space projectors (new method)

 maximal supplied QI-value         = 19.84
 optimisation between [QCUT,QGAM] = [ 10.71, 21.63] = [ 32.15,130.99] Ry
 Optimized for a Real-space Cutoff    1.19 Angstroem

   l    n(q)    QCUT    max X(q) W(low)/X(q) W(high)/X(q)  e(spline)
   0      8    10.715   187.594    0.41E-03    0.53E-04    0.66E-07
   0      8    10.715   164.243    0.41E-03    0.53E-04    0.65E-07
   1      7    10.715    67.533    0.19E-03    0.59E-03    0.68E-07
   1      7    10.715    50.729    0.19E-03    0.58E-03    0.67E-07
  PAW_PBE Ni_pv 06Sep2000               :
  PAW_PBE S 06Sep2000                   :

 POSCAR: Type_036 Type_136
  positions in cartesian coordinates
 exchange correlation table for  LEXCH =        8
   RHO(1)=    0.500       N(1)  =     2000
   RHO(2)=  100.500       N(2)  =     4000

 ion  position               nearest neighbor table
   1  0.780  0.145  0.097-  63 2.07  49 2.07  41 2.25  50 2.36  64 2.36
   2  0.831  0.145  0.273-  50 2.09  64 2.09  37 2.14  26 2.40  14 2.40
   3  0.217  0.645  0.073-  42 2.02  43 2.11  61 2.19  51 2.19   4 2.36
   4  0.297  0.645  0.193-  61 2.08  51 2.08  52 2.19  62 2.19  43 2.25   3 2.36  27 2.53  15 2.53

   5  0.394  0.145  0.103-  45 2.03  46 2.17  67 2.25  53 2.25   6 2.35
   6  0.470  0.145  0.224-  54 2.12  68 2.12  46 2.25  53 2.26  67 2.26   5 2.35
   7  0.952  0.645  0.129-  56 2.07  66 2.07  47 2.25  55 2.36  65 2.36  31 2.53  19 2.53
   8  0.976  0.645  0.298-  44 2.05  65 2.06  55 2.06  48 2.10
   9  0.125  0.145  0.161-  57 2.09  71 2.09  38 2.25  10 2.35  58 2.36  72 2.36  33 2.53  21 2.53

[...]

  37  0.941  0.145  0.339-  26 2.07  14 2.07  10 2.09   2 2.14
  38  0.991  0.145  0.159-  26 2.11  14 2.11  25 2.22  13 2.22   9 2.25  10 2.31
  39  0.460  0.645  0.073-  11 2.02  15 2.07  27 2.07
  40  0.509  0.645  0.254-  16 2.09  28 2.09  11 2.11  12 2.25  27 2.36  15 2.36
  41  0.647  0.145  0.095-  17 2.05  29 2.05  18 2.16  30 2.16   1 2.25
  42  0.114  0.645  0.010-   3 2.02  19 2.06  31 2.06
  43  0.164  0.645  0.191-  32 2.09  20 2.09   3 2.11   4 2.25  31 2.36  19 2.36
  44  0.080  0.645  0.362-  20 2.05  32 2.05   8 2.05
  45  0.289  0.145  0.042-   5 2.03  21 2.06  33 2.06
  46  0.336  0.145  0.223-  22 2.06  34 2.06   5 2.17   6 2.25  33 2.36  21 2.36
  47  0.819  0.645  0.127-   7 2.25  35 2.25  23 2.25  24 2.26  36 2.26  48 2.72
  48  0.851  0.645  0.292-   8 2.10  24 2.12  36 2.12  47 2.72
  49  0.815  0.293  0.011-  23 2.02  25 2.06   1 2.07
  50  0.829  0.314  0.191-   2 2.09  25 2.11  26 2.13  23 2.14  24 2.25   1 2.36
  51  0.302  0.809  0.108-   4 2.08  21 2.17   3 2.19  27 2.31
  52  0.358  0.787  0.278-  22 2.02  28 2.07  27 2.12   4 2.19  62 2.72
  53  0.484  0.314  0.127-  29 2.02  30 2.11   5 2.25  15 2.25   6 2.26
  54  0.541  0.279  0.298-  16 1.99  30 2.05   6 2.12  68 2.55
  55  0.001  0.814  0.223-   8 2.06  14 2.06  32 2.07  31 2.36   7 2.36  56 2.77
  56  0.968  0.821  0.055-   7 2.07  31 2.09  13 2.10  55 2.77
  57  0.140  0.322  0.087-   9 2.09  33 2.10  19 2.11  58 2.77
  58  0.174  0.314  0.255-  34 2.05  20 2.11   9 2.36  33 2.36  10 2.64  57 2.77
  59  0.657  0.814  0.159-  18 2.14  36 2.26  12 2.26  35 2.27  11 2.28
  60  0.696  0.789  0.329-  36 2.01  12 2.03  70 2.75
  61  0.302  0.482  0.108-   4 2.08  33 2.17   3 2.19  15 2.31
  62  0.358  0.503  0.278-  34 2.02  16 2.07  15 2.12   4 2.19  52 2.72
  63  0.815  0.997  0.011-  35 2.02  13 2.06   1 2.07
  64  0.829  0.977  0.191-   2 2.09  13 2.11  14 2.13  35 2.14  36 2.25   1 2.36
  65  0.001  0.477  0.223-   8 2.06  26 2.06  20 2.07  19 2.36   7 2.36  66 2.77
  66  0.968  0.470  0.055-   7 2.07  19 2.09  25 2.10  65 2.77
  67  0.484  0.977  0.127-  17 2.02  18 2.11   5 2.25  27 2.25   6 2.26
  68  0.541  0.012  0.298-  28 1.99  18 2.05   6 2.12  54 2.55
  69  0.657  0.477  0.159-  30 2.14  24 2.26  12 2.26  23 2.27  11 2.28
  70  0.696  0.502  0.329-  24 2.01  12 2.03  60 2.75
  71  0.140  0.968  0.087-   9 2.09  21 2.10  31 2.11  72 2.77
  72  0.174  0.977  0.255-  22 2.05  32 2.11   9 2.36  21 2.36  10 2.64  71 2.77

  LATTYP: Found a simple orthorhombic cell.
 ALAT       =     9.5784100000
 B/A-ratio  =     1.6880763216
 C/A-ratio  =     1.7627867312

  Lattice vectors:

 A1 = (   0.0000000000,   9.5784100000,   0.0000000000)
 A2 = (   0.0000000000,   0.0000000000, -16.1690871197)
 A3 = ( -16.8846940542,   0.0000000000,   0.0000000000)

Analysis of symmetry for initial positions (statically):
 Subroutine PRICEL returns:
 Original cell was already a primitive cell.

 Routine SETGRP: Setting up the symmetry group for a
 simple orthorhombic supercell.

 Subroutine GETGRP returns: Found  2 space group operations
 (whereof  1 operations were pure point group operations)
 out of a pool of  8 trial point group operations.

The static configuration has the point symmetry C_1 .
 The point group associated with its full space group is C_1h.

Analysis of symmetry for dynamics (positions and initial velocities):
 Subroutine PRICEL returns:
 Original cell was already a primitive cell.

 Routine SETGRP: Setting up the symmetry group for a
 simple orthorhombic supercell.

 Subroutine GETGRP returns: Found  2 space group operations
 (whereof  1 operations were pure point group operations)
 out of a pool of  8 trial point group operations.

The dynamic configuration has the point symmetry C_1 .
 The point group associated with its full space group is C_1h.

 Subroutine INISYM returns: Found  2 space group operations
 (whereof  1 operations are pure point group operations),
 and found     1 'primitive' translations

 KPOINTS: gamma-point-only calculation. no periodi

Automatic generation of k-mesh.
Space group operators:
 irot       det(A)        alpha          n_x          n_y          n_z        tau_x        tau_y        tau_z
    1     1.000000     0.000000     1.000000     0.000000     0.000000     0.000000     0.000000     0.000000
    2    -1.000000   180.000000     0.000000     1.000000     0.000000    -0.000000     0.290594     0.000000

 Subroutine IBZKPT returns following result:

 Found      1 irreducible k-points:

 Following reciprocal coordinates:
            Coordinates               Weight
  0.000000  0.000000  0.000000      1.000000

 Following cartesian coordinates:
            Coordinates               Weight
  0.000000  0.000000  0.000000      1.000000

 SYSTEM =  "Millerite NiS"
 POSCAR =  Type_036 Type_136

 Startparameter for this run:
   NWRITE =      2    write-flag & timer
   PREC   = normal    normal or accurate (medium, high low for compatibility)
   ISTART =      0    job   : 0-new  1-cont  2-samecut
   ICHARG =      2    charge: 1-file 2-atom 10-const
   ISPIN  =      1    spin polarized calculation?
   LNONCOLLINEAR =      F non collinear calculations
   LSORBIT =      F    spin-orbit coupling
   INIWAV =      1    electr: 0-lowe 1-rand  2-diag
   LASPH  =      F    aspherical Exc in radial PAW
   METAGGA=      F    non-selfconsistent MetaGGA calc.

 Electronic Relaxation 1
   ENCUT  =  450.0 eV  33.07 Ry    5.75 a.u.  29.20 16.57 27.97*2*pi/ulx,y,z
   ENINI  =  450.0     initial cutoff
   ENAUG  =  703.4 eV  augmentation charge cutoff
   NELM   =    100;   NELMIN=  2; NELMDL= -5     # of ELM steps
   EDIFF  = 0.1E-03   stopping-criterion for ELM
   LREAL  =      T    real-space projection
   NLSPLINE    = F    spline interpolate recip. space projectors
   LCOMPAT=      F    compatible to vasp.4.4
   GGA_COMPAT  = T    GGA compatible to vasp.4.4-vasp.4.6
   LMAXPAW     = -100 max onsite density
   LMAXMIX     =    2 max onsite mixed and CHGCAR
   VOSKOWN=      0    Vosko Wilk Nusair interpolation
   ROPT   =   -0.00050  -0.00050
 Ionic relaxation
   EDIFFG = 0.1E-02   stopping-criterion for IOM
   NSW    =      0    number of steps for IOM
   NBLOCK =      1;   KBLOCK =      1    inner block; outer block
   IBRION =     -1    ionic relax: 0-MD 1-quasi-New 2-CG
   NFREE  =      0    steps in history (QN), initial steepest desc. (CG)
   ISIF   =      2    stress and relaxation
   IWAVPR =     10    prediction:  0-non 1-charg 2-wave 3-comb
   ISYM   =      2    0-nonsym 1-usesym 2-fastsym
   LCORR  =      T    Harris-Foulkes like correction to forces

   POTIM  = 0.5000    time-step for ionic-motion
   TEIN   =    0.0    initial temperature
   TEBEG  =    0.0;   TEEND  =   0.0 temperature during run
   SMASS  =  -3.00    Nose mass-parameter (am)
   estimated Nose-frequenzy (Omega)   =  0.10E-29 period in steps =****** mass=  -0.652E-26a.u.
   SCALEE = 1.0000    scale energy and forces
   NPACO  =    256;   APACO  = 16.0  distance and # of slots for P.C.
   PSTRESS=    0.0 pullay stress

  Mass of Ions in am
   POMASS =  58.69 32.07
  Ionic Valenz
   ZVAL   =  16.00  6.00
  Atomic Wigner-Seitz radii
  virtual crystal weights
   VCA    =   1.00  1.00
   NELECT =     792.0000    total number of electrons
   NUPDOWN=      -1.0000    fix difference up-down

 DOS related values:
   EMIN   =  10.00;   EMAX   =-10.00  energy-range for DOS
   EFERMI =   0.00
   ISMEAR =     0;   SIGMA  =   0.20  broadening in eV -4-tet -1-fermi 0-gaus

 Electronic relaxation 2 (details)
   IALGO  =     38    algorithm
   LDIAG  =      T    sub-space diagonalisation (order eigenvalues)
   LSUBROT=      F    optimize rotation matrix (better conditioning)
   TURBO    =      0    0=normal 1=particle mesh
   IRESTART =      0    0=no restart 2=restart with 2 vectors
   NREBOOT  =      0    no. of reboots
   NMIN     =      0    reboot dimension
   EREF     =   0.00    reference energy to select bands
   IMIX   =      4    mixing-type and parameters
     AMIX     =   0.40;   BMIX     =  1.00
     AMIX_MAG =   1.60;   BMIX_MAG =  1.00
     AMIN     =   0.10
     WC   =   100.;   INIMIX=   1;  MIXPRE=   1;  MAXMIX= -45

 Intra band minimization:
   WEIMIN = 0.0000     energy-eigenvalue tresh-hold
[...]
  Fock        0.00000     0.00000     0.00000     0.00000     0.00000     0.00000
  Total     111.70302   116.92683   148.13776     0.00000     0.00000    -2.63963
  in kB      68.43896    71.63952    90.76203     0.00000     0.00000    -1.61727

 VOLUME and BASIS-vectors are now :
  energy-cutoff  :      450.00
  volume of cell :     2615.00
      direct lattice vectors                 reciprocal lattice vectors
    16.884694054  0.000000000  0.000000000     0.059225237  0.000000000  0.000000000
     0.000000000  9.578410000  0.000000000     0.000000000  0.104401461  0.000000000
     0.000000000  0.000000000 16.169087120     0.000000000  0.000000000  0.061846411

  length of vectors
    16.884694054  9.578410000 16.169087120     0.059225237  0.104401461  0.061846411

 FORCES acting on ions
    electron-ion (+dipol)            ewald-force                    non-local-force                 convergence-correction
   0.742E+03 -.959E-03 0.184E+04   -.746E+03 -.139E-05 -.184E+04   0.391E+01 0.000E+00 0.540E+01   0.129E-01 -.639E-07 0.169E-02
   0.121E+04 -.781E-03 -.298E+04   -.121E+04 -.284E-06 0.298E+04   -.283E+01 0.000E+00 0.236E+00   0.872E-02 0.495E-08 -.684E-02
   -.494E+03 -.910E-03 0.317E+04   0.495E+03 0.299E-07 -.317E+04   0.158E+00 0.000E+00 0.841E+01   -.535E-02 -.118E-06 0.969E-02
   0.171E+03 -.816E-03 -.658E+03   -.172E+03 0.623E-07 0.662E+03   0.135E+01 0.000E+00 -.193E+01   -.118E-01 0.147E-07 -.883E-02
   0.116E+02 -.848E-03 0.254E+04   -.117E+02 0.219E-06 -.255E+04   0.121E+01 0.000E+00 0.628E+01   -.124E-01 -.140E-06 0.421E-03
   0.148E+03 -.964E-03 -.169E+04   -.150E+03 -.880E-06 0.170E+04   0.187E+01 0.000E+00 -.422E+01   -.480E-02 -.351E-06 0.632E-02
   0.607E+03 -.863E-03 0.145E+04   -.612E+03 0.190E-07 -.145E+04   0.459E+01 0.000E+00 0.439E+01   -.748E-04 -.257E-06 0.525E-02
   0.582E+03 -.781E-03 -.319E+04   -.586E+03 0.182E-07 0.319E+04   0.301E+01 0.000E+00 -.377E+01   -.153E-02 -.257E-06 -.607E-02
   0.139E+03 -.765E-03 0.863E+03   -.142E+03 0.347E-07 -.864E+03   0.230E+01 0.000E+00 0.283E+01   -.213E-02 0.431E-07 -.223E-02
   -.636E+03 -.731E-03 -.312E+04   0.636E+03 0.220E-07 0.312E+04   0.140E+01 0.000E+00 0.337E+00   -.648E-02 0.847E-07 -.759E-02
   -.309E+03 -.729E-03 0.193E+04   0.309E+03 0.380E-05 -.194E+04   0.933E+00 0.000E+00 0.648E+01   -.694E-03 0.957E-07 0.463E-02
   0.223E+03 -.771E-03 -.219E+04   -.227E+03 0.163E-05 0.219E+04   0.269E+01 0.000E+00 -.564E+01   0.743E-02 0.114E-06 0.577E-02
   -.471E+03 0.214E+03 0.259E+04   0.476E+03 -.217E+03 -.260E+04   -.440E+01 0.329E+01 0.632E+01   0.273E-02 -.511E-02 0.463E-02
   0.463E+02 0.660E+03 -.194E+04   -.437E+02 -.665E+03 0.194E+04   -.278E+01 0.406E+01 -.366E+01   0.388E-02 -.450E-02 -.539E-02
   -.188E+02 0.354E+03 0.902E+03   0.186E+02 -.358E+03 -.907E+03   0.139E+00 0.374E+01 0.416E+01   -.108E-01 0.197E-02 0.320E-02
   -.186E+03 0.146E+03 -.336E+04   0.189E+03 -.149E+03 0.336E+04   -.444E+01 0.393E+01 0.416E+00   -.103E-02 0.132E-02 0.453E-02
   0.521E+02 0.703E+03 0.366E+04   -.535E+02 -.698E+03 -.366E+04   0.130E+01 -.539E+01 -.344E+01   -.203E-02 -.596E-02 -.351E-02
   -.599E+03 0.231E+03 -.616E+03   0.603E+03 -.234E+03 0.619E+03   -.289E+01 0.325E+01 -.336E+01   0.336E-02 -.341E-02 0.988E-02
   -.125E+03 0.616E+03 0.215E+04   0.125E+03 -.622E+03 -.215E+04   0.199E+00 0.491E+01 0.439E+01   0.470E-02 0.189E-02 0.311E-02
   -.447E+03 0.433E+03 -.260E+04   0.450E+03 -.439E+03 0.260E+04   -.223E+01 0.471E+01 -.401E+01   -.553E-02 0.439E-02 -.681E-02
   -.691E+02 0.378E+03 0.154E+04   0.691E+02 -.383E+03 -.154E+04   0.167E+00 0.356E+01 0.394E+01   -.654E-02 -.214E-02 -.524E-02
   -.360E+02 0.195E+02 -.294E+04   0.364E+02 -.219E+02 0.295E+04   -.583E+00 0.295E+01 0.152E+00   -.302E-02 -.366E-02 -.618E-02
   0.512E+03 -.446E+03 0.251E+04   -.515E+03 0.449E+03 -.251E+04   0.173E+01 -.175E+01 0.762E+01   0.122E-01 0.386E-02 0.454E-02
   -.255E+02 0.384E+03 -.165E+04   0.278E+02 -.387E+03 0.166E+04   -.161E+01 0.254E+01 -.550E+01   0.131E-01 0.459E-02 -.201E-02
   -.471E+03 -.214E+03 0.259E+04   0.476E+03 0.217E+03 -.260E+04   -.440E+01 -.329E+01 0.632E+01   0.273E-02 0.511E-02 0.463E-02
   0.463E+02 -.660E+03 -.194E+04   -.437E+02 0.665E+03 0.194E+04   -.278E+01 -.406E+01 -.366E+01   0.388E-02 0.450E-02 -.539E-02
   -.188E+02 -.354E+03 0.902E+03   0.186E+02 0.358E+03 -.907E+03   0.139E+00 -.374E+01 0.416E+01   -.108E-01 -.197E-02 0.320E-02
   -.186E+03 -.146E+03 -.336E+04   0.189E+03 0.149E+03 0.336E+04   -.444E+01 -.393E+01 0.416E+00   -.103E-02 -.132E-02 0.453E-02
   0.521E+02 -.703E+03 0.366E+04   -.535E+02 0.698E+03 -.366E+04   0.130E+01 0.539E+01 -.344E+01   -.203E-02 0.596E-02 -.351E-02
   -.599E+03 -.231E+03 -.616E+03   0.603E+03 0.234E+03 0.619E+03   -.289E+01 -.325E+01 -.336E+01   0.336E-02 0.341E-02 0.988E-02
   -.125E+03 -.616E+03 0.215E+04   0.125E+03 0.622E+03 -.215E+04   0.199E+00 -.491E+01 0.439E+01   0.470E-02 -.189E-02 0.311E-02
   -.447E+03 -.433E+03 -.260E+04   0.450E+03 0.439E+03 0.260E+04   -.223E+01 -.471E+01 -.401E+01   -.553E-02 -.439E-02 -.681E-02
   -.691E+02 -.378E+03 0.154E+04   0.691E+02 0.383E+03 -.154E+04   0.167E+00 -.356E+01 0.394E+01   -.654E-02 0.214E-02 -.524E-02
   -.360E+02 -.195E+02 -.294E+04   0.364E+02 0.219E+02 0.295E+04   -.583E+00 -.295E+01 0.152E+00   -.302E-02 0.366E-02 -.618E-02
   0.512E+03 0.446E+03 0.251E+04   -.515E+03 -.449E+03 -.251E+04   0.173E+01 0.175E+01 0.762E+01   0.122E-01 -.386E-02 0.454E-02
   -.255E+02 -.384E+03 -.165E+04   0.278E+02 0.387E+03 0.166E+04   -.161E+01 -.254E+01 -.550E+01   0.131E-01 -.459E-02 -.201E-02
   0.981E+02 -.180E-04 -.176E+04   -.977E+02 -.467E-07 0.177E+04   -.452E+00 0.000E+00 -.266E+01   0.216E-02 0.360E-07 -.593E-02
   -.243E+03 -.142E-04 0.512E+03   0.244E+03 0.195E-07 -.516E+03   0.952E+00 0.000E+00 0.154E+01   -.116E-02 0.500E-07 0.187E-02
   0.158E+02 -.907E-05 0.149E+04   -.164E+02 0.977E-06 -.150E+04   0.913E+00 0.000E+00 0.153E+01   -.512E-02 0.134E-07 0.203E-02
   -.940E+02 -.473E-04 -.875E+03   0.955E+02 0.696E-06 0.880E+03   0.183E+00 0.000E+00 -.405E+01   -.235E-02 0.748E-07 0.328E-02
   -.278E+03 -.227E-04 0.740E+03   0.279E+03 -.236E-05 -.741E+03   0.961E+00 0.000E+00 0.184E+00   0.549E-02 -.426E-07 0.296E-02
   -.396E+01 -.953E-06 0.174E+04   0.387E+01 0.220E-08 -.175E+04   0.145E+00 0.000E+00 0.178E+01   0.341E-02 -.230E-07 0.480E-02
   -.193E+03 -.516E-05 -.196E+03   0.193E+03 -.616E-08 0.199E+03   0.472E+00 0.000E+00 -.298E+01   0.125E-02 -.330E-07 -.398E-02
   -.124E+03 -.152E-04 -.173E+04   0.125E+03 0.596E-08 0.173E+04   0.139E+00 0.000E+00 -.890E+00   -.173E-02 -.378E-07 -.450E-02
   0.355E+02 0.103E-05 0.162E+04   -.360E+02 0.120E-06 -.163E+04   0.719E+00 0.000E+00 0.176E+01   -.311E-02 0.389E-08 0.176E-02
   -.829E+02 0.249E-04 -.586E+03   0.837E+02 0.621E-07 0.592E+03   0.175E+00 0.000E+00 -.467E+01   -.150E-02 -.524E-07 -.238E-02
   0.285E+02 -.700E-04 0.729E+03   -.276E+02 0.275E-07 -.733E+03   -.590E+00 0.000E+00 0.223E+01   0.147E-02 -.436E-07 0.262E-02
   0.752E+01 -.213E-04 -.123E+04   -.573E+01 0.595E-07 0.123E+04   -.941E+00 0.000E+00 -.233E+01   0.186E-02 -.481E-07 -.291E-02
   0.829E+02 -.104E+03 0.169E+04   -.829E+02 0.105E+03 -.170E+04   -.513E+00 -.445E+00 0.247E+01   0.330E-02 0.176E-02 0.302E-02
   0.252E+03 -.108E+03 -.331E+03   -.252E+03 0.108E+03 0.334E+03   -.870E+00 0.260E+00 -.184E+01   0.392E-02 0.298E-02 -.466E-03
   -.114E+03 -.130E+03 0.986E+03   0.115E+03 0.131E+03 -.991E+03   -.635E+00 -.170E+00 0.321E+01   -.541E-02 -.360E-02 0.124E-02
   0.138E+03 0.788E+02 -.118E+04   -.139E+03 -.771E+02 0.118E+04   -.153E+00 -.127E+01 -.282E+01   -.916E-03 -.224E-02 -.211E-02
   0.151E+03 -.221E+03 0.629E+03   -.152E+03 0.223E+03 -.632E+03   -.119E+01 -.118E+01 0.249E+01   -.451E-02 0.173E-02 0.315E-02
   -.246E+03 0.941E+02 -.138E+04   0.249E+03 -.922E+02 0.139E+04   -.129E+01 -.199E+01 -.173E+01   -.942E-03 0.114E-02 0.137E-02
   0.993E+02 -.129E+03 -.403E+03   -.101E+03 0.131E+03 0.403E+03   0.867E+00 -.207E+01 -.554E+00   -.668E-03 0.380E-03 0.427E-04
   0.604E+02 -.594E+02 0.138E+04   -.618E+02 0.590E+02 -.138E+04   0.995E+00 0.961E+00 0.392E+01   0.366E-03 0.124E-02 0.234E-02
   0.452E+02 0.337E+02 0.116E+04   -.462E+02 -.348E+02 -.117E+04   0.266E+00 0.947E+00 0.406E+01   0.312E-03 0.198E-02 0.580E-03
   0.270E+02 0.310E+02 -.873E+03   -.269E+02 -.295E+02 0.876E+03   -.136E+01 -.244E+01 -.163E+01   -.290E-02 0.154E-02 -.285E-02
   0.523E+02 -.340E+02 0.360E+03   -.541E+02 0.358E+02 -.362E+03   0.149E+01 -.153E+01 0.967E+00   0.523E-02 0.264E-04 0.159E-02
   0.433E+02 -.280E+03 -.152E+04   -.442E+02 0.283E+03 0.153E+04   0.393E+00 -.231E+01 -.764E+00   0.226E-02 -.863E-03 -.108E-02
   -.114E+03 0.130E+03 0.986E+03   0.115E+03 -.131E+03 -.991E+03   -.635E+00 0.170E+00 0.321E+01   -.541E-02 0.360E-02 0.124E-02
   0.138E+03 -.788E+02 -.118E+04   -.139E+03 0.771E+02 0.118E+04   -.153E+00 0.127E+01 -.282E+01   -.916E-03 0.224E-02 -.211E-02
   0.829E+02 0.104E+03 0.169E+04   -.829E+02 -.105E+03 -.170E+04   -.513E+00 0.445E+00 0.247E+01   0.330E-02 -.176E-02 0.302E-02
   0.252E+03 0.108E+03 -.331E+03   -.252E+03 -.108E+03 0.334E+03   -.870E+00 -.260E+00 -.184E+01   0.392E-02 -.298E-02 -.466E-03
   0.993E+02 0.129E+03 -.403E+03   -.101E+03 -.131E+03 0.403E+03   0.867E+00 0.207E+01 -.554E+00   -.668E-03 -.380E-03 0.427E-04
   0.604E+02 0.594E+02 0.138E+04   -.618E+02 -.590E+02 -.138E+04   0.995E+00 -.961E+00 0.392E+01   0.366E-03 -.124E-02 0.234E-02
   0.151E+03 0.221E+03 0.629E+03   -.152E+03 -.223E+03 -.632E+03   -.119E+01 0.118E+01 0.249E+01   -.451E-02 -.173E-02 0.315E-02
   -.246E+03 -.941E+02 -.138E+04   0.249E+03 0.922E+02 0.139E+04   -.129E+01 0.199E+01 -.173E+01   -.942E-03 -.114E-02 0.137E-02
   0.523E+02 0.340E+02 0.360E+03   -.541E+02 -.358E+02 -.362E+03   0.149E+01 0.153E+01 0.967E+00   0.523E-02 -.263E-04 0.159E-02
   0.433E+02 0.280E+03 -.152E+04   -.442E+02 -.283E+03 0.153E+04   0.393E+00 0.231E+01 -.764E+00   0.226E-02 0.863E-03 -.108E-02
   0.452E+02 -.337E+02 0.116E+04   -.462E+02 0.348E+02 -.117E+04   0.266E+00 -.947E+00 0.406E+01   0.312E-03 -.198E-02 0.580E-03
   0.270E+02 -.310E+02 -.873E+03   -.269E+02 0.295E+02 0.876E+03   -.136E+01 0.244E+01 -.163E+01   -.290E-02 -.154E-02 -.285E-02
   0.116E+02 -.748E-02 -.399E+02   -.931E-12 0.796E-12 0.261E-11   -.115E+02 0.222E-14 0.399E+02   0.662E-02 -.257E-07 0.170E-01

 POSITION                                       TOTAL-FORCE (eV/Angst)
     13.17084      1.39171      1.57080        -0.309173      0.000000      1.449880
     14.03812      1.39171      4.41268        -0.843106      0.000000      0.569780
      3.66986      6.18092      1.18003         1.156335      0.000000     -0.358235
      5.02033      6.18092      3.11308         0.259234      0.000000      2.042873
      6.65673      1.39171      1.65749         1.033675      0.000000     -0.193111
      7.93172      1.39171      3.62717         0.477788      0.000000     -0.588708
     16.08224      6.18092      2.08489        -0.408132      0.000000      1.944043
     16.47333      6.18092      4.81530        -1.697020      0.000000      0.449214
      2.10894      1.39171      2.59898        -0.189178      0.000000      1.026431
      0.90857      1.39171      4.62162         1.505514      0.000000      0.193476
      9.51699      6.18092      2.21205         1.257617      0.000000     -0.571195
     10.84312      6.18092      4.14126        -0.769009      0.000000     -1.537329
     15.35104      0.03300      1.48989         1.021589      0.788799      0.184007
     15.93847      0.00463      3.93953        -0.173717     -1.256293     -0.132150
      7.17375      4.91558      2.70560        -0.069964     -0.738537     -0.846236
      8.00909      4.30814      4.84777        -0.584081      0.915014      0.874995
      9.52256      0.20182      0.61938        -0.054398     -0.337948     -1.205184
     10.05219      0.03975      2.98780         0.817937      0.332724     -0.066611
      1.35096      4.91558      1.67742         0.158055     -0.483003      1.763668
      1.90700      4.82485      4.41660         0.974683     -1.033206      0.275189
      4.26235      0.12638      2.19151         0.181685     -0.853727      1.053224
      4.95339      9.24443      4.46579        -0.177698      0.562308      1.035453
     13.05171      4.12997      1.53395        -0.716726      0.965146      0.188124
     12.99653      4.91558      3.73378         0.704222     -0.146002     -1.246099
     15.35104      2.75043      1.48989         1.021589     -0.788799      0.184007
     15.93847      2.77880      3.93953        -0.173717      1.256293     -0.132150
      7.17375      7.44626      2.70560        -0.069964      0.738537     -0.846236
      8.00909      8.05369      4.84777        -0.584081     -0.915014      0.874995
      9.52256      2.58161      0.61938        -0.054398      0.337948     -1.205184
     10.05219      2.74367      2.98780         0.817937     -0.332724     -0.066611
      1.35096      7.44626      1.67742         0.158055      0.483003      1.763668
      1.90700      7.53699      4.41660         0.974683      1.033206      0.275189
      4.26235      2.65705      2.19151         0.181685      0.853727      1.053224
      4.95339      3.11741      4.46579        -0.177698     -0.562308      1.035453
     13.05171      8.23187      1.53395        -0.716726     -0.965146      0.188124
     12.99653      7.44626      3.73378         0.704222      0.146002     -1.246099
     15.89074      1.39171      5.47863        -0.022646      0.000000      4.226191
     16.74052      1.39171      2.57045         2.167615      0.000000     -1.780491
      7.77136      6.18092      1.18676         0.340729      0.000000     -4.095903
      8.59001      6.18092      4.11272         1.625112      0.000000      1.427338
     10.91773      1.39171      1.54227         2.101341      0.000000     -0.730927
      1.92203      6.18092      0.15967         0.058463      0.000000     -4.008355
      2.76722      6.18092      3.08454         0.672452      0.000000     -0.063709
      1.35810      6.18092      5.85008         0.601258      0.000000      4.291045
      4.87631      1.39171      0.68619         0.286506      0.000000     -3.987728
      5.67861      1.39171      3.59863         0.956736      0.000000      1.091163
     13.82913      6.18092      2.05636         0.400724      0.000000     -1.768606
     14.37520      6.18092      4.72000         0.853694      0.000000      2.613142
     13.76413      2.81099      0.18202        -0.444094      0.778715     -3.940248
     13.99844      3.00295      3.08932        -1.603835      0.817750      1.647610
      5.09538      7.74760      1.74345         0.459031      1.312285     -2.202046
      6.03907      7.54233      4.49519        -1.353796      0.375655      2.257173
      8.17565      3.00295      2.06114        -2.368028      0.923783     -0.984487
      9.13778      2.66796      4.82373         1.213694     -0.173902      2.960712
      0.02514      7.79215      3.60341        -0.548455      0.501210     -0.828402
     16.33969      7.85914      0.89271        -0.360276      0.600512     -2.807441
      2.36856      3.08708      1.40390        -0.763864     -0.076850     -2.836526
      2.93654      3.00295      4.11750        -1.220103     -0.940935      1.296199
     11.08705      7.79215      2.57523        -0.338446      0.224919     -1.080894
     11.75785      7.55456      5.31925        -0.511678      1.153463      3.819832
      5.09538      4.61424      1.74345         0.459031     -1.312285     -2.202046
      6.03907      4.81951      4.49519        -1.353796     -0.375655      2.257173
     13.76413      9.55085      0.18202        -0.444094     -0.778715     -3.940248
     13.99844      9.35889      3.08932        -1.603835     -0.817750      1.647610
      0.02514      4.56969      3.60341        -0.548455     -0.501210     -0.828402
     16.33969      4.50270      0.89271        -0.360276     -0.600512     -2.807441
      8.17565      9.35889      2.06114        -2.368028     -0.923783     -0.984487
      9.13778      0.11547      4.82373         1.213694      0.173902      2.960712
     11.08705      4.56969      2.57523        -0.338446     -0.224919     -1.080894
     11.75785      4.80727      5.31925        -0.511678     -1.153463      3.819832
      2.36856      9.27475      1.40390        -0.763864      0.076850     -2.836526
      2.93654      9.35889      4.11750        -1.220103      0.940935      1.296199
    total drift:                                0.031816     -0.007485      0.010571

  FREE ENERGIE OF THE ION-ELECTRON SYSTEM (eV)
  free  energy   TOTEN  =      -342.97628897 eV

  energy  without entropy=     -341.96000156  energy(sigma->0) =     -342.46814527