 vasp.5.4.4.18Apr17-6-g9f103f2a35 (build Aug 13 2019 17:33:20) gamma-only

 executed on             LinuxIFC date 2020.05.11  18:40:51

 INCAR:
 POTCAR:    PAW_PBE Ni_pv 06Sep2000
 POTCAR:    PAW_PBE S 06Sep2000
 POTCAR:    PAW_PBE Ni_pv 06Sep2000
   VRHFIN =Ni:

   TITEL  = PAW_PBE Ni_pv 06Sep2000
   POMASS =   58.690; ZVAL   =   16.000    mass and valenz
   ENMAX  =  367.986; ENMIN  =  275.989 eV

 POTCAR:    PAW_PBE S 06Sep2000
   VRHFIN =S : s2p4

   TITEL  = PAW_PBE S 06Sep2000
   POMASS =   32.066; ZVAL   =    6.000    mass and valenz
   ENMAX  =  258.689; ENMIN  =  194.016 eV

 Optimization of the real space projectors (new method)

 maximal supplied QI-value         = 18.90
 optimisation between [QCUT,QGAM] = [ 10.77, 21.73] = [ 32.49,132.25] Ry
 Optimized for a Real-space Cutoff    1.38 Angstroem

   l    n(q)    QCUT    max X(q) W(low)/X(q) W(high)/X(q)  e(spline)
   1      8    10.771     2.836    0.40E-04    0.29E-04    0.12E-06
   1      8    10.771     4.023    0.10E-03    0.48E-04    0.29E-06
   2      8    10.771    73.368    0.42E-03    0.97E-04    0.44E-06
   2      8    10.771    69.010    0.42E-03    0.99E-04    0.45E-06
   0      9    10.771    54.797    0.10E-03    0.56E-04    0.74E-07
   0      9    10.771    24.266    0.89E-04    0.49E-04    0.67E-07
 Optimization of the real space projectors (new method)

 maximal supplied QI-value         = 19.84
 optimisation between [QCUT,QGAM] = [ 10.71, 21.63] = [ 32.15,130.99] Ry
 Optimized for a Real-space Cutoff    1.19 Angstroem

   l    n(q)    QCUT    max X(q) W(low)/X(q) W(high)/X(q)  e(spline)
   0      8    10.715   187.594    0.41E-03    0.53E-04    0.66E-07
   0      8    10.715   164.243    0.41E-03    0.53E-04    0.65E-07
   1      7    10.715    67.533    0.19E-03    0.59E-03    0.68E-07
   1      7    10.715    50.729    0.19E-03    0.58E-03    0.67E-07
  PAW_PBE Ni_pv 06Sep2000               :
  PAW_PBE S 06Sep2000                   :

 POSCAR: Type_036 Type_136
  positions in cartesian coordinates
 exchange correlation table for  LEXCH =        8
   RHO(1)=    0.500       N(1)  =     2000
   RHO(2)=  100.500       N(2)  =     4000

 ion  position               nearest neighbor table
   1  0.780  0.145  0.121-  63 2.08  49 2.11  50 2.16  41 2.25   2 2.30  64 2.36  13 2.41  35 2.53

   2  0.733  0.099  0.251-  42 2.00  64 2.08  50 2.29   1 2.30  19 2.48  41 2.62
   3  0.214  0.620  0.095-  43 2.03  44 2.11  61 2.18  51 2.21   4 2.42  15 2.43  20 2.53
   4  0.297  0.645  0.216-  52 2.13  62 2.13  51 2.16  44 2.25  61 2.26   3 2.42  27 2.53  16 2.53

[...]

  20  0.080  0.513  0.127-  43 2.08  57 2.10  66 2.12  65 2.23  44 2.36  21 2.45   3 2.53   7 2.53
                            31 2.53
  21  0.100  0.493  0.277-  44 2.08  65 2.08  58 2.12  20 2.45
  22  0.252  0.013  0.159-  45 2.05  51 2.14  71 2.26  46 2.36  72 2.36   9 2.53  33 2.53
  23  0.286  1.000  0.322-  72 2.04  46 2.04  52 2.09
  24  0.760  0.427  0.116-  49 2.03  69 2.11  50 2.14  47 2.38  25 2.39  26 2.47
  25  0.770  0.513  0.254-  70 2.02  48 2.10  50 2.20  69 2.26  47 2.26  24 2.39  12 2.53  36 2.53

[...]

  37  0.035  0.117  0.272-  10 2.06   9 2.09  14 2.11  72 2.70
  38  0.950  0.165  0.126-  13 2.07  14 2.12  26 2.13  49 2.79
  39  0.469  0.649  0.094-  11 2.00  15 2.00  27 2.13  16 2.17
  40  0.509  0.645  0.278-  28 2.04  17 2.05  11 2.18  12 2.25  27 2.36  16 2.36
  41  0.647  0.145  0.119-  18 2.04  29 2.15   1 2.25  30 2.26  19 2.26   2 2.62
  42  0.637  0.146  0.317-   2 2.00  30 2.09  19 2.10  54 2.71  68 2.71
  43  0.112  0.646  0.031-   3 2.03  31 2.07  20 2.08
  44  0.164  0.645  0.214-  32 2.04  21 2.08   3 2.11   4 2.25  31 2.36  20 2.36
  45  0.284  0.145  0.064-   5 2.03  22 2.05  33 2.06
  46  0.336  0.145  0.246-  23 2.04  34 2.04   5 2.11   6 2.25  33 2.36  22 2.36
  47  0.819  0.645  0.151-   7 2.25  36 2.26  25 2.26  24 2.38  35 2.56  48 2.70
  48  0.852  0.645  0.314-   8 2.06  25 2.10  36 2.11  47 2.70
  49  0.827  0.302  0.043-  24 2.03  26 2.09   1 2.11  38 2.79
  50  0.799  0.299  0.216-  24 2.14   1 2.16  25 2.20  26 2.21   2 2.29
  51  0.286  0.807  0.123-  15 2.04  22 2.14   4 2.16   3 2.21  27 2.60
  52  0.341  0.812  0.290-  28 2.03  23 2.09   4 2.13  27 2.17
  53  0.484  0.314  0.151-  18 2.05  16 2.25  30 2.26   6 2.26   5 2.42  29 2.44  54 2.72
  54  0.509  0.317  0.317-  17 2.03   6 2.10  30 2.17  42 2.71  53 2.72
  55  0.001  0.814  0.246-  32 2.01   8 2.06  14 2.12   7 2.36  31 2.36  56 2.77
  56  0.970  0.830  0.079-  13 2.06  31 2.08   7 2.16  14 2.23  55 2.77
  57  0.141  0.325  0.110-  33 2.09  20 2.10   9 2.12  58 2.78
  58  0.174  0.314  0.278-  10 2.02  34 2.03  21 2.12   9 2.36  33 2.36  57 2.78
  59  0.657  0.814  0.183-  35 2.07  19 2.25  36 2.26  12 2.26  11 2.28  60 2.78
  60  0.694  0.796  0.350-  36 2.02  12 2.04  70 2.78  59 2.78
  61  0.312  0.477  0.119-  15 2.05   3 2.18  33 2.25   4 2.26  16 2.26
  62  0.340  0.479  0.292-  17 2.03  34 2.09   4 2.13  16 2.19
  63  0.789  0.002  0.024-  35 2.03  13 2.04   1 2.08
  64  0.829  0.977  0.214-   2 2.08  35 2.11  13 2.14  36 2.25   1 2.36
  65  0.990  0.462  0.223-   8 2.07  21 2.08   7 2.18  26 2.20  20 2.23  66 2.62
  66  0.971  0.493  0.063-   7 2.07  26 2.09  20 2.12  65 2.62
  67  0.484  0.977  0.151-  18 2.03   5 2.23  27 2.25  19 2.26   6 2.26  68 2.71
  68  0.510  0.974  0.316-  28 2.03   6 2.10  19 2.15  42 2.71  67 2.71
  69  0.657  0.477  0.183-  29 2.08  24 2.11  11 2.15  30 2.25  25 2.26  12 2.26
  70  0.698  0.506  0.354-  25 2.02  12 2.02  60 2.78
  71  0.130  0.976  0.106-   9 2.06  31 2.10  14 2.19  22 2.26
  72  0.174  0.977  0.278-  10 2.02  23 2.04  32 2.10   9 2.36  22 2.36  37 2.70

  LATTYP: Found a simple orthorhombic cell.
 ALAT       =     9.5784100000
 B/A-ratio  =     1.6880763216
 C/A-ratio  =     1.7627867312

  Lattice vectors:

 A1 = (   0.0000000000,   9.5784100000,   0.0000000000)
 A2 = (   0.0000000000,   0.0000000000, -16.1690871197)
 A3 = ( -16.8846940542,   0.0000000000,   0.0000000000)

Analysis of symmetry for initial positions (statically):
 Subroutine PRICEL returns:
 Original cell was already a primitive cell.

 Routine SETGRP: Setting up the symmetry group for a
 simple orthorhombic supercell.

 Subroutine GETGRP returns: Found  1 space group operations
 (whereof  1 operations were pure point group operations)
 out of a pool of  8 trial point group operations.

The static configuration has the point symmetry C_1 .

Analysis of symmetry for dynamics (positions and initial velocities):
 Subroutine PRICEL returns:
 Original cell was already a primitive cell.

 Routine SETGRP: Setting up the symmetry group for a
 simple orthorhombic supercell.

 Subroutine GETGRP returns: Found  1 space group operations
 (whereof  1 operations were pure point group operations)
 out of a pool of  8 trial point group operations.

The dynamic configuration has the point symmetry C_1 .

 Subroutine INISYM returns: Found  1 space group operations
 (whereof  1 operations are pure point group operations),
 and found     1 'primitive' translations

 KPOINTS: gamma-point-only calculation. no periodi

Automatic generation of k-mesh.
Space group operators:
 irot       det(A)        alpha          n_x          n_y          n_z        tau_x        tau_y        tau_z
    1     1.000000     0.000000     1.000000     0.000000     0.000000     0.000000     0.000000     0.000000

 Subroutine IBZKPT returns following result:

 Found      1 irreducible k-points:

 Following reciprocal coordinates:
            Coordinates               Weight
  0.000000  0.000000  0.000000      1.000000

 Following cartesian coordinates:
            Coordinates               Weight
  0.000000  0.000000  0.000000      1.000000

 SYSTEM =  "Millerite NiS"
 POSCAR =  Type_036 Type_136

 Startparameter for this run:
   NWRITE =      2    write-flag & timer
   PREC   = normal    normal or accurate (medium, high low for compatibility)
   ISTART =      0    job   : 0-new  1-cont  2-samecut
   ICHARG =      2    charge: 1-file 2-atom 10-const
   ISPIN  =      1    spin polarized calculation?
   LNONCOLLINEAR =      F non collinear calculations
   LSORBIT =      F    spin-orbit coupling
   INIWAV =      1    electr: 0-lowe 1-rand  2-diag
   LASPH  =      F    aspherical Exc in radial PAW
   METAGGA=      F    non-selfconsistent MetaGGA calc.

 Electronic Relaxation 1
   ENCUT  =  450.0 eV  33.07 Ry    5.75 a.u.  29.20 16.57 27.97*2*pi/ulx,y,z
   ENINI  =  450.0     initial cutoff
   ENAUG  =  703.4 eV  augmentation charge cutoff
   NELM   =    100;   NELMIN=  2; NELMDL= -5     # of ELM steps
   EDIFF  = 0.1E-03   stopping-criterion for ELM
   LREAL  =      T    real-space projection
   NLSPLINE    = F    spline interpolate recip. space projectors
   LCOMPAT=      F    compatible to vasp.4.4
   GGA_COMPAT  = T    GGA compatible to vasp.4.4-vasp.4.6
   LMAXPAW     = -100 max onsite density
   LMAXMIX     =    2 max onsite mixed and CHGCAR
   VOSKOWN=      0    Vosko Wilk Nusair interpolation
   ROPT   =   -0.00050  -0.00050
 Ionic relaxation
   EDIFFG = 0.1E-02   stopping-criterion for IOM
   NSW    =      0    number of steps for IOM
   NBLOCK =      1;   KBLOCK =      1    inner block; outer block
   IBRION =     -1    ionic relax: 0-MD 1-quasi-New 2-CG
   NFREE  =      0    steps in history (QN), initial steepest desc. (CG)
   ISIF   =      2    stress and relaxation
   IWAVPR =     10    prediction:  0-non 1-charg 2-wave 3-comb
   ISYM   =      2    0-nonsym 1-usesym 2-fastsym
   LCORR  =      T    Harris-Foulkes like correction to forces

   POTIM  = 0.5000    time-step for ionic-motion
   TEIN   =    0.0    initial temperature
   TEBEG  =    0.0;   TEEND  =   0.0 temperature during run
   SMASS  =  -3.00    Nose mass-parameter (am)
   estimated Nose-frequenzy (Omega)   =  0.10E-29 period in steps =****** mass=  -0.652E-26a.u.
   SCALEE = 1.0000    scale energy and forces
   NPACO  =    256;   APACO  = 16.0  distance and # of slots for P.C.
   PSTRESS=    0.0 pullay stress

  Mass of Ions in am
   POMASS =  58.69 32.07
  Ionic Valenz
   ZVAL   =  16.00  6.00
  Atomic Wigner-Seitz radii
  virtual crystal weights
   VCA    =   1.00  1.00
   NELECT =     792.0000    total number of electrons
   NUPDOWN=      -1.0000    fix difference up-down

 DOS related values:
   EMIN   =  10.00;   EMAX   =-10.00  energy-range for DOS
   EFERMI =   0.00
   ISMEAR =     0;   SIGMA  =   0.20  broadening in eV -4-tet -1-fermi 0-gaus

 Electronic relaxation 2 (details)
   IALGO  =     38    algorithm
   LDIAG  =      T    sub-space diagonalisation (order eigenvalues)
   LSUBROT=      F    optimize rotation matrix (better conditioning)
   TURBO    =      0    0=normal 1=particle mesh
   IRESTART =      0    0=no restart 2=restart with 2 vectors
   NREBOOT  =      0    no. of reboots
   NMIN     =      0    reboot dimension
   EREF     =   0.00    reference energy to select bands
   IMIX   =      4    mixing-type and parameters
     AMIX     =   0.40;   BMIX     =  1.00
     AMIX_MAG =   1.60;   BMIX_MAG =  1.00
     AMIN     =   0.10
     WC   =   100.;   INIMIX=   1;  MIXPRE=   1;  MAXMIX= -45

 Intra band minimization:
   WEIMIN = 0.0000     energy-eigenvalue tresh-hold
[...]
  Fock        0.00000     0.00000     0.00000     0.00000     0.00000     0.00000
  Total     138.21148   123.57201   136.05967    -7.01204     2.58475     3.73359
  in kB      84.68034    75.71093    83.36195    -4.29618     1.58364     2.28752

 VOLUME and BASIS-vectors are now :
  energy-cutoff  :      450.00
  volume of cell :     2615.00
      direct lattice vectors                 reciprocal lattice vectors
    16.884694054  0.000000000  0.000000000     0.059225237  0.000000000  0.000000000
     0.000000000  9.578410000  0.000000000     0.000000000  0.104401461  0.000000000
     0.000000000  0.000000000 16.169087120     0.000000000  0.000000000  0.061846411

  length of vectors
    16.884694054  9.578410000 16.169087120     0.059225237  0.104401461  0.061846411

 FORCES acting on ions
    electron-ion (+dipol)            ewald-force                    non-local-force                 convergence-correction
   -.143E+03 -.176E+03 0.188E+04   0.140E+03 0.178E+03 -.189E+04   0.213E+01 -.120E+01 0.417E+01   -.362E-02 -.339E-02 0.771E-02
   -.722E+03 -.670E+02 -.238E+04   0.723E+03 0.679E+02 0.239E+04   -.358E+00 -.592E+00 -.413E+01   -.109E-01 0.160E-02 -.774E-02
   0.101E+03 0.149E+03 0.293E+04   -.101E+03 -.150E+03 -.294E+04   0.117E+01 0.637E+00 0.851E+01   -.213E-01 -.436E-02 0.354E-02
   0.501E+03 0.296E+01 -.109E+04   -.502E+03 -.316E+01 0.109E+04   0.680E+00 -.789E-01 -.632E+01   0.135E-01 -.186E-02 0.148E-01
   0.510E+02 0.623E+02 0.249E+04   -.513E+02 -.633E+02 -.250E+04   0.919E+00 0.102E+01 0.880E+01   0.257E-02 0.188E-02 0.755E-02
   0.202E+03 0.345E+02 -.179E+04   -.206E+03 -.345E+02 0.179E+04   0.332E+01 0.475E-01 -.786E+01   0.134E-01 0.491E-02 0.221E-02
   0.737E+03 -.964E+02 0.118E+04   -.740E+03 0.997E+02 -.119E+04   0.326E+01 -.228E+01 0.297E+01   0.684E-03 0.312E-03 -.194E-01
   0.466E+03 0.960E+02 -.334E+04   -.467E+03 -.986E+02 0.334E+04   0.763E+00 0.280E+01 -.516E+00   -.112E-01 0.591E-04 -.151E-01
   0.689E+03 -.347E+03 0.649E+03   -.690E+03 0.351E+03 -.653E+03   0.241E+01 -.380E+01 0.567E+01   -.233E-02 -.320E-02 -.704E-02
   0.836E+03 -.104E+03 -.376E+04   -.835E+03 0.105E+03 0.376E+04   -.408E+00 -.412E+00 -.118E+00   -.117E-02 -.128E-02 -.113E-01
   -.354E+03 -.281E+03 0.181E+04   0.358E+03 0.282E+03 -.181E+04   -.234E+01 -.825E+00 0.463E+01   -.593E-03 -.553E-02 0.128E-01
   0.141E+02 -.559E+02 -.235E+04   -.171E+02 0.562E+02 0.235E+04   0.204E+01 -.513E-01 -.716E+01   -.149E-01 -.389E-02 -.623E-02
   -.372E+03 0.666E+02 0.244E+04   0.373E+03 -.671E+02 -.245E+04   -.849E+00 0.565E+00 0.454E+01   -.382E-02 0.397E-02 0.340E-02
   0.493E+03 -.485E+03 0.413E+03   -.493E+03 0.487E+03 -.413E+03   0.289E+00 -.168E+01 -.197E+00   -.604E-03 0.334E-02 -.111E-01
   -.326E+03 -.134E+03 0.395E+04   0.326E+03 0.136E+03 -.396E+04   -.297E+00 -.671E+00 0.419E+01   0.152E-02 -.227E-02 0.124E-01
   -.219E+03 0.553E+03 0.527E+03   0.219E+03 -.555E+03 -.528E+03   0.144E+00 0.247E+01 0.843E+00   0.153E-01 -.375E-02 0.216E-01
   -.149E+03 0.208E+03 -.373E+04   0.148E+03 -.209E+03 0.372E+04   0.235E+01 0.129E+01 0.147E+01   0.999E-02 0.598E-03 -.129E-01
   0.259E+02 0.413E+03 0.356E+04   -.272E+02 -.414E+03 -.357E+04   0.109E+01 0.237E+00 0.618E+01   0.704E-02 0.609E-02 0.141E-01
   -.280E+03 0.697E+03 -.688E+03   0.283E+03 -.704E+03 0.689E+03   -.314E+01 0.551E+01 -.178E+01   0.466E-02 0.736E-02 0.515E-02
   0.187E+03 0.771E+03 0.197E+04   -.187E+03 -.776E+03 -.197E+04   -.445E+00 0.491E+01 0.240E+01   -.701E-02 0.177E-02 -.139E-01
   0.145E+03 0.429E+03 -.269E+04   -.143E+03 -.429E+03 0.269E+04   -.151E+01 -.441E-01 -.157E+01   0.480E-02 -.102E-01 -.189E-01
   0.746E+02 0.423E+03 0.142E+04   -.762E+02 -.425E+03 -.142E+04   0.861E+00 0.111E+01 0.413E+01   -.293E-02 0.506E-02 -.255E-02
   -.512E+02 0.295E+03 -.331E+04   0.509E+02 -.298E+03 0.331E+04   0.390E+00 0.238E+01 0.877E+00   0.814E-02 -.325E-02 -.898E-02
   -.251E+02 -.488E+03 0.245E+04   0.243E+02 0.490E+03 -.246E+04   0.206E+00 -.221E+00 0.748E+01   -.448E-02 -.735E-02 0.103E-02
   -.567E+03 0.428E+03 -.193E+04   0.570E+03 -.430E+03 0.193E+04   -.251E+01 0.231E+01 -.603E+01   -.122E-01 -.489E-02 -.540E-02
   -.407E+03 0.269E+03 0.101E+04   0.409E+03 -.270E+03 -.101E+04   -.176E+01 0.372E+00 0.153E+01   0.115E-03 -.358E-02 -.685E-02
   -.316E+03 -.629E+03 0.581E+03   0.316E+03 0.632E+03 -.582E+03   0.331E+00 -.292E+01 0.235E+00   0.122E-01 -.961E-04 0.206E-01
   -.174E+03 -.222E+03 -.369E+04   0.171E+03 0.223E+03 0.369E+04   0.274E+01 -.136E+01 0.129E+01   0.614E-02 -.549E-02 -.129E-01
   -.312E+02 -.522E+03 0.346E+04   0.329E+02 0.520E+03 -.346E+04   -.202E+01 0.260E+01 -.528E+00   -.169E-04 0.830E-03 0.121E-01
   -.422E+03 -.411E+03 -.121E+04   0.425E+03 0.416E+03 0.121E+04   -.355E+01 -.393E+01 -.327E+01   -.169E-02 -.685E-03 0.355E-02
   -.476E+02 -.346E+03 0.200E+04   0.511E+02 0.347E+03 -.200E+04   -.261E+01 -.994E+00 0.422E+01   -.647E-02 -.992E-03 -.118E-01
   0.732E+02 -.128E+03 -.302E+04   -.740E+02 0.129E+03 0.302E+04   0.137E+01 -.136E+01 0.415E+00   0.570E-02 0.949E-02 -.166E-01
   0.666E+02 -.433E+03 0.139E+04   -.677E+02 0.435E+03 -.140E+04   0.183E+01 -.211E+01 0.524E+01   -.141E-02 -.591E-02 -.598E-02
   -.107E+02 -.324E+03 -.331E+04   0.107E+02 0.326E+03 0.331E+04   0.225E+00 -.208E+01 0.486E+00   0.974E-02 0.182E-02 -.913E-02
   0.313E+03 0.600E+03 0.228E+04   -.315E+03 -.603E+03 -.228E+04   0.226E+01 0.131E+01 0.600E+01   0.472E-04 0.994E-02 0.444E-02
   -.579E+03 -.355E+03 -.183E+04   0.583E+03 0.357E+03 0.183E+04   -.241E+01 -.294E+01 -.498E+01   -.936E-02 0.777E-02 -.806E-02
   0.581E+03 -.139E+03 -.954E+03   -.587E+03 0.142E+03 0.957E+03   0.252E+01 -.868E+00 -.165E+01   0.167E-02 0.779E-03 -.613E-02
   -.153E+03 -.189E+03 0.578E+03   0.156E+03 0.190E+03 -.580E+03   -.198E+01 -.545E+00 0.125E+01   -.166E-02 -.106E-03 -.428E-03
   -.292E+03 -.562E+02 0.140E+04   0.293E+03 0.560E+02 -.141E+04   -.556E+00 0.853E-01 0.203E+01   0.129E-01 -.197E-02 0.127E-01
   -.242E+03 -.256E+02 -.797E+03   0.242E+03 0.254E+02 0.802E+03   0.113E+01 0.162E+00 -.410E+01   -.655E-03 -.302E-02 -.370E-02
   -.178E+03 0.212E+03 0.977E+03   0.179E+03 -.213E+03 -.981E+03   0.173E+00 0.185E+01 0.282E+01   0.250E-02 0.166E-02 0.640E-02
   -.175E+03 -.482E+02 -.156E+04   0.178E+03 0.492E+02 0.156E+04   -.173E+01 -.546E+00 -.226E+01   -.704E-03 0.448E-03 -.662E-02
   0.885E+02 -.136E+02 0.174E+04   -.887E+02 0.138E+02 -.174E+04   0.155E+00 -.105E+00 0.156E+01   -.451E-02 0.178E-03 0.344E-02
   -.941E+02 0.536E+01 -.369E+03   0.931E+02 -.507E+01 0.374E+03   0.156E+01 -.843E+00 -.240E+01   0.352E-02 -.485E-03 -.892E-02
   0.777E+02 -.131E+02 0.165E+04   -.783E+02 0.131E+02 -.165E+04   0.997E+00 0.966E-01 0.179E+01   -.179E-02 -.482E-03 0.193E-02
   -.122E+03 -.138E+02 -.498E+03   0.123E+03 0.143E+02 0.503E+03   0.537E+00 -.382E+00 -.424E+01   0.568E-02 -.161E-02 -.533E-02
   -.234E+02 -.660E+02 0.664E+03   0.242E+02 0.671E+02 -.668E+03   -.121E+01 -.101E+01 0.331E+01   0.168E-02 0.103E-02 -.228E-02
   -.120E+03 -.168E+02 -.130E+04   0.122E+03 0.170E+02 0.131E+04   -.949E+00 -.286E+00 -.370E+01   -.607E-02 0.993E-03 -.241E-02
   -.135E+03 -.298E+02 0.159E+04   0.136E+03 0.302E+02 -.159E+04   -.856E+00 0.303E+00 0.317E+01   0.733E-03 -.233E-02 0.392E-02
   -.265E+03 0.102E+03 -.690E+03   0.267E+03 -.103E+03 0.695E+03   -.187E+01 0.766E+00 -.252E+01   -.342E-02 -.563E-02 -.301E-02
   0.546E+02 -.312E+03 0.870E+03   -.564E+02 0.314E+03 -.872E+03   0.176E+01 -.110E+01 0.122E+01   -.447E-02 0.785E-02 0.789E-02
   0.214E+03 -.146E+02 -.993E+03   -.215E+03 0.153E+02 0.995E+03   0.315E+00 -.431E+00 -.471E+00   0.563E-02 -.370E-02 -.459E-02
   0.157E+03 -.249E+03 0.628E+03   -.160E+03 0.252E+03 -.630E+03   0.164E+01 -.186E+01 0.126E+00   0.334E-02 0.292E-02 0.647E-02
   -.141E+03 0.253E+02 -.131E+04   0.140E+03 -.249E+02 0.131E+04   0.524E+00 -.462E+00 -.314E+01   0.232E-02 0.136E-02 -.464E-02
   0.358E+03 -.269E+03 -.763E+03   -.362E+03 0.271E+03 0.767E+03   0.185E+01 -.150E+01 -.237E+01   -.397E-02 0.488E-02 -.116E-01
   0.150E+03 0.677E+01 0.133E+04   -.152E+03 -.769E+01 -.134E+04   0.608E+00 0.474E+00 0.485E+01   0.120E-02 -.136E-02 0.254E-02
   0.181E+03 0.722E+02 0.110E+04   -.182E+03 -.739E+02 -.111E+04   0.325E+00 0.121E+01 0.383E+01   -.245E-02 -.430E-03 0.116E-03
   0.214E+03 -.215E+03 -.790E+03   -.214E+03 0.218E+03 0.791E+03   -.534E-01 -.153E+01 -.805E+00   -.203E-02 -.500E-02 -.544E-02
   0.954E+02 -.113E+02 0.369E+03   -.976E+02 0.134E+02 -.372E+03   0.421E+00 -.195E+01 0.215E+01   -.294E-02 0.110E-02 0.143E-02
   -.819E+02 -.249E+03 -.156E+04   0.813E+02 0.252E+03 0.156E+04   -.210E-01 -.212E+01 -.984E+00   -.380E-02 0.131E-02 -.227E-02
   -.430E+01 0.353E+03 0.933E+03   0.468E+01 -.356E+03 -.936E+03   -.818E+00 0.196E+01 0.294E+01   -.515E-03 -.807E-02 0.816E-02
   0.233E+03 0.143E+02 -.101E+04   -.234E+03 -.145E+02 0.101E+04   0.461E+00 0.147E+00 -.102E+01   0.932E-02 0.535E-02 -.461E-02
   0.119E+03 0.858E+02 0.172E+04   -.119E+03 -.866E+02 -.172E+04   -.183E-01 0.190E-01 0.128E+01   0.990E-03 0.219E-02 0.514E-02
   -.382E+03 -.526E+02 -.664E+03   0.387E+03 0.532E+02 0.670E+03   -.389E+01 -.125E+01 -.390E+01   -.431E-02 0.408E-02 -.357E-02
   0.215E+03 0.461E+03 -.486E+03   -.215E+03 -.465E+03 0.489E+03   0.290E+00 0.250E+01 -.220E+01   -.345E-02 -.360E-02 -.121E-01
   0.890E+02 0.142E+03 0.147E+04   -.904E+02 -.143E+03 -.148E+04   0.126E+01 0.336E+00 0.380E+01   0.103E-02 0.124E-02 0.356E-02
   -.359E+02 0.339E+03 0.695E+03   0.351E+02 -.343E+03 -.698E+03   -.745E+00 0.221E+01 0.281E+01   0.180E-02 -.113E-02 0.640E-02
   -.145E+03 -.105E+02 -.128E+04   0.145E+03 0.101E+02 0.128E+04   0.925E+00 0.560E+00 -.259E+01   0.249E-02 0.151E-02 -.414E-02
   -.559E+02 -.889E+02 0.136E+03   0.542E+02 0.871E+02 -.136E+03   0.426E+00 0.156E+01 -.192E+00   -.655E-02 -.208E-02 0.406E-03
   -.103E+03 0.259E+03 -.158E+04   0.102E+03 -.262E+03 0.159E+04   0.451E+00 0.247E+01 -.613E+00   -.546E-02 -.133E-02 -.139E-02
   -.280E+02 -.744E+02 0.121E+04   0.288E+02 0.752E+02 -.122E+04   -.187E+00 -.596E+00 0.538E+01   -.142E-02 0.362E-03 0.106E-02
   0.159E+03 0.185E+03 -.795E+03   -.160E+03 -.189E+03 0.796E+03   0.970E+00 0.178E+01 -.213E+00   0.210E-03 0.586E-02 -.593E-02
   -.110E+02 -.120E+01 -.467E+02   -.540E-12 -.142E-11 -.409E-11   0.110E+02 0.112E+01 0.467E+02   -.366E-02 -.240E-02 -.925E-01

 POSITION                                       TOTAL-FORCE (eV/Angst)
     13.17084      1.39171      1.94975        -0.414807      0.553427     -0.440292
     12.37679      0.94919      4.05780         0.855547      0.285973      0.333398
      3.60767      5.93725      1.54137         0.794317      0.096867     -0.404584
      5.02033      6.18092      3.49202        -0.697049     -0.283329      0.436067
      6.54856      1.25939      2.05486         0.604991      0.056238     -0.107225
      7.93172      1.39171      4.00611        -0.693584      0.023275     -0.896440
     16.08224      6.18092      2.46384        -0.525570      1.051110      0.618235
     16.42801      6.01487      4.90019         0.148242      0.216135      0.729317
      2.10894      1.39171      2.97793         0.921135      0.999228      1.175305
      2.29252      1.39045      5.53004         0.460544      0.025351      1.538602
      9.61443      6.09313      2.57110         0.795733      0.224129     -0.179405
     10.84312      6.18092      4.52020        -0.909867      0.311794     -1.053342
     14.98643      9.43680      1.56647         0.601588      0.068076      0.097814
      0.24508      9.47724      2.70817        -0.264553      0.165052     -0.328170
      5.96857      6.29420      1.07150        -0.136850      0.616389     -1.344740
      7.17375      4.91558      3.08454         0.073703     -0.333304     -0.428646
      7.58656      4.74936      5.55368         0.506630      0.042089      0.946744
      8.93582      1.38287      1.45012        -0.162521     -0.106673     -1.736872
     10.08514      0.12638      3.59863        -0.263314     -0.990617     -0.957540
      1.35096      4.91558      2.05636        -0.161297     -0.211852      0.391881
      1.69165      4.72055      4.47866         0.452773      0.147652      1.122793
      4.26235      0.12638      2.57045        -0.744217     -0.671088      1.123497
      4.83372      9.57839      5.19913         0.084189      0.017360      0.664798
     12.82987      4.09209      1.87249        -0.631367      1.431119     -0.362957
     12.99653      4.91558      4.11272         0.757149      0.186063     -1.399261
     15.20398      3.52879      2.26343         0.449199     -0.463342      1.029742
      7.17375      7.44626      3.08454        -0.083874      0.545494     -0.694550
      7.59566      7.61921      5.55118         0.488539     -0.145483      0.863983
     10.34156      3.40055      1.40042        -0.351874      0.301346     -0.906892
     10.08514      2.65705      3.59863        -0.454279      0.458422      0.520860
      1.35096      7.44626      2.05636         0.860645     -0.585039      1.371852
      1.88900      7.54860      4.70107         0.582678     -0.479996      1.050562
      4.26235      2.65705      2.57045         0.734420      0.649446      1.596938
      4.82617      2.77755      5.20175         0.174718      0.062293      0.667245
     12.78353      8.47031      1.98260         0.085761     -1.648306     -0.282963
     12.99653      7.44626      4.11272         1.269430     -0.110376     -1.796915
      0.59923      1.12399      4.39479        -3.017893      1.408167      1.619680
     16.03272      1.58003      2.03165         1.126113      0.432740     -0.775879
      7.91936      6.21166      1.51341         1.287256     -0.148187     -3.029832
      8.59001      6.18092      4.49167         1.067814     -0.036027      0.717439
     10.91773      1.39171      1.92122         1.437325      0.177580     -1.225331
     10.75166      1.40111      5.12465         0.855201      0.454335      3.429979
      1.88499      6.18804      0.49677        -0.026019      0.147764     -3.649459
      2.76722      6.18092      3.46349         0.575785     -0.556930      1.863168
      4.79037      1.38554      1.04152         0.325060      0.115921     -4.001601
      5.67861      1.39171      3.97758         1.518285      0.097667      0.417573
     13.82913      6.18092      2.43531        -0.402298      0.008291     -0.907454
     14.37853      6.17386      5.08008         0.878852     -0.076011      2.493998
     13.96446      2.89031      0.70143         0.019688      0.661532     -3.796990
     13.49770      2.86689      3.49949         0.495501     -0.427197      2.702562
      4.83266      7.72536      1.98749        -0.042133      1.076533     -1.138523
      5.75877      7.77586      4.69482        -0.809768      0.271554      1.637517
      8.17565      3.00295      2.44008        -0.964030      1.458036     -1.089430
      8.59577      3.03550      5.12812         0.320259     -0.033572      2.363149
      0.02514      7.79215      3.98236        -1.420997      0.256279      1.086952
     16.37900      7.95270      1.27075        -0.921762     -0.446802     -2.850158
      2.38380      3.10844      1.77309        -0.881823     -0.485028     -2.832258
      2.93654      3.00295      4.49645        -0.661442      1.861920      0.370243
     11.08705      7.79215      2.95417        -1.791790      0.166363     -0.762111
     11.71853      7.62501      5.66109        -0.672597      1.318294      3.810891
      5.26426      4.56969      1.92599        -0.444073     -1.823047     -0.914340
      5.74316      4.59057      4.71397        -0.905066     -0.079212      1.753198
     13.33041      0.02015      0.38907        -0.838687     -0.714493     -3.546388
     13.99844      9.35889      3.46826         0.580054     -0.636829      2.041701
     16.70744      4.42499      3.60366        -0.135927     -1.549923      1.459830
     16.38950      4.72138      1.02328        -0.087507     -0.396302     -3.244175
      8.17565      9.35889      2.44008        -1.534241     -1.710336     -0.427079
      8.61097      9.32469      5.11617         0.343294      0.137217      2.557823
     11.08705      4.56969      2.95417        -1.263503     -0.324303     -0.270073
     11.78153      4.84871      5.72116        -0.368531     -1.254689      3.921115
      2.19405      9.34542      1.72066         0.619626      0.123797     -3.131276
      2.93654      9.35889      4.49645         0.533065     -1.980023      0.386700
    total drift:                               -0.067576     -0.075437     -0.055143

  FREE ENERGIE OF THE ION-ELECTRON SYSTEM (eV)
  free  energy   TOTEN  =      -339.62316682 eV

  energy  without entropy=     -338.52747177  energy(sigma->0) =     -339.07531929