 vasp.5.4.4.18Apr17-6-g9f103f2a35 (build Aug 13 2019 17:33:20) gamma-only

 executed on             LinuxIFC date 2020.05.12  06:34:17

 INCAR:
 POTCAR:    PAW_PBE Ni_pv 06Sep2000
 POTCAR:    PAW_PBE S 06Sep2000
 POTCAR:    PAW_PBE Ni_pv 06Sep2000
   VRHFIN =Ni:

   TITEL  = PAW_PBE Ni_pv 06Sep2000
   POMASS =   58.690; ZVAL   =   16.000    mass and valenz
   ENMAX  =  367.986; ENMIN  =  275.989 eV

 POTCAR:    PAW_PBE S 06Sep2000
   VRHFIN =S : s2p4

   TITEL  = PAW_PBE S 06Sep2000
   POMASS =   32.066; ZVAL   =    6.000    mass and valenz
   ENMAX  =  258.689; ENMIN  =  194.016 eV

 Optimization of the real space projectors (new method)

 maximal supplied QI-value         = 18.90
 optimisation between [QCUT,QGAM] = [ 10.77, 21.73] = [ 32.49,132.25] Ry
 Optimized for a Real-space Cutoff    1.38 Angstroem

   l    n(q)    QCUT    max X(q) W(low)/X(q) W(high)/X(q)  e(spline)
   1      8    10.771     2.836    0.40E-04    0.29E-04    0.12E-06
   1      8    10.771     4.023    0.10E-03    0.48E-04    0.29E-06
   2      8    10.771    73.368    0.42E-03    0.97E-04    0.44E-06
   2      8    10.771    69.010    0.42E-03    0.99E-04    0.45E-06
   0      9    10.771    54.797    0.10E-03    0.56E-04    0.74E-07
   0      9    10.771    24.266    0.89E-04    0.49E-04    0.67E-07
 Optimization of the real space projectors (new method)

 maximal supplied QI-value         = 19.84
 optimisation between [QCUT,QGAM] = [ 10.71, 21.63] = [ 32.15,130.99] Ry
 Optimized for a Real-space Cutoff    1.19 Angstroem

   l    n(q)    QCUT    max X(q) W(low)/X(q) W(high)/X(q)  e(spline)
   0      8    10.715   187.594    0.41E-03    0.53E-04    0.66E-07
   0      8    10.715   164.243    0.41E-03    0.53E-04    0.65E-07
   1      7    10.715    67.533    0.19E-03    0.59E-03    0.68E-07
   1      7    10.715    50.729    0.19E-03    0.58E-03    0.67E-07
  PAW_PBE Ni_pv 06Sep2000               :
  PAW_PBE S 06Sep2000                   :

 POSCAR: Type_048 Type_148
  positions in cartesian coordinates
 exchange correlation table for  LEXCH =        8
   RHO(1)=    0.500       N(1)  =     2000
   RHO(2)=  100.500       N(2)  =     4000

 ion  position               nearest neighbor table
   1  0.300  0.089  0.057-  53 2.06  65 2.06  59 2.12  75 2.13  35 2.46
   2  0.256  0.016  0.343-  76 2.25  66 2.26  81 2.26  54 2.36  93 2.36   5 2.53   9 2.53
   3  0.006  0.266  0.172-  61 2.25  67 2.26  71 2.26  55 2.36  59 2.36   7 2.53  23 2.53
   4  0.006  0.266  0.515-  62 2.25  72 2.26  68 2.26  60 2.36  56 2.36  10 2.40  24 2.53   8 2.53

   5  0.256  0.016  0.253-  79 2.25  61 2.26  81 2.26  49 2.36  93 2.36   2 2.53   9 2.53
   6  0.254  0.029  0.588-  94 2.08  82 2.12  62 2.14  80 2.15  50 2.24
   7  0.006  0.266  0.081-  65 2.05  71 2.26  63 2.26  59 2.36  51 2.36  23 2.53   3 2.53
   8  0.006  0.266  0.424-  66 2.25  64 2.26  72 2.26  52 2.36  60 2.36   4 2.53  24 2.53
   9  0.190  0.215  0.298-  57 2.25  66 2.26  61 2.26  54 2.36  49 2.36   5 2.53   2 2.53
  10  0.194  0.301  0.587-  58 2.04  50 2.07  56 2.14  62 2.26   4 2.40
  11  0.440  0.465  0.126-  83 2.25  51 2.26  55 2.26  63 2.36  67 2.36  25 2.46  19 2.53  15 2.53

[...]

  48  0.940  0.965  0.470-  72 2.25  92 2.26  88 2.26  80 2.36  76 2.36  28 2.53  32 2.53
  49  0.468  0.167  0.240-  15 2.25  17 2.26  21 2.26   5 2.36   9 2.36
  50  0.468  0.167  0.584-  10 2.07  18 2.14   6 2.24  16 2.25  22 2.26  94 2.72
  51  0.218  0.417  0.069-  25 2.13  11 2.26  19 2.26  23 2.36   7 2.36
  52  0.218  0.417  0.412-  26 2.25  20 2.26  12 2.26   8 2.36  24 2.36
  53  0.525  0.165  0.020-  19 2.05   1 2.06  13 2.06
  54  0.468  0.167  0.356-  20 2.25  21 2.26  14 2.26   9 2.36   2 2.36
  55  0.218  0.417  0.184-  29 2.25  15 2.26  11 2.26   3 2.36  23 2.36
  56  0.218  0.417  0.528-  10 2.14  30 2.15  12 2.26  16 2.26  24 2.36   4 2.36
  57  0.053  0.414  0.298-   9 2.25  26 2.26  29 2.26  38 2.36  41 2.36
  58  0.028  0.444  0.625-  10 2.04  42 2.08  30 2.12  86 2.72
  59  0.303  0.164  0.126-   1 2.12  35 2.25  19 2.26  15 2.26   7 2.36   3 2.36
  60  0.303  0.164  0.470-  36 2.25  16 2.26  20 2.26   4 2.36   8 2.36
  61  0.968  0.167  0.240-   3 2.25   5 2.26   9 2.26  17 2.36  21 2.36
  62  0.968  0.167  0.584-  22 2.07   6 2.14  18 2.24   4 2.25  10 2.26  82 2.72
  63  0.718  0.417  0.069-  37 2.13  23 2.26   7 2.26  11 2.36  19 2.36
  64  0.718  0.417  0.412-  38 2.25   8 2.26  24 2.26  20 2.36  12 2.36
  65  0.025  0.165  0.020-   7 2.05  13 2.06   1 2.06
  66  0.968  0.167  0.356-   8 2.25   9 2.26   2 2.26  21 2.36  14 2.36
  67  0.718  0.417  0.184-  41 2.25   3 2.26  23 2.26  15 2.36  11 2.36
  68  0.718  0.417  0.528-  22 2.14  42 2.15  24 2.26   4 2.26  12 2.36  16 2.36
  69  0.553  0.414  0.298-  21 2.25  38 2.26  41 2.26  26 2.36  29 2.36
  70  0.528  0.444  0.625-  22 2.04  30 2.08  42 2.12  74 2.72
  71  0.803  0.164  0.126-  13 2.12  47 2.25   7 2.26   3 2.26  19 2.36  15 2.36
  72  0.803  0.164  0.470-  48 2.25   4 2.26   8 2.26  16 2.36  20 2.36
  73  0.468  0.667  0.240-  39 2.25  41 2.26  45 2.26  29 2.36  33 2.36
  74  0.468  0.667  0.584-  34 2.07  42 2.14  30 2.24  40 2.25  46 2.26  70 2.72
  75  0.218  0.917  0.069-   1 2.13  35 2.26  43 2.26  47 2.36  31 2.36
  76  0.218  0.917  0.412-   2 2.25  44 2.26  36 2.26  32 2.36  48 2.36
  77  0.525  0.665  0.020-  43 2.05  25 2.06  37 2.06
  78  0.468  0.667  0.356-  44 2.25  45 2.26  38 2.26  33 2.36  26 2.36
  79  0.218  0.917  0.184-   5 2.25  39 2.26  35 2.26  27 2.36  47 2.36
  80  0.218  0.917  0.528-  34 2.14   6 2.15  36 2.26  40 2.26  48 2.36  28 2.36
  81  0.053  0.914  0.298-  33 2.25   5 2.26   2 2.26  17 2.36  14 2.36
  82  0.028  0.944  0.625-  34 2.04  18 2.08   6 2.12  62 2.72
  83  0.303  0.664  0.126-  25 2.12  11 2.25  43 2.26  39 2.26  31 2.36  27 2.36
  84  0.303  0.664  0.470-  12 2.25  40 2.26  44 2.26  28 2.36  32 2.36
  85  0.968  0.667  0.240-  27 2.25  29 2.26  33 2.26  41 2.36  45 2.36
  86  0.968  0.667  0.584-  46 2.07  30 2.14  42 2.24  28 2.25  34 2.26  58 2.72
  87  0.718  0.917  0.069-  13 2.13  47 2.26  31 2.26  35 2.36  43 2.36
  88  0.718  0.917  0.412-  14 2.25  32 2.26  48 2.26  44 2.36  36 2.36
  89  0.025  0.665  0.020-  31 2.05  37 2.06  25 2.06
  90  0.968  0.667  0.356-  32 2.25  33 2.26  26 2.26  45 2.36  38 2.36
  91  0.718  0.917  0.184-  17 2.25  27 2.26  47 2.26  39 2.36  35 2.36
  92  0.718  0.917  0.528-  46 2.14  18 2.15  48 2.26  28 2.26  36 2.36  40 2.36
  93  0.553  0.914  0.298-  45 2.25  17 2.26  14 2.26   5 2.36   2 2.36
  94  0.528  0.944  0.625-  46 2.04   6 2.08  18 2.12  50 2.72
  95  0.803  0.664  0.126-  37 2.12  23 2.25  31 2.26  27 2.26  43 2.36  39 2.36
  96  0.803  0.664  0.470-  24 2.25  28 2.26  32 2.26  40 2.36  44 2.36

  LATTYP: Found a simple monoclinic cell.
 ALAT       =    13.8711386352
 B/A-ratio  =     2.0107565815
 C/A-ratio  =     1.3233367991
 COS(beta)  =    -0.9620914447

  Lattice vectors:

 A1 = (  -8.3714133957, -11.0601955134,   0.0000000000)
 A2 = (   0.0000000000,   0.0000000000, -27.8914833038)
 A3 = (  14.6499733957,  11.0601955134,   0.0000000000)

Analysis of symmetry for initial positions (statically):
 Subroutine PRICEL returns following result:

[...]

   4 primitive cells build up your supercell.

 Routine SETGRP: Setting up the symmetry group for a
 simple monoclinic supercell.

 Subroutine GETGRP returns: Found  1 space group operations
 (whereof  1 operations were pure point group operations)
 out of a pool of  4 trial point group operations.

The static configuration has the point symmetry C_1 .

Analysis of symmetry for dynamics (positions and initial velocities):
 Subroutine PRICEL returns following result:

  LATTYP: Found a simple monoclinic cell.
 ALAT       =     6.9355693176
 B/A-ratio  =     4.0215131630
 C/A-ratio  =     1.3233367991
 COS(beta)  =    -0.9620914447

  Lattice vectors:

 A1 = (  -4.1857066979,  -5.5300977567,   0.0000000000)
 A2 = (   0.0000000000,   0.0000000000, -27.8914833038)
 A3 = (   7.3249866979,   5.5300977567,   0.0000000000)

   4 primitive cells build up your supercell.

 Routine SETGRP: Setting up the symmetry group for a
 simple monoclinic supercell.

 Subroutine GETGRP returns: Found  1 space group operations
 (whereof  1 operations were pure point group operations)
 out of a pool of  4 trial point group operations.

The dynamic configuration has the point symmetry C_1 .

 Subroutine INISYM returns: Found  1 space group operations
 (whereof  1 operations are pure point group operations),
 and found     4 'primitive' translations

 KPOINTS: gamma-point-only calculation. no periodi

Automatic generation of k-mesh.
Space group operators:
 irot       det(A)        alpha          n_x          n_y          n_z        tau_x        tau_y        tau_z
    1     1.000000     0.000000     1.000000     0.000000     0.000000     0.000000     0.000000     0.000000

 Subroutine IBZKPT returns following result:

 Found      1 irreducible k-points:

 Following reciprocal coordinates:
            Coordinates               Weight
  0.000000  0.000000  0.000000      1.000000

 Following cartesian coordinates:
            Coordinates               Weight
  0.000000  0.000000  0.000000      1.000000

 SYSTEM =  "Millerite NiS"
 POSCAR =  Type_048 Type_148

 Startparameter for this run:
   NWRITE =      2    write-flag & timer
   PREC   = normal    normal or accurate (medium, high low for compatibility)
   ISTART =      0    job   : 0-new  1-cont  2-samecut
   ICHARG =      2    charge: 1-file 2-atom 10-const
   ISPIN  =      1    spin polarized calculation?
   LNONCOLLINEAR =      F non collinear calculations
   LSORBIT =      F    spin-orbit coupling
   INIWAV =      1    electr: 0-lowe 1-rand  2-diag
   LASPH  =      F    aspherical Exc in radial PAW
   METAGGA=      F    non-selfconsistent MetaGGA calc.

 Electronic Relaxation 1
   ENCUT  =  450.0 eV  33.07 Ry    5.75 a.u.  10.86 19.47 48.24*2*pi/ulx,y,z
   ENINI  =  450.0     initial cutoff
   ENAUG  =  703.4 eV  augmentation charge cutoff
   NELM   =    100;   NELMIN=  2; NELMDL= -5     # of ELM steps
   EDIFF  = 0.1E-03   stopping-criterion for ELM
   LREAL  =      T    real-space projection
   NLSPLINE    = F    spline interpolate recip. space projectors
   LCOMPAT=      F    compatible to vasp.4.4
   GGA_COMPAT  = T    GGA compatible to vasp.4.4-vasp.4.6
   LMAXPAW     = -100 max onsite density
   LMAXMIX     =    2 max onsite mixed and CHGCAR
   VOSKOWN=      0    Vosko Wilk Nusair interpolation
   ROPT   =   -0.00050  -0.00050
 Ionic relaxation
   EDIFFG = 0.1E-02   stopping-criterion for IOM
   NSW    =      0    number of steps for IOM
   NBLOCK =      1;   KBLOCK =      1    inner block; outer block
   IBRION =     -1    ionic relax: 0-MD 1-quasi-New 2-CG
   NFREE  =      0    steps in history (QN), initial steepest desc. (CG)
   ISIF   =      2    stress and relaxation
   IWAVPR =     10    prediction:  0-non 1-charg 2-wave 3-comb
   ISYM   =      2    0-nonsym 1-usesym 2-fastsym
   LCORR  =      T    Harris-Foulkes like correction to forces

   POTIM  = 0.5000    time-step for ionic-motion
   TEIN   =    0.0    initial temperature
   TEBEG  =    0.0;   TEEND  =   0.0 temperature during run
[...]
     0.000000000  0.000000000 27.891483304     0.000000000  0.000000000  0.035853238

  length of vectors
     6.278560000 11.256463038 27.891483304     0.162098538  0.090414315  0.035853238

 FORCES acting on ions
    electron-ion (+dipol)            ewald-force                    non-local-force                 convergence-correction
   -.398E+01 0.286E+03 0.671E+04   0.393E+01 -.288E+03 -.671E+04   0.378E-01 0.134E+01 0.602E+01   -.980E-03 0.130E-03 0.629E-01
   -.413E+02 0.257E+03 -.761E+03   0.404E+02 -.258E+03 0.762E+03   0.975E+00 0.670E+00 -.121E+01   0.399E-03 0.725E-02 -.132E+00
   -.409E+02 0.205E+03 0.272E+04   0.402E+02 -.205E+03 -.272E+04   0.816E+00 0.290E+00 -.965E+00   -.139E-02 0.160E-02 0.624E-01
   0.119E+02 0.382E+03 -.411E+04   -.125E+02 -.385E+03 0.411E+04   0.273E+00 0.252E+01 -.233E+00   -.267E-02 -.219E-02 -.113E+00
   -.412E+02 0.262E+03 0.195E+04   0.404E+02 -.262E+03 -.195E+04   0.935E+00 0.725E+00 0.128E+01   0.836E-03 0.679E-02 -.136E-01
   -.530E+02 -.244E+03 -.623E+04   0.552E+02 0.245E+03 0.623E+04   -.212E+01 0.895E+00 -.156E+01   -.191E-02 0.401E-02 -.196E-01
   -.192E+02 -.228E+03 0.599E+04   0.181E+02 0.231E+03 -.599E+04   0.117E+01 -.142E+01 0.429E+01   -.113E-02 -.298E-02 0.705E-01
   -.410E+02 0.264E+03 -.148E+04   0.401E+02 -.264E+03 0.148E+04   0.973E+00 0.540E+00 0.642E+00   0.287E-03 -.579E-02 -.131E+00
   -.411E+02 -.516E+03 0.597E+03   0.404E+02 0.517E+03 -.597E+03   0.890E+00 -.116E+01 -.857E-01   -.717E-03 -.971E-02 -.812E-01
   -.301E+02 0.171E+03 -.666E+04   0.257E+02 -.170E+03 0.667E+04   0.431E+01 -.971E+00 -.394E+01   0.246E-02 0.291E-02 -.291E-01
   -.792E+02 -.243E+03 0.410E+04   0.798E+02 0.242E+03 -.410E+04   -.297E+00 0.414E+00 -.203E+00   -.150E-02 -.291E-02 0.775E-01
   -.410E+02 -.555E+03 -.287E+04   0.405E+02 0.556E+03 0.287E+04   0.686E+00 -.136E+01 0.631E+00   0.137E-03 0.133E-01 -.104E+00
   -.398E+01 0.286E+03 0.671E+04   0.393E+01 -.288E+03 -.671E+04   0.378E-01 0.134E+01 0.602E+01   -.108E-02 0.654E-04 0.630E-01
   -.413E+02 0.257E+03 -.761E+03   0.404E+02 -.258E+03 0.762E+03   0.975E+00 0.670E+00 -.121E+01   0.241E-03 0.734E-02 -.132E+00
   -.409E+02 0.205E+03 0.272E+04   0.402E+02 -.205E+03 -.272E+04   0.816E+00 0.290E+00 -.965E+00   -.140E-02 0.166E-02 0.624E-01
   0.119E+02 0.382E+03 -.411E+04   -.125E+02 -.385E+03 0.411E+04   0.273E+00 0.252E+01 -.233E+00   -.263E-02 -.222E-02 -.113E+00
   -.412E+02 0.262E+03 0.195E+04   0.404E+02 -.262E+03 -.195E+04   0.935E+00 0.725E+00 0.128E+01   0.835E-03 0.692E-02 -.137E-01
   -.530E+02 -.244E+03 -.623E+04   0.552E+02 0.245E+03 0.623E+04   -.212E+01 0.895E+00 -.156E+01   -.234E-02 0.386E-02 -.197E-01
   -.192E+02 -.228E+03 0.599E+04   0.181E+02 0.231E+03 -.599E+04   0.117E+01 -.142E+01 0.429E+01   -.112E-02 -.303E-02 0.706E-01
   -.410E+02 0.264E+03 -.148E+04   0.401E+02 -.264E+03 0.148E+04   0.973E+00 0.540E+00 0.642E+00   0.402E-03 -.605E-02 -.131E+00
   -.411E+02 -.516E+03 0.597E+03   0.404E+02 0.517E+03 -.597E+03   0.890E+00 -.116E+01 -.857E-01   -.632E-03 -.976E-02 -.812E-01
   -.301E+02 0.171E+03 -.666E+04   0.257E+02 -.170E+03 0.667E+04   0.431E+01 -.971E+00 -.394E+01   0.190E-02 0.266E-02 -.289E-01
   -.792E+02 -.243E+03 0.410E+04   0.798E+02 0.242E+03 -.410E+04   -.297E+00 0.414E+00 -.203E+00   -.146E-02 -.279E-02 0.774E-01
   -.410E+02 -.555E+03 -.287E+04   0.405E+02 0.556E+03 0.287E+04   0.686E+00 -.136E+01 0.631E+00   0.283E-03 0.133E-01 -.104E+00
   -.398E+01 0.286E+03 0.671E+04   0.393E+01 -.288E+03 -.671E+04   0.378E-01 0.134E+01 0.602E+01   -.106E-02 -.308E-03 0.632E-01
   -.413E+02 0.257E+03 -.761E+03   0.404E+02 -.258E+03 0.762E+03   0.975E+00 0.670E+00 -.121E+01   0.266E-03 0.748E-02 -.131E+00
   -.409E+02 0.205E+03 0.272E+04   0.402E+02 -.205E+03 -.272E+04   0.816E+00 0.290E+00 -.965E+00   -.142E-02 0.151E-02 0.622E-01
   0.119E+02 0.382E+03 -.411E+04   -.125E+02 -.385E+03 0.411E+04   0.273E+00 0.252E+01 -.233E+00   -.262E-02 -.212E-02 -.113E+00
   -.412E+02 0.262E+03 0.195E+04   0.404E+02 -.262E+03 -.195E+04   0.935E+00 0.725E+00 0.128E+01   0.840E-03 0.645E-02 -.140E-01
   -.530E+02 -.244E+03 -.623E+04   0.552E+02 0.245E+03 0.623E+04   -.212E+01 0.895E+00 -.156E+01   -.225E-02 0.381E-02 -.194E-01
   -.192E+02 -.228E+03 0.599E+04   0.181E+02 0.231E+03 -.599E+04   0.117E+01 -.142E+01 0.429E+01   -.116E-02 -.294E-02 0.706E-01
   -.410E+02 0.264E+03 -.148E+04   0.401E+02 -.264E+03 0.148E+04   0.973E+00 0.540E+00 0.642E+00   0.340E-03 -.612E-02 -.131E+00
   -.411E+02 -.516E+03 0.597E+03   0.404E+02 0.517E+03 -.597E+03   0.890E+00 -.116E+01 -.857E-01   -.610E-03 -.964E-02 -.809E-01
   -.301E+02 0.171E+03 -.666E+04   0.257E+02 -.170E+03 0.667E+04   0.431E+01 -.971E+00 -.394E+01   0.203E-02 0.271E-02 -.290E-01
   -.792E+02 -.243E+03 0.410E+04   0.798E+02 0.242E+03 -.410E+04   -.297E+00 0.414E+00 -.203E+00   -.144E-02 -.245E-02 0.772E-01
   -.410E+02 -.555E+03 -.287E+04   0.405E+02 0.556E+03 0.287E+04   0.686E+00 -.136E+01 0.631E+00   0.298E-03 0.131E-01 -.104E+00
   -.398E+01 0.286E+03 0.671E+04   0.393E+01 -.288E+03 -.671E+04   0.378E-01 0.134E+01 0.602E+01   -.109E-02 -.306E-03 0.631E-01
   -.413E+02 0.257E+03 -.761E+03   0.404E+02 -.258E+03 0.762E+03   0.975E+00 0.670E+00 -.121E+01   0.275E-03 0.750E-02 -.131E+00
   -.409E+02 0.205E+03 0.272E+04   0.402E+02 -.205E+03 -.272E+04   0.816E+00 0.290E+00 -.965E+00   -.131E-02 0.155E-02 0.623E-01
   0.119E+02 0.382E+03 -.411E+04   -.125E+02 -.385E+03 0.411E+04   0.273E+00 0.252E+01 -.233E+00   -.272E-02 -.213E-02 -.113E+00
   -.412E+02 0.262E+03 0.195E+04   0.404E+02 -.262E+03 -.195E+04   0.935E+00 0.725E+00 0.128E+01   0.861E-03 0.664E-02 -.139E-01
   -.530E+02 -.244E+03 -.623E+04   0.552E+02 0.245E+03 0.623E+04   -.212E+01 0.895E+00 -.156E+01   -.200E-02 0.409E-02 -.195E-01
   -.192E+02 -.228E+03 0.599E+04   0.181E+02 0.231E+03 -.599E+04   0.117E+01 -.142E+01 0.429E+01   -.108E-02 -.289E-02 0.705E-01
   -.410E+02 0.264E+03 -.148E+04   0.401E+02 -.264E+03 0.148E+04   0.973E+00 0.540E+00 0.642E+00   0.271E-03 -.594E-02 -.131E+00
   -.411E+02 -.516E+03 0.597E+03   0.404E+02 0.517E+03 -.597E+03   0.890E+00 -.116E+01 -.857E-01   -.621E-03 -.977E-02 -.810E-01
   -.301E+02 0.171E+03 -.666E+04   0.257E+02 -.170E+03 0.667E+04   0.431E+01 -.971E+00 -.394E+01   0.235E-02 0.295E-02 -.293E-01
   -.792E+02 -.243E+03 0.410E+04   0.798E+02 0.242E+03 -.410E+04   -.297E+00 0.414E+00 -.203E+00   -.154E-02 -.244E-02 0.771E-01
   -.410E+02 -.555E+03 -.287E+04   0.405E+02 0.556E+03 0.287E+04   0.686E+00 -.136E+01 0.631E+00   0.128E-03 0.132E-01 -.104E+00
   0.397E+02 -.855E+02 0.801E+03   -.404E+02 0.865E+02 -.803E+03   0.568E+00 -.122E+01 0.224E+01   0.698E-03 -.450E-02 0.366E-02
   0.374E+01 0.990E+02 -.239E+04   -.433E+01 -.994E+02 0.239E+04   0.156E+01 -.408E+00 -.263E+01   0.161E-02 -.190E-01 -.835E-02
   0.634E+02 0.456E+02 0.251E+04   -.648E+02 -.457E+02 -.252E+04   0.865E+00 -.929E+00 0.639E+01   -.395E-04 0.276E-03 0.224E-01
   0.394E+02 -.855E+02 -.489E+03   -.404E+02 0.870E+02 0.487E+03   0.921E+00 -.184E+01 0.252E+01   -.555E-03 0.946E-02 -.501E-01
   0.601E+01 -.644E+02 0.294E+04   -.634E+01 0.650E+02 -.294E+04   0.546E+00 -.443E+00 0.189E+01   0.192E-04 -.125E-03 0.120E-01
   0.396E+02 -.831E+02 -.355E+03   -.404E+02 0.841E+02 0.358E+03   0.683E+00 -.132E+01 -.283E+01   -.322E-04 -.382E-02 -.569E-01
   0.403E+02 -.723E+02 0.949E+03   -.408E+02 0.727E+02 -.946E+03   0.553E+00 -.667E+00 -.261E+01   0.467E-03 -.350E-03 0.224E-01
   0.219E+02 -.194E+03 -.163E+04   -.225E+02 0.198E+03 0.163E+04   0.463E+00 -.365E+01 -.264E+01   0.104E-02 0.976E-02 -.415E-01
   0.394E+02 0.167E+03 0.224E+03   -.404E+02 -.169E+03 -.224E+03   0.818E+00 0.273E+01 0.106E+00   0.333E-03 0.340E-02 -.322E-01
   0.418E+02 -.179E+02 -.286E+04   -.426E+02 0.176E+02 0.287E+04   0.251E+00 0.948E-01 -.267E+01   -.249E-02 0.155E-01 0.232E-01
   0.296E+02 0.696E+02 0.142E+04   -.301E+02 -.707E+02 -.142E+04   0.335E+00 0.185E+01 -.122E+01   0.135E-03 0.159E-02 0.294E-01
   0.383E+02 0.182E+03 -.107E+04   -.392E+02 -.185E+03 0.107E+04   0.795E+00 0.261E+01 -.153E+00   -.367E-03 -.791E-02 -.364E-01
[...]
   0.296E+02 0.696E+02 0.142E+04   -.301E+02 -.707E+02 -.142E+04   0.335E+00 0.185E+01 -.122E+01   0.110E-03 0.145E-02 0.294E-01
   0.383E+02 0.182E+03 -.107E+04   -.392E+02 -.185E+03 0.107E+04   0.795E+00 0.261E+01 -.153E+00   -.403E-03 -.790E-02 -.365E-01
   0.397E+02 -.855E+02 0.801E+03   -.404E+02 0.865E+02 -.803E+03   0.568E+00 -.122E+01 0.224E+01   0.578E-03 -.461E-02 0.374E-02
   0.374E+01 0.990E+02 -.239E+04   -.433E+01 -.994E+02 0.239E+04   0.156E+01 -.408E+00 -.263E+01   0.158E-02 -.190E-01 -.837E-02
   0.634E+02 0.456E+02 0.251E+04   -.648E+02 -.457E+02 -.252E+04   0.865E+00 -.929E+00 0.639E+01   -.417E-04 0.419E-03 0.224E-01
   0.394E+02 -.855E+02 -.489E+03   -.404E+02 0.870E+02 0.487E+03   0.921E+00 -.184E+01 0.252E+01   -.513E-03 0.935E-02 -.502E-01
   0.601E+01 -.644E+02 0.294E+04   -.634E+01 0.650E+02 -.294E+04   0.546E+00 -.443E+00 0.189E+01   0.884E-05 -.131E-03 0.120E-01
   0.396E+02 -.831E+02 -.355E+03   -.404E+02 0.841E+02 0.358E+03   0.683E+00 -.132E+01 -.283E+01   -.106E-03 -.377E-02 -.568E-01
   0.403E+02 -.723E+02 0.949E+03   -.408E+02 0.727E+02 -.946E+03   0.553E+00 -.667E+00 -.261E+01   0.432E-03 -.188E-03 0.225E-01
   0.219E+02 -.194E+03 -.163E+04   -.225E+02 0.198E+03 0.163E+04   0.463E+00 -.365E+01 -.264E+01   0.104E-02 0.975E-02 -.414E-01
   0.394E+02 0.167E+03 0.224E+03   -.404E+02 -.169E+03 -.224E+03   0.818E+00 0.273E+01 0.106E+00   0.371E-03 0.344E-02 -.321E-01
   0.418E+02 -.179E+02 -.286E+04   -.426E+02 0.176E+02 0.287E+04   0.251E+00 0.948E-01 -.267E+01   -.251E-02 0.156E-01 0.232E-01
   0.296E+02 0.696E+02 0.142E+04   -.301E+02 -.707E+02 -.142E+04   0.335E+00 0.185E+01 -.122E+01   0.123E-03 0.144E-02 0.294E-01
   0.383E+02 0.182E+03 -.107E+04   -.392E+02 -.185E+03 0.107E+04   0.795E+00 0.261E+01 -.153E+00   -.374E-03 -.791E-02 -.365E-01
   -.681E+02 0.289E+01 -.108E+02   -.306E-12 -.568E-12 0.682E-12   0.680E+02 -.289E+01 0.123E+02   -.237E-01 0.653E-01 -.185E+01

 POSITION                                       TOTAL-FORCE (eV/Angst)
      2.07201      0.98632      1.58177        -0.009409     -0.439585     -0.319406
      1.64370      0.18204      9.57841         0.110380      0.149092     -0.396360
      0.59727      2.94708      4.78921         0.027926      0.221990     -0.127322
      0.59727      2.94708     14.36762        -0.329809     -0.149688     -1.315632
      1.64370      0.18204      7.04774         0.062289      0.167338      0.377756
      1.65627      0.32275     16.41088         0.026706      0.971504     -0.150588
      0.59727      2.94708      2.25853         0.105392      1.530282      1.755129
      0.59727      2.94708     11.83694         0.126691      0.186129      0.237238
      1.64370      2.37366      8.31307         0.181366     -0.326684     -0.009109
      1.84503      3.32856     16.38491        -0.090457     -0.123172     -0.169487
      3.73655      5.13871      3.52387         0.315393     -0.941618      0.729932
      3.73655      5.13871     13.10228         0.181659     -0.426584     -0.251100
      5.21129      0.98632      1.58177        -0.009409     -0.439585     -0.319406
      4.78298      0.18204      9.57841         0.110380      0.149092     -0.396360
      3.73655      2.94708      4.78921         0.027926      0.221990     -0.127322
      3.73655      2.94708     14.36762        -0.329809     -0.149688     -1.315632
      4.78298      0.18204      7.04774         0.062289      0.167338      0.377756
      4.79555      0.32275     16.41088         0.026706      0.971504     -0.150588
      3.73655      2.94708      2.25853         0.105392      1.530282      1.755129
      3.73655      2.94708     11.83694         0.126691      0.186129      0.237238
      4.78298      2.37366      8.31307         0.181366     -0.326684     -0.009109
      4.98431      3.32856     16.38491        -0.090457     -0.123172     -0.169487
      6.87583      5.13871      3.52387         0.315393     -0.941618      0.729932
      6.87583      5.13871     13.10228         0.181659     -0.426584     -0.251100
      3.11843      6.51642      1.58177        -0.009409     -0.439585     -0.319406
      2.69013      5.71213      9.57841         0.110380      0.149092     -0.396360
      1.64370      8.47718      4.78921         0.027926      0.221990     -0.127322
      1.64370      8.47718     14.36762        -0.329809     -0.149688     -1.315632
      2.69013      5.71213      7.04774         0.062289      0.167338      0.377756
      2.70269      5.85285     16.41088         0.026706      0.971504     -0.150588
      1.64370      8.47718      2.25853         0.105392      1.530282      1.755129
      1.64370      8.47718     11.83694         0.126691      0.186129      0.237238
      2.69013      7.90376      8.31307         0.181366     -0.326684     -0.009109
      2.89145      8.85866     16.38491        -0.090457     -0.123172     -0.169487
      4.78298     10.66881      3.52387         0.315393     -0.941618      0.729932
      4.78298     10.66881     13.10228         0.181659     -0.426584     -0.251100
      6.25771      6.51642      1.58177        -0.009409     -0.439585     -0.319406
      5.82941      5.71213      9.57841         0.110380      0.149092     -0.396360
      4.78298      8.47718      4.78921         0.027926      0.221990     -0.127322
      4.78298      8.47718     14.36762        -0.329809     -0.149688     -1.315632
      5.82941      5.71213      7.04774         0.062289      0.167338      0.377756
      5.84197      5.85285     16.41088         0.026706      0.971504     -0.150588
      4.78298      8.47718      2.25853         0.105392      1.530282      1.755129
      4.78298      8.47718     11.83694         0.126691      0.186129      0.237238
      5.82941      7.90376      8.31307         0.181366     -0.326684     -0.009109
      6.03073      8.85866     16.38491        -0.090457     -0.123172     -0.169487
      7.92226     10.66881      3.52387         0.315393     -0.941618      0.729932
      7.92226     10.66881     13.10228         0.181659     -0.426584     -0.251100
      3.28961      1.84282      6.70184        -0.118589     -0.225756      0.291298
      3.28961      1.84282     16.28025         0.970460     -0.767109     -0.027941
      2.24318      4.60787      1.91264        -0.489241     -0.995061      0.194195
      2.24318      4.60787     11.49105        -0.074323     -0.306804      0.483898
      3.64131      1.82629      0.54950         0.222894      0.120103     -3.344882
      3.28961      1.84282      9.92431        -0.107801     -0.275793     -0.389085
      2.24318      4.60787      5.13510         0.019651     -0.239667     -0.395118
      2.24318      4.60787     14.71351        -0.150416      0.341047     -1.527534
      1.19676      4.58218      8.31307        -0.157905      0.547387     -0.007682
      1.10669      4.91293     17.43852        -0.507313     -0.172621      3.039109
      2.24318      1.81714      3.52387        -0.155931      0.735775      1.363935
      2.24318      1.81714     13.10228        -0.159613      0.419497     -0.041246
[...]
      2.15311     10.44303     17.43852        -0.507313     -0.172621      3.039109
      3.28961      7.34723      3.52387        -0.155931      0.735775      1.363935
      3.28961      7.34723     13.10228        -0.159613      0.419497     -0.041246
      7.47532      7.37292      6.70184        -0.118589     -0.225756      0.291298
      7.47532      7.37292     16.28025         0.970460     -0.767109     -0.027941
      6.42889     10.13797      1.91264        -0.489241     -0.995061      0.194195
      6.42889     10.13797     11.49105        -0.074323     -0.306804      0.483898
      1.54845      7.35638      0.54950         0.222894      0.120103     -3.344882
      7.47532      7.37292      9.92431        -0.107801     -0.275793     -0.389085
      6.42889     10.13797      5.13510         0.019651     -0.239667     -0.395118
      6.42889     10.13797     14.71351        -0.150416      0.341047     -1.527534
      5.38246     10.11228      8.31307        -0.157905      0.547387     -0.007682
      5.29239     10.44303     17.43852        -0.507313     -0.172621      3.039109
      6.42889      7.34723      3.52387        -0.155931      0.735775      1.363935
      6.42889      7.34723     13.10228        -0.159613      0.419497     -0.041246
    total drift:                               -0.095488      0.068325     -0.344924

  FREE ENERGIE OF THE ION-ELECTRON SYSTEM (eV)
  free  energy   TOTEN  =      -480.83706922 eV

  energy  without entropy=     -479.63067426  energy(sigma->0) =     -480.23387174