 vasp.5.4.4.18Apr17-6-g9f103f2a35 (build Aug 13 2019 17:33:20) gamma-only

 executed on             LinuxIFC date 2020.05.12  12:21:58

 INCAR:
 POTCAR:    PAW_PBE Ni_pv 06Sep2000
 POTCAR:    PAW_PBE S 06Sep2000
 POTCAR:    PAW_PBE Ni_pv 06Sep2000
   VRHFIN =Ni:

   TITEL  = PAW_PBE Ni_pv 06Sep2000
   POMASS =   58.690; ZVAL   =   16.000    mass and valenz
   ENMAX  =  367.986; ENMIN  =  275.989 eV

 POTCAR:    PAW_PBE S 06Sep2000
   VRHFIN =S : s2p4

   TITEL  = PAW_PBE S 06Sep2000
   POMASS =   32.066; ZVAL   =    6.000    mass and valenz
   ENMAX  =  258.689; ENMIN  =  194.016 eV

 Optimization of the real space projectors (new method)

 maximal supplied QI-value         = 18.90
 optimisation between [QCUT,QGAM] = [ 10.77, 21.73] = [ 32.49,132.25] Ry
 Optimized for a Real-space Cutoff    1.38 Angstroem

   l    n(q)    QCUT    max X(q) W(low)/X(q) W(high)/X(q)  e(spline)
   1      8    10.771     2.836    0.40E-04    0.29E-04    0.12E-06
   1      8    10.771     4.023    0.10E-03    0.48E-04    0.29E-06
   2      8    10.771    73.368    0.42E-03    0.97E-04    0.44E-06
   2      8    10.771    69.010    0.42E-03    0.99E-04    0.45E-06
   0      9    10.771    54.797    0.10E-03    0.56E-04    0.74E-07
   0      9    10.771    24.266    0.89E-04    0.49E-04    0.67E-07
 Optimization of the real space projectors (new method)

 maximal supplied QI-value         = 19.84
 optimisation between [QCUT,QGAM] = [ 10.71, 21.63] = [ 32.15,130.99] Ry
 Optimized for a Real-space Cutoff    1.19 Angstroem

   l    n(q)    QCUT    max X(q) W(low)/X(q) W(high)/X(q)  e(spline)
   0      8    10.715   187.594    0.41E-03    0.53E-04    0.66E-07
   0      8    10.715   164.243    0.41E-03    0.53E-04    0.65E-07
   1      7    10.715    67.533    0.19E-03    0.59E-03    0.68E-07
   1      7    10.715    50.729    0.19E-03    0.58E-03    0.67E-07
  PAW_PBE Ni_pv 06Sep2000               :
  PAW_PBE S 06Sep2000                   :

 POSCAR: Type_036 Type_136
  positions in cartesian coordinates
 exchange correlation table for  LEXCH =        8
   RHO(1)=    0.500       N(1)  =     2000
   RHO(2)=  100.500       N(2)  =     4000

 ion  position               nearest neighbor table
   1  0.374  0.751  0.095-  61 2.05  49 2.09  41 2.25  62 2.36  50 2.36  14 2.45
   2  0.525  0.601  0.223-  42 2.25  62 2.26  50 2.26  63 2.36  51 2.36  15 2.53  27 2.53
   3  0.675  0.451  0.351-  43 2.25  51 2.26  63 2.26  64 2.36  52 2.36  19 2.41  28 2.53  16 2.53

   4  0.776  0.336  0.466-  65 2.03  52 2.05  44 2.09  64 2.09  19 2.42
   5  0.556  0.170  0.072-  45 2.06  67 2.08  46 2.09  53 2.09   6 2.41
   6  0.758  0.035  0.137-  67 2.05  53 2.07  46 2.25  54 2.36  68 2.36   5 2.41
   7  0.034  0.756  0.382-  55 2.04  66 2.09  56 2.12  48 2.22
   8  0.908  0.884  0.266-  47 2.25  54 2.26  68 2.26  55 2.36  66 2.36  30 2.53  17 2.53
   9  0.141  0.318  0.180-  69 2.07  40 2.25  57 2.26  58 2.36  70 2.36  34 2.53  21 2.53
  10  0.291  0.168  0.308-  37 2.25  70 2.26  58 2.26  59 2.36  71 2.36  22 2.53  35 2.53
  11  0.423  0.031  0.423-  71 2.03  59 2.09  38 2.09  72 2.15
  12  0.988  0.471  0.080-  57 2.05  60 2.11  39 2.12  69 2.16
  13  0.010  0.116  0.411-  65 2.06  38 2.13  55 2.25  37 2.26  64 2.26  25 2.33
  14  0.575  0.558  0.048-  62 2.04  61 2.04  39 2.06   1 2.45
  15  0.709  0.416  0.155-  53 2.09  39 2.26  62 2.26  40 2.36  63 2.36   2 2.53  27 2.53
  16  0.860  0.266  0.283-  54 2.25  63 2.26  40 2.26  37 2.36  64 2.36   3 2.53  28 2.53
  17  0.093  0.700  0.198-  57 2.25  41 2.26  68 2.26  20 2.34  66 2.36  42 2.36  30 2.53   8 2.53

[...]

  35  0.516  0.207  0.274-  63 2.25  46 2.26  58 2.26  47 2.36  59 2.36  22 2.53  10 2.53
  36  0.658  0.069  0.389-  47 2.05  59 2.13  64 2.19  48 2.26
  37  0.064  0.262  0.341-  25 2.08  10 2.25  13 2.26  16 2.36  28 2.36  38 2.56
  38  0.206  0.135  0.440-  11 2.09  13 2.13  25 2.16  37 2.56  65 2.58
  39  0.763  0.563  0.085-  14 2.06  12 2.12  26 2.24  15 2.26  27 2.26
  40  0.914  0.412  0.213-   9 2.25  16 2.26  28 2.26  27 2.36  15 2.36
  41  0.147  0.846  0.128-  20 2.23   1 2.25  17 2.26  30 2.26  29 2.33
  42  0.297  0.696  0.256-  18 2.04   2 2.25  31 2.26  17 2.36  30 2.36
  43  0.447  0.545  0.384-  32 2.01  19 2.12   3 2.25  31 2.36  44 2.60  18 2.61  56 2.72
  44  0.574  0.469  0.495-  19 2.08   4 2.09  32 2.11  43 2.60
  45  0.352  0.301  0.050-   5 2.06  34 2.07  21 2.21  33 2.21
  46  0.530  0.129  0.170-   5 2.09   6 2.25  35 2.26  22 2.26  34 2.36  21 2.36
  47  0.680  0.979  0.298-  36 2.05   8 2.25  23 2.26  35 2.36  22 2.36  48 2.79
  48  0.810  0.849  0.414-  24 2.07  23 2.13   7 2.22  36 2.26  47 2.79
  49  0.405  0.936  0.064-   1 2.09  21 2.12  26 2.14  50 2.67
  50  0.528  0.798  0.171-  26 2.04  22 2.25  27 2.26   2 2.26   1 2.36  49 2.67
  51  0.678  0.648  0.299-  23 2.25   3 2.26  28 2.26  27 2.36   2 2.36
  52  0.829  0.497  0.427-   4 2.05  24 2.05  25 2.12  28 2.36   3 2.36
  53  0.722  0.236  0.101-   6 2.07  15 2.09   5 2.09
  54  0.911  0.081  0.214-  29 2.20  16 2.25   8 2.26  30 2.26   6 2.36
  55  0.062  0.931  0.342-   7 2.04  13 2.25  31 2.26  30 2.36   8 2.36
  56  0.211  0.722  0.444-  31 2.02   7 2.12  32 2.15  43 2.72
  57  0.145  0.515  0.128-  12 2.05  33 2.10  20 2.15  17 2.25  34 2.26   9 2.26  60 2.48
  58  0.295  0.364  0.257-  18 2.17  35 2.26  10 2.26   9 2.36  34 2.36
  59  0.445  0.214  0.385-  19 2.07  11 2.09  36 2.13  10 2.36  35 2.36
  60  0.077  0.576  0.013-  20 2.04  12 2.11  33 2.15  57 2.48
  61  0.380  0.653  0.007-  14 2.04   1 2.05  33 2.05
  62  0.477  0.512  0.128-  14 2.04  34 2.25   2 2.26  15 2.26   1 2.36  33 2.41
  63  0.628  0.362  0.256-  35 2.25  16 2.26   3 2.26   2 2.36  15 2.36
  64  0.778  0.212  0.384-   4 2.09  36 2.19  13 2.26  19 2.28   3 2.36  16 2.36
  65  0.967  0.209  0.502-   4 2.03  13 2.06  25 2.07  38 2.58
  66  0.011  0.645  0.299-  18 2.08   7 2.09  28 2.25  17 2.36   8 2.36
  67  0.680  0.958  0.060-   6 2.05   5 2.08  26 2.09
  68  0.861  0.795  0.171-  27 2.25   8 2.26  17 2.26  20 2.29   6 2.36
  69  0.104  0.246  0.090-  29 2.06   9 2.07  12 2.16  21 2.18
  70  0.244  0.079  0.213-  29 2.13  30 2.25  22 2.26  10 2.26   9 2.36  21 2.36
  71  0.395  0.928  0.341-  11 2.03  31 2.25  23 2.26  10 2.36  22 2.36
  72  0.531  0.821  0.460-  24 2.05  32 2.11  23 2.13  11 2.15

  LATTYP: Found a base centered orthorhombic cell.
 ALAT       =    11.4527836704
 B/A-ratio  =     1.4485816945
 C/A-ratio  =     1.7901333131

  Lattice vectors:

 A1 = (  10.0797329849,   0.0000000000,   0.0000000000)
 A2 = (  -3.5732980427,  -9.4251025535,   0.0000000000)
 A3 = (   0.0000000000,   0.0000000000, -20.5020095760)

Analysis of symmetry for initial positions (statically):
 Subroutine PRICEL returns:
 Original cell was already a primitive cell.

 Routine SETGRP: Setting up the symmetry group for a
 base centered orthorhombic supercell.

 Subroutine GETGRP returns: Found  1 space group operations
 (whereof  1 operations were pure point group operations)
 out of a pool of  8 trial point group operations.

The static configuration has the point symmetry C_1 .

Analysis of symmetry for dynamics (positions and initial velocities):
 Subroutine PRICEL returns:
 Original cell was already a primitive cell.

 Routine SETGRP: Setting up the symmetry group for a
 base centered orthorhombic supercell.

 Subroutine GETGRP returns: Found  1 space group operations
 (whereof  1 operations were pure point group operations)
 out of a pool of  8 trial point group operations.

The dynamic configuration has the point symmetry C_1 .

 Subroutine INISYM returns: Found  1 space group operations
 (whereof  1 operations are pure point group operations),
 and found     1 'primitive' translations

 KPOINTS: gamma-point-only calculation. no periodi

Automatic generation of k-mesh.
Space group operators:
 irot       det(A)        alpha          n_x          n_y          n_z        tau_x        tau_y        tau_z
    1     1.000000     0.000001     1.000000     0.000000     0.000000     0.000000     0.000000     0.000000

 Subroutine IBZKPT returns following result:

 Found      1 irreducible k-points:

 Following reciprocal coordinates:
            Coordinates               Weight
  0.000000  0.000000  0.000000      1.000000

 Following cartesian coordinates:
            Coordinates               Weight
  0.000000  0.000000  0.000000      1.000000

 SYSTEM =  "Millerite NiS"
 POSCAR =  Type_036 Type_136

 Startparameter for this run:
   NWRITE =      2    write-flag & timer
   PREC   = normal    normal or accurate (medium, high low for compatibility)
   ISTART =      0    job   : 0-new  1-cont  2-samecut
   ICHARG =      2    charge: 1-file 2-atom 10-const
   ISPIN  =      1    spin polarized calculation?
   LNONCOLLINEAR =      F non collinear calculations
   LSORBIT =      F    spin-orbit coupling
   INIWAV =      1    electr: 0-lowe 1-rand  2-diag
   LASPH  =      F    aspherical Exc in radial PAW
   METAGGA=      F    non-selfconsistent MetaGGA calc.

 Electronic Relaxation 1
   ENCUT  =  450.0 eV  33.07 Ry    5.75 a.u.  17.43 17.43 35.46*2*pi/ulx,y,z
   ENINI  =  450.0     initial cutoff
   ENAUG  =  703.4 eV  augmentation charge cutoff
   NELM   =    100;   NELMIN=  2; NELMDL= -5     # of ELM steps
   EDIFF  = 0.1E-03   stopping-criterion for ELM
   LREAL  =      T    real-space projection
   NLSPLINE    = F    spline interpolate recip. space projectors
   LCOMPAT=      F    compatible to vasp.4.4
   GGA_COMPAT  = T    GGA compatible to vasp.4.4-vasp.4.6
   LMAXPAW     = -100 max onsite density
   LMAXMIX     =    2 max onsite mixed and CHGCAR
   VOSKOWN=      0    Vosko Wilk Nusair interpolation
   ROPT   =   -0.00050  -0.00050
 Ionic relaxation
   EDIFFG = 0.1E-02   stopping-criterion for IOM
   NSW    =      0    number of steps for IOM
   NBLOCK =      1;   KBLOCK =      1    inner block; outer block
   IBRION =     -1    ionic relax: 0-MD 1-quasi-New 2-CG
   NFREE  =      0    steps in history (QN), initial steepest desc. (CG)
   ISIF   =      2    stress and relaxation
   IWAVPR =     10    prediction:  0-non 1-charg 2-wave 3-comb
   ISYM   =      2    0-nonsym 1-usesym 2-fastsym
   LCORR  =      T    Harris-Foulkes like correction to forces

   POTIM  = 0.5000    time-step for ionic-motion
   TEIN   =    0.0    initial temperature
   TEBEG  =    0.0;   TEEND  =   0.0 temperature during run
   SMASS  =  -3.00    Nose mass-parameter (am)
   estimated Nose-frequenzy (Omega)   =  0.10E-29 period in steps =****** mass=  -0.232E-26a.u.
   SCALEE = 1.0000    scale energy and forces
   NPACO  =    256;   APACO  = 16.0  distance and # of slots for P.C.
   PSTRESS=    0.0 pullay stress

  Mass of Ions in am
   POMASS =  58.69 32.07
  Ionic Valenz
   ZVAL   =  16.00  6.00
  Atomic Wigner-Seitz radii
  virtual crystal weights
   VCA    =   1.00  1.00
   NELECT =     792.0000    total number of electrons
   NUPDOWN=      -1.0000    fix difference up-down

 DOS related values:
   EMIN   =  10.00;   EMAX   =-10.00  energy-range for DOS
   EFERMI =   0.00
   ISMEAR =     0;   SIGMA  =   0.20  broadening in eV -4-tet -1-fermi 0-gaus

 Electronic relaxation 2 (details)
   IALGO  =     38    algorithm
[...]
  Fock        0.00000     0.00000     0.00000     0.00000     0.00000     0.00000
  Total      82.01439    78.51520   104.56905     3.23087     1.12591    -4.06422
  in kB      67.46353    64.58517    86.01659     2.65765     0.92615    -3.34315

 VOLUME and BASIS-vectors are now :
  energy-cutoff  :      450.00
  volume of cell :     1947.74
      direct lattice vectors                 reciprocal lattice vectors
    10.079732985  0.000000000  0.000000000     0.099208977 -0.037612667  0.000000000
     3.573298043  9.425102554  0.000000000     0.000000000  0.106099641  0.000000000
     0.000000000  0.000000000 20.502009576     0.000000000  0.000000000  0.048775706

  length of vectors
    10.079732985 10.079732985 20.502009576     0.106099641  0.106099641  0.048775706

 FORCES acting on ions
    electron-ion (+dipol)            ewald-force                    non-local-force                 convergence-correction
   0.416E+03 -.633E+03 0.372E+04   -.421E+03 0.637E+03 -.372E+04   0.371E+01 -.345E+01 0.228E+01   -.238E-01 0.205E-01 -.575E-01
   0.385E+03 -.158E+03 0.339E+03   -.385E+03 0.159E+03 -.339E+03   0.432E+00 -.871E+00 -.753E-01   -.143E+00 0.345E-01 -.358E-01
   0.245E+03 -.326E+03 -.219E+04   -.246E+03 0.329E+03 0.219E+04   0.103E+01 -.205E+01 0.285E+01   -.454E-01 0.381E-01 -.205E-01
   0.394E+02 0.206E+03 -.532E+04   -.411E+02 -.207E+03 0.533E+04   0.414E+00 0.645E+00 -.645E+01   0.594E-01 -.108E-01 0.115E+00
   -.423E+03 0.107E+03 0.500E+04   0.424E+03 -.104E+03 -.501E+04   -.646E+00 -.260E+01 0.881E+01   0.178E-01 -.209E-01 -.505E-01
   -.537E+03 0.150E+03 0.297E+04   0.541E+03 -.152E+03 -.297E+04   -.242E+01 0.151E+01 -.418E+00   -.732E-01 0.419E-01 -.990E-01
   0.271E+03 0.183E+03 -.392E+04   -.274E+03 -.184E+03 0.393E+04   0.257E+01 0.206E+00 -.235E+01   -.656E-03 -.615E-02 -.973E-01
   0.402E+03 -.209E+03 -.501E+03   -.403E+03 0.210E+03 0.500E+03   0.139E+01 -.111E+01 0.134E+01   -.193E-02 -.922E-03 -.817E-01
   0.404E+03 -.143E+03 0.136E+04   -.405E+03 0.144E+03 -.135E+04   0.588E+00 -.572E+00 -.284E+01   0.134E+00 -.368E-01 -.236E-01
   0.436E+03 -.305E+03 -.174E+04   -.437E+03 0.307E+03 0.174E+04   0.901E+00 -.119E+01 0.182E+01   0.857E-01 -.234E-01 -.694E-01
   0.318E+03 -.328E+03 -.475E+04   -.316E+03 0.328E+03 0.475E+04   -.159E+01 0.467E+00 -.246E+01   -.841E-03 0.144E-01 -.304E-01
   0.576E+03 0.318E+03 0.459E+04   -.581E+03 -.317E+03 -.459E+04   0.475E+01 -.592E+00 0.542E+01   0.145E-01 -.153E-01 -.145E+00
   0.728E+01 0.886E+03 -.383E+04   -.895E+01 -.894E+03 0.383E+04   0.526E+00 0.515E+01 0.723E+00   0.424E-01 -.922E-02 0.270E-01
   -.401E+03 0.552E+03 0.532E+04   0.401E+03 -.550E+03 -.532E+04   0.765E+00 -.289E+01 0.290E+01   -.322E-01 -.166E-01 -.118E+00
   -.219E+03 0.715E+03 0.262E+04   0.220E+03 -.717E+03 -.262E+04   -.101E+01 0.302E+01 -.427E+00   -.113E+00 -.977E-01 -.136E+00
   -.751E+02 0.536E+03 -.437E+03   0.745E+02 -.536E+03 0.435E+03   0.437E+00 -.134E+00 0.209E+01   -.405E-01 -.846E-01 -.559E-01
   0.173E+02 0.211E+03 0.124E+04   -.172E+02 -.210E+03 -.123E+04   0.182E+00 -.464E+00 -.185E+00   0.623E-01 0.425E-01 0.225E-01
   0.729E+02 0.601E+03 -.188E+04   -.728E+02 -.603E+03 0.187E+04   0.318E+00 0.164E+01 0.244E+01   0.317E-01 -.109E-01 -.955E-01
   0.958E+03 0.101E+03 -.428E+04   -.960E+03 -.101E+03 0.428E+04   0.190E+01 -.113E+01 -.355E+01   -.576E-01 -.417E-01 -.239E-01
   0.316E+03 -.871E+03 0.452E+04   -.317E+03 0.876E+03 -.452E+04   0.886E+00 -.364E+01 0.423E+01   0.481E-01 0.549E-01 -.474E-01
   0.288E+03 0.516E+03 0.392E+04   -.288E+03 -.520E+03 -.392E+04   -.166E+00 0.415E+01 0.204E+01   0.129E+00 -.170E-01 -.657E-01
   -.188E+02 0.483E+03 0.438E+03   0.192E+02 -.485E+03 -.438E+03   -.509E+00 0.130E+01 -.392E+00   0.808E-02 0.741E-01 -.342E-01
   -.568E+02 0.236E+03 -.250E+04   0.563E+02 -.239E+03 0.250E+04   -.177E+00 0.403E+01 0.131E+01   0.291E-04 0.213E-01 -.193E-01
   -.595E+03 0.251E+02 -.518E+04   0.597E+03 -.254E+02 0.518E+04   -.770E+00 -.129E+00 0.173E+01   0.392E-02 0.363E-01 0.610E-01
   -.112E+04 -.558E+03 -.455E+04   0.113E+04 0.563E+03 0.455E+04   -.685E+00 -.241E+01 -.632E+00   0.622E-01 0.221E-01 0.811E-01
   -.521E+03 -.337E+03 0.453E+04   0.525E+03 0.338E+03 -.454E+04   -.391E+01 -.168E+01 0.300E+01   -.104E-01 0.105E+00 -.106E+00
   -.472E+03 -.266E+03 0.139E+04   0.472E+03 0.266E+03 -.139E+04   -.464E+00 -.353E+00 -.842E+00   -.134E-01 0.955E-01 -.700E-01
   -.669E+03 -.288E+03 -.163E+04   0.669E+03 0.289E+03 0.163E+04   0.245E+00 -.123E+01 0.206E+01   0.675E-01 0.444E-01 0.345E-01
   0.538E+03 -.399E+02 0.339E+04   -.543E+03 0.406E+02 -.339E+04   0.356E+01 -.996E+00 0.317E+01   -.981E-02 -.727E-01 -.656E-01
   -.296E+03 -.134E+03 0.330E+03   0.296E+03 0.132E+03 -.327E+03   0.219E-01 0.957E+00 -.125E+01   -.150E-01 -.906E-01 -.331E-01
   -.135E+03 -.230E+03 -.274E+04   0.137E+03 0.234E+03 0.273E+04   -.152E+01 -.340E+01 0.122E+01   0.182E-01 -.606E-02 -.122E+00
   0.423E+03 -.186E+03 -.508E+04   -.420E+03 0.188E+03 0.508E+04   -.389E+01 -.167E+01 -.224E+01   0.133E-01 0.527E-01 0.508E-01
   0.138E+02 -.439E+02 0.498E+04   -.118E+02 0.457E+02 -.499E+04   -.183E+01 -.268E+01 0.956E+01   0.446E-01 -.303E-01 -.692E-01
   -.334E+03 -.154E+03 0.222E+04   0.335E+03 0.153E+03 -.222E+04   -.125E+01 0.982E+00 -.337E+01   0.742E-01 -.598E-01 -.546E-01
   -.343E+03 -.290E+03 -.541E+03   0.343E+03 0.291E+03 0.541E+03   -.138E+00 -.124E+01 0.277E+00   -.758E-01 -.407E-01 -.900E-01
   -.403E+03 0.993E+02 -.376E+04   0.405E+03 -.100E+03 0.376E+04   -.903E+00 0.986E+00 -.797E+00   -.522E-01 -.354E-01 -.602E-01
   -.204E+03 0.115E+02 -.690E+03   0.205E+03 -.114E+02 0.687E+03   -.137E+01 0.390E+00 0.149E+01   0.569E-01 -.177E-01 -.287E-02
   -.153E+03 0.365E+02 -.183E+04   0.154E+03 -.374E+02 0.183E+04   -.848E+00 0.391E+00 -.486E+00   0.202E-01 0.795E-02 0.169E-01
   -.200E+03 0.100E+03 0.175E+04   0.202E+03 -.101E+03 -.175E+04   -.350E+00 0.861E+00 0.299E+01   -.172E-01 -.128E-02 -.721E-01
   -.944E+02 0.554E+02 0.446E+03   0.954E+02 -.557E+02 -.447E+03   -.125E+01 0.720E+00 0.184E+01   0.118E-01 -.170E-01 -.279E-01
   0.758E+00 -.209E+03 0.143E+04   0.416E+00 0.210E+03 -.143E+04   -.562E+00 -.378E+00 0.257E+01   0.119E-02 -.167E-01 -.102E-01
   -.156E+03 -.127E+02 0.348E+02   0.158E+03 0.121E+02 -.370E+02   -.102E+01 0.158E+01 0.110E+01   -.246E-01 -.866E-02 -.103E-01
   0.255E+03 0.206E+02 -.108E+04   -.256E+03 -.210E+02 0.108E+04   0.504E+00 -.434E+00 0.142E+01   -.246E-01 0.151E-01 -.366E-01
   0.184E+03 -.435E+02 -.218E+04   -.184E+03 0.428E+02 0.219E+04   -.824E+00 0.110E+01 -.237E+01   0.371E-02 -.510E-03 0.659E-01
   0.119E+03 0.871E+02 0.219E+04   -.120E+03 -.878E+02 -.219E+04   0.879E+00 0.246E+00 0.334E+01   0.337E-01 -.227E-01 -.244E-01
   -.135E+03 0.962E+02 0.684E+03   0.135E+03 -.980E+02 -.681E+03   -.801E+00 0.167E+01 -.913E+00   0.419E-02 0.775E-02 -.275E-01
   -.144E+03 0.796E+02 -.253E+03   0.145E+03 -.804E+02 0.251E+03   -.200E+01 0.377E+00 0.258E+00   -.961E-02 0.833E-02 -.378E-01
   -.318E+03 -.503E+02 -.163E+04   0.320E+03 0.510E+02 0.163E+04   -.652E+00 -.507E+00 -.160E+01   -.334E-01 -.111E-01 0.134E-01
   0.125E+03 -.175E+03 0.194E+04   -.126E+03 0.177E+03 -.194E+04   0.903E+00 -.153E+01 0.319E+01   0.154E-01 0.121E-01 -.322E-01
   0.454E+02 -.183E+03 0.608E+03   -.464E+02 0.184E+03 -.606E+03   0.217E+00 -.165E+01 0.120E+01   -.256E-01 0.535E-01 -.200E-01
   -.834E+01 -.177E+03 -.433E+03   0.852E+01 0.180E+03 0.433E+03   -.293E+00 -.292E+01 -.101E+01   -.202E-01 0.446E-01 0.192E-01
   -.251E+03 -.205E+03 -.160E+04   0.251E+03 0.209E+03 0.160E+04   0.750E+00 -.237E+01 -.194E+01   0.138E-01 0.272E-01 0.416E-01
   -.323E+03 0.410E+02 0.162E+04   0.326E+03 -.402E+02 -.163E+04   -.124E+01 0.188E+00 0.185E+01   -.460E-01 -.277E-01 -.420E-01
   0.115E+03 -.131E+03 0.437E+03   -.117E+03 0.133E+03 -.437E+03   0.719E+00 -.228E+01 0.851E+00   -.376E-01 -.449E-01 -.231E-01
   -.204E+02 -.180E+03 -.934E+03   0.208E+02 0.183E+03 0.934E+03   0.169E+00 -.150E+01 -.154E+01   0.297E-02 -.146E-01 -.450E-01
   0.253E+03 0.546E+02 -.203E+04   -.256E+03 -.538E+02 0.204E+04   0.871E+00 -.793E+00 -.186E+01   0.344E-02 -.193E-02 0.167E-01
   0.493E+02 -.423E+01 0.987E+03   -.493E+02 0.426E+01 -.982E+03   0.403E+00 0.872E+00 -.176E+01   0.464E-01 0.662E-02 -.139E-01
   0.300E+02 -.145E+03 -.200E+03   -.301E+02 0.148E+03 0.201E+03   -.715E-01 -.259E+01 -.110E+01   0.306E-01 -.114E-01 -.604E-03
   0.243E+03 -.296E+03 -.138E+04   -.245E+03 0.300E+03 0.138E+04   0.111E+01 -.306E+01 -.220E+01   -.264E-01 -.118E-01 -.425E-01
   0.150E+03 -.494E+02 0.228E+04   -.152E+03 0.508E+02 -.229E+04   0.916E+00 -.701E+00 0.423E+01   0.913E-02 -.391E-02 -.699E-01
   0.774E+02 -.191E+03 0.229E+04   -.773E+02 0.193E+03 -.230E+04   -.340E+00 -.135E+01 0.142E+01   -.123E-02 -.214E-03 -.467E-01
   0.715E+02 0.105E+03 0.103E+04   -.723E+02 -.107E+03 -.102E+04   -.439E-01 0.234E+01 -.149E+01   -.293E-01 -.202E-01 -.272E-01
   0.134E+03 0.850E+02 0.368E+02   -.137E+03 -.861E+02 -.365E+02   0.246E+01 0.129E+01 -.115E+00   -.605E-01 -.234E-01 -.316E-01
   0.313E+00 0.305E+03 -.111E+04   -.505E+00 -.309E+03 0.111E+04   -.681E-01 0.222E+01 0.866E+00   -.127E-01 -.159E-01 0.698E-03
   -.109E+03 0.265E+03 -.227E+04   0.108E+03 -.267E+03 0.228E+04   0.685E+00 0.546E+00 -.213E+01   0.970E-02 0.516E-02 0.740E-01
   0.167E+03 0.126E+03 -.485E+03   -.169E+03 -.128E+03 0.485E+03   0.271E+00 0.118E+01 -.933E+00   0.468E-01 0.208E-01 -.323E-01
   -.199E+03 0.103E+03 0.200E+04   0.201E+03 -.105E+03 -.201E+04   -.194E+01 -.557E+00 0.190E+01   -.506E-02 0.438E-01 -.289E-01
   0.129E+03 -.955E+02 0.830E+03   -.131E+03 0.952E+02 -.832E+03   0.285E+01 0.460E+00 0.143E+01   0.345E-01 0.565E-01 -.435E-02
   0.295E+03 0.125E+03 0.193E+04   -.298E+03 -.127E+03 -.194E+04   0.146E+01 0.664E+00 0.155E+01   0.154E-01 -.116E-01 -.701E-01
   0.513E+02 0.889E+02 0.283E+03   -.510E+02 -.904E+02 -.281E+03   0.211E+00 0.116E+01 -.990E+00   0.506E-01 -.172E-01 0.134E-01
   0.196E+03 0.914E+02 -.745E+03   -.199E+03 -.931E+02 0.744E+03   0.221E+01 0.744E+00 -.970E+00   0.896E-02 0.165E-01 -.349E-01
   0.111E+03 -.142E+03 -.202E+04   -.111E+03 0.142E+03 0.203E+04   -.177E+00 0.128E+00 -.207E+01   0.297E-01 0.356E-02 0.245E-01
   -.675E+01 0.149E+02 -.369E+02   0.000E+00 0.540E-12 -.500E-11   0.647E+01 -.150E+02 0.390E+02   0.283E+00 -.380E-03 -.211E+01

 POSITION                                       TOTAL-FORCE (eV/Angst)
      6.45801      7.08167      1.94264        -0.604355      0.517106      2.096005
      7.43572      5.66537      4.56814         0.023846      0.149657      0.295277
      8.41343      4.24907      7.19364         0.766311      0.509153     -0.812007
      9.02211      3.16268      9.56138        -1.196069      0.221653      1.003376
      6.21150      1.60581      1.48429        -0.149597      0.414424     -1.005027
      7.76163      0.32617      2.81780         1.468116     -1.073982      2.137939
      3.04811      7.12921      7.82447        -0.783629     -0.702391      0.915400
     12.31264      8.33497      5.44331         0.280588      0.000417      0.144437
      2.55881      2.99577      3.69297         0.152287      0.351160      1.383840
      3.53652      1.57947      6.31847         0.142323      0.013613     -0.184054
      4.37077      0.29225      8.66731         0.526742      0.258303      1.202554
     11.63807      4.43853      1.63337        -0.596385     -0.229131     -0.509661
      0.51382      1.09100      8.43180        -1.106079     -2.031755     -2.123731
      7.78916      5.25938      0.99231         0.852932     -0.549766     -1.020631
      8.63813      3.92359      3.18079        -0.105319      0.231831      0.705073
      9.61584      2.50729      5.80630        -0.188468     -0.086506     -0.083899
      3.43531      6.59319      4.05596         0.339355     -0.032597      1.465869
      4.32834      5.30316      6.36195         0.460142     -1.051848      0.801531
      6.79477      3.18409      8.61894        -0.754190     -1.027127      0.094265
      2.80507      6.77051      1.81101        -0.502003      1.006457      0.059767
      3.76121      1.25399      2.30563        -0.023556      0.029639      0.186259
      8.31222      9.26279      4.93113        -0.082444     -0.411695     -0.186823
      9.28993      7.84650      7.55663        -0.736087      0.693448     -2.476008
     10.00800      6.61632      9.45174         0.842233     -0.365414      1.077781
      1.48055      3.14424      8.96006         1.698722      2.167673      0.362576
      9.00663      7.42449      1.64583         0.113377     -0.290679     -1.106608
      9.84053      6.03956      3.87447        -0.126153      0.095743      0.186128
     10.81824      4.62327      6.49997         0.391593     -0.006432      0.056446
      1.11364      0.83287      3.00888        -0.882979     -0.359837     -0.587090
      4.63771      8.70917      4.74963         0.060912     -0.808068      0.798770
      5.61542      7.29287      7.37514         0.894564      0.353094     -1.844870
      6.76025      6.29154      9.48762        -0.469113      0.754873      0.731858
      4.75645      5.04031      1.13590         0.236243     -0.827608      0.458780
      4.96362      3.36996      2.99930         0.099072      0.055664      1.587661
      5.94133      1.95367      5.62480         0.230426     -0.020934     -0.006437
      6.87672      0.64927      7.98461         0.610178      0.190301      0.980370
      1.57981      2.47018      6.99321        -0.316391      0.465820     -1.718765
      2.55475      1.27083      9.02945         0.540482     -0.565102      1.908295
      9.70412      5.30277      1.74220         1.052924      0.000533     -0.479722
     10.68183      3.88647      4.36771        -0.221452      0.405368      0.350255
      4.50130      7.97237      2.61737         0.613296      0.524481     -0.862497
      5.47901      6.55607      5.24287         1.301371      1.010658     -1.022798
      6.45673      5.13978      7.86838        -0.425267     -0.807008     -2.593714
      7.46466      4.41918     10.15709        -0.602589      0.413362      2.943115
      4.62403      2.83752      1.03053         0.189887     -0.541560     -3.145802
      5.80492      1.21687      3.49254        -0.819444     -0.140949      2.380770
     10.35593      9.22568      6.11804        -0.331596     -0.386217     -2.237384
     11.19624      8.00457      8.48348         1.588676      0.235915      1.842650
      7.42606      8.81862      1.30235        -0.251356      0.749236     -1.907193
      8.17302      7.52069      3.50880        -0.739308     -0.321062      2.961053
      9.15074      6.10439      6.13430        -0.126611     -0.246244     -0.360068
     10.12845      4.68809      8.75980         1.022718      1.555988     -0.869432
      8.12092      2.22665      2.07606         2.018591      0.915610     -1.838909
      9.47664      0.76519      4.38397        -0.609314      0.090839      0.392426
      3.94792      8.77399      7.00947         0.596279      1.713190     -0.959206
      4.70771      6.80941      9.10795        -1.434458      0.067111      3.501593
      3.29611      4.85108      2.63363         0.427832      0.911181      3.292493
      4.27382      3.43479      5.25914        -0.133575      0.057240     -0.333450
      5.25153      2.01849      7.88464        -0.439703      0.961611     -0.611500
      2.83107      5.43149      0.26861        -0.621582      0.617180     -3.467622
      6.16411      6.15581      0.13910        -0.245190      0.435193     -4.157237
      6.64193      4.82628      2.62550        -0.893176      0.350241      1.929693
      7.61964      3.40999      5.25100        -0.082495      0.115975      0.132665
      8.59735      1.99369      7.87651        -0.272680     -1.451675     -0.996042
     10.49195      1.97059     10.29096         0.265643     -1.024428      3.871044
      2.41682      6.07959      6.12617        -1.673333     -0.741948     -0.657161
     10.28047      9.02747      1.22175         0.816053     -1.689749     -3.015099
     11.51884      7.49589      3.50067         0.042839      0.164602      0.254563
      1.92336      2.32053      1.83907        -1.621448     -0.731493     -2.507665
      2.74272      0.74039      4.37584         0.550345     -0.412396      0.989807
      7.29374      8.74919      7.00134        -0.557670     -0.994044     -2.417351
      8.28797      7.73978      9.43351        -0.491833      0.154101      2.623079
    total drift:                                0.001732     -0.018576      0.004705

  FREE ENERGIE OF THE ION-ELECTRON SYSTEM (eV)
  free  energy   TOTEN  =      -351.71867126 eV

  energy  without entropy=     -350.67612993  energy(sigma->0) =     -351.19740059