 vasp.5.4.4.18Apr17-6-g9f103f2a35 (build Aug 13 2019 17:33:20) gamma-only

 executed on             LinuxIFC date 2020.05.11  03:16:53

 INCAR:
 POTCAR:    PAW_PBE Ni_pv 06Sep2000
 POTCAR:    PAW_PBE S 06Sep2000
 POTCAR:    PAW_PBE Ni_pv 06Sep2000
   VRHFIN =Ni:

   TITEL  = PAW_PBE Ni_pv 06Sep2000
   POMASS =   58.690; ZVAL   =   16.000    mass and valenz
   ENMAX  =  367.986; ENMIN  =  275.989 eV

 POTCAR:    PAW_PBE S 06Sep2000
   VRHFIN =S : s2p4

   TITEL  = PAW_PBE S 06Sep2000
   POMASS =   32.066; ZVAL   =    6.000    mass and valenz
   ENMAX  =  258.689; ENMIN  =  194.016 eV

 Optimization of the real space projectors (new method)

 maximal supplied QI-value         = 18.90
 optimisation between [QCUT,QGAM] = [ 10.77, 21.73] = [ 32.49,132.25] Ry
 Optimized for a Real-space Cutoff    1.38 Angstroem

   l    n(q)    QCUT    max X(q) W(low)/X(q) W(high)/X(q)  e(spline)
   1      8    10.771     2.836    0.40E-04    0.29E-04    0.12E-06
   1      8    10.771     4.023    0.10E-03    0.48E-04    0.29E-06
   2      8    10.771    73.368    0.42E-03    0.97E-04    0.44E-06
   2      8    10.771    69.010    0.42E-03    0.99E-04    0.45E-06
   0      9    10.771    54.797    0.10E-03    0.56E-04    0.74E-07
   0      9    10.771    24.266    0.89E-04    0.49E-04    0.67E-07
 Optimization of the real space projectors (new method)

 maximal supplied QI-value         = 19.84
 optimisation between [QCUT,QGAM] = [ 10.71, 21.63] = [ 32.15,130.99] Ry
 Optimized for a Real-space Cutoff    1.19 Angstroem

   l    n(q)    QCUT    max X(q) W(low)/X(q) W(high)/X(q)  e(spline)
   0      8    10.715   187.594    0.41E-03    0.53E-04    0.66E-07
   0      8    10.715   164.243    0.41E-03    0.53E-04    0.65E-07
   1      7    10.715    67.533    0.19E-03    0.59E-03    0.68E-07
   1      7    10.715    50.729    0.19E-03    0.58E-03    0.67E-07
  PAW_PBE Ni_pv 06Sep2000               :
  PAW_PBE S 06Sep2000                   :

 POSCAR: Type_052 Type_152
  positions in cartesian coordinates
 exchange correlation table for  LEXCH =        8
   RHO(1)=    0.500       N(1)  =     2000
   RHO(2)=  100.500       N(2)  =     4000

 ion  position               nearest neighbor table
   1  0.261  0.479  0.291-  79 2.25  63 2.26  87 2.26  59 2.36  64 2.36   7 2.53  22 2.53
   2  0.355  0.385  0.419-  71 2.06  80 2.25  59 2.26  64 2.26   3 2.30  65 2.36   8 2.53  23 2.53

   3  0.331  0.393  0.519-  57 2.01  65 2.15  71 2.15   2 2.30
   4  0.167  0.073  0.162-  88 2.12  60 2.12  69 2.25  61 2.36  89 2.36  13 2.44  38 2.53  32 2.53

[...]

  46  0.868  0.739  0.257- 100 2.25 102 2.26  95 2.26 103 2.36  79 2.36  40 2.53  35 2.53
  47  0.962  0.645  0.385- 104 2.07  72 2.25 103 2.26  79 2.26  80 2.36  41 2.53  36 2.53
  48  0.500  0.872  0.257- 102 2.25  82 2.26  61 2.26  92 2.36  85 2.36  26 2.53  33 2.53
  49  0.594  0.778  0.385- 103 2.25  92 2.26  85 2.26  93 2.36  97 2.36  34 2.53  27 2.53
  50  0.692  0.691  0.496-  93 2.03  70 2.07  97 2.12 104 2.14
  51  0.906  0.965  0.128-  73 2.11  88 2.15  94 2.26  95 2.36  74 2.36  17 2.53  45 2.53
  52  0.714  0.522  0.057-  68 2.01  99 2.06  75 2.07  42 2.48  19 2.52
  53  0.073  0.167  0.306-  26 2.25  10 2.26  21 2.26   9 2.36  20 2.36
  54  0.167  0.073  0.435-   5 2.02  11 2.05  27 2.25  10 2.36  21 2.36  83 2.70
  55  0.399  0.341  0.064-  39 2.01  12 2.06   6 2.07  56 2.78
  56  0.479  0.261  0.178-  17 2.25   7 2.26  22 2.26   6 2.36  12 2.36  55 2.78
  57  0.189  0.557  0.556-   3 2.01  31 2.06  37 2.06  80 2.78
  58  0.030  0.378  0.478-  16 2.09  31 2.11  11 2.11  10 2.36  15 2.36
  59  0.436  0.472  0.350-  34 2.25   2 2.26  23 2.26   1 2.36  22 2.36
  60  0.258  0.157  0.106-  13 2.06  38 2.11   4 2.12   6 2.14
  61  0.342  0.066  0.221-   7 2.25  26 2.26  48 2.26   4 2.36  38 2.36
  62  0.079  0.492  0.102-  39 2.08  30 2.12  24 2.18   6 2.21  29 2.22
  63  0.174  0.397  0.221-   9 2.25   7 2.26   1 2.26   6 2.36  30 2.36
  64  0.268  0.303  0.350-  10 2.25   2 2.26   8 2.26   1 2.36   7 2.36
  65  0.362  0.209  0.478-  11 2.13   3 2.15  18 2.16   2 2.36   8 2.36
  66  0.573  0.167  0.306-  40 2.25  23 2.26   8 2.26  22 2.36   7 2.36  67 2.60
  67  0.664  0.080  0.410-  18 2.08  23 2.09   8 2.13  41 2.29  96 2.47  66 2.60
  68  0.886  0.354  0.061-  52 2.01  24 2.06  19 2.06
  69  0.979  0.261  0.178-   4 2.25  20 2.26   9 2.26  19 2.36  24 2.36
  70  0.687  0.547  0.551-  16 2.02  50 2.07  43 2.07  93 2.68
  71  0.502  0.383  0.473-   2 2.06  43 2.14   3 2.15  23 2.33
  72  0.936  0.472  0.350-  47 2.25  15 2.26  10 2.26  14 2.36   9 2.36
  73  0.757  0.157  0.107-  25 2.06  17 2.10  51 2.11  19 2.14
  74  0.842  0.066  0.221-  20 2.25  40 2.26  35 2.26  17 2.36  51 2.36
  75  0.583  0.482  0.106-  52 2.07  42 2.11  19 2.11  12 2.13
  76  0.674  0.397  0.221-  22 2.25  20 2.26  14 2.26  19 2.36  42 2.36
  77  0.768  0.303  0.350-  23 2.25  15 2.26  21 2.26  14 2.36  20 2.36
  78  0.895  0.221  0.472-  15 2.08   5 2.12  16 2.15  21 2.17
  79  0.073  0.667  0.306-   1 2.25  36 2.26  47 2.26  35 2.36  46 2.36
  80  0.167  0.573  0.435-  31 2.05  37 2.05   2 2.25  36 2.36  47 2.36  57 2.78
  81  0.383  0.855  0.061-  13 2.01  32 2.05  38 2.07
  82  0.479  0.761  0.178-  42 2.25  33 2.26  48 2.26  32 2.36  38 2.36
  83  0.206  0.033  0.551-  28 2.03   5 2.07  11 2.08  54 2.70
  84  0.028  0.875  0.465-  36 2.10  37 2.11   5 2.13  41 2.18
  85  0.436  0.972  0.350-   8 2.25  27 2.26  49 2.26  26 2.36  48 2.36
  86  0.248  0.660  0.093-  39 2.05  29 2.22  32 2.25  30 2.26  12 2.26
  87  0.342  0.566  0.221-  33 2.25   1 2.26  22 2.26  30 2.36  12 2.36
  88  0.083  0.982  0.105-  13 2.06   4 2.12  32 2.12  51 2.15
  89  0.174  0.897  0.221-  35 2.25  33 2.26  26 2.26  32 2.36   4 2.36
  90  0.268  0.803  0.350-  36 2.25  27 2.26  34 2.26  26 2.36  33 2.36
  91  0.362  0.709  0.478-  43 2.10  28 2.10  37 2.11  27 2.36  34 2.36
  92  0.573  0.667  0.306-  14 2.25  49 2.26  34 2.26  48 2.36  33 2.36
  93  0.667  0.573  0.435-  50 2.03  43 2.05  15 2.25  49 2.36  34 2.36  70 2.68
  94  0.885  0.855  0.050-  29 2.00  25 2.05  44 2.14  51 2.26  45 2.26
  95  0.979  0.761  0.178-  29 2.14  30 2.25  46 2.26  35 2.26  45 2.36  51 2.36
  96  0.756  0.945  0.499-  18 2.03  41 2.10  67 2.47 104 2.64
  97  0.530  0.878  0.478-  18 2.08  50 2.12  28 2.12  49 2.36  27 2.36
  98  0.936  0.972  0.350-  21 2.25  41 2.26  36 2.26  40 2.36  35 2.36
  99  0.756  0.660  0.099-  52 2.06  44 2.14  45 2.16  24 2.19  42 2.22
 100  0.842  0.566  0.221-  46 2.25  14 2.26   9 2.26  42 2.36  24 2.36
 101  0.588  0.959  0.092-  25 2.06  45 2.10  44 2.15  38 2.18  17 2.46
 102  0.674  0.897  0.221-  48 2.25  46 2.26  40 2.26  45 2.36  17 2.36
 103  0.768  0.803  0.350-  49 2.25  41 2.26  47 2.26  40 2.36  46 2.36
 104  0.870  0.695  0.465-  47 2.07  31 2.11  50 2.14  41 2.33  96 2.64

  LATTYP: Found a base centered orthorhombic cell.
 ALAT       =    11.8257374459
 B/A-ratio  =     1.6199260857
 C/A-ratio  =     1.9350716598

  Lattice vectors:

 A1 = (  11.2564630382,   0.0000000000,   0.0000000000)
 A2 = (  -5.0445621212, -10.0628203371,   0.0000000000)
 A3 = (   0.0000000000,   0.0000000000, -22.8836493875)

Analysis of symmetry for initial positions (statically):
 Subroutine PRICEL returns:
 Original cell was already a primitive cell.

 Routine SETGRP: Setting up the symmetry group for a
 base centered orthorhombic supercell.

 Subroutine GETGRP returns: Found  1 space group operations
 (whereof  1 operations were pure point group operations)
 out of a pool of  8 trial point group operations.

The static configuration has the point symmetry C_1 .

Analysis of symmetry for dynamics (positions and initial velocities):
 Subroutine PRICEL returns:
 Original cell was already a primitive cell.

 Routine SETGRP: Setting up the symmetry group for a
 base centered orthorhombic supercell.

 Subroutine GETGRP returns: Found  1 space group operations
 (whereof  1 operations were pure point group operations)
 out of a pool of  8 trial point group operations.

The dynamic configuration has the point symmetry C_1 .

 Subroutine INISYM returns: Found  1 space group operations
 (whereof  1 operations are pure point group operations),
 and found     1 'primitive' translations

 KPOINTS: gamma-point-only calculation. no periodi

Automatic generation of k-mesh.
Space group operators:
 irot       det(A)        alpha          n_x          n_y          n_z        tau_x        tau_y        tau_z
    1     1.000000     0.000001     1.000000     0.000000     0.000000     0.000000     0.000000     0.000000

 Subroutine IBZKPT returns following result:

 Found      1 irreducible k-points:

 Following reciprocal coordinates:
            Coordinates               Weight
  0.000000  0.000000  0.000000      1.000000

 Following cartesian coordinates:
            Coordinates               Weight
  0.000000  0.000000  0.000000      1.000000

 SYSTEM =  "Millerite NiS"
 POSCAR =  Type_052 Type_152

 Startparameter for this run:
   NWRITE =      2    write-flag & timer
   PREC   = normal    normal or accurate (medium, high low for compatibility)
   ISTART =      0    job   : 0-new  1-cont  2-samecut
   ICHARG =      2    charge: 1-file 2-atom 10-const
   ISPIN  =      1    spin polarized calculation?
   LNONCOLLINEAR =      F non collinear calculations
   LSORBIT =      F    spin-orbit coupling
   INIWAV =      1    electr: 0-lowe 1-rand  2-diag
   LASPH  =      F    aspherical Exc in radial PAW
   METAGGA=      F    non-selfconsistent MetaGGA calc.

 Electronic Relaxation 1
   ENCUT  =  450.0 eV  33.07 Ry    5.75 a.u.  19.47 19.47 39.58*2*pi/ulx,y,z
   ENINI  =  450.0     initial cutoff
   ENAUG  =  703.4 eV  augmentation charge cutoff
   NELM   =    100;   NELMIN=  2; NELMDL= -5     # of ELM steps
   EDIFF  = 0.1E-03   stopping-criterion for ELM
   LREAL  =      T    real-space projection
   NLSPLINE    = F    spline interpolate recip. space projectors
   LCOMPAT=      F    compatible to vasp.4.4
   GGA_COMPAT  = T    GGA compatible to vasp.4.4-vasp.4.6
   LMAXPAW     = -100 max onsite density
   LMAXMIX     =    2 max onsite mixed and CHGCAR
   VOSKOWN=      0    Vosko Wilk Nusair interpolation
   ROPT   =   -0.00050  -0.00050
 Ionic relaxation
   EDIFFG = 0.1E-02   stopping-criterion for IOM
   NSW    =      0    number of steps for IOM
   NBLOCK =      1;   KBLOCK =      1    inner block; outer block
   IBRION =     -1    ionic relax: 0-MD 1-quasi-New 2-CG
   NFREE  =      0    steps in history (QN), initial steepest desc. (CG)
   ISIF   =      2    stress and relaxation
   IWAVPR =     10    prediction:  0-non 1-charg 2-wave 3-comb
   ISYM   =      2    0-nonsym 1-usesym 2-fastsym
   LCORR  =      T    Harris-Foulkes like correction to forces

   POTIM  = 0.5000    time-step for ionic-motion
   TEIN   =    0.0    initial temperature
   TEBEG  =    0.0;   TEEND  =   0.0 temperature during run
   SMASS  =  -3.00    Nose mass-parameter (am)
   estimated Nose-frequenzy (Omega)   =  0.10E-29 period in steps =****** mass=  -0.290E-26a.u.
   SCALEE = 1.0000    scale energy and forces
   NPACO  =    256;   APACO  = 16.0  distance and # of slots for P.C.
   PSTRESS=    0.0 pullay stress

  Mass of Ions in am
[...]
     0.000000000  0.000000000 22.883649388     0.000000000  0.000000000  0.043699324

  length of vectors
    11.256463038 11.256463038 22.883649388     0.099375718  0.099375718  0.043699324

 FORCES acting on ions
    electron-ion (+dipol)            ewald-force                    non-local-force                 convergence-correction
   0.208E+03 -.357E+03 -.209E+03   -.208E+03 0.358E+03 0.208E+03   0.716E+00 -.130E+01 0.139E+00   0.425E-01 0.101E-01 0.349E+00
   0.653E+02 -.202E+03 -.303E+04   -.673E+02 0.204E+03 0.303E+04   0.105E+01 -.141E+01 0.231E+00   0.243E-01 0.718E-01 0.625E+00
   -.316E+03 0.369E+03 -.592E+04   0.318E+03 -.368E+03 0.592E+04   -.810E+00 -.285E+01 -.274E+01   0.674E-01 0.112E-01 0.532E-01
   0.312E+03 -.580E+03 0.282E+04   -.314E+03 0.583E+03 -.282E+04   0.180E+01 -.286E+01 -.116E+01   -.132E+00 0.766E-01 0.128E+01
   0.773E+03 0.138E+03 -.535E+04   -.776E+03 -.141E+03 0.536E+04   0.199E+01 0.361E+01 -.196E+01   0.141E+00 -.214E-01 0.183E+00
   0.293E+03 0.796E+03 0.405E+04   -.295E+03 -.800E+03 -.405E+04   0.118E+01 0.276E+01 0.711E+00   0.132E-01 0.123E+00 0.837E+00
   0.223E+03 0.465E+03 0.900E+03   -.224E+03 -.466E+03 -.901E+03   0.914E+00 0.502E+00 0.122E+01   0.487E-01 0.170E+00 0.584E+00
   0.192E+03 0.321E+03 -.216E+04   -.197E+03 -.322E+03 0.215E+04   0.351E+01 0.101E+01 0.773E+00   0.218E-01 0.275E-01 0.261E+00
   -.484E+03 0.444E+02 0.882E+03   0.485E+03 -.439E+02 -.883E+03   -.818E+00 -.694E+00 0.775E+00   -.292E-01 0.117E+00 0.524E+00
   -.453E+03 -.201E+01 -.209E+04   0.455E+03 0.289E+01 0.209E+04   -.152E+01 -.976E+00 0.267E+01   -.145E-01 0.353E-01 0.216E+00
   -.280E+03 -.123E+03 -.533E+04   0.285E+03 0.124E+03 0.534E+04   -.460E+01 -.102E+01 -.233E+01   0.808E-01 -.698E-01 0.276E+00
   -.825E+03 0.620E+02 0.406E+04   0.828E+03 -.610E+02 -.406E+04   -.263E+01 -.680E+00 0.627E+00   -.231E-01 0.305E-02 0.799E+00
   0.241E+03 -.475E+03 0.628E+04   -.241E+03 0.476E+03 -.629E+04   -.373E+00 0.569E+00 0.603E+01   -.138E+00 0.667E-01 0.111E+00
   0.282E+03 -.348E+03 -.210E+03   -.283E+03 0.349E+03 0.209E+03   0.661E+00 -.110E+01 0.872E-01   0.572E-01 -.167E-01 0.352E+00
   0.414E+03 -.229E+03 -.305E+04   -.415E+03 0.232E+03 0.304E+04   0.131E+01 -.230E+01 0.121E+01   -.120E+00 0.224E-01 0.628E+00
   0.203E+03 0.275E+03 -.593E+04   -.206E+03 -.272E+03 0.593E+04   0.325E+01 -.358E+01 -.150E+01   -.102E+00 -.387E-02 0.105E+00
   0.409E+03 -.681E+03 0.274E+04   -.412E+03 0.683E+03 -.274E+04   0.183E+01 -.188E+01 -.113E+01   0.717E-01 -.436E-01 0.971E+00
   -.377E+03 -.592E+02 -.530E+04   0.373E+03 0.594E+02 0.530E+04   0.292E+01 0.462E+00 -.197E+01   -.187E+00 0.615E-01 0.187E+00
   0.307E+03 0.699E+03 0.410E+04   -.308E+03 -.703E+03 -.410E+04   0.108E+01 0.276E+01 0.140E+01   -.574E-01 -.378E-01 0.744E+00
   0.258E+03 0.450E+03 0.868E+03   -.258E+03 -.451E+03 -.869E+03   0.838E+00 0.480E+00 0.935E+00   -.104E-01 0.225E-01 0.591E+00
   0.457E+03 0.438E+03 -.223E+04   -.458E+03 -.439E+03 0.223E+04   0.167E+01 0.100E+01 0.221E+01   -.135E+00 -.399E-01 0.242E+00
   -.541E+03 0.110E+02 0.880E+03   0.542E+03 -.104E+02 -.882E+03   -.826E+00 -.611E+00 0.103E+01   -.153E+00 0.626E-01 0.595E+00
   -.672E+03 0.497E+02 -.254E+04   0.675E+03 -.465E+02 0.254E+04   -.303E+01 -.216E+01 -.621E+00   -.435E-01 0.597E-01 0.278E+00
   -.598E+03 0.295E+03 0.400E+04   0.603E+03 -.296E+03 -.400E+04   -.308E+01 0.458E+00 0.818E+00   0.180E+00 0.969E-01 0.766E+00
   0.738E+02 -.105E+04 0.611E+04   -.744E+02 0.106E+04 -.611E+04   0.176E+00 -.436E+01 0.286E+01   0.159E+00 0.508E-01 0.195E+00
   0.250E+03 -.415E+03 -.177E+03   -.250E+03 0.416E+03 0.177E+03   0.499E+00 -.101E+01 -.189E+00   0.383E-01 -.223E+00 0.422E+00
   0.206E+03 -.375E+03 -.301E+04   -.207E+03 0.376E+03 0.301E+04   0.252E+00 -.971E+00 -.961E-01   -.192E-02 -.609E-01 0.631E+00
   -.120E+03 0.252E+02 -.597E+04   0.119E+03 -.216E+02 0.597E+04   0.190E+01 -.427E+01 0.725E+00   -.433E-02 -.344E-01 0.289E-01
   -.105E+03 -.142E+03 0.529E+04   0.106E+03 0.141E+03 -.529E+04   -.884E+00 0.133E+01 0.451E+01   -.816E-01 0.816E-01 0.523E+00
   0.749E-01 -.137E+03 0.243E+04   0.167E+01 0.136E+03 -.243E+04   -.760E+00 -.505E+00 -.350E+01   -.133E+00 0.148E+00 0.786E+00
   0.367E+03 -.944E+02 -.535E+04   -.371E+03 0.929E+02 0.535E+04   0.280E+01 0.159E+01 -.303E+01   0.142E+00 -.245E+00 0.206E+00
   0.169E+03 0.641E+03 0.405E+04   -.171E+03 -.645E+03 -.405E+04   0.127E+01 0.264E+01 0.132E+01   -.254E+00 -.441E+00 0.102E+01
   0.220E+03 0.461E+03 0.892E+03   -.221E+03 -.462E+03 -.893E+03   0.993E+00 0.649E+00 0.958E+00   -.323E-01 0.113E+00 0.645E+00
   0.234E+03 0.477E+03 -.208E+04   -.235E+03 -.477E+03 0.208E+04   0.121E+01 0.290E+00 0.180E+01   -.929E-01 0.802E-01 0.279E+00
   -.543E+03 -.885E+02 0.762E+03   0.545E+03 0.899E+02 -.762E+03   -.121E+01 -.107E+01 -.153E-01   -.235E+00 -.112E+00 0.543E+00
   -.412E+03 -.889E+02 -.214E+04   0.414E+03 0.888E+02 0.213E+04   -.293E+01 -.330E+00 0.198E+01   0.445E-01 0.238E-01 0.430E-01
   -.104E+03 -.359E+03 -.532E+04   0.107E+03 0.361E+03 0.532E+04   -.317E+01 -.192E+01 -.279E+01   0.288E+00 -.153E+00 0.186E+00
   -.617E+03 -.729E+02 0.400E+04   0.621E+03 0.731E+02 -.400E+04   -.283E+01 -.450E+00 0.118E+01   0.273E+00 -.787E-01 0.104E+01
   -.103E+03 0.192E+03 0.645E+04   0.104E+03 -.194E+03 -.645E+04   -.166E+01 0.278E+01 0.575E+01   -.126E+00 0.157E+00 0.289E+00
   0.224E+03 -.452E+03 -.266E+03   -.225E+03 0.453E+03 0.265E+03   0.575E+00 -.808E+00 0.728E+00   0.155E+00 -.256E+00 0.310E+00
   0.157E+03 -.536E+03 -.360E+04   -.156E+03 0.536E+03 0.360E+04   -.177E+00 -.144E+00 -.656E+00   -.326E-01 0.685E-01 -.447E-02
   0.413E+03 -.439E+03 0.276E+04   -.414E+03 0.442E+03 -.276E+04   0.174E+01 -.286E+01 -.184E+01   0.164E-01 0.184E-01 0.949E+00
   0.254E+03 0.518E+03 -.523E+04   -.258E+03 -.522E+03 0.524E+04   0.352E+01 0.284E+01 -.215E+01   -.413E-01 0.295E-01 0.225E+00
   0.569E+03 0.287E+03 0.630E+04   -.570E+03 -.287E+03 -.630E+04   0.184E+00 0.189E+00 -.200E+01   0.205E+00 -.133E+00 0.931E-01
   0.372E+03 0.364E+03 0.337E+04   -.373E+03 -.365E+03 -.336E+04   0.118E+01 0.297E+00 -.345E+01   0.321E+00 -.206E+00 0.938E+00
   0.277E+03 0.439E+03 0.738E+03   -.279E+03 -.440E+03 -.738E+03   0.152E+01 0.729E+00 0.194E+00   0.200E+00 0.194E+00 0.512E+00
   0.219E+03 0.343E+03 -.213E+04   -.220E+03 -.346E+03 0.213E+04   0.124E+01 0.180E+01 0.261E+01   0.470E-02 0.665E-01 0.232E-01
   -.487E+03 -.298E+02 0.877E+03   0.488E+03 0.303E+02 -.879E+03   -.100E+01 -.532E+00 0.966E+00   -.793E-01 -.387E-01 0.688E+00
   -.519E+03 -.363E+02 -.212E+04   0.519E+03 0.369E+02 0.211E+04   -.470E+00 -.795E+00 0.185E+01   -.934E-01 0.916E-01 0.227E+00
   -.436E+03 -.322E+03 -.535E+04   0.439E+03 0.324E+03 0.535E+04   -.255E+01 -.203E+01 -.219E+01   -.208E+00 -.898E-01 0.219E+00
   -.812E+03 -.391E+03 0.394E+04   0.815E+03 0.392E+03 -.394E+04   -.245E+01 -.198E+01 -.275E+00   -.508E-01 -.291E+00 0.816E+00
   0.447E+03 -.806E+02 0.623E+04   -.448E+03 0.797E+02 -.624E+04   0.428E+00 0.202E+01 0.560E+01   -.300E-01 -.488E-01 0.152E+00
   -.601E+02 0.119E+03 -.317E+02   0.612E+02 -.121E+03 0.299E+02   -.965E+00 0.203E+01 0.162E+01   -.124E-01 -.558E-01 0.561E-01
   -.446E+02 0.979E+02 -.114E+04   0.463E+02 -.996E+02 0.114E+04   -.685E+00 0.829E+00 0.859E+00   0.288E-01 -.127E+00 0.121E+00
   -.250E+03 0.383E+03 0.232E+04   0.252E+03 -.386E+03 -.232E+04   -.686E+00 0.922E+00 0.988E+00   0.283E-01 -.380E-01 0.125E+00
   -.866E+02 0.133E+03 0.115E+04   0.874E+02 -.135E+03 -.116E+04   -.725E+00 0.991E+00 0.204E+01   -.332E-01 0.618E-01 0.339E+00
   -.187E+01 -.897E+02 -.249E+04   0.223E+01 0.900E+02 0.250E+04   -.350E+00 0.575E+00 -.111E+01   0.131E+00 -.198E+00 -.931E-01
   -.799E+02 -.535E+02 -.177E+04   0.825E+02 0.548E+02 0.177E+04   -.217E+01 -.448E+00 -.169E+01   -.151E+00 0.360E-01 0.189E+00
   -.954E+02 -.123E+03 -.504E+03   0.968E+02 0.126E+03 0.504E+03   -.139E+01 -.275E+01 -.359E+00   -.662E-01 -.385E-02 0.555E-01
   -.897E+02 -.285E+03 0.186E+04   0.895E+02 0.287E+03 -.187E+04   0.694E+00 -.174E+00 0.137E+01   0.130E+00 0.249E+00 0.305E+00
[...]
   0.124E+03 0.710E+02 -.178E+04   -.126E+03 -.717E+02 0.178E+04   0.154E+01 0.991E+00 -.166E+01   0.863E-01 0.155E+00 0.168E+00
   -.688E+02 0.129E+03 -.310E+02   0.699E+02 -.131E+03 0.292E+02   -.102E+01 0.179E+01 0.185E+01   -.153E-01 0.268E-01 0.641E-01
   -.510E+02 0.150E+03 -.115E+04   0.515E+02 -.152E+03 0.115E+04   -.279E+00 0.110E+01 0.112E+01   0.309E-02 -.460E-01 0.143E+00
   -.313E+03 -.137E+02 0.243E+04   0.316E+03 0.124E+02 -.244E+04   -.308E+01 0.138E+01 0.290E+01   0.150E+00 -.140E+00 0.928E-01
   -.733E+02 0.610E+02 0.882E+03   0.735E+02 -.618E+02 -.881E+03   -.476E+00 0.988E+00 -.577E+00   -.126E-01 0.275E-02 0.356E+00
   -.181E+03 -.835E+02 -.224E+04   0.183E+03 0.830E+02 0.224E+04   -.661E+00 0.514E+00 -.370E+01   -.285E-01 0.217E-01 0.946E-02
   -.168E+03 -.120E+03 -.185E+04   0.169E+03 0.121E+03 0.186E+04   -.168E+01 -.367E+00 -.222E+01   -.228E+00 0.698E-02 0.161E+00
   -.553E+02 -.184E+03 -.554E+03   0.564E+02 0.187E+03 0.554E+03   -.866E+00 -.277E+01 -.438E+00   -.626E-01 -.368E-01 -.344E-01
   0.533E+02 -.396E+02 0.173E+04   -.523E+02 0.400E+02 -.173E+04   -.832E+00 0.195E+00 -.117E+01   0.959E-01 -.113E-01 0.274E+00
   -.492E+02 -.121E+03 0.596E+03   0.499E+02 0.124E+03 -.597E+03   -.657E+00 -.260E+01 0.737E+00   0.604E-01 0.402E-01 0.326E+00
   0.395E+03 -.229E+03 0.182E+04   -.398E+03 0.231E+03 -.182E+04   0.612E+00 -.711E+00 0.109E+01   0.328E-01 0.209E-01 0.221E+00
   0.199E+03 -.304E+02 0.587E+03   -.202E+03 0.307E+02 -.588E+03   0.280E+01 -.118E+00 0.350E+00   0.923E-01 -.660E-01 0.387E+00
   0.155E+03 -.177E+02 -.524E+03   -.159E+03 0.177E+02 0.524E+03   0.285E+01 -.143E+00 -.192E+00   0.678E-01 0.527E-01 -.452E-01
   0.704E+02 -.146E+03 -.182E+04   -.709E+02 0.145E+03 0.182E+04   -.284E+00 0.199E+01 -.678E+00   -.358E-01 -.138E-01 0.572E-01
   -.705E+01 0.160E+02 -.656E+02   0.611E-12 0.909E-12 0.152E-10   0.664E+01 -.150E+02 0.336E+02   0.193E+00 -.904E+00 0.319E+02

 POSITION                                       TOTAL-FORCE (eV/Angst)
      5.35228      4.81788      6.64784         0.098963     -0.234765     -0.046606
      5.93595      3.87238      9.58390        -0.926868      0.264537     -2.603827
      5.70800      3.95801     11.87523         0.403775     -1.362570      0.318399
      2.24633      0.73197      3.71178        -0.512487      0.665179      2.275439
      0.83846      0.38241     11.35782        -1.310503     -0.207232      0.308718
      4.76861      3.35453      2.93606        -0.662818     -0.861305      1.882545
      5.35228      2.40903      5.87212         0.065617      0.070124      0.027923
      5.93595      1.46353      8.80817        -0.899840      0.390186     -1.299785
      1.87746      3.73836      5.87212        -0.083915     -0.055663     -0.003516
      2.46113      2.79286      8.80817        -0.023702     -0.059920     -0.163406
      3.06071      1.91443     11.40441         0.483499      0.356618      0.386284
      6.92203      4.68386      2.93606         0.924282      0.384448      1.843154
      2.54735      0.25961      1.33375        -0.761713      1.140191     -2.043522
     10.98051      4.81788      6.64784         0.040879     -0.113004     -0.018984
     11.56418      3.87238      9.58390         0.189798      0.908983     -1.835124
     11.66063      4.01021     11.91130         0.508894     -1.093680      0.420871
      7.87456      0.73197      3.71178        -0.690909      0.175321      1.471254
      6.54614      0.47651     10.95497        -0.758499      0.742394      0.785527
     10.39684      3.35453      2.93606        -0.476772     -1.317956      2.089989
     10.98051      2.40903      5.87212        -0.068899     -0.035950      0.057006
     11.56418      1.46353      8.80817         0.487246     -0.097290     -0.598722
      7.50570      3.73836      5.87212        -0.039754     -0.003092      0.027818
      8.08937      2.79286      8.80817         0.245535      1.151014     -0.447411
     12.55026      4.68386      2.93606         1.271188      0.071277      1.760117
      8.17817      0.28825      1.30904        -0.250072      1.032704     -1.440733
      7.87456      9.84929      6.64784         0.076930     -0.202655     -0.029960
      8.45823      8.90379      9.58390        -0.111258      0.216995     -1.134923
      8.52980      8.76819     11.92895         0.280437     -0.679312      0.840537
      3.94455      7.08203      2.04531         0.450147     -0.151404     -0.674827
      4.76861      5.76338      3.71178         0.858052     -0.427078      2.528127
      3.35617      5.52546     11.40976        -0.865381     -0.228020      0.308985
      7.29089      8.38594      2.93606        -0.664920     -1.653221      2.107425
      7.87456      7.44044      5.87212         0.078652      0.079266      0.039841
      8.45823      6.49494      8.80817         0.100727      0.017925     -0.184303
      4.39975      8.76977      5.87212         0.125772      0.155937      0.054525
      4.98341      7.82427      8.80817         0.082257     -0.412246     -1.255201
      5.58461      7.01265     11.35170         0.434121      0.685755      0.257995
      9.44431      9.71527      2.93606         1.402675     -0.355634      2.081915
      5.12182      5.09765      1.21001        -0.650112      0.494093     -2.011309
     13.50279      9.84929      6.64784         0.212681     -0.295918     -0.163476
     14.08646      8.90379      9.58390         0.134140     -0.421382     -0.641904
     10.39684      5.76338      3.71178        -0.105401      0.851895      1.686254
      8.88708      5.48125     11.30103        -0.854417     -0.630127      0.162929
     12.21191      8.13643      0.78604        -0.692327     -0.521553     -1.265462
     12.91912      8.38594      2.93606         0.945205     -0.677928      3.272710
     13.50279      7.44044      5.87212        -0.087747     -0.034097      0.026892
     14.08646      6.49494      8.80817         0.291611     -0.552231     -1.544978
     10.02798      8.76977      5.87212        -0.095640      0.006796      0.070082
     10.61165      7.82427      8.80817        -0.104143     -0.113834     -0.039589
     11.26938      6.95078     11.35025         0.949539      0.360137      0.088947
     15.07254      9.71527      2.93606         0.817357     -0.490828      1.141736
     10.67212      5.24937      1.30109        -0.727265      1.061096     -1.868082
      1.66190      1.67871      7.01153         0.180057     -0.047810     -0.150161
      2.24556      0.73321      9.94759         1.010424     -0.962226     -3.244307
      6.21270      3.43002      1.46152         1.335656     -2.148875     -3.130846
      6.70646      2.62422      4.07548         0.034422     -0.414468      0.498854
      4.93967      5.60994     12.72100         0.147040      0.681107      3.756211
      2.24556      3.80055     10.93537         0.321587      0.860514      0.042012
      7.29013      4.74605      7.99931        -0.040180      0.222997     -0.163480
      3.69482      1.57785      2.41995         0.563062      1.934174     -1.305916
[...]
      7.07033      8.08475      7.99931         0.148006      0.052094     -0.106210
      7.65400      7.13925     10.93537        -0.368522      0.425228     -0.129332
      9.81241      6.71012      7.01153         0.075988     -0.072834      0.086592
     10.39608      5.76462      9.94759         0.214927     -0.730468     -2.953684
     14.27330      8.60113      1.13942         0.339882     -0.004126     -3.153513
     14.85697      7.65563      4.07548        -0.220875      0.248908      0.968531
     13.27449      9.51376     11.42738         0.636899      0.113348      2.118763
     10.39608      8.83196     10.93537        -0.847466      0.332070      0.056088
     15.44064      9.77746      7.99931         0.248329      0.210563     -0.803138
     11.83981      6.64112      2.26694         0.247141      0.661491     -0.499827
     12.33469      5.69156      5.06325         0.073022     -0.040559      0.237804
     11.45403      9.64841      2.10563        -1.775967      1.396480     -0.495839
     12.11489      9.03025      5.06325        -0.009159      0.138085      0.005929
     12.69856      8.08475      7.99931        -0.377986     -0.125311     -0.587192
     13.29602      6.99448     10.65062        -0.829585      0.543584      1.956086
    total drift:                               -0.217303      0.087755     -0.146289

  FREE ENERGIE OF THE ION-ELECTRON SYSTEM (eV)
  free  energy   TOTEN  =      -513.47908911 eV

  energy  without entropy=     -512.15641259  energy(sigma->0) =     -512.81775085