 vasp.5.4.4.18Apr17-6-g9f103f2a35 (build Aug 13 2019 17:33:20) gamma-only

 executed on             LinuxIFC date 2020.05.11  23:36:51

 INCAR:
 POTCAR:    PAW_PBE Ni_pv 06Sep2000
 POTCAR:    PAW_PBE S 06Sep2000
 POTCAR:    PAW_PBE Ni_pv 06Sep2000
   VRHFIN =Ni:

   TITEL  = PAW_PBE Ni_pv 06Sep2000
   POMASS =   58.690; ZVAL   =   16.000    mass and valenz
   ENMAX  =  367.986; ENMIN  =  275.989 eV

 POTCAR:    PAW_PBE S 06Sep2000
   VRHFIN =S : s2p4

   TITEL  = PAW_PBE S 06Sep2000
   POMASS =   32.066; ZVAL   =    6.000    mass and valenz
   ENMAX  =  258.689; ENMIN  =  194.016 eV

 Optimization of the real space projectors (new method)

 maximal supplied QI-value         = 18.90
 optimisation between [QCUT,QGAM] = [ 10.77, 21.73] = [ 32.49,132.25] Ry
 Optimized for a Real-space Cutoff    1.38 Angstroem

   l    n(q)    QCUT    max X(q) W(low)/X(q) W(high)/X(q)  e(spline)
   1      8    10.771     2.836    0.40E-04    0.29E-04    0.12E-06
   1      8    10.771     4.023    0.10E-03    0.48E-04    0.29E-06
   2      8    10.771    73.368    0.42E-03    0.97E-04    0.44E-06
   2      8    10.771    69.010    0.42E-03    0.99E-04    0.45E-06
   0      9    10.771    54.797    0.10E-03    0.56E-04    0.74E-07
   0      9    10.771    24.266    0.89E-04    0.49E-04    0.67E-07
 Optimization of the real space projectors (new method)

 maximal supplied QI-value         = 19.84
 optimisation between [QCUT,QGAM] = [ 10.71, 21.63] = [ 32.15,130.99] Ry
 Optimized for a Real-space Cutoff    1.19 Angstroem

   l    n(q)    QCUT    max X(q) W(low)/X(q) W(high)/X(q)  e(spline)
   0      8    10.715   187.594    0.41E-03    0.53E-04    0.66E-07
   0      8    10.715   164.243    0.41E-03    0.53E-04    0.65E-07
   1      7    10.715    67.533    0.19E-03    0.59E-03    0.68E-07
   1      7    10.715    50.729    0.19E-03    0.58E-03    0.67E-07
  PAW_PBE Ni_pv 06Sep2000               :
  PAW_PBE S 06Sep2000                   :

 POSCAR: Type_037 Type_137
  positions in cartesian coordinates
 exchange correlation table for  LEXCH =        8
   RHO(1)=    0.500       N(1)  =     2000
   RHO(2)=  100.500       N(2)  =     4000

 ion  position               nearest neighbor table
   1  0.780  0.145  0.118-  51 2.06  65 2.10  42 2.25  52 2.36  66 2.36
   2  0.810  0.145  0.284-  52 2.05  66 2.05  43 2.10
   3  0.215  0.603  0.090-  44 2.02  45 2.06  63 2.08   4 2.48  20 2.50  15 2.52  53 2.64
   4  0.297  0.645  0.211-  54 2.14  46 2.15  53 2.26  63 2.26  45 2.27   3 2.48  35 2.51  16 2.53
                            29 2.53
   5  0.386  0.127  0.124-  47 2.04  48 2.11  69 2.22   6 2.42  55 2.47  18 2.50
   6  0.470  0.145  0.242-  56 2.09  70 2.14  48 2.25  55 2.26  69 2.26   5 2.42  32 2.53  19 2.53

   7  0.952  0.645  0.149-  58 2.09  68 2.11  57 2.14  49 2.25  67 2.36   8 2.37  33 2.53  20 2.53

[...]

  13  0.915  0.903  0.129-  58 2.04  66 2.09  65 2.11  57 2.17  14 2.52  36 2.52
  14  0.943  0.012  0.265-  38 2.05  39 2.08  66 2.16  57 2.17  13 2.52
  15  0.358  0.646  0.057-  40 2.02  53 2.04  63 2.05  28 2.51   3 2.52
  16  0.425  0.513  0.186-  64 2.09  55 2.25  40 2.26  63 2.26  41 2.36   4 2.53  29 2.53
  17  0.540  0.449  0.304-  41 2.03  56 2.03  72 2.15  64 2.17  32 2.39
  18  0.529  0.145  0.086-  69 2.05  42 2.05  55 2.05  31 2.48   5 2.50
  19  0.597  0.013  0.217-  70 2.07  43 2.12  61 2.25  42 2.26  69 2.26  32 2.53   6 2.53
  20  0.080  0.513  0.124-  44 2.07  68 2.09  59 2.09  67 2.36  45 2.45  21 2.48   3 2.50   7 2.53
                            33 2.53
  21  0.133  0.511  0.264-  60 2.02  45 2.06  46 2.10  67 2.28  20 2.48
  22  0.252  0.013  0.155-  47 2.06  73 2.08  53 2.25  48 2.36  23 2.42   9 2.53  34 2.53  74 2.60

[...]

  26  0.910  0.289  0.115-  51 2.06  68 2.07  52 2.10  39 2.21  27 2.51
  27  0.942  0.286  0.263-  38 2.05  39 2.11  52 2.12  67 2.12  10 2.46  26 2.51
  28  0.412  0.890  0.059-  69 2.08  53 2.08  29 2.38  15 2.51  40 2.60
  29  0.425  0.777  0.186-  54 2.18  69 2.25  40 2.26  53 2.26  41 2.36  28 2.38  30 2.49   4 2.53
                            16 2.53
  30  0.454  0.806  0.333-  70 2.00  54 2.03  41 2.06  29 2.49
  31  0.618  0.351  0.084-  71 2.09  42 2.10  32 2.35  18 2.48  55 2.51
  32  0.597  0.277  0.217-  56 2.09  43 2.21  71 2.25  42 2.26  55 2.26  31 2.35  17 2.39  19 2.53
                             6 2.53
  33  0.080  0.777  0.124-  45 2.07  58 2.10  73 2.10  44 2.11  57 2.24   7 2.53  20 2.53
  34  0.252  0.277  0.155-  47 2.08  59 2.09  63 2.25  35 2.34  48 2.36  60 2.36   9 2.53  22 2.53

[...]

  38  0.955  0.151  0.358-  14 2.05  10 2.05  27 2.05
  39  0.991  0.145  0.178-  14 2.08  27 2.11  26 2.21   9 2.25  10 2.44
  40  0.474  0.645  0.085-  11 2.00  15 2.02  16 2.26  29 2.26  28 2.60
  41  0.509  0.645  0.271-  17 2.03  30 2.06  11 2.16  12 2.25  29 2.36  16 2.36  64 2.75
  42  0.647  0.145  0.116-  18 2.05  31 2.10   1 2.25  19 2.26  32 2.26  43 2.67
  43  0.686  0.138  0.272-   2 2.10  19 2.12  32 2.21  42 2.67
  44  0.113  0.642  0.029-   3 2.02  20 2.07  33 2.11  58 2.66
  45  0.165  0.680  0.195-  21 2.06   3 2.06  33 2.07   4 2.27  20 2.45  46 2.64
  46  0.240  0.569  0.319-  35 2.02  21 2.10   4 2.15  45 2.64
  47  0.283  0.144  0.061-   5 2.04  22 2.06  34 2.08
  48  0.336  0.145  0.240-  23 2.05   5 2.11   6 2.25  22 2.36  34 2.36  35 2.61
  49  0.819  0.645  0.147-  36 2.25   7 2.25  25 2.26  37 2.26  24 2.46
  50  0.831  0.641  0.325-   8 2.01  25 2.05  37 2.10  62 2.77
  51  0.818  0.288  0.033-  24 2.03  26 2.06   1 2.06
  52  0.829  0.314  0.210-   2 2.05  26 2.10  27 2.12  24 2.14  25 2.25   1 2.36
  53  0.312  0.814  0.116-  15 2.04  28 2.08  22 2.25   4 2.26  29 2.26   3 2.64
  54  0.343  0.808  0.287-  30 2.03  23 2.05   4 2.14  29 2.18
  55  0.484  0.314  0.147-  18 2.05  16 2.25   6 2.26  32 2.26   5 2.47  31 2.51
  56  0.542  0.241  0.329-  17 2.03   6 2.09  32 2.09  70 2.58
  57  0.991  0.816  0.223-   8 2.10   7 2.14  14 2.17  13 2.17  33 2.24
  58  0.978  0.778  0.053-  13 2.04   7 2.09  33 2.10  44 2.66
  59  0.142  0.326  0.107-  34 2.09  20 2.09   9 2.13  60 2.79
  60  0.174  0.314  0.272-  21 2.02  35 2.21   9 2.36  34 2.36  10 2.41  74 2.74  59 2.79
  61  0.657  0.814  0.179-  36 2.20  19 2.25  37 2.26  12 2.26  11 2.29
  62  0.693  0.794  0.343-  12 2.02  37 2.03  50 2.77
  63  0.312  0.477  0.116-  15 2.05   3 2.08  34 2.25   4 2.26  16 2.26  35 2.64
  64  0.413  0.419  0.300-  35 2.07  16 2.09  17 2.17  41 2.75
  65  0.833  0.990  0.047-  36 2.02   1 2.10  13 2.11  66 2.69
  66  0.829  0.977  0.210-   2 2.05  13 2.09  14 2.16  36 2.19  37 2.25   1 2.36  65 2.69
  67  0.001  0.477  0.241-   8 2.09  27 2.12  21 2.28  20 2.36   7 2.36  68 2.78
  68  0.969  0.467  0.076-  26 2.07  20 2.09   7 2.11  67 2.78
  69  0.484  0.977  0.147-  18 2.05  28 2.08   5 2.22  29 2.25   6 2.26  19 2.26  70 2.77
  70  0.519  0.977  0.311-  30 2.00  19 2.07   6 2.14  56 2.58  69 2.77
  71  0.657  0.477  0.179-  31 2.09  11 2.14  24 2.19  32 2.25  25 2.26  12 2.26  72 2.58
  72  0.664  0.464  0.334-  12 2.04  17 2.15  25 2.32  71 2.58
  73  0.140  0.967  0.110-   9 2.08  22 2.08  33 2.10
  74  0.160  0.029  0.280-  23 2.04   9 2.08  10 2.11  22 2.60  60 2.74

  LATTYP: Found a simple orthorhombic cell.
 ALAT       =     9.5784100000
 B/A-ratio  =     1.7276387782
 C/A-ratio  =     1.7627867312

  Lattice vectors:

 A1 = (   0.0000000000,   9.5784100000,   0.0000000000)
 A2 = (   0.0000000000,   0.0000000000, -16.5480325497)
 A3 = ( -16.8846940542,   0.0000000000,   0.0000000000)

Analysis of symmetry for initial positions (statically):
 Subroutine PRICEL returns:
 Original cell was already a primitive cell.

 Routine SETGRP: Setting up the symmetry group for a
 simple orthorhombic supercell.

 Subroutine GETGRP returns: Found  1 space group operations
 (whereof  1 operations were pure point group operations)
 out of a pool of  8 trial point group operations.

The static configuration has the point symmetry C_1 .

Analysis of symmetry for dynamics (positions and initial velocities):
 Subroutine PRICEL returns:
 Original cell was already a primitive cell.

 Routine SETGRP: Setting up the symmetry group for a
 simple orthorhombic supercell.

 Subroutine GETGRP returns: Found  1 space group operations
 (whereof  1 operations were pure point group operations)
 out of a pool of  8 trial point group operations.

The dynamic configuration has the point symmetry C_1 .

 Subroutine INISYM returns: Found  1 space group operations
 (whereof  1 operations are pure point group operations),
 and found     1 'primitive' translations

 KPOINTS: gamma-point-only calculation. no periodi

Automatic generation of k-mesh.
Space group operators:
 irot       det(A)        alpha          n_x          n_y          n_z        tau_x        tau_y        tau_z
    1     1.000000     0.000001     1.000000     0.000000     0.000000     0.000000     0.000000     0.000000

 Subroutine IBZKPT returns following result:

 Found      1 irreducible k-points:

 Following reciprocal coordinates:
            Coordinates               Weight
  0.000000  0.000000  0.000000      1.000000

 Following cartesian coordinates:
            Coordinates               Weight
  0.000000  0.000000  0.000000      1.000000

 SYSTEM =  "Millerite NiS"
 POSCAR =  Type_037 Type_137

 Startparameter for this run:
   NWRITE =      2    write-flag & timer
   PREC   = normal    normal or accurate (medium, high low for compatibility)
   ISTART =      0    job   : 0-new  1-cont  2-samecut
   ICHARG =      2    charge: 1-file 2-atom 10-const
   ISPIN  =      1    spin polarized calculation?
   LNONCOLLINEAR =      F non collinear calculations
   LSORBIT =      F    spin-orbit coupling
   INIWAV =      1    electr: 0-lowe 1-rand  2-diag
   LASPH  =      F    aspherical Exc in radial PAW
   METAGGA=      F    non-selfconsistent MetaGGA calc.

 Electronic Relaxation 1
   ENCUT  =  450.0 eV  33.07 Ry    5.75 a.u.  29.20 16.57 28.62*2*pi/ulx,y,z
   ENINI  =  450.0     initial cutoff
   ENAUG  =  703.4 eV  augmentation charge cutoff
   NELM   =    100;   NELMIN=  2; NELMDL= -5     # of ELM steps
   EDIFF  = 0.1E-03   stopping-criterion for ELM
   LREAL  =      T    real-space projection
   NLSPLINE    = F    spline interpolate recip. space projectors
   LCOMPAT=      F    compatible to vasp.4.4
   GGA_COMPAT  = T    GGA compatible to vasp.4.4-vasp.4.6
   LMAXPAW     = -100 max onsite density
   LMAXMIX     =    2 max onsite mixed and CHGCAR
   VOSKOWN=      0    Vosko Wilk Nusair interpolation
   ROPT   =   -0.00050  -0.00050
 Ionic relaxation
   EDIFFG = 0.1E-02   stopping-criterion for IOM
   NSW    =      0    number of steps for IOM
   NBLOCK =      1;   KBLOCK =      1    inner block; outer block
   IBRION =     -1    ionic relax: 0-MD 1-quasi-New 2-CG
   NFREE  =      0    steps in history (QN), initial steepest desc. (CG)
   ISIF   =      2    stress and relaxation
   IWAVPR =     10    prediction:  0-non 1-charg 2-wave 3-comb
   ISYM   =      2    0-nonsym 1-usesym 2-fastsym
   LCORR  =      T    Harris-Foulkes like correction to forces

   POTIM  = 0.5000    time-step for ionic-motion
   TEIN   =    0.0    initial temperature
   TEBEG  =    0.0;   TEEND  =   0.0 temperature during run
[...]
     0.000000000  9.578410000  0.000000000     0.000000000  0.104401461  0.000000000
     0.000000000  0.000000000 16.548032550     0.000000000  0.000000000  0.060430145

  length of vectors
    16.884694054  9.578410000 16.548032550     0.059225237  0.104401461  0.060430145

 FORCES acting on ions
    electron-ion (+dipol)            ewald-force                    non-local-force                 convergence-correction
   0.217E+03 0.307E+03 0.214E+04   -.219E+03 -.310E+03 -.214E+04   0.133E+01 0.153E+01 0.609E+01   0.256E+00 0.113E+00 -.720E-01
   0.349E+03 0.608E+02 -.302E+04   -.352E+03 -.597E+02 0.302E+04   0.277E+01 -.106E+01 -.181E+00   0.340E+00 0.899E-01 0.160E+00
   0.229E+03 0.281E+02 0.301E+04   -.228E+03 -.286E+02 -.301E+04   0.837E+00 0.646E+00 0.496E+01   -.359E+00 0.636E-01 0.742E-01
   0.534E+03 -.310E+03 -.113E+04   -.533E+03 0.309E+03 0.114E+04   -.868E+00 0.136E+01 -.500E+01   -.208E+00 0.230E-01 0.131E+00
   0.194E+03 -.328E+03 0.218E+04   -.194E+03 0.328E+03 -.219E+04   0.174E+01 0.139E+00 0.725E+01   -.189E+00 -.848E-02 -.138E+00
   0.438E+03 0.419E+02 -.199E+04   -.442E+03 -.412E+02 0.199E+04   0.356E+01 -.675E+00 -.546E+01   -.207E+00 -.125E+00 0.255E+00
   0.342E+03 0.209E+03 0.130E+04   -.348E+03 -.213E+03 -.130E+04   0.500E+01 0.291E+01 0.197E+01   0.217E+00 -.826E-01 0.455E+00
   -.341E+03 -.907E+02 -.323E+04   0.338E+03 0.899E+02 0.323E+04   0.384E+01 0.882E+00 0.767E+00   -.153E-02 -.994E-01 0.510E-02
   0.449E+03 0.178E+03 0.749E+03   -.452E+03 -.177E+03 -.754E+03   0.304E+01 0.178E+00 0.438E+01   -.228E+00 0.105E-01 -.232E-02
   -.379E+03 0.849E+02 -.329E+04   0.379E+03 -.864E+02 0.330E+04   0.101E+01 0.177E+01 -.434E+01   -.238E+00 0.903E-01 0.697E-01
   -.400E+03 -.338E+03 0.185E+04   0.403E+03 0.340E+03 -.186E+04   -.262E+01 -.150E+01 0.416E+01   0.729E-01 0.567E-01 -.453E-01
   -.100E+03 -.398E+03 -.237E+04   0.101E+03 0.403E+03 0.237E+04   -.109E+01 -.335E+01 -.752E+01   0.256E+00 0.376E-01 0.195E+00
   -.340E+03 -.228E+03 0.205E+04   0.341E+03 0.230E+03 -.205E+04   -.896E+00 -.266E+00 0.716E+01   0.282E+00 -.236E+00 0.156E+00
   -.276E+03 0.595E+03 -.224E+04   0.277E+03 -.597E+03 0.225E+04   -.198E+01 0.122E+01 -.492E+01   0.136E+00 -.131E+00 0.152E+00
   -.196E+02 0.337E+03 0.402E+04   0.185E+02 -.337E+03 -.403E+04   0.653E+00 -.159E+00 0.594E+01   -.118E+00 0.103E-01 -.135E+00
   -.875E+02 0.469E+03 0.290E+03   0.859E+02 -.470E+03 -.289E+03   0.230E+01 0.157E+01 -.102E+01   -.155E+00 0.183E+00 0.800E-01
   0.155E+03 0.308E+02 -.337E+04   -.153E+03 -.328E+02 0.338E+04   -.215E+01 0.199E+01 -.432E+01   -.562E-02 0.252E+00 0.350E+00
   -.159E+03 0.233E+03 0.357E+04   0.159E+03 -.232E+03 -.358E+04   -.191E-01 -.895E+00 0.601E+01   0.784E-03 -.167E-01 -.376E+00
   -.558E+03 0.613E+03 -.769E+03   0.563E+03 -.620E+03 0.772E+03   -.405E+01 0.573E+01 -.402E+01   0.109E+00 -.292E+00 0.166E+00
   0.226E+03 0.546E+03 0.191E+04   -.226E+03 -.551E+03 -.191E+04   0.440E+00 0.521E+01 0.254E+01   -.252E+00 0.235E+00 0.186E+00
   0.383E+03 -.225E+03 -.262E+04   -.385E+03 0.224E+03 0.262E+04   0.853E+00 0.140E+01 -.219E+01   -.377E+00 0.156E+00 0.109E-01
   0.497E+03 0.434E+03 0.110E+04   -.498E+03 -.438E+03 -.111E+04   0.203E+01 0.248E+01 0.276E+01   -.292E+00 -.944E-01 -.565E-01
   0.347E+03 0.113E+03 -.336E+04   -.348E+03 -.116E+03 0.336E+04   0.571E+00 0.212E+01 0.357E+01   -.139E+00 -.127E+00 0.199E+00
   -.756E+02 -.537E+03 0.254E+04   0.723E+02 0.539E+03 -.255E+04   0.247E+01 -.150E+01 0.752E+01   0.287E+00 0.171E+00 0.240E-01
   -.405E+03 0.279E+03 -.178E+04   0.408E+03 -.280E+03 0.179E+04   -.371E+01 0.700E+00 -.482E+01   0.490E+00 0.157E+00 0.177E+00
   -.619E+03 0.426E+02 0.253E+04   0.625E+03 -.407E+02 -.253E+04   -.549E+01 -.279E+01 0.583E+01   0.196E+00 0.199E+00 0.150E+00
   -.874E+02 -.580E+03 -.213E+04   0.897E+02 0.585E+03 0.214E+04   -.245E+01 -.415E+01 -.402E+01   0.829E-01 0.307E+00 0.726E-01
   -.260E+03 -.232E+03 0.391E+04   0.258E+03 0.233E+03 -.391E+04   0.284E+01 -.468E+00 -.163E+01   -.560E-01 -.815E-01 -.184E+00
   -.260E+03 -.340E+03 -.747E+02   0.260E+03 0.343E+03 0.760E+02   0.390E+00 -.253E+01 -.143E+01   -.786E-01 -.817E-01 0.232E+00
   0.320E+02 -.113E+03 -.390E+04   -.329E+02 0.115E+03 0.390E+04   0.145E+01 -.235E+01 0.200E+01   -.539E-01 -.738E-01 0.263E+00
   -.843E+02 -.462E+03 0.361E+04   0.860E+02 0.459E+03 -.361E+04   -.212E+01 0.242E+01 -.301E+00   0.194E+00 0.218E+00 -.378E+00
   -.500E+03 0.252E+02 -.947E+03   0.503E+03 -.232E+02 0.948E+03   -.198E+01 -.256E+01 -.190E+01   0.207E+00 0.158E+00 0.767E-01
   -.148E+03 -.748E+03 0.162E+04   0.148E+03 0.755E+03 -.162E+04   -.370E+00 -.574E+01 0.213E+00   -.173E+00 -.180E+00 0.153E+00
   0.192E+03 -.103E+03 0.130E+04   -.192E+03 0.105E+03 -.130E+04   0.104E+01 -.160E+01 0.340E+01   -.250E+00 0.122E+00 0.227E-01
   0.712E+02 0.321E+03 -.272E+04   -.711E+02 -.322E+03 0.272E+04   0.641E+00 -.499E+00 -.445E+01   -.240E+00 0.152E+00 0.125E+00
   0.511E+03 0.262E+03 0.271E+04   -.514E+03 -.264E+03 -.271E+04   0.124E+01 0.165E+01 0.653E+01   0.184E+00 -.199E+00 0.968E-02
   -.230E+03 -.391E+03 -.176E+04   0.232E+03 0.394E+03 0.176E+04   -.161E+01 -.307E+01 -.425E+01   0.416E+00 -.266E+00 0.264E+00
   0.639E+02 0.328E+02 -.176E+04   -.634E+02 -.331E+02 0.177E+04   -.134E+01 0.733E-01 -.214E+01   0.809E-02 0.429E-01 0.251E-01
   -.183E+03 0.867E+02 0.505E+03   0.184E+03 -.883E+02 -.510E+03   0.160E+01 0.205E+01 0.323E+01   -.148E-01 0.590E-01 0.477E-01
   -.334E+03 0.739E+02 0.139E+04   0.338E+03 -.763E+02 -.140E+04   -.271E+01 0.279E+01 0.245E+01   0.165E-01 0.120E-01 -.579E-01
   0.160E+02 -.112E+03 -.944E+03   -.167E+02 0.113E+03 0.948E+03   0.377E+00 0.791E+00 -.395E+01   -.531E-01 0.942E-01 0.957E-01
   -.252E+03 0.290E+03 0.955E+03   0.254E+03 -.293E+03 -.959E+03   -.971E+00 0.229E+01 0.209E+01   0.109E+00 -.252E-02 -.125E+00
   -.120E+03 0.770E+02 -.104E+04   0.121E+03 -.773E+02 0.104E+04   -.648E+00 0.677E+00 -.536E+00   0.126E+00 -.317E-01 0.122E+00
   0.986E+02 -.603E+02 0.173E+04   -.979E+02 0.596E+02 -.174E+04   -.524E+00 0.926E+00 0.287E+01   -.862E-01 0.330E-01 0.671E-01
   0.859E+02 -.341E+03 -.374E+03   -.862E+02 0.346E+03 0.378E+03   0.564E+00 -.430E+01 -.162E+01   -.174E+00 -.683E-03 -.886E-02
   0.139E+03 -.218E+03 -.157E+04   -.139E+03 0.220E+03 0.158E+04   -.959E+00 -.117E+01 -.338E+01   -.832E-01 0.179E-01 0.465E-01
   0.186E+03 -.601E+02 0.164E+04   -.187E+03 0.607E+02 -.165E+04   0.139E+01 -.402E+00 0.237E+01   -.738E-01 0.147E-01 -.834E-01
   0.310E+02 -.882E+02 -.805E+03   -.308E+02 0.894E+02 0.811E+03   -.523E-01 -.167E+00 -.433E+01   -.699E-01 0.300E-01 0.424E-01
   -.149E+02 0.595E+02 0.739E+03   0.154E+02 -.598E+02 -.743E+03   -.943E+00 -.181E+00 0.257E+01   0.134E+00 -.541E-01 0.966E-01
   -.111E+03 0.331E+01 -.152E+04   0.113E+03 -.464E+01 0.153E+04   -.172E+01 0.150E+01 -.157E+01   0.233E+00 -.190E-01 -.174E-01
   -.633E+02 -.422E+02 0.175E+04   0.636E+02 0.428E+02 -.176E+04   -.521E+00 -.192E+00 0.225E+01   0.753E-01 0.489E-01 -.513E-01
   0.249E+02 -.118E+03 -.334E+03   -.251E+02 0.119E+03 0.337E+03   -.109E+01 0.654E+00 -.157E+01   0.169E+00 0.123E+00 0.488E-01
   0.375E+03 -.205E+03 0.770E+03   -.378E+03 0.207E+03 -.771E+03   0.252E+01 -.850E+00 0.528E+00   -.775E-01 -.431E-01 0.154E-01
   0.267E+03 -.231E+02 -.117E+04   -.268E+03 0.247E+02 0.118E+04   0.447E+00 -.115E+01 -.170E+01   0.350E-01 -.852E-01 0.762E-01
   0.180E+03 -.221E+03 0.647E+03   -.181E+03 0.224E+03 -.649E+03   0.124E+01 -.140E+01 0.446E+00   -.689E-01 0.790E-01 -.796E-01
   -.286E+02 0.178E+03 -.165E+04   0.291E+02 -.179E+03 0.166E+04   -.648E+00 -.872E+00 -.303E+01   -.188E-01 -.782E-02 0.235E+00
   -.284E+03 -.119E+03 -.593E+03   0.287E+03 0.119E+03 0.598E+03   -.181E+01 0.971E+00 -.233E+01   0.425E-02 -.208E+00 0.856E-01
   0.414E+02 -.895E+02 0.162E+04   -.431E+02 0.909E+02 -.163E+04   0.135E+01 -.684E+00 0.309E+01   0.103E+00 -.722E-01 0.581E-01
   0.177E+03 0.120E+03 0.113E+04   -.178E+03 -.122E+03 -.114E+04   0.201E+00 0.110E+01 0.446E+01   -.923E-01 0.604E-01 0.988E-02
   0.706E+02 0.101E+03 -.105E+04   -.709E+02 -.102E+03 0.105E+04   0.145E+00 -.754E+00 -.256E+01   -.919E-01 0.733E-01 0.325E-01
   0.557E+02 -.116E+03 0.401E+03   -.572E+02 0.118E+03 -.404E+03   0.733E+00 -.138E+01 0.212E+01   0.674E-01 -.672E-01 0.172E-01
   -.108E+02 -.274E+03 -.159E+04   0.973E+01 0.278E+03 0.159E+04   0.863E+00 -.180E+01 -.105E+01   0.956E-01 -.312E-01 0.940E-01
   -.541E+01 0.349E+03 0.949E+03   0.543E+01 -.352E+03 -.953E+03   0.300E-01 0.356E+00 0.425E+01   -.925E-01 0.197E-01 -.392E-03
   0.107E+03 0.115E+03 -.135E+04   -.108E+03 -.117E+03 0.136E+04   0.114E+01 0.148E+01 -.181E+01   -.761E-01 0.526E-01 0.112E+00
   -.751E+02 -.412E+01 0.164E+04   0.762E+02 0.367E+01 -.164E+04   -.597E+00 0.475E+00 0.411E+01   0.561E-01 -.596E-02 -.870E-01
   0.833E+02 0.390E+02 -.301E+03   -.841E+02 -.394E+02 0.304E+03   -.836E+00 -.753E+00 -.167E+01   0.103E+00 -.702E-01 0.776E-01
   -.404E+02 0.568E+02 -.641E+03   0.396E+02 -.583E+02 0.643E+03   0.216E+01 0.211E+01 -.926E+00   -.100E+00 0.146E+00 0.718E-01
   0.612E+02 0.961E+02 0.136E+04   -.626E+02 -.957E+02 -.136E+04   0.970E+00 -.970E+00 0.413E+01   0.308E-01 0.440E-01 0.778E-01
   -.204E+03 0.209E+03 0.466E+03   0.205E+03 -.213E+03 -.467E+03   -.133E+01 0.230E+01 0.321E+00   -.432E-01 -.107E+00 -.781E-02
   -.114E+03 -.114E+02 -.138E+04   0.115E+03 0.101E+02 0.138E+04   -.852E+00 0.160E+01 -.178E+01   -.499E-01 -.133E+00 0.168E+00
   -.116E+03 -.943E+02 0.270E+03   0.114E+03 0.932E+02 -.272E+03   0.207E+01 0.560E+00 0.461E-01   0.136E+00 0.912E-01 -.249E-01
   -.232E+03 0.212E+03 -.155E+04   0.234E+03 -.215E+03 0.156E+04   -.110E+00 0.159E+01 -.280E+01   0.130E+00 0.545E-01 0.109E+00
   0.169E+03 -.894E+00 0.102E+04   -.170E+03 0.193E+01 -.103E+04   0.351E+00 -.100E+01 0.394E+01   -.120E+00 -.108E+00 -.209E-03
   0.113E+03 0.304E+03 -.107E+04   -.114E+03 -.308E+03 0.108E+04   0.900E+00 0.191E+01 -.133E+01   -.120E+00 -.348E-01 0.341E-01
   -.102E+02 -.961E+01 -.306E+02   0.171E-11 -.966E-12 -.227E-12   0.999E+01 0.889E+01 0.265E+02   0.234E+00 0.727E+00 0.415E+01

 POSITION                                       TOTAL-FORCE (eV/Angst)
     13.17084      1.39171      1.94975         0.027991     -0.432021      1.160886
     13.67722      1.39246      4.70099         0.193976      0.113390      0.903155
      3.62581      5.77223      1.48423         1.001347      0.184640     -0.936764
      5.02033      6.18092      3.49202        -0.189443      0.465146     -0.429500
      6.51927      1.21448      2.05363         0.939568      0.120547     -0.464297
      7.93172      1.39171      4.00611        -0.618450     -0.115577     -0.257981
     16.08224      6.18092      2.46384        -0.856571     -1.040526      0.094625
     15.96924      6.22701      4.83106         0.859387     -0.041676      0.865356
      2.10894      1.39171      2.97793        -0.277074      1.007179     -0.371979
      1.08116      1.57641      5.05234         0.529740      0.328452      0.245277
      9.60989      6.07643      2.59495         0.536483      0.500940     -0.713555
     10.84312      6.18092      4.52020        -0.274311      1.220323     -0.579221
     15.45309      8.64635      2.14008         0.407447      0.857823      0.491568
     15.92233      0.11820      4.37891        -0.168180     -1.108789     -0.117016
      6.04597      6.18732      0.93673        -0.553770     -0.108656     -1.372015
      7.17375      4.91558      3.08454         0.569486      0.101157     -0.504438
      9.12187      4.30198      5.03302         0.273388      0.265196      1.126764
      8.93150      1.38996      1.42598        -0.207036     -0.313400     -1.807342
     10.08514      0.12638      3.59863         0.768126     -1.160732     -1.399837
      1.35096      4.91558      2.05636        -0.071175     -0.157312      1.524654
      2.24435      4.89566      4.36986        -1.956897      0.844858      0.631873
      4.26235      0.12638      2.57045         0.447601     -0.761457      0.717473
      4.67855      9.45714      4.94026        -0.266355     -0.209817      0.483286
     12.90683      3.96315      1.90347        -0.607690      1.296204      0.243938
     12.99653      4.91558      4.11272        -0.784822     -0.599699     -0.732759
     15.36373      2.76337      1.89556         0.686115     -0.684964      0.081358
     15.90779      2.73564      4.34765        -0.072788      0.602506     -0.337306
      6.96355      8.52475      0.97145         0.267807      0.149855     -0.893985
      7.17375      7.44626      3.08454         0.385817     -0.460281      0.012142
      7.66670      7.72151      5.51058         0.469861     -0.409757      0.782464
     10.42837      3.36109      1.38195        -0.171637      0.358857     -0.798827
     10.08514      2.65705      3.59863         0.562515     -0.397881     -0.532068
      1.35096      7.44626      2.05636        -0.326545      0.835479      0.060516
      4.26235      2.65705      2.57045         0.440774      0.114148      0.533482
      4.97228      3.85666      4.44656         0.544454     -1.348927      0.248436
     12.98323      8.19777      1.91182        -0.981194     -0.762974      0.164536
     12.99653      7.44626      4.11272         0.370000     -0.301425     -1.134104
     16.11838      1.44470      5.92590        -0.848427     -0.134056      4.206973
     16.74052      1.39171      2.94940         1.758529      0.450093     -1.970873
      8.00634      6.18092      1.40713         0.891850      0.477636     -2.780632
      8.59001      6.18092      4.49167        -0.344051      1.914256      0.565643
     10.91773      1.39171      1.92122         1.485143     -0.625675     -1.903640
     11.58812      1.31848      4.50496         0.119859      0.353346      2.728892
      1.90437      6.14917      0.48679         0.025291      0.272518     -3.548431
      2.79131      6.51332      3.22052         0.133382      0.725664      2.014030
      4.05793      5.45307      5.27506        -0.444459      0.759072      2.571393
      4.77106      1.38054      1.01459         0.212747      0.170863     -3.583543
      5.67861      1.39171      3.97758         0.091157      1.032246      1.132807
     13.82913      6.18092      2.43531        -0.277462     -0.500695     -1.206550
     14.03833      6.14177      5.38113         0.470967      0.145219      2.905909
     13.80906      2.75914      0.54661        -0.154295      0.541477     -3.919009
     13.99844      3.00295      3.46826        -1.092583      1.677294      1.474807
      5.26426      7.79215      1.92599        -1.304560      1.377667     -0.783456
      5.78817      7.73891      4.74351        -0.627849      0.374572      1.799663
      8.17565      3.00295      2.44008        -0.497602      1.123924     -0.834999
      9.14491      2.30954      5.43736        -0.131387     -1.190428      2.867033
     16.73348      7.81161      3.68411         1.293940      0.581129      2.208854
     16.50620      7.45570      0.86908        -0.307034      0.624585     -3.626021
      2.39135      3.12179      1.76576        -0.798402     -0.544541     -2.610590
      2.93654      3.00295      4.49645        -0.246075     -1.468331      1.257572
     11.08705      7.79215      2.95417        -0.737290      0.533157     -1.128116
     11.70559      7.60095      5.67549        -0.158793      1.538452      3.639354
      5.26426      4.56969      1.92599        -0.048406     -2.450312      0.277778
      6.96863      4.01374      4.96124        -0.428910     -0.564479      1.946499
     14.07144      9.47839      0.78511         0.508133      0.013577     -3.768620
     13.99844      9.35889      3.46826        -1.593934     -1.193531      1.187383
      0.02514      4.56969      3.98236         1.200609      0.752565      1.451687
     16.35382      4.47035      1.26400        -0.435866     -0.589819     -2.715130
      8.17565      9.35889      2.44008        -0.401672     -1.509623     -0.246992
      8.75964      9.35816      5.14999         0.280943      0.172567      2.678576
     11.08705      4.56969      2.95417         0.170699     -0.426799     -1.828606
     11.21392      4.44093      5.52300         1.283682     -1.344159      3.065463
      2.37188      9.26622      1.81897        -0.586377     -0.077930     -2.654433
      2.69706      0.27865      4.63515        -0.359446     -1.942331      2.140535
    total drift:                                0.030698      0.004259      0.049508

  FREE ENERGIE OF THE ION-ELECTRON SYSTEM (eV)
  free  energy   TOTEN  =      -349.40717610 eV

  energy  without entropy=     -348.19994708  energy(sigma->0) =     -348.80356159