 vasp.5.4.4.18Apr17-6-g9f103f2a35 (build Aug 13 2019 17:33:20) gamma-only

 executed on             LinuxIFC date 2020.05.12  04:01:49

 INCAR:
 POTCAR:    PAW_PBE Ni_pv 06Sep2000
 POTCAR:    PAW_PBE S 06Sep2000
 POTCAR:    PAW_PBE Ni_pv 06Sep2000
   VRHFIN =Ni:

   TITEL  = PAW_PBE Ni_pv 06Sep2000
   POMASS =   58.690; ZVAL   =   16.000    mass and valenz
   ENMAX  =  367.986; ENMIN  =  275.989 eV

 POTCAR:    PAW_PBE S 06Sep2000
   VRHFIN =S : s2p4

   TITEL  = PAW_PBE S 06Sep2000
   POMASS =   32.066; ZVAL   =    6.000    mass and valenz
   ENMAX  =  258.689; ENMIN  =  194.016 eV

 Optimization of the real space projectors (new method)

 maximal supplied QI-value         = 18.90
 optimisation between [QCUT,QGAM] = [ 10.77, 21.73] = [ 32.49,132.25] Ry
 Optimized for a Real-space Cutoff    1.38 Angstroem

   l    n(q)    QCUT    max X(q) W(low)/X(q) W(high)/X(q)  e(spline)
   1      8    10.771     2.836    0.40E-04    0.29E-04    0.12E-06
   1      8    10.771     4.023    0.10E-03    0.48E-04    0.29E-06
   2      8    10.771    73.368    0.42E-03    0.97E-04    0.44E-06
   2      8    10.771    69.010    0.42E-03    0.99E-04    0.45E-06
   0      9    10.771    54.797    0.10E-03    0.56E-04    0.74E-07
   0      9    10.771    24.266    0.89E-04    0.49E-04    0.67E-07
 Optimization of the real space projectors (new method)

 maximal supplied QI-value         = 19.84
 optimisation between [QCUT,QGAM] = [ 10.71, 21.63] = [ 32.15,130.99] Ry
 Optimized for a Real-space Cutoff    1.19 Angstroem

   l    n(q)    QCUT    max X(q) W(low)/X(q) W(high)/X(q)  e(spline)
   0      8    10.715   187.594    0.41E-03    0.53E-04    0.66E-07
   0      8    10.715   164.243    0.41E-03    0.53E-04    0.65E-07
   1      7    10.715    67.533    0.19E-03    0.59E-03    0.68E-07
   1      7    10.715    50.729    0.19E-03    0.58E-03    0.67E-07
  PAW_PBE Ni_pv 06Sep2000               :
  PAW_PBE S 06Sep2000                   :

 POSCAR: Type_037 Type_137
  positions in cartesian coordinates
 exchange correlation table for  LEXCH =        8
   RHO(1)=    0.500       N(1)  =     2000
   RHO(2)=  100.500       N(2)  =     4000

 ion  position               nearest neighbor table
   1  0.780  0.145  0.123-  51 2.07  65 2.07  42 2.25  52 2.36  66 2.36
   2  0.798  0.145  0.283-  52 2.04  66 2.04  43 2.05
   3  0.218  0.634  0.100-  44 2.01  45 2.12  63 2.22   4 2.36  53 2.37  15 2.45
   4  0.297  0.645  0.216-  54 2.10  64 2.20  45 2.25  53 2.26  63 2.26   3 2.36  29 2.53  16 2.53

   5  0.390  0.140  0.130-  47 2.03  48 2.12  69 2.26  55 2.33   6 2.37  30 2.46
   6  0.470  0.145  0.247-  70 2.05  56 2.09  48 2.25  55 2.26  69 2.26   5 2.37  31 2.53  19 2.53

   7  0.952  0.645  0.154-  58 2.11  68 2.11  57 2.17  67 2.17  49 2.25  32 2.53  20 2.53
   8  0.172  0.145  0.046-  47 2.01  73 2.04  59 2.05   9 2.45
   9  0.125  0.145  0.185-  73 2.14  59 2.15  39 2.25  10 2.34  60 2.36  74 2.36   8 2.45  34 2.53
                            22 2.53
  10  0.104  0.145  0.324-  38 2.01  74 2.15  60 2.15   9 2.34
  11  0.579  0.650  0.151-  40 2.04  61 2.11  41 2.12  71 2.18  12 2.37
  12  0.642  0.645  0.278-  62 2.02  72 2.03  41 2.21  61 2.26  71 2.26  11 2.37  37 2.53  25 2.53

[...]

  70  0.520  0.991  0.315-  19 2.03   6 2.05  56 2.72  69 2.77
  71  0.657  0.477  0.184-  11 2.18  31 2.25  25 2.26  12 2.26  24 2.28  72 2.78
  72  0.692  0.494  0.346-  12 2.03  25 2.03  71 2.78
  73  0.140  0.969  0.107-   8 2.04  32 2.13  22 2.14   9 2.14
  74  0.174  0.977  0.276-  23 2.03  33 2.13  10 2.15   9 2.36  22 2.36

  LATTYP: Found a simple orthorhombic cell.
 ALAT       =     9.5784100000
 B/A-ratio  =     1.7387693453
 C/A-ratio  =     1.7627867312

  Lattice vectors:

 A1 = (   0.0000000000,   9.5784100000,   0.0000000000)
 A2 = (   0.0000000000,   0.0000000000, -16.6546456851)
 A3 = ( -16.8846940542,   0.0000000000,   0.0000000000)

Analysis of symmetry for initial positions (statically):
 Subroutine PRICEL returns:
 Original cell was already a primitive cell.

 Routine SETGRP: Setting up the symmetry group for a
 simple orthorhombic supercell.

 Subroutine GETGRP returns: Found  1 space group operations
 (whereof  1 operations were pure point group operations)
 out of a pool of  8 trial point group operations.

The static configuration has the point symmetry C_1 .

Analysis of symmetry for dynamics (positions and initial velocities):
 Subroutine PRICEL returns:
 Original cell was already a primitive cell.

 Routine SETGRP: Setting up the symmetry group for a
 simple orthorhombic supercell.

 Subroutine GETGRP returns: Found  1 space group operations
 (whereof  1 operations were pure point group operations)
 out of a pool of  8 trial point group operations.

The dynamic configuration has the point symmetry C_1 .

 Subroutine INISYM returns: Found  1 space group operations
 (whereof  1 operations are pure point group operations),
 and found     1 'primitive' translations

 KPOINTS: gamma-point-only calculation. no periodi

Automatic generation of k-mesh.
Space group operators:
 irot       det(A)        alpha          n_x          n_y          n_z        tau_x        tau_y        tau_z
    1     1.000000     0.000000     1.000000     0.000000     0.000000     0.000000     0.000000     0.000000

 Subroutine IBZKPT returns following result:

 Found      1 irreducible k-points:

 Following reciprocal coordinates:
            Coordinates               Weight
  0.000000  0.000000  0.000000      1.000000

 Following cartesian coordinates:
            Coordinates               Weight
  0.000000  0.000000  0.000000      1.000000

 SYSTEM =  "Millerite NiS"
 POSCAR =  Type_037 Type_137

 Startparameter for this run:
   NWRITE =      2    write-flag & timer
   PREC   = normal    normal or accurate (medium, high low for compatibility)
   ISTART =      0    job   : 0-new  1-cont  2-samecut
   ICHARG =      2    charge: 1-file 2-atom 10-const
   ISPIN  =      1    spin polarized calculation?
   LNONCOLLINEAR =      F non collinear calculations
   LSORBIT =      F    spin-orbit coupling
   INIWAV =      1    electr: 0-lowe 1-rand  2-diag
   LASPH  =      F    aspherical Exc in radial PAW
   METAGGA=      F    non-selfconsistent MetaGGA calc.

 Electronic Relaxation 1
   ENCUT  =  450.0 eV  33.07 Ry    5.75 a.u.  29.20 16.57 28.81*2*pi/ulx,y,z
   ENINI  =  450.0     initial cutoff
   ENAUG  =  703.4 eV  augmentation charge cutoff
   NELM   =    100;   NELMIN=  2; NELMDL= -5     # of ELM steps
   EDIFF  = 0.1E-03   stopping-criterion for ELM
   LREAL  =      T    real-space projection
   NLSPLINE    = F    spline interpolate recip. space projectors
   LCOMPAT=      F    compatible to vasp.4.4
   GGA_COMPAT  = T    GGA compatible to vasp.4.4-vasp.4.6
   LMAXPAW     = -100 max onsite density
   LMAXMIX     =    2 max onsite mixed and CHGCAR
   VOSKOWN=      0    Vosko Wilk Nusair interpolation
   ROPT   =   -0.00050  -0.00050
 Ionic relaxation
   EDIFFG = 0.1E-02   stopping-criterion for IOM
   NSW    =      0    number of steps for IOM
   NBLOCK =      1;   KBLOCK =      1    inner block; outer block
   IBRION =     -1    ionic relax: 0-MD 1-quasi-New 2-CG
   NFREE  =      0    steps in history (QN), initial steepest desc. (CG)
   ISIF   =      2    stress and relaxation
   IWAVPR =     10    prediction:  0-non 1-charg 2-wave 3-comb
   ISYM   =      2    0-nonsym 1-usesym 2-fastsym
   LCORR  =      T    Harris-Foulkes like correction to forces

   POTIM  = 0.5000    time-step for ionic-motion
   TEIN   =    0.0    initial temperature
   TEBEG  =    0.0;   TEEND  =   0.0 temperature during run
   SMASS  =  -3.00    Nose mass-parameter (am)
   estimated Nose-frequenzy (Omega)   =  0.10E-29 period in steps =****** mass=  -0.652E-26a.u.
   SCALEE = 1.0000    scale energy and forces
   NPACO  =    256;   APACO  = 16.0  distance and # of slots for P.C.
   PSTRESS=    0.0 pullay stress

  Mass of Ions in am
   POMASS =  58.69 32.07
  Ionic Valenz
   ZVAL   =  16.00  6.00
  Atomic Wigner-Seitz radii
  virtual crystal weights
   VCA    =   1.00  1.00
   NELECT =     814.0000    total number of electrons
   NUPDOWN=      -1.0000    fix difference up-down

 DOS related values:
   EMIN   =  10.00;   EMAX   =-10.00  energy-range for DOS
   EFERMI =   0.00
   ISMEAR =     0;   SIGMA  =   0.20  broadening in eV -4-tet -1-fermi 0-gaus

 Electronic relaxation 2 (details)
   IALGO  =     38    algorithm
   LDIAG  =      T    sub-space diagonalisation (order eigenvalues)
   LSUBROT=      F    optimize rotation matrix (better conditioning)
   TURBO    =      0    0=normal 1=particle mesh
   IRESTART =      0    0=no restart 2=restart with 2 vectors
   NREBOOT  =      0    no. of reboots
   NMIN     =      0    reboot dimension
   EREF     =   0.00    reference energy to select bands
   IMIX   =      4    mixing-type and parameters
     AMIX     =   0.40;   BMIX     =  1.00
     AMIX_MAG =   1.60;   BMIX_MAG =  1.00
     AMIN     =   0.10
     WC   =   100.;   INIMIX=   1;  MIXPRE=   1;  MAXMIX= -45

 Intra band minimization:
   WEIMIN = 0.0000     energy-eigenvalue tresh-hold
   EBREAK =  0.51E-07  absolut break condition
   DEPER  =   0.30     relativ break condition

   TIME   =   0.40     timestep for ELM

  volume/ion in A,a.u.               =      36.40       245.63
  Fermi-wavevector in a.u.,A,eV,Ry     =   1.098607  2.076066 16.421374  1.206937
  Thomas-Fermi vector in A             =   2.234987

 Write flags
   LWAVE        =      F    write WAVECAR
   LDOWNSAMPLE  =      F    k-point downsampling of WAVECAR
   LCHARG       =      F    write CHGCAR
   LVTOT        =      F    write LOCPOT, total local potential
   LVHAR        =      F    write LOCPOT, Hartree potential only
   LELF         =      F    write electronic localiz. function (ELF)
   LORBIT       =      0    0 simple, 1 ext, 2 COOP (PROOUT), +10 PAW based schemes

 Dipole corrections
   LMONO  =      F    monopole corrections only (constant potential shift)
   LDIPOL =      F    correct potential (dipole corrections)
   IDIPOL =      0    1-x, 2-y, 3-z, 4-all directions
   EPSILON=  1.0000000 bulk dielectric constant

 Exchange correlation treatment:
   GGA     =    --    GGA type
   VOSKOWN=      0    Vosko Wilk Nusair interpolation
   LHFCALC =     F    Hartree Fock is set to
   LHFONE  =     F    Hartree Fock one center treatment
   AEXX    =    0.0000 exact exchange contribution

 Linear response parameters
   LEPSILON=     F    determine dielectric tensor
   LRPA    =     F    only Hartree local field effects (RPA)
   LNABLA  =     F    use nabla operator in PAW spheres
   LVEL    =     F    velocity operator in full k-point grid
   LINTERFAST=   F  fast interpolation
   KINTER  =     0    interpolate to denser k-point grid
   CSHIFT  =0.1000    complex shift for real part using Kramers Kronig
   OMEGAMAX=  -1.0    maximum frequency
   DEG_THRESHOLD= 0.2000000E-02 threshold for treating states as degnerate
   RTIME   =   -0.100 relaxation time in fs
  (WPLASMAI=    0.000 imaginary part of plasma frequency in eV, 0.658/RTIME)
   DFIELD  = 0.0000000 0.0000000 0.0000000 field for delta impulse in time

 Orbital magnetization related:
[...]
     0.000000000  9.578410000  0.000000000     0.000000000  0.104401461  0.000000000
     0.000000000  0.000000000 16.654645685     0.000000000  0.000000000  0.060043307

  length of vectors
    16.884694054  9.578410000 16.654645685     0.059225237  0.104401461  0.060043307

 FORCES acting on ions
    electron-ion (+dipol)            ewald-force                    non-local-force                 convergence-correction
   0.279E+03 -.142E+03 0.211E+04   -.281E+03 0.142E+03 -.212E+04   0.160E+01 0.512E-01 0.624E+01   0.485E-02 -.462E-02 -.462E-02
   0.321E+03 -.231E+02 -.294E+04   -.324E+03 0.231E+02 0.294E+04   0.415E+01 0.722E-01 0.119E+01   -.106E-02 -.383E-02 -.124E-01
   0.159E+03 0.483E+02 0.277E+04   -.158E+03 -.489E+02 -.277E+04   -.193E+00 0.758E+00 0.715E+01   -.831E-02 0.265E-02 0.228E-02
   0.384E+03 -.808E+01 -.145E+04   -.387E+03 0.809E+01 0.146E+04   0.234E+01 -.204E+00 -.486E+01   0.166E-02 0.292E-02 0.979E-03
   -.257E+02 -.261E+03 0.213E+04   0.275E+02 0.263E+03 -.213E+04   -.135E+01 -.105E+01 0.472E+01   -.119E-01 -.225E-02 0.491E-02
   0.183E+03 0.207E+02 -.215E+04   -.186E+03 -.192E+02 0.216E+04   0.262E+01 -.775E+00 -.756E+01   -.503E-02 -.128E-02 0.391E-02
   0.707E+03 0.425E+01 0.788E+03   -.712E+03 -.440E+01 -.785E+03   0.444E+01 0.142E+00 -.167E+01   -.448E-02 0.557E-02 -.633E-02
   0.497E+03 -.142E+02 0.418E+04   -.501E+03 0.144E+02 -.418E+04   0.328E+01 -.471E-01 0.367E+01   0.797E-03 -.288E-02 0.819E-03
   0.722E+03 0.585E+00 0.256E+03   -.727E+03 -.498E+00 -.254E+03   0.395E+01 -.538E-01 -.990E+00   0.323E-02 -.632E-02 -.175E-01
   0.141E+02 -.431E+01 -.364E+04   -.161E+02 0.434E+01 0.365E+04   0.330E+01 -.840E-01 -.151E+01   0.135E-01 -.569E-02 -.485E-02
   -.456E+03 0.485E+03 0.175E+04   0.458E+03 -.486E+03 -.176E+04   -.122E+01 0.151E+01 0.306E+01   -.619E-03 0.423E-02 -.290E-03
   0.256E+03 -.127E+02 -.255E+04   -.259E+03 0.128E+02 0.256E+04   0.167E+01 -.175E+00 -.757E+01   -.836E-03 0.954E-02 -.120E-01
   -.102E+03 -.150E+03 0.199E+04   0.105E+03 0.152E+03 -.200E+04   -.159E+01 -.937E+00 0.805E+01   -.258E-02 -.653E-02 -.650E-02
   0.174E+03 0.512E+03 -.248E+04   -.173E+03 -.512E+03 0.249E+04   -.214E+01 -.518E+00 -.541E+01   -.725E-02 -.126E-01 -.209E-01
   -.750E+02 0.418E+03 0.390E+04   0.731E+02 -.418E+03 -.391E+04   0.170E+01 0.578E+00 0.547E+01   -.593E-02 0.550E-03 0.112E-01
   -.347E+03 0.520E+03 0.258E+03   0.346E+03 -.524E+03 -.259E+03   0.558E+00 0.421E+01 -.691E+00   -.847E-02 0.454E-02 -.253E-02
   -.242E+03 -.754E+02 -.361E+04   0.243E+03 0.718E+02 0.361E+04   -.139E+01 0.455E+01 0.981E+00   -.824E-02 0.354E-02 -.351E-02
   -.693E+03 0.296E+03 0.321E+04   0.691E+03 -.296E+03 -.322E+04   0.206E+01 -.335E-01 0.173E+01   0.862E-02 -.422E-02 0.294E-02
   -.526E+03 0.299E+03 -.146E+04   0.530E+03 -.303E+03 0.146E+04   -.329E+01 0.395E+01 -.643E+01   0.472E-02 -.500E-02 -.574E-02
   0.113E+03 0.504E+03 0.185E+04   -.112E+03 -.508E+03 -.185E+04   -.533E+00 0.364E+01 0.175E+01   -.765E-03 0.545E-02 -.106E-01
   0.112E+03 0.114E+03 -.279E+04   -.110E+03 -.117E+03 0.279E+04   -.156E+01 0.166E+01 -.540E+01   0.501E-02 0.661E-02 -.157E-01
   -.673E+02 0.576E+03 0.882E+03   0.666E+02 -.579E+03 -.883E+03   0.122E+01 0.319E+01 0.122E+01   0.180E-02 -.114E-01 0.767E-02
   -.210E+03 0.220E+03 -.352E+04   0.210E+03 -.223E+03 0.351E+04   -.136E+00 0.383E+01 0.261E+01   0.256E-03 -.342E-02 -.780E-02
   0.521E+03 -.271E+03 0.257E+04   -.524E+03 0.274E+03 -.257E+04   0.119E+01 -.185E+01 0.609E+01   0.711E-02 0.601E-02 -.184E-02
   -.287E+03 0.331E+03 -.185E+04   0.290E+03 -.335E+03 0.185E+04   -.253E+01 0.277E+01 -.465E+01   0.157E-01 0.628E-02 -.162E-01
   -.818E+02 0.165E+03 0.200E+04   0.846E+02 -.167E+03 -.201E+04   -.197E+01 0.826E+00 0.807E+01   -.258E-02 0.467E-02 -.845E-02
   0.184E+03 -.517E+03 -.249E+04   -.183E+03 0.517E+03 0.250E+04   -.211E+01 0.527E+00 -.537E+01   -.757E-02 0.546E-02 -.160E-01
   -.113E+03 -.204E+03 0.391E+04   0.117E+03 0.202E+03 -.391E+04   -.389E+01 0.202E+01 -.902E+00   -.166E-02 -.147E-02 0.710E-02
   -.293E+03 -.334E+03 -.733E+03   0.293E+03 0.337E+03 0.738E+03   0.332E+00 -.317E+01 -.459E+01   -.578E-02 -.103E-02 0.624E-02
   -.332E+03 -.731E+03 0.344E+04   0.332E+03 0.733E+03 -.345E+04   -.683E+00 -.189E+01 0.579E+01   0.858E-02 -.458E-03 0.218E-02
   -.583E+03 -.570E+03 -.759E+03   0.586E+03 0.576E+03 0.759E+03   -.260E+01 -.538E+01 -.243E+01   0.169E-02 -.147E-02 -.461E-02
   0.705E+02 -.506E+03 0.186E+04   -.691E+02 0.510E+03 -.186E+04   -.671E+00 -.362E+01 0.163E+01   -.206E-02 -.874E-03 -.662E-02
   0.101E+03 -.117E+03 -.278E+04   -.993E+02 0.119E+03 0.279E+04   -.146E+01 -.143E+01 -.575E+01   0.643E-02 0.224E-02 -.155E-01
   -.145E+03 -.580E+03 0.984E+03   0.144E+03 0.584E+03 -.984E+03   0.944E+00 -.369E+01 0.562E+00   0.294E-02 0.324E-02 0.197E-02
   -.575E+02 -.163E+03 -.327E+04   0.582E+02 0.165E+03 0.327E+04   -.993E+00 -.319E+01 0.129E+01   0.243E-02 0.181E-02 -.385E-02
   0.182E+03 0.361E+03 0.249E+04   -.183E+03 -.363E+03 -.250E+04   0.597E+00 0.956E+00 0.603E+01   0.982E-02 -.355E-02 -.539E-03
   -.350E+03 -.271E+03 -.191E+04   0.354E+03 0.274E+03 0.191E+04   -.308E+01 -.269E+01 -.516E+01   0.118E-01 -.186E-03 -.135E-01
   0.133E+03 0.810E+00 -.169E+04   -.132E+03 -.759E+00 0.170E+04   -.115E+01 -.262E-01 -.139E+01   -.390E-02 -.114E-02 0.166E-02
   -.251E+02 0.250E+01 0.427E+03   0.258E+02 -.260E+01 -.433E+03   0.584E+00 0.172E+00 0.323E+01   -.233E-02 -.275E-02 -.854E-02
   -.339E+03 0.344E+03 0.125E+04   0.342E+03 -.347E+03 -.125E+04   -.128E+01 0.225E+01 0.266E+01   -.136E-03 -.836E-03 0.450E-02
   -.779E+02 -.174E+03 -.930E+03   0.772E+02 0.176E+03 0.936E+03   0.996E+00 -.111E+01 -.385E+01   -.379E-02 0.294E-02 -.330E-02
   -.286E+03 -.216E+03 0.932E+03   0.288E+03 0.218E+03 -.935E+03   -.115E+01 -.240E+01 0.149E+01   0.345E-02 -.120E-02 0.202E-04
   -.985E+02 -.106E+02 -.116E+04   0.996E+02 0.106E+02 0.117E+04   -.364E+00 -.299E-01 -.244E+01   -.157E-02 -.134E-02 -.287E-02
   0.936E+02 -.125E+02 0.174E+04   -.926E+02 0.125E+02 -.175E+04   -.706E+00 -.506E-01 0.284E+01   -.164E-02 0.353E-04 0.290E-02
   -.100E+03 -.149E+02 -.441E+03   0.103E+03 0.149E+02 0.443E+03   -.139E+01 0.802E-01 -.999E+00   0.168E-02 0.257E-02 -.466E-02
   0.147E+03 -.426E+00 -.165E+04   -.148E+03 0.408E+00 0.165E+04   0.298E+00 0.431E-01 -.615E+00   0.567E-03 0.255E-02 -.173E-02
   -.201E+03 -.515E+02 0.157E+04   0.203E+03 0.517E+02 -.158E+04   -.256E+00 -.271E+00 0.249E+01   -.152E-02 -.162E-02 0.322E-03
   -.121E+03 0.575E+01 -.759E+03   0.121E+03 -.547E+01 0.764E+03   0.351E+00 0.141E+00 -.422E+01   -.435E-02 -.369E-02 0.362E-02
   -.993E+01 -.532E+01 0.636E+03   0.117E+02 0.554E+01 -.639E+03   -.181E+01 0.641E-01 0.198E+01   0.212E-02 0.170E-02 -.143E-02
   -.347E+03 0.240E+01 -.142E+04   0.352E+03 -.254E+01 0.143E+04   -.217E+01 0.152E+00 -.882E+00   0.209E-02 0.127E-02 -.546E-02
   0.333E+00 0.138E+02 0.162E+04   0.567E+00 -.134E+02 -.163E+04   -.451E+00 -.459E+00 0.331E+01   0.106E-02 0.817E-03 0.156E-02
   0.100E+03 -.685E+02 -.359E+03   -.101E+03 0.684E+02 0.363E+03   -.583E+00 0.839E+00 -.177E+01   -.300E-03 0.359E-02 -.601E-02
   0.163E+03 -.251E+03 0.766E+03   -.165E+03 0.253E+03 -.767E+03   0.970E+00 -.117E+01 0.833E+00   -.320E-02 0.119E-02 0.443E-02
   -.891E+02 0.197E+02 -.134E+04   0.901E+02 -.187E+02 0.134E+04   -.860E+00 -.607E+00 -.285E+01   -.296E-02 0.307E-02 -.277E-02
   -.688E+02 -.325E+03 0.640E+03   0.689E+02 0.328E+03 -.642E+03   -.117E+01 -.165E+01 0.188E+01   -.793E-03 0.401E-02 0.110E-02
   -.149E+03 0.770E+02 -.155E+04   0.151E+03 -.750E+02 0.156E+04   -.952E+00 -.221E+01 -.196E+01   -.292E-03 -.191E-02 0.713E-04
   0.167E+03 0.538E+02 -.559E+03   -.168E+03 -.559E+02 0.563E+03   0.365E+00 0.140E+01 -.228E+01   -.245E-02 -.194E-02 -.706E-02
   0.147E+03 -.657E+02 0.156E+04   -.149E+03 0.667E+02 -.157E+04   0.103E+01 -.263E+00 0.403E+01   -.145E-02 0.861E-03 0.369E-02
   0.214E+03 -.171E+03 0.101E+04   -.215E+03 0.172E+03 -.101E+04   0.313E+00 -.310E+00 0.841E+00   -.216E-02 0.461E-02 -.135E-02
   0.400E+02 -.140E+03 -.983E+03   -.407E+02 0.142E+03 0.985E+03   0.209E+00 -.190E+01 -.126E+01   0.810E-02 0.352E-02 -.338E-02
   -.103E+03 0.227E+02 0.845E+02   0.102E+03 -.209E+02 -.843E+02   0.130E+01 -.595E+00 -.787E+00   0.271E-02 0.149E-02 -.344E-02
   0.370E+02 -.244E+03 -.161E+04   -.385E+02 0.247E+03 0.161E+04   0.111E+01 -.203E+01 -.847E+00   0.130E-02 0.228E-02 -.156E-02
   -.214E+02 0.319E+03 0.853E+03   0.218E+02 -.322E+03 -.855E+03   -.131E+01 0.124E+01 0.263E+01   -.129E-02 0.109E-02 0.307E-02
   0.111E+03 -.124E+03 -.136E+04   -.113E+03 0.122E+03 0.136E+04   0.346E+00 0.143E+01 -.204E+01   -.341E-02 0.775E-03 -.310E-02
   -.561E+02 -.314E+02 0.163E+04   0.570E+02 0.310E+02 -.163E+04   -.395E+00 0.376E+00 0.334E+01   0.236E-02 -.304E-02 0.401E-02
   0.667E+02 0.630E+02 -.378E+03   -.672E+02 -.629E+02 0.381E+03   -.932E+00 -.926E+00 -.174E+01   0.142E-02 -.549E-02 -.783E-02
   0.172E+03 -.554E+02 -.562E+03   -.172E+03 0.575E+02 0.566E+03   0.241E+00 -.144E+01 -.226E+01   -.243E-02 0.435E-02 -.688E-02
   0.153E+03 0.671E+02 0.156E+04   -.154E+03 -.679E+02 -.157E+04   0.115E+01 0.912E-01 0.406E+01   0.694E-03 0.211E-02 0.185E-02
   0.467E+02 0.876E+02 0.236E+03   -.488E+02 -.899E+02 -.234E+03   0.116E+01 0.109E+01 -.179E+01   0.433E-04 -.424E-02 0.299E-02
   0.689E+01 0.242E+03 -.153E+04   -.780E+01 -.246E+03 0.153E+04   0.371E+00 0.165E+01 -.926E+00   -.130E-02 -.135E-02 -.151E-02
   0.335E+02 0.140E+03 0.354E+03   -.359E+02 -.143E+03 -.356E+03   0.226E+01 0.992E+00 0.102E+01   0.266E-02 -.300E-05 -.418E-02
   -.323E+00 0.238E+03 -.158E+04   -.746E+00 -.242E+03 0.158E+04   0.786E+00 0.196E+01 -.131E+01   0.184E-02 0.125E-03 -.159E-02
   0.219E+03 0.182E+03 0.100E+04   -.220E+03 -.183E+03 -.101E+04   0.254E+00 0.335E+00 0.983E+00   -.391E-03 -.466E-02 0.608E-03
   0.491E+02 0.159E+03 -.964E+03   -.499E+02 -.160E+03 0.966E+03   -.201E+00 0.191E+01 -.841E+00   0.982E-02 -.633E-02 -.390E-02
   0.384E+00 -.324E+01 -.674E+01   -.141E-11 0.153E-11 0.130E-10   -.463E+00 0.321E+01 0.689E+01   0.261E-01 -.294E-03 -.212E+00

 POSITION                                       TOTAL-FORCE (eV/Angst)
     13.17084      1.39171      2.05636        -0.478889      0.131943      1.086936
     13.47932      1.39244      4.71980         0.286656      0.028356      0.479395
      3.67420      6.06876      1.66177         0.854783      0.165311     -0.439404
      5.02033      6.18092      3.59863        -0.181049     -0.184693      0.035402
      6.58654      1.33627      2.16663         0.401238      0.078392     -0.366600
      7.93172      1.39171      4.11272        -0.834596      0.766354     -0.708113
     16.08224      6.18092      2.57045        -0.973773     -0.009600      0.546335
      2.89642      1.39041      0.76543        -0.906433      0.067519     -1.978872
      2.10894      1.39171      3.08454        -0.906368      0.026829      0.269372
      1.75880      1.39150      5.39420         1.313582     -0.061938      0.723002
      9.78001      6.22470      2.51072         0.726314     -0.180654     -1.106840
     10.84312      6.18092      4.62682        -0.945260     -0.101276     -1.066398
     15.54156      8.94723      2.21900         0.866113      1.307489      0.227815
     15.95161      0.15492      4.53778        -0.873744     -0.517719     -0.149917
      6.03972      6.18637      1.04235        -0.236862      0.033895     -1.661409
      7.17375      4.91558      3.19116         0.043443     -0.277316     -1.963742
      8.11288      4.42056      5.31003        -0.149315      0.912977      1.065242
     10.03019      8.76727      1.53692        -0.005002     -0.207863     -1.011939
     10.08514      0.12638      3.70525         1.190593      0.184639     -0.616078
      1.35096      4.91558      2.16298         0.549400     -0.049618      0.325657
      1.70782      4.73810      4.66757         0.410038     -1.126826      0.339430
      4.26235      0.12638      2.67707         0.568582     -0.537255      0.469093
      4.91065      9.36010      5.08796         0.198559      0.032695      0.678918
     13.07169      4.15613      2.01837        -1.198119      0.791056      0.230686
     12.99653      4.91558      4.21934         0.133427     -0.450747     -1.541209
     15.55928      3.39283      2.22214         0.832042     -1.425058      0.243105
     15.95109      2.62637      4.54195        -0.895020      0.542471     -0.160653
      7.59719      8.16247      0.95573        -0.216617      0.417349     -0.795302
      7.17375      7.44626      3.19116         0.197119     -0.239481      0.220757
      8.95754      1.40483      1.53210        -0.404335      0.039139     -1.808399
     10.08514      2.65705      3.70525         0.607930      0.477970     -1.916612
      1.35096      7.44626      2.16298         0.674364      0.101123      0.407551
      1.70275      7.62055      4.66973         0.393029      1.109541      0.344436
      4.26235      2.65705      2.67707         0.533528      0.646756      0.392070
      4.98591      3.15630      4.93276        -0.246850     -0.239392      0.959944
     12.96711      8.29646      2.01114        -0.953917     -1.035180      0.238895
     12.99653      7.44626      4.21934         0.522243      0.485533     -1.648145
     16.72089      1.38888      5.99031        -0.397904      0.023910      3.488424
     16.74052      1.39171      3.05601         1.235327      0.070302     -2.564985
      8.00634      6.18092      1.51374         1.475138     -0.600648     -2.834351
      8.65282      6.15440      4.30347         0.228870      1.127803      2.066247
     10.91773      1.39171      2.02783         1.684835     -0.476425     -1.510904
     11.42508      1.39330      4.73318         0.714488     -0.026679      2.657998
      1.96089      6.18411      0.61693         0.363042      0.008269     -3.374489
      2.76722      6.18092      3.57010         1.233134      0.066762      0.661604
      1.35745      6.17832      6.01157        -0.605703      0.028354      3.077535
      4.88155      1.40488      1.05978         1.651293     -0.025027     -2.944093
      5.67861      1.39171      4.08419         0.852513      0.424842      1.368708
     13.82913      6.18092      2.54192        -0.077950      0.281624     -1.278001
     14.09975      6.18011      5.35445         2.237150      0.010979      3.034853
     14.06589      2.83090      0.86341         0.450981     -0.058361     -3.870240
     13.99844      3.00295      3.57488        -1.338965      0.699287      1.727036
      5.26426      7.79215      2.03261        -0.826336      1.469276     -0.679011
      5.90207      7.62743      4.83372         0.124004      0.366109      2.508519
      8.17565      3.00295      2.54670        -1.084488      1.322260     -0.141949
      8.96308      2.62101      5.44651         0.202799     -0.208281      2.985202
     16.73420      7.90626      3.71717        -0.091573     -0.657240      2.014342
     16.47100      7.56724      1.03456        -0.381153      0.726513     -3.145301
      2.36347      3.08343      1.78317        -0.734865      0.448459     -1.363238
      2.93654      3.00295      4.60306        -0.387150     -0.167238      0.865162
     11.08705      7.79215      3.06079         0.127699      1.196190     -0.592114
     11.71002      7.60069      5.78086        -0.305307      1.665412      3.669937
      5.26426      4.56969      2.03261        -0.874079     -1.803252     -0.093745
      6.09655      4.85760      4.99185        -1.236718     -0.520355      2.150928
     14.06945      9.54040      0.85450         0.459713     -0.027685     -3.788339
     13.99844      9.35889      3.57488        -1.431824     -0.818099      1.717666
     16.73490      4.45436      3.72022        -0.137627      0.667897      2.018463
     16.46689      4.79003      1.03765        -0.367554     -0.705206     -3.145806
      8.17565      9.35889      2.54670        -0.966473     -1.181794     -0.386575
      8.77672      9.48884      5.24870        -0.543872     -1.696114      3.367094
     11.08705      4.56969      3.06079        -0.201767     -1.269724     -1.158157
     11.68991      4.73458      5.76484        -0.281353     -1.658875      3.618697
      2.36154      9.28168      1.78900        -0.739049     -0.602415     -1.296169
      2.93654      9.35889      4.60306        -0.926109      0.196443      0.824645
    total drift:                               -0.052622     -0.023258     -0.071522

  FREE ENERGIE OF THE ION-ELECTRON SYSTEM (eV)
  free  energy   TOTEN  =      -349.77413386 eV

  energy  without entropy=     -348.52443073  energy(sigma->0) =     -349.14928229