 vasp.5.4.4.18Apr17-6-g9f103f2a35 (build Aug 13 2019 17:33:20) gamma-only

 executed on             LinuxIFC date 2020.05.12  12:35:14

 INCAR:
 POTCAR:    PAW_PBE Ni_pv 06Sep2000
 POTCAR:    PAW_PBE S 06Sep2000
 POTCAR:    PAW_PBE Ni_pv 06Sep2000
   VRHFIN =Ni:

   TITEL  = PAW_PBE Ni_pv 06Sep2000
   POMASS =   58.690; ZVAL   =   16.000    mass and valenz
   ENMAX  =  367.986; ENMIN  =  275.989 eV

 POTCAR:    PAW_PBE S 06Sep2000
   VRHFIN =S : s2p4

   TITEL  = PAW_PBE S 06Sep2000
   POMASS =   32.066; ZVAL   =    6.000    mass and valenz
   ENMAX  =  258.689; ENMIN  =  194.016 eV

 Optimization of the real space projectors (new method)

 maximal supplied QI-value         = 18.90
 optimisation between [QCUT,QGAM] = [ 10.77, 21.73] = [ 32.49,132.25] Ry
 Optimized for a Real-space Cutoff    1.38 Angstroem

   l    n(q)    QCUT    max X(q) W(low)/X(q) W(high)/X(q)  e(spline)
   1      8    10.771     2.836    0.40E-04    0.29E-04    0.12E-06
   1      8    10.771     4.023    0.10E-03    0.48E-04    0.29E-06
   2      8    10.771    73.368    0.42E-03    0.97E-04    0.44E-06
   2      8    10.771    69.010    0.42E-03    0.99E-04    0.45E-06
   0      9    10.771    54.797    0.10E-03    0.56E-04    0.74E-07
   0      9    10.771    24.266    0.89E-04    0.49E-04    0.67E-07
 Optimization of the real space projectors (new method)

 maximal supplied QI-value         = 19.84
 optimisation between [QCUT,QGAM] = [ 10.71, 21.63] = [ 32.15,130.99] Ry
 Optimized for a Real-space Cutoff    1.19 Angstroem

   l    n(q)    QCUT    max X(q) W(low)/X(q) W(high)/X(q)  e(spline)
   0      8    10.715   187.594    0.41E-03    0.53E-04    0.66E-07
   0      8    10.715   164.243    0.41E-03    0.53E-04    0.65E-07
   1      7    10.715    67.533    0.19E-03    0.59E-03    0.68E-07
   1      7    10.715    50.729    0.19E-03    0.58E-03    0.67E-07
  PAW_PBE Ni_pv 06Sep2000               :
  PAW_PBE S 06Sep2000                   :

 POSCAR: Type_036 Type_136
  positions in cartesian coordinates
 exchange correlation table for  LEXCH =        8
   RHO(1)=    0.500       N(1)  =     2000
   RHO(2)=  100.500       N(2)  =     4000

 ion  position               nearest neighbor table
   1  0.344  0.724  0.153-  41 2.00  61 2.15  42 2.20  60 2.21  49 2.26   2 2.31  14 2.36  33 2.50

   2  0.525  0.601  0.223-  42 2.25  61 2.26  49 2.26   1 2.31  62 2.36  50 2.36  15 2.53  27 2.53

[...]

  31  0.283  0.774  0.360-  55 2.04  71 2.25  42 2.26  54 2.26  43 2.36  18 2.53   7 2.53
  32  0.444  0.652  0.468-  43 2.02  44 2.09  55 2.10  72 2.13
  33  0.193  0.660  0.071-  59 2.05  56 2.07  60 2.08  41 2.11   1 2.50
  34  0.366  0.358  0.146-  45 2.05  61 2.25  56 2.26  57 2.36  46 2.36  21 2.45   9 2.53
  35  0.516  0.207  0.274-  62 2.25  46 2.26  57 2.26  47 2.36  58 2.36  22 2.53  10 2.53
  36  0.659  0.069  0.389-  47 2.04  58 2.13  63 2.18  48 2.19
  37  0.064  0.262  0.341-  25 2.05  10 2.25  13 2.26  16 2.36  28 2.36  38 2.57
  38  0.202  0.136  0.443-  11 2.11  13 2.12  25 2.17  37 2.57  64 2.66
  39  0.763  0.563  0.085-  14 2.00  12 2.08  15 2.26  27 2.26  26 2.43
  40  0.914  0.412  0.213-   9 2.25  16 2.26  28 2.26  27 2.36  15 2.36
  41  0.147  0.846  0.128-   1 2.00  33 2.11  20 2.15  17 2.26  30 2.26  29 2.36  60 2.65
  42  0.297  0.696  0.256-   1 2.20   2 2.25  31 2.26  18 2.26  17 2.36  30 2.36
  43  0.447  0.545  0.384-  32 2.02  19 2.02   3 2.25  31 2.36  18 2.36  44 2.55  55 2.78
  44  0.530  0.439  0.496-  32 2.09   4 2.10  19 2.11  43 2.55
  45  0.360  0.272  0.056-   5 2.01  34 2.05  21 2.11  69 2.66
  46  0.530  0.129  0.170-   5 2.12  21 2.16   6 2.25  35 2.26  22 2.26  34 2.36
  47  0.680  0.979  0.298-  36 2.04   8 2.25  23 2.26  35 2.36  22 2.36
  48  0.798  0.856  0.419-  24 2.07  23 2.09  36 2.19   7 2.53
  49  0.528  0.798  0.171-  14 2.11  22 2.25  27 2.26   2 2.26   1 2.26  26 2.29
  50  0.678  0.648  0.299-  23 2.25   3 2.26  28 2.26  27 2.36   2 2.36
  51  0.829  0.497  0.427-  24 2.05   4 2.08  25 2.14  28 2.36   3 2.36  64 2.79
  52  0.715  0.240  0.101-  15 2.08   5 2.10   6 2.10
  53  0.911  0.081  0.214-  29 2.12  16 2.25   8 2.26  30 2.26   6 2.36
  54  0.062  0.931  0.342-  13 2.25  31 2.26   7 2.26  30 2.36   8 2.36
  55  0.224  0.740  0.452-  31 2.04   7 2.07  32 2.10  43 2.78
  56  0.145  0.515  0.128-  12 2.06  33 2.07  17 2.25  34 2.26   9 2.26
  57  0.295  0.364  0.257-  18 2.25  35 2.26  10 2.26   9 2.36  34 2.36
  58  0.445  0.214  0.385-  11 2.09  36 2.13  19 2.18  10 2.36  35 2.36
  59  0.011  0.692  0.018-  20 2.05  33 2.05  12 2.08
  60  0.358  0.728  0.045-  14 2.05  33 2.08   1 2.21  41 2.65  61 2.68
  61  0.477  0.512  0.128-  14 2.07   1 2.15  34 2.25   2 2.26  15 2.26  60 2.68
  62  0.628  0.362  0.256-  35 2.25  16 2.26   3 2.26   2 2.36  15 2.36
  63  0.778  0.212  0.384-   4 2.08  36 2.18  13 2.26   3 2.36  16 2.36
  64  0.942  0.239  0.493-  13 2.05   4 2.05  25 2.09  38 2.66  51 2.79
  65  0.011  0.645  0.299-  28 2.25   7 2.26  18 2.26  17 2.36   8 2.36
  66  0.152  0.504  0.412-  18 2.11  19 2.11   7 2.21  25 2.30
  67  0.740  0.967  0.044-   6 2.07  26 2.08   5 2.13  20 2.17
  68  0.861  0.795  0.171-  26 2.14  12 2.16  20 2.18  27 2.25   8 2.26  17 2.26   6 2.36
  69  0.126  0.227  0.092-  29 2.01   9 2.05  21 2.10  45 2.66
  70  0.244  0.079  0.213-  21 2.15  29 2.18  30 2.25  22 2.26  10 2.26   9 2.36
  71  0.395  0.928  0.341-  11 2.03  31 2.25  23 2.26  10 2.36  22 2.36  72 2.78
  72  0.525  0.820  0.459-  24 2.05  32 2.13  23 2.14  11 2.16  71 2.78

  LATTYP: Found a base centered orthorhombic cell.
 ALAT       =    11.4527836704
 B/A-ratio  =     1.4485816945
 C/A-ratio  =     1.7901333131

  Lattice vectors:

 A1 = (  10.0797329849,   0.0000000000,   0.0000000000)
 A2 = (  -3.5732980427,  -9.4251025535,   0.0000000000)
 A3 = (   0.0000000000,   0.0000000000, -20.5020095760)

Analysis of symmetry for initial positions (statically):
 Subroutine PRICEL returns:
 Original cell was already a primitive cell.

 Routine SETGRP: Setting up the symmetry group for a
 base centered orthorhombic supercell.

 Subroutine GETGRP returns: Found  1 space group operations
 (whereof  1 operations were pure point group operations)
 out of a pool of  8 trial point group operations.

The static configuration has the point symmetry C_1 .

Analysis of symmetry for dynamics (positions and initial velocities):
 Subroutine PRICEL returns:
 Original cell was already a primitive cell.

 Routine SETGRP: Setting up the symmetry group for a
 base centered orthorhombic supercell.

 Subroutine GETGRP returns: Found  1 space group operations
 (whereof  1 operations were pure point group operations)
 out of a pool of  8 trial point group operations.

The dynamic configuration has the point symmetry C_1 .

 Subroutine INISYM returns: Found  1 space group operations
 (whereof  1 operations are pure point group operations),
 and found     1 'primitive' translations

 KPOINTS: gamma-point-only calculation. no periodi

Automatic generation of k-mesh.
Space group operators:
 irot       det(A)        alpha          n_x          n_y          n_z        tau_x        tau_y        tau_z
    1     1.000000     0.000001     1.000000     0.000000     0.000000     0.000000     0.000000     0.000000

 Subroutine IBZKPT returns following result:

 Found      1 irreducible k-points:

 Following reciprocal coordinates:
            Coordinates               Weight
  0.000000  0.000000  0.000000      1.000000

 Following cartesian coordinates:
            Coordinates               Weight
  0.000000  0.000000  0.000000      1.000000

 SYSTEM =  "Millerite NiS"
 POSCAR =  Type_036 Type_136

 Startparameter for this run:
   NWRITE =      2    write-flag & timer
   PREC   = normal    normal or accurate (medium, high low for compatibility)
   ISTART =      0    job   : 0-new  1-cont  2-samecut
   ICHARG =      2    charge: 1-file 2-atom 10-const
   ISPIN  =      1    spin polarized calculation?
   LNONCOLLINEAR =      F non collinear calculations
   LSORBIT =      F    spin-orbit coupling
   INIWAV =      1    electr: 0-lowe 1-rand  2-diag
   LASPH  =      F    aspherical Exc in radial PAW
   METAGGA=      F    non-selfconsistent MetaGGA calc.

 Electronic Relaxation 1
   ENCUT  =  450.0 eV  33.07 Ry    5.75 a.u.  17.43 17.43 35.46*2*pi/ulx,y,z
   ENINI  =  450.0     initial cutoff
   ENAUG  =  703.4 eV  augmentation charge cutoff
   NELM   =    100;   NELMIN=  2; NELMDL= -5     # of ELM steps
   EDIFF  = 0.1E-03   stopping-criterion for ELM
   LREAL  =      T    real-space projection
   NLSPLINE    = F    spline interpolate recip. space projectors
   LCOMPAT=      F    compatible to vasp.4.4
   GGA_COMPAT  = T    GGA compatible to vasp.4.4-vasp.4.6
   LMAXPAW     = -100 max onsite density
   LMAXMIX     =    2 max onsite mixed and CHGCAR
   VOSKOWN=      0    Vosko Wilk Nusair interpolation
   ROPT   =   -0.00050  -0.00050
 Ionic relaxation
   EDIFFG = 0.1E-02   stopping-criterion for IOM
   NSW    =      0    number of steps for IOM
   NBLOCK =      1;   KBLOCK =      1    inner block; outer block
   IBRION =     -1    ionic relax: 0-MD 1-quasi-New 2-CG
   NFREE  =      0    steps in history (QN), initial steepest desc. (CG)
   ISIF   =      2    stress and relaxation
   IWAVPR =     10    prediction:  0-non 1-charg 2-wave 3-comb
   ISYM   =      2    0-nonsym 1-usesym 2-fastsym
   LCORR  =      T    Harris-Foulkes like correction to forces

   POTIM  = 0.5000    time-step for ionic-motion
   TEIN   =    0.0    initial temperature
   TEBEG  =    0.0;   TEEND  =   0.0 temperature during run
   SMASS  =  -3.00    Nose mass-parameter (am)
   estimated Nose-frequenzy (Omega)   =  0.10E-29 period in steps =****** mass=  -0.232E-26a.u.
   SCALEE = 1.0000    scale energy and forces
   NPACO  =    256;   APACO  = 16.0  distance and # of slots for P.C.
   PSTRESS=    0.0 pullay stress

  Mass of Ions in am
   POMASS =  58.69 32.07
  Ionic Valenz
   ZVAL   =  16.00  6.00
  Atomic Wigner-Seitz radii
  virtual crystal weights
   VCA    =   1.00  1.00
   NELECT =     792.0000    total number of electrons
   NUPDOWN=      -1.0000    fix difference up-down

 DOS related values:
   EMIN   =  10.00;   EMAX   =-10.00  energy-range for DOS
   EFERMI =   0.00
   ISMEAR =     0;   SIGMA  =   0.20  broadening in eV -4-tet -1-fermi 0-gaus

 Electronic relaxation 2 (details)
   IALGO  =     38    algorithm
   LDIAG  =      T    sub-space diagonalisation (order eigenvalues)
   LSUBROT=      F    optimize rotation matrix (better conditioning)
   TURBO    =      0    0=normal 1=particle mesh
   IRESTART =      0    0=no restart 2=restart with 2 vectors
   NREBOOT  =      0    no. of reboots
   NMIN     =      0    reboot dimension
   EREF     =   0.00    reference energy to select bands
   IMIX   =      4    mixing-type and parameters
     AMIX     =   0.40;   BMIX     =  1.00
     AMIX_MAG =   1.60;   BMIX_MAG =  1.00
     AMIN     =   0.10
     WC   =   100.;   INIMIX=   1;  MIXPRE=   1;  MAXMIX= -45

 Intra band minimization:
   WEIMIN = 0.0000     energy-eigenvalue tresh-hold
   EBREAK =  0.53E-07  absolut break condition
   DEPER  =   0.30     relativ break condition

   TIME   =   0.40     timestep for ELM

[...]
  Fock        0.00000     0.00000     0.00000     0.00000     0.00000     0.00000
  Total      97.87708    91.54712   106.57018    -8.66190     1.31354     1.39849
  in kB      80.51189    75.30499    87.66268    -7.12512     1.08050     1.15038

 VOLUME and BASIS-vectors are now :
  energy-cutoff  :      450.00
  volume of cell :     1947.74
      direct lattice vectors                 reciprocal lattice vectors
    10.079732985  0.000000000  0.000000000     0.099208977 -0.037612667  0.000000000
     3.573298043  9.425102554  0.000000000     0.000000000  0.106099641  0.000000000
     0.000000000  0.000000000 20.502009576     0.000000000  0.000000000  0.048775706

  length of vectors
    10.079732985 10.079732985 20.502009576     0.106099641  0.106099641  0.048775706

 FORCES acting on ions
    electron-ion (+dipol)            ewald-force                    non-local-force                 convergence-correction
   -.209E+02 -.349E+03 0.280E+04   0.229E+02 0.349E+03 -.280E+04   -.166E+01 -.108E+01 -.167E+01   -.757E-02 0.263E-01 -.295E-01
   0.173E+03 0.179E+03 0.285E+03   -.171E+03 -.182E+03 -.281E+03   -.227E+00 0.191E+01 -.313E+01   0.955E-03 -.259E-03 -.345E-01
   0.378E+03 -.674E+02 -.229E+04   -.380E+03 0.684E+02 0.229E+04   0.152E+01 -.101E+01 0.140E+01   -.253E-01 -.339E-01 -.141E+00
   0.226E+03 0.341E+03 -.516E+04   -.231E+03 -.340E+03 0.516E+04   0.415E+01 -.206E+00 -.403E+01   -.979E-01 -.411E-03 -.318E-01
   -.110E+02 -.287E+03 0.533E+04   0.110E+02 0.291E+03 -.533E+04   0.332E+00 -.385E+01 0.704E+01   0.222E-01 -.155E-01 -.280E-01
   -.296E+03 -.575E+03 0.278E+04   0.300E+03 0.576E+03 -.278E+04   -.363E+01 -.153E+01 -.110E+01   0.599E-02 -.217E-01 0.402E-01
   0.570E+03 -.331E+03 -.404E+04   -.573E+03 0.332E+03 0.404E+04   0.179E+01 -.768E+00 -.105E+01   -.113E+00 0.198E-01 -.115E+00
   0.382E+03 -.255E+03 -.732E+03   -.382E+03 0.256E+03 0.734E+03   0.509E+00 -.124E+01 -.965E+00   -.690E-01 0.466E-01 -.115E+00
   0.482E+03 -.292E+03 0.196E+04   -.484E+03 0.295E+03 -.195E+04   0.193E+01 -.226E+01 -.536E+00   0.162E-01 -.161E-01 -.273E-01
   0.442E+03 -.202E+03 -.155E+04   -.442E+03 0.203E+03 0.155E+04   0.303E+00 -.183E+01 0.115E+01   0.201E+00 0.842E-03 -.159E+00
   0.220E+03 -.223E+03 -.476E+04   -.219E+03 0.224E+03 0.476E+04   -.103E+01 -.114E+01 -.281E+01   0.143E+00 0.135E-01 -.983E-01
   0.159E+03 0.102E+04 0.436E+04   -.162E+03 -.102E+04 -.436E+04   0.171E+01 0.389E+01 0.575E+01   -.272E-02 0.717E-02 -.307E-01
   0.165E+03 0.776E+03 -.394E+04   -.167E+03 -.783E+03 0.394E+04   0.120E+01 0.505E+01 0.589E+00   -.865E-01 -.233E-01 -.107E+00
   0.402E+02 0.828E+02 0.522E+04   -.381E+02 -.805E+02 -.523E+04   -.175E+01 -.191E+01 0.888E+01   -.315E-02 0.219E-01 -.406E-01
   -.208E+03 0.812E+03 0.313E+04   0.209E+03 -.815E+03 -.313E+04   -.918E+00 0.298E+01 0.439E+00   -.126E-01 -.194E-01 -.977E-02
   -.527E+01 0.518E+03 -.401E+03   0.481E+01 -.519E+03 0.399E+03   0.426E+00 0.526E+00 0.201E+01   -.809E-01 -.411E-02 -.998E-01
   0.797E+02 0.486E+03 0.119E+04   -.799E+02 -.489E+03 -.119E+04   0.208E+00 0.215E+01 -.293E+01   -.220E-01 0.284E-01 -.522E-01
   0.809E+02 0.428E+03 -.153E+04   -.820E+02 -.431E+03 0.152E+04   0.113E+01 0.300E+01 0.236E+01   0.438E-01 -.104E+00 -.146E+00
   0.349E+03 0.463E+03 -.466E+04   -.351E+03 -.468E+03 0.466E+04   0.159E+01 0.405E+01 -.812E+00   0.575E-01 -.101E+00 -.422E-01
   -.436E+03 -.735E+03 0.494E+04   0.437E+03 0.740E+03 -.495E+04   -.913E+00 -.289E+01 0.572E+01   -.394E-02 0.292E-01 -.307E-01
   0.282E+03 0.555E+03 0.405E+04   -.283E+03 -.556E+03 -.406E+04   0.654E+00 -.784E-01 0.167E+01   -.124E-02 -.109E-01 0.264E-01
   -.180E+02 0.395E+03 0.516E+03   0.191E+02 -.396E+03 -.514E+03   -.109E+01 0.891E+00 -.191E+01   0.997E-01 0.117E+00 -.672E-02
   -.109E+03 0.193E+03 -.253E+04   0.108E+03 -.197E+03 0.252E+04   -.495E+00 0.422E+01 0.153E+01   0.557E-01 0.969E-01 -.992E-01
   -.527E+03 -.119E+02 -.524E+04   0.529E+03 0.120E+02 0.524E+04   -.168E+01 -.465E+00 0.157E+01   -.174E-02 0.677E-01 -.132E-01
   -.573E+03 -.264E+03 -.462E+04   0.577E+03 0.269E+03 0.462E+04   -.234E+01 -.356E+01 -.270E+01   0.249E-01 0.645E-01 -.446E-01
   0.540E+03 -.337E+03 0.449E+04   -.545E+03 0.341E+03 -.450E+04   0.314E+01 -.417E+01 0.619E+01   0.400E-02 0.283E-01 -.767E-02
   -.286E+03 0.117E+03 0.127E+04   0.286E+03 -.119E+03 -.127E+04   0.211E-01 0.168E+01 -.350E+01   0.198E-01 0.512E-01 -.978E-02
   -.491E+03 -.238E+03 -.148E+04   0.491E+03 0.240E+03 0.148E+04   -.455E+00 -.140E+01 0.189E+01   -.534E-01 0.348E-01 -.136E+00
   0.268E+03 -.417E+03 0.361E+04   -.271E+03 0.419E+03 -.361E+04   0.199E+01 -.279E+01 0.176E+01   -.239E-01 -.267E-01 -.216E-01
   -.292E+03 -.343E+03 0.259E+03   0.290E+03 0.343E+03 -.256E+03   0.115E+01 -.656E+00 -.219E+01   -.304E-01 0.238E-01 -.123E+00
   -.240E+03 -.451E+03 -.265E+04   0.242E+03 0.455E+03 0.265E+04   -.901E+00 -.346E+01 -.289E+00   0.727E-01 -.211E-02 -.181E+00
   0.522E+02 -.329E+03 -.521E+04   -.478E+02 0.332E+03 0.521E+04   -.444E+01 -.173E+01 -.317E+01   0.745E-01 -.533E-01 0.337E-01
   -.337E+03 0.418E+03 0.531E+04   0.339E+03 -.423E+03 -.532E+04   -.130E+01 0.426E+01 0.975E+01   -.590E-02 0.863E-02 -.393E-01
   -.294E+03 -.325E+03 0.298E+04   0.294E+03 0.327E+03 -.298E+04   0.306E+00 -.138E+01 -.104E+00   0.285E-01 -.119E-01 0.467E-01
   -.457E+03 -.306E+03 -.466E+03   0.457E+03 0.308E+03 0.466E+03   0.897E-01 -.180E+01 0.184E+00   0.251E-01 -.502E-01 -.211E-01
   -.509E+03 -.150E+03 -.380E+04   0.511E+03 0.152E+03 0.381E+04   -.157E+01 -.139E+01 -.187E+01   -.416E-01 0.397E-01 -.169E+00
   -.109E+03 0.741E+02 -.640E+03   0.110E+03 -.740E+02 0.635E+03   -.212E+01 -.129E+00 0.188E+01   0.895E-02 0.857E-02 -.883E-01
   -.864E+02 0.108E+03 -.188E+04   0.875E+02 -.109E+03 0.189E+04   -.486E+00 0.152E+00 -.166E+01   0.540E-01 -.133E-01 0.145E-02
   -.639E+02 0.426E+03 0.205E+04   0.647E+02 -.430E+03 -.206E+04   0.453E+00 0.227E+01 0.473E+01   0.776E-02 0.762E-02 -.277E-01
   -.106E+03 0.108E+03 0.578E+03   0.107E+03 -.108E+03 -.580E+03   -.134E+01 0.621E+00 0.161E+01   -.197E-02 0.379E-02 0.428E-05
   -.142E+03 -.344E+03 0.150E+04   0.143E+03 0.349E+03 -.150E+04   -.229E+01 -.121E+01 0.199E+01   0.307E-03 0.140E-01 0.172E-02
   -.739E+02 0.539E+02 -.898E+02   0.746E+02 -.545E+02 0.913E+02   -.719E+00 0.513E+00 -.791E+00   0.403E-03 -.370E-02 -.505E-01
   -.747E+02 0.522E+02 -.991E+03   0.766E+02 -.524E+02 0.986E+03   -.609E+00 0.251E+00 0.180E+01   0.469E-02 -.515E-01 -.320E-01
   0.770E+02 0.186E+03 -.216E+04   -.765E+02 -.188E+03 0.216E+04   -.574E+00 0.106E+01 -.178E+01   -.331E-01 -.185E-01 0.192E-01
   0.173E+03 -.145E+03 0.227E+04   -.173E+03 0.148E+03 -.227E+04   -.561E+00 -.221E+01 0.147E+01   -.124E-01 0.900E-02 -.243E-01
   -.127E+03 -.231E+01 0.783E+03   0.128E+03 0.139E+01 -.780E+03   -.807E+00 0.773E+00 -.101E+01   0.613E-02 0.685E-02 0.743E-01
   -.156E+03 0.466E+02 -.283E+03   0.158E+03 -.473E+02 0.280E+03   -.151E+01 0.183E-01 0.920E-01   -.162E-01 0.633E-01 -.174E-01
   -.366E+03 -.874E+02 -.167E+04   0.369E+03 0.875E+02 0.167E+04   -.251E+00 -.500E+00 -.101E+01   -.298E-01 0.476E-01 -.315E-01
   0.453E+02 -.309E+03 0.787E+03   -.464E+02 0.314E+03 -.785E+03   0.157E+01 -.333E+01 -.536E-01   0.894E-02 0.171E-01 -.426E-02
   -.118E+02 -.152E+03 -.439E+03   0.121E+02 0.155E+03 0.440E+03   -.443E+00 -.304E+01 -.102E+01   0.132E-01 0.240E-02 -.313E-01
   -.174E+03 -.134E+03 -.163E+04   0.174E+03 0.139E+03 0.163E+04   0.559E+00 -.316E+01 -.215E+01   -.145E-01 0.292E-01 -.384E-01
   -.274E+03 -.160E+03 0.172E+04   0.279E+03 0.161E+03 -.173E+04   -.288E+01 -.188E+00 0.262E+01   0.106E-01 -.127E-01 -.987E-02
   0.113E+03 -.221E+03 0.405E+03   -.114E+03 0.224E+03 -.406E+03   -.333E-01 -.262E+01 0.141E+01   -.145E-01 -.831E-02 -.150E-01
   0.527E+02 -.180E+03 -.949E+03   -.528E+02 0.183E+03 0.949E+03   -.252E-01 -.311E+01 -.183E+00   -.292E-01 0.102E-01 -.763E-01
   0.191E+03 -.205E+03 -.210E+04   -.192E+03 0.207E+03 0.211E+04   0.543E+00 -.826E+00 -.158E+01   0.938E-02 -.124E-01 0.222E-01
   0.413E+02 0.287E+03 0.132E+04   -.417E+02 -.288E+03 -.132E+04   0.806E+00 -.806E+00 0.267E+01   0.614E-03 0.643E-02 -.311E-02
   0.282E+02 -.145E+03 -.432E+02   -.286E+02 0.147E+03 0.436E+02   0.376E+00 -.267E+01 -.565E+00   0.560E-01 -.542E-01 -.990E-02
   -.969E+01 -.160E+03 -.134E+04   0.102E+02 0.163E+03 0.134E+04   -.351E+00 -.163E+01 -.110E+01   0.527E-01 -.137E-01 -.789E-01
   0.584E+02 0.146E+03 0.242E+04   -.594E+02 -.146E+03 -.243E+04   0.718E+00 -.814E-01 0.244E+01   -.105E-01 0.662E-03 -.481E-01
   -.752E+02 -.188E+03 0.227E+04   0.764E+02 0.190E+03 -.228E+04   -.906E+00 -.117E+01 0.288E+01   0.534E-02 0.106E-01 -.284E-01
   0.992E+02 0.327E+03 0.148E+04   -.101E+03 -.332E+03 -.148E+04   0.161E+01 0.184E+01 0.310E+01   -.122E-01 -.100E-02 -.454E-02
   0.122E+03 0.115E+03 0.645E+02   -.125E+03 -.116E+03 -.642E+02   0.239E+01 0.158E+01 0.199E+00   -.499E-01 -.550E-01 0.452E-02
   0.927E+02 0.248E+03 -.117E+04   -.951E+02 -.250E+03 0.117E+04   0.195E+01 0.121E+01 -.603E+00   -.768E-01 -.229E-01 -.663E-01
   -.294E+02 0.210E+03 -.226E+04   0.295E+02 -.211E+03 0.227E+04   -.986E-01 0.894E+00 -.295E+01   -.217E-01 -.807E-02 0.714E-01
   0.150E+03 0.663E+02 -.432E+03   -.153E+03 -.672E+02 0.432E+03   0.210E+01 0.116E+01 0.345E-01   -.263E-01 0.523E-02 -.601E-01
   0.187E+03 0.473E+02 -.165E+04   -.188E+03 -.483E+02 0.165E+04   0.697E-01 0.261E+00 0.960E-01   0.308E-01 -.240E-01 -.195E-01
   -.226E+01 -.132E+03 0.234E+04   0.153E+01 0.131E+03 -.235E+04   0.524E+00 -.179E+00 0.269E+01   0.835E-02 -.134E-01 -.290E-01
   0.673E+02 -.701E+02 0.554E+03   -.674E+02 0.704E+02 -.550E+03   0.968E-01 0.276E+00 -.192E+01   0.151E-03 0.133E-01 0.545E-02
   0.243E+03 -.108E+03 0.210E+04   -.246E+03 0.110E+03 -.210E+04   0.191E+01 -.974E+00 0.108E+01   -.125E-01 -.127E-01 -.200E-01
   0.780E+02 0.469E+02 0.360E+03   -.777E+02 -.486E+02 -.358E+03   -.483E+00 0.117E+01 -.663E+00   0.150E-01 -.442E-02 -.109E-01
   0.176E+03 0.813E+02 -.744E+03   -.179E+03 -.829E+02 0.743E+03   0.257E+01 0.730E+00 -.916E+00   0.484E-01 0.258E-01 -.524E-01
   0.105E+03 -.161E+03 -.201E+04   -.106E+03 0.160E+03 0.202E+04   0.191E+00 0.273E+00 -.168E+01   0.233E-01 0.196E-01 -.590E-03
   -.180E+01 0.206E+02 -.336E+02   -.293E-11 -.114E-11 -.432E-11   0.170E+01 -.208E+02 0.363E+02   0.216E+00 0.203E+00 -.274E+01

 POSITION                                       TOTAL-FORCE (eV/Angst)
      6.05137      6.82538      3.13445         0.333389     -0.136122     -0.081224
      7.43572      5.66537      4.56814         0.869646     -0.776549      1.209578
      8.41343      4.24907      7.19364        -0.037344     -0.013086     -0.560715
      8.71770      3.33116      9.46619        -1.003714      0.200425      0.959581
      6.24293      1.43852      1.42939         0.291533      0.052267     -0.551655
      7.76163      0.32617      2.81780         0.886899      0.111345      2.593205
      3.21062      6.91868      8.06881        -1.214240      0.377769     -0.736059
     12.31264      8.33497      5.44331         0.134491      0.034460      0.383799
      2.55881      2.99577      3.69297         0.070404      1.009702      1.557277
      3.53652      1.57947      6.31847         0.497946     -0.071457     -0.123004
      4.34554      0.30914      8.66669         0.222072      0.351115      1.173377
     11.67909      5.87510      2.08439        -1.075001     -0.696141      0.158544
      0.51382      1.09100      8.43180        -0.911736     -1.170164     -1.851638
      7.94143      6.24218      1.84381         0.416882      0.323807     -1.098216
      8.63813      3.92359      3.18079        -0.068269      0.193373      0.843123
      9.61584      2.50729      5.80630        -0.115360     -0.096876     -0.007754
      3.43531      6.59319      4.05596        -0.045219     -0.375081      0.520130
      4.41302      5.17689      6.68146         0.116032     -0.050495     -1.372364
      5.22388      3.93744      8.92789        -0.680815     -1.088598      0.601676
     12.62937      8.07301      1.71187         0.175255      1.532791     -0.649490
      3.84499      1.22880      2.59531         0.145394     -1.206865     -0.404461
      8.31222      9.26279      4.93113         0.114170     -0.350110      0.113964
      9.28993      7.84650      7.55663        -1.067627      0.785001     -2.500086
      9.93568      6.60193      9.46959         0.598740     -0.381255      1.102226
      1.63583      3.25677      8.88539         1.881059      1.796793      0.735664
      9.94765      7.69382      2.06622        -0.990604     -0.389440      0.041803
      9.84053      6.03956      3.87447         0.095046     -0.447639      0.792270
     10.81824      4.62327      6.49997        -0.068767     -0.075508     -0.113590
      1.03340      0.86707      3.03453        -0.587484     -0.843652     -0.708831
      4.63771      8.70917      4.74963        -0.053453     -0.698517      1.146906
      5.61542      7.29287      7.37514         0.683639      0.124994     -1.436283
      6.80726      6.14450      9.58734        -0.029250      1.074158      0.996017
      4.30701      6.22375      1.45200         0.745090     -0.255083     -0.564663
      4.96362      3.36996      2.99930         0.252895      0.618704      1.721799
      5.94133      1.95367      5.62480         0.042812      0.058092      0.227027
      6.88335      0.64595      7.97488         0.662991      0.661745      1.133548
      1.57981      2.47018      6.99321        -0.553299     -0.070110     -2.717270
      2.52071      1.28175      9.07419         0.659433     -0.899423      2.185198
      9.70412      5.30277      1.74220         1.293130     -1.603399     -1.652326
     10.68183      3.88647      4.36771        -0.139547     -0.001768      0.186274
      4.50130      7.97237      2.61737        -1.359568      3.791023      0.085978
      5.47901      6.55607      5.24287        -0.047796     -0.079400      0.565998
      6.45673      5.13978      7.86838         1.358928      0.032753     -3.597434
      6.91508      4.13739     10.16647        -0.113737     -1.025594      2.215365
      4.60302      2.56489      1.15273        -0.899733      0.534871     -3.576163
      5.80492      1.21687      3.49254         0.115236     -0.141509      1.980029
     10.35593      9.22568      6.11804        -0.166394     -0.574927     -2.417947
     11.09962      8.06561      8.58586         2.529630     -0.353919      1.591417
      8.17302      7.52069      3.50880         0.481438      2.127612      1.087089
      9.15074      6.10439      6.13430        -0.164870     -0.300300     -0.271800
     10.12845      4.68809      8.75980         0.417952      1.301854     -0.557198
      8.06107      2.26551      2.07326         1.969033      0.797189     -1.909533
      9.47664      0.76519      4.38397        -1.063024      0.171553      0.814806
      3.94792      8.77399      7.00947        -0.193827     -0.101439      0.020744
      4.90130      6.97529      9.26337        -0.758662      1.613880      3.163897
      3.29611      4.85108      2.63363         0.413609     -1.567253      1.849690
      4.27382      3.43479      5.25914         0.025702      0.012158     -0.185748
      5.25153      2.01849      7.88464         0.244094      1.237995     -0.096188
      2.58891      6.52455      0.36929        -0.333578     -0.465684     -3.604809
      6.21285      6.85977      0.92909         0.333012      1.018996     -2.907981
      6.64193      4.82628      2.62550        -0.693257     -2.625818      0.869964
      7.61964      3.40999      5.25100         0.086989      0.200538      0.458128
      8.59735      1.99369      7.87651        -0.533416     -1.185113     -0.845235
     10.34560      2.25302     10.09880         0.026382     -0.466701      3.593659
      2.41682      6.07959      6.12617        -0.456278      0.244943     -0.387986
      3.33346      4.74706      8.44247        -1.016401     -0.827521      2.034076
     10.91325      9.11385      0.89357        -0.205635     -0.631576     -3.255856
     11.51884      7.49589      3.50067        -0.043267      0.529785      1.898157
      2.08504      2.13876      1.89075        -1.154677      0.466390     -3.238910
      2.74272      0.74039      4.37584        -0.238463     -0.455385      1.402505
      7.29374      8.74919      7.00134        -0.625002     -0.894763     -2.397733
      8.22066      7.72627      9.41093        -0.481638      0.006159      2.365662
    total drift:                                0.119430      0.062310      0.011460

  FREE ENERGIE OF THE ION-ELECTRON SYSTEM (eV)
  free  energy   TOTEN  =      -350.68683707 eV

  energy  without entropy=     -349.76826625  energy(sigma->0) =     -350.22755166