 vasp.5.4.4.18Apr17-6-g9f103f2a35 (build Aug 13 2019 17:33:20) gamma-only

 executed on             LinuxIFC date 2020.05.10  12:47:47

 INCAR:
 POTCAR:    PAW_PBE Ni_pv 06Sep2000
 POTCAR:    PAW_PBE S 06Sep2000
 POTCAR:    PAW_PBE Ni_pv 06Sep2000
   VRHFIN =Ni:

   TITEL  = PAW_PBE Ni_pv 06Sep2000
   POMASS =   58.690; ZVAL   =   16.000    mass and valenz
   ENMAX  =  367.986; ENMIN  =  275.989 eV

 POTCAR:    PAW_PBE S 06Sep2000
   VRHFIN =S : s2p4

   TITEL  = PAW_PBE S 06Sep2000
   POMASS =   32.066; ZVAL   =    6.000    mass and valenz
   ENMAX  =  258.689; ENMIN  =  194.016 eV

 Optimization of the real space projectors (new method)

 maximal supplied QI-value         = 18.90
 optimisation between [QCUT,QGAM] = [ 10.77, 21.73] = [ 32.49,132.25] Ry
 Optimized for a Real-space Cutoff    1.38 Angstroem

   l    n(q)    QCUT    max X(q) W(low)/X(q) W(high)/X(q)  e(spline)
   1      8    10.771     2.836    0.40E-04    0.29E-04    0.12E-06
   1      8    10.771     4.023    0.10E-03    0.48E-04    0.29E-06
   2      8    10.771    73.368    0.42E-03    0.97E-04    0.44E-06
   2      8    10.771    69.010    0.42E-03    0.99E-04    0.45E-06
   0      9    10.771    54.797    0.10E-03    0.56E-04    0.74E-07
   0      9    10.771    24.266    0.89E-04    0.49E-04    0.67E-07
 Optimization of the real space projectors (new method)

 maximal supplied QI-value         = 19.84
 optimisation between [QCUT,QGAM] = [ 10.71, 21.63] = [ 32.15,130.99] Ry
 Optimized for a Real-space Cutoff    1.19 Angstroem

   l    n(q)    QCUT    max X(q) W(low)/X(q) W(high)/X(q)  e(spline)
   0      8    10.715   187.594    0.41E-03    0.53E-04    0.66E-07
   0      8    10.715   164.243    0.41E-03    0.53E-04    0.65E-07
   1      7    10.715    67.533    0.19E-03    0.59E-03    0.68E-07
   1      7    10.715    50.729    0.19E-03    0.58E-03    0.67E-07
  PAW_PBE Ni_pv 06Sep2000               :
  PAW_PBE S 06Sep2000                   :

 POSCAR: Type_026 Type_126
  positions in cartesian coordinates
 exchange correlation table for  LEXCH =        8
   RHO(1)=    0.500       N(1)  =     2000
   RHO(2)=  100.500       N(2)  =     4000

 ion  position               nearest neighbor table
   1  0.439  0.464  0.163-  44 2.04  34 2.20  30 2.25  35 2.36  45 2.36   5 2.53  22 2.53
   2  0.497  0.439  0.332-  46 2.06  41 2.07  35 2.08  45 2.14  23 2.34
   3  0.210  0.129  0.101-  33 2.05  27 2.07  36 2.10  34 2.15   9 2.42  24 2.45  28 2.65
   4  0.202  0.975  0.235-  28 2.08  37 2.08  38 2.09  33 2.11  12 2.46  26 2.52
   5  0.439  0.200  0.163-  39 2.10  34 2.10  33 2.25  35 2.36  40 2.36   1 2.53  22 2.53
   6  0.470  0.171  0.312-  41 2.01  40 2.03  35 2.06
   7  0.238  0.836  0.103-  36 2.05  33 2.07  37 2.10  30 2.13
   8  0.207  0.684  0.233-  30 2.05  31 2.07  38 2.07  37 2.13  26 2.36  12 2.43
   9  0.126  0.334  0.161-  31 2.08  28 2.12  27 2.16  34 2.16   3 2.42  18 2.47
  10  0.182  0.332  0.319-  29 2.05  32 2.08  35 2.25  28 2.26  31 2.26  19 2.34
  11  0.471  0.775  0.092-  50 2.05  51 2.10  30 2.11  20 2.50  12 2.52
  12  0.382  0.831  0.223-  30 2.11  33 2.12  38 2.20  13 2.38   8 2.43   4 2.46  51 2.48  11 2.52

  13  0.553  0.860  0.302-  52 1.98  51 2.18  12 2.38  17 2.39  21 2.54
  14  0.918  0.471  0.181-  48 2.07  49 2.09  42 2.13  31 2.41  15 2.47
  15  0.975  0.490  0.319-  32 2.02  31 2.07  43 2.08  49 2.12  14 2.47
  16  0.664  0.957  0.093-  50 2.07  51 2.08  39 2.09  47 2.20
  17  0.712  0.976  0.237-  52 2.06  47 2.07  40 2.13  51 2.17  13 2.39
  18  0.939  0.200  0.163-  27 2.04  48 2.12  47 2.25  49 2.36  28 2.36  24 2.39   9 2.47
  19  0.997  0.225  0.334-  29 2.05  32 2.09  49 2.10  28 2.16  10 2.34
  20  0.648  0.630  0.125-  44 2.06  50 2.12  42 2.18  51 2.24  45 2.36  21 2.42  11 2.50
  21  0.715  0.700  0.253-  52 2.09  45 2.25  51 2.26  42 2.26  43 2.37  20 2.42  13 2.54
  22  0.631  0.332  0.139-  44 2.06  39 2.09  48 2.10  40 2.36  45 2.36   5 2.53   1 2.53
  23  0.682  0.332  0.319-  46 2.05  41 2.07  49 2.25  40 2.26  45 2.26   2 2.34
  24  0.026  0.994  0.109-  36 2.06  37 2.11  27 2.22  47 2.26  18 2.39   3 2.45
  25  0.902  0.831  0.212-  42 2.07  47 2.09  43 2.10  37 2.21  26 2.46
  26  0.066  0.810  0.306-  43 2.09  38 2.11  37 2.21   8 2.36  25 2.46   4 2.52
  27  0.048  0.213  0.068-  18 2.04   3 2.07   9 2.16  24 2.22  36 2.75
  28  0.111  0.164  0.239-   4 2.08   9 2.12  19 2.16  10 2.26  18 2.36  29 2.59   3 2.65
  29  0.151  0.161  0.388-  19 2.05  10 2.05  32 2.39  28 2.59
  30  0.336  0.664  0.149-   8 2.05  12 2.11  11 2.11   7 2.13   1 2.25
  31  0.111  0.500  0.239-   8 2.07  15 2.07   9 2.08  10 2.26  14 2.41
  32  0.061  0.386  0.405-  15 2.02  10 2.08  19 2.09  29 2.39
  33  0.336  1.000  0.149-   3 2.05   7 2.07   4 2.11  12 2.12   5 2.25
  34  0.304  0.323  0.114-   5 2.10   3 2.15   9 2.16   1 2.20  35 2.76
  35  0.368  0.332  0.269-   6 2.06   2 2.08  10 2.25   1 2.36   5 2.36  34 2.76
  36  0.156  0.967  0.026-   7 2.05  24 2.06   3 2.10  27 2.75
  37  0.092  0.832  0.179-   4 2.08   7 2.10  24 2.11   8 2.13  26 2.21  25 2.21
  38  0.252  0.827  0.318-   8 2.07   4 2.09  26 2.11  12 2.20
  39  0.575  0.148  0.084-  16 2.09  22 2.09   5 2.10  40 2.70
  40  0.611  0.164  0.239-   6 2.03  17 2.13  23 2.26  22 2.36   5 2.36  39 2.70
  41  0.555  0.272  0.398-   6 2.01  23 2.07   2 2.07  46 2.49
  42  0.836  0.664  0.149-  25 2.07  14 2.13  20 2.18  21 2.26
  43  0.910  0.692  0.306-  15 2.08  26 2.09  25 2.10  21 2.37  52 2.70
  44  0.550  0.479  0.069-   1 2.04  20 2.06  22 2.06
  45  0.611  0.500  0.239-   2 2.14  21 2.25  23 2.26  20 2.36  22 2.36   1 2.36  46 2.56
  46  0.651  0.505  0.385-  23 2.05   2 2.06  41 2.49  45 2.56
  47  0.836  1.000  0.149-  17 2.07  25 2.09  16 2.20  18 2.25  24 2.26
  48  0.813  0.339  0.114-  14 2.07  22 2.10  18 2.12  49 2.73
  49  0.868  0.332  0.269-  14 2.09  19 2.10  15 2.12  23 2.25  18 2.36  48 2.73
  50  0.629  0.775  0.032-  11 2.05  16 2.07  20 2.12  51 2.62
  51  0.592  0.832  0.179-  16 2.08  11 2.10  17 2.17  13 2.18  20 2.24  21 2.26  12 2.48  50 2.62

  52  0.721  0.857  0.337-  13 1.98  17 2.06  21 2.09  43 2.70

  LATTYP: Found a simple orthorhombic cell.
 ALAT       =     9.5784100000
 B/A-ratio  =     1.1751911892
 C/A-ratio  =     1.7949213288

  Lattice vectors:

 A1 = (   0.0000000000,  -9.5784100000,   0.0000000000)
 A2 = ( -11.2564630382,   0.0000000000,   0.0000000000)
 A3 = (   0.0000000000,   0.0000000000, -17.1924924047)

Analysis of symmetry for initial positions (statically):
 Subroutine PRICEL returns:
 Original cell was already a primitive cell.

 Routine SETGRP: Setting up the symmetry group for a
 simple orthorhombic supercell.

 Subroutine GETGRP returns: Found  1 space group operations
 (whereof  1 operations were pure point group operations)
 out of a pool of  8 trial point group operations.

The static configuration has the point symmetry C_1 .

Analysis of symmetry for dynamics (positions and initial velocities):
 Subroutine PRICEL returns:
 Original cell was already a primitive cell.

 Routine SETGRP: Setting up the symmetry group for a
 simple orthorhombic supercell.

 Subroutine GETGRP returns: Found  1 space group operations
 (whereof  1 operations were pure point group operations)
 out of a pool of  8 trial point group operations.

The dynamic configuration has the point symmetry C_1 .

 Subroutine INISYM returns: Found  1 space group operations
 (whereof  1 operations are pure point group operations),
 and found     1 'primitive' translations

 KPOINTS: gamma-point-only calculation. no periodi

Automatic generation of k-mesh.
Space group operators:
 irot       det(A)        alpha          n_x          n_y          n_z        tau_x        tau_y        tau_z
    1     1.000000     0.000000     1.000000     0.000000     0.000000     0.000000     0.000000     0.000000

 Subroutine IBZKPT returns following result:

 Found      1 irreducible k-points:

 Following reciprocal coordinates:
            Coordinates               Weight
  0.000000  0.000000  0.000000      1.000000

 Following cartesian coordinates:
            Coordinates               Weight
  0.000000  0.000000  0.000000      1.000000

 SYSTEM =  "Millerite NiS"
 POSCAR =  Type_026 Type_126

 Startparameter for this run:
   NWRITE =      2    write-flag & timer
   PREC   = normal    normal or accurate (medium, high low for compatibility)
   ISTART =      0    job   : 0-new  1-cont  2-samecut
   ICHARG =      2    charge: 1-file 2-atom 10-const
   ISPIN  =      1    spin polarized calculation?
   LNONCOLLINEAR =      F non collinear calculations
   LSORBIT =      F    spin-orbit coupling
   INIWAV =      1    electr: 0-lowe 1-rand  2-diag
   LASPH  =      F    aspherical Exc in radial PAW
   METAGGA=      F    non-selfconsistent MetaGGA calc.

 Electronic Relaxation 1
   ENCUT  =  450.0 eV  33.07 Ry    5.75 a.u.  19.47 16.57 29.74*2*pi/ulx,y,z
   ENINI  =  450.0     initial cutoff
   ENAUG  =  703.4 eV  augmentation charge cutoff
   NELM   =    100;   NELMIN=  2; NELMDL= -5     # of ELM steps
   EDIFF  = 0.1E-03   stopping-criterion for ELM
   LREAL  =      T    real-space projection
   NLSPLINE    = F    spline interpolate recip. space projectors
   LCOMPAT=      F    compatible to vasp.4.4
   GGA_COMPAT  = T    GGA compatible to vasp.4.4-vasp.4.6
   LMAXPAW     = -100 max onsite density
   LMAXMIX     =    2 max onsite mixed and CHGCAR
   VOSKOWN=      0    Vosko Wilk Nusair interpolation
   ROPT   =   -0.00050  -0.00050
 Ionic relaxation
   EDIFFG = 0.1E-02   stopping-criterion for IOM
   NSW    =      0    number of steps for IOM
   NBLOCK =      1;   KBLOCK =      1    inner block; outer block
   IBRION =     -1    ionic relax: 0-MD 1-quasi-New 2-CG
   NFREE  =      0    steps in history (QN), initial steepest desc. (CG)
   ISIF   =      2    stress and relaxation
   IWAVPR =     10    prediction:  0-non 1-charg 2-wave 3-comb
   ISYM   =      2    0-nonsym 1-usesym 2-fastsym
   LCORR  =      T    Harris-Foulkes like correction to forces

   POTIM  = 0.5000    time-step for ionic-motion
   TEIN   =    0.0    initial temperature
   TEBEG  =    0.0;   TEEND  =   0.0 temperature during run
   SMASS  =  -3.00    Nose mass-parameter (am)
   estimated Nose-frequenzy (Omega)   =  0.10E-29 period in steps =****** mass=  -0.290E-26a.u.
   SCALEE = 1.0000    scale energy and forces
   NPACO  =    256;   APACO  = 16.0  distance and # of slots for P.C.
   PSTRESS=    0.0 pullay stress

  Mass of Ions in am
   POMASS =  58.69 32.07
  Ionic Valenz
   ZVAL   =  16.00  6.00
  Atomic Wigner-Seitz radii
  virtual crystal weights
   VCA    =   1.00  1.00
   NELECT =     572.0000    total number of electrons
   NUPDOWN=      -1.0000    fix difference up-down

 DOS related values:
   EMIN   =  10.00;   EMAX   =-10.00  energy-range for DOS
   EFERMI =   0.00
   ISMEAR =     0;   SIGMA  =   0.20  broadening in eV -4-tet -1-fermi 0-gaus

 Electronic relaxation 2 (details)
   IALGO  =     38    algorithm
   LDIAG  =      T    sub-space diagonalisation (order eigenvalues)
   LSUBROT=      F    optimize rotation matrix (better conditioning)
   TURBO    =      0    0=normal 1=particle mesh
[...]
      26 -87.4343      27 -92.8197      28 -93.6427      29 -92.5368      30 -93.1596
      31 -93.1302      32 -92.8967      33 -93.3595      34 -92.6149      35 -92.9895
      36 -92.1650      37 -93.7764      38 -92.6523      39 -92.2705      40 -93.3379
      41 -92.8452      42 -92.6993      43 -92.9315      44 -92.4858      45 -93.2812
      46 -92.2235      47 -93.0366      48 -92.4051      49 -93.0643      50 -92.3028
      51 -93.9956      52 -92.4242

 E-fermi :  -0.1491     XC(G=0):  -5.4323     alpha+bet : -5.1393

 k-point     1 :       0.0000    0.0000    0.0000
  band No.  band energies     occupation
      1     -64.8555      2.00000
      2     -64.7940      2.00000
      3     -64.7708      2.00000
      4     -64.7530      2.00000
      5     -64.7526      2.00000
      6     -64.7512      2.00000
      7     -64.7424      2.00000
      8     -64.7388      2.00000
      9     -64.7370      2.00000
     10     -64.7203      2.00000
     11     -64.7025      2.00000
     12     -64.6696      2.00000
     13     -64.6639      2.00000
     14     -64.6637      2.00000
     15     -64.6588      2.00000
     16     -64.6527      2.00000
     17     -64.6358      2.00000
     18     -64.6281      2.00000
     19     -64.6225      2.00000
     20     -64.6028      2.00000
     21     -64.6003      2.00000
     22     -64.5969      2.00000
     23     -64.5919      2.00000
     24     -64.5897      2.00000
     25     -64.5818      2.00000
     26     -64.5709      2.00000
     27     -64.5623      2.00000
     28     -64.5552      2.00000
     29     -64.5390      2.00000
     30     -64.5300      2.00000
     31     -64.4998      2.00000
     32     -64.4943      2.00000
     33     -64.4787      2.00000
     34     -64.4748      2.00000
     35     -64.4597      2.00000
     36     -64.4558      2.00000
     37     -64.4450      2.00000
     38     -64.4131      2.00000
     39     -64.3931      2.00000
     40     -64.3872      2.00000
     41     -64.3864      2.00000
     42     -64.3785      2.00000
     43     -64.3765      2.00000
     44     -64.3713      2.00000
     45     -64.3699      2.00000
     46     -64.3662      2.00000
     47     -64.3499      2.00000
     48     -64.3478      2.00000
     49     -64.3358      2.00000
     50     -64.3345      2.00000
     51     -64.3118      2.00000
     52     -64.2986      2.00000
     53     -64.2977      2.00000
     54     -64.2898      2.00000
     55     -64.2787      2.00000
     56     -64.2782      2.00000
     57     -64.2675      2.00000
     58     -64.2430      2.00000
     59     -64.2348      2.00000
     60     -64.2106      2.00000
[...]
    330       4.9149      0.00000
    331       4.9375      0.00000
    332       5.0134      0.00000
    333       5.1273      0.00000
    334       5.1594      0.00000
    335       5.2224      0.00000
    336       5.2670      0.00000
    337       5.3435      0.00000
    338       5.3967      0.00000
    339       5.4364      0.00000
    340       5.5114      0.00000
    341       5.5883      0.00000
    342       5.6150      0.00000
    343       5.6688      0.00000
    344       5.7695      0.00000

 soft charge-density along one line, spin component           1
         0         1         2         3         4         5         6         7         8         9
 total charge-density along one line

------------------------ aborting loop because EDIFF is reached ----------------------------------------

  FORCE on cell =-STRESS in cart. coord.  units (eV):
  Direction    XX          YY          ZZ          XY          YZ          ZX
  Alpha Z  1046.73971  1046.73971  1046.73971
  Ewald  163559.64291160679.22282************  -989.63908   -44.56360  -133.18478
  Hartree187928.46001185695.76480************  -849.35351    55.18215  -157.05878
  E(xc)   -3652.36353 -3653.07729 -3656.59171    -0.35996    -0.14984     0.40885
  Local  ************************349041.33939  1836.36767   -13.34406   295.49757
  n-local  -416.86632  -426.13107  -429.35591    -0.07115    -4.87728     4.94241
  augment  4172.94371  4186.55334  4180.94559     0.80688     1.99500    -4.30120
  Kinetic  8021.22821  8028.24385  8074.36307     0.87524     3.66631    -1.81761
  Fock        0.00000     0.00000     0.00000     0.00000     0.00000     0.00000
  Total      98.69460    97.60360   105.84064    -1.37390    -2.09132     4.48647
  in kB      85.30407    84.36110    91.48056    -1.18749    -1.80758     3.87776

 VOLUME and BASIS-vectors are now :
  energy-cutoff  :      450.00
  volume of cell :     1853.68
      direct lattice vectors                 reciprocal lattice vectors
    11.256463038  0.000000000  0.000000000     0.088837852  0.000000000  0.000000000
     0.000000000  9.578410000  0.000000000     0.000000000  0.104401461  0.000000000
     0.000000000  0.000000000 17.192492405     0.000000000  0.000000000  0.058164923

  length of vectors
    11.256463038  9.578410000 17.192492405     0.088837852  0.104401461  0.058164923

 FORCES acting on ions
    electron-ion (+dipol)            ewald-force                    non-local-force                 convergence-correction
   0.546E+03 -.304E+03 0.132E+04   -.547E+03 0.305E+03 -.133E+04   0.315E+00 -.104E+01 0.336E+01   -.731E-01 -.158E+00 0.262E-01
   0.650E+03 -.782E+03 -.320E+04   -.655E+03 0.784E+03 0.320E+04   0.320E+01 -.977E+00 -.198E+01   -.344E-01 -.148E+00 0.151E+00
   -.387E+03 -.414E+03 0.324E+04   0.388E+03 0.417E+03 -.324E+04   -.401E+00 -.154E+01 0.597E+01   -.155E+00 0.151E+00 -.350E-01
   -.174E+02 -.417E+03 -.140E+04   0.176E+02 0.422E+03 0.141E+04   -.246E+00 -.416E+01 -.527E+01   -.276E+00 0.203E+00 0.112E+00
   0.730E+02 0.199E+03 0.148E+04   -.719E+02 -.201E+03 -.148E+04   -.698E+00 0.110E+01 0.414E+01   -.161E+00 0.348E+00 0.870E-01
   0.343E+03 0.667E+03 -.294E+04   -.343E+03 -.671E+03 0.294E+04   -.123E+01 0.186E+01 -.200E+01   -.153E+00 0.323E+00 0.264E+00
   0.234E+03 0.733E+03 0.346E+04   -.234E+03 -.735E+03 -.348E+04   0.458E+00 0.989E+00 0.115E+02   -.298E+00 -.360E-01 -.176E+00
   -.153E+02 0.878E+03 -.744E+03   0.145E+02 -.887E+03 0.748E+03   0.563E+00 0.718E+01 -.493E+01   -.251E+00 -.243E+00 0.481E-01
   -.195E+03 -.865E+03 0.179E+04   0.196E+03 0.870E+03 -.179E+04   -.149E+01 -.418E+01 0.107E+01   -.155E-01 0.107E-01 0.165E+00
   -.778E+03 -.311E+03 -.279E+04   0.787E+03 0.315E+03 0.279E+04   -.638E+01 -.214E+01 -.504E+00   -.101E+00 -.576E-01 0.180E+00
   0.267E+03 0.868E+02 0.348E+04   -.267E+03 -.873E+02 -.348E+04   -.796E+00 0.120E+01 0.502E+01   -.244E+00 -.283E+00 -.220E+00
   -.351E+03 0.139E+03 -.986E+03   0.356E+03 -.139E+03 0.993E+03   -.440E+01 0.385E+00 -.615E+01   -.379E+00 -.920E-01 -.945E-02
   0.445E+03 0.473E+02 -.325E+04   -.446E+03 -.463E+02 0.325E+04   -.317E+00 -.816E+00 0.434E+00   0.111E+00 0.570E-02 0.284E+00
   0.417E+01 -.453E+03 0.152E+04   -.632E+01 0.458E+03 -.152E+04   0.321E+01 -.466E+01 0.370E+01   0.880E-01 -.392E-01 0.839E-01
   0.227E+03 -.546E+03 -.302E+04   -.230E+03 0.551E+03 0.303E+04   0.201E+01 -.321E+01 -.261E+01   0.162E+00 -.107E+00 0.132E+00
   -.357E+03 -.391E+03 0.341E+04   0.357E+03 0.395E+03 -.342E+04   0.928E-01 -.289E+01 0.540E+01   0.182E+00 0.641E-01 -.141E+00
   -.353E+03 -.620E+03 -.110E+04   0.355E+03 0.625E+03 0.110E+04   -.203E+01 -.468E+01 -.492E+01   0.400E+00 0.171E+00 0.226E+00
   0.665E+03 0.115E+02 0.133E+04   -.670E+03 -.125E+02 -.133E+04   0.235E+01 0.861E+00 0.253E+01   0.157E+00 0.146E+00 0.694E-01
   0.682E+03 0.807E+03 -.324E+04   -.687E+03 -.810E+03 0.324E+04   0.350E+01 0.184E+01 -.344E+00   0.297E+00 0.145E+00 0.153E+00
   -.476E+03 0.341E+03 0.258E+04   0.479E+03 -.343E+03 -.259E+04   -.247E+01 0.266E+01 0.515E+01   0.176E+00 -.394E+00 -.264E-01
   -.142E+03 0.403E+03 -.161E+04   0.141E+03 -.406E+03 0.161E+04   0.100E+01 0.277E+01 -.314E+01   0.369E+00 -.346E+00 0.926E-01
   -.552E+03 0.131E+03 0.221E+04   0.556E+03 -.132E+03 -.221E+04   -.328E+01 0.695E+00 0.400E+01   0.489E-01 0.198E+00 0.295E-01
   -.707E+03 0.286E+03 -.272E+04   0.716E+03 -.290E+03 0.272E+04   -.614E+01 0.221E+01 -.629E+00   0.434E-01 0.961E-01 0.173E+00
   0.699E+03 0.445E+03 0.301E+04   -.703E+03 -.445E+03 -.302E+04   0.149E+01 0.363E-01 0.465E+01   0.759E-01 0.491E-01 -.230E-01
   -.121E+03 0.210E+01 0.705E+02   0.121E+03 -.468E+00 -.717E+02   0.855E+00 -.105E+01 0.974E+00   0.228E+00 -.144E+00 0.112E+00
   0.267E+03 -.110E+03 -.332E+04   -.268E+03 0.110E+03 0.332E+04   0.134E+01 0.111E+01 -.987E+00   -.150E+00 -.670E-01 0.171E+00
   0.188E+03 -.294E+03 0.172E+04   -.189E+03 0.297E+03 -.173E+04   0.106E+01 -.173E+01 0.395E+01   0.195E-01 0.322E-01 -.992E-02
   -.180E+01 0.117E+03 -.405E+03   0.332E+01 -.120E+03 0.405E+03   -.216E+01 0.173E+01 0.339E+00   -.110E-01 0.123E+00 0.895E-01
   -.183E+03 0.349E+03 -.163E+04   0.186E+03 -.353E+03 0.164E+04   -.143E+01 0.239E+01 -.255E+00   -.292E-02 0.924E-01 0.340E-01
   0.115E+03 0.415E+03 0.754E+03   -.116E+03 -.417E+03 -.756E+03   0.177E+01 -.821E+00 0.488E+00   -.993E-01 -.131E+00 -.421E-01
   -.142E+03 -.184E+03 -.133E+03   0.145E+03 0.185E+03 0.131E+03   -.145E+01 -.826E+00 0.557E+00   -.112E-01 -.984E-01 0.657E-01
   -.452E+02 -.167E+03 -.184E+04   0.443E+02 0.171E+03 0.185E+04   0.123E+01 -.377E+01 -.310E+01   0.687E-01 -.370E-01 0.756E-02
   -.297E+03 -.146E+03 0.678E+03   0.301E+03 0.147E+03 -.679E+03   0.190E+00 0.561E+00 0.190E+01   -.129E+00 0.849E-01 -.582E-01
   0.310E+02 -.287E+03 0.120E+04   -.321E+02 0.289E+03 -.121E+04   0.321E+00 -.120E+01 0.441E+01   -.555E-01 0.401E-01 0.967E-02
   0.233E+03 -.124E+03 -.591E+03   -.236E+03 0.125E+03 0.592E+03   0.156E+01 -.471E+00 -.156E+01   -.106E+00 0.945E-02 0.645E-01
   0.587E+02 0.126E+03 0.189E+04   -.587E+02 -.127E+03 -.189E+04   0.991E-01 0.334E+00 0.262E+01   -.281E-01 -.714E-03 -.427E-01
   0.261E+03 0.288E+03 0.486E+03   -.264E+03 -.291E+03 -.488E+03   -.494E+00 0.113E+01 0.299E+01   -.660E-01 -.269E-01 -.281E-01
   -.212E+03 0.399E+02 -.158E+04   0.213E+03 -.400E+02 0.158E+04   0.811E+00 0.225E+00 -.298E+01   -.107E+00 -.151E-01 0.150E+00
   -.412E+02 -.832E+01 0.146E+04   0.407E+02 0.741E+01 -.146E+04   0.360E+00 0.216E+00 0.334E+01   -.375E-01 0.204E+00 -.548E-01
   -.190E+03 0.800E+02 -.258E+03   0.192E+03 -.823E+02 0.258E+03   -.897E+00 0.209E+01 -.107E+00   0.264E-02 0.152E+00 0.673E-01
   -.210E+02 0.191E+03 -.182E+04   0.206E+02 -.194E+03 0.183E+04   0.593E+00 0.253E+01 -.260E+01   -.190E-01 0.151E-01 0.855E-01
   -.232E+03 0.714E+02 0.986E+03   0.233E+03 -.712E+02 -.991E+03   -.173E+01 -.127E+01 0.375E+01   0.873E-01 -.648E-01 0.224E-01
   0.105E+03 -.178E+02 -.117E+04   -.105E+03 0.166E+02 0.118E+04   -.132E+01 0.120E+01 -.135E+01   0.463E-01 -.384E-01 0.345E-01
   0.487E+02 0.652E+02 0.169E+04   -.498E+02 -.652E+02 -.170E+04   0.100E+01 0.998E-01 0.230E+01   -.584E-02 -.574E-01 -.142E-01
   -.531E+02 -.995E+02 -.312E+03   0.543E+02 0.100E+03 0.312E+03   -.938E+00 -.172E+00 -.136E+01   0.246E-01 -.668E-01 0.114E-01
   -.149E+03 -.323E+03 -.162E+04   0.151E+03 0.327E+03 0.163E+04   -.105E+01 -.218E+01 0.192E+00   0.354E-01 -.344E-01 0.859E-01
   -.327E+01 -.107E+03 0.790E+03   0.160E+01 0.107E+03 -.792E+03   0.254E+01 0.108E+01 0.122E+00   0.208E+00 0.379E-01 0.422E-01
   0.193E+02 -.340E+02 0.126E+04   -.195E+02 0.350E+02 -.127E+04   -.139E+00 -.106E+01 0.439E+01   0.336E-01 0.387E-01 0.323E-02
   0.261E+03 0.134E+03 -.586E+03   -.264E+03 -.135E+03 0.588E+03   0.552E+00 -.503E+00 -.617E+00   0.683E-01 0.245E-01 0.325E-01
   -.219E+03 0.678E+02 0.180E+04   0.219E+03 -.673E+02 -.180E+04   0.458E-01 -.422E+00 0.291E+01   0.469E-01 -.161E+00 -.188E+00
   0.559E+02 -.288E+02 0.266E+03   -.562E+02 0.304E+02 -.265E+03   -.176E+01 -.179E+01 0.884E+00   0.402E-01 -.133E+00 0.232E-01
   -.228E+03 -.778E+02 -.164E+04   0.228E+03 0.796E+02 0.165E+04   0.875E+00 -.119E+01 -.233E+01   0.181E+00 -.370E-01 0.140E+00
   0.977E+01 0.106E+02 -.457E+02   -.114E-11 -.512E-12 -.909E-12   -.985E+01 -.103E+02 0.433E+02   0.231E+00 -.252E+00 0.246E+01

 POSITION                                       TOTAL-FORCE (eV/Angst)
      4.94536      4.44331      2.79952        -1.216426      0.080568      1.577699
      5.59466      4.20321      5.71135        -1.975682      1.572074     -0.059631
      2.36520      1.23539      1.72985         0.647865      0.910856      0.072467
      2.27821      9.33916      4.03814        -0.380526      1.023210      0.326888
      4.94536      1.91264      2.79952         0.193311     -0.559734      1.742189
      5.28932      1.63682      5.36592        -1.012571     -2.208107     -0.021268
      2.68248      8.01025      1.77784         0.483843     -1.582556     -1.071864
      2.32988      6.54967      4.00480        -0.468524     -1.258794     -0.305826
      1.41929      3.20326      2.76564         0.199699      0.684582     -0.718164
      2.05421      3.17797      5.47658         2.272751      1.490387     -1.808129
      5.29983      7.42695      1.57589        -1.155506      0.421723     -0.105882
      4.30145      7.95813      3.82646         0.938641      0.238254      0.824005
      6.22262      8.23558      5.19846        -1.976485      0.209518      0.018055
     10.32893      4.51140      3.11257         1.148590      0.272724     -0.293958
     10.97356      4.69052      5.48741        -0.897509      1.058402      0.110866
      7.47235      9.16779      1.59676         0.576141      1.223629     -0.313352
      8.01853      9.34384      4.07765         0.306383      0.797166      0.182968
     10.57359      1.91264      2.79952        -1.836228      0.042291      2.199170
     11.22540      2.15131      5.73751        -2.022062     -1.342415     -0.263799
      7.29344      6.03512      2.14480         0.359799      0.130286      0.063350
      8.05131      6.70184      4.34179         0.546054     -0.748451     -0.139776
      7.09877      3.17797      2.39204         0.617601     -0.322679      1.192477
      7.68244      3.17797      5.47658         2.379582     -1.616820     -1.881140
      0.29513      9.51937      1.86767        -1.843537      0.222362      0.269053
     10.15019      7.95554      3.64593         0.661911      0.432523     -0.105252
      0.73788      7.75972      5.26361        -0.410331      0.598713      0.058333
      0.54205      2.03934      1.17680        -0.598583      0.757193     -3.049829
      1.25497      1.56674      4.10795        -0.653284     -0.232987      0.344775
      1.69424      1.54474      6.66516         1.169830     -2.212979      2.520894
      3.77725      6.35595      2.56568         1.205195     -3.110712     -1.382065
      1.25497      4.78920      4.10795         0.956697      0.405858     -1.149845
      0.68208      3.69260      6.95492         0.354619      0.606518      3.934605
      3.77725      9.57841      2.56568         3.693935      1.169743      0.094579
      3.41927      3.09261      1.96258        -0.756156      1.537059     -2.251277
      4.14113      3.17797      4.62682        -1.895373      0.640374     -0.158246
      1.75901      9.26673      0.44352         0.096109     -0.720099     -4.006042
      1.03518      7.96718      3.08454        -2.870396     -1.098758      0.075927
      2.83459      7.92395      5.47199         2.114130      0.065615      3.796983
      6.46998      1.42088      1.44324        -0.163738     -0.493751     -2.655041
      6.88320      1.56674      4.10795         1.345908     -0.072948     -0.306893
      6.24690      2.60094      6.85048         0.175260     -1.035097      3.589709
      9.40548      6.35595      2.56568         0.211204     -1.175275     -1.464050
     10.23810      6.62716      5.26429        -0.692445      0.005771      2.498236
      6.18779      4.58538      1.18887        -0.087116      0.050854     -3.138462
      6.88320      4.78920      4.10795         0.226233      0.555576     -0.861881
      7.32831      4.83388      6.62529         1.051903      2.220103      2.744045
      9.40548      9.57841      2.56568         1.086613      1.548706     -1.920491
      9.15303      3.24454      1.96838        -0.370361      0.021534     -2.185273
      9.76936      3.17797      4.62682        -2.270004     -1.255123      1.045926
      7.07580      7.42154      0.55778         0.877783     -0.129754     -3.561305
      6.66341      7.96718      3.08454        -1.996675     -0.314862      2.091733
      8.11572      8.20766      5.79397         1.651925      0.497730      3.803807
    total drift:                                0.150273      0.112329      0.055354

  FREE ENERGIE OF THE ION-ELECTRON SYSTEM (eV)
  free  energy   TOTEN  =      -245.43661495 eV

  energy  without entropy=     -244.61785090  energy(sigma->0) =     -245.02723292