 vasp.5.4.4.18Apr17-6-g9f103f2a35 (build Aug 13 2019 17:33:20) gamma-only

 executed on             LinuxIFC date 2020.05.12  13:06:19

 INCAR:
 POTCAR:    PAW_PBE Ni_pv 06Sep2000
 POTCAR:    PAW_PBE S 06Sep2000
 POTCAR:    PAW_PBE Ni_pv 06Sep2000
   VRHFIN =Ni:

   TITEL  = PAW_PBE Ni_pv 06Sep2000
   POMASS =   58.690; ZVAL   =   16.000    mass and valenz
   ENMAX  =  367.986; ENMIN  =  275.989 eV

 POTCAR:    PAW_PBE S 06Sep2000
   VRHFIN =S : s2p4

   TITEL  = PAW_PBE S 06Sep2000
   POMASS =   32.066; ZVAL   =    6.000    mass and valenz
   ENMAX  =  258.689; ENMIN  =  194.016 eV

 Optimization of the real space projectors (new method)

 maximal supplied QI-value         = 18.90
 optimisation between [QCUT,QGAM] = [ 10.77, 21.73] = [ 32.49,132.25] Ry
 Optimized for a Real-space Cutoff    1.38 Angstroem

   l    n(q)    QCUT    max X(q) W(low)/X(q) W(high)/X(q)  e(spline)
   1      8    10.771     2.836    0.40E-04    0.29E-04    0.12E-06
   1      8    10.771     4.023    0.10E-03    0.48E-04    0.29E-06
   2      8    10.771    73.368    0.42E-03    0.97E-04    0.44E-06
   2      8    10.771    69.010    0.42E-03    0.99E-04    0.45E-06
   0      9    10.771    54.797    0.10E-03    0.56E-04    0.74E-07
   0      9    10.771    24.266    0.89E-04    0.49E-04    0.67E-07
 Optimization of the real space projectors (new method)

 maximal supplied QI-value         = 19.84
 optimisation between [QCUT,QGAM] = [ 10.71, 21.63] = [ 32.15,130.99] Ry
 Optimized for a Real-space Cutoff    1.19 Angstroem

   l    n(q)    QCUT    max X(q) W(low)/X(q) W(high)/X(q)  e(spline)
   0      8    10.715   187.594    0.41E-03    0.53E-04    0.66E-07
   0      8    10.715   164.243    0.41E-03    0.53E-04    0.65E-07
   1      7    10.715    67.533    0.19E-03    0.59E-03    0.68E-07
   1      7    10.715    50.729    0.19E-03    0.58E-03    0.67E-07
  PAW_PBE Ni_pv 06Sep2000               :
  PAW_PBE S 06Sep2000                   :

 POSCAR: Type_036 Type_136
  positions in cartesian coordinates
 exchange correlation table for  LEXCH =        8
   RHO(1)=    0.500       N(1)  =     2000
   RHO(2)=  100.500       N(2)  =     4000

 ion  position               nearest neighbor table
   1  0.374  0.751  0.095-  61 2.05  50 2.10  41 2.25  62 2.36  51 2.36  14 2.40
   2  0.525  0.601  0.223-  42 2.25  51 2.26  62 2.26  63 2.36  52 2.36  15 2.53  27 2.53
   3  0.675  0.451  0.351-  43 2.25  63 2.26  52 2.26  64 2.36  53 2.36  19 2.39  32 2.40  28 2.53
                            16 2.53
   4  0.779  0.332  0.467-  65 2.03  44 2.05  53 2.07  64 2.08  19 2.44
   5  0.563  0.166  0.073-  46 2.08  47 2.08  67 2.22  54 2.26   6 2.35
   6  0.758  0.035  0.138-  67 2.05  54 2.06  47 2.25   5 2.35  55 2.36  68 2.36  29 2.53  20 2.53

   7  0.990  0.778  0.376-  66 2.04  56 2.05  49 2.08   8 2.52
   8  0.908  0.884  0.266-  48 2.25  55 2.26  68 2.26  56 2.36  66 2.36   7 2.52  30 2.53  17 2.53

   9  0.141  0.318  0.180-  69 2.06  40 2.25  57 2.26  70 2.36  58 2.36  34 2.53  21 2.53
  10  0.291  0.168  0.308-  37 2.25  58 2.26  70 2.26  59 2.36  71 2.36  35 2.53  22 2.53
  11  0.426  0.028  0.423-  71 2.03  38 2.10  59 2.10  72 2.22  23 2.53
  12  0.988  0.466  0.084-  57 2.03  39 2.13  60 2.18  69 2.23
  13  0.010  0.116  0.412-  65 2.06  38 2.14  56 2.25  64 2.26  37 2.26  25 2.33
  14  0.572  0.564  0.050-  62 2.04  39 2.05  61 2.07   1 2.40
  15  0.709  0.416  0.155-  54 2.16  39 2.26  62 2.26  40 2.36  63 2.36  27 2.53   2 2.53
  16  0.860  0.266  0.283-  55 2.25  63 2.26  40 2.26  37 2.36  64 2.36   3 2.53  28 2.53
  17  0.093  0.700  0.198-  57 2.25  41 2.26  68 2.26  42 2.36  66 2.36  30 2.53   8 2.53
  18  0.229  0.561  0.308-  42 2.03  66 2.06  58 2.13  43 2.65
  19  0.554  0.339  0.420-  44 2.06  59 2.08  43 2.10  64 2.28   3 2.39   4 2.44
  20  0.943  0.850  0.070-  45 1.99  60 2.14  67 2.22  68 2.36  41 2.36   6 2.53  29 2.53
  21  0.326  0.133  0.113-  50 2.12  46 2.14  69 2.24  70 2.36  47 2.36  34 2.53   9 2.53
  22  0.476  0.983  0.241-  51 2.25  70 2.26  47 2.26  48 2.36  71 2.36  35 2.53  10 2.53
  23  0.627  0.833  0.369-  72 2.08  49 2.19  52 2.25  71 2.26  48 2.26  24 2.43  11 2.53
  24  0.764  0.705  0.462-  49 2.03  72 2.08  53 2.08  23 2.43  32 2.45
  25  0.032  0.332  0.438-  65 2.06  37 2.08  53 2.14  38 2.17  13 2.33
  26  0.623  0.791  0.083-  51 2.05  50 2.13  67 2.14  39 2.23
  27  0.749  0.641  0.189-  68 2.25  51 2.26  39 2.26  40 2.36  52 2.36  15 2.53   2 2.53
  28  0.899  0.491  0.317-  66 2.25  52 2.26  40 2.26  53 2.36  37 2.36   3 2.53  16 2.53
  29  0.982  0.074  0.104-  45 1.98  69 2.23  54 2.28  41 2.36  55 2.36   6 2.53  20 2.53
  30  0.133  0.924  0.232-  70 2.25  55 2.26  41 2.26  56 2.36  42 2.36   8 2.53  17 2.53
  31  0.270  0.794  0.344-  42 2.03  56 2.06  71 2.15  43 2.64
  32  0.591  0.588  0.448-  44 2.05  43 2.11  72 2.14  53 2.28   3 2.40  24 2.45
  33  0.243  0.520  0.043-  57 2.03  61 2.06  60 2.13  46 2.17
  34  0.366  0.358  0.147-  46 2.07  62 2.25  57 2.26  47 2.36  58 2.36  21 2.53   9 2.53
  35  0.516  0.207  0.275-  63 2.25  58 2.26  47 2.26  48 2.36  59 2.36  10 2.53  22 2.53
  36  0.654  0.075  0.389-  48 2.06  59 2.08  49 2.12  64 2.16
  37  0.064  0.262  0.341-  25 2.08  10 2.25  13 2.26  16 2.36  28 2.36  38 2.56
  38  0.208  0.131  0.440-  11 2.10  13 2.14  25 2.17  37 2.56  65 2.58
  39  0.763  0.563  0.085-  14 2.05  12 2.13  26 2.23  15 2.26  27 2.26
  40  0.914  0.412  0.213-   9 2.25  16 2.26  28 2.26  27 2.36  15 2.36
  41  0.147  0.846  0.128-   1 2.25  17 2.26  30 2.26  20 2.36  29 2.36
  42  0.297  0.696  0.256-  31 2.03  18 2.03   2 2.25  30 2.36  17 2.36
  43  0.447  0.545  0.384-  19 2.10  32 2.11   3 2.25  31 2.64  18 2.65
  44  0.582  0.427  0.507-  32 2.05   4 2.05  19 2.06
  45  0.975  0.999  0.016-  29 1.98  20 1.99
  46  0.354  0.293  0.052-  34 2.07   5 2.08  21 2.14  33 2.17
  47  0.530  0.129  0.171-   5 2.08   6 2.25  22 2.26  35 2.26  34 2.36  21 2.36
  48  0.680  0.979  0.299-  36 2.06   8 2.25  23 2.26  35 2.36  22 2.36
  49  0.795  0.876  0.421-  24 2.03   7 2.08  36 2.12  23 2.19
  50  0.412  0.934  0.065-   1 2.10  21 2.12  26 2.13  51 2.61
  51  0.528  0.798  0.171-  26 2.05  22 2.25  27 2.26   2 2.26   1 2.36  50 2.61
  52  0.678  0.648  0.299-  23 2.25  28 2.26   3 2.26  27 2.36   2 2.36
  53  0.829  0.497  0.427-   4 2.07  24 2.08  25 2.14  32 2.28  28 2.36   3 2.36
  54  0.752  0.225  0.099-   6 2.06  15 2.16   5 2.26  29 2.28
  55  0.911  0.081  0.214-  16 2.25   8 2.26  30 2.26   6 2.36  29 2.36
  56  0.062  0.931  0.342-   7 2.05  31 2.06  13 2.25  30 2.36   8 2.36
  57  0.145  0.515  0.129-  33 2.03  12 2.03  17 2.25  34 2.26   9 2.26  60 2.45
  58  0.295  0.364  0.257-  18 2.13  10 2.26  35 2.26   9 2.36  34 2.36
  59  0.445  0.214  0.385-  19 2.08  36 2.08  11 2.10  35 2.36  10 2.36
  60  0.022  0.639  0.031-  33 2.13  20 2.14  12 2.18  57 2.45
  61  0.367  0.634  0.015-   1 2.05  33 2.06  14 2.07  62 2.69
  62  0.477  0.512  0.128-  14 2.04  34 2.25  15 2.26   2 2.26   1 2.36  61 2.69
  63  0.628  0.362  0.256-  35 2.25   3 2.26  16 2.26   2 2.36  15 2.36
  64  0.778  0.212  0.384-   4 2.08  36 2.16  13 2.26  19 2.28  16 2.36   3 2.36
  65  0.971  0.208  0.502-   4 2.03  13 2.06  25 2.06  38 2.58
  66  0.011  0.645  0.299-   7 2.04  18 2.06  28 2.25   8 2.36  17 2.36
  67  0.710  0.947  0.055-   6 2.05  26 2.14   5 2.22  20 2.22
  68  0.861  0.795  0.171-  27 2.25  17 2.26   8 2.26   6 2.36  20 2.36
  69  0.091  0.232  0.097-   9 2.06  12 2.23  29 2.23  21 2.24
  70  0.244  0.079  0.214-  30 2.25  22 2.26  10 2.26   9 2.36  21 2.36
  71  0.395  0.928  0.342-  11 2.03  31 2.15  23 2.26  10 2.36  22 2.36
  72  0.545  0.811  0.460-  24 2.08  23 2.08  32 2.14  11 2.22

  LATTYP: Found a base centered orthorhombic cell.
 ALAT       =    11.4527836704
 B/A-ratio  =     1.4485816945
 C/A-ratio  =     1.7908432109

  Lattice vectors:

 A1 = (  10.0797329849,   0.0000000000,   0.0000000000)
 A2 = (  -3.5732980427,  -9.4251025535,   0.0000000000)
 A3 = (   0.0000000000,   0.0000000000, -20.5101398818)

Analysis of symmetry for initial positions (statically):
 Subroutine PRICEL returns:
 Original cell was already a primitive cell.

 Routine SETGRP: Setting up the symmetry group for a
 base centered orthorhombic supercell.

 Subroutine GETGRP returns: Found  1 space group operations
 (whereof  1 operations were pure point group operations)
 out of a pool of  8 trial point group operations.

The static configuration has the point symmetry C_1 .

Analysis of symmetry for dynamics (positions and initial velocities):
 Subroutine PRICEL returns:
 Original cell was already a primitive cell.

 Routine SETGRP: Setting up the symmetry group for a
 base centered orthorhombic supercell.

 Subroutine GETGRP returns: Found  1 space group operations
 (whereof  1 operations were pure point group operations)
 out of a pool of  8 trial point group operations.

The dynamic configuration has the point symmetry C_1 .

 Subroutine INISYM returns: Found  1 space group operations
 (whereof  1 operations are pure point group operations),
 and found     1 'primitive' translations

 KPOINTS: gamma-point-only calculation. no periodi

Automatic generation of k-mesh.
Space group operators:
 irot       det(A)        alpha          n_x          n_y          n_z        tau_x        tau_y        tau_z
    1     1.000000     0.000000     1.000000     0.000000     0.000000     0.000000     0.000000     0.000000

 Subroutine IBZKPT returns following result:

 Found      1 irreducible k-points:

 Following reciprocal coordinates:
            Coordinates               Weight
  0.000000  0.000000  0.000000      1.000000

 Following cartesian coordinates:
            Coordinates               Weight
  0.000000  0.000000  0.000000      1.000000

 SYSTEM =  "Millerite NiS"
 POSCAR =  Type_036 Type_136

 Startparameter for this run:
   NWRITE =      2    write-flag & timer
   PREC   = normal    normal or accurate (medium, high low for compatibility)
   ISTART =      0    job   : 0-new  1-cont  2-samecut
   ICHARG =      2    charge: 1-file 2-atom 10-const
   ISPIN  =      1    spin polarized calculation?
   LNONCOLLINEAR =      F non collinear calculations
   LSORBIT =      F    spin-orbit coupling
   INIWAV =      1    electr: 0-lowe 1-rand  2-diag
   LASPH  =      F    aspherical Exc in radial PAW
   METAGGA=      F    non-selfconsistent MetaGGA calc.

 Electronic Relaxation 1
   ENCUT  =  450.0 eV  33.07 Ry    5.75 a.u.  17.43 17.43 35.48*2*pi/ulx,y,z
   ENINI  =  450.0     initial cutoff
   ENAUG  =  703.4 eV  augmentation charge cutoff
   NELM   =    100;   NELMIN=  2; NELMDL= -5     # of ELM steps
   EDIFF  = 0.1E-03   stopping-criterion for ELM
   LREAL  =      T    real-space projection
   NLSPLINE    = F    spline interpolate recip. space projectors
   LCOMPAT=      F    compatible to vasp.4.4
   GGA_COMPAT  = T    GGA compatible to vasp.4.4-vasp.4.6
   LMAXPAW     = -100 max onsite density
   LMAXMIX     =    2 max onsite mixed and CHGCAR
   VOSKOWN=      0    Vosko Wilk Nusair interpolation
   ROPT   =   -0.00050  -0.00050
 Ionic relaxation
   EDIFFG = 0.1E-02   stopping-criterion for IOM
   NSW    =      0    number of steps for IOM
[...]
  Fock        0.00000     0.00000     0.00000     0.00000     0.00000     0.00000
  Total      74.65388    71.54929   100.60934     6.44336     2.70072    -0.42827
  in kB      61.38457    58.83181    82.72659     5.29809     2.22068    -0.35215

 VOLUME and BASIS-vectors are now :
  energy-cutoff  :      450.00
  volume of cell :     1948.51
      direct lattice vectors                 reciprocal lattice vectors
    10.079732985  0.000000000  0.000000000     0.099208977 -0.037612667  0.000000000
     3.573298043  9.425102554  0.000000000     0.000000000  0.106099641  0.000000000
     0.000000000  0.000000000 20.510139882     0.000000000  0.000000000  0.048756372

  length of vectors
    10.079732985 10.079732985 20.510139882     0.106099641  0.106099641  0.048756372

 FORCES acting on ions
    electron-ion (+dipol)            ewald-force                    non-local-force                 convergence-correction
   0.474E+03 -.513E+03 0.363E+04   -.478E+03 0.516E+03 -.363E+04   0.347E+01 -.316E+01 0.324E+01   -.109E+00 0.286E+00 0.502E-01
   0.483E+03 -.174E+03 0.261E+03   -.483E+03 0.174E+03 -.261E+03   0.662E+00 -.532E+00 0.130E+00   -.189E+00 0.105E+00 0.212E+00
   0.313E+03 -.231E+03 -.199E+04   -.314E+03 0.233E+03 0.199E+04   0.159E+01 -.183E+01 0.380E+01   -.239E-01 -.349E-01 -.250E-01
   -.596E+02 0.413E+03 -.534E+04   0.571E+02 -.416E+03 0.535E+04   0.216E+01 0.262E+01 -.948E+01   0.521E-01 -.553E-01 0.466E-01
   -.150E+03 -.113E+03 0.489E+04   0.152E+03 0.116E+03 -.489E+04   -.724E+00 -.287E+01 0.631E+01   -.901E-01 -.178E+00 0.111E+00
   0.171E+02 -.366E+02 0.237E+04   -.160E+02 0.352E+02 -.237E+04   -.381E+00 0.565E+00 -.175E+01   0.804E-01 -.128E+00 0.146E+00
   -.375E+03 0.350E+03 -.400E+04   0.372E+03 -.348E+03 0.400E+04   0.258E+01 -.226E+01 0.535E+00   -.163E-01 0.685E-01 0.250E-01
   0.303E+03 -.162E+03 -.600E+03   -.304E+03 0.163E+03 0.599E+03   0.167E+01 -.101E+01 0.805E+00   -.110E-01 0.101E+00 0.467E-02
   0.399E+03 0.547E+01 0.127E+04   -.400E+03 -.549E+01 -.127E+04   0.898E+00 0.235E+00 -.136E+01   0.913E-01 -.140E+00 -.163E-01
   0.482E+03 -.309E+03 -.180E+04   -.483E+03 0.310E+03 0.180E+04   0.145E+01 -.709E+00 0.258E+01   0.115E+00 -.598E-01 -.115E+00
   0.488E+03 -.206E+03 -.483E+04   -.486E+03 0.206E+03 0.484E+04   -.167E+01 -.473E+00 -.137E+01   0.610E-01 -.912E-01 0.952E-02
   0.371E+03 0.206E+03 0.439E+04   -.376E+03 -.207E+03 -.439E+04   0.438E+01 0.378E+00 0.327E+01   0.156E+00 -.988E-01 -.105E-01
   -.114E+03 0.103E+04 -.389E+04   0.112E+03 -.104E+04 0.388E+04   0.175E+00 0.461E+01 0.120E+01   -.406E-01 -.123E+00 -.172E-01
   -.240E+03 0.477E+03 0.525E+04   0.239E+03 -.476E+03 -.526E+04   0.102E+01 -.212E+01 0.159E+01   -.479E-01 0.152E+00 -.140E+00
   -.123E+03 0.587E+03 0.250E+04   0.123E+03 -.589E+03 -.250E+04   0.112E+00 0.290E+01 0.157E+00   0.412E-01 -.284E+00 0.123E+00
   -.174E+03 0.557E+03 -.499E+03   0.174E+03 -.556E+03 0.497E+03   0.321E+00 0.104E+00 0.170E+01   -.329E-01 -.195E+00 0.350E-01
   -.312E+02 0.376E+03 0.137E+04   0.309E+02 -.375E+03 -.137E+04   0.303E+00 -.541E+00 0.211E+01   0.176E-01 0.515E-01 0.422E-01
   0.138E+02 0.451E+03 -.218E+04   -.140E+02 -.453E+03 0.218E+04   0.536E+00 0.147E+01 0.149E+01   -.114E-02 -.101E-01 0.209E-02
   0.121E+04 0.147E+02 -.425E+04   -.122E+04 -.147E+02 0.426E+04   0.419E+01 -.130E+01 -.396E+01   -.598E-01 -.329E-01 -.849E-01
   -.670E+02 0.305E+03 0.459E+04   0.667E+02 -.310E+03 -.459E+04   -.449E+00 0.326E+01 0.446E+01   0.185E-02 0.903E-01 0.696E-01
   0.462E+03 0.489E+03 0.371E+04   -.465E+03 -.493E+03 -.372E+04   0.245E+01 0.346E+01 0.209E+01   -.109E+00 -.361E-01 0.115E+00
   0.107E+03 0.453E+03 0.338E+03   -.107E+03 -.453E+03 -.339E+03   0.476E+00 0.596E+00 0.519E+00   0.693E-01 0.111E+00 0.266E-01
   0.843E+02 0.170E+03 -.256E+04   -.843E+02 -.173E+03 0.256E+04   -.244E+00 0.381E+01 0.246E+01   0.224E-01 0.106E+00 0.216E-01
   -.842E+03 -.118E+03 -.524E+04   0.843E+03 0.118E+03 0.524E+04   -.679E+00 -.558E+00 -.378E+00   -.180E-01 0.155E+00 0.122E-01
   -.126E+04 -.530E+03 -.456E+04   0.126E+04 0.534E+03 0.456E+04   -.184E+01 -.121E+01 -.287E+00   0.366E-01 -.522E-01 0.713E-01
   -.268E+03 -.248E+03 0.439E+04   0.272E+03 0.250E+03 -.440E+04   -.354E+01 -.283E+01 0.349E+01   0.577E-01 0.292E+00 -.536E-01
   -.466E+03 -.207E+03 0.127E+04   0.466E+03 0.207E+03 -.127E+04   -.596E+00 -.270E+00 -.137E+01   0.175E+00 0.222E+00 0.861E-01
   -.782E+03 -.246E+03 -.165E+04   0.782E+03 0.247E+03 0.165E+04   0.246E+00 -.116E+01 0.232E+01   0.311E-01 -.246E-01 0.413E-01
   -.549E+03 -.429E+03 0.372E+04   0.552E+03 0.433E+03 -.372E+04   -.262E+01 -.297E+01 0.248E+01   0.314E-01 -.839E-01 0.870E-01
   -.438E+03 -.334E+03 0.405E+03   0.438E+03 0.335E+03 -.407E+03   -.507E+00 -.127E+01 0.150E+01   -.228E-01 0.616E-01 -.161E-01
   -.109E+03 0.788E+02 -.312E+04   0.111E+03 -.775E+02 0.312E+04   -.934E+00 -.168E+01 0.336E+00   -.109E-01 0.308E-01 0.147E-01
   0.787E+03 -.709E+03 -.481E+04   -.791E+03 0.713E+03 0.482E+04   0.493E+01 -.328E+01 -.453E+01   -.708E-02 0.156E+00 0.122E-01
   0.327E+02 -.458E+02 0.507E+04   -.283E+02 0.493E+02 -.507E+04   -.449E+01 -.426E+01 0.545E+01   -.121E+00 -.390E-02 -.223E-03
   -.297E+03 -.305E+03 0.220E+04   0.297E+03 0.306E+03 -.220E+04   -.284E+00 -.112E+01 -.159E+01   -.197E+00 -.154E+00 0.181E+00
   -.244E+03 -.352E+03 -.622E+03   0.244E+03 0.354E+03 0.621E+03   -.293E+00 -.127E+01 0.270E+00   0.121E-01 -.128E+00 -.139E-01
   -.307E+03 0.817E+02 -.374E+04   0.308E+03 -.814E+02 0.375E+04   -.809E+00 0.279E+00 -.143E+01   -.164E-01 -.134E+00 -.111E+00
   -.232E+03 0.254E+02 -.703E+03   0.233E+03 -.247E+02 0.700E+03   -.115E+01 -.575E-01 0.108E+01   -.273E-01 -.418E-01 -.303E-01
   -.148E+03 0.914E+02 -.183E+04   0.149E+03 -.924E+02 0.183E+04   -.116E+01 0.674E+00 0.188E+00   0.716E-02 -.401E-01 0.327E-01
   -.192E+03 0.109E+03 0.172E+04   0.193E+03 -.110E+03 -.172E+04   -.257E+00 0.521E+00 0.263E+01   0.118E+00 0.466E-01 -.631E-01
   -.134E+03 0.707E+02 0.402E+03   0.135E+03 -.707E+02 -.403E+03   -.166E+01 0.276E+00 0.136E+01   0.855E-01 -.998E-01 0.321E-01
   -.154E+03 -.408E+02 0.125E+04   0.155E+03 0.397E+02 -.125E+04   -.136E+01 0.106E+01 0.128E+01   -.226E-01 0.460E-01 0.186E-01
   -.143E+03 0.384E+02 0.104E+02   0.145E+03 -.392E+02 -.116E+02   -.130E+01 0.896E+00 -.135E+01   -.668E-01 0.222E-01 0.301E-01
   0.503E+03 -.224E+03 -.122E+04   -.506E+03 0.226E+03 0.122E+04   0.657E+00 -.340E+00 -.592E+00   -.297E-01 0.413E-01 -.972E-02
   0.411E+03 -.475E+02 -.228E+04   -.413E+03 0.471E+02 0.228E+04   0.718E+00 0.173E+00 -.144E+01   -.261E-01 0.285E-01 0.912E-01
   -.157E+03 -.151E+03 0.223E+04   0.158E+03 0.152E+03 -.223E+04   -.366E+00 -.136E+00 0.119E+00   0.188E-02 -.795E-02 0.229E-01
   0.980E+02 0.581E+02 0.213E+04   -.988E+02 -.588E+02 -.213E+04   0.109E+01 0.879E+00 0.188E+01   -.915E-01 -.558E-01 0.219E-01
   -.648E+02 0.564E+02 0.633E+03   0.655E+02 -.577E+02 -.631E+03   -.107E+01 0.113E+01 -.479E+00   -.405E-01 -.392E-01 0.101E+00
   -.116E+03 0.769E+02 -.293E+03   0.118E+03 -.784E+02 0.290E+03   -.248E+01 0.889E+00 0.643E+00   -.310E-01 0.383E-01 0.113E-01
   -.316E+03 -.838E+02 -.177E+04   0.320E+03 0.848E+02 0.178E+04   -.181E+01 -.100E+01 -.145E+01   -.321E-01 0.153E-01 -.121E-02
   0.139E+03 -.165E+03 0.187E+04   -.139E+03 0.167E+03 -.188E+04   0.450E+00 -.108E+01 0.377E+01   -.105E-01 0.590E-01 0.274E-01
   0.102E+03 -.178E+03 0.571E+03   -.103E+03 0.178E+03 -.569E+03   -.172E+00 -.894E+00 0.128E+00   -.165E-01 0.158E+00 -.948E-03
   0.128E+02 -.190E+03 -.434E+03   -.128E+02 0.193E+03 0.434E+03   0.236E-01 -.269E+01 -.125E+01   -.247E-02 0.754E-01 0.101E+00
   -.381E+03 -.152E+03 -.159E+04   0.384E+03 0.155E+03 0.159E+04   -.160E+01 -.898E+00 -.207E+00   -.222E-02 0.512E-01 0.213E-01
   -.148E+03 -.180E+03 0.159E+04   0.148E+03 0.183E+03 -.159E+04   0.649E-01 -.155E+01 0.212E+01   0.462E-01 -.141E+00 0.233E-01
   -.352E+02 -.157E+03 0.288E+03   0.353E+02 0.159E+03 -.287E+03   -.961E-02 -.243E+01 0.198E+00   -.574E-02 -.166E-01 0.507E-02
   -.724E+02 -.123E+03 -.105E+04   0.728E+02 0.124E+03 0.105E+04   -.445E+00 0.148E+00 -.158E+01   -.134E-01 0.167E-01 -.552E-02
   0.188E+02 -.142E+03 0.967E+03   -.181E+02 0.144E+03 -.963E+03   -.617E-01 -.978E+00 -.211E+00   -.144E-01 -.228E-01 0.527E-01
   0.408E+02 -.153E+03 -.227E+03   -.409E+02 0.156E+03 0.229E+03   0.274E-01 -.273E+01 -.198E+01   0.239E-01 -.174E-01 -.135E-01
   0.294E+03 -.324E+03 -.141E+04   -.296E+03 0.328E+03 0.141E+04   0.871E+00 -.256E+01 -.204E+01   0.125E-01 -.491E-01 -.442E-01
   0.123E+03 -.539E+02 0.203E+04   -.125E+03 0.558E+02 -.203E+04   0.133E+01 -.170E+01 0.396E+01   -.182E-01 0.373E-01 -.202E-01
   0.776E+02 -.110E+03 0.217E+04   -.775E+02 0.111E+03 -.218E+04   -.213E+00 -.154E+01 0.152E+01   -.575E-01 0.722E-01 -.640E-01
   0.161E+03 0.867E+02 0.104E+04   -.164E+03 -.887E+02 -.104E+04   0.202E+01 0.178E+01 0.243E+00   -.132E+00 -.599E-02 0.452E-01
   0.160E+03 0.612E+02 0.749E+01   -.163E+03 -.623E+02 -.717E+01   0.240E+01 0.131E+01 -.342E+00   -.450E-01 -.121E+00 0.883E-01
   -.187E+02 0.322E+03 -.111E+04   0.186E+02 -.326E+03 0.111E+04   0.778E-02 0.239E+01 0.919E+00   0.479E-02 -.639E-01 -.607E-01
   -.150E+03 0.303E+03 -.226E+04   0.150E+03 -.305E+03 0.227E+04   0.421E+00 0.663E+00 -.229E+01   0.146E-01 -.542E-01 0.654E-01
   0.796E+02 0.174E+03 -.534E+03   -.810E+02 -.175E+03 0.535E+03   -.804E-01 0.603E+00 -.132E+01   0.525E-01 0.254E-01 0.139E-02
   0.681E+02 0.418E+02 0.203E+04   -.702E+02 -.419E+02 -.204E+04   0.150E+01 -.773E+00 0.179E+01   0.244E-01 -.382E-01 0.241E-01
   0.985E+02 0.647E+02 0.713E+03   -.100E+03 -.664E+02 -.713E+03   0.220E+01 0.134E+01 0.105E+01   0.574E-01 0.916E-01 -.811E-02
   0.169E+03 0.127E+03 0.166E+04   -.170E+03 -.127E+03 -.167E+04   0.507E-01 -.270E+00 0.902E+00   0.490E-01 -.541E-01 0.312E-01
   0.179E+03 0.718E+02 0.352E+03   -.181E+03 -.729E+02 -.352E+03   0.266E+01 0.842E+00 0.765E+00   0.235E-01 0.219E-02 -.484E-01
   0.225E+03 0.116E+03 -.844E+03   -.228E+03 -.118E+03 0.843E+03   0.206E+01 0.148E+01 -.148E+01   0.451E-01 -.920E-02 -.568E-02
   0.342E+03 -.180E+03 -.205E+04   -.344E+03 0.180E+03 0.206E+04   0.349E+00 -.208E+00 -.179E+01   0.201E-01 0.239E-01 0.455E-02
   -.171E+02 0.193E+02 -.350E+02   0.176E-11 0.114E-11 -.136E-11   0.173E+02 -.192E+02 0.335E+02   -.169E+00 -.857E-01 0.142E+01

 POSITION                                       TOTAL-FORCE (eV/Angst)
      6.45801      7.08167      1.95077        -0.389445      0.927051      1.979309
      7.43572      5.66537      4.57627         0.152456     -0.055345      0.110196
      8.41343      4.24907      7.20177         0.769024      0.017391     -1.637157
      9.04055      3.12773      9.57701        -0.345586     -0.087719      0.810111
      6.26402      1.56374      1.49892         0.726999      0.202275     -1.029663
      7.76163      0.32617      2.82594         0.785610     -0.994316      2.940647
     12.76051      7.32941      7.71917         0.232445     -0.381319      1.241831
     12.31264      8.33497      5.45144         0.118186      0.283469     -0.348820
      2.55881      2.99577      3.70110         0.474487      0.077163      1.590387
      3.53652      1.57947      6.32660         0.245910     -0.135008     -0.294120
      4.39558      0.26509      8.68129         0.352299     -0.019596      1.256541
     11.62744      4.39528      1.72379        -0.398578     -0.340204     -1.215195
      0.51382      1.09100      8.43993        -1.363844     -2.208191     -2.100557
      7.78637      5.32022      1.01800         0.438918     -0.733677     -1.257759
      8.63813      3.92359      3.18892        -0.195246      0.004767      0.544125
      9.61584      2.50729      5.81443        -0.192799      0.060704     -0.168621
      3.43531      6.59319      4.06409         0.051940      0.060449      0.111222
      4.31442      5.28704      6.32180         0.375399     -0.632326      0.954277
      6.80111      3.19935      8.61301        -0.908492     -1.257239      0.025276
     12.53733      8.00949      1.43859        -0.810063     -1.376888      1.641036
      3.76121      1.25399      2.31376        -0.664455     -0.092026      0.476728
      8.31222      9.26279      4.93926        -0.153400     -0.074068     -0.070948
      9.28993      7.84650      7.56476        -0.175001      0.816041     -1.989473
     10.21768      6.64898      9.46957         0.404869     -0.462205      0.740439
      1.50694      3.13237      8.97685         1.376469      2.155993      0.536339
      9.10043      7.45063      1.69541         0.371762     -0.363085     -1.015856
      9.84053      6.03956      3.88260        -0.174840     -0.034752      0.065967
     10.81824      4.62327      6.50810         0.272073      0.053340      0.035780
     10.16643      0.70036      2.13226         0.388964      0.993435      2.508256
      4.63771      8.70917      4.75776         0.067079      0.024156      0.015735
      5.55594      7.48444      7.05186         0.804490     -0.389225      1.104467
      8.05431      5.54185      9.18894         0.568718      1.549460      0.242447
      4.30264      4.90068      0.88431        -0.209370     -0.789222     -1.024474
      4.96362      3.36996      3.00743         0.095964      0.216065      1.407518
      5.94133      1.95367      5.63293         0.174871     -0.016403     -0.109043
      6.86618      0.71010      7.96913         0.361473      0.427079      0.890853
      1.57981      2.47018      7.00134        -0.407846      0.530392     -1.824259
      2.56904      1.23716      9.01724         0.454598     -0.413502      1.963086
      9.70412      5.30277      1.75033         0.771827      0.070523     -0.423737
     10.68183      3.88647      4.37584        -0.195153      0.204309      0.440701
      4.50130      7.97237      2.62550         0.139920     -0.036706      0.171203
      5.47901      6.55607      5.25100         1.151299      0.128085     -2.492259
      6.45673      5.13978      7.87651        -1.684192      1.174699     -0.758578
      7.39087      4.02659     10.40365        -1.514596     -0.133164      3.823994
     13.39146      9.41265      0.32293         0.831622      0.756641     -4.314009
      4.61801      2.75915      1.06176         0.210522      0.155712     -3.302623
      5.80492      1.21687      3.50067        -0.404135     -0.182693      1.809457
     10.35593      9.22568      6.12617        -0.334564     -0.533946     -2.383271
     11.14521      8.25843      8.64303         1.773892     -0.012930      1.677537
      7.49262      8.80148      1.34182        -0.320142      0.828144     -1.865885
      8.17302      7.52069      3.51693        -0.905385     -0.297934      2.583932
      9.15074      6.10439      6.14243        -0.028999     -0.073343     -0.567608
     10.12845      4.68809      8.76794         1.730193      1.445614     -0.847655
      8.38670      2.12368      2.02508         0.668076      1.694197     -1.660528
      9.47664      0.76519      4.39210         0.093142     -0.098500      0.397873
      3.94792      8.77399      7.01760        -0.058052      1.537709      0.230966
      3.29611      4.85108      2.64176         0.659769      0.667948      3.269868
      4.27382      3.43479      5.26727        -0.079410     -0.049963     -0.388295
      5.25153      2.01849      7.89277        -1.044088      1.268881     -0.662169
      2.50596      6.02353      0.64566        -0.408580      0.251865     -1.564016
      5.96292      5.97719      0.29752        -0.144190      0.150569     -3.304052
      6.64193      4.82628      2.63363        -0.378554     -0.178035      2.114561
      7.61964      3.40999      5.25914         0.010179      0.089885      0.062884
      8.59735      1.99369      7.88464        -0.034854     -1.155027     -1.565405
     10.53302      1.95756     10.30468         0.397982     -1.086854      4.011576
      2.41682      6.07959      6.13430        -1.429553     -0.939976     -0.549775
     10.54176      8.92186      1.12245        -0.590122     -0.854691     -2.722240
     11.51884      7.49589      3.50880         0.367913     -0.255296      0.508278
      1.74937      2.18621      1.99093        -1.326139     -0.719688     -1.909051
      2.74272      0.74039      4.38397         0.216716     -0.263978      0.477094
      7.29374      8.74919      7.00947        -0.792934     -1.042727     -2.044684
      8.38898      7.64626      9.43397        -1.025450     -0.052245      2.639292
    total drift:                                0.041293      0.087274     -0.011844

  FREE ENERGIE OF THE ION-ELECTRON SYSTEM (eV)
  free  energy   TOTEN  =      -353.46963094 eV

  energy  without entropy=     -352.54228172  energy(sigma->0) =     -353.00595633