 vasp.5.4.4.18Apr17-6-g9f103f2a35 (build Aug 13 2019 17:33:20) gamma-only

 executed on             LinuxIFC date 2020.05.11  15:58:24

 INCAR:
 POTCAR:    PAW_PBE Ni_pv 06Sep2000
 POTCAR:    PAW_PBE S 06Sep2000
 POTCAR:    PAW_PBE Ni_pv 06Sep2000
   VRHFIN =Ni:

   TITEL  = PAW_PBE Ni_pv 06Sep2000
   POMASS =   58.690; ZVAL   =   16.000    mass and valenz
   ENMAX  =  367.986; ENMIN  =  275.989 eV

 POTCAR:    PAW_PBE S 06Sep2000
   VRHFIN =S : s2p4

   TITEL  = PAW_PBE S 06Sep2000
   POMASS =   32.066; ZVAL   =    6.000    mass and valenz
   ENMAX  =  258.689; ENMIN  =  194.016 eV

 Optimization of the real space projectors (new method)

 maximal supplied QI-value         = 18.90
 optimisation between [QCUT,QGAM] = [ 10.77, 21.73] = [ 32.49,132.25] Ry
 Optimized for a Real-space Cutoff    1.38 Angstroem

   l    n(q)    QCUT    max X(q) W(low)/X(q) W(high)/X(q)  e(spline)
   1      8    10.771     2.836    0.40E-04    0.29E-04    0.12E-06
   1      8    10.771     4.023    0.10E-03    0.48E-04    0.29E-06
   2      8    10.771    73.368    0.42E-03    0.97E-04    0.44E-06
   2      8    10.771    69.010    0.42E-03    0.99E-04    0.45E-06
   0      9    10.771    54.797    0.10E-03    0.56E-04    0.74E-07
   0      9    10.771    24.266    0.89E-04    0.49E-04    0.67E-07
 Optimization of the real space projectors (new method)

 maximal supplied QI-value         = 19.84
 optimisation between [QCUT,QGAM] = [ 10.71, 21.63] = [ 32.15,130.99] Ry
 Optimized for a Real-space Cutoff    1.19 Angstroem

   l    n(q)    QCUT    max X(q) W(low)/X(q) W(high)/X(q)  e(spline)
   0      8    10.715   187.594    0.41E-03    0.53E-04    0.66E-07
   0      8    10.715   164.243    0.41E-03    0.53E-04    0.65E-07
   1      7    10.715    67.533    0.19E-03    0.59E-03    0.68E-07
   1      7    10.715    50.729    0.19E-03    0.58E-03    0.67E-07
  PAW_PBE Ni_pv 06Sep2000               :
  PAW_PBE S 06Sep2000                   :

 POSCAR: Type_048 Type_148
  positions in cartesian coordinates
 exchange correlation table for  LEXCH =        8
   RHO(1)=    0.500       N(1)  =     2000
   RHO(2)=  100.500       N(2)  =     4000

 ion  position               nearest neighbor table
   1  0.261  0.479  0.295-  73 2.25  58 2.26  80 2.26  59 2.36  54 2.36   8 2.53  22 2.53
   2  0.355  0.385  0.426-  60 2.07  65 2.11  74 2.25  54 2.26  59 2.26   9 2.53  23 2.53
   3  0.075  0.164  0.058-  63 2.08  81 2.09  55 2.09
   4  0.167  0.073  0.165-  64 2.25  55 2.26  81 2.26  56 2.36  82 2.36  36 2.53  31 2.53
   5  0.049  0.021  0.479-  77 2.00  50 2.05  72 2.07  21 2.37
   6  0.187  0.328  0.039-  55 2.12  57 2.12  51 2.13   7 2.30
   7  0.274  0.333  0.130-  51 2.00  57 2.09  55 2.25   6 2.30  52 2.36  58 2.36  12 2.53  29 2.53

   8  0.368  0.239  0.261-  56 2.25  58 2.26  52 2.26  59 2.36  61 2.36   1 2.53  22 2.53
   9  0.462  0.145  0.391-  60 2.06  78 2.25  59 2.26  61 2.26  62 2.36  17 2.44   2 2.53  23 2.53

[...]

  49  0.073  0.167  0.311-  27 2.25  11 2.26  21 2.26  10 2.36  20 2.36  50 2.78
  50  0.164  0.074  0.425-   5 2.05  21 2.18  11 2.20  28 2.25  49 2.78
  51  0.335  0.392  0.058-   7 2.00   6 2.13  12 2.15  57 2.74
  52  0.479  0.261  0.181-  16 2.25   8 2.26  22 2.26  12 2.36   7 2.36
  53  0.018  0.377  0.467-  11 2.00  15 2.02  66 2.72  72 2.79
  54  0.436  0.472  0.355-  33 2.25   2 2.26  23 2.26   1 2.36  22 2.36
  55  0.248  0.160  0.094-  13 2.00   3 2.09   6 2.12   7 2.25   4 2.26  36 2.26
  56  0.342  0.066  0.225-   8 2.25  27 2.26  45 2.26   4 2.36  36 2.36
  57  0.085  0.474  0.104-   7 2.09   6 2.12  25 2.15  29 2.21  51 2.74
  58  0.174  0.397  0.225-  10 2.25   1 2.26   8 2.26   7 2.36  29 2.36
  59  0.268  0.303  0.355-  11 2.25   9 2.26   2 2.26   8 2.36   1 2.36
  60  0.369  0.219  0.471-  17 2.03   9 2.06   2 2.07
  61  0.573  0.167  0.311-  37 2.25  23 2.26   9 2.26  22 2.36   8 2.36
  62  0.667  0.073  0.442-  17 2.03  24 2.06  38 2.25  23 2.36   9 2.36
  63  0.899  0.340  0.061-  18 2.04   3 2.08  19 2.12  25 2.13
  64  0.979  0.261  0.181-   4 2.25  20 2.26  10 2.26  25 2.36  19 2.36
  65  0.523  0.361  0.475-  41 2.04  24 2.07  23 2.11   2 2.11
  66  0.936  0.472  0.355-  44 2.25  15 2.26  11 2.26  14 2.36  10 2.36  53 2.72
  67  0.764  0.155  0.104-  48 2.10  26 2.12  19 2.14  16 2.20  87 2.75
  68  0.842  0.066  0.225-  20 2.25  37 2.26  34 2.26  16 2.36  48 2.36
  69  0.580  0.491  0.094-  18 2.05  39 2.17  12 2.25  19 2.26  40 2.26
  70  0.674  0.397  0.225-  22 2.25  14 2.26  20 2.26  19 2.36  40 2.36
  71  0.768  0.303  0.355-  23 2.25  21 2.26  15 2.26  20 2.36  14 2.36
  72  0.894  0.212  0.477-  24 2.03   5 2.07  21 2.10  15 2.14  53 2.79
  73  0.073  0.667  0.311-   1 2.25  35 2.26  44 2.26  34 2.36  43 2.36  74 2.63
  74  0.165  0.574  0.417-  44 2.14  35 2.15   2 2.25  73 2.63
  75  0.385  0.855  0.051-  39 1.99  30 2.06  13 2.07  36 2.26  31 2.26
  76  0.479  0.761  0.181-  39 2.12  40 2.25  32 2.26  45 2.26  36 2.36  31 2.36
  77  0.024  0.856  0.473-   5 2.00  35 2.05  38 2.07  96 2.75
  78  0.436  0.972  0.355-   9 2.25  28 2.26  46 2.26  27 2.36  45 2.36
  79  0.262  0.656  0.113-  12 2.07  29 2.07  31 2.10  80 2.72
  80  0.342  0.566  0.225-  32 2.25   1 2.26  22 2.26  29 2.36  12 2.36  79 2.72
  81  0.080  0.991  0.094-  30 2.00   3 2.09  26 2.13  48 2.25  31 2.26   4 2.26
  82  0.174  0.897  0.225-  34 2.25  27 2.26  32 2.26  31 2.36   4 2.36
  83  0.268  0.803  0.355-  35 2.25  33 2.26  28 2.26  32 2.36  27 2.36
  84  0.373  0.717  0.472-  41 2.04  33 2.05  28 2.09
  85  0.573  0.667  0.311-  14 2.25  46 2.26  33 2.26  45 2.36  32 2.36
  86  0.667  0.573  0.442-  41 2.03  47 2.05  15 2.25  46 2.36  33 2.36
  87  0.847  0.905  0.057-  48 2.01  26 2.11  42 2.16  67 2.75
  88  0.979  0.761  0.181-  29 2.25  43 2.26  34 2.26  48 2.36  42 2.36
  89  0.519  0.869  0.474-  17 2.04  47 2.05  28 2.09  46 2.12
  90  0.936  0.972  0.355-  21 2.25  38 2.26  35 2.26  37 2.36  34 2.36
  91  0.744  0.664  0.105-  18 2.08  40 2.11  42 2.16  25 2.24  39 2.27
  92  0.842  0.566  0.225-  43 2.25  14 2.26  10 2.26  40 2.36  25 2.36
  93  0.583  0.979  0.113-  16 2.06  42 2.08  36 2.10  94 2.72
  94  0.674  0.897  0.225-  45 2.25  37 2.26  43 2.26  42 2.36  16 2.36  93 2.72
  95  0.768  0.803  0.355-  46 2.25  44 2.26  38 2.26  43 2.36  37 2.36
  96  0.876  0.717  0.472-  47 2.01  44 2.05  38 2.08  77 2.75

  LATTYP: Found a base centered orthorhombic cell.
 ALAT       =    11.8257374459
 B/A-ratio  =     1.6199260857
 C/A-ratio  =     1.9043172636

  Lattice vectors:

 A1 = (  11.2564630382,   0.0000000000,   0.0000000000)
 A2 = (  -5.0445621212, -10.0628203371,   0.0000000000)
 A3 = (   0.0000000000,   0.0000000000, -22.5199559732)

Analysis of symmetry for initial positions (statically):
 Subroutine PRICEL returns:
 Original cell was already a primitive cell.

 Routine SETGRP: Setting up the symmetry group for a
 base centered orthorhombic supercell.

 Subroutine GETGRP returns: Found  1 space group operations
 (whereof  1 operations were pure point group operations)
 out of a pool of  8 trial point group operations.

The static configuration has the point symmetry C_1 .

Analysis of symmetry for dynamics (positions and initial velocities):
 Subroutine PRICEL returns:
 Original cell was already a primitive cell.

 Routine SETGRP: Setting up the symmetry group for a
 base centered orthorhombic supercell.

 Subroutine GETGRP returns: Found  1 space group operations
 (whereof  1 operations were pure point group operations)
 out of a pool of  8 trial point group operations.

The dynamic configuration has the point symmetry C_1 .

 Subroutine INISYM returns: Found  1 space group operations
 (whereof  1 operations are pure point group operations),
 and found     1 'primitive' translations

 KPOINTS: gamma-point-only calculation. no periodi

Automatic generation of k-mesh.
Space group operators:
 irot       det(A)        alpha          n_x          n_y          n_z        tau_x        tau_y        tau_z
    1     1.000000     0.000000     1.000000     0.000000     0.000000     0.000000     0.000000     0.000000

 Subroutine IBZKPT returns following result:

 Found      1 irreducible k-points:

 Following reciprocal coordinates:
            Coordinates               Weight
  0.000000  0.000000  0.000000      1.000000

 Following cartesian coordinates:
            Coordinates               Weight
  0.000000  0.000000  0.000000      1.000000

 SYSTEM =  "Millerite NiS"
 POSCAR =  Type_048 Type_148

 Startparameter for this run:
   NWRITE =      2    write-flag & timer
   PREC   = normal    normal or accurate (medium, high low for compatibility)
   ISTART =      0    job   : 0-new  1-cont  2-samecut
   ICHARG =      2    charge: 1-file 2-atom 10-const
   ISPIN  =      1    spin polarized calculation?
   LNONCOLLINEAR =      F non collinear calculations
   LSORBIT =      F    spin-orbit coupling
   INIWAV =      1    electr: 0-lowe 1-rand  2-diag
   LASPH  =      F    aspherical Exc in radial PAW
   METAGGA=      F    non-selfconsistent MetaGGA calc.

 Electronic Relaxation 1
   ENCUT  =  450.0 eV  33.07 Ry    5.75 a.u.  19.47 19.47 38.95*2*pi/ulx,y,z
   ENINI  =  450.0     initial cutoff
   ENAUG  =  703.4 eV  augmentation charge cutoff
   NELM   =    100;   NELMIN=  2; NELMDL= -5     # of ELM steps
   EDIFF  = 0.1E-03   stopping-criterion for ELM
   LREAL  =      T    real-space projection
   NLSPLINE    = F    spline interpolate recip. space projectors
   LCOMPAT=      F    compatible to vasp.4.4
   GGA_COMPAT  = T    GGA compatible to vasp.4.4-vasp.4.6
   LMAXPAW     = -100 max onsite density
   LMAXMIX     =    2 max onsite mixed and CHGCAR
   VOSKOWN=      0    Vosko Wilk Nusair interpolation
   ROPT   =   -0.00050  -0.00050
 Ionic relaxation
   EDIFFG = 0.1E-02   stopping-criterion for IOM
   NSW    =      0    number of steps for IOM
   NBLOCK =      1;   KBLOCK =      1    inner block; outer block
   IBRION =     -1    ionic relax: 0-MD 1-quasi-New 2-CG
   NFREE  =      0    steps in history (QN), initial steepest desc. (CG)
   ISIF   =      2    stress and relaxation
   IWAVPR =     10    prediction:  0-non 1-charg 2-wave 3-comb
   ISYM   =      2    0-nonsym 1-usesym 2-fastsym
   LCORR  =      T    Harris-Foulkes like correction to forces

   POTIM  = 0.5000    time-step for ionic-motion
   TEIN   =    0.0    initial temperature
   TEBEG  =    0.0;   TEEND  =   0.0 temperature during run
   SMASS  =  -3.00    Nose mass-parameter (am)
   estimated Nose-frequenzy (Omega)   =  0.10E-29 period in steps =****** mass=  -0.290E-26a.u.
   SCALEE = 1.0000    scale energy and forces
   NPACO  =    256;   APACO  = 16.0  distance and # of slots for P.C.
   PSTRESS=    0.0 pullay stress

  Mass of Ions in am
   POMASS =  58.69 32.07
  Ionic Valenz
   ZVAL   =  16.00  6.00
  Atomic Wigner-Seitz radii
  virtual crystal weights
   VCA    =   1.00  1.00
   NELECT =    1056.0000    total number of electrons
   NUPDOWN=      -1.0000    fix difference up-down

 DOS related values:
   EMIN   =  10.00;   EMAX   =-10.00  energy-range for DOS
   EFERMI =   0.00
   ISMEAR =     0;   SIGMA  =   0.20  broadening in eV -4-tet -1-fermi 0-gaus

 Electronic relaxation 2 (details)
[...]
     0.000000000  0.000000000 22.519955973     0.000000000  0.000000000  0.044405060

  length of vectors
    11.256463038 11.256463038 22.519955973     0.099375718  0.099375718  0.044405060

 FORCES acting on ions
    electron-ion (+dipol)            ewald-force                    non-local-force                 convergence-correction
   0.286E+03 -.406E+03 -.975E+03   -.286E+03 0.406E+03 0.975E+03   0.571E+00 -.694E+00 0.832E+00   -.118E-01 0.606E-02 -.262E+00
   0.639E+03 -.640E+03 -.454E+04   -.641E+03 0.642E+03 0.454E+04   0.145E+01 -.160E+01 -.200E+01   -.141E+00 0.128E+00 -.337E+00
   0.363E+03 -.580E+03 0.515E+04   -.364E+03 0.582E+03 -.515E+04   0.101E+01 -.179E+01 0.403E+01   0.572E-01 -.176E-01 0.161E+00
   0.202E+03 -.335E+03 0.189E+04   -.202E+03 0.335E+03 -.189E+04   0.555E-01 -.143E+00 -.294E+01   0.550E-01 -.405E-01 0.243E-01
   -.336E+03 0.318E+03 -.576E+04   0.334E+03 -.320E+03 0.576E+04   0.248E+01 0.239E+01 0.137E+01   0.147E+00 -.607E-01 -.189E+00
   -.251E+03 -.684E+03 0.591E+04   0.251E+03 0.684E+03 -.591E+04   -.628E+00 -.390E+00 0.574E-01   0.449E-01 0.128E-01 0.149E+00
   -.289E+03 0.242E+03 0.326E+04   0.290E+03 -.245E+03 -.326E+04   -.142E+01 0.219E+01 -.126E+01   0.316E-01 0.194E-01 0.768E-01
   0.206E+03 0.395E+03 0.191E+03   -.207E+03 -.395E+03 -.192E+03   0.669E+00 0.818E+00 0.114E+01   -.201E-01 -.127E-01 -.234E+00
   0.398E+03 0.260E+03 -.292E+04   -.399E+03 -.263E+03 0.291E+04   0.164E+01 0.229E+01 0.132E+01   -.125E+00 0.672E-01 -.543E+00
   -.578E+03 -.801E+02 0.814E+02   0.578E+03 0.803E+02 -.827E+02   -.859E+00 -.330E+00 0.157E+01   -.148E-01 0.831E-02 -.197E+00
   -.701E+03 -.889E+02 -.341E+04   0.706E+03 0.885E+02 0.341E+04   -.407E+01 -.197E+00 -.248E+01   0.771E-01 0.688E-01 -.327E+00
   -.418E+03 0.160E+03 0.390E+04   0.420E+03 -.161E+03 -.390E+04   -.153E+01 -.783E-01 0.239E+01   -.323E-01 0.226E-01 0.646E-01
   -.108E+04 -.519E+02 0.600E+04   0.108E+04 0.528E+02 -.600E+04   0.581E+01 -.605E+00 -.863E+00   0.329E-01 -.154E-01 0.156E+00
   0.195E+03 -.395E+03 -.970E+03   -.196E+03 0.396E+03 0.970E+03   0.779E+00 -.126E+01 0.254E+00   0.247E-01 0.110E-01 -.318E+00
   -.537E+02 -.465E+03 -.440E+04   0.514E+02 0.469E+03 0.440E+04   0.940E+00 -.345E+01 -.266E+01   0.185E+00 0.706E-01 -.361E+00
   0.318E+03 -.503E+03 0.271E+04   -.320E+03 0.507E+03 -.271E+04   0.181E+01 -.363E+01 0.175E+01   -.541E-01 -.285E-01 0.182E-01
   0.184E+03 0.283E+02 -.582E+04   -.185E+03 -.300E+02 0.582E+04   0.811E+00 0.129E+01 0.177E+01   -.122E+00 0.510E-01 -.161E+00
   -.470E+00 -.145E+03 0.620E+04   0.122E+01 0.145E+03 -.621E+04   -.600E+00 0.261E-01 0.477E+01   -.339E-01 0.463E-01 0.179E+00
   0.662E+03 0.512E+03 0.345E+04   -.665E+03 -.516E+03 -.345E+04   0.264E+01 0.376E+01 0.793E-01   -.162E-01 0.121E-01 0.132E+00
   0.277E+03 0.444E+03 0.147E+03   -.278E+03 -.444E+03 -.148E+03   0.687E+00 0.623E+00 0.146E+01   0.291E-01 0.394E-01 -.237E+00
   0.885E+02 0.288E+03 -.290E+04   -.918E+02 -.291E+03 0.289E+04   0.286E+01 0.238E+01 0.152E+01   0.120E+00 0.398E-01 -.535E+00
   -.447E+03 -.676E+00 0.267E+03   0.448E+03 0.968E+00 -.268E+03   -.119E+01 -.222E+00 0.927E+00   -.115E-01 0.145E-01 -.245E+00
   -.291E+03 -.761E+02 -.279E+04   0.294E+03 0.764E+02 0.279E+04   -.297E+01 -.561E+00 0.178E+01   -.993E-01 0.110E+00 -.582E+00
   -.162E+03 0.127E+03 -.572E+04   0.165E+03 -.129E+03 0.572E+04   -.281E+01 0.184E+01 0.184E+01   0.106E-01 0.567E-01 -.155E+00
   -.779E+03 -.340E+03 0.343E+04   0.785E+03 0.340E+03 -.343E+04   -.484E+01 -.177E+00 0.357E+00   0.276E-01 0.104E-01 0.132E+00
   0.712E+03 -.864E+02 0.592E+04   -.712E+03 0.863E+02 -.592E+04   0.588E+00 0.483E+00 -.156E+00   -.104E-01 -.235E-02 0.111E+00
   0.242E+03 -.405E+03 -.102E+04   -.242E+03 0.406E+03 0.102E+04   0.674E+00 -.125E+01 0.927E+00   0.235E-01 -.231E-01 -.299E+00
   0.424E+03 -.510E+03 -.444E+04   -.425E+03 0.513E+03 0.444E+04   0.130E+01 -.147E+01 -.171E+01   -.617E-01 -.715E-01 -.392E+00
   0.314E+03 -.506E+03 0.269E+04   -.317E+03 0.509E+03 -.269E+04   0.243E+01 -.332E+01 0.186E+01   0.396E-01 -.178E-01 -.974E-02
   0.538E+03 0.935E+03 0.601E+04   -.537E+03 -.930E+03 -.601E+04   -.215E+01 -.549E+01 -.891E+00   0.381E-01 -.423E-01 0.145E+00
   0.550E+03 0.693E+03 0.327E+04   -.553E+03 -.696E+03 -.326E+04   0.235E+01 0.235E+01 -.193E+01   0.551E-01 -.115E-01 0.978E-01
   0.324E+03 0.491E+03 0.996E+02   -.326E+03 -.491E+03 -.998E+02   0.140E+01 0.364E+00 0.482E+00   0.120E-01 0.158E-01 -.212E+00
   0.395E+03 0.327E+03 -.292E+04   -.397E+03 -.329E+03 0.292E+04   0.169E+01 0.230E+01 0.989E+00   -.578E-01 0.753E-01 -.426E+00
   -.463E+03 0.680E+02 0.205E+03   0.464E+03 -.679E+02 -.206E+03   -.816E+00 -.987E-01 0.112E+01   -.271E-02 -.278E-01 -.202E+00
   -.517E+03 0.252E+03 -.334E+04   0.522E+03 -.252E+03 0.334E+04   -.430E+01 0.575E-02 -.183E+01   0.248E-01 -.134E+00 -.376E+00
   -.879E+03 -.158E+03 0.328E+04   0.882E+03 0.159E+03 -.328E+04   -.322E+01 -.101E+01 -.184E+01   -.141E-01 -.272E-01 0.986E-01
   0.240E+03 -.362E+03 -.869E+03   -.240E+03 0.363E+03 0.869E+03   0.624E+00 -.137E+01 0.514E-01   -.327E-02 -.496E-01 -.351E+00
   0.125E+03 -.185E+03 -.436E+04   -.128E+03 0.190E+03 0.436E+04   0.180E+01 -.338E+01 -.388E+01   0.694E-01 -.164E+00 -.423E+00
   0.727E+02 -.435E+02 0.496E+04   -.721E+02 0.412E+02 -.497E+04   -.243E+00 0.205E+01 0.540E+01   -.435E-01 0.517E-01 0.167E+00
   0.145E+03 -.181E+03 0.194E+04   -.146E+03 0.179E+03 -.193E+04   0.497E+00 0.956E+00 -.348E+01   -.198E-01 0.339E-01 0.338E-01
   0.209E+03 0.540E+02 -.580E+04   -.210E+03 -.565E+02 0.580E+04   0.110E+01 0.200E+01 0.176E+01   -.104E+00 0.140E+00 -.175E+00
   0.402E+02 0.431E+03 0.393E+04   -.403E+02 -.433E+03 -.393E+04   0.415E+00 0.140E+01 0.230E+01   -.489E-01 0.156E-01 0.977E-01
   0.173E+03 0.466E+03 0.235E+03   -.173E+03 -.467E+03 -.236E+03   0.482E+00 0.521E+00 0.103E+01   0.793E-03 0.251E-02 -.207E+00
   0.331E+02 0.637E+03 -.337E+04   -.353E+02 -.641E+03 0.337E+04   0.201E+01 0.400E+01 -.205E+01   0.919E-01 -.737E-01 -.364E+00
   -.559E+03 -.545E+02 0.126E+03   0.560E+03 0.558E+02 -.126E+03   -.108E+01 -.129E+01 0.552E-01   -.182E-01 -.281E-02 -.232E+00
   -.416E+03 -.133E+02 -.284E+04   0.419E+03 0.136E+02 0.283E+04   -.278E+01 -.340E+00 0.181E+01   -.100E+00 -.253E-01 -.548E+00
   -.368E+03 0.270E+03 -.579E+04   0.371E+03 -.270E+03 0.579E+04   -.327E+01 0.441E+00 0.306E+01   0.219E-01 -.871E-01 -.206E+00
   -.925E+02 0.378E+03 0.327E+04   0.948E+02 -.381E+03 -.327E+04   -.134E+01 0.218E+01 -.116E+01   -.423E-01 -.258E-01 0.120E+00
   -.959E+02 0.989E+02 -.350E+03   0.967E+02 -.101E+03 0.349E+03   -.966E+00 0.189E+01 -.203E-01   0.161E-01 0.133E-01 -.131E+00
   -.273E+03 0.891E+01 -.163E+04   0.275E+03 -.937E+01 0.163E+04   -.173E+00 -.866E-01 -.701E+00   0.710E-01 0.202E-01 -.157E+00
   -.342E+03 -.822E+02 0.225E+04   0.346E+03 0.818E+02 -.226E+04   -.137E+01 0.285E+00 0.177E+01   0.592E-02 0.728E-02 0.609E-01
   -.110E+03 0.124E+03 0.101E+04   0.111E+03 -.126E+03 -.101E+04   -.109E+01 0.161E+01 0.137E+01   -.100E-01 0.240E-02 -.140E-01
   -.306E+03 -.142E+03 -.225E+04   0.309E+03 0.143E+03 0.226E+04   -.970E+00 -.152E+00 -.753E+00   0.587E-01 0.107E-01 -.690E-01
   -.761E+01 -.169E+03 -.816E+03   0.898E+01 0.172E+03 0.816E+03   -.106E+01 -.245E+01 -.838E+00   -.846E-02 0.389E-01 -.141E+00
   -.280E+03 -.140E+03 0.139E+04   0.281E+03 0.141E+03 -.139E+04   0.113E+00 0.418E-01 0.181E+00   0.959E-02 -.142E-01 0.676E-01
   -.114E+03 -.176E+03 0.354E+03   0.115E+03 0.179E+03 -.354E+03   -.112E+01 -.249E+01 0.268E+00   -.212E-02 -.966E-02 -.632E-01
   0.574E+02 -.398E+03 0.168E+04   -.598E+02 0.403E+03 -.168E+04   0.710E+00 -.270E+01 0.171E+01   0.165E-01 -.367E-02 0.488E-01
   0.137E+03 -.416E+02 0.376E+03   -.140E+03 0.414E+02 -.377E+03   0.296E+01 0.226E-01 0.101E+01   -.154E-02 -.742E-02 -.535E-01
   0.202E+03 -.381E+02 -.892E+03   -.205E+03 0.382E+02 0.892E+03   0.254E+01 -.262E+00 -.146E+00   -.240E-01 0.861E-02 -.130E+00
   0.400E+03 -.180E+03 -.219E+04   -.404E+03 0.179E+03 0.220E+04   0.181E+01 0.715E+00 -.103E+01   -.885E-01 0.938E-01 -.889E-01
[...]
   0.200E+03 0.201E+02 -.860E+03   -.203E+03 -.196E+02 0.859E+03   0.267E+01 -.436E+00 0.106E+00   0.742E-02 -.221E-01 -.126E+00
   0.374E+03 -.100E+03 -.220E+04   -.377E+03 0.996E+02 0.221E+04   0.140E+01 0.893E+00 -.132E+01   -.426E-01 0.201E-01 -.996E-01
   -.719E+02 0.122E+03 -.326E+03   0.732E+02 -.124E+03 0.325E+03   -.107E+01 0.185E+01 0.120E+01   -.616E-02 0.596E-02 -.110E+00
   -.144E+03 0.166E+03 -.162E+04   0.145E+03 -.167E+03 0.162E+04   -.327E+00 0.485E+00 -.167E+01   -.162E-01 -.580E-02 -.180E+00
   0.233E+03 0.274E+03 0.225E+04   -.234E+03 -.277E+03 -.226E+04   0.219E+00 0.128E+01 0.194E+01   -.279E-01 -.174E-01 0.495E-01
   -.649E+02 0.163E+03 0.100E+04   0.659E+02 -.165E+03 -.100E+04   -.944E+00 0.147E+01 0.163E+01   -.447E-02 -.741E-02 0.176E-02
   0.130E+03 -.110E+03 -.216E+04   -.129E+03 0.111E+03 0.216E+04   -.211E+00 0.131E+00 -.196E+01   -.106E+00 -.286E-01 -.120E+00
   -.678E+02 -.103E+03 -.795E+03   0.690E+02 0.106E+03 0.795E+03   -.136E+01 -.268E+01 -.789E+00   0.617E-02 -.424E-01 -.179E+00
   -.339E+03 -.296E+03 0.173E+04   0.341E+03 0.298E+03 -.173E+04   -.102E+01 -.966E+00 0.597E+00   0.170E-03 0.295E-01 0.587E-01
   -.123E+03 -.172E+03 0.378E+03   0.124E+03 0.174E+03 -.378E+03   -.131E+01 -.280E+01 0.641E+00   -.334E-02 -.588E-02 -.360E-01
   -.279E+02 -.131E+03 0.175E+04   0.268E+02 0.133E+03 -.176E+04   0.137E+00 -.845E+00 0.324E+01   -.135E-01 -.840E-02 0.517E-01
   0.128E+03 -.163E+02 0.418E+03   -.130E+03 0.163E+02 -.417E+03   0.241E+01 -.122E+00 0.224E+00   -.243E-02 0.277E-03 -.595E-01
   0.124E+03 0.189E+02 -.796E+03   -.127E+03 -.188E+02 0.797E+03   0.290E+01 0.792E-02 -.970E+00   0.270E-02 -.215E-01 -.169E+00
   -.184E+03 0.203E+03 -.221E+04   0.184E+03 -.205E+03 0.222E+04   -.291E+00 0.133E+01 -.142E+01   0.101E+00 -.508E-01 -.942E-01
   -.931E+01 0.329E+01 -.221E+02   -.142E-11 0.682E-12 -.546E-11   0.905E+01 -.348E+01 0.323E+02   -.371E-02 0.186E+00 -.997E+01

 POSITION                                       TOTAL-FORCE (eV/Angst)
      5.35228      4.81788      6.64784         0.132756     -0.276734     -0.044077
      5.93595      3.87238      9.58390        -0.337425      0.951680     -1.126043
      1.67515      1.65186      1.30515        -0.217963      0.426277     -1.395963
      2.24633      0.73197      3.71178        -0.156692      0.218610      0.492349
      0.65177      0.21002     10.79275         0.798180      0.095430      1.255087
      3.76431      3.30185      0.87292        -0.608435     -0.534076     -1.511792
      4.76861      3.35453      2.93606         0.380892     -1.200892      4.289531
      5.35228      2.40903      5.87212        -0.007506      0.082008      0.017933
      5.93595      1.46353      8.80817         0.190811     -0.238561     -2.308685
      1.87746      3.73836      5.87212        -0.163271     -0.074101      0.048671
      2.46113      2.79286      8.80817         0.411995     -0.574823     -2.205221
      6.92203      4.68386      2.93606         0.777011     -0.675496      1.067373
      3.81189      0.48708      0.48006         0.396975      0.261265     -0.958330
     10.98051      4.81788      6.64784         0.115287     -0.198716     -0.122876
     11.56418      3.87238      9.58390        -1.205697      0.774658     -1.750026
      7.87456      0.73197      3.71178         0.227435      0.486018      1.433953
      6.17117      0.43877     11.01484        -0.245572     -0.416902      1.249283
     10.83323      5.18825      1.22498         0.118801      0.474493     -2.010558
     10.39684      3.35453      2.93606        -0.256198     -0.474608      1.416642
     10.98051      2.40903      5.87212         0.156416      0.196703      0.034121
     11.56418      1.46353      8.80817        -0.354145      0.149455     -2.592559
      7.50570      3.73836      5.87212        -0.155674      0.084631      0.003542
      8.08937      2.79286      8.80817        -0.023329     -0.200552     -2.018332
      9.10678      2.10564     10.87010        -0.204201      0.063215      1.209610
     12.55026      4.68386      2.93606         0.701190     -0.087373      1.538720
     10.50520      0.53132      0.87240         0.808373      0.363759     -1.464621
      7.87456      9.84929      6.64784         0.195224     -0.224962     -0.169221
      8.45823      8.90379      9.58390        -0.558059      0.908845     -1.125028
      4.76861      5.76338      3.71178        -0.507971      0.013794      1.299747
      6.81163      9.28587      0.48169        -0.429949     -0.210499     -0.959352
      7.29089      8.38594      2.93606         0.245154      0.049566      0.861310
      7.87456      7.44044      5.87212        -0.148657     -0.092348      0.088887
      8.45823      6.49494      8.80817         0.192636     -0.160555     -2.376877
      4.39975      8.76977      5.87212        -0.161696      0.001180     -0.035042
      4.98341      7.82427      8.80817         0.406593     -0.120378     -2.115045
      9.44431      9.71527      2.93606        -0.116445     -0.157050      0.811750
     13.50279      9.84929      6.64784         0.156574     -0.235318     -0.121961
     14.08646      8.90379      9.58390        -0.713344      1.116287     -2.048362
      9.50347      7.05353      2.06011         0.354173     -0.229844     -0.777948
     10.39684      5.76338      3.71178        -0.005357     -0.905697      2.646145
      8.67940      5.40363     10.97563        -0.140371     -0.397428      1.299677
     12.91912      8.38594      2.93606         0.309706     -0.669031      1.061802
     13.50279      7.44044      5.87212         0.025034      0.171261     -0.067510
     14.08646      6.49494      8.80817        -0.056680     -0.295176     -2.127005
     10.02798      8.76977      5.87212         0.177073      0.058935      0.091964
     10.61165      7.82427      8.80817        -0.047384     -0.046282     -1.797795
     11.49475      7.15946     10.96908        -0.063654     -0.155803      1.212993
     15.07254      9.71527      2.93606         0.870522     -0.842941      4.162274
      1.66190      1.67871      7.01153        -0.055679      0.133237     -0.890483
      2.21465      0.74647      9.57666         1.475142     -0.520471      1.262603
      5.75143      3.94080      1.29520         1.878311     -0.161050     -3.744859
      6.70646      2.62422      4.07548         0.134460     -0.120218     -0.458409
      2.10519      3.78974     10.51080         1.639139      1.129403      3.394075
      7.29013      4.74605      7.99931         0.310173      0.009672     -0.591440
      3.60051      1.60565      2.12720         1.094740      0.839797      1.113505
      4.18418      0.66015      5.06325        -0.013843     -0.043959      0.094101
      3.35371      4.77384      2.33641        -1.606565      1.984804     -0.768928
      3.96438      3.99884      5.06325        -0.256346     -0.201212      0.356386
      4.54805      3.05334      7.99931        -0.055212     -0.215639     -0.663697
      5.25420      2.20222     10.60255        -2.267276      0.147549      2.626909
[...]
      6.48666      9.03025      5.06325         0.052805     -0.022735      0.094748
      7.07033      8.08475      7.99931        -0.111980     -0.013718     -0.463905
      7.81397      7.21239     10.62082        -2.180697      0.123855      2.473590
      9.81241      6.71012      7.01153         0.144682     -0.131089     -0.195959
     10.39608      5.76462      9.94759         0.865367     -1.158313     -0.166362
     14.10377      9.10838      1.28553        -0.726140     -1.800894     -3.556048
     14.85697      7.65563      4.07548         0.118827     -0.201949     -0.359311
     10.23125      8.74588     10.68358         0.508078      0.987390      2.313862
     15.44064      9.77746      7.99931        -0.125345      0.195254     -0.506668
     11.72680      6.68093      2.35613         1.414098      1.283574     -1.112659
     12.33469      5.69156      5.06325         0.100553     -0.046728      0.381927
     11.50295      9.85648      2.54354        -1.004021      0.915341     -2.226678
     12.11489      9.03025      5.06325        -0.005813     -0.140466      0.667412
     12.69856      8.08475      7.99931        -0.224971      0.099451     -0.468843
     13.47522      7.21234     10.62541         0.075269     -0.928285      3.064555
    total drift:                               -0.256623     -0.007537      0.214903

  FREE ENERGIE OF THE ION-ELECTRON SYSTEM (eV)
  free  energy   TOTEN  =      -470.27349818 eV

  energy  without entropy=     -468.90001752  energy(sigma->0) =     -469.58675785