 vasp.5.4.4.18Apr17-6-g9f103f2a35 (build Aug 13 2019 17:33:20) gamma-only

 executed on             LinuxIFC date 2020.05.10  13:02:23

 INCAR:
 POTCAR:    PAW_PBE Ni_pv 06Sep2000
 POTCAR:    PAW_PBE S 06Sep2000
 POTCAR:    PAW_PBE Ni_pv 06Sep2000
   VRHFIN =Ni:

   TITEL  = PAW_PBE Ni_pv 06Sep2000
   POMASS =   58.690; ZVAL   =   16.000    mass and valenz
   ENMAX  =  367.986; ENMIN  =  275.989 eV

 POTCAR:    PAW_PBE S 06Sep2000
   VRHFIN =S : s2p4

   TITEL  = PAW_PBE S 06Sep2000
   POMASS =   32.066; ZVAL   =    6.000    mass and valenz
   ENMAX  =  258.689; ENMIN  =  194.016 eV

 Optimization of the real space projectors (new method)

 maximal supplied QI-value         = 18.90
 optimisation between [QCUT,QGAM] = [ 10.77, 21.73] = [ 32.49,132.25] Ry
 Optimized for a Real-space Cutoff    1.38 Angstroem

   l    n(q)    QCUT    max X(q) W(low)/X(q) W(high)/X(q)  e(spline)
   1      8    10.771     2.836    0.40E-04    0.29E-04    0.12E-06
   1      8    10.771     4.023    0.10E-03    0.48E-04    0.29E-06
   2      8    10.771    73.368    0.42E-03    0.97E-04    0.44E-06
   2      8    10.771    69.010    0.42E-03    0.99E-04    0.45E-06
   0      9    10.771    54.797    0.10E-03    0.56E-04    0.74E-07
   0      9    10.771    24.266    0.89E-04    0.49E-04    0.67E-07
 Optimization of the real space projectors (new method)

 maximal supplied QI-value         = 19.84
 optimisation between [QCUT,QGAM] = [ 10.71, 21.63] = [ 32.15,130.99] Ry
 Optimized for a Real-space Cutoff    1.19 Angstroem

   l    n(q)    QCUT    max X(q) W(low)/X(q) W(high)/X(q)  e(spline)
   0      8    10.715   187.594    0.41E-03    0.53E-04    0.66E-07
   0      8    10.715   164.243    0.41E-03    0.53E-04    0.65E-07
   1      7    10.715    67.533    0.19E-03    0.59E-03    0.68E-07
   1      7    10.715    50.729    0.19E-03    0.58E-03    0.67E-07
  PAW_PBE Ni_pv 06Sep2000               :
  PAW_PBE S 06Sep2000                   :

 POSCAR: Type_048 Type_148
  positions in cartesian coordinates
 exchange correlation table for  LEXCH =        8
   RHO(1)=    0.500       N(1)  =     2000
   RHO(2)=  100.500       N(2)  =     4000

 ion  position               nearest neighbor table
   1  0.261  0.479  0.218-  73 2.25  58 2.26  80 2.26  54 2.36  59 2.36   7 2.53  21 2.53
   2  0.355  0.385  0.359-  74 2.25  54 2.26  59 2.26  60 2.36  65 2.36   3 2.39   8 2.53  22 2.53

   3  0.375  0.364  0.474-  52 2.04  65 2.08  60 2.08   2 2.39
   4  0.167  0.073  0.076-  55 2.06  81 2.06  63 2.25  56 2.36  82 2.36
   5  0.049  0.055  0.447-  50 2.05  76 2.08  72 2.10  77 2.15
   6  0.283  0.303  0.062-  58 2.05  57 2.10  55 2.10  51 2.14
   7  0.368  0.239  0.180-  56 2.25  51 2.26  58 2.26  59 2.36  61 2.36   1 2.53  21 2.53
   8  0.462  0.145  0.322-  78 2.25  59 2.26  61 2.26  60 2.36  62 2.36   2 2.53  22 2.53
   9  0.000  0.372  0.180-  58 2.25  63 2.26  92 2.26  66 2.36  49 2.36  13 2.53  19 2.53
  10  0.094  0.278  0.322-  59 2.25  49 2.26  66 2.26  50 2.36  53 2.36  14 2.53  20 2.53
  11  0.185  0.191  0.447-  50 2.05  76 2.08  53 2.10  60 2.15
  12  0.437  0.456  0.062-  80 2.05  79 2.10  69 2.10  51 2.14
  13  0.761  0.479  0.218-  85 2.25  70 2.26  92 2.26  66 2.36  71 2.36  19 2.53   9 2.53
  14  0.855  0.385  0.359-  86 2.25  66 2.26  71 2.26  72 2.36  53 2.36  15 2.39  20 2.53  10 2.53

[...]

  39  0.875  0.864  0.474-  88 2.04  77 2.08  96 2.08  38 2.39
  40  0.667  0.573  0.076-  91 2.06  69 2.06  75 2.25  92 2.36  70 2.36
  41  0.549  0.555  0.447-  86 2.05  64 2.08  84 2.10  65 2.15
  42  0.783  0.803  0.062-  94 2.05  93 2.10  91 2.10  87 2.14
  43  0.868  0.739  0.180-  92 2.25  87 2.26  94 2.26  95 2.36  73 2.36  37 2.53  33 2.53
  44  0.962  0.645  0.322-  66 2.25  95 2.26  73 2.26  96 2.36  74 2.36  38 2.53  34 2.53
  45  0.500  0.872  0.180-  94 2.25  75 2.26  56 2.26  78 2.36  85 2.36  25 2.53  31 2.53
  46  0.594  0.778  0.322-  95 2.25  85 2.26  78 2.26  86 2.36  89 2.36  26 2.53  32 2.53
  47  0.685  0.691  0.447-  86 2.05  64 2.08  89 2.10  96 2.15
  48  0.937  0.956  0.062-  68 2.05  67 2.10  81 2.10  87 2.14
  49  0.073  0.167  0.235-  25 2.25  10 2.26  20 2.26   9 2.36  19 2.36
  50  0.167  0.073  0.377-  11 2.05   5 2.05  26 2.25  10 2.36  20 2.36  76 2.69
  51  0.479  0.261  0.094-   6 2.14  12 2.14  16 2.25   7 2.26  21 2.26
  52  0.211  0.528  0.504-   3 2.04  35 2.08  29 2.08  74 2.69
  53  0.030  0.378  0.424-  15 2.08  11 2.10  29 2.15  10 2.36  14 2.36
  54  0.436  0.472  0.283-  32 2.25   2 2.26  22 2.26   1 2.36  21 2.36
  55  0.286  0.130  0.022-   4 2.06  36 2.10   6 2.10  56 2.59
  56  0.342  0.066  0.141-  36 2.05   7 2.25  25 2.26  45 2.26   4 2.36  55 2.59
  57  0.110  0.454  0.022-  28 2.06   6 2.10  24 2.10  58 2.59
  58  0.174  0.397  0.141-   6 2.05   9 2.25   1 2.26   7 2.26  28 2.36  57 2.59
  59  0.268  0.303  0.283-  10 2.25   8 2.26   2 2.26   7 2.36   1 2.36
  60  0.362  0.209  0.424-   3 2.08  17 2.10  11 2.15   8 2.36   2 2.36
  61  0.573  0.167  0.235-  37 2.25  22 2.26   8 2.26  21 2.36   7 2.36
  62  0.667  0.073  0.377-  23 2.05  17 2.05  38 2.25  22 2.36   8 2.36  88 2.69
  63  0.979  0.261  0.094-  18 2.14  24 2.14   4 2.25  19 2.26   9 2.26
  64  0.711  0.528  0.504-  15 2.04  47 2.08  41 2.08  86 2.69
  65  0.530  0.378  0.424-   3 2.08  23 2.10  41 2.15  22 2.36   2 2.36
  66  0.936  0.472  0.283-  44 2.25  14 2.26  10 2.26  13 2.36   9 2.36
  67  0.786  0.130  0.022-  16 2.06  48 2.10  18 2.10  68 2.59
  68  0.842  0.066  0.141-  48 2.05  19 2.25  37 2.26  33 2.26  16 2.36  67 2.59
  69  0.610  0.454  0.022-  40 2.06  18 2.10  12 2.10  70 2.59
  70  0.674  0.397  0.141-  18 2.05  21 2.25  13 2.26  19 2.26  40 2.36  69 2.59
  71  0.768  0.303  0.283-  22 2.25  20 2.26  14 2.26  19 2.36  13 2.36
  72  0.862  0.209  0.424-  15 2.08   5 2.10  23 2.15  20 2.36  14 2.36
  73  0.073  0.667  0.235-   1 2.25  34 2.26  44 2.26  33 2.36  43 2.36
  74  0.167  0.573  0.377-  35 2.05  29 2.05   2 2.25  34 2.36  44 2.36  52 2.69
  75  0.479  0.761  0.094-  30 2.14  36 2.14  40 2.25  31 2.26  45 2.26
  76  0.211  0.028  0.504-  27 2.04  11 2.08   5 2.08  50 2.69
  77  0.030  0.878  0.424-  39 2.08  35 2.10   5 2.15  34 2.36  38 2.36
  78  0.436  0.972  0.283-   8 2.25  26 2.26  46 2.26  25 2.36  45 2.36
  79  0.286  0.630  0.022-  28 2.06  12 2.10  30 2.10  80 2.59
  80  0.342  0.566  0.141-  12 2.05  31 2.25   1 2.26  21 2.26  28 2.36  79 2.59
  81  0.110  0.954  0.022-   4 2.06  30 2.10  48 2.10  82 2.59
  82  0.174  0.897  0.141-  30 2.05  33 2.25  25 2.26  31 2.26   4 2.36  81 2.59
  83  0.268  0.803  0.283-  34 2.25  32 2.26  26 2.26  31 2.36  25 2.36
  84  0.362  0.709  0.424-  27 2.08  41 2.10  35 2.15  32 2.36  26 2.36
  85  0.573  0.667  0.235-  13 2.25  46 2.26  32 2.26  45 2.36  31 2.36
  86  0.667  0.573  0.377-  47 2.05  41 2.05  14 2.25  46 2.36  32 2.36  64 2.69
  87  0.979  0.761  0.094-  42 2.14  48 2.14  28 2.25  43 2.26  33 2.26
  88  0.711  0.028  0.504-  39 2.04  23 2.08  17 2.08  62 2.69
  89  0.530  0.878  0.424-  27 2.08  47 2.10  17 2.15  46 2.36  26 2.36
  90  0.936  0.972  0.283-  20 2.25  38 2.26  34 2.26  37 2.36  33 2.36
  91  0.786  0.630  0.022-  40 2.06  24 2.10  42 2.10  92 2.59
  92  0.842  0.566  0.141-  24 2.05  43 2.25  13 2.26   9 2.26  40 2.36  91 2.59
  93  0.610  0.954  0.022-  16 2.06  42 2.10  36 2.10  94 2.59
  94  0.674  0.897  0.141-  42 2.05  45 2.25  37 2.26  43 2.26  16 2.36  93 2.59
  95  0.768  0.803  0.283-  46 2.25  44 2.26  38 2.26  43 2.36  37 2.36
  96  0.862  0.709  0.424-  39 2.08  29 2.10  47 2.15  44 2.36  38 2.36

  LATTYP: Found a base centered orthorhombic cell.
 ALAT       =    11.8257374459
 B/A-ratio  =     1.6199260857
 C/A-ratio  =     1.7551931927

  Lattice vectors:

 A1 = (  11.2564630382,   0.0000000000,   0.0000000000)
 A2 = (  -5.0445621212, -10.0628203371,   0.0000000000)
 A3 = (   0.0000000000,   0.0000000000, -20.7564538638)

Analysis of symmetry for initial positions (statically):
 Subroutine PRICEL returns following result:

[...]

   4 primitive cells build up your supercell.

 Routine SETGRP: Setting up the symmetry group for a
 base centered orthorhombic supercell.

 Subroutine GETGRP returns: Found  2 space group operations
 (whereof  1 operations were pure point group operations)
 out of a pool of  8 trial point group operations.

The static configuration has the point symmetry C_1 .
 The point group associated with its full space group is C_1h.

Analysis of symmetry for dynamics (positions and initial velocities):
 Subroutine PRICEL returns following result:

  LATTYP: Found a base centered orthorhombic cell.
 ALAT       =     5.9128687230
 B/A-ratio  =     1.6199260857
 C/A-ratio  =     3.5103863854

  Lattice vectors:

 A1 = (   5.6282315191,   0.0000000000,   0.0000000000)
 A2 = (  -2.5222810606,  -5.0314101686,   0.0000000000)
 A3 = (   0.0000000000,   0.0000000000, -20.7564538638)

   4 primitive cells build up your supercell.

 Routine SETGRP: Setting up the symmetry group for a
 base centered orthorhombic supercell.

 Subroutine GETGRP returns: Found  2 space group operations
 (whereof  1 operations were pure point group operations)
 out of a pool of  8 trial point group operations.

The dynamic configuration has the point symmetry C_1 .
 The point group associated with its full space group is C_1h.

 Subroutine INISYM returns: Found  2 space group operations
 (whereof  1 operations are pure point group operations),
 and found     4 'primitive' translations

 KPOINTS: gamma-point-only calculation. no periodi

Automatic generation of k-mesh.
Space group operators:
 irot       det(A)        alpha          n_x          n_y          n_z        tau_x        tau_y        tau_z
    1     1.000000     0.000001     1.000000     0.000000     0.000000     0.000000     0.000000     0.000000
    2    -1.000000   180.000000     0.850925     0.525287     0.000000     0.239701    -0.260299     0.000000

 Subroutine IBZKPT returns following result:

 Found      1 irreducible k-points:

 Following reciprocal coordinates:
            Coordinates               Weight
  0.000000  0.000000  0.000000      1.000000

 Following cartesian coordinates:
            Coordinates               Weight
  0.000000  0.000000  0.000000      1.000000

 SYSTEM =  "Millerite NiS"
 POSCAR =  Type_048 Type_148

 Startparameter for this run:
   NWRITE =      2    write-flag & timer
   PREC   = normal    normal or accurate (medium, high low for compatibility)
   ISTART =      0    job   : 0-new  1-cont  2-samecut
   ICHARG =      2    charge: 1-file 2-atom 10-const
   ISPIN  =      1    spin polarized calculation?
   LNONCOLLINEAR =      F non collinear calculations
   LSORBIT =      F    spin-orbit coupling
   INIWAV =      1    electr: 0-lowe 1-rand  2-diag
   LASPH  =      F    aspherical Exc in radial PAW
   METAGGA=      F    non-selfconsistent MetaGGA calc.

 Electronic Relaxation 1
   ENCUT  =  450.0 eV  33.07 Ry    5.75 a.u.  19.47 19.47 35.90*2*pi/ulx,y,z
   ENINI  =  450.0     initial cutoff
   ENAUG  =  703.4 eV  augmentation charge cutoff
   NELM   =    100;   NELMIN=  2; NELMDL= -5     # of ELM steps
   EDIFF  = 0.1E-03   stopping-criterion for ELM
   LREAL  =      T    real-space projection
[...]
     0.000000000  0.000000000 20.756453864     0.000000000  0.000000000  0.048177786

  length of vectors
    11.256463038 11.256463038 20.756453864     0.099375718  0.099375718  0.048177786

 FORCES acting on ions
    electron-ion (+dipol)            ewald-force                    non-local-force                 convergence-correction
   0.256E+03 -.415E+03 0.640E+03   -.256E+03 0.415E+03 -.639E+03   0.434E+00 -.703E+00 -.250E+00   -.163E-03 0.264E-03 0.711E-02
   0.233E+03 -.377E+03 -.222E+04   -.234E+03 0.378E+03 0.222E+04   0.575E+00 -.932E+00 0.102E-01   -.286E-02 0.463E-02 0.105E+00
   -.115E+02 0.186E+02 -.533E+04   0.898E+01 -.145E+02 0.533E+04   0.296E+01 -.479E+01 0.995E+00   0.892E-03 -.145E-02 0.440E-01
   0.216E+03 -.350E+03 0.418E+04   -.219E+03 0.354E+03 -.418E+04   0.292E+01 -.473E+01 0.403E+01   -.385E-03 0.623E-03 -.792E-02
   0.302E+03 0.233E+03 -.462E+04   -.306E+03 -.236E+03 0.462E+04   0.358E+01 0.339E+01 -.221E+01   -.180E-02 0.326E-02 0.576E-01
   0.339E+02 0.214E+03 0.483E+04   -.347E+02 -.219E+03 -.483E+04   0.148E+01 0.542E+01 0.483E+01   0.481E-02 -.123E-02 -.106E-01
   0.197E+03 0.470E+03 0.162E+04   -.197E+03 -.471E+03 -.162E+04   0.105E+00 0.345E+00 -.662E+00   0.112E-03 -.124E-02 -.507E-03
   0.255E+03 0.435E+03 -.127E+04   -.256E+03 -.435E+03 0.127E+04   0.110E+01 0.416E+00 0.218E+01   -.303E-02 -.530E-02 0.532E-01
   -.509E+03 0.351E+02 0.162E+04   0.509E+03 -.353E+02 -.162E+04   -.355E+00 0.608E-01 -.662E+00   0.105E-02 -.654E-03 -.507E-03
   -.503E+03 -.326E+02 -.127E+04   0.504E+03 0.333E+02 0.127E+04   -.865E+00 -.796E+00 0.218E+01   0.610E-02 0.335E-03 0.532E-01
   -.344E+03 -.166E+03 -.462E+04   0.349E+03 0.168E+03 0.462E+04   -.463E+01 -.168E+01 -.221E+01   -.211E-02 0.307E-02 0.576E-01
   -.207E+03 0.656E+02 0.483E+04   0.212E+03 -.673E+02 -.483E+04   -.551E+01 0.111E+01 0.483E+01   -.105E-02 -.486E-02 -.106E-01
   0.256E+03 -.415E+03 0.640E+03   -.256E+03 0.415E+03 -.639E+03   0.434E+00 -.703E+00 -.250E+00   -.163E-03 0.264E-03 0.711E-02
   0.233E+03 -.377E+03 -.222E+04   -.234E+03 0.378E+03 0.222E+04   0.575E+00 -.932E+00 0.102E-01   -.286E-02 0.463E-02 0.105E+00
   -.115E+02 0.186E+02 -.533E+04   0.898E+01 -.145E+02 0.533E+04   0.296E+01 -.479E+01 0.995E+00   0.892E-03 -.145E-02 0.440E-01
   0.216E+03 -.350E+03 0.418E+04   -.219E+03 0.354E+03 -.418E+04   0.292E+01 -.473E+01 0.403E+01   -.385E-03 0.623E-03 -.792E-02
   0.302E+03 0.233E+03 -.462E+04   -.306E+03 -.236E+03 0.462E+04   0.358E+01 0.339E+01 -.221E+01   -.180E-02 0.326E-02 0.576E-01
   0.339E+02 0.214E+03 0.483E+04   -.347E+02 -.219E+03 -.483E+04   0.148E+01 0.542E+01 0.483E+01   0.481E-02 -.123E-02 -.106E-01
   0.197E+03 0.470E+03 0.162E+04   -.197E+03 -.471E+03 -.162E+04   0.105E+00 0.345E+00 -.662E+00   0.112E-03 -.124E-02 -.507E-03
   0.255E+03 0.435E+03 -.127E+04   -.256E+03 -.435E+03 0.127E+04   0.110E+01 0.416E+00 0.218E+01   -.303E-02 -.530E-02 0.532E-01
   -.509E+03 0.351E+02 0.162E+04   0.509E+03 -.353E+02 -.162E+04   -.355E+00 0.608E-01 -.662E+00   0.105E-02 -.654E-03 -.507E-03
   -.503E+03 -.326E+02 -.127E+04   0.504E+03 0.333E+02 0.127E+04   -.865E+00 -.796E+00 0.218E+01   0.610E-02 0.335E-03 0.532E-01
   -.344E+03 -.166E+03 -.462E+04   0.349E+03 0.168E+03 0.462E+04   -.463E+01 -.168E+01 -.221E+01   -.211E-02 0.307E-02 0.576E-01
   -.207E+03 0.656E+02 0.483E+04   0.212E+03 -.673E+02 -.483E+04   -.551E+01 0.111E+01 0.483E+01   -.105E-02 -.486E-02 -.106E-01
   0.256E+03 -.415E+03 0.640E+03   -.256E+03 0.415E+03 -.639E+03   0.434E+00 -.703E+00 -.250E+00   -.163E-03 0.264E-03 0.711E-02
   0.233E+03 -.377E+03 -.222E+04   -.234E+03 0.378E+03 0.222E+04   0.575E+00 -.932E+00 0.102E-01   -.286E-02 0.463E-02 0.105E+00
   -.115E+02 0.186E+02 -.533E+04   0.898E+01 -.145E+02 0.533E+04   0.296E+01 -.479E+01 0.995E+00   0.892E-03 -.145E-02 0.440E-01
   0.216E+03 -.350E+03 0.418E+04   -.219E+03 0.354E+03 -.418E+04   0.292E+01 -.473E+01 0.403E+01   -.385E-03 0.623E-03 -.792E-02
   0.302E+03 0.233E+03 -.462E+04   -.306E+03 -.236E+03 0.462E+04   0.358E+01 0.339E+01 -.221E+01   -.180E-02 0.326E-02 0.576E-01
   0.339E+02 0.214E+03 0.483E+04   -.347E+02 -.219E+03 -.483E+04   0.148E+01 0.542E+01 0.483E+01   0.481E-02 -.123E-02 -.106E-01
   0.197E+03 0.470E+03 0.162E+04   -.197E+03 -.471E+03 -.162E+04   0.105E+00 0.345E+00 -.662E+00   0.112E-03 -.124E-02 -.507E-03
   0.255E+03 0.435E+03 -.127E+04   -.256E+03 -.435E+03 0.127E+04   0.110E+01 0.416E+00 0.218E+01   -.303E-02 -.530E-02 0.532E-01
   -.509E+03 0.351E+02 0.162E+04   0.509E+03 -.353E+02 -.162E+04   -.355E+00 0.608E-01 -.662E+00   0.105E-02 -.654E-03 -.507E-03
   -.503E+03 -.326E+02 -.127E+04   0.504E+03 0.333E+02 0.127E+04   -.865E+00 -.796E+00 0.218E+01   0.610E-02 0.335E-03 0.532E-01
   -.344E+03 -.166E+03 -.462E+04   0.349E+03 0.168E+03 0.462E+04   -.463E+01 -.168E+01 -.221E+01   -.211E-02 0.307E-02 0.576E-01
   -.207E+03 0.656E+02 0.483E+04   0.212E+03 -.673E+02 -.483E+04   -.551E+01 0.111E+01 0.483E+01   -.105E-02 -.486E-02 -.106E-01
   0.256E+03 -.415E+03 0.640E+03   -.256E+03 0.415E+03 -.639E+03   0.434E+00 -.703E+00 -.250E+00   -.163E-03 0.264E-03 0.711E-02
   0.233E+03 -.377E+03 -.222E+04   -.234E+03 0.378E+03 0.222E+04   0.575E+00 -.932E+00 0.102E-01   -.286E-02 0.463E-02 0.105E+00
   -.115E+02 0.186E+02 -.533E+04   0.898E+01 -.145E+02 0.533E+04   0.296E+01 -.479E+01 0.995E+00   0.892E-03 -.145E-02 0.440E-01
   0.216E+03 -.350E+03 0.418E+04   -.219E+03 0.354E+03 -.418E+04   0.292E+01 -.473E+01 0.403E+01   -.385E-03 0.623E-03 -.792E-02
   0.302E+03 0.233E+03 -.462E+04   -.306E+03 -.236E+03 0.462E+04   0.358E+01 0.339E+01 -.221E+01   -.180E-02 0.326E-02 0.576E-01
   0.339E+02 0.214E+03 0.483E+04   -.347E+02 -.219E+03 -.483E+04   0.148E+01 0.542E+01 0.483E+01   0.481E-02 -.123E-02 -.106E-01
   0.197E+03 0.470E+03 0.162E+04   -.197E+03 -.471E+03 -.162E+04   0.105E+00 0.345E+00 -.662E+00   0.112E-03 -.124E-02 -.507E-03
   0.255E+03 0.435E+03 -.127E+04   -.256E+03 -.435E+03 0.127E+04   0.110E+01 0.416E+00 0.218E+01   -.303E-02 -.530E-02 0.532E-01
   -.509E+03 0.351E+02 0.162E+04   0.509E+03 -.353E+02 -.162E+04   -.355E+00 0.608E-01 -.662E+00   0.105E-02 -.654E-03 -.507E-03
   -.503E+03 -.326E+02 -.127E+04   0.504E+03 0.333E+02 0.127E+04   -.865E+00 -.796E+00 0.218E+01   0.610E-02 0.335E-03 0.532E-01
   -.344E+03 -.166E+03 -.462E+04   0.349E+03 0.168E+03 0.462E+04   -.463E+01 -.168E+01 -.221E+01   -.211E-02 0.307E-02 0.576E-01
   -.207E+03 0.656E+02 0.483E+04   0.212E+03 -.673E+02 -.483E+04   -.551E+01 0.111E+01 0.483E+01   -.105E-02 -.486E-02 -.106E-01
   -.754E+02 0.122E+03 0.282E+03   0.767E+02 -.124E+03 -.285E+03   -.131E+01 0.212E+01 0.229E+01   0.621E-04 -.100E-03 0.214E-02
   -.780E+02 0.126E+03 -.835E+03   0.792E+02 -.128E+03 0.830E+03   -.696E+00 0.113E+01 0.102E+01   0.149E-02 -.241E-02 0.318E-01
   -.109E+03 0.177E+03 0.155E+04   0.110E+03 -.178E+03 -.155E+04   -.196E+00 0.317E+00 0.289E+01   -.400E-03 0.648E-03 -.341E-02
   -.498E+01 0.807E+01 -.222E+04   0.554E+01 -.898E+01 0.222E+04   -.389E+00 0.630E+00 -.211E+01   0.954E-02 -.155E-01 -.938E-03
   -.126E+03 -.113E+03 -.148E+04   0.128E+03 0.114E+03 0.148E+04   -.142E+01 -.566E+00 -.169E+01   -.136E-01 -.704E-03 0.366E-01
   -.748E+02 -.153E+03 -.185E+03   0.760E+02 0.156E+03 0.185E+03   -.114E+01 -.263E+01 -.863E-01   0.410E-03 0.127E-02 0.110E-01
   -.142E+01 -.775E+02 0.216E+04   0.132E+01 0.788E+02 -.217E+04   0.821E+00 -.655E+00 0.390E+01   0.267E-04 0.260E-04 -.625E-02
   -.163E+02 -.179E+03 0.911E+03   0.173E+02 0.181E+03 -.909E+03   -.159E+01 -.176E+01 0.506E+00   0.952E-03 0.436E-03 -.180E-02
   0.699E+02 -.334E+02 0.216E+04   -.711E+02 0.341E+02 -.217E+04   0.218E+00 -.103E+01 0.390E+01   -.351E-04 -.123E-04 -.625E-02
   0.167E+03 -.657E+02 0.911E+03   -.170E+03 0.658E+02 -.909E+03   0.229E+01 0.629E+00 0.506E+00   -.816E-03 -.656E-03 -.180E-02
   0.170E+03 -.182E+01 -.185E+03   -.173E+03 0.197E+01 0.185E+03   0.286E+01 -.163E+00 -.863E-01   -.131E-02 0.201E-03 0.110E-01
   0.157E+03 0.621E+02 -.148E+04   -.160E+03 -.628E+02 0.148E+04   0.114E+01 0.101E+01 -.169E+01   0.674E-02 0.119E-01 0.366E-01
[...]
   0.170E+03 -.182E+01 -.185E+03   -.173E+03 0.197E+01 0.185E+03   0.286E+01 -.163E+00 -.863E-01   -.131E-02 0.201E-03 0.110E-01
   0.157E+03 0.621E+02 -.148E+04   -.160E+03 -.628E+02 0.148E+04   0.114E+01 0.101E+01 -.169E+01   0.674E-02 0.119E-01 0.366E-01
   -.754E+02 0.122E+03 0.282E+03   0.767E+02 -.124E+03 -.285E+03   -.131E+01 0.212E+01 0.229E+01   0.621E-04 -.100E-03 0.214E-02
   -.780E+02 0.126E+03 -.835E+03   0.792E+02 -.128E+03 0.830E+03   -.696E+00 0.113E+01 0.102E+01   0.149E-02 -.241E-02 0.318E-01
   -.109E+03 0.177E+03 0.155E+04   0.110E+03 -.178E+03 -.155E+04   -.196E+00 0.317E+00 0.289E+01   -.400E-03 0.648E-03 -.341E-02
   -.498E+01 0.807E+01 -.222E+04   0.554E+01 -.898E+01 0.222E+04   -.389E+00 0.630E+00 -.211E+01   0.954E-02 -.155E-01 -.938E-03
   -.126E+03 -.113E+03 -.148E+04   0.128E+03 0.114E+03 0.148E+04   -.142E+01 -.566E+00 -.169E+01   -.136E-01 -.704E-03 0.366E-01
   -.748E+02 -.153E+03 -.185E+03   0.760E+02 0.156E+03 0.185E+03   -.114E+01 -.263E+01 -.863E-01   0.410E-03 0.127E-02 0.110E-01
   -.142E+01 -.775E+02 0.216E+04   0.132E+01 0.788E+02 -.217E+04   0.821E+00 -.655E+00 0.390E+01   0.267E-04 0.260E-04 -.625E-02
   -.163E+02 -.179E+03 0.911E+03   0.173E+02 0.181E+03 -.909E+03   -.159E+01 -.176E+01 0.506E+00   0.952E-03 0.436E-03 -.180E-02
   0.699E+02 -.334E+02 0.216E+04   -.711E+02 0.341E+02 -.217E+04   0.218E+00 -.103E+01 0.390E+01   -.351E-04 -.123E-04 -.625E-02
   0.167E+03 -.657E+02 0.911E+03   -.170E+03 0.658E+02 -.909E+03   0.229E+01 0.629E+00 0.506E+00   -.816E-03 -.656E-03 -.180E-02
   0.170E+03 -.182E+01 -.185E+03   -.173E+03 0.197E+01 0.185E+03   0.286E+01 -.163E+00 -.863E-01   -.131E-02 0.201E-03 0.110E-01
   0.157E+03 0.621E+02 -.148E+04   -.160E+03 -.628E+02 0.148E+04   0.114E+01 0.101E+01 -.169E+01   0.674E-02 0.119E-01 0.366E-01
   -.978E+01 0.158E+02 -.915E+02   -.168E-11 0.810E-12 0.105E-10   0.955E+01 -.155E+02 0.897E+02   0.184E-01 -.297E-01 0.182E+01

 POSITION                                       TOTAL-FORCE (eV/Angst)
      5.35228      4.81788      4.52064         0.049793     -0.080661     -0.029290
      5.93595      3.87238      7.45670        -0.087590      0.141890     -0.957603
      6.06334      3.66603      9.83040         0.425728     -0.689648      0.826712
      2.24633      0.73197      1.58459         0.064991     -0.105281      1.478698
      0.82612      0.55086      9.28391        -0.570775     -0.014767      0.509636
      4.71480      3.04504      1.27988         0.744462      0.268654     -1.048698
      5.35228      2.40903      3.74492         0.179367      0.065561      0.339359
      5.93595      1.46353      6.68098         0.050058     -0.045433     -0.002641
      1.87746      3.73836      3.74492        -0.138991     -0.130966      0.339359
      2.46113      2.79286      6.68098         0.018182     -0.065111     -0.002641
      3.04470      1.92042      9.28391         0.268993      0.503631      0.509636
      7.22281      4.59327      1.27988        -0.573795     -0.545122     -1.048698
     10.98051      4.81788      4.52064         0.049793     -0.080661     -0.029290
     11.56418      3.87238      7.45670        -0.087590      0.141890     -0.957603
     11.69157      3.66603      9.83040         0.425728     -0.689648      0.826712
      7.87456      0.73197      1.58459         0.064991     -0.105281      1.478698
      6.45435      0.55086      9.28391        -0.570775     -0.014767      0.509636
     10.34303      3.04504      1.27988         0.744462      0.268654     -1.048698
     10.98051      2.40903      3.74492         0.179367      0.065561      0.339359
     11.56418      1.46353      6.68098         0.050058     -0.045433     -0.002641
      7.50570      3.73836      3.74492        -0.138991     -0.130966      0.339359
      8.08937      2.79286      6.68098         0.018182     -0.065111     -0.002641
      8.67293      1.92042      9.28391         0.268993      0.503631      0.509636
     12.85105      4.59327      1.27988        -0.573795     -0.545122     -1.048698
      7.87456      9.84929      4.52064         0.049793     -0.080661     -0.029290
      8.45823      8.90379      7.45670        -0.087590      0.141890     -0.957603
      8.58562      8.69744      9.83040         0.425728     -0.689648      0.826712
      4.76861      5.76338      1.58459         0.064991     -0.105281      1.478698
      3.34840      5.58227      9.28391        -0.570775     -0.014767      0.509636
      7.23708      8.07645      1.27988         0.744462      0.268654     -1.048698
      7.87456      7.44044      3.74492         0.179367      0.065561      0.339359
      8.45823      6.49494      6.68098         0.050058     -0.045433     -0.002641
      4.39975      8.76977      3.74492        -0.138991     -0.130966      0.339359
      4.98341      7.82427      6.68098         0.018182     -0.065111     -0.002641
      5.56698      6.95183      9.28391         0.268993      0.503631      0.509636
      9.74510      9.62468      1.27988        -0.573795     -0.545122     -1.048698
     13.50279      9.84929      4.52064         0.049793     -0.080661     -0.029290
     14.08646      8.90379      7.45670        -0.087590      0.141890     -0.957603
     14.21385      8.69744      9.83040         0.425728     -0.689648      0.826712
     10.39684      5.76338      1.58459         0.064991     -0.105281      1.478698
      8.97663      5.58227      9.28391        -0.570775     -0.014767      0.509636
     12.86531      8.07645      1.27988         0.744462      0.268654     -1.048698
     13.50279      7.44044      3.74492         0.179367      0.065561      0.339359
     14.08646      6.49494      6.68098         0.050058     -0.045433     -0.002641
     10.02798      8.76977      3.74492        -0.138991     -0.130966      0.339359
     10.61165      7.82427      6.68098         0.018182     -0.065111     -0.002641
     11.19522      6.95183      9.28391         0.268993      0.503631      0.509636
     15.37333      9.62468      1.27988        -0.573795     -0.545122     -1.048698
      1.66190      1.67871      4.88434         0.047501     -0.076948      0.077194
      2.24556      0.73321      7.82040         0.448559     -0.726633     -3.160861
      6.70646      2.62422      1.94828         0.751265     -1.216995     -0.329196
      5.04378      5.31763     10.45601         0.186193     -0.301620      2.735422
      2.24556      3.80055      8.80817         0.152535      1.020886     -0.157717
      7.29013      4.74605      5.87212         0.057948      0.062766     -0.000252
      3.86912      1.30674      0.44872         0.717471      0.690208     -2.427631
      4.18418      0.66015      2.93606        -0.533322      0.554793      2.467406
      3.52755      4.57026      0.44872        -0.938551     -0.332075     -2.427631
      3.96438      3.99884      2.93606        -0.256955      0.725398      2.467406
      4.54805      3.05334      5.87212        -0.082080     -0.023675     -0.000252
      5.13172      2.10784      8.80817        -0.980989      0.321148     -0.157717
[...]
      6.48666      9.03025      2.93606        -0.256955      0.725398      2.467406
      7.07033      8.08475      5.87212        -0.082080     -0.023675     -0.000252
      7.65400      7.13925      8.80817        -0.980989      0.321148     -0.157717
      9.81241      6.71012      4.88434         0.047501     -0.076948      0.077194
     10.39608      5.76462      7.82040         0.448559     -0.726633     -3.160861
     14.85697      7.65563      1.94828         0.751265     -1.216995     -0.329196
      8.14973      0.28622     10.45601         0.186193     -0.301620      2.735422
     10.39608      8.83196      8.80817         0.152535      1.020886     -0.157717
     15.44064      9.77746      5.87212         0.057948      0.062766     -0.000252
     12.01963      6.33815      0.44872         0.717471      0.690208     -2.427631
     12.33469      5.69156      2.93606        -0.533322      0.554793      2.467406
     11.67806      9.60167      0.44872        -0.938551     -0.332075     -2.427631
     12.11489      9.03025      2.93606        -0.256955      0.725398      2.467406
     12.69856      8.08475      5.87212        -0.082080     -0.023675     -0.000252
     13.28223      7.13925      8.80817        -0.980989      0.321148     -0.157717
    total drift:                               -0.210994      0.322419      0.016761

  FREE ENERGIE OF THE ION-ELECTRON SYSTEM (eV)
  free  energy   TOTEN  =      -479.78175502 eV

  energy  without entropy=     -478.73210886  energy(sigma->0) =     -479.25693194