 vasp.5.4.4.18Apr17-6-g9f103f2a35 (build Aug 13 2019 17:33:20) gamma-only

 executed on             LinuxIFC date 2020.05.12  00:02:30

 INCAR:
 POTCAR:    PAW_PBE Ni_pv 06Sep2000
 POTCAR:    PAW_PBE S 06Sep2000
 POTCAR:    PAW_PBE Ni_pv 06Sep2000
   VRHFIN =Ni:

   TITEL  = PAW_PBE Ni_pv 06Sep2000
   POMASS =   58.690; ZVAL   =   16.000    mass and valenz
   ENMAX  =  367.986; ENMIN  =  275.989 eV

 POTCAR:    PAW_PBE S 06Sep2000
   VRHFIN =S : s2p4

   TITEL  = PAW_PBE S 06Sep2000
   POMASS =   32.066; ZVAL   =    6.000    mass and valenz
   ENMAX  =  258.689; ENMIN  =  194.016 eV

 Optimization of the real space projectors (new method)

 maximal supplied QI-value         = 18.90
 optimisation between [QCUT,QGAM] = [ 10.77, 21.73] = [ 32.49,132.25] Ry
 Optimized for a Real-space Cutoff    1.38 Angstroem

   l    n(q)    QCUT    max X(q) W(low)/X(q) W(high)/X(q)  e(spline)
   1      8    10.771     2.836    0.40E-04    0.29E-04    0.12E-06
   1      8    10.771     4.023    0.10E-03    0.48E-04    0.29E-06
   2      8    10.771    73.368    0.42E-03    0.97E-04    0.44E-06
   2      8    10.771    69.010    0.42E-03    0.99E-04    0.45E-06
   0      9    10.771    54.797    0.10E-03    0.56E-04    0.74E-07
   0      9    10.771    24.266    0.89E-04    0.49E-04    0.67E-07
 Optimization of the real space projectors (new method)

 maximal supplied QI-value         = 19.84
 optimisation between [QCUT,QGAM] = [ 10.71, 21.63] = [ 32.15,130.99] Ry
 Optimized for a Real-space Cutoff    1.19 Angstroem

   l    n(q)    QCUT    max X(q) W(low)/X(q) W(high)/X(q)  e(spline)
   0      8    10.715   187.594    0.41E-03    0.53E-04    0.66E-07
   0      8    10.715   164.243    0.41E-03    0.53E-04    0.65E-07
   1      7    10.715    67.533    0.19E-03    0.59E-03    0.68E-07
   1      7    10.715    50.729    0.19E-03    0.58E-03    0.67E-07
  PAW_PBE Ni_pv 06Sep2000               :
  PAW_PBE S 06Sep2000                   :

 POSCAR: Type_037 Type_137
  positions in cartesian coordinates
 exchange correlation table for  LEXCH =        8
   RHO(1)=    0.500       N(1)  =     2000
   RHO(2)=  100.500       N(2)  =     4000

 ion  position               nearest neighbor table
   1  0.780  0.145  0.123-  65 2.08  51 2.11  52 2.16  42 2.25   2 2.29  66 2.36  14 2.40  36 2.51

   2  0.732  0.096  0.249-  43 2.00  66 2.07   1 2.29  52 2.35  20 2.45  42 2.61
   3  0.214  0.622  0.099-  44 2.03  45 2.11  63 2.19  53 2.20   4 2.42  16 2.43
   4  0.297  0.645  0.216-  54 2.13  64 2.13  53 2.17  45 2.25  63 2.26   3 2.42  28 2.53  17 2.53

[...]

   8  0.972  0.629  0.304-  46 2.05  57 2.08  50 2.08  67 2.11  22 2.52   7 2.52
   9  0.064  0.156  0.058-  39 2.05  73 2.09  59 2.10  10 2.36
  10  0.125  0.145  0.185-  38 2.09  73 2.10  59 2.13   9 2.36  60 2.36  74 2.36  15 2.41  34 2.53
                            23 2.53
  11  0.134  0.145  0.337-  74 2.02  60 2.02  38 2.06
  12  0.570  0.638  0.161-  40 2.00  71 2.16  41 2.18  61 2.27  13 2.30
  13  0.642  0.645  0.278-  72 2.02  62 2.04  41 2.25  61 2.26  71 2.26  12 2.30  37 2.53  26 2.53

[...]

  38  0.034  0.121  0.269-  11 2.06  10 2.09  15 2.12  74 2.74
  39  0.957  0.169  0.115-   9 2.05  14 2.11  15 2.15  27 2.17
  40  0.469  0.648  0.097-  12 2.00  16 2.00  28 2.13  17 2.17
  41  0.509  0.645  0.276-  29 2.04  18 2.04  12 2.18  13 2.25  28 2.36  17 2.36
  42  0.647  0.145  0.122-  19 2.04  30 2.13   1 2.25  20 2.26  31 2.26   2 2.61
  43  0.637  0.146  0.314-   2 2.00  31 2.08  20 2.10  56 2.71  70 2.71
  44  0.112  0.646  0.036-   3 2.03  32 2.07  21 2.08
  45  0.164  0.645  0.214-  33 2.08  22 2.10   3 2.11   4 2.25  32 2.36  21 2.36
  46  0.072  0.629  0.374-  22 2.04   8 2.05  33 2.05
  47  0.284  0.145  0.069-   5 2.03  23 2.05  34 2.06
  48  0.336  0.145  0.245-  35 2.03  24 2.03   5 2.11   6 2.25  34 2.36  23 2.36
  49  0.819  0.645  0.153-   7 2.25  26 2.26  37 2.26  25 2.34  36 2.58  50 2.72
  50  0.850  0.645  0.313-   8 2.08  26 2.10  37 2.10  49 2.72
  51  0.825  0.303  0.047-  25 2.02  27 2.10   1 2.11
  52  0.800  0.301  0.215-  25 2.14   1 2.16  26 2.20  27 2.21   2 2.35
  53  0.286  0.807  0.126-  16 2.05  23 2.13   4 2.17   3 2.20  28 2.60
  54  0.341  0.811  0.289-  29 2.03  24 2.09   4 2.13  28 2.17
  55  0.484  0.314  0.153-  19 2.04  17 2.25   6 2.26  31 2.26   5 2.40  30 2.49  56 2.71
  56  0.509  0.318  0.314-  18 2.04   6 2.10  31 2.17  43 2.71  55 2.71
  57  0.001  0.814  0.246-  33 2.04   8 2.08  15 2.14  32 2.36   7 2.36  58 2.77
  58  0.969  0.829  0.082-  14 2.07  32 2.09   7 2.15  15 2.23  57 2.77
  59  0.137  0.314  0.103-   9 2.10  10 2.13  21 2.18  34 2.20
  60  0.174  0.314  0.276-  11 2.02  35 2.03  22 2.17  10 2.36  34 2.36
  61  0.657  0.814  0.184-  36 2.07  20 2.25  37 2.26  13 2.26  12 2.27  62 2.78
  62  0.694  0.797  0.346-  37 2.02  13 2.04  61 2.78
  63  0.312  0.477  0.122-  16 2.05   3 2.19  34 2.25   4 2.26  17 2.26
  64  0.341  0.481  0.290-  18 2.03  35 2.09   4 2.13  17 2.19
  65  0.789  0.003  0.029-  36 2.03  14 2.04   1 2.08
  66  0.829  0.977  0.215-   2 2.07  36 2.11  14 2.16  37 2.25   1 2.36
  67  0.989  0.464  0.222-   8 2.11  22 2.12   7 2.16  27 2.22  21 2.22  68 2.63
  68  0.971  0.495  0.067-   7 2.07  27 2.08  21 2.13  67 2.63
  69  0.484  0.977  0.153-  19 2.04   5 2.23  28 2.25   6 2.26  20 2.26  70 2.71
  70  0.510  0.973  0.313-  29 2.03   6 2.10  20 2.15  69 2.71  43 2.71
  71  0.657  0.477  0.184-  30 2.08  25 2.11  12 2.16  31 2.25  26 2.26  13 2.26
  72  0.697  0.505  0.350-  26 2.02  13 2.02
  73  0.126  0.982  0.101-   9 2.09  10 2.10  32 2.16  15 2.20  23 2.38
  74  0.174  0.977  0.276-  11 2.02  24 2.03  33 2.20  10 2.36  23 2.36  38 2.74

  LATTYP: Found a simple orthorhombic cell.
 ALAT       =     9.5784100000
 B/A-ratio  =     1.7387693453
 C/A-ratio  =     1.7627867312

  Lattice vectors:

 A1 = (   0.0000000000,   9.5784100000,   0.0000000000)
 A2 = (   0.0000000000,   0.0000000000, -16.6546456851)
 A3 = ( -16.8846940542,   0.0000000000,   0.0000000000)

Analysis of symmetry for initial positions (statically):
 Subroutine PRICEL returns:
 Original cell was already a primitive cell.

 Routine SETGRP: Setting up the symmetry group for a
 simple orthorhombic supercell.

 Subroutine GETGRP returns: Found  1 space group operations
 (whereof  1 operations were pure point group operations)
 out of a pool of  8 trial point group operations.

The static configuration has the point symmetry C_1 .

Analysis of symmetry for dynamics (positions and initial velocities):
 Subroutine PRICEL returns:
 Original cell was already a primitive cell.

 Routine SETGRP: Setting up the symmetry group for a
 simple orthorhombic supercell.

 Subroutine GETGRP returns: Found  1 space group operations
 (whereof  1 operations were pure point group operations)
 out of a pool of  8 trial point group operations.

The dynamic configuration has the point symmetry C_1 .

 Subroutine INISYM returns: Found  1 space group operations
 (whereof  1 operations are pure point group operations),
 and found     1 'primitive' translations

 KPOINTS: gamma-point-only calculation. no periodi

Automatic generation of k-mesh.
Space group operators:
 irot       det(A)        alpha          n_x          n_y          n_z        tau_x        tau_y        tau_z
    1     1.000000     0.000000     1.000000     0.000000     0.000000     0.000000     0.000000     0.000000

 Subroutine IBZKPT returns following result:

 Found      1 irreducible k-points:

 Following reciprocal coordinates:
            Coordinates               Weight
  0.000000  0.000000  0.000000      1.000000

 Following cartesian coordinates:
            Coordinates               Weight
  0.000000  0.000000  0.000000      1.000000

 SYSTEM =  "Millerite NiS"
 POSCAR =  Type_037 Type_137

 Startparameter for this run:
   NWRITE =      2    write-flag & timer
   PREC   = normal    normal or accurate (medium, high low for compatibility)
   ISTART =      0    job   : 0-new  1-cont  2-samecut
   ICHARG =      2    charge: 1-file 2-atom 10-const
   ISPIN  =      1    spin polarized calculation?
   LNONCOLLINEAR =      F non collinear calculations
   LSORBIT =      F    spin-orbit coupling
   INIWAV =      1    electr: 0-lowe 1-rand  2-diag
   LASPH  =      F    aspherical Exc in radial PAW
   METAGGA=      F    non-selfconsistent MetaGGA calc.

 Electronic Relaxation 1
   ENCUT  =  450.0 eV  33.07 Ry    5.75 a.u.  29.20 16.57 28.81*2*pi/ulx,y,z
   ENINI  =  450.0     initial cutoff
   ENAUG  =  703.4 eV  augmentation charge cutoff
   NELM   =    100;   NELMIN=  2; NELMDL= -5     # of ELM steps
   EDIFF  = 0.1E-03   stopping-criterion for ELM
   LREAL  =      T    real-space projection
   NLSPLINE    = F    spline interpolate recip. space projectors
   LCOMPAT=      F    compatible to vasp.4.4
   GGA_COMPAT  = T    GGA compatible to vasp.4.4-vasp.4.6
   LMAXPAW     = -100 max onsite density
   LMAXMIX     =    2 max onsite mixed and CHGCAR
   VOSKOWN=      0    Vosko Wilk Nusair interpolation
   ROPT   =   -0.00050  -0.00050
 Ionic relaxation
   EDIFFG = 0.1E-02   stopping-criterion for IOM
   NSW    =      0    number of steps for IOM
   NBLOCK =      1;   KBLOCK =      1    inner block; outer block
   IBRION =     -1    ionic relax: 0-MD 1-quasi-New 2-CG
   NFREE  =      0    steps in history (QN), initial steepest desc. (CG)
   ISIF   =      2    stress and relaxation
   IWAVPR =     10    prediction:  0-non 1-charg 2-wave 3-comb
   ISYM   =      2    0-nonsym 1-usesym 2-fastsym
   LCORR  =      T    Harris-Foulkes like correction to forces

   POTIM  = 0.5000    time-step for ionic-motion
   TEIN   =    0.0    initial temperature
   TEBEG  =    0.0;   TEEND  =   0.0 temperature during run
   SMASS  =  -3.00    Nose mass-parameter (am)
   estimated Nose-frequenzy (Omega)   =  0.10E-29 period in steps =****** mass=  -0.652E-26a.u.
   SCALEE = 1.0000    scale energy and forces
   NPACO  =    256;   APACO  = 16.0  distance and # of slots for P.C.
   PSTRESS=    0.0 pullay stress

  Mass of Ions in am
   POMASS =  58.69 32.07
  Ionic Valenz
   ZVAL   =  16.00  6.00
  Atomic Wigner-Seitz radii
  virtual crystal weights
   VCA    =   1.00  1.00
   NELECT =     814.0000    total number of electrons
   NUPDOWN=      -1.0000    fix difference up-down

 DOS related values:
   EMIN   =  10.00;   EMAX   =-10.00  energy-range for DOS
   EFERMI =   0.00
   ISMEAR =     0;   SIGMA  =   0.20  broadening in eV -4-tet -1-fermi 0-gaus

 Electronic relaxation 2 (details)
   IALGO  =     38    algorithm
   LDIAG  =      T    sub-space diagonalisation (order eigenvalues)
   LSUBROT=      F    optimize rotation matrix (better conditioning)
   TURBO    =      0    0=normal 1=particle mesh
   IRESTART =      0    0=no restart 2=restart with 2 vectors
   NREBOOT  =      0    no. of reboots
   NMIN     =      0    reboot dimension
   EREF     =   0.00    reference energy to select bands
   IMIX   =      4    mixing-type and parameters
     AMIX     =   0.40;   BMIX     =  1.00
     AMIX_MAG =   1.60;   BMIX_MAG =  1.00
     AMIN     =   0.10
     WC   =   100.;   INIMIX=   1;  MIXPRE=   1;  MAXMIX= -45

 Intra band minimization:
   WEIMIN = 0.0000     energy-eigenvalue tresh-hold
[...]
     0.000000000  9.578410000  0.000000000     0.000000000  0.104401461  0.000000000
     0.000000000  0.000000000 16.654645685     0.000000000  0.000000000  0.060043307

  length of vectors
    16.884694054  9.578410000 16.654645685     0.059225237  0.104401461  0.060043307

 FORCES acting on ions
    electron-ion (+dipol)            ewald-force                    non-local-force                 convergence-correction
   -.419E+01 -.194E+03 0.186E+04   0.250E+01 0.196E+03 -.187E+04   0.126E+01 -.962E+00 0.392E+01   -.111E-01 -.142E-01 0.235E-01
   -.651E+03 -.915E+02 -.242E+04   0.653E+03 0.927E+02 0.242E+04   -.381E+00 -.770E+00 -.391E+01   0.150E-02 -.774E-02 -.417E-02
   -.924E+01 0.130E+03 0.297E+04   0.875E+01 -.131E+03 -.298E+04   0.122E+01 0.746E+00 0.812E+01   0.367E-02 -.272E-03 -.203E-02
   0.391E+03 0.240E+01 -.110E+04   -.393E+03 -.262E+01 0.111E+04   0.724E+00 0.419E-04 -.607E+01   0.435E-03 -.177E-02 -.682E-02
   -.539E+02 0.622E+02 0.250E+04   0.537E+02 -.631E+02 -.251E+04   0.890E+00 0.902E+00 0.857E+01   -.365E-02 0.528E-03 -.721E-03
   0.157E+03 0.327E+02 -.183E+04   -.161E+03 -.327E+02 0.184E+04   0.341E+01 0.828E-01 -.786E+01   0.532E-02 -.129E-02 -.395E-02
   0.835E+03 -.110E+03 0.116E+04   -.839E+03 0.113E+03 -.116E+04   0.357E+01 -.238E+01 0.277E+01   0.352E-02 0.422E-02 0.259E-02
   0.807E+03 0.911E+02 -.327E+04   -.813E+03 -.932E+02 0.327E+04   0.415E+01 0.158E+01 -.470E+01   -.126E-01 0.122E-02 -.616E-02
   0.162E+03 -.265E+03 0.388E+04   -.163E+03 0.269E+03 -.388E+04   0.483E+00 -.322E+01 -.715E+00   0.305E-02 -.172E-02 0.123E-01
   0.361E+03 -.298E+03 0.556E+02   -.361E+03 0.301E+03 -.552E+02   0.884E+00 -.295E+01 0.158E+01   0.281E-02 -.254E-02 0.622E-02
   0.766E+03 -.856E+02 -.391E+04   -.767E+03 0.854E+02 0.391E+04   0.102E+01 0.127E+00 0.669E-01   -.789E-02 0.959E-03 -.798E-02
   -.344E+03 -.263E+03 0.183E+04   0.347E+03 0.264E+03 -.183E+04   -.238E+01 -.857E+00 0.483E+01   0.297E-02 -.155E-02 0.794E-03
   0.501E+02 -.470E+02 -.240E+04   -.531E+02 0.473E+02 0.241E+04   0.200E+01 -.832E-02 -.731E+01   0.132E-01 0.696E-02 0.748E-02
   -.705E+02 0.175E+03 0.241E+04   0.713E+02 -.176E+03 -.242E+04   -.341E+00 0.821E+00 0.389E+01   -.817E-02 -.377E-02 0.122E-01
   0.662E+03 -.161E+03 0.414E+02   -.664E+03 0.161E+03 -.387E+02   0.138E+01 -.447E+00 -.271E+01   -.275E-02 -.480E-02 0.645E-02
   -.423E+03 -.131E+03 0.401E+04   0.423E+03 0.132E+03 -.402E+04   -.238E+00 -.669E+00 0.430E+01   -.925E-02 -.134E-02 -.370E-02
   -.293E+03 0.555E+03 0.519E+03   0.293E+03 -.558E+03 -.521E+03   0.154E+00 0.251E+01 0.890E+00   -.890E-02 -.191E-02 -.567E-03
   -.200E+03 0.219E+03 -.381E+04   0.198E+03 -.220E+03 0.381E+04   0.234E+01 0.117E+01 0.137E+01   0.174E-04 0.444E-02 -.644E-03
   0.147E+02 0.399E+03 0.361E+04   -.160E+02 -.400E+03 -.361E+04   0.107E+01 0.333E+00 0.623E+01   0.922E-02 0.498E-02 0.168E-02
   -.242E+03 0.693E+03 -.718E+03   0.244E+03 -.699E+03 0.718E+03   -.315E+01 0.541E+01 -.188E+01   0.234E-01 0.792E-02 0.176E-02
   0.111E+03 0.620E+03 0.190E+04   -.111E+03 -.626E+03 -.190E+04   -.427E+00 0.485E+01 0.270E+01   -.662E-03 0.713E-02 -.873E-03
   0.332E+02 0.620E+03 -.263E+04   -.291E+02 -.625E+03 0.263E+04   -.343E+01 0.336E+01 -.462E+01   -.260E-02 -.420E-02 -.850E-02
   -.120E+03 0.493E+03 0.134E+04   0.118E+03 -.495E+03 -.134E+04   0.702E+00 0.901E+00 0.349E+01   -.332E-02 0.138E-02 -.418E-02
   -.142E+03 0.278E+03 -.340E+04   0.141E+03 -.281E+03 0.340E+04   0.760E+00 0.235E+01 0.131E+01   -.958E-04 -.179E-02 -.913E-02
   0.824E+02 -.504E+03 0.246E+04   -.832E+02 0.505E+03 -.247E+04   0.232E+00 -.361E+00 0.736E+01   -.446E-02 -.607E-02 0.777E-02
   -.477E+03 0.440E+03 -.198E+04   0.480E+03 -.442E+03 0.199E+04   -.265E+01 0.226E+01 -.602E+01   0.406E-02 0.654E-02 0.717E-02
   -.170E+03 0.177E+03 0.994E+03   0.172E+03 -.178E+03 -.994E+03   -.160E+01 0.469E+00 0.139E+01   0.260E-02 -.138E-03 0.720E-02
   -.380E+03 -.628E+03 0.569E+03   0.380E+03 0.631E+03 -.570E+03   0.296E+00 -.290E+01 0.354E+00   -.852E-02 0.742E-03 0.184E-02
   -.219E+03 -.232E+03 -.378E+04   0.217E+03 0.233E+03 0.378E+04   0.268E+01 -.131E+01 0.123E+01   0.189E-02 -.256E-02 0.104E-02
   0.189E+02 -.523E+03 0.350E+04   -.171E+02 0.520E+03 -.350E+04   -.219E+01 0.257E+01 -.538E+00   -.180E-02 -.105E-01 -.846E-03
   -.399E+03 -.425E+03 -.123E+04   0.402E+03 0.430E+03 0.123E+04   -.354E+01 -.388E+01 -.333E+01   0.129E-01 -.102E-01 -.669E-02
   -.101E+03 -.234E+03 0.193E+04   0.103E+03 0.234E+03 -.193E+04   -.161E+01 -.229E+00 0.395E+01   -.332E-02 -.430E-02 -.824E-03
   -.748E+02 -.396E+03 -.302E+04   0.766E+02 0.400E+03 0.302E+04   -.389E+00 -.323E+01 -.502E+01   -.407E-02 0.205E-02 -.950E-02
   -.132E+03 -.509E+03 0.131E+04   0.130E+03 0.511E+03 -.132E+04   0.160E+01 -.157E+01 0.413E+01   -.134E-02 -.163E-02 -.278E-02
   -.110E+03 -.298E+03 -.340E+04   0.110E+03 0.301E+03 0.339E+04   0.100E+01 -.235E+01 0.823E+00   -.166E-02 0.251E-02 -.813E-02
   0.401E+03 0.625E+03 0.229E+04   -.403E+03 -.628E+03 -.230E+04   0.221E+01 0.133E+01 0.618E+01   0.331E-02 0.120E-01 0.193E-01
   -.496E+03 -.350E+03 -.187E+04   0.500E+03 0.352E+03 0.187E+04   -.250E+01 -.251E+01 -.494E+01   0.212E-02 0.117E-01 0.236E-02
   0.598E+03 -.131E+03 -.104E+04   -.603E+03 0.133E+03 0.104E+04   0.316E+01 -.133E+01 -.791E+00   0.715E-03 -.394E-03 -.223E-02
   0.142E+03 -.200E+03 0.614E+03   -.141E+03 0.201E+03 -.615E+03   -.870E+00 -.413E+00 -.179E+00   -.318E-02 -.239E-02 0.455E-02
   -.307E+03 -.505E+02 0.142E+04   0.309E+03 0.502E+02 -.142E+04   -.611E+00 0.149E+00 0.199E+01   -.659E-02 -.765E-03 -.232E-02
   -.251E+03 -.225E+02 -.809E+03   0.251E+03 0.224E+02 0.814E+03   0.124E+01 0.910E-01 -.412E+01   -.197E-02 0.926E-03 0.375E-02
   -.155E+03 0.214E+03 0.983E+03   0.156E+03 -.216E+03 -.987E+03   0.114E+00 0.154E+01 0.292E+01   0.280E-02 0.514E-03 0.440E-02
   -.167E+03 -.544E+02 -.159E+04   0.169E+03 0.554E+02 0.159E+04   -.178E+01 -.507E+00 -.220E+01   0.929E-02 -.379E-02 -.655E-02
   0.631E+02 -.156E+02 0.177E+04   -.633E+02 0.159E+02 -.178E+04   0.282E+00 -.241E+00 0.176E+01   0.270E-03 0.273E-05 0.399E-02
   -.134E+03 -.394E+01 -.343E+03   0.134E+03 0.416E+01 0.346E+03   0.683E+00 -.637E+00 -.247E+01   0.146E-02 -.137E-02 -.670E-02
   0.222E+02 0.434E+02 -.178E+04   -.217E+02 -.435E+02 0.179E+04   0.255E+00 -.569E-01 -.110E+01   -.312E-02 -.170E-02 0.124E-02
   -.307E+02 -.979E+01 0.166E+04   0.300E+02 0.974E+01 -.167E+04   0.992E+00 0.122E+00 0.176E+01   -.165E-02 -.499E-03 0.348E-02
   -.162E+03 -.114E+02 -.527E+03   0.163E+03 0.119E+02 0.532E+03   0.459E+00 -.361E+00 -.415E+01   -.651E-04 0.326E-03 -.598E-02
   0.139E+02 -.774E+02 0.660E+03   -.128E+02 0.785E+02 -.664E+03   -.141E+01 -.105E+01 0.327E+01   0.154E-02 0.499E-02 0.510E-02
   -.771E+02 -.158E+02 -.134E+04   0.784E+02 0.157E+02 0.134E+04   -.455E+00 -.178E-01 -.349E+01   -.213E-02 0.256E-02 -.291E-02
   -.450E+02 -.453E+02 0.161E+04   0.458E+02 0.455E+02 -.162E+04   -.918E+00 0.271E+00 0.327E+01   -.245E-03 -.411E-02 0.116E-02
   -.217E+03 0.109E+03 -.701E+03   0.219E+03 -.110E+03 0.706E+03   -.191E+01 0.611E+00 -.275E+01   -.371E-02 -.809E-02 0.385E-02
   0.492E+01 -.300E+03 0.871E+03   -.702E+01 0.302E+03 -.874E+03   0.195E+01 -.124E+01 0.128E+01   -.858E-03 -.128E-02 -.119E-02
   0.179E+03 -.186E+02 -.102E+04   -.180E+03 0.194E+02 0.102E+04   0.325E+00 -.509E+00 -.467E+00   0.209E-02 -.367E-02 -.278E-02
   0.132E+03 -.257E+03 0.636E+03   -.134E+03 0.261E+03 -.637E+03   0.141E+01 -.196E+01 0.177E+00   0.218E-02 -.125E-02 -.163E-02
   -.148E+03 0.256E+02 -.133E+04   0.148E+03 -.251E+02 0.133E+04   0.471E+00 -.498E+00 -.298E+01   0.109E-02 -.331E-03 -.127E-02
   0.377E+03 -.283E+03 -.759E+03   -.381E+03 0.285E+03 0.761E+03   0.267E+01 -.171E+01 -.270E+01   -.485E-02 0.533E-03 -.465E-02
   0.212E+03 0.835E+02 0.134E+04   -.213E+03 -.843E+02 -.135E+04   0.148E+00 0.344E+00 0.512E+01   0.709E-03 -.148E-02 0.449E-02
   -.275E+02 -.155E+03 0.108E+04   0.277E+02 0.157E+03 -.108E+04   -.177E+00 -.509E+00 0.213E+01   0.293E-02 0.299E-02 0.376E-02
   0.171E+03 -.219E+03 -.831E+03   -.172E+03 0.222E+03 0.832E+03   0.184E+00 -.742E+00 -.748E+00   -.250E-02 -.209E-02 -.384E-02
   0.112E+03 -.716E+01 0.366E+03   -.114E+03 0.928E+01 -.369E+03   0.449E+00 -.194E+01 0.211E+01   0.721E-02 0.627E-02 0.393E-02
   -.613E+02 -.249E+03 -.159E+04   0.606E+02 0.252E+03 0.159E+04   -.256E-02 -.207E+01 -.105E+01   0.385E-02 0.267E-02 -.408E-02
   -.471E+02 0.341E+03 0.942E+03   0.470E+02 -.345E+03 -.946E+03   -.556E+00 0.190E+01 0.273E+01   -.145E-02 0.218E-02 -.775E-03
   0.194E+03 0.168E+02 -.104E+04   -.196E+03 -.173E+02 0.104E+04   0.449E+00 0.270E+00 -.946E+00   0.965E-03 0.320E-02 -.354E-02
   0.177E+03 0.102E+03 0.175E+04   -.178E+03 -.102E+03 -.175E+04   0.862E-01 -.145E-01 0.134E+01   -.523E-03 0.553E-03 0.576E-02
   -.344E+03 -.486E+02 -.685E+03   0.348E+03 0.496E+02 0.691E+03   -.339E+01 -.140E+01 -.393E+01   -.847E-02 0.205E-02 0.215E-02
   0.250E+03 0.442E+03 -.503E+03   -.251E+03 -.446E+03 0.506E+03   0.592E+00 0.222E+01 -.225E+01   -.682E-03 0.203E-02 -.184E-02
   0.141E+03 0.623E+02 0.150E+04   -.142E+03 -.630E+02 -.151E+04   0.145E+01 0.364E+00 0.376E+01   0.290E-02 0.330E-02 0.330E-02
   -.486E+02 0.339E+03 0.700E+03   0.479E+02 -.343E+03 -.703E+03   -.789E+00 0.238E+01 0.272E+01   0.144E-02 0.212E-02 0.356E-03
   -.150E+03 -.122E+02 -.130E+04   0.150E+03 0.117E+02 0.130E+04   0.977E+00 0.615E+00 -.243E+01   0.217E-02 -.669E-03 -.108E-02
   -.286E+02 -.872E+02 0.132E+03   0.269E+02 0.853E+02 -.132E+03   0.347E+00 0.167E+01 -.197E+00   0.550E-03 -.459E-02 0.708E-03
   -.817E+02 0.263E+03 -.161E+04   0.809E+02 -.267E+03 0.162E+04   0.482E+00 0.242E+01 -.565E+00   0.231E-02 0.993E-03 -.183E-02
   -.199E+03 0.154E+03 0.119E+04   0.202E+03 -.155E+03 -.119E+04   -.113E+01 0.449E+00 0.397E+01   0.224E-02 -.324E-02 0.450E-02
   0.132E+03 0.208E+03 -.837E+03   -.132E+03 -.211E+03 0.837E+03   0.521E+00 0.116E+01 -.614E+00   -.270E-02 0.378E-02 -.541E-02
   -.149E+02 -.618E+00 -.201E+02   -.171E-12 -.369E-12 -.512E-11   0.149E+02 0.538E+00 0.200E+02   0.392E-02 -.864E-02 0.334E-01

 POSITION                                       TOTAL-FORCE (eV/Angst)
     13.17084      1.39171      2.05636        -0.443719      0.661189     -0.417723
     12.35955      0.91597      4.14932         0.844088      0.354293      0.392508
      3.61279      5.96043      1.64756         0.735620      0.099141     -0.398784
      5.02033      6.18092      3.59863        -0.753454     -0.226061      0.508237
      6.55545      1.27069      2.16385         0.656059      0.043264     -0.139356
      7.93172      1.39171      4.11272        -0.696762      0.036142     -0.867416
     16.08224      6.18092      2.57045        -0.481067      1.292975      0.732823
     16.41791      6.02479      5.06635        -1.384951     -0.557037      0.155200
      1.08048      1.49169      0.95931        -0.212197      0.338164     -1.336897
      2.10894      1.39171      3.08454         1.651549      0.492385      1.991948
      2.26789      1.39007      5.61906         0.152236     -0.047761      1.488971
      9.61857      6.10988      2.67553         0.861256      0.164239     -0.113219
     10.84312      6.18092      4.62682        -0.944700      0.309674     -1.027499
     14.99335      9.46186      1.66232         0.480349      0.054309      0.137614
      0.23450      9.48362      2.79192        -0.576620     -0.259785     -0.014378
      5.97180      6.29863      1.18534        -0.094940      0.627946     -1.274114
      7.17375      4.91558      3.19116         0.059172     -0.362603     -0.427684
      7.59011      4.75883      5.67250         0.450330      0.013508      0.943324
      8.93753      1.38811      1.55645        -0.186288     -0.138769     -1.723821
     10.08514      0.12638      3.70525        -0.433574     -1.051513     -0.972270
      1.35096      4.91558      2.16298         0.100064     -0.500645      0.623902
      1.67734      4.76611      4.67558         0.636332     -1.511876     -0.017794
      4.26235      0.12638      2.67707        -0.751575     -0.555431      0.854218
      4.83595      9.56894      5.29393         0.136839     -0.046494      0.644612
     12.84407      4.12940      1.97662        -0.572583      1.358606     -0.416479
     12.99653      4.91558      4.21934         0.662266      0.106926     -1.350588
     15.21529      3.53030      2.32821         0.381675     -0.569981      0.966326
      7.17375      7.44626      3.19116        -0.082768      0.539726     -0.662713
      7.59784      7.61022      5.66869         0.461298     -0.117649      0.854112
     10.39685      3.38405      1.49625        -0.373432      0.376688     -0.961875
     10.08514      2.65705      3.70525        -0.477578      0.524618      0.465408
      1.35096      7.44626      2.16298         0.875408     -0.333696      1.350081
      1.86340      7.46949      4.92295         1.392285      1.497024      0.317366
      4.26235      2.65705      2.67707         0.034319      0.646157      0.914414
      4.83178      2.79018      5.29396         0.242272      0.093858      0.698283
     12.77397      8.48725      2.09194         0.156384     -1.607885     -0.260241
     12.99653      7.44626      4.21934         1.362862     -0.069962     -1.813808
      0.57057      1.15617      4.47464        -2.765410      1.186516      1.940823
     16.16194      1.62232      1.92182        -0.028949      0.556976     -0.907980
      7.92362      6.20734      1.62337         1.275078     -0.140437     -3.115603
      8.59001      6.18092      4.59828         1.131083     -0.010193      0.662947
     10.91773      1.39171      2.02783         1.480101      0.026288     -1.120335
     10.75070      1.40205      5.23093         0.859747      0.502459      3.403017
      1.88412      6.18677      0.60682         0.073786      0.096948     -3.567577
      2.76722      6.18092      3.57010         0.905354     -0.417793      0.321884
      1.21977      6.02109      6.22373         0.734855     -0.122106      4.394654
      4.80104      1.38735      1.15050         0.380118      0.068541     -3.849178
      5.67861      1.39171      4.08419         1.430566      0.084532      0.445636
     13.82913      6.18092      2.54192        -0.338883      0.068345     -0.934396
     14.34798      6.17584      5.21352         0.830976     -0.115506      2.660395
     13.93148      2.90014      0.79100        -0.027565      0.523545     -3.686815
     13.51585      2.87881      3.58252         0.672607     -0.645516      2.721839
      4.83205      7.73245      2.09707        -0.149562      1.164525     -1.133809
      5.76458      7.76633      4.80650        -0.798332      0.376080      1.629517
      8.17565      3.00295      2.54670        -0.938319      1.474601     -1.053958
      8.58995      3.04249      5.22814         0.373806     -0.056692      2.349991
      0.02514      7.79215      4.08897        -1.523856      1.106307     -0.134044
     16.36532      7.94384      1.37325        -0.973420     -0.450310     -2.588517
      2.31056      3.00829      1.71951        -0.050038      0.959066     -1.874185
      2.93654      3.00295      4.60306        -0.618279      2.036014      0.045618
     11.08705      7.79215      3.06079        -1.850903      0.189777     -0.790403
     11.71257      7.63263      5.76452        -0.735427      1.360390      3.782352
      5.26426      4.56969      2.03261        -0.671101     -1.871812     -0.894636
      5.75018      4.60360      4.82619        -0.903266     -0.166967      1.723752
     13.32623      0.02658      0.48811        -0.736607     -0.725639     -3.401421
     13.99844      9.35889      3.57488         0.892008     -0.359995      1.770143
     16.70259      4.44494      3.70307        -0.368280     -1.779943      0.775856
     16.39487      4.74035      1.11059        -0.095759     -0.420612     -3.197667
      8.17565      9.35889      2.54670        -1.467731     -1.662844     -0.480109
      8.60438      9.31995      5.21874         0.388108      0.124741      2.581785
     11.08705      4.56969      3.06079        -1.320394     -0.274223     -0.292272
     11.77387      4.83951      5.82394        -0.356887     -1.239527      3.902130
      2.12442      9.40702      1.67606         1.289469     -0.905608     -2.040190
      2.93654      9.35889      4.60306         0.134854     -2.213610      0.108070
    total drift:                               -0.000958     -0.088496     -0.043431

  FREE ENERGIE OF THE ION-ELECTRON SYSTEM (eV)
  free  energy   TOTEN  =      -350.92128303 eV

  energy  without entropy=     -349.73206159  energy(sigma->0) =     -350.32667231