 vasp.5.4.4.18Apr17-6-g9f103f2a35 (build Aug 13 2019 17:33:20) gamma-only

 executed on             LinuxIFC date 2020.05.12  00:36:28

 INCAR:
 POTCAR:    PAW_PBE Ni_pv 06Sep2000
 POTCAR:    PAW_PBE S 06Sep2000
 POTCAR:    PAW_PBE Ni_pv 06Sep2000
   VRHFIN =Ni:

   TITEL  = PAW_PBE Ni_pv 06Sep2000
   POMASS =   58.690; ZVAL   =   16.000    mass and valenz
   ENMAX  =  367.986; ENMIN  =  275.989 eV

 POTCAR:    PAW_PBE S 06Sep2000
   VRHFIN =S : s2p4

   TITEL  = PAW_PBE S 06Sep2000
   POMASS =   32.066; ZVAL   =    6.000    mass and valenz
   ENMAX  =  258.689; ENMIN  =  194.016 eV

 Optimization of the real space projectors (new method)

 maximal supplied QI-value         = 18.90
 optimisation between [QCUT,QGAM] = [ 10.77, 21.73] = [ 32.49,132.25] Ry
 Optimized for a Real-space Cutoff    1.38 Angstroem

   l    n(q)    QCUT    max X(q) W(low)/X(q) W(high)/X(q)  e(spline)
   1      8    10.771     2.836    0.40E-04    0.29E-04    0.12E-06
   1      8    10.771     4.023    0.10E-03    0.48E-04    0.29E-06
   2      8    10.771    73.368    0.42E-03    0.97E-04    0.44E-06
   2      8    10.771    69.010    0.42E-03    0.99E-04    0.45E-06
   0      9    10.771    54.797    0.10E-03    0.56E-04    0.74E-07
   0      9    10.771    24.266    0.89E-04    0.49E-04    0.67E-07
 Optimization of the real space projectors (new method)

 maximal supplied QI-value         = 19.84
 optimisation between [QCUT,QGAM] = [ 10.71, 21.63] = [ 32.15,130.99] Ry
 Optimized for a Real-space Cutoff    1.19 Angstroem

   l    n(q)    QCUT    max X(q) W(low)/X(q) W(high)/X(q)  e(spline)
   0      8    10.715   187.594    0.41E-03    0.53E-04    0.66E-07
   0      8    10.715   164.243    0.41E-03    0.53E-04    0.65E-07
   1      7    10.715    67.533    0.19E-03    0.59E-03    0.68E-07
   1      7    10.715    50.729    0.19E-03    0.58E-03    0.67E-07
  PAW_PBE Ni_pv 06Sep2000               :
  PAW_PBE S 06Sep2000                   :

 POSCAR: Type_037 Type_137
  positions in cartesian coordinates
 exchange correlation table for  LEXCH =        8
   RHO(1)=    0.500       N(1)  =     2000
   RHO(2)=  100.500       N(2)  =     4000

 ion  position               nearest neighbor table
   1  0.780  0.145  0.123-  65 2.08  51 2.08  42 2.25  52 2.36  66 2.36
   2  0.802  0.145  0.285-  52 2.04  66 2.05  43 2.08
   3  0.297  0.645  0.216-  54 2.11  64 2.11  63 2.13  45 2.25  15 2.46  16 2.53  29 2.53
   4  0.383  0.078  0.122-  69 2.03  47 2.05  48 2.11  53 2.28  22 2.38
   5  0.470  0.145  0.247-  56 2.09  70 2.09  55 2.26  69 2.26  48 2.31  32 2.53  19 2.53
   6  0.952  0.645  0.154-  58 2.07  68 2.07  49 2.25  57 2.36  67 2.36  33 2.53  20 2.53
   7  0.976  0.645  0.318-  46 2.05  67 2.06  57 2.06  50 2.10
   8  0.171  0.147  0.048-  47 2.00  73 2.05  59 2.05   9 2.42
   9  0.125  0.145  0.185-  60 2.12  59 2.14  73 2.16  39 2.25  10 2.36  74 2.36   8 2.42  35 2.53
                            22 2.53
  10  0.068  0.096  0.312-  38 2.05  60 2.07  74 2.19   9 2.36  14 2.44  39 2.54
  11  0.571  0.648  0.161-  40 2.01  61 2.18  41 2.18  71 2.22  12 2.29
  12  0.642  0.645  0.278-  72 2.03  62 2.03  41 2.25  61 2.26  71 2.26  11 2.29  37 2.53  25 2.53

  13  0.910  0.005  0.119-  65 2.06  58 2.10  66 2.11  39 2.21
  14  0.940  0.007  0.268-  38 2.05  66 2.09  39 2.12  57 2.16  10 2.44
  15  0.353  0.650  0.080-  40 2.05  63 2.07  53 2.10   3 2.46  28 2.51  29 2.54
  16  0.425  0.513  0.192-  64 2.10  63 2.16  55 2.25  40 2.26  41 2.36  17 2.45   3 2.53  29 2.53

  17  0.464  0.471  0.331-  56 2.01  64 2.02  41 2.06  16 2.45
  18  0.529  0.147  0.093-  55 2.03  42 2.05  69 2.05  31 2.49
  19  0.597  0.013  0.222-  70 2.07  43 2.11  61 2.25  69 2.26  42 2.26  32 2.53   5 2.53
  20  0.080  0.513  0.130-  44 2.00  68 2.09  59 2.11  67 2.36  45 2.36   6 2.53  33 2.53
  21  0.113  0.502  0.291-  67 2.04  46 2.05  45 2.07  60 2.13
  22  0.252  0.013  0.161-  73 2.14  53 2.16  48 2.23  47 2.27  74 2.36   4 2.38  23 2.39   9 2.53
                            35 2.53
  23  0.297  0.978  0.296-  54 2.03  48 2.06  74 2.10  22 2.39
  24  0.766  0.420  0.121-  51 2.03  52 2.15  71 2.20  25 2.38  49 2.40
  25  0.770  0.513  0.253-  72 2.02  50 2.11  52 2.25  71 2.26  49 2.26  24 2.38  12 2.53  37 2.53

  26  0.910  0.287  0.120-  51 2.06  68 2.10  52 2.10  39 2.20
  27  0.945  0.277  0.271-  38 2.05  39 2.08  67 2.18  52 2.20
  28  0.444  0.853  0.057-  53 2.10  69 2.11  40 2.14  29 2.39  15 2.51
  29  0.425  0.777  0.192-  54 2.17  53 2.20  69 2.25  40 2.26  41 2.36  28 2.39  30 2.43   3 2.53
                            16 2.53  15 2.54
  30  0.464  0.826  0.329-  70 2.01  54 2.05  41 2.08  29 2.43
  31  0.620  0.351  0.090-  71 2.07  42 2.09  32 2.36  18 2.49  55 2.56
  32  0.597  0.277  0.222-  56 2.08  43 2.13  71 2.25  55 2.26  42 2.26  31 2.36  19 2.53   5 2.53

[...]

  38  0.961  0.139  0.363-  10 2.05  27 2.05  14 2.05
  39  0.991  0.145  0.183-  27 2.08  14 2.12  26 2.20  13 2.21   9 2.25  10 2.54
  40  0.474  0.645  0.091-  11 2.01  15 2.05  28 2.14  16 2.26  29 2.26
  41  0.509  0.645  0.276-  17 2.06  30 2.08  11 2.18  12 2.25  29 2.36  16 2.36
  42  0.647  0.145  0.122-  18 2.05  31 2.09   1 2.25  19 2.26  32 2.26  43 2.73
  43  0.679  0.144  0.282-   2 2.08  19 2.11  32 2.13  42 2.73
  44  0.103  0.645  0.040-  33 2.00  20 2.00
  45  0.164  0.645  0.214-  34 2.07  21 2.07   3 2.25  33 2.36  20 2.36
  46  0.081  0.641  0.379-  21 2.05   7 2.05  34 2.05
  47  0.288  0.161  0.061-   8 2.00   4 2.05  35 2.09  22 2.27
  48  0.334  0.150  0.231-  23 2.06   4 2.11  35 2.17  22 2.23   5 2.31
  49  0.819  0.645  0.153-  36 2.18   6 2.25  25 2.26  37 2.26  24 2.40  50 2.72
  50  0.851  0.645  0.313-   7 2.10  37 2.11  25 2.11  49 2.72
  51  0.818  0.291  0.039-  24 2.03  26 2.06   1 2.08
  52  0.829  0.314  0.215-   2 2.04  26 2.10  24 2.15  27 2.20  25 2.25   1 2.36
  53  0.332  0.859  0.112-  15 2.10  28 2.10  22 2.16  29 2.20   4 2.28
  54  0.349  0.788  0.297-  23 2.03  30 2.05   3 2.11  29 2.17  64 2.79
  55  0.484  0.314  0.153-  18 2.03  16 2.25   5 2.26  32 2.26  31 2.56
  56  0.524  0.291  0.322-  17 2.01  32 2.08   5 2.09  70 2.75
  57  0.001  0.814  0.246-   7 2.06  34 2.06  14 2.16  33 2.36   6 2.36  58 2.76
  58  0.967  0.821  0.083-   6 2.07  13 2.10  33 2.10  57 2.76
  59  0.142  0.325  0.110-   8 2.05  35 2.10  20 2.11   9 2.14
  60  0.126  0.281  0.286-  10 2.07   9 2.12  21 2.13
  61  0.657  0.814  0.184-  11 2.18  19 2.25  37 2.26  12 2.26  36 2.34
  62  0.695  0.793  0.347-  37 2.02  12 2.03  72 2.77
  63  0.312  0.473  0.137-  15 2.07   3 2.13  16 2.16  35 2.16  64 2.69
  64  0.351  0.497  0.292-  17 2.02  16 2.10   3 2.11  63 2.69  54 2.79
  65  0.816  0.996  0.040-  36 2.02  13 2.06   1 2.08
  66  0.829  0.977  0.215-   2 2.05  14 2.09  13 2.11  36 2.14  37 2.25   1 2.36
  67  0.001  0.477  0.246-  21 2.04   7 2.06  27 2.18  20 2.36   6 2.36  68 2.76
  68  0.968  0.469  0.084-   6 2.07  20 2.09  26 2.10  67 2.76
  69  0.484  0.977  0.153-   4 2.03  18 2.05  28 2.11  29 2.25   5 2.26  19 2.26
  70  0.526  0.004  0.324-  30 2.01  19 2.07   5 2.09  56 2.75
  71  0.657  0.477  0.184-  31 2.07  24 2.20  11 2.22  32 2.25  25 2.26  12 2.26
  72  0.697  0.504  0.349-  25 2.02  12 2.03  62 2.77
  73  0.141  0.968  0.107-   8 2.05  33 2.13  22 2.14   9 2.16
  74  0.174  0.977  0.276-  23 2.10  34 2.13  10 2.19   9 2.36  22 2.36

  LATTYP: Found a simple orthorhombic cell.
 ALAT       =     9.5784100000
 B/A-ratio  =     1.7387693453
 C/A-ratio  =     1.7627867312

  Lattice vectors:

 A1 = (   0.0000000000,   9.5784100000,   0.0000000000)
 A2 = (   0.0000000000,   0.0000000000, -16.6546456851)
 A3 = ( -16.8846940542,   0.0000000000,   0.0000000000)

Analysis of symmetry for initial positions (statically):
 Subroutine PRICEL returns:
 Original cell was already a primitive cell.

 Routine SETGRP: Setting up the symmetry group for a
 simple orthorhombic supercell.

 Subroutine GETGRP returns: Found  1 space group operations
 (whereof  1 operations were pure point group operations)
 out of a pool of  8 trial point group operations.

The static configuration has the point symmetry C_1 .

Analysis of symmetry for dynamics (positions and initial velocities):
 Subroutine PRICEL returns:
 Original cell was already a primitive cell.

 Routine SETGRP: Setting up the symmetry group for a
 simple orthorhombic supercell.

 Subroutine GETGRP returns: Found  1 space group operations
 (whereof  1 operations were pure point group operations)
 out of a pool of  8 trial point group operations.

The dynamic configuration has the point symmetry C_1 .

 Subroutine INISYM returns: Found  1 space group operations
 (whereof  1 operations are pure point group operations),
 and found     1 'primitive' translations

 KPOINTS: gamma-point-only calculation. no periodi

Automatic generation of k-mesh.
Space group operators:
 irot       det(A)        alpha          n_x          n_y          n_z        tau_x        tau_y        tau_z
    1     1.000000     0.000000     1.000000     0.000000     0.000000     0.000000     0.000000     0.000000

 Subroutine IBZKPT returns following result:

 Found      1 irreducible k-points:

 Following reciprocal coordinates:
            Coordinates               Weight
  0.000000  0.000000  0.000000      1.000000

 Following cartesian coordinates:
            Coordinates               Weight
  0.000000  0.000000  0.000000      1.000000

 SYSTEM =  "Millerite NiS"
 POSCAR =  Type_037 Type_137

 Startparameter for this run:
   NWRITE =      2    write-flag & timer
   PREC   = normal    normal or accurate (medium, high low for compatibility)
   ISTART =      0    job   : 0-new  1-cont  2-samecut
   ICHARG =      2    charge: 1-file 2-atom 10-const
   ISPIN  =      1    spin polarized calculation?
   LNONCOLLINEAR =      F non collinear calculations
   LSORBIT =      F    spin-orbit coupling
   INIWAV =      1    electr: 0-lowe 1-rand  2-diag
   LASPH  =      F    aspherical Exc in radial PAW
   METAGGA=      F    non-selfconsistent MetaGGA calc.

 Electronic Relaxation 1
   ENCUT  =  450.0 eV  33.07 Ry    5.75 a.u.  29.20 16.57 28.81*2*pi/ulx,y,z
   ENINI  =  450.0     initial cutoff
   ENAUG  =  703.4 eV  augmentation charge cutoff
   NELM   =    100;   NELMIN=  2; NELMDL= -5     # of ELM steps
   EDIFF  = 0.1E-03   stopping-criterion for ELM
   LREAL  =      T    real-space projection
   NLSPLINE    = F    spline interpolate recip. space projectors
   LCOMPAT=      F    compatible to vasp.4.4
   GGA_COMPAT  = T    GGA compatible to vasp.4.4-vasp.4.6
   LMAXPAW     = -100 max onsite density
   LMAXMIX     =    2 max onsite mixed and CHGCAR
   VOSKOWN=      0    Vosko Wilk Nusair interpolation
   ROPT   =   -0.00050  -0.00050
 Ionic relaxation
   EDIFFG = 0.1E-02   stopping-criterion for IOM
   NSW    =      0    number of steps for IOM
   NBLOCK =      1;   KBLOCK =      1    inner block; outer block
   IBRION =     -1    ionic relax: 0-MD 1-quasi-New 2-CG
   NFREE  =      0    steps in history (QN), initial steepest desc. (CG)
   ISIF   =      2    stress and relaxation
   IWAVPR =     10    prediction:  0-non 1-charg 2-wave 3-comb
   ISYM   =      2    0-nonsym 1-usesym 2-fastsym
[...]
     0.000000000  9.578410000  0.000000000     0.000000000  0.104401461  0.000000000
     0.000000000  0.000000000 16.654645685     0.000000000  0.000000000  0.060043307

  length of vectors
    16.884694054  9.578410000 16.654645685     0.059225237  0.104401461  0.060043307

 FORCES acting on ions
    electron-ion (+dipol)            ewald-force                    non-local-force                 convergence-correction
   0.553E+03 0.175E+03 0.207E+04   -.556E+03 -.175E+03 -.207E+04   0.313E+01 0.361E+00 0.564E+01   0.808E-02 -.185E-01 -.882E-03
   0.470E+03 -.375E+01 -.301E+04   -.475E+03 0.420E+01 0.301E+04   0.435E+01 -.422E+00 0.159E+01   0.721E-02 -.561E-02 -.294E-02
   0.928E+03 0.255E+03 -.859E+03   -.933E+03 -.254E+03 0.861E+03   0.404E+01 -.764E+00 -.125E+01   -.165E-01 -.252E-02 0.275E-01
   0.435E+01 -.509E+03 0.225E+04   -.371E+01 0.511E+03 -.225E+04   0.154E+00 -.205E+01 0.337E+01   -.101E-01 0.648E-02 0.715E-02
   0.546E+03 -.260E+03 -.193E+04   -.550E+03 0.261E+03 0.194E+04   0.247E+01 -.840E+00 -.690E+01   -.288E-02 0.230E-02 -.229E-02
   0.498E+03 0.409E+02 0.140E+04   -.504E+03 -.408E+02 -.140E+04   0.547E+01 -.118E+00 0.430E+01   0.169E-01 0.243E-02 0.639E-02
   0.486E+03 0.583E+02 -.326E+04   -.491E+03 -.587E+02 0.326E+04   0.344E+01 0.342E+00 -.413E+01   0.161E-01 -.138E-02 -.119E-01
   0.385E+03 -.964E+02 0.409E+04   -.388E+03 0.956E+02 -.410E+04   0.216E+01 0.731E+00 0.435E+01   -.508E-03 -.138E-02 0.218E-01
   0.241E+03 -.184E+03 0.257E+03   -.243E+03 0.184E+03 -.257E+03   0.116E+01 -.658E+00 0.551E+00   -.917E-02 -.121E-02 0.376E-01
   -.475E+03 0.951E+00 -.332E+04   0.475E+03 -.213E+00 0.333E+04   0.415E-01 -.134E+01 -.488E+01   0.569E-02 0.388E-02 -.186E-01
   -.382E+03 -.549E+02 0.169E+04   0.385E+03 0.563E+02 -.170E+04   -.228E+01 -.162E+01 0.310E+01   -.272E-02 -.443E-02 0.664E-02
   0.191E+03 -.301E+02 -.240E+04   -.194E+03 0.304E+02 0.240E+04   0.214E+01 -.136E+00 -.692E+01   0.468E-03 -.187E-02 -.139E-02
   -.504E+03 0.246E+03 0.256E+04   0.510E+03 -.248E+03 -.256E+04   -.486E+01 0.265E+01 0.573E+01   0.135E-01 -.607E-02 0.118E-01
   0.146E+03 0.563E+03 -.215E+04   -.145E+03 -.567E+03 0.215E+04   -.140E+01 0.330E+01 -.462E+01   0.242E-01 0.103E-02 -.730E-02
   0.686E+03 0.545E+03 0.364E+04   -.690E+03 -.547E+03 -.365E+04   0.338E+01 0.246E+01 0.156E+01   -.418E-02 -.381E-03 0.305E-02
   0.351E+02 0.787E+03 0.318E+03   -.349E+02 -.791E+03 -.319E+03   0.596E+00 0.367E+01 0.161E+00   0.121E-01 -.168E-01 0.181E-01
   0.167E+03 0.297E+03 -.368E+04   -.166E+03 -.300E+03 0.368E+04   -.252E+00 0.395E+01 0.185E+01   0.124E-02 -.229E-02 -.602E-02
   -.313E+02 0.216E+02 0.342E+04   0.308E+02 -.210E+02 -.343E+04   0.181E+00 -.824E+00 0.556E+01   -.838E-02 0.795E-02 0.972E-02
   -.510E+03 0.509E+03 -.799E+03   0.514E+03 -.515E+03 0.802E+03   -.339E+01 0.529E+01 -.416E+01   -.918E-02 0.781E-03 0.744E-02
   -.430E+03 0.385E+03 0.204E+04   0.432E+03 -.387E+03 -.204E+04   -.135E+01 0.157E+01 0.518E+01   0.151E-02 0.217E-02 0.984E-02
   -.745E+03 0.504E+03 -.257E+04   0.749E+03 -.509E+03 0.257E+04   -.224E+01 0.279E+01 -.350E+01   -.509E-02 -.226E-02 -.726E-02
   0.227E+03 0.493E+03 0.900E+03   -.230E+03 -.497E+03 -.900E+03   0.234E+01 0.364E+01 -.420E+00   -.106E-03 0.240E-02 0.156E-01
   0.934E+02 -.219E+03 -.325E+04   -.936E+02 0.216E+03 0.325E+04   -.372E+00 0.220E+01 0.217E+01   -.735E-02 0.265E-02 -.860E-02
   0.584E+02 -.591E+03 0.249E+04   -.610E+02 0.593E+03 -.250E+04   0.198E+01 -.115E+01 0.798E+01   -.514E-02 0.314E-02 0.145E-01
   -.254E+03 0.274E+03 -.176E+04   0.257E+03 -.277E+03 0.176E+04   -.188E+01 0.250E+01 -.599E+01   -.354E-02 0.166E-01 0.241E-01
   -.541E+03 -.302E+03 0.247E+04   0.546E+03 0.304E+03 -.248E+04   -.462E+01 -.274E+01 0.625E+01   0.276E-01 -.409E-02 0.142E-01
   -.298E+02 -.626E+03 -.226E+04   0.303E+02 0.630E+03 0.227E+04   -.168E+01 -.259E+01 -.506E+01   0.273E-01 -.283E-02 -.600E-02
   -.514E+03 -.851E+02 0.408E+04   0.515E+03 0.847E+02 -.408E+04   -.748E+00 0.807E+00 -.279E-01   0.128E-01 0.234E-01 0.606E-02
   -.116E+03 -.172E+03 -.126E+03   0.115E+03 0.173E+03 0.129E+03   0.177E+01 -.143E+01 -.274E+01   0.103E-01 0.129E-01 0.149E-01
   -.861E+02 -.133E+03 -.375E+04   0.886E+02 0.137E+03 0.375E+04   -.270E+01 -.381E+01 0.236E+01   -.223E-03 0.173E-02 0.245E-02
   0.706E+02 -.508E+03 0.345E+04   -.686E+02 0.506E+03 -.345E+04   -.217E+01 0.231E+01 -.114E+01   -.246E-01 0.533E-03 0.441E-02
   -.265E+03 -.335E+03 -.122E+04   0.268E+03 0.340E+03 0.123E+04   -.241E+01 -.444E+01 -.474E+01   -.120E-01 0.492E-02 -.142E-02
   -.373E+03 -.297E+03 0.208E+04   0.375E+03 0.299E+03 -.208E+04   -.158E+01 -.186E+01 0.506E+01   0.110E-02 -.162E-03 0.682E-02
   -.539E+03 -.222E+03 -.262E+04   0.544E+03 0.226E+03 0.262E+04   -.348E+01 -.311E+01 -.247E+01   -.513E-02 -.135E-03 -.780E-02
   -.248E+03 -.903E+03 0.500E+03   0.249E+03 0.907E+03 -.498E+03   -.801E+00 -.272E+01 -.449E+00   0.301E-02 0.356E-03 0.203E-01
   0.461E+03 0.444E+03 0.262E+04   -.464E+03 -.447E+03 -.263E+04   0.153E+01 0.205E+01 0.806E+01   0.840E-02 0.987E-03 0.123E-01
   -.149E+03 -.326E+03 -.172E+04   0.151E+03 0.329E+03 0.173E+04   -.155E+01 -.273E+01 -.566E+01   -.928E-03 -.537E-02 0.512E-02
   0.112E+03 -.546E+02 -.177E+04   -.112E+03 0.552E+02 0.177E+04   -.100E+01 -.301E+00 -.201E+01   0.857E-02 -.622E-03 -.611E-02
   -.225E+03 -.266E+02 0.405E+03   0.226E+03 0.272E+02 -.408E+03   0.106E+00 -.112E+01 0.116E+01   0.692E-02 -.865E-03 0.555E-02
   -.279E+03 0.261E+03 0.136E+04   0.282E+03 -.265E+03 -.136E+04   -.243E+01 0.279E+01 0.204E+01   0.157E-01 -.303E-03 0.540E-02
   -.116E+03 0.306E+02 -.915E+03   0.116E+03 -.310E+02 0.919E+03   0.866E+00 0.696E+00 -.380E+01   0.299E-02 -.280E-02 -.155E-02
   -.198E+03 0.260E+03 0.919E+03   0.200E+03 -.263E+03 -.923E+03   -.624E+00 0.191E+01 0.216E+01   -.647E-02 0.325E-02 0.215E-02
   -.607E+02 0.207E+02 -.113E+04   0.615E+02 -.206E+02 0.113E+04   -.207E+00 -.155E-01 -.241E+01   -.794E-02 -.396E-03 -.583E-03
   -.183E+03 0.166E+02 0.163E+04   0.185E+03 -.166E+02 -.163E+04   -.151E+00 -.774E-01 0.110E+01   -.246E-02 0.199E-03 0.680E-02
   -.295E+03 0.617E+02 -.419E+02   0.297E+03 -.618E+02 0.410E+02   0.160E+00 0.286E+00 -.110E+01   -.612E-02 -.141E-02 0.220E-02
   -.163E+03 0.449E+02 -.174E+04   0.164E+03 -.449E+02 0.175E+04   -.276E-01 0.298E-01 -.116E+01   0.237E-03 -.122E-02 -.655E-02
   -.181E+03 -.199E+03 0.154E+04   0.184E+03 0.200E+03 -.155E+04   -.110E+01 -.119E+01 0.324E+01   0.137E-01 -.426E-03 0.102E-01
   -.777E+01 -.365E+03 -.710E+03   0.725E+01 0.368E+03 0.715E+03   0.101E+01 -.178E+01 -.328E+01   -.136E-02 0.119E-02 -.426E-02
   -.277E+02 0.357E+02 0.724E+03   0.285E+02 -.360E+02 -.728E+03   -.430E+00 -.224E+00 0.263E+01   0.660E-02 0.672E-02 0.780E-02
   -.442E+02 0.780E+01 -.127E+04   0.460E+02 -.747E+01 0.127E+04   -.995E+00 -.388E+00 -.235E+01   0.137E-02 0.612E-03 -.351E-02
   -.651E+01 -.102E+03 0.175E+04   0.689E+01 0.102E+03 -.176E+04   -.565E+00 0.227E-01 0.281E+01   0.779E-02 -.666E-02 -.521E-02
   0.569E+02 -.166E+03 -.368E+03   -.569E+02 0.167E+03 0.371E+03   -.604E+00 0.725E+00 -.173E+01   0.109E-01 0.229E-03 0.620E-02
   0.385E+03 0.273E+02 0.949E+03   -.388E+03 -.294E+02 -.951E+03   0.214E+01 0.149E+01 0.704E+00   -.341E-02 0.171E-01 0.692E-02
   0.253E+03 0.100E+03 -.125E+04   -.254E+03 -.988E+02 0.125E+04   0.374E+00 -.543E+00 -.228E+01   -.305E-02 -.289E-03 0.375E-03
   0.246E+03 -.246E+03 0.581E+03   -.248E+03 0.248E+03 -.582E+03   0.199E+01 0.343E+00 0.726E+00   0.101E-02 -.875E-03 0.327E-02
   -.488E+02 0.404E+02 -.145E+04   0.497E+02 -.393E+02 0.146E+04   -.696E+00 -.904E+00 -.256E+01   -.868E-03 -.112E-02 -.390E-02
   0.975E+02 -.111E+03 -.425E+03   -.990E+02 0.113E+03 0.425E+03   0.399E+00 -.508E+00 -.536E+00   0.374E-02 0.209E-03 -.107E-02
   0.497E+02 -.236E+02 0.137E+04   -.519E+02 0.229E+02 -.137E+04   0.178E+01 0.135E+01 0.409E+01   0.367E-02 -.719E-03 0.641E-02
   0.843E+02 -.292E+03 0.950E+03   -.840E+02 0.293E+03 -.953E+03   -.109E+01 -.517E-01 0.104E+01   -.430E-02 0.855E-02 0.163E-01
   -.286E+03 -.172E+03 -.104E+04   0.288E+03 0.173E+03 0.104E+04   -.337E+00 -.191E+00 -.453E-01   -.239E-02 -.331E-02 -.518E-02
   0.208E+02 -.113E+03 0.388E+03   -.229E+02 0.116E+03 -.391E+03   0.204E+01 -.126E+01 0.192E+01   -.252E-02 -.184E-02 0.429E-02
   0.250E+02 -.251E+03 -.158E+04   -.259E+02 0.254E+03 0.158E+04   0.336E+00 -.242E+01 -.963E+00   -.299E-03 -.259E-02 -.389E-02
   0.213E+03 0.240E+03 0.730E+03   -.215E+03 -.241E+03 -.733E+03   0.585E+00 -.438E+00 0.226E+01   -.715E-02 -.151E-01 0.104E-01
   0.398E+03 0.258E+03 -.118E+04   -.400E+03 -.262E+03 0.118E+04   0.717E+00 0.212E+01 -.258E+01   -.172E-02 -.231E-02 -.507E-03
   0.894E+02 0.114E+03 0.174E+04   -.894E+02 -.116E+03 -.174E+04   -.421E+00 0.363E+00 0.243E+01   0.466E-02 -.108E-02 0.775E-03
   0.140E+03 0.155E+03 -.331E+03   -.141E+03 -.156E+03 0.335E+03   -.586E+00 -.953E+00 -.225E+01   0.659E-02 -.527E-02 -.352E-03
   0.857E+02 0.159E+03 -.442E+03   -.881E+02 -.161E+03 0.442E+03   0.115E+01 0.884E+00 -.134E+00   0.593E-02 0.567E-03 -.146E-04
   0.496E+02 0.329E+02 0.135E+04   -.515E+02 -.325E+02 -.136E+04   0.132E+01 -.105E+01 0.398E+01   0.630E-02 0.209E-02 0.641E-02
   -.214E+03 0.132E+03 0.412E+03   0.216E+03 -.133E+03 -.411E+03   0.311E+00 -.301E+00 -.107E+00   -.306E-02 0.213E-02 0.191E-02
   -.124E+03 -.722E+02 -.148E+04   0.124E+03 0.711E+02 0.149E+04   -.395E+00 0.882E+00 -.193E+01   0.270E-03 0.351E-02 -.229E-02
   0.140E+02 -.804E+02 0.172E+03   -.159E+02 0.789E+02 -.172E+03   0.130E+01 0.119E+01 -.357E+00   -.126E-01 0.114E-02 0.486E-02
   0.202E+02 0.237E+03 -.161E+04   -.212E+02 -.241E+03 0.161E+04   0.490E+00 0.245E+01 -.618E+00   -.102E-02 0.267E-02 -.318E-02
   0.139E+03 0.264E+03 0.103E+04   -.139E+03 -.265E+03 -.104E+04   -.572E+00 -.318E+00 0.158E+01   -.432E-02 -.884E-02 0.158E-01
   -.788E+02 0.219E+02 -.928E+03   0.789E+02 -.243E+02 0.930E+03   0.224E+00 0.238E+01 -.954E+00   -.676E-02 0.393E-02 -.431E-02
   -.573E+01 -.113E+02 -.109E+02   -.739E-12 0.148E-11 -.989E-11   0.563E+01 0.112E+02 0.105E+02   0.990E-01 0.154E-01 0.297E+00

 POSITION                                       TOTAL-FORCE (eV/Angst)
     13.17084      1.39171      2.05636         0.137903     -0.113964      0.994422
     13.54366      1.39365      4.75173        -0.033452      0.024125      1.036469
      5.02033      6.18092      3.59863        -1.373930     -0.123023      0.095724
      6.46552      0.75144      2.02864         0.782855      0.233613     -0.858883
      7.93172      1.39171      4.11272        -1.392686      0.690464     -1.404656
     16.08224      6.18092      2.57045        -0.505632     -0.032298      2.086569
     16.47397      6.17830      5.29224        -1.592013     -0.007325      0.486635
      2.88330      1.41181      0.79420        -0.679505     -0.026937     -1.882179
      2.10894      1.39171      3.08454        -0.767015     -0.163899      0.338079
      1.15456      0.91708      5.19232         0.627647     -0.593279      0.528657
      9.63892      6.20237      2.68174         0.652388     -0.252024     -0.382488
     10.84312      6.18092      4.62682        -0.891215      0.179347     -0.946310
     15.35764      0.04659      1.97834         1.041122      0.770831      0.154167
     15.86883      0.06792      4.47103        -0.325225     -1.056743     -0.227742
      5.96231      6.22308      1.32783        -0.981541      0.237961     -1.383999
      7.17375      4.91558      3.19116         0.843167     -0.550017     -0.931988
      7.82649      4.50900      5.51907         0.316024      0.254101      0.864516
      8.92523      1.40497      1.54347        -0.297035     -0.226409     -1.702558
     10.08514      0.12638      3.70525         0.874178     -0.491121     -1.510329
      1.35096      4.91558      2.16298         0.095636     -0.670665      2.253181
      1.90558      4.80744      4.85426         1.120224     -1.519735      0.239162
      4.26235      0.12638      2.67707        -0.646362     -0.331880     -0.024970
      5.01249      9.37160      4.92587        -0.590623      0.184038      1.417757
     12.93853      4.02151      2.01171        -0.635926      1.070865      0.019628
     12.99653      4.91558      4.21934         1.152842      0.051715     -1.445494
     15.36576      2.74499      2.00328         0.894927     -0.572116      0.250177
     15.95544      2.65408      4.50841        -1.195538      1.255404     -0.444576
      7.49635      8.17440      0.94181         0.246188      0.457532     -0.886793
      7.17375      7.44626      3.19116         0.471291     -0.127412      0.546265
      7.83842      7.90804      5.48535        -0.174441     -0.424068      0.801574
     10.47630      3.35850      1.49138        -0.222546      0.492736     -1.012408
     10.08514      2.65705      3.70525         0.244132      0.145677     -0.320842
      1.35096      7.44626      2.16298         0.115902      0.818077      2.159901
      1.90585      7.51811      4.88910         1.017887      1.269749      0.679700
      4.26235      2.65705      2.67707         0.411607      1.033603      1.358352
     13.13976      8.17579      2.00547        -0.945835     -0.711122      0.265053
     12.99653      7.44626      4.21934         0.638062      0.028315     -1.434185
     16.22565      1.32985      6.04904        -0.737732      0.208341      4.036586
     16.74052      1.39171      3.05601         1.480675     -0.461843     -2.412740
      8.00634      6.18092      1.51374         0.863959     -0.616164     -3.078848
      8.59001      6.18092      4.59828         1.168795      0.299846      0.935347
     10.91773      1.39171      2.02783         1.516481     -0.768552     -1.624681
     11.46480      1.37829      4.70304         0.547579      0.081090      2.598971
      1.74649      6.18220      0.66738         1.504505      0.010606     -3.963710
      2.76722      6.18092      3.57010         2.406389      0.205029     -1.952866
      1.36613      6.14141      6.30945         0.598422      0.052917      4.260333
      4.87100      1.53983      1.01494         1.256731      0.498469     -3.258087
      5.63259      1.43956      3.84663         0.487887      1.363203      2.319272
     13.82913      6.18092      2.54192         0.408995     -0.504545     -1.614184
     14.37124      6.18171      5.20684         0.796605     -0.054700      2.551458
     13.80573      2.78964      0.65439        -0.179015      0.836115     -3.690915
     13.99844      3.00295      3.57488        -0.579995      1.353491      1.599605
      5.60430      8.22474      1.85823        -1.651434     -0.548756     -0.893988
      5.89425      7.54646      4.94266        -1.086024      0.682650      1.359197
      8.17565      3.00295      2.54670        -0.359242      1.653964     -0.355034
      8.84241      2.78556      5.36826         0.223269      0.220785      2.873745
      0.02514      7.79215      4.08897        -1.145606      1.375152     -0.852915
     16.33194      7.86411      1.38820        -0.415597      0.684825     -2.755739
      2.39235      3.11039      1.83813        -0.855025      1.040359     -1.331659
      2.13546      2.68982      4.76395         1.656806      0.867382      1.610067
     11.08705      7.79215      3.06079        -0.119553      1.006540     -0.926976
     11.72892      7.59634      5.78053        -0.481599      1.223074      3.738256
      5.26016      4.52793      2.27632        -0.903114     -0.905915     -1.301573
      5.92843      4.75834      4.86914        -1.768589     -1.708463      2.235949
     13.76969      9.54468      0.66657        -0.425277     -0.747346     -3.943367
     13.99844      9.35889      3.57488        -1.257039     -1.513645      1.225508
      0.02514      4.56969      4.08897        -1.292245     -1.317450     -0.808896
     16.33997      4.49652      1.39125        -0.589617     -0.698681     -2.903166
      8.17565      9.35889      2.54670         1.844154     -2.073064      0.443319
      8.88821      0.03785      5.38880         0.216656     -0.240105      2.895691
     11.08705      4.56969      3.06079        -0.645964     -0.353187     -0.295409
     11.76991      4.82473      5.81705        -0.471223     -1.176679      3.850408
      2.37355      9.26940      1.77980        -0.750222     -1.184851     -1.464167
      2.93654      9.35889      4.60306         0.302739      0.005995      1.119623
    total drift:                                0.001534     -0.082496     -0.082049

  FREE ENERGIE OF THE ION-ELECTRON SYSTEM (eV)
  free  energy   TOTEN  =      -350.73659406 eV

  energy  without entropy=     -349.66726231  energy(sigma->0) =     -350.20192818