 vasp.5.4.4.18Apr17-6-g9f103f2a35 (build Aug 13 2019 17:33:20) gamma-only

 executed on             LinuxIFC date 2020.05.12  22:21:48

 INCAR:
 POTCAR:    PAW_PBE Ni_pv 06Sep2000
 POTCAR:    PAW_PBE S 06Sep2000
 POTCAR:    PAW_PBE Ni_pv 06Sep2000
   VRHFIN =Ni:

   TITEL  = PAW_PBE Ni_pv 06Sep2000
   POMASS =   58.690; ZVAL   =   16.000    mass and valenz
   ENMAX  =  367.986; ENMIN  =  275.989 eV

 POTCAR:    PAW_PBE S 06Sep2000
   VRHFIN =S : s2p4

   TITEL  = PAW_PBE S 06Sep2000
   POMASS =   32.066; ZVAL   =    6.000    mass and valenz
   ENMAX  =  258.689; ENMIN  =  194.016 eV

 Optimization of the real space projectors (new method)

 maximal supplied QI-value         = 18.90
 optimisation between [QCUT,QGAM] = [ 10.77, 21.73] = [ 32.49,132.25] Ry
 Optimized for a Real-space Cutoff    1.38 Angstroem

   l    n(q)    QCUT    max X(q) W(low)/X(q) W(high)/X(q)  e(spline)
   1      8    10.771     2.836    0.40E-04    0.29E-04    0.12E-06
   1      8    10.771     4.023    0.10E-03    0.48E-04    0.29E-06
   2      8    10.771    73.368    0.42E-03    0.97E-04    0.44E-06
   2      8    10.771    69.010    0.42E-03    0.99E-04    0.45E-06
   0      9    10.771    54.797    0.10E-03    0.56E-04    0.74E-07
   0      9    10.771    24.266    0.89E-04    0.49E-04    0.67E-07
 Optimization of the real space projectors (new method)

 maximal supplied QI-value         = 19.84
 optimisation between [QCUT,QGAM] = [ 10.71, 21.63] = [ 32.15,130.99] Ry
 Optimized for a Real-space Cutoff    1.19 Angstroem

   l    n(q)    QCUT    max X(q) W(low)/X(q) W(high)/X(q)  e(spline)
   0      8    10.715   187.594    0.41E-03    0.53E-04    0.66E-07
   0      8    10.715   164.243    0.41E-03    0.53E-04    0.65E-07
   1      7    10.715    67.533    0.19E-03    0.59E-03    0.68E-07
   1      7    10.715    50.729    0.19E-03    0.58E-03    0.67E-07
  PAW_PBE Ni_pv 06Sep2000               :
  PAW_PBE S 06Sep2000                   :

 POSCAR: Type_036 Type_136
  positions in cartesian coordinates
 exchange correlation table for  LEXCH =        8
   RHO(1)=    0.500       N(1)  =     2000
   RHO(2)=  100.500       N(2)  =     4000

 ion  position               nearest neighbor table
   1  0.397  0.795  0.118-  49 2.05  61 2.11  42 2.25  50 2.36  62 2.36  25 2.46
   2  0.547  0.645  0.245-  43 2.25  62 2.26  50 2.26  63 2.36  51 2.36  26 2.53  12 2.53
   3  0.698  0.494  0.372-  52 2.09  64 2.13  44 2.25  51 2.26  63 2.26  13 2.53  27 2.53
   4  0.114  0.412  0.160-  53 2.13  45 2.25  68 2.26   7 2.28  54 2.36  65 2.36  28 2.53  15 2.53

   5  0.264  0.261  0.287-  46 2.25  65 2.26  54 2.26  55 2.36  66 2.36  16 2.53  29 2.53
   6  0.414  0.111  0.414-  47 2.10  67 2.11  55 2.26  66 2.26  56 2.26  30 2.53  17 2.53
   7  0.994  0.595  0.094-  48 2.00  45 2.13  53 2.21   4 2.28  68 2.30  19 2.46
   8  0.709  0.214  0.138-  38 1.99  39 2.11  60 2.17   9 2.28  70 2.31  36 2.41
   9  0.831  0.028  0.203-  39 2.25  60 2.26  70 2.26   8 2.28  57 2.36  71 2.36  22 2.53  32 2.53

[...]

  31  0.780  0.785  0.413-  72 2.04  44 2.10  56 2.12  30 2.32
  32  0.015  0.843  0.136-  61 2.11  48 2.26  60 2.26  45 2.36  57 2.36  22 2.53   9 2.53
  33  0.166  0.693  0.263-  58 2.20  62 2.25  57 2.26  45 2.26  46 2.36  10 2.53  23 2.53
  34  0.216  0.630  0.383-  58 2.06  59 2.06  46 2.09  72 2.13  20 2.48
  35  0.428  0.396  0.397-  47 2.07  59 2.11  63 2.11  64 2.14  13 2.52
  36  0.768  0.002  0.072-  69 2.02  48 2.02  60 2.06  70 2.09   8 2.41  21 2.47
  37  0.926  0.153  0.491-  14 2.01  24 2.01  40 2.75
  38  0.586  0.406  0.108-   8 1.99  25 2.06  11 2.21  12 2.26  26 2.26
  39  0.736  0.256  0.235-   8 2.11   9 2.25  27 2.26  13 2.26  12 2.36  26 2.36
  40  0.886  0.105  0.362-  14 2.05  24 2.06  10 2.25  13 2.36  27 2.36  37 2.75
  41  0.174  0.151  0.038-  19 2.01  28 2.03  15 2.06  42 2.75
  42  0.303  0.023  0.151-   1 2.25  29 2.26  16 2.26  15 2.36  28 2.36  41 2.75
  43  0.453  0.872  0.278-   2 2.25  30 2.26  17 2.26  29 2.36  16 2.36
  44  0.603  0.722  0.405-  18 2.05  31 2.10   3 2.25  30 2.36  17 2.36
  45  0.019  0.639  0.193-   7 2.13   4 2.25  23 2.26  33 2.26  22 2.36  32 2.36
  46  0.170  0.489  0.320-  20 2.04  34 2.09   5 2.25  33 2.36  23 2.36  72 2.71
  47  0.282  0.319  0.437-  35 2.07  20 2.09   6 2.10
  48  0.869  0.789  0.066-   7 2.00  36 2.02  32 2.26  22 2.26  21 2.31
  49  0.483  0.782  0.028-  25 2.03   1 2.05  21 2.07
  50  0.636  0.692  0.151-  25 2.06  21 2.15  22 2.25  26 2.26   2 2.26   1 2.36
  51  0.787  0.542  0.278-  23 2.25   3 2.26  27 2.26  26 2.36   2 2.36
  52  0.914  0.405  0.393-  24 2.06  20 2.08   3 2.09  27 2.13
  53  0.215  0.453  0.076-  19 2.08   4 2.13  28 2.16  11 2.16   7 2.21
  54  0.353  0.308  0.193-  12 2.25   5 2.26  29 2.26  28 2.36   4 2.36
  55  0.503  0.158  0.320-  13 2.25   6 2.26  30 2.26   5 2.36  29 2.36
  56  0.648  0.997  0.435-  30 2.07  14 2.10  31 2.12   6 2.26
  57  0.070  0.925  0.236-  16 2.25  33 2.26  10 2.26   9 2.36  32 2.36  58 2.62
  58  0.209  0.818  0.342-  34 2.06  10 2.17  17 2.18  33 2.20  57 2.62
  59  0.367  0.581  0.455-  18 2.03  34 2.06  35 2.11
  60  0.920  0.075  0.109-  36 2.06   8 2.17  15 2.25   9 2.26  32 2.26
  61  0.213  0.759  0.088-   1 2.11  32 2.11  11 2.12  62 2.63
  62  0.350  0.641  0.194-  11 2.04  33 2.25  12 2.26   2 2.26   1 2.36  61 2.63
  63  0.501  0.491  0.321-  35 2.11   3 2.26  13 2.26   2 2.36  12 2.36
  64  0.639  0.352  0.432-  14 2.08  13 2.09   3 2.13  35 2.14
  65  0.067  0.258  0.236-  27 2.25   5 2.26  16 2.26   4 2.36  15 2.36
  66  0.218  0.108  0.363-  24 2.12  17 2.26   6 2.26  16 2.36   5 2.36
  67  0.390  0.950  0.473-  17 2.03  18 2.05   6 2.11
  68  0.917  0.408  0.109-  19 2.06  26 2.25  15 2.26   4 2.26   7 2.30
  69  0.611  1.000  0.012-  36 2.02  21 2.03
  70  0.634  0.025  0.152-  36 2.09  29 2.25   9 2.26  22 2.26   8 2.31  21 2.39
  71  0.784  0.874  0.279-  30 2.25  23 2.26  10 2.26  22 2.36   9 2.36
  72  0.991  0.701  0.393-  31 2.04  34 2.13  23 2.15  10 2.18  20 2.23  46 2.71

  LATTYP: Found a base centered orthorhombic cell.
 ALAT       =    11.4527836704
 B/A-ratio  =     1.4485816945
 C/A-ratio  =     1.8059804630

  Lattice vectors:

 A1 = (  10.0797329849,   0.0000000000,   0.0000000000)
 A2 = (  -3.5732980427,  -9.4251025535,   0.0000000000)
 A3 = (   0.0000000000,   0.0000000000, -20.6835035552)

Analysis of symmetry for initial positions (statically):
 Subroutine PRICEL returns:
 Original cell was already a primitive cell.

 Routine SETGRP: Setting up the symmetry group for a
 base centered orthorhombic supercell.

 Subroutine GETGRP returns: Found  1 space group operations
 (whereof  1 operations were pure point group operations)
 out of a pool of  8 trial point group operations.

The static configuration has the point symmetry C_1 .

Analysis of symmetry for dynamics (positions and initial velocities):
 Subroutine PRICEL returns:
 Original cell was already a primitive cell.

 Routine SETGRP: Setting up the symmetry group for a
 base centered orthorhombic supercell.

 Subroutine GETGRP returns: Found  1 space group operations
 (whereof  1 operations were pure point group operations)
 out of a pool of  8 trial point group operations.

The dynamic configuration has the point symmetry C_1 .

 Subroutine INISYM returns: Found  1 space group operations
 (whereof  1 operations are pure point group operations),
 and found     1 'primitive' translations

 KPOINTS: gamma-point-only calculation. no periodi

Automatic generation of k-mesh.
Space group operators:
 irot       det(A)        alpha          n_x          n_y          n_z        tau_x        tau_y        tau_z
    1     1.000000     0.000000     1.000000     0.000000     0.000000     0.000000     0.000000     0.000000

 Subroutine IBZKPT returns following result:

 Found      1 irreducible k-points:

 Following reciprocal coordinates:
            Coordinates               Weight
  0.000000  0.000000  0.000000      1.000000

 Following cartesian coordinates:
            Coordinates               Weight
  0.000000  0.000000  0.000000      1.000000

 SYSTEM =  "Millerite NiS"
 POSCAR =  Type_036 Type_136

 Startparameter for this run:
   NWRITE =      2    write-flag & timer
   PREC   = normal    normal or accurate (medium, high low for compatibility)
   ISTART =      0    job   : 0-new  1-cont  2-samecut
   ICHARG =      2    charge: 1-file 2-atom 10-const
   ISPIN  =      1    spin polarized calculation?
   LNONCOLLINEAR =      F non collinear calculations
   LSORBIT =      F    spin-orbit coupling
   INIWAV =      1    electr: 0-lowe 1-rand  2-diag
   LASPH  =      F    aspherical Exc in radial PAW
   METAGGA=      F    non-selfconsistent MetaGGA calc.

 Electronic Relaxation 1
   ENCUT  =  450.0 eV  33.07 Ry    5.75 a.u.  17.43 17.43 35.78*2*pi/ulx,y,z
   ENINI  =  450.0     initial cutoff
   ENAUG  =  703.4 eV  augmentation charge cutoff
   NELM   =    100;   NELMIN=  2; NELMDL= -5     # of ELM steps
   EDIFF  = 0.1E-03   stopping-criterion for ELM
   LREAL  =      T    real-space projection
   NLSPLINE    = F    spline interpolate recip. space projectors
   LCOMPAT=      F    compatible to vasp.4.4
   GGA_COMPAT  = T    GGA compatible to vasp.4.4-vasp.4.6
   LMAXPAW     = -100 max onsite density
   LMAXMIX     =    2 max onsite mixed and CHGCAR
   VOSKOWN=      0    Vosko Wilk Nusair interpolation
   ROPT   =   -0.00050  -0.00050
 Ionic relaxation
   EDIFFG = 0.1E-02   stopping-criterion for IOM
   NSW    =      0    number of steps for IOM
   NBLOCK =      1;   KBLOCK =      1    inner block; outer block
   IBRION =     -1    ionic relax: 0-MD 1-quasi-New 2-CG
   NFREE  =      0    steps in history (QN), initial steepest desc. (CG)
   ISIF   =      2    stress and relaxation
   IWAVPR =     10    prediction:  0-non 1-charg 2-wave 3-comb
   ISYM   =      2    0-nonsym 1-usesym 2-fastsym
   LCORR  =      T    Harris-Foulkes like correction to forces

   POTIM  = 0.5000    time-step for ionic-motion
   TEIN   =    0.0    initial temperature
   TEBEG  =    0.0;   TEEND  =   0.0 temperature during run
   SMASS  =  -3.00    Nose mass-parameter (am)
   estimated Nose-frequenzy (Omega)   =  0.10E-29 period in steps =****** mass=  -0.232E-26a.u.
   SCALEE = 1.0000    scale energy and forces
   NPACO  =    256;   APACO  = 16.0  distance and # of slots for P.C.
   PSTRESS=    0.0 pullay stress

  Mass of Ions in am
   POMASS =  58.69 32.07
  Ionic Valenz
   ZVAL   =  16.00  6.00
  Atomic Wigner-Seitz radii
  virtual crystal weights
   VCA    =   1.00  1.00
   NELECT =     792.0000    total number of electrons
   NUPDOWN=      -1.0000    fix difference up-down

 DOS related values:
   EMIN   =  10.00;   EMAX   =-10.00  energy-range for DOS
   EFERMI =   0.00
   ISMEAR =     0;   SIGMA  =   0.20  broadening in eV -4-tet -1-fermi 0-gaus

 Electronic relaxation 2 (details)
   IALGO  =     38    algorithm
   LDIAG  =      T    sub-space diagonalisation (order eigenvalues)
   LSUBROT=      F    optimize rotation matrix (better conditioning)
   TURBO    =      0    0=normal 1=particle mesh
   IRESTART =      0    0=no restart 2=restart with 2 vectors
   NREBOOT  =      0    no. of reboots
   NMIN     =      0    reboot dimension
[...]
  Fock        0.00000     0.00000     0.00000     0.00000     0.00000     0.00000
  Total      94.90280    89.81571   110.45840    -0.37408    -5.70790     1.82030
  in kB      77.38030    73.23247    90.06377    -0.30501    -4.65402     1.48421

 VOLUME and BASIS-vectors are now :
  energy-cutoff  :      450.00
  volume of cell :     1964.98
      direct lattice vectors                 reciprocal lattice vectors
    10.079732985  0.000000000  0.000000000     0.099208977 -0.037612667  0.000000000
     3.573298043  9.425102554  0.000000000     0.000000000  0.106099641  0.000000000
     0.000000000  0.000000000 20.683503555     0.000000000  0.000000000  0.048347708

  length of vectors
    10.079732985 10.079732985 20.683503555     0.106099641  0.106099641  0.048347708

 FORCES acting on ions
    electron-ion (+dipol)            ewald-force                    non-local-force                 convergence-correction
   0.428E+03 -.636E+03 0.338E+04   -.431E+03 0.641E+03 -.338E+04   0.233E+01 -.429E+01 0.250E+01   -.469E-01 0.754E-01 -.159E+00
   0.312E+02 -.483E+03 -.230E+03   -.317E+02 0.484E+03 0.230E+03   0.414E+00 -.173E+01 0.834E-01   0.573E-01 0.106E+00 -.199E-01
   -.172E+03 -.491E+03 -.362E+04   0.171E+03 0.494E+03 0.362E+04   0.673E+00 -.305E+01 -.190E+01   0.184E+00 0.262E+00 0.168E+00
   -.111E+03 -.713E+02 0.167E+04   0.111E+03 0.697E+02 -.167E+04   0.320E+00 0.370E+00 -.333E+01   -.703E-01 -.261E-01 -.471E+00
   0.535E+02 -.329E+03 -.114E+04   -.540E+02 0.329E+03 0.114E+04   0.527E+00 -.365E+00 0.779E+00   -.385E-01 -.175E-01 -.156E+00
   0.107E+03 -.330E+03 -.463E+04   -.108E+03 0.332E+03 0.463E+04   0.100E+01 -.201E+01 -.210E+01   0.128E+00 -.206E+00 0.113E+00
   0.360E+02 -.265E+03 0.453E+04   -.379E+02 0.263E+03 -.453E+04   0.165E+01 0.206E+01 0.368E+01   0.106E-01 -.246E+00 -.357E+00
   0.118E+03 -.329E+03 0.353E+04   -.119E+03 0.329E+03 -.354E+04   0.365E+00 0.571E+00 0.447E+01   0.266E-01 -.117E+00 -.243E+00
   -.229E+03 -.196E+03 0.667E+03   0.230E+03 0.194E+03 -.663E+03   -.792E+00 0.101E+01 -.272E+01   -.406E-02 -.331E-01 -.164E+00
   -.128E+03 -.544E+03 -.255E+04   0.127E+03 0.548E+03 0.255E+04   0.968E+00 -.350E+01 -.226E+00   -.315E+00 -.346E-01 0.172E+00
   0.331E+03 0.224E+03 0.429E+04   -.333E+03 -.226E+03 -.429E+04   0.232E+01 0.703E+00 0.234E+01   -.123E+00 -.357E-01 -.223E+00
   0.493E+03 0.235E+03 0.880E+03   -.495E+03 -.233E+03 -.878E+03   0.190E+01 -.123E+01 -.203E+01   -.529E-01 -.554E-01 -.170E+00
   0.171E+03 0.359E+03 -.207E+04   -.171E+03 -.362E+03 0.207E+04   0.657E+00 0.188E+01 0.860E+00   0.560E-01 -.117E+00 0.916E-03
   -.511E+01 0.338E+03 -.519E+04   0.269E+01 -.341E+03 0.519E+04   0.122E+01 0.351E+01 -.380E+01   -.724E-01 -.268E+00 0.127E+00
   0.527E+03 0.616E+03 0.318E+04   -.530E+03 -.617E+03 -.318E+04   0.155E+01 0.428E+00 0.208E+00   0.666E-01 0.135E+00 -.411E+00
   0.408E+03 0.313E+03 -.734E+02   -.409E+03 -.313E+03 0.734E+02   0.107E+01 -.576E+00 0.190E+00   -.302E-01 -.407E-03 -.165E+00
   0.569E+03 0.147E+03 -.325E+04   -.571E+03 -.147E+03 0.325E+04   0.131E+01 0.403E+00 0.126E-01   0.162E+00 -.111E+00 0.705E-01
   0.860E+02 0.254E+03 -.551E+04   -.865E+02 -.257E+03 0.550E+04   0.606E+00 0.205E+01 0.265E+01   0.245E+00 0.186E-01 0.130E+00
   0.352E+03 -.288E+02 0.591E+04   -.354E+03 0.269E+02 -.592E+04   0.159E+01 0.291E+01 0.576E+01   0.939E-02 -.373E-02 -.217E+00
   0.321E+03 0.848E+02 -.467E+04   -.323E+03 -.895E+02 0.468E+04   0.195E+01 0.471E+01 -.603E+00   -.237E+00 0.238E+00 0.151E+00
   0.304E+03 -.171E+03 0.468E+04   -.307E+03 0.173E+03 -.468E+04   0.265E+01 -.217E+01 0.569E+01   0.976E-01 0.587E-01 -.167E+00
   0.323E+03 0.287E+03 0.167E+04   -.324E+03 -.287E+03 -.166E+04   0.231E+00 0.668E-01 -.336E+01   0.645E-01 0.204E-01 -.146E+00
   0.421E+03 0.322E+03 -.120E+04   -.424E+03 -.324E+03 0.119E+04   0.275E+01 0.920E+00 0.143E+00   -.187E+00 0.207E+00 0.231E+00
   -.384E+03 0.267E+03 -.445E+04   0.388E+03 -.269E+03 0.445E+04   -.239E+01 0.183E+01 -.348E+01   -.529E-01 -.920E-02 0.867E-01
   -.186E+03 0.540E+03 0.525E+04   0.184E+03 -.541E+03 -.525E+04   0.256E+01 -.407E+00 0.374E+01   0.408E-01 -.403E-01 -.220E+00
   -.524E+03 0.141E+03 0.202E+04   0.525E+03 -.140E+03 -.202E+04   -.178E+01 -.920E+00 -.173E+01   0.103E+00 -.471E-01 -.214E+00
   -.434E+03 0.185E+03 -.115E+04   0.437E+03 -.186E+03 0.115E+04   -.299E+01 0.227E+00 0.193E+01   0.351E-01 -.163E-02 -.376E-01
   -.887E+03 0.478E+03 0.436E+04   0.888E+03 -.480E+03 -.436E+04   0.127E+01 0.495E+00 0.105E+01   -.243E+00 0.131E+00 -.331E+00
   -.299E+03 0.165E+03 0.102E+04   0.298E+03 -.165E+03 -.102E+04   0.465E+00 -.420E+00 -.236E+00   0.303E-01 -.362E-01 -.177E+00
   -.194E+03 0.889E+02 -.215E+04   0.194E+03 -.887E+02 0.215E+04   -.153E+01 0.583E+00 0.241E+01   0.435E+00 -.438E+00 0.362E+00
   -.321E+03 0.326E+03 -.479E+04   0.321E+03 -.326E+03 0.479E+04   0.315E+00 0.132E+00 -.155E+01   0.323E-01 -.641E-01 0.170E+00
   -.810E+03 -.749E+02 0.333E+04   0.815E+03 0.748E+02 -.333E+04   -.499E+01 0.115E+00 0.277E+00   -.521E-01 0.165E-01 -.204E+00
   -.475E+03 0.118E+03 -.277E+02   0.478E+03 -.119E+03 0.248E+02   -.210E+01 0.790E+00 0.214E+01   -.723E-01 0.697E-01 -.133E+00
   -.181E+03 -.298E+03 -.391E+04   0.187E+03 0.300E+03 0.391E+04   -.564E+01 -.255E+01 -.448E+01   -.140E+00 0.145E+00 0.111E+00
   0.153E+03 -.757E+01 -.404E+04   -.157E+03 0.666E+01 0.405E+04   0.306E+01 0.901E+00 -.508E+01   0.755E-01 0.858E-02 0.874E-01
   -.265E+03 -.503E+03 0.530E+04   0.266E+03 0.510E+03 -.531E+04   0.302E+00 -.551E+01 0.983E+01   0.530E-01 0.215E-01 -.164E+00
   -.147E+03 0.789E+02 -.223E+04   0.149E+03 -.796E+02 0.223E+04   -.672E+00 0.346E+00 -.143E+01   -.269E-01 -.218E-01 0.781E-01
   0.935E+02 0.196E+03 0.176E+04   -.937E+02 -.198E+03 -.176E+04   -.949E+00 0.245E+01 0.314E+01   -.772E-02 -.464E-01 -.983E-01
   -.436E+02 0.941E+02 0.880E+02   0.436E+02 -.955E+02 -.863E+02   0.276E+00 0.147E+01 -.397E+00   0.454E-02 -.504E-01 -.636E-01
   -.779E+02 0.230E+03 -.102E+04   0.772E+02 -.232E+03 0.102E+04   0.493E+00 0.144E+01 0.198E+01   -.393E-01 -.693E-01 0.239E-01
   0.787E+02 0.446E+03 0.221E+04   -.792E+02 -.449E+03 -.222E+04   0.220E+00 0.114E+01 0.710E+00   -.287E-01 0.184E+00 -.637E-01
   0.526E+02 0.138E+03 0.113E+04   -.523E+02 -.139E+03 -.113E+04   -.116E+00 0.160E+01 0.506E+00   -.151E-01 0.394E-01 -.955E-01
   0.386E+02 0.113E+03 -.148E+03   -.388E+02 -.115E+03 0.147E+03   0.390E+00 0.221E+01 0.672E+00   0.477E-01 -.862E-02 -.599E-02
   -.632E+02 0.172E+03 -.150E+04   0.644E+02 -.175E+03 0.150E+04   -.838E+00 0.122E+01 -.773E+00   0.308E+00 0.775E-01 0.825E-01
   -.428E+02 0.867E+02 0.477E+03   0.432E+02 -.880E+02 -.474E+03   -.219E+00 0.118E+01 -.104E+01   -.156E-01 0.709E-02 -.103E+00
   -.146E+02 0.152E+03 -.513E+03   0.154E+02 -.155E+03 0.509E+03   -.878E+00 0.180E+01 0.687E+00   -.449E-01 0.163E-01 -.267E-01
   0.138E+03 0.153E+02 -.203E+04   -.139E+03 -.149E+02 0.204E+04   -.165E+00 -.728E+00 -.828E+00   -.298E-01 0.124E-01 0.821E-01
   -.116E+03 0.965E+02 0.215E+04   0.117E+03 -.100E+03 -.215E+04   -.107E+01 0.266E+01 0.512E+01   0.266E-01 -.147E-01 -.628E-01
   0.209E+03 -.153E+03 0.233E+04   -.212E+03 0.154E+03 -.233E+04   0.220E+01 0.508E+00 0.151E+01   -.989E-02 0.123E-01 -.783E-01
   -.704E+02 -.420E+02 0.820E+03   0.725E+02 0.424E+02 -.817E+03   -.150E+01 -.360E-01 -.117E+00   0.322E-01 0.275E-01 -.589E-01
   -.113E+03 -.106E+03 -.255E+03   0.115E+03 0.109E+03 0.254E+03   -.194E+01 -.263E+01 0.391E+00   0.306E-01 0.582E-01 0.383E-01
   -.731E+02 -.153E+03 -.163E+04   0.745E+02 0.155E+03 0.164E+04   -.630E+00 -.146E+01 -.636E+00   -.106E-01 0.934E-01 0.549E-01
   -.348E+03 -.125E+03 0.191E+04   0.351E+03 0.127E+03 -.191E+04   -.698E+00 -.680E+00 0.107E+01   -.161E+00 -.663E-01 -.149E+00
   -.110E+03 -.619E+02 0.600E+03   0.112E+03 0.632E+02 -.601E+03   -.220E+01 -.174E+01 0.948E+00   -.197E-01 -.150E-01 -.104E+00
   -.793E+02 -.431E+02 -.588E+03   0.806E+02 0.442E+02 0.586E+03   -.168E+01 -.829E+00 0.201E+00   0.346E-01 -.628E-01 -.271E-01
   -.869E+02 -.709E+01 -.201E+04   0.888E+02 0.722E+01 0.202E+04   -.122E+01 0.451E+00 -.174E+01   0.113E+00 -.303E+00 0.149E-01
   -.158E+03 -.133E+03 0.186E+03   0.159E+03 0.135E+03 -.188E+03   -.162E+01 -.168E+01 0.666E+00   -.285E-01 0.112E-01 -.551E-01
   -.119E+03 -.174E+03 -.994E+03   0.120E+03 0.176E+03 0.994E+03   -.907E+00 -.150E+01 0.297E+00   -.238E-01 0.248E-01 0.811E-02
   0.717E+02 0.876E+01 -.210E+04   -.732E+02 -.626E+01 0.210E+04   0.114E+01 -.199E+01 -.204E+01   0.223E-01 0.388E-01 0.964E-01
   -.323E+03 -.102E+03 0.165E+04   0.326E+03 0.103E+03 -.165E+04   -.726E-02 -.467E+00 0.304E+01   -.310E-02 0.676E-02 -.843E-01
   0.744E+02 -.169E+03 0.183E+04   -.762E+02 0.170E+03 -.184E+04   0.124E+01 -.587E+00 0.367E+01   -.361E-01 0.708E-02 -.728E-01
   0.137E+03 -.147E+03 0.437E+03   -.139E+03 0.148E+03 -.435E+03   0.181E+01 -.130E+01 0.402E+00   -.220E-01 0.160E-01 -.685E-01
   0.130E+03 -.201E+03 -.655E+03   -.133E+03 0.205E+03 0.655E+03   0.376E+01 -.275E+01 -.231E+01   0.277E-01 0.274E-01 -.880E-02
   -.484E+02 -.140E+03 -.211E+04   0.491E+02 0.141E+03 0.212E+04   -.826E+00 -.911E+00 -.261E+01   0.443E-01 0.169E-02 0.790E-01
   0.137E+03 -.280E+02 0.919E+02   -.139E+03 0.291E+02 -.917E+02   0.246E+01 -.113E+01 -.288E+00   -.770E-02 -.300E-02 -.842E-01
   0.166E+03 -.383E+01 -.119E+04   -.169E+03 0.569E+01 0.119E+04   0.338E+01 -.170E+01 -.126E+01   -.291E-01 -.135E-01 0.716E-03
   0.119E+03 -.165E+03 -.225E+04   -.122E+03 0.166E+03 0.225E+04   0.142E+01 0.166E+00 -.127E+01   0.568E-01 -.577E-01 0.802E-01
   0.350E+03 0.671E+01 0.146E+04   -.354E+03 -.598E+01 -.146E+04   0.284E+01 0.117E+00 0.195E+01   0.146E+00 -.410E-01 -.217E+00
   0.151E+03 -.271E+03 0.224E+04   -.152E+03 0.273E+03 -.225E+04   -.809E+00 0.424E-01 0.115E+01   0.302E-01 0.226E-01 -.527E-01
   0.306E+03 -.177E+03 0.921E+03   -.310E+03 0.180E+03 -.920E+03   0.278E+01 -.233E+01 0.509E+00   0.275E-01 0.485E-02 -.739E-01
   0.133E+03 -.794E+02 -.311E+03   -.135E+03 0.804E+02 0.311E+03   0.225E+01 -.933E+00 -.390E+00   -.167E-01 -.237E-01 0.970E-01
   -.503E+01 -.723E+02 -.178E+04   0.248E+01 0.739E+02 0.179E+04   0.163E+01 -.133E+01 -.135E+01   -.325E+00 0.157E+00 0.131E+00
   -.233E+02 0.104E+02 -.209E+02   -.101E-11 -.134E-11 -.682E-12   0.232E+02 -.997E+01 0.243E+02   0.225E+00 -.346E+00 -.335E+01

 POSITION                                       TOTAL-FORCE (eV/Angst)
      6.84285      7.49250      2.44401        -0.571916      0.645131      1.889573
      7.82056      6.07621      5.06951        -0.041219      0.056962      0.128856
      8.79827      4.65991      7.69501        -0.244348      0.893643     -0.708345
      2.61774      3.87870      3.31918         0.284587     -1.240603      2.505928
      3.59545      2.46241      5.94468        -0.050935     -0.372464     -0.231018
      4.57317      1.04611      8.57018         0.377569     -0.209732     -0.332827
     12.14615      5.61190      1.94247        -0.229812     -0.228669     -0.706111
      7.91249      2.01325      2.84481        -0.385684     -0.226388     -0.659153
      8.47237      0.26490      4.19434         0.342186     -0.964646      1.271313
     13.02338      8.27371      6.81985        -0.095642      1.018845     -0.550697
      5.63901      5.20932      2.15407        -0.095997     -0.644603     -1.021209
      6.61816      3.96023      4.37584        -0.090082      0.256977      0.034454
      7.59587      2.54394      7.00134        -0.141032     -0.619487     -1.573576
      8.14197      1.29766      9.15349        -1.264201     -0.362854      0.665283
      1.41534      1.76273      2.62550        -0.878638     -0.702823      1.849583
      2.39305      0.34643      5.25100         0.200781      0.182065     -0.071596
      6.94406      8.35524      7.87651        -0.189694      0.235139     -1.910075
      7.15988      6.90742      9.76197         0.379965     -0.515934      0.760783
      2.03373      3.42115      0.82346        -0.429855      0.937599     -1.713566
      2.54738      4.39965      8.43242        -0.338952      0.268898      1.301026
      9.34299      7.96503      1.60760        -0.006987     -0.891293      0.441831
     10.84326      7.57403      3.50067         0.159333     -0.187167      0.605199
     11.82097      6.15773      6.12617        -0.250685     -0.346661     -0.744828
      0.85742      1.80103      8.47840         1.180998     -0.335310      0.007519
      8.07905      5.59639      1.47812         0.494274     -1.119041     -0.647973
      9.02296      4.33443      3.68216         0.187874     -0.171666     -0.138809
     10.00068      2.91813      6.30767         0.076858     -0.140775     -1.102597
      3.82015      2.13692      1.93183         1.803617     -0.813224      1.609852
      4.79786      0.72063      4.55733        -0.150233     -0.023331      0.060981
      9.34887      8.72943      7.18283        -0.706900      0.380011     -2.240666
     10.66650      7.39838      8.54965         0.219822     -0.182259      1.042822
      3.16834      7.94822      2.80700        -0.141347      0.032461      0.373504
      4.14605      6.53193      5.43250         0.403369     -0.091236     -0.851022
      4.42688      5.93443      7.91519         0.454370     -0.177505      0.867979
      5.73009      3.73028      8.21799        -0.360939      0.001380      0.157099
      7.75012      0.01871      1.49785         1.016977      0.937849     -0.788635
      9.87765      1.44414     10.14807         0.773816     -0.428384      2.919211
      7.35546      3.82659      2.24358        -1.105724      0.492317     -1.674082
      8.33317      2.41029      4.86908         0.345438     -0.010092      1.213749
      9.31088      0.99399      7.49458        -0.297264     -1.036980     -2.099307
      2.29233      1.42594      0.79158        -0.334686     -2.168114     -3.473064
      3.13035      0.21279      3.11874         0.230535      0.130677      0.160861
      7.68136      8.22159      5.74425         0.197790     -0.008879     -0.566958
      8.65907      6.80530      8.36975         0.611035     -1.606277     -0.340194
      2.47854      6.02409      3.99391         0.160893     -0.088729      1.215668
      3.45626      4.60779      6.61941        -0.177690     -1.061223     -3.496028
      3.98058      3.00210      9.03864        -0.535555     -0.374429      2.864134
     11.58056      7.44039      1.36841         0.056694     -1.343949     -2.028635
      7.65634      7.36651      0.57091        -0.586549      0.950850     -3.599280
      8.88655      6.52099      3.12687         0.605690      0.383597      2.469299
      9.86427      5.10469      5.75238        -0.090611      0.315716     -0.578222
     10.65787      3.81252      8.12553         0.732814      0.437444      1.335637
      3.78012      4.26496      1.57683         1.432334      0.931176     -1.765990
      4.66145      2.90719      4.00204        -0.000690     -0.395249      0.193688
      5.63916      1.49089      6.62754        -0.355496      0.209919     -1.082253
     10.09037      9.39438      8.99583         0.811653      0.276664      2.113739
      4.00964      8.71849      4.87721        -0.343849      0.279732     -0.591849
      5.02662      7.70829      7.06601         0.546649      0.182061      0.558681
      5.77065      5.47572      9.40527        -0.373016      0.546813      2.208914
      9.53836      0.70969      2.25171         2.543981      0.689238      0.218576
      4.85722      7.15637      1.82725        -0.565560      0.798310     -2.188521
      5.82436      6.04450      4.01017         0.449626      0.458684      2.700847
      6.80207      4.62821      6.63567         0.668512      0.647250     -2.085958
      7.70058      3.31968      8.93727        -0.049177      0.667080      2.585500
      1.59925      2.43070      4.88534         0.023501     -0.035643     -0.148734
      2.57697      1.01441      7.51084         0.307452      0.142203     -1.232001
      7.32810      8.95143      9.78048        -1.137328      0.774710      3.539545
     10.70128      3.84700      2.25984        -1.091232      0.800009      0.142901
      9.72743      9.42469      0.25688        -1.604169      2.095716     -3.302489
      6.47617      0.23320      3.13500        -1.563465      0.604539      2.174435
     11.02718      8.24201      5.76051         0.051337      0.049487     -0.247129
     12.49638      6.60509      8.11896        -1.255172      0.414465      2.304428
    total drift:                                0.104810      0.070418      0.020332

  FREE ENERGIE OF THE ION-ELECTRON SYSTEM (eV)
  free  energy   TOTEN  =      -349.82088268 eV

  energy  without entropy=     -348.80317916  energy(sigma->0) =     -349.31203092