 vasp.6.1.0 28Jan20 (build Mar 31 2020 17:42:31) gamma-only

 executed on             LinuxIFC date 2020.04.11  20:49:55

 INCAR:
 POTCAR:    PAW_PBE Ni_pv 06Sep2000
 POTCAR:    PAW_PBE S 06Sep2000
 POTCAR:    PAW_PBE Ni_pv 06Sep2000
   VRHFIN =Ni:

   TITEL  = PAW_PBE Ni_pv 06Sep2000
   POMASS =   58.690; ZVAL   =   16.000    mass and valenz
   ENMAX  =  367.986; ENMIN  =  275.989 eV

 POTCAR:    PAW_PBE S 06Sep2000
   VRHFIN =S : s2p4

   TITEL  = PAW_PBE S 06Sep2000
   POMASS =   32.066; ZVAL   =    6.000    mass and valenz
   ENMAX  =  258.689; ENMIN  =  194.016 eV

 Optimization of the real space projectors (new method)

 maximal supplied QI-value         = 18.90
 optimisation between [QCUT,QGAM] = [ 10.77, 21.73] = [ 32.49,132.25] Ry
 Optimized for a Real-space Cutoff    1.38 Angstroem

   l    n(q)    QCUT    max X(q) W(low)/X(q) W(high)/X(q)  e(spline)
   1      8    10.771     2.836    0.40E-04    0.29E-04    0.12E-06
   1      8    10.771     4.023    0.10E-03    0.48E-04    0.29E-06
   2      8    10.771    73.368    0.42E-03    0.97E-04    0.44E-06
   2      8    10.771    69.010    0.42E-03    0.99E-04    0.45E-06
   0      9    10.771    54.797    0.10E-03    0.56E-04    0.74E-07
   0      9    10.771    24.266    0.89E-04    0.49E-04    0.67E-07
 Optimization of the real space projectors (new method)

 maximal supplied QI-value         = 19.84
 optimisation between [QCUT,QGAM] = [ 10.71, 21.63] = [ 32.15,130.99] Ry
 Optimized for a Real-space Cutoff    1.19 Angstroem

   l    n(q)    QCUT    max X(q) W(low)/X(q) W(high)/X(q)  e(spline)
   0      8    10.715   187.594    0.41E-03    0.53E-04    0.66E-07
   0      8    10.715   164.243    0.41E-03    0.53E-04    0.65E-07
   1      7    10.715    67.533    0.19E-03    0.59E-03    0.68E-07
   1      7    10.715    50.729    0.19E-03    0.58E-03    0.67E-07
  PAW_PBE Ni_pv 06Sep2000               :
  PAW_PBE S 06Sep2000                   :

 POSCAR: Structure 1 made from -111-1.xsd file
  positions in direct lattice
 exchange correlation table for  LEXCH =        8
   RHO(1)=    0.500       N(1)  =     2000
   RHO(2)=  100.500       N(2)  =     4000

 ion  position               nearest neighbor table
   1  0.261  0.479  0.218-  73 2.25  58 2.26  80 2.26  59 2.36  54 2.36   7 2.53  21 2.53
   2  0.355  0.385  0.359-  74 2.25  54 2.26  59 2.26  60 2.36  65 2.36   8 2.53  22 2.53
   3  0.449  0.291  0.501-  52 2.25  60 2.26  65 2.26  17 2.53  23 2.53
   4  0.167  0.073  0.076-  63 2.25  55 2.26  81 2.26  56 2.36  82 2.36  36 2.53  30 2.53
   5  0.056  0.051  0.463-  77 2.25  50 2.26  72 2.26  76 2.36  15 2.53  11 2.53
   6  0.274  0.333  0.039-  55 2.25  57 2.26  58 2.36  51 2.36  12 2.53  28 2.53
   7  0.368  0.239  0.180-  56 2.25  51 2.26  58 2.26  59 2.36  61 2.36   1 2.53  21 2.53
   8  0.462  0.145  0.322-  78 2.25  59 2.26  61 2.26  60 2.36  62 2.36   2 2.53  22 2.53
   9  0.000  0.372  0.180-  58 2.25  63 2.26  92 2.26  66 2.36  49 2.36  13 2.53  19 2.53
  10  0.094  0.278  0.322-  59 2.25  49 2.26  66 2.26  50 2.36  53 2.36  14 2.53  20 2.53
  11  0.188  0.184  0.463-  60 2.25  50 2.26  53 2.26  76 2.36   5 2.53  15 2.53
  12  0.406  0.465  0.039-  69 2.25  79 2.26  51 2.36  80 2.36  28 2.53   6 2.53
  13  0.761  0.479  0.218-  85 2.25  70 2.26  92 2.26  71 2.36  66 2.36  19 2.53   9 2.53
  14  0.855  0.385  0.359-  86 2.25  66 2.26  71 2.26  72 2.36  53 2.36  20 2.53  10 2.53
  15  0.949  0.291  0.501-  64 2.25  72 2.26  53 2.26   5 2.53  11 2.53
  16  0.667  0.073  0.076-  51 2.25  67 2.26  93 2.26  68 2.36  94 2.36  48 2.53  42 2.53
  17  0.556  0.051  0.463-  89 2.25  62 2.26  60 2.26  88 2.36   3 2.53  23 2.53
  18  0.774  0.333  0.039-  67 2.25  69 2.26  70 2.36  63 2.36  24 2.53  40 2.53
  19  0.868  0.239  0.180-  68 2.25  63 2.26  70 2.26  71 2.36  49 2.36  13 2.53   9 2.53
  20  0.962  0.145  0.322-  90 2.25  71 2.26  49 2.26  72 2.36  50 2.36  14 2.53  10 2.53
  21  0.500  0.372  0.180-  70 2.25  51 2.26  80 2.26  54 2.36  61 2.36   1 2.53   7 2.53
  22  0.594  0.278  0.322-  71 2.25  61 2.26  54 2.26  62 2.36  65 2.36   2 2.53   8 2.53
  23  0.688  0.184  0.463-  72 2.25  62 2.26  65 2.26  88 2.36  17 2.53   3 2.53
  24  0.906  0.465  0.039-  57 2.25  91 2.26  63 2.36  92 2.36  40 2.53  18 2.53
  25  0.261  0.979  0.218-  49 2.25  82 2.26  56 2.26  83 2.36  78 2.36  31 2.53  45 2.53
  26  0.355  0.885  0.359-  50 2.25  78 2.26  83 2.26  84 2.36  89 2.36  32 2.53  46 2.53
  27  0.449  0.791  0.501-  76 2.25  84 2.26  89 2.26  41 2.53  47 2.53
  28  0.167  0.573  0.076-  87 2.25  79 2.26  57 2.26  80 2.36  58 2.36  12 2.53   6 2.53
  29  0.056  0.551  0.463-  53 2.25  74 2.26  96 2.26  52 2.36  39 2.53  35 2.53
  30  0.274  0.833  0.039-  79 2.25  81 2.26  82 2.36  75 2.36  36 2.53   4 2.53
  31  0.368  0.739  0.180-  80 2.25  75 2.26  82 2.26  83 2.36  85 2.36  25 2.53  45 2.53
  32  0.462  0.645  0.322-  54 2.25  83 2.26  85 2.26  84 2.36  86 2.36  26 2.53  46 2.53
  33  0.000  0.872  0.180-  82 2.25  87 2.26  68 2.26  90 2.36  73 2.36  37 2.53  43 2.53
  34  0.094  0.778  0.322-  83 2.25  73 2.26  90 2.26  74 2.36  77 2.36  38 2.53  44 2.53
  35  0.188  0.684  0.463-  84 2.25  74 2.26  77 2.26  52 2.36  29 2.53  39 2.53
  36  0.406  0.965  0.039-  93 2.25  55 2.26  75 2.36  56 2.36   4 2.53  30 2.53
  37  0.761  0.979  0.218-  61 2.25  94 2.26  68 2.26  95 2.36  90 2.36  43 2.53  33 2.53
  38  0.855  0.885  0.359-  62 2.25  90 2.26  95 2.26  96 2.36  77 2.36  44 2.53  34 2.53
  39  0.949  0.791  0.501-  88 2.25  96 2.26  77 2.26  29 2.53  35 2.53
  40  0.667  0.573  0.076-  75 2.25  91 2.26  69 2.26  92 2.36  70 2.36  24 2.53  18 2.53
  41  0.556  0.551  0.463-  65 2.25  86 2.26  84 2.26  64 2.36  27 2.53  47 2.53
  42  0.774  0.833  0.039-  91 2.25  93 2.26  94 2.36  87 2.36  48 2.53  16 2.53
  43  0.868  0.739  0.180-  92 2.25  87 2.26  94 2.26  95 2.36  73 2.36  37 2.53  33 2.53
  44  0.962  0.645  0.322-  66 2.25  95 2.26  73 2.26  96 2.36  74 2.36  38 2.53  34 2.53
  45  0.500  0.872  0.180-  94 2.25  75 2.26  56 2.26  78 2.36  85 2.36  25 2.53  31 2.53
  46  0.594  0.778  0.322-  95 2.25  85 2.26  78 2.26  86 2.36  89 2.36  26 2.53  32 2.53
  47  0.688  0.684  0.463-  96 2.25  86 2.26  89 2.26  64 2.36  41 2.53  27 2.53
  48  0.906  0.965  0.039-  81 2.25  67 2.26  87 2.36  68 2.36  16 2.53  42 2.53
  49  0.073  0.167  0.235-  25 2.25  10 2.26  20 2.26   9 2.36  19 2.36
  50  0.167  0.073  0.377-  26 2.25  11 2.26   5 2.26  10 2.36  20 2.36
  51  0.479  0.261  0.094-  16 2.25   7 2.26  21 2.26  12 2.36   6 2.36
  52  0.261  0.479  0.518-   3 2.25  29 2.36  35 2.36
  53  0.030  0.378  0.424-  29 2.25  11 2.26  15 2.26  10 2.36  14 2.36
  54  0.436  0.472  0.283-  32 2.25   2 2.26  22 2.26   1 2.36  21 2.36
  55  0.248  0.160  0.000-   6 2.25   4 2.26  36 2.26
  56  0.342  0.066  0.141-   7 2.25  25 2.26  45 2.26   4 2.36  36 2.36
  57  0.080  0.491  0.000-  24 2.25   6 2.26  28 2.26
  58  0.174  0.397  0.141-   9 2.25   1 2.26   7 2.26   6 2.36  28 2.36
  59  0.268  0.303  0.283-  10 2.25   8 2.26   2 2.26   7 2.36   1 2.36
  60  0.362  0.209  0.424-  11 2.25   3 2.26  17 2.26   8 2.36   2 2.36
[...]
  82  0.174  0.897  0.141-  33 2.25  25 2.26  31 2.26  30 2.36   4 2.36
  83  0.268  0.803  0.283-  34 2.25  32 2.26  26 2.26  31 2.36  25 2.36
  84  0.362  0.709  0.424-  35 2.25  27 2.26  41 2.26  32 2.36  26 2.36
  85  0.573  0.667  0.235-  13 2.25  46 2.26  32 2.26  45 2.36  31 2.36
  86  0.667  0.573  0.377-  14 2.25  47 2.26  41 2.26  46 2.36  32 2.36
  87  0.979  0.761  0.094-  28 2.25  43 2.26  33 2.26  48 2.36  42 2.36
  88  0.761  0.979  0.518-  39 2.25  17 2.36  23 2.36
  89  0.530  0.878  0.424-  17 2.25  47 2.26  27 2.26  46 2.36  26 2.36
  90  0.936  0.972  0.283-  20 2.25  38 2.26  34 2.26  37 2.36  33 2.36
  91  0.748  0.660  0.000-  42 2.25  40 2.26  24 2.26
  92  0.842  0.566  0.141-  43 2.25  13 2.26   9 2.26  40 2.36  24 2.36
  93  0.580  0.991  0.000-  36 2.25  42 2.26  16 2.26
  94  0.674  0.897  0.141-  45 2.25  37 2.26  43 2.26  42 2.36  16 2.36
  95  0.768  0.803  0.283-  46 2.25  44 2.26  38 2.26  43 2.36  37 2.36
  96  0.862  0.709  0.424-  47 2.25  39 2.26  29 2.26  44 2.36  38 2.36

  LATTYP: Found a base centered orthorhombic cell.
 ALAT       =    11.8257374459
 B/A-ratio  =     1.6199260857
 C/A-ratio  =     1.7551931927

  Lattice vectors:

 A1 = (  10.0628203371,   5.0445621212,   0.0000000000)
 A2 = (   0.0000000000, -11.2564630382,   0.0000000000)
 A3 = (   0.0000000000,   0.0000000000, -20.7564538638)

Analysis of symmetry for initial positions (statically):
 Subroutine PRICEL returns following result:

[...]

   4 primitive cells build up your supercell.

 Routine SETGRP: Setting up the symmetry group for a
 base centered orthorhombic supercell.

 Subroutine GETGRP returns: Found  2 space group operations
 (whereof  1 operations were pure point group operations)
 out of a pool of  8 trial point group operations.

The static configuration has the point symmetry C_1 .
 The point group associated with its full space group is C_1h.

Analysis of symmetry for dynamics (positions and initial velocities):
 Subroutine PRICEL returns following result:

  LATTYP: Found a base centered orthorhombic cell.
 ALAT       =     5.9128687230
 B/A-ratio  =     1.6199260857
 C/A-ratio  =     3.5103863854

  Lattice vectors:

 A1 = (   5.0314101685,   2.5222810606,   0.0000000000)
 A2 = (   0.0000000000,  -5.6282315191,   0.0000000000)
 A3 = (   0.0000000000,   0.0000000000, -20.7564538638)

   4 primitive cells build up your supercell.

 Routine SETGRP: Setting up the symmetry group for a
 base centered orthorhombic supercell.

 Subroutine GETGRP returns: Found  2 space group operations
 (whereof  1 operations were pure point group operations)
 out of a pool of  8 trial point group operations.

The dynamic configuration has the point symmetry C_1 .
 The point group associated with its full space group is C_1h.

 Subroutine INISYM returns: Found  2 space group operations
 (whereof  1 operations are pure point group operations),
 and found     4 'primitive' translations

                                     Primitive cell

  volume of cell :     587.7800

  direct lattice vectors                    reciprocal lattice vectors
     5.031410169  2.522281061  0.000000000     0.198751437  0.000000000  0.000000000
     0.000000000 -5.628231519  0.000000000     0.089070072 -0.177675704  0.000000000
     0.000000000  0.000000000-20.756453864     0.000000000  0.000000000 -0.048177786

  length of vectors
     5.628231519  5.628231519 20.756453864     0.198751437  0.198751437  0.048177786

  position of ions in fractional coordinates (direct lattice)
     0.521841388  0.042439278  0.782205354
     0.709761122  0.230359010  0.640752581
     0.897680854  0.418278744  0.499299807
     0.548478126  0.333282008  0.961030798
     0.736397860  0.521201742  0.819578025
     0.812684118  0.069076016  0.961030798
     0.000603882  0.256995748  0.819578025
     0.333921656  0.854519516  0.923658127
     0.112237356  0.897041206  0.536672479
     0.188523614  0.444915482  0.678125252
     0.376443348  0.632835214  0.536672479
     0.924317592  0.709121474  0.678125252
     0.957835506  0.478433394  0.906136183
[...]
     0.000000000  0.000000000 20.756453864     0.000000000  0.000000000  0.048177786

  length of vectors
    11.256463038 11.256463038 20.756453864     0.099375718  0.099375718  0.048177786

 FORCES acting on ions
    electron-ion (+dipol)            ewald-force                    non-local-force                 convergence-correction
   0.398E+03 -.246E+03 0.616E+03   -.399E+03 0.246E+03 -.615E+03   0.100E+01 -.619E+00 0.905E+00   -.819E-01 0.505E-01 -.156E+01
   0.399E+03 -.246E+03 -.231E+04   -.400E+03 0.247E+03 0.231E+04   0.120E+01 -.742E+00 0.499E+00   0.693E-01 -.428E-01 -.485E+00
   0.262E+03 -.162E+03 -.499E+04   -.265E+03 0.163E+03 0.498E+04   0.140E+01 -.866E+00 0.586E+01   -.103E+00 0.633E-01 0.767E+00
   0.422E+03 -.261E+03 0.360E+04   -.424E+03 0.262E+03 -.361E+04   0.120E+01 -.740E+00 0.359E+01   0.284E+00 -.175E+00 -.108E+01
   0.250E+02 0.510E+03 -.427E+04   -.223E+02 -.509E+03 0.427E+04   -.172E+01 -.994E+00 -.142E+00   -.224E+00 0.381E-01 0.417E+00
   -.492E+02 0.411E+03 0.454E+04   0.464E+02 -.414E+03 -.454E+04   0.199E+01 0.242E+01 0.242E+01   0.289E-01 0.288E+00 -.504E+00
   0.140E+02 0.512E+03 0.166E+04   -.148E+02 -.513E+03 -.166E+04   0.606E+00 0.881E+00 0.129E+01   -.564E-02 -.654E-01 -.168E+01
   0.160E+02 0.515E+03 -.127E+04   -.162E+02 -.516E+03 0.127E+04   0.364E+00 0.985E+00 0.132E+01   -.553E-01 -.253E-01 -.948E+00
   -.451E+03 -.242E+03 0.166E+04   0.452E+03 0.243E+03 -.166E+04   -.516E+00 -.937E+00 0.129E+01   0.559E-01 0.343E-01 -.168E+01
   -.453E+03 -.245E+03 -.127E+04   0.454E+03 0.246E+03 0.127E+04   -.718E+00 -.767E+00 0.132E+01   -.217E-02 0.608E-01 -.948E+00
   -.445E+03 -.251E+03 -.427E+04   0.445E+03 0.248E+03 0.427E+04   0.117E+00 0.199E+01 -.142E+00   -.135E+00 0.183E+00 0.417E+00
   -.389E+03 -.140E+03 0.454E+04   0.391E+03 0.144E+03 -.454E+04   -.127E+01 -.287E+01 0.242E+01   -.245E+00 -.155E+00 -.504E+00
   0.398E+03 -.246E+03 0.616E+03   -.399E+03 0.246E+03 -.615E+03   0.100E+01 -.619E+00 0.905E+00   -.819E-01 0.505E-01 -.156E+01
   0.399E+03 -.246E+03 -.231E+04   -.400E+03 0.247E+03 0.231E+04   0.120E+01 -.742E+00 0.499E+00   0.693E-01 -.428E-01 -.485E+00
   0.262E+03 -.162E+03 -.499E+04   -.265E+03 0.163E+03 0.498E+04   0.140E+01 -.866E+00 0.586E+01   -.103E+00 0.633E-01 0.767E+00
   0.422E+03 -.261E+03 0.360E+04   -.424E+03 0.262E+03 -.361E+04   0.120E+01 -.740E+00 0.359E+01   0.284E+00 -.175E+00 -.108E+01
   0.250E+02 0.510E+03 -.427E+04   -.223E+02 -.509E+03 0.427E+04   -.172E+01 -.994E+00 -.142E+00   -.224E+00 0.381E-01 0.417E+00
   -.492E+02 0.411E+03 0.454E+04   0.464E+02 -.414E+03 -.454E+04   0.199E+01 0.242E+01 0.242E+01   0.289E-01 0.288E+00 -.504E+00
   0.140E+02 0.512E+03 0.166E+04   -.148E+02 -.513E+03 -.166E+04   0.606E+00 0.881E+00 0.129E+01   -.564E-02 -.654E-01 -.168E+01
   0.160E+02 0.515E+03 -.127E+04   -.162E+02 -.516E+03 0.127E+04   0.364E+00 0.985E+00 0.132E+01   -.553E-01 -.253E-01 -.948E+00
   -.451E+03 -.242E+03 0.166E+04   0.452E+03 0.243E+03 -.166E+04   -.516E+00 -.937E+00 0.129E+01   0.559E-01 0.343E-01 -.168E+01
   -.453E+03 -.245E+03 -.127E+04   0.454E+03 0.246E+03 0.127E+04   -.718E+00 -.767E+00 0.132E+01   -.217E-02 0.608E-01 -.948E+00
   -.445E+03 -.251E+03 -.427E+04   0.445E+03 0.248E+03 0.427E+04   0.117E+00 0.199E+01 -.142E+00   -.135E+00 0.183E+00 0.417E+00
   -.389E+03 -.140E+03 0.454E+04   0.391E+03 0.144E+03 -.454E+04   -.127E+01 -.287E+01 0.242E+01   -.245E+00 -.155E+00 -.504E+00
   0.398E+03 -.246E+03 0.616E+03   -.399E+03 0.246E+03 -.615E+03   0.100E+01 -.619E+00 0.905E+00   -.819E-01 0.505E-01 -.156E+01
   0.399E+03 -.246E+03 -.231E+04   -.400E+03 0.247E+03 0.231E+04   0.120E+01 -.742E+00 0.499E+00   0.693E-01 -.428E-01 -.485E+00
   0.262E+03 -.162E+03 -.499E+04   -.265E+03 0.163E+03 0.498E+04   0.140E+01 -.866E+00 0.586E+01   -.103E+00 0.633E-01 0.767E+00
   0.422E+03 -.261E+03 0.360E+04   -.424E+03 0.262E+03 -.361E+04   0.120E+01 -.740E+00 0.359E+01   0.284E+00 -.175E+00 -.108E+01
   0.250E+02 0.510E+03 -.427E+04   -.223E+02 -.509E+03 0.427E+04   -.172E+01 -.994E+00 -.142E+00   -.224E+00 0.381E-01 0.417E+00
   -.492E+02 0.411E+03 0.454E+04   0.464E+02 -.414E+03 -.454E+04   0.199E+01 0.242E+01 0.242E+01   0.289E-01 0.288E+00 -.504E+00
   0.140E+02 0.512E+03 0.166E+04   -.148E+02 -.513E+03 -.166E+04   0.606E+00 0.881E+00 0.129E+01   -.564E-02 -.654E-01 -.168E+01
   0.160E+02 0.515E+03 -.127E+04   -.162E+02 -.516E+03 0.127E+04   0.364E+00 0.985E+00 0.132E+01   -.553E-01 -.253E-01 -.948E+00
   -.451E+03 -.242E+03 0.166E+04   0.452E+03 0.243E+03 -.166E+04   -.516E+00 -.937E+00 0.129E+01   0.559E-01 0.343E-01 -.168E+01
   -.453E+03 -.245E+03 -.127E+04   0.454E+03 0.246E+03 0.127E+04   -.718E+00 -.767E+00 0.132E+01   -.217E-02 0.608E-01 -.948E+00
   -.445E+03 -.251E+03 -.427E+04   0.445E+03 0.248E+03 0.427E+04   0.117E+00 0.199E+01 -.142E+00   -.135E+00 0.183E+00 0.417E+00
   -.389E+03 -.140E+03 0.454E+04   0.391E+03 0.144E+03 -.454E+04   -.127E+01 -.287E+01 0.242E+01   -.245E+00 -.155E+00 -.504E+00
   0.398E+03 -.246E+03 0.616E+03   -.399E+03 0.246E+03 -.615E+03   0.100E+01 -.619E+00 0.905E+00   -.819E-01 0.505E-01 -.156E+01
   0.399E+03 -.246E+03 -.231E+04   -.400E+03 0.247E+03 0.231E+04   0.120E+01 -.742E+00 0.499E+00   0.693E-01 -.428E-01 -.485E+00
   0.262E+03 -.162E+03 -.499E+04   -.265E+03 0.163E+03 0.498E+04   0.140E+01 -.866E+00 0.586E+01   -.103E+00 0.633E-01 0.767E+00
   0.422E+03 -.261E+03 0.360E+04   -.424E+03 0.262E+03 -.361E+04   0.120E+01 -.740E+00 0.359E+01   0.284E+00 -.175E+00 -.108E+01
   0.250E+02 0.510E+03 -.427E+04   -.223E+02 -.509E+03 0.427E+04   -.172E+01 -.994E+00 -.142E+00   -.224E+00 0.381E-01 0.417E+00
   -.492E+02 0.411E+03 0.454E+04   0.464E+02 -.414E+03 -.454E+04   0.199E+01 0.242E+01 0.242E+01   0.289E-01 0.288E+00 -.504E+00
   0.140E+02 0.512E+03 0.166E+04   -.148E+02 -.513E+03 -.166E+04   0.606E+00 0.881E+00 0.129E+01   -.564E-02 -.654E-01 -.168E+01
   0.160E+02 0.515E+03 -.127E+04   -.162E+02 -.516E+03 0.127E+04   0.364E+00 0.985E+00 0.132E+01   -.553E-01 -.253E-01 -.948E+00
   -.451E+03 -.242E+03 0.166E+04   0.452E+03 0.243E+03 -.166E+04   -.516E+00 -.937E+00 0.129E+01   0.559E-01 0.343E-01 -.168E+01
   -.453E+03 -.245E+03 -.127E+04   0.454E+03 0.246E+03 0.127E+04   -.718E+00 -.767E+00 0.132E+01   -.217E-02 0.608E-01 -.948E+00
   -.445E+03 -.251E+03 -.427E+04   0.445E+03 0.248E+03 0.427E+04   0.117E+00 0.199E+01 -.142E+00   -.135E+00 0.183E+00 0.417E+00
   -.389E+03 -.140E+03 0.454E+04   0.391E+03 0.144E+03 -.454E+04   -.127E+01 -.287E+01 0.242E+01   -.245E+00 -.155E+00 -.504E+00
   -.121E+03 0.744E+02 0.274E+03   0.122E+03 -.755E+02 -.275E+03   -.176E+01 0.109E+01 0.181E+01   0.482E-03 -.300E-03 -.536E+00
   -.120E+03 0.738E+02 -.829E+03   0.121E+03 -.748E+02 0.826E+03   -.183E+01 0.113E+01 0.251E+01   0.111E-01 -.684E-02 -.241E+00
   -.125E+03 0.773E+02 0.139E+04   0.127E+03 -.784E+02 -.139E+04   -.205E+01 0.126E+01 0.751E+00   -.489E-01 0.302E-01 -.573E+00
   -.255E+02 0.158E+02 -.190E+04   0.255E+02 -.157E+02 0.190E+04   -.888E+00 0.548E+00 -.355E+01   0.173E+00 -.107E+00 0.350E+00
   -.609E+01 -.174E+03 -.128E+04   0.600E+01 0.177E+03 0.128E+04   0.477E+00 -.288E+01 0.120E+01   -.939E-01 -.846E-01 0.440E-01
   0.235E+01 -.171E+03 -.184E+03   -.248E+01 0.174E+03 0.185E+03   0.119E+00 -.259E+01 0.125E+00   0.217E-01 0.268E-01 -.422E+00
   0.759E+02 -.701E+02 0.195E+04   -.774E+02 0.704E+02 -.195E+04   0.233E+01 -.157E+00 0.561E+01   0.670E-01 -.155E-01 0.720E-01
   0.444E+01 -.169E+03 0.912E+03   -.419E+01 0.172E+03 -.912E+03   -.287E+00 -.281E+01 0.335E+00   -.344E-01 -.304E-01 -.737E+00
   0.967E+02 -.364E+02 0.195E+04   -.977E+02 0.377E+02 -.195E+04   0.118E+01 -.201E+01 0.561E+01   0.439E-01 -.529E-01 0.720E-01
   0.153E+03 0.719E+02 0.912E+03   -.156E+03 -.733E+02 -.912E+03   0.238E+01 0.151E+01 0.335E+00   0.118E-01 0.444E-01 -.737E+00
   0.154E+03 0.746E+02 -.184E+03   -.156E+03 -.756E+02 0.185E+03   0.237E+01 0.105E+01 0.125E+00   -.143E-01 -.314E-01 -.422E+00
   0.153E+03 0.834E+02 -.128E+04   -.155E+03 -.846E+02 0.128E+04   0.279E+01 0.865E+00 0.120E+01   0.335E-01 0.122E+00 0.440E-01
[...]
   0.154E+03 0.746E+02 -.184E+03   -.156E+03 -.756E+02 0.185E+03   0.237E+01 0.105E+01 0.125E+00   -.143E-01 -.314E-01 -.422E+00
   0.153E+03 0.834E+02 -.128E+04   -.155E+03 -.846E+02 0.128E+04   0.279E+01 0.865E+00 0.120E+01   0.335E-01 0.122E+00 0.440E-01
   -.121E+03 0.744E+02 0.274E+03   0.122E+03 -.755E+02 -.275E+03   -.176E+01 0.109E+01 0.181E+01   0.482E-03 -.300E-03 -.536E+00
   -.120E+03 0.738E+02 -.829E+03   0.121E+03 -.748E+02 0.826E+03   -.183E+01 0.113E+01 0.251E+01   0.111E-01 -.684E-02 -.241E+00
   -.125E+03 0.773E+02 0.139E+04   0.127E+03 -.784E+02 -.139E+04   -.205E+01 0.126E+01 0.751E+00   -.489E-01 0.302E-01 -.573E+00
   -.255E+02 0.158E+02 -.190E+04   0.255E+02 -.157E+02 0.190E+04   -.888E+00 0.548E+00 -.355E+01   0.173E+00 -.107E+00 0.350E+00
   -.609E+01 -.174E+03 -.128E+04   0.600E+01 0.177E+03 0.128E+04   0.477E+00 -.288E+01 0.120E+01   -.939E-01 -.846E-01 0.440E-01
   0.235E+01 -.171E+03 -.184E+03   -.248E+01 0.174E+03 0.185E+03   0.119E+00 -.259E+01 0.125E+00   0.217E-01 0.268E-01 -.422E+00
   0.759E+02 -.701E+02 0.195E+04   -.774E+02 0.704E+02 -.195E+04   0.233E+01 -.157E+00 0.561E+01   0.670E-01 -.155E-01 0.720E-01
   0.444E+01 -.169E+03 0.912E+03   -.419E+01 0.172E+03 -.912E+03   -.287E+00 -.281E+01 0.335E+00   -.344E-01 -.304E-01 -.737E+00
   0.967E+02 -.364E+02 0.195E+04   -.977E+02 0.377E+02 -.195E+04   0.118E+01 -.201E+01 0.561E+01   0.439E-01 -.529E-01 0.720E-01
   0.153E+03 0.719E+02 0.912E+03   -.156E+03 -.733E+02 -.912E+03   0.238E+01 0.151E+01 0.335E+00   0.118E-01 0.444E-01 -.737E+00
   0.154E+03 0.746E+02 -.184E+03   -.156E+03 -.756E+02 0.185E+03   0.237E+01 0.105E+01 0.125E+00   -.143E-01 -.314E-01 -.422E+00
   0.153E+03 0.834E+02 -.128E+04   -.155E+03 -.846E+02 0.128E+04   0.279E+01 0.865E+00 0.120E+01   0.335E-01 0.122E+00 0.440E-01
   -.331E+02 0.204E+02 -.103E+03   -.153E-11 -.411E-11 -.337E-10   0.340E+02 -.210E+02 0.147E+03   -.968E+00 0.598E+00 -.435E+02

 POSITION                                       TOTAL-FORCE (eV/Angst)
      2.62560      6.70560      4.52064        -0.006221      0.003840     -0.033428
      3.57110      6.12193      7.45670         0.125260     -0.077325     -0.000403
      4.51660      5.53827     10.39276        -1.039417      0.641645     -1.309433
      1.68010      1.66104      1.58459        -0.051202      0.031608     -0.587155
      0.56471      0.86257      9.61704         0.739096      0.029093     -0.556776
      2.75962      5.13586      0.80886        -0.765835     -0.645496      0.270935
      3.70512      4.55219      3.74492        -0.126676      0.083138     -0.082807
      4.65062      3.96852      6.68098         0.094303     -0.122058      0.021727
      0.00304      4.18332      3.74492        -0.131091      0.075985     -0.082807
      0.94854      3.59965      6.68098         0.151376     -0.029603      0.021727
      1.89404      3.01598      9.61704         0.305216     -0.673760     -0.556776
      4.08895      7.28927      0.80886         0.233840      0.973903      0.270935
      7.65701      9.22789      4.52064        -0.006221      0.003840     -0.033428
      8.60251      8.64422      7.45670         0.125260     -0.077325     -0.000403
      9.54801      8.06055     10.39276        -1.039417      0.641645     -1.309433
      6.71151      4.18332      1.58459        -0.051202      0.031608     -0.587155
      5.59612      3.38485      9.61704         0.739096      0.029093     -0.556776
      7.79103      7.65814      0.80886        -0.765835     -0.645496      0.270935
      8.73653      7.07447      3.74492        -0.126676      0.083138     -0.082807
      9.68203      6.49080      6.68098         0.094303     -0.122058      0.021727
      5.03445      6.70560      3.74492        -0.131091      0.075985     -0.082807
      5.97995      6.12193      6.68098         0.151376     -0.029603      0.021727
      6.92545      5.53827      9.61704         0.305216     -0.673760     -0.556776
      9.12036      9.81155      0.80886         0.233840      0.973903      0.270935
      2.62560     12.33384      4.52064        -0.006221      0.003840     -0.033428
      3.57110     11.75017      7.45670         0.125260     -0.077325     -0.000403
      4.51660     11.16650     10.39276        -1.039417      0.641645     -1.309433
      1.68010      7.28927      1.58459        -0.051202      0.031608     -0.587155
      0.56471      6.49080      9.61704         0.739096      0.029093     -0.556776
      2.75962     10.76409      0.80886        -0.765835     -0.645496      0.270935
      3.70512     10.18042      3.74492        -0.126676      0.083138     -0.082807
      4.65062      9.59675      6.68098         0.094303     -0.122058      0.021727
      0.00304      9.81155      3.74492        -0.131091      0.075985     -0.082807
      0.94854      9.22789      6.68098         0.151376     -0.029603      0.021727
      1.89404      8.64422      9.61704         0.305216     -0.673760     -0.556776
      4.08895     12.91750      0.80886         0.233840      0.973903      0.270935
      7.65701     14.85612      4.52064        -0.006221      0.003840     -0.033428
      8.60251     14.27245      7.45670         0.125260     -0.077325     -0.000403
      9.54801     13.68878     10.39276        -1.039417      0.641645     -1.309433
      6.71151      9.81155      1.58459        -0.051202      0.031608     -0.587155
      5.59612      9.01308      9.61704         0.739096      0.029093     -0.556776
      7.79103     13.28637      0.80886        -0.765835     -0.645496      0.270935
      8.73653     12.70270      3.74492        -0.126676      0.083138     -0.082807
      9.68203     12.11903      6.68098         0.094303     -0.122058      0.021727
      5.03445     12.33384      3.74492        -0.131091      0.075985     -0.082807
      5.97995     11.75017      6.68098         0.151376     -0.029603      0.021727
      6.92545     11.16650      9.61704         0.305216     -0.673760     -0.556776
      9.12036     15.43979      0.80886         0.233840      0.973903      0.270935
      0.73335      2.24548      4.88434         0.010219     -0.006309      0.011964
      1.67886      1.66181      7.82040        -0.210981      0.130241      0.024096
      4.81926      5.35143      1.94828        -0.299755      0.185042     -1.127849
      2.62436      6.70637     10.75645        -0.780909      0.482065      0.006939
      0.30423      4.40389      8.80817         0.297383     -0.170450      1.105596
      4.39014      7.50984      5.87212         0.007153      0.060081      0.117025
      2.49914      3.04894      0.00000         0.854509      0.109673      0.565326
      3.44464      2.46527      2.93606        -0.074241     -0.202691      0.066608
      0.80642      5.93510      0.00000         0.284904     -0.813046      0.565326
      1.75192      5.35143      2.93606         0.147926      0.157204      0.066608
      2.69742      4.76776      5.87212        -0.050504     -0.033320      0.117025
      3.64293      4.18409      8.80817         0.285647     -0.189461      1.105596
[...]
      1.75192     10.97966      2.93606         0.147926      0.157204      0.066608
      2.69742     10.39599      5.87212        -0.050504     -0.033320      0.117025
      3.64293      9.81232      8.80817         0.285647     -0.189461      1.105596
      5.76476     10.39599      4.88434         0.010219     -0.006309      0.011964
      6.71027      9.81232      7.82040        -0.210981      0.130241      0.024096
      9.85067     13.50194      1.94828        -0.299755      0.185042     -1.127849
      7.65577     14.85688     10.75645        -0.780909      0.482065      0.006939
      5.33564     12.55440      8.80817         0.297383     -0.170450      1.105596
      9.42155     15.66035      5.87212         0.007153      0.060081      0.117025
      7.53055     11.19946      0.00000         0.854509      0.109673      0.565326
      8.47605     10.61579      2.93606        -0.074241     -0.202691      0.066608
      5.83783     14.08561      0.00000         0.284904     -0.813046      0.565326
      6.78333     13.50194      2.93606         0.147926      0.157204      0.066608
      7.72884     12.91827      5.87212        -0.050504     -0.033320      0.117025
      8.67434     12.33460      8.80817         0.285647     -0.189461      1.105596
    total drift:                               -0.139211      0.075879      0.102384

  FREE ENERGIE OF THE ION-ELECTRON SYSTEM (eV)
  free  energy   TOTEN  =      -483.96275981 eV

  energy  without entropy=     -482.61650241  energy(sigma->0) =     -483.28963111