 vasp.6.1.0 28Jan20 (build Mar 31 2020 17:42:31) gamma-only

 executed on             LinuxIFC date 2020.04.12  08:48:23

 INCAR:
 POTCAR:    PAW_PBE Ni_pv 06Sep2000
 POTCAR:    PAW_PBE S 06Sep2000
 POTCAR:    PAW_PBE Ni_pv 06Sep2000
   VRHFIN =Ni:

   TITEL  = PAW_PBE Ni_pv 06Sep2000
   POMASS =   58.690; ZVAL   =   16.000    mass and valenz
   ENMAX  =  367.986; ENMIN  =  275.989 eV

 POTCAR:    PAW_PBE S 06Sep2000
   VRHFIN =S : s2p4

   TITEL  = PAW_PBE S 06Sep2000
   POMASS =   32.066; ZVAL   =    6.000    mass and valenz
   ENMAX  =  258.689; ENMIN  =  194.016 eV

 Optimization of the real space projectors (new method)

 maximal supplied QI-value         = 18.90
 optimisation between [QCUT,QGAM] = [ 10.77, 21.73] = [ 32.49,132.25] Ry
 Optimized for a Real-space Cutoff    1.38 Angstroem

   l    n(q)    QCUT    max X(q) W(low)/X(q) W(high)/X(q)  e(spline)
   1      8    10.771     2.836    0.40E-04    0.29E-04    0.12E-06
   1      8    10.771     4.023    0.10E-03    0.48E-04    0.29E-06
   2      8    10.771    73.368    0.42E-03    0.97E-04    0.44E-06
   2      8    10.771    69.010    0.42E-03    0.99E-04    0.45E-06
   0      9    10.771    54.797    0.10E-03    0.56E-04    0.74E-07
   0      9    10.771    24.266    0.89E-04    0.49E-04    0.67E-07
 Optimization of the real space projectors (new method)

 maximal supplied QI-value         = 19.84
 optimisation between [QCUT,QGAM] = [ 10.71, 21.63] = [ 32.15,130.99] Ry
 Optimized for a Real-space Cutoff    1.19 Angstroem

   l    n(q)    QCUT    max X(q) W(low)/X(q) W(high)/X(q)  e(spline)
   0      8    10.715   187.594    0.41E-03    0.53E-04    0.66E-07
   0      8    10.715   164.243    0.41E-03    0.53E-04    0.65E-07
   1      7    10.715    67.533    0.19E-03    0.59E-03    0.68E-07
   1      7    10.715    50.729    0.19E-03    0.58E-03    0.67E-07
  PAW_PBE Ni_pv 06Sep2000               :
  PAW_PBE S 06Sep2000                   :

 POSCAR: Structure 8 made from -112-10.xsd file
  positions in direct lattice
 exchange correlation table for  LEXCH =        8
   RHO(1)=    0.500       N(1)  =     2000
   RHO(2)=  100.500       N(2)  =     4000

 ion  position               nearest neighbor table
   1  0.780  0.145  0.121-  41 2.25  49 2.26  63 2.26  50 2.36  64 2.36  24 2.53  13 2.53
   2  0.815  0.145  0.311-  42 2.25  50 2.26  64 2.26  25 2.53  14 2.53
   3  0.263  0.645  0.025-  43 2.25  51 2.36  61 2.36  26 2.53  15 2.53
   4  0.297  0.645  0.216-  44 2.25  51 2.26  61 2.26  52 2.36  62 2.36  27 2.53  16 2.53
   5  0.435  0.145  0.057-  45 2.25  53 2.36  67 2.36  29 2.53  17 2.53
   6  0.470  0.145  0.248-  46 2.25  53 2.26  67 2.26  54 2.36  68 2.36  30 2.53  18 2.53
   7  0.952  0.645  0.152-  47 2.25  56 2.26  66 2.26  55 2.36  65 2.36  31 2.53  19 2.53
   8  0.987  0.645  0.343-  48 2.25  55 2.26  65 2.26  32 2.53  20 2.53
   9  0.125  0.145  0.184-  38 2.25  57 2.26  71 2.26  58 2.36  72 2.36  33 2.53  21 2.53
  10  0.159  0.145  0.375-  37 2.25  58 2.26  72 2.26  34 2.53  22 2.53
  11  0.608  0.645  0.089-  39 2.25  59 2.36  69 2.36  35 2.53
  12  0.642  0.645  0.280-  40 2.25  59 2.26  69 2.26  60 2.36  70 2.36  36 2.53  23 2.53
  13  0.908  0.013  0.095-  56 2.25  63 2.26  64 2.36  38 2.36   1 2.53  24 2.53
  14  0.942  0.013  0.286-  55 2.25  64 2.26  38 2.26  37 2.36   2 2.53  25 2.53
  15  0.390  0.513  0.000-  39 2.36  61 2.36   3 2.53  26 2.53
  16  0.425  0.513  0.191-  53 2.25  39 2.26  61 2.26  40 2.36  62 2.36  27 2.53   4 2.53
  17  0.563  0.013  0.032-  41 2.36  67 2.36   5 2.53  29 2.53
  18  0.597  0.013  0.223-  59 2.25  67 2.26  41 2.26  68 2.36  42 2.36   6 2.53  30 2.53
  19  0.080  0.513  0.127-  57 2.25  43 2.26  66 2.26  44 2.36  65 2.36   7 2.53  31 2.53
  20  0.115  0.513  0.318-  58 2.25  44 2.26  65 2.26   8 2.53  32 2.53
  21  0.252  0.013  0.159-  51 2.25  45 2.26  71 2.26  46 2.36  72 2.36   9 2.53  33 2.53
  22  0.287  0.013  0.350-  52 2.25  46 2.26  72 2.26  10 2.53  34 2.53
  23  0.770  0.513  0.254-  50 2.25  69 2.26  47 2.26  48 2.36  70 2.36  12 2.53  36 2.53
  24  0.908  0.277  0.095-  66 2.25  49 2.26  50 2.36  38 2.36   1 2.53  13 2.53
  25  0.942  0.277  0.286-  65 2.25  50 2.26  38 2.26  37 2.36   2 2.53  14 2.53
  26  0.390  0.777  0.000-  39 2.36  51 2.36   3 2.53  15 2.53
  27  0.425  0.777  0.191-  67 2.25  39 2.26  51 2.26  40 2.36  52 2.36  16 2.53   4 2.53
  28  0.459  0.777  0.382-  68 2.25  40 2.26  52 2.26
  29  0.563  0.277  0.032-  41 2.36  53 2.36   5 2.53  17 2.53
  30  0.597  0.277  0.223-  69 2.25  53 2.26  41 2.26  54 2.36  42 2.36   6 2.53  18 2.53
  31  0.080  0.777  0.127-  71 2.25  43 2.26  56 2.26  44 2.36  55 2.36   7 2.53  19 2.53
  32  0.115  0.777  0.318-  72 2.25  44 2.26  55 2.26   8 2.53  20 2.53
  33  0.252  0.277  0.159-  61 2.25  45 2.26  57 2.26  46 2.36  58 2.36   9 2.53  21 2.53
  34  0.287  0.277  0.350-  62 2.25  46 2.26  58 2.26  10 2.53  22 2.53
  35  0.735  0.777  0.064-  63 2.25  59 2.36  47 2.36  11 2.53
  36  0.770  0.777  0.254-  64 2.25  59 2.26  47 2.26  48 2.36  60 2.36  12 2.53  23 2.53
  37  0.026  0.145  0.373-  10 2.25  14 2.36  25 2.36
  38  0.991  0.145  0.182-   9 2.25  14 2.26  25 2.26  24 2.36  13 2.36
  39  0.474  0.645  0.087-  11 2.25  16 2.26  27 2.26  26 2.36  15 2.36
  40  0.509  0.645  0.278-  12 2.25  28 2.26  27 2.36  16 2.36
  41  0.647  0.145  0.119-   1 2.25  18 2.26  30 2.26  29 2.36  17 2.36
  42  0.681  0.145  0.310-   2 2.25  18 2.36  30 2.36
  43  0.129  0.645  0.023-   3 2.25  19 2.26  31 2.26
  44  0.164  0.645  0.214-   4 2.25  20 2.26  32 2.26  31 2.36  19 2.36
  45  0.302  0.145  0.055-   5 2.25  21 2.26  33 2.26
  46  0.336  0.145  0.246-   6 2.25  22 2.26  34 2.26  33 2.36  21 2.36
  47  0.819  0.645  0.151-   7 2.25  23 2.26  36 2.26  35 2.36
  48  0.854  0.645  0.341-   8 2.25  23 2.36  36 2.36
  49  0.794  0.314  0.024-   1 2.26  24 2.26
  50  0.829  0.314  0.214-  23 2.25  25 2.26   2 2.26  24 2.36   1 2.36
  51  0.312  0.814  0.119-  21 2.25   4 2.26  27 2.26  26 2.36   3 2.36
  52  0.346  0.814  0.310-  22 2.25  28 2.26   4 2.36  27 2.36
  53  0.484  0.314  0.151-  16 2.25  30 2.26   6 2.26  29 2.36   5 2.36
  54  0.519  0.314  0.342-  30 2.36   6 2.36
  55  0.001  0.814  0.246-  14 2.25   8 2.26  32 2.26   7 2.36  31 2.36
  56  0.967  0.814  0.056-  13 2.25   7 2.26  31 2.26
  57  0.139  0.314  0.087-  19 2.25  33 2.26   9 2.26
  58  0.174  0.314  0.278-  20 2.25  10 2.26  34 2.26   9 2.36  33 2.36
  59  0.657  0.814  0.183-  18 2.25  36 2.26  12 2.26  35 2.36  11 2.36
  60  0.691  0.814  0.373-  36 2.36  12 2.36
  61  0.312  0.477  0.119-  33 2.25   4 2.26  16 2.26  15 2.36   3 2.36
  62  0.346  0.477  0.310-  34 2.25   4 2.36  16 2.36
  63  0.794  0.977  0.024-  35 2.25   1 2.26  13 2.26
  64  0.829  0.977  0.214-  36 2.25  14 2.26   2 2.26  13 2.36   1 2.36
  65  0.001  0.477  0.246-  25 2.25   8 2.26  20 2.26   7 2.36  19 2.36
  66  0.967  0.477  0.056-  24 2.25   7 2.26  19 2.26
  67  0.484  0.977  0.151-  27 2.25  18 2.26   6 2.26  17 2.36   5 2.36
  68  0.519  0.977  0.342-  28 2.25  18 2.36   6 2.36
  69  0.657  0.477  0.183-  30 2.25  23 2.26  12 2.26  11 2.36
  70  0.691  0.477  0.373-  23 2.36  12 2.36
  71  0.139  0.977  0.087-  31 2.25  21 2.26   9 2.26
  72  0.174  0.977  0.278-  32 2.25  10 2.26  22 2.26   9 2.36  21 2.36

  LATTYP: Found a simple orthorhombic cell.
 ALAT       =     9.5784100000
 B/A-ratio  =     1.6880763216
 C/A-ratio  =     1.7627867312

  Lattice vectors:

 A1 = (   0.0000000000,   9.5784100000,   0.0000000000)
 A2 = (   0.0000000000,   0.0000000000, -16.1690871197)
 A3 = ( -16.8846940542,   0.0000000000,   0.0000000000)

Analysis of symmetry for initial positions (statically):
 Subroutine PRICEL returns:
 Original cell was already a primitive cell.

 Routine SETGRP: Setting up the symmetry group for a
 simple orthorhombic supercell.

 Subroutine GETGRP returns: Found  1 space group operations
 (whereof  1 operations were pure point group operations)
 out of a pool of  8 trial point group operations.

The static configuration has the point symmetry C_1 .

Analysis of symmetry for dynamics (positions and initial velocities):
 Subroutine PRICEL returns:
 Original cell was already a primitive cell.

 Routine SETGRP: Setting up the symmetry group for a
 simple orthorhombic supercell.

 Subroutine GETGRP returns: Found  1 space group operations
 (whereof  1 operations were pure point group operations)
 out of a pool of  8 trial point group operations.

The dynamic configuration has the point symmetry C_1 .

 Subroutine INISYM returns: Found  1 space group operations
 (whereof  1 operations are pure point group operations),
 and found     1 'primitive' translations

                                     Primitive cell

  volume of cell :    2615.0026

  direct lattice vectors                    reciprocal lattice vectors
    16.884694054  0.000000000  0.000000000     0.059225237  0.000000000  0.000000000
     0.000000000  9.578410000  0.000000000     0.000000000  0.104401461  0.000000000
     0.000000000  0.000000000 16.169087120     0.000000000  0.000000000  0.061846411

  length of vectors
    16.884694054  9.578410000 16.169087120     0.059225237  0.104401461  0.061846411

  position of ions in fractional coordinates (direct lattice)
     0.780046307  0.145296954  0.120584992
     0.814614264  0.145296954  0.311352939
     0.262762328  0.645296954  0.025201018
     0.297330285  0.645296954  0.215968965
     0.435190321  0.145296954  0.056995676
     0.469758278  0.145296954  0.247763623
     0.952474300  0.645296954  0.152379650
     0.987042257  0.645296954  0.343147597
     0.124902293  0.145296954  0.184174308
     0.159470250  0.145296954  0.374942255
     0.607618314  0.645296954  0.088790334
     0.642186271  0.645296954  0.279558281
     0.907582776  0.013193954  0.095383974
     0.942150733  0.013193954  0.286151921
     0.390298797  0.513193954  0.000000000
     0.424866755  0.513193954  0.190767947
     0.562726790  0.013193954  0.031794658
     0.597294747  0.013193954  0.222562605
     0.080010769  0.513193954  0.127178632
     0.114578726  0.513193954  0.317946579
     0.252438762  0.013193954  0.158973289
     0.287006719  0.013193954  0.349741237
     0.769722740  0.513193954  0.254357263
     0.907582776  0.277399954  0.095383974
     0.942150733  0.277399954  0.286151921
     0.390298797  0.777399954  0.000000000
     0.424866755  0.777399954  0.190767947
     0.459434712  0.777399954  0.381535895
     0.562726790  0.277399954  0.031794658
     0.597294747  0.277399954  0.222562605
     0.080010769  0.777399954  0.127178632
     0.114578726  0.777399954  0.317946579
     0.252438762  0.277399954  0.158973289
     0.287006719  0.277399954  0.349741237
     0.735154783  0.777399954  0.063589316
     0.769722740  0.777399954  0.254357263
     0.026029163  0.145296954  0.373177651
     0.991461206  0.145296954  0.182409704
     0.474177227  0.645296954  0.087025730
     0.508745184  0.645296954  0.277793678
     0.646605220  0.145296954  0.118820388
     0.681173177  0.145296954  0.309588336
     0.129321241  0.645296954  0.023436415
     0.163889198  0.645296954  0.214204362
     0.301749234  0.145296954  0.055231073
[...]
  Fock        0.00000     0.00000     0.00000     0.00000     0.00000     0.00000
  Total     -43.10478   -41.77701   -61.49444     0.21882     2.45592   -11.50284
  in kB     -26.40973   -25.59622   -37.67683     0.13407     1.50471    -7.04764

 VOLUME and BASIS-vectors are now :
  energy-cutoff  :      450.00
  volume of cell :     2615.00
      direct lattice vectors                 reciprocal lattice vectors
    16.884694054  0.000000000  0.000000000     0.059225237  0.000000000  0.000000000
     0.000000000  9.578410000  0.000000000     0.000000000  0.104401461  0.000000000
     0.000000000  0.000000000 16.169087120     0.000000000  0.000000000  0.061846411

  length of vectors
    16.884694054  9.578410000 16.169087120     0.059225237  0.104401461  0.061846411

 FORCES acting on ions
    electron-ion (+dipol)            ewald-force                    non-local-force                 convergence-correction
   0.417E+03 -.170E+03 0.149E+04   -.418E+03 0.171E+03 -.149E+04   0.127E+01 -.800E+00 0.533E+01   -.535E-01 0.880E-02 -.154E-01
   0.549E+03 -.385E+02 -.273E+04   -.550E+03 0.382E+02 0.273E+04   0.354E+00 0.241E+00 0.658E+01   -.871E-02 0.384E-02 -.323E-02
   0.787E+03 0.894E+01 0.296E+04   -.789E+03 -.919E+01 -.296E+04   0.221E+01 0.225E+00 -.194E+01   0.501E-01 0.894E-02 -.230E-01
   0.442E+03 0.552E+02 -.893E+03   -.443E+03 -.566E+02 0.895E+03   0.891E+00 0.115E+01 -.212E+01   0.421E-02 -.696E-02 -.320E-01
   0.487E+03 -.316E+02 0.257E+04   -.490E+03 0.316E+02 -.257E+04   0.236E+01 0.849E-01 -.111E+01   0.857E-01 0.330E-01 -.439E-01
   0.209E+03 -.120E+03 -.156E+04   -.209E+03 0.121E+03 0.156E+04   0.367E+00 -.116E+01 -.425E+01   0.119E-01 0.151E-01 -.576E-01
   0.707E+03 0.505E+02 0.109E+04   -.710E+03 -.504E+02 -.109E+04   0.278E+01 -.566E-01 0.369E+01   -.149E-02 -.103E-02 -.626E-02
   0.616E+03 0.112E+02 -.306E+04   -.616E+03 -.113E+02 0.305E+04   -.832E+00 0.652E-01 0.599E+01   0.308E-01 0.188E-03 -.750E-02
   0.655E+03 -.113E+02 0.590E+03   -.657E+03 0.113E+02 -.595E+03   0.199E+01 -.443E-01 0.413E+01   0.699E-02 0.164E-02 -.168E-01
   0.514E+03 -.185E+02 -.330E+04   -.514E+03 0.183E+02 0.329E+04   -.617E+00 0.128E+00 0.553E+01   0.621E-02 0.573E-02 0.107E-02
   -.216E+03 0.281E+03 0.221E+04   0.216E+03 -.280E+03 -.220E+04   -.755E+00 -.878E+00 -.403E+01   -.240E-01 -.227E-01 -.369E-01
   0.338E+03 0.125E+03 -.197E+04   -.339E+03 -.125E+03 0.198E+04   0.975E+00 0.665E+00 -.388E+01   -.128E-01 -.132E-01 -.273E-01
   -.358E+03 0.307E+03 0.232E+04   0.357E+03 -.312E+03 -.232E+04   0.131E+00 0.355E+01 0.184E+01   -.162E-01 -.170E-02 -.633E-02
   0.214E+02 0.435E+03 -.200E+04   -.195E+02 -.433E+03 0.200E+04   -.126E+01 -.236E+01 -.268E+00   -.107E-01 0.540E-02 0.460E-02
   -.227E+03 0.638E+03 0.326E+04   0.223E+03 -.628E+03 -.325E+04   0.378E+01 -.959E+01 -.622E+01   0.228E-01 0.882E-02 -.216E-02
   -.428E+03 0.468E+03 -.347E+03   0.427E+03 -.470E+03 0.349E+03   0.611E-02 0.178E+01 -.178E+01   0.115E-01 -.201E-01 -.502E-01
   -.499E+03 0.501E+03 0.303E+04   0.494E+03 -.492E+03 -.302E+04   0.498E+01 -.882E+01 -.604E+01   -.301E-01 0.877E-01 -.143E-01
   -.467E+03 0.355E+03 -.926E+03   0.468E+03 -.356E+03 0.929E+03   -.878E+00 0.121E+01 -.215E+01   -.116E-01 0.221E-01 -.568E-01
   -.572E+01 0.522E+03 0.169E+04   0.677E+01 -.525E+03 -.169E+04   -.866E+00 0.304E+01 0.453E+01   0.259E-01 0.375E-02 -.764E-02
   -.222E+03 0.309E+03 -.258E+04   0.219E+03 -.305E+03 0.257E+04   0.238E+01 -.409E+01 0.475E+01   0.190E-01 0.206E-01 -.289E-02
   -.361E+02 0.347E+03 0.104E+04   0.356E+02 -.348E+03 -.104E+04   0.532E+00 0.600E+00 0.436E+01   0.329E-01 -.134E-01 -.367E-01
   -.413E+03 0.478E+03 -.296E+04   0.410E+03 -.475E+03 0.296E+04   0.253E+01 -.300E+01 0.458E+01   0.135E-01 -.445E-02 -.603E-02
   -.200E+03 0.463E+03 -.117E+04   0.200E+03 -.464E+03 0.117E+04   0.404E+00 0.981E+00 -.216E+01   -.165E-01 -.804E-02 -.171E-01
   -.247E+03 -.433E+03 0.234E+04   0.245E+03 0.437E+03 -.234E+04   0.117E+01 -.311E+01 0.307E+01   -.190E-01 0.491E-02 -.994E-02
   0.421E+02 -.465E+03 -.198E+04   -.402E+02 0.462E+03 0.198E+04   -.132E+01 0.243E+01 -.375E+00   -.114E-01 -.362E-02 0.392E-02
   -.209E+03 -.615E+03 0.327E+04   0.205E+03 0.604E+03 -.327E+04   0.414E+01 0.983E+01 -.626E+01   0.471E-02 -.443E-02 -.107E-01
   -.372E+03 -.353E+03 -.171E+03   0.373E+03 0.354E+03 0.172E+03   -.938E+00 -.128E+01 -.677E+00   0.107E-02 0.727E-03 -.571E-01
   -.205E+03 0.187E+03 -.329E+04   0.204E+03 -.184E+03 0.328E+04   0.823E+00 -.235E+01 0.128E+02   -.759E-03 -.357E-02 -.751E-02
   -.607E+03 -.639E+03 0.299E+04   0.600E+03 0.629E+03 -.299E+04   0.589E+01 0.936E+01 -.609E+01   -.268E-01 -.142E-01 -.193E-01
   -.468E+03 -.519E+03 -.925E+03   0.468E+03 0.521E+03 0.929E+03   -.506E+00 -.245E+01 -.331E+01   -.191E-01 0.858E-03 -.797E-01
   -.182E+02 -.504E+03 0.169E+04   0.192E+02 0.508E+03 -.169E+04   -.753E+00 -.306E+01 0.452E+01   0.274E-01 -.551E-02 -.709E-02
   -.210E+03 -.292E+03 -.258E+04   0.207E+03 0.288E+03 0.257E+04   0.252E+01 0.405E+01 0.474E+01   0.158E-01 -.221E-01 -.195E-02
   -.569E+02 -.376E+03 0.102E+04   0.563E+02 0.377E+03 -.102E+04   0.619E+00 -.669E+00 0.436E+01   0.349E-01 0.144E-01 -.289E-01
   -.525E+03 -.602E+03 -.298E+04   0.522E+03 0.601E+03 0.298E+04   0.225E+01 0.177E+01 0.543E+01   0.190E-01 0.227E-01 -.595E-02
   -.330E+03 0.204E+03 0.272E+04   0.332E+03 -.199E+03 -.272E+04   -.202E+01 -.424E+01 -.396E+01   -.325E-01 0.355E-02 -.127E-01
   -.253E+03 -.347E+03 -.134E+04   0.254E+03 0.348E+03 0.135E+04   -.393E+00 -.606E+00 -.275E+01   -.732E-02 0.265E-02 -.232E-01
   0.117E+03 -.312E+01 -.126E+04   -.117E+03 0.316E+01 0.127E+04   -.594E+00 -.193E-01 -.371E+01   -.742E-02 0.462E-03 -.137E-02
   -.124E+03 -.885E+01 0.286E+03   0.127E+03 0.871E+01 -.287E+03   -.276E+01 0.137E+00 -.274E+00   -.847E-03 0.101E-02 0.238E-02
   -.286E+03 0.212E+02 0.782E+03   0.290E+03 -.213E+02 -.781E+03   -.284E+01 0.134E-01 -.196E+01   -.768E-02 -.293E-02 -.227E-01
   -.136E+03 0.148E+03 -.743E+03   0.137E+03 -.149E+03 0.745E+03   -.713E+00 0.180E+01 -.128E+01   0.638E-04 -.663E-02 -.128E-01
   -.255E+03 -.554E+02 0.606E+03   0.257E+03 0.553E+02 -.606E+03   -.226E+01 0.424E-01 -.659E+00   -.322E-01 0.179E-01 -.349E-01
   -.284E+02 -.262E+02 -.106E+04   0.279E+02 0.262E+02 0.106E+04   0.632E+00 0.379E-01 -.464E+01   0.102E-02 0.343E-02 -.684E-02
   0.141E+03 0.309E+01 0.135E+04   -.142E+03 -.310E+01 -.135E+04   0.224E+01 0.148E-01 0.517E+01   0.190E-01 -.871E-04 -.702E-02
   -.125E+03 0.566E+01 -.881E+02   0.127E+03 -.574E+01 0.878E+02   -.185E+01 0.774E-01 0.145E+01   0.353E-02 -.229E-03 0.553E-02
   0.138E+03 -.504E+01 0.122E+04   -.140E+03 0.505E+01 -.122E+04   0.262E+01 0.755E-02 0.481E+01   0.243E-01 -.390E-03 -.117E-01
   -.199E+03 -.260E+02 -.326E+03   0.201E+03 0.261E+02 0.325E+03   -.192E+01 -.317E-01 0.154E+01   0.860E-02 0.440E-02 -.121E-01
   -.476E+02 0.124E+03 0.574E+03   0.472E+02 -.125E+03 -.576E+03   -.221E-02 0.190E+01 0.215E+01   -.997E-02 0.362E-03 -.613E-02
   0.482E+02 0.104E+02 -.116E+04   -.482E+02 -.104E+02 0.116E+04   -.131E+00 -.969E-01 -.431E+01   -.356E-02 -.335E-03 -.242E-02
   0.100E+03 -.246E+03 0.125E+04   -.102E+03 0.249E+03 -.125E+04   0.235E+01 -.277E+01 0.375E+01   -.211E-01 -.400E-03 -.391E-02
   0.140E+03 -.193E+03 -.107E+03   -.142E+03 0.193E+03 0.108E+03   0.170E+01 -.970E+00 0.266E-01   -.874E-02 -.445E-02 0.277E-03
   0.151E+03 -.188E+03 0.565E+03   -.153E+03 0.190E+03 -.565E+03   0.123E+01 -.181E+01 -.101E+01   0.118E-01 -.680E-02 -.273E-01
   0.653E+02 0.563E+02 -.941E+03   -.668E+02 -.559E+02 0.943E+03   0.202E+01 -.508E+00 -.565E+00   -.190E-02 -.325E-02 -.858E-02
   0.116E+02 -.166E+03 0.269E+03   -.130E+02 0.168E+03 -.269E+03   0.140E+01 -.238E+01 -.142E+01   0.178E-01 -.736E-02 -.483E-01
   -.452E+02 -.144E+03 -.124E+04   0.445E+02 0.146E+03 0.125E+04   0.957E+00 -.319E+01 -.439E+01   -.474E-04 0.166E-02 -.590E-02
   0.158E+03 -.145E+03 -.337E+03   -.159E+03 0.147E+03 0.337E+03   0.151E+01 -.249E+01 0.140E+01   0.817E-02 0.323E-03 0.311E-02
   0.904E+02 -.279E+02 0.125E+04   -.916E+02 0.272E+02 -.125E+04   0.109E+01 0.132E+01 0.571E+01   0.585E-03 -.232E-02 -.641E-02
   0.147E+03 0.399E+02 0.111E+04   -.148E+03 -.410E+02 -.112E+04   0.658E+00 0.113E+01 0.583E+01   0.870E-02 0.414E-02 -.872E-02
   0.111E+03 -.180E+03 -.542E+03   -.113E+03 0.183E+03 0.541E+03   0.221E+01 -.271E+01 0.213E+01   0.335E-02 0.151E-01 -.227E-02
   0.136E+02 -.873E+02 0.108E+03   -.148E+02 0.890E+02 -.107E+03   0.137E+01 -.237E+01 -.163E+01   -.479E-02 0.230E-02 -.146E-01
   -.412E+01 -.141E+03 -.131E+04   0.355E+01 0.143E+03 0.132E+04   0.813E+00 -.318E+01 -.471E+01   -.155E-02 0.103E-02 -.198E-02
   0.141E+03 0.197E+03 0.551E+03   -.142E+03 -.198E+03 -.551E+03   0.128E+01 0.182E+01 -.103E+01   0.111E-01 0.574E-02 -.186E-01
   -.104E+03 -.322E+02 -.104E+04   0.105E+03 0.330E+02 0.105E+04   -.911E+00 -.830E+00 -.348E+01   0.101E-02 -.208E-02 -.635E-02
   -.343E+00 0.469E+02 0.131E+04   -.115E+00 -.471E+02 -.132E+04   0.567E+00 -.516E+00 0.558E+01   -.168E-01 0.184E-02 -.324E-02
   0.106E+03 0.147E+03 -.153E+03   -.108E+03 -.148E+03 0.154E+03   0.184E+01 0.154E+01 0.666E+00   -.826E-02 0.373E-02 0.873E-03
   0.166E+03 0.150E+03 -.332E+03   -.167E+03 -.153E+03 0.331E+03   0.145E+01 0.258E+01 0.143E+01   0.749E-02 -.128E-02 0.241E-02
   0.128E+03 0.416E+02 0.124E+04   -.129E+03 -.407E+02 -.125E+04   0.966E+00 -.151E+01 0.567E+01   0.184E-03 0.110E-02 -.657E-02
   0.265E+02 0.134E+03 0.295E+03   -.276E+02 -.136E+03 -.294E+03   0.113E+01 0.209E+01 -.174E+01   0.299E-02 0.119E-01 -.325E-01
   -.139E+03 -.582E+02 -.118E+04   0.140E+03 0.588E+02 0.119E+04   -.150E+01 -.642E+00 -.378E+01   0.120E-02 0.522E-02 -.481E-02
   -.711E+02 0.119E+03 0.238E+03   0.712E+02 -.120E+03 -.239E+03   -.389E+00 0.209E+01 0.139E+01   -.122E-01 -.100E-01 -.190E-01
   0.313E+02 0.160E+03 -.130E+04   -.318E+02 -.162E+03 0.130E+04   0.819E+00 0.315E+01 -.463E+01   -.400E-02 -.424E-02 -.140E-02
   0.146E+03 -.434E+02 0.111E+04   -.147E+03 0.444E+02 -.112E+04   0.655E+00 -.109E+01 0.571E+01   0.980E-02 -.402E-02 -.912E-02
   0.121E+03 0.172E+03 -.539E+03   -.124E+03 -.175E+03 0.538E+03   0.224E+01 0.260E+01 0.204E+01   -.676E-03 -.150E-01 -.412E-02
   -.523E+02 0.119E+02 -.370E+02   0.188E-11 0.739E-12 -.227E-11   0.521E+02 -.122E+02 0.381E+02   0.121E+00 0.140E+00 -.106E+01

 POSITION                                       TOTAL-FORCE (eV/Angst)
     13.17084      1.39171      1.94975         0.422164      0.102885     -0.680309
     13.75451      1.39171      5.03429        -1.021186     -0.026655     -1.507686
      4.43666      6.18092      0.40748        -0.295715     -0.020880      1.091470
      5.02033      6.18092      3.49202        -0.267797     -0.263758      0.210999
      7.34806      1.39171      0.92157        -0.339012      0.031757      0.886021
      7.93172      1.39171      4.00611        -0.063856      0.056324      0.378870
     16.08224      6.18092      2.46384        -0.268561      0.051396      0.017377
     16.66591      6.18092      5.54838        -0.868339     -0.008374     -1.682461
      2.10894      1.39171      2.97793        -0.185155      0.003124     -0.229343
      2.69261      1.39171      6.06247        -0.596117     -0.010608     -1.566855
     10.25945      6.18092      1.43566         0.010759      0.071245      1.187050
     10.84312      6.18092      4.52020        -0.026073     -0.163283      0.646410
     15.32426      0.12638      1.54227        -0.250849     -0.706443      0.332226
     15.90793      0.12638      4.62682         0.569617      0.312765     -0.442357
      6.59008      4.91558      0.00000         0.011487      0.647733      1.727021
      7.17375      4.91558      3.08454        -0.184894     -0.170505      0.322299
      9.50147      0.12638      0.51409        -0.230864      0.495991      1.594268
     10.08514      0.12638      3.59863         0.146797      0.088135      0.149573
      1.35096      4.91558      2.05636         0.212100     -0.451177     -0.281195
      1.93463      4.91558      5.14091        -0.091481     -0.152901     -1.378565
      4.26235      0.12638      2.57045         0.091861     -0.191232     -0.227160
      4.84602      0.12638      5.65500        -0.189544     -0.225856     -1.496959
     12.99653      4.91558      4.11272         0.191573     -0.021282      0.250814
     15.32426      2.65705      1.54227        -0.561614      0.845111      0.185430
     15.90793      2.65705      4.62682         0.592915     -0.343451     -0.458909
      6.59008      7.44626      0.00000         0.028313     -0.676995      1.700134
      7.17375      7.44626      3.08454         0.083415      0.117227      0.036269
      7.75741      7.44626      6.16909        -0.019248      0.776769     -2.299043
      9.50147      2.65705      0.51409        -0.351517     -0.603858      1.658723
     10.08514      2.65705      3.59863         0.028347     -0.061304      0.400730
      1.35096      7.44626      2.05636         0.277698      0.462948     -0.291500
      1.93463      7.44626      5.14091        -0.103049      0.140177     -1.391788
      4.26235      2.65705      2.57045         0.090372      0.149857     -0.202168
      4.84602      2.65705      5.65500        -0.150116      0.358152     -1.645473
     12.41286      7.44626      1.02818         0.203549      0.661303      1.304096
     12.99653      7.44626      4.11272         0.407331     -0.043470      0.390882
      0.43949      1.39171      6.03394        -1.124804      0.021465      0.015986
     16.74052      1.39171      2.94940        -0.206285     -0.002346     -0.995064
      8.00634      6.18092      1.40713         0.309984     -0.113571     -1.589465
      8.59001      6.18092      4.49167        -0.343219      0.354837      0.914549
     10.91773      1.39171      1.92122        -0.501546     -0.014607     -0.931494
     11.50140      1.39171      5.00576         0.113167      0.046605      0.403860
      2.18355      6.18092      0.37895         1.246896      0.008931      0.175885
      2.76722      6.18092      3.46349         0.081039     -0.005803      1.131194
      5.09494      1.39171      0.89304         1.308127      0.013874     -0.007523
      5.67861      1.39171      3.97758         0.045885      0.033781      0.972576
     13.82913      6.18092      2.43531        -0.359857      0.506443     -0.274901
     14.41279      6.18092      5.51985        -0.133294     -0.075646      0.229725
     13.41477      3.00295      0.38372         0.913058     -0.598923      0.795608
     13.99844      3.00295      3.46826         0.068755     -0.358552      1.083346
      5.26426      7.79215      1.92599        -0.072822     -0.152390     -0.948132
      5.84793      7.79215      5.01054         0.495710     -0.057142      0.827271
      8.17565      3.00295      2.44008         0.075935     -0.246723     -0.833963
      8.75932      3.00295      5.52463         0.247842     -0.801239     -1.332975
      0.02514      7.79215      3.98236         0.104228     -0.195535      0.930182
     16.32617      7.79215      0.89781        -0.055854      0.576095      0.496878
      2.35287      3.00295      1.41190        -0.103701      0.067515      0.496086
      2.93654      3.00295      4.49645         0.087370      0.038186      0.973107
     11.08705      7.79215      2.95417         0.146293     -0.697168     -0.812623
     11.67072      7.79215      6.03872         0.244700     -0.949554     -1.433321
      5.26426      4.56969      1.92599        -0.068299      0.239427     -1.061460
      5.84793      4.56969      5.01054         0.004191      0.044121      0.097209
     13.41477      9.35889      0.38372         0.093746     -0.695463      0.315348
     13.99844      9.35889      3.46826         0.176829      0.486371      1.192491
      0.02514      4.56969      3.98236         0.094700      0.231441      0.972552
     16.32617      4.56969      0.89781        -0.058684     -0.586631      0.448510
      8.17565      9.35889      2.44008         0.054014      0.256076     -0.967690
      8.75932      9.35889      5.52463        -0.139780     -0.009724      0.134539
     11.08705      4.56969      2.95417        -0.307462      0.645058     -0.271154
     11.67072      4.56969      6.03872         0.320512      0.886177     -1.340715
      2.35287      9.35889      1.41190        -0.109268     -0.077077      0.500892
      2.93654      9.35889      4.49645         0.048584     -0.049178      1.003791
    total drift:                               -0.072512     -0.112540      0.013553

  FREE ENERGIE OF THE ION-ELECTRON SYSTEM (eV)
  free  energy   TOTEN  =      -342.96304182 eV

  energy  without entropy=     -341.66680655  energy(sigma->0) =     -342.31492419