 vasp.5.4.4.18Apr17-6-g9f103f2a35 (build Aug 13 2019 17:33:20) gamma-only

 executed on             LinuxIFC date 2020.05.12  06:04:58

 INCAR:
 POTCAR:    PAW_PBE Ni_pv 06Sep2000
 POTCAR:    PAW_PBE S 06Sep2000
 POTCAR:    PAW_PBE Ni_pv 06Sep2000
   VRHFIN =Ni:

   TITEL  = PAW_PBE Ni_pv 06Sep2000
   POMASS =   58.690; ZVAL   =   16.000    mass and valenz
   ENMAX  =  367.986; ENMIN  =  275.989 eV

 POTCAR:    PAW_PBE S 06Sep2000
   VRHFIN =S : s2p4

   TITEL  = PAW_PBE S 06Sep2000
   POMASS =   32.066; ZVAL   =    6.000    mass and valenz
   ENMAX  =  258.689; ENMIN  =  194.016 eV

 Optimization of the real space projectors (new method)

 maximal supplied QI-value         = 18.90
 optimisation between [QCUT,QGAM] = [ 10.77, 21.73] = [ 32.49,132.25] Ry
 Optimized for a Real-space Cutoff    1.38 Angstroem

   l    n(q)    QCUT    max X(q) W(low)/X(q) W(high)/X(q)  e(spline)
   1      8    10.771     2.836    0.40E-04    0.29E-04    0.12E-06
   1      8    10.771     4.023    0.10E-03    0.48E-04    0.29E-06
   2      8    10.771    73.368    0.42E-03    0.97E-04    0.44E-06
   2      8    10.771    69.010    0.42E-03    0.99E-04    0.45E-06
   0      9    10.771    54.797    0.10E-03    0.56E-04    0.74E-07
   0      9    10.771    24.266    0.89E-04    0.49E-04    0.67E-07
 Optimization of the real space projectors (new method)

 maximal supplied QI-value         = 19.84
 optimisation between [QCUT,QGAM] = [ 10.71, 21.63] = [ 32.15,130.99] Ry
 Optimized for a Real-space Cutoff    1.19 Angstroem

   l    n(q)    QCUT    max X(q) W(low)/X(q) W(high)/X(q)  e(spline)
   0      8    10.715   187.594    0.41E-03    0.53E-04    0.66E-07
   0      8    10.715   164.243    0.41E-03    0.53E-04    0.65E-07
   1      7    10.715    67.533    0.19E-03    0.59E-03    0.68E-07
   1      7    10.715    50.729    0.19E-03    0.58E-03    0.67E-07
  PAW_PBE Ni_pv 06Sep2000               :
  PAW_PBE S 06Sep2000                   :

 POSCAR: Type_038 Type_138
  positions in cartesian coordinates
 exchange correlation table for  LEXCH =        8
   RHO(1)=    0.500       N(1)  =     2000
   RHO(2)=  100.500       N(2)  =     4000

 ion  position               nearest neighbor table
   1  0.780  0.145  0.128-  66 2.07  51 2.07  43 2.25  52 2.36  67 2.36
   2  0.804  0.146  0.293-  52 2.04  67 2.05  44 2.09
   3  0.215  0.629  0.104-  45 2.04  46 2.10  64 2.22   4 2.39  53 2.44  29 2.49
   4  0.297  0.645  0.222-  65 2.11  54 2.15  46 2.25  53 2.26  64 2.26   3 2.39  30 2.53  17 2.53

   5  0.401  0.143  0.128-  47 2.04  48 2.10  70 2.17  55 2.21   6 2.36
   6  0.470  0.145  0.254-  71 2.08  56 2.10  55 2.26  70 2.26  48 2.27   5 2.36  33 2.53  20 2.53

[...]

   8  0.952  0.644  0.310-  50 2.01  68 2.04  57 2.05   7 2.46
   9  0.177  0.150  0.052-  47 2.01  75 2.06  59 2.09  10 2.43
  10  0.125  0.145  0.191-  60 2.13  59 2.14  75 2.16  40 2.25  76 2.36  11 2.42   9 2.43  36 2.53
                            23 2.53
  11  0.066  0.074  0.320-  60 2.04  39 2.07  76 2.12  15 2.38  10 2.42  40 2.57
  12  0.608  0.645  0.096-  72 2.08  61 2.08  41 2.25  62 2.36  73 2.36
  13  0.642  0.645  0.285-  74 2.02  63 2.02  42 2.25  62 2.26  73 2.26  38 2.53  26 2.53
  14  0.910  0.004  0.123-  66 2.06  58 2.10  67 2.11  40 2.21  15 2.52
  15  0.938  0.005  0.275-  39 2.05  67 2.06  40 2.14  57 2.16  11 2.38  14 2.52
  16  0.457  0.442  0.060-  41 2.05  55 2.06  17 2.40
  17  0.425  0.513  0.197-  65 2.10  55 2.25  41 2.26  64 2.26  42 2.36  16 2.40  18 2.46  30 2.53
                             4 2.53
  18  0.456  0.484  0.344-  56 2.02  65 2.02  42 2.04  17 2.46
  19  0.613  0.936  0.092-  61 2.02  62 2.11  43 2.15  20 2.36  70 2.45
  20  0.597  0.013  0.229-  71 2.07  44 2.14  62 2.25  70 2.26  43 2.26  19 2.36   6 2.53  33 2.53

[...]

  74  0.692  0.495  0.355-  13 2.02  26 2.03  73 2.77
  75  0.141  0.970  0.109-   9 2.06  23 2.14  34 2.15  10 2.16
  76  0.174  0.977  0.284-  35 2.03  11 2.12  24 2.13  10 2.36  23 2.36

  LATTYP: Found a simple orthorhombic cell.
 ALAT       =     9.5784100000
 B/A-ratio  =     1.7016870630
 C/A-ratio  =     1.7627867312

  Lattice vectors:

 A1 = (   0.0000000000,   9.5784100000,   0.0000000000)
 A2 = (   0.0000000000,   0.0000000000, -16.2994563815)
 A3 = ( -16.8846940542,   0.0000000000,   0.0000000000)

Analysis of symmetry for initial positions (statically):
 Subroutine PRICEL returns:
 Original cell was already a primitive cell.

 Routine SETGRP: Setting up the symmetry group for a
 simple orthorhombic supercell.

 Subroutine GETGRP returns: Found  1 space group operations
 (whereof  1 operations were pure point group operations)
 out of a pool of  8 trial point group operations.

The static configuration has the point symmetry C_1 .

Analysis of symmetry for dynamics (positions and initial velocities):
 Subroutine PRICEL returns:
 Original cell was already a primitive cell.

 Routine SETGRP: Setting up the symmetry group for a
 simple orthorhombic supercell.

 Subroutine GETGRP returns: Found  1 space group operations
 (whereof  1 operations were pure point group operations)
 out of a pool of  8 trial point group operations.

The dynamic configuration has the point symmetry C_1 .

 Subroutine INISYM returns: Found  1 space group operations
 (whereof  1 operations are pure point group operations),
 and found     1 'primitive' translations

 KPOINTS: gamma-point-only calculation. no periodi

Automatic generation of k-mesh.
Space group operators:
 irot       det(A)        alpha          n_x          n_y          n_z        tau_x        tau_y        tau_z
    1     1.000000     0.000000     1.000000     0.000000     0.000000     0.000000     0.000000     0.000000

 Subroutine IBZKPT returns following result:

 Found      1 irreducible k-points:

 Following reciprocal coordinates:
            Coordinates               Weight
  0.000000  0.000000  0.000000      1.000000

 Following cartesian coordinates:
            Coordinates               Weight
  0.000000  0.000000  0.000000      1.000000

 SYSTEM =  "Millerite NiS"
 POSCAR =  Type_038 Type_138

 Startparameter for this run:
   NWRITE =      2    write-flag & timer
   PREC   = normal    normal or accurate (medium, high low for compatibility)
   ISTART =      0    job   : 0-new  1-cont  2-samecut
   ICHARG =      2    charge: 1-file 2-atom 10-const
   ISPIN  =      1    spin polarized calculation?
   LNONCOLLINEAR =      F non collinear calculations
   LSORBIT =      F    spin-orbit coupling
   INIWAV =      1    electr: 0-lowe 1-rand  2-diag
   LASPH  =      F    aspherical Exc in radial PAW
   METAGGA=      F    non-selfconsistent MetaGGA calc.

 Electronic Relaxation 1
   ENCUT  =  450.0 eV  33.07 Ry    5.75 a.u.  29.20 16.57 28.19*2*pi/ulx,y,z
   ENINI  =  450.0     initial cutoff
   ENAUG  =  703.4 eV  augmentation charge cutoff
   NELM   =    100;   NELMIN=  2; NELMDL= -5     # of ELM steps
   EDIFF  = 0.1E-03   stopping-criterion for ELM
   LREAL  =      T    real-space projection
   NLSPLINE    = F    spline interpolate recip. space projectors
   LCOMPAT=      F    compatible to vasp.4.4
   GGA_COMPAT  = T    GGA compatible to vasp.4.4-vasp.4.6
   LMAXPAW     = -100 max onsite density
   LMAXMIX     =    2 max onsite mixed and CHGCAR
   VOSKOWN=      0    Vosko Wilk Nusair interpolation
   ROPT   =   -0.00050  -0.00050
 Ionic relaxation
   EDIFFG = 0.1E-02   stopping-criterion for IOM
   NSW    =      0    number of steps for IOM
   NBLOCK =      1;   KBLOCK =      1    inner block; outer block
   IBRION =     -1    ionic relax: 0-MD 1-quasi-New 2-CG
   NFREE  =      0    steps in history (QN), initial steepest desc. (CG)
   ISIF   =      2    stress and relaxation
   IWAVPR =     10    prediction:  0-non 1-charg 2-wave 3-comb
   ISYM   =      2    0-nonsym 1-usesym 2-fastsym
   LCORR  =      T    Harris-Foulkes like correction to forces

   POTIM  = 0.5000    time-step for ionic-motion
   TEIN   =    0.0    initial temperature
   TEBEG  =    0.0;   TEEND  =   0.0 temperature during run
   SMASS  =  -3.00    Nose mass-parameter (am)
   estimated Nose-frequenzy (Omega)   =  0.10E-29 period in steps =****** mass=  -0.652E-26a.u.
   SCALEE = 1.0000    scale energy and forces
   NPACO  =    256;   APACO  = 16.0  distance and # of slots for P.C.
   PSTRESS=    0.0 pullay stress

  Mass of Ions in am
   POMASS =  58.69 32.07
  Ionic Valenz
   ZVAL   =  16.00  6.00
  Atomic Wigner-Seitz radii
  virtual crystal weights
   VCA    =   1.00  1.00
   NELECT =     836.0000    total number of electrons
   NUPDOWN=      -1.0000    fix difference up-down

 DOS related values:
   EMIN   =  10.00;   EMAX   =-10.00  energy-range for DOS
   EFERMI =   0.00
   ISMEAR =     0;   SIGMA  =   0.20  broadening in eV -4-tet -1-fermi 0-gaus

 Electronic relaxation 2 (details)
   IALGO  =     38    algorithm
   LDIAG  =      T    sub-space diagonalisation (order eigenvalues)
   LSUBROT=      F    optimize rotation matrix (better conditioning)
   TURBO    =      0    0=normal 1=particle mesh
   IRESTART =      0    0=no restart 2=restart with 2 vectors
   NREBOOT  =      0    no. of reboots
   NMIN     =      0    reboot dimension
   EREF     =   0.00    reference energy to select bands
   IMIX   =      4    mixing-type and parameters
     AMIX     =   0.40;   BMIX     =  1.00
     AMIX_MAG =   1.60;   BMIX_MAG =  1.00
     AMIN     =   0.10
     WC   =   100.;   INIMIX=   1;  MIXPRE=   1;  MAXMIX= -45

 Intra band minimization:
   WEIMIN = 0.0000     energy-eigenvalue tresh-hold
   EBREAK =  0.50E-07  absolut break condition
   DEPER  =   0.30     relativ break condition

   TIME   =   0.40     timestep for ELM

  volume/ion in A,a.u.               =      34.69       234.07
  Fermi-wavevector in a.u.,A,eV,Ry     =   1.116410  2.109709 16.957908  1.246371
  Thomas-Fermi vector in A             =   2.253024

 Write flags
   LWAVE        =      F    write WAVECAR
   LDOWNSAMPLE  =      F    k-point downsampling of WAVECAR
   LCHARG       =      F    write CHGCAR
   LVTOT        =      F    write LOCPOT, total local potential
   LVHAR        =      F    write LOCPOT, Hartree potential only
   LELF         =      F    write electronic localiz. function (ELF)
   LORBIT       =      0    0 simple, 1 ext, 2 COOP (PROOUT), +10 PAW based schemes

 Dipole corrections
   LMONO  =      F    monopole corrections only (constant potential shift)
   LDIPOL =      F    correct potential (dipole corrections)
   IDIPOL =      0    1-x, 2-y, 3-z, 4-all directions
   EPSILON=  1.0000000 bulk dielectric constant

 Exchange correlation treatment:
   GGA     =    --    GGA type
   VOSKOWN=      0    Vosko Wilk Nusair interpolation
   LHFCALC =     F    Hartree Fock is set to
   LHFONE  =     F    Hartree Fock one center treatment
   AEXX    =    0.0000 exact exchange contribution

 Linear response parameters
   LEPSILON=     F    determine dielectric tensor
   LRPA    =     F    only Hartree local field effects (RPA)
   LNABLA  =     F    use nabla operator in PAW spheres
   LVEL    =     F    velocity operator in full k-point grid
   LINTERFAST=   F  fast interpolation
   KINTER  =     0    interpolate to denser k-point grid
[...]

  length of vectors
    16.884694054  9.578410000 16.299456382     0.059225237  0.104401461  0.061351739

 FORCES acting on ions
    electron-ion (+dipol)            ewald-force                    non-local-force                 convergence-correction
   0.366E+03 -.368E+02 0.187E+04   -.371E+03 0.371E+02 -.187E+04   0.483E+01 -.232E+00 0.518E+01   0.708E-02 0.452E-02 -.423E-02
   0.407E+03 -.542E+02 -.312E+04   -.411E+03 0.545E+02 0.312E+04   0.384E+01 -.298E+00 0.124E+01   -.180E-01 0.648E-02 -.182E-01
   0.112E+03 -.113E+03 0.277E+04   -.111E+03 0.114E+03 -.278E+04   0.581E+00 -.569E+00 0.839E+01   -.990E-02 -.478E-02 0.325E-03
   0.515E+03 -.181E+01 -.147E+04   -.517E+03 0.306E+01 0.148E+04   0.140E+01 -.778E+00 -.416E+01   0.599E-02 -.115E-01 -.101E-01
   -.115E+03 0.179E+03 0.231E+04   0.117E+03 -.180E+03 -.231E+04   -.109E+01 0.126E+01 0.291E+01   -.140E-02 0.446E-02 -.104E-02
   0.467E+03 -.655E+02 -.194E+04   -.469E+03 0.646E+02 0.194E+04   0.212E+01 0.684E+00 -.550E+01   0.177E-01 0.246E-02 0.329E-02
   0.420E+03 0.437E+02 0.123E+04   -.426E+03 -.438E+02 -.123E+04   0.531E+01 0.904E-02 0.296E+01   0.166E-01 -.907E-02 -.392E-01
   -.157E+03 0.157E+03 -.330E+04   0.154E+03 -.158E+03 0.330E+04   0.296E+01 0.114E+01 0.158E+01   0.241E-02 -.108E-01 -.218E-01
   0.378E+03 0.353E+02 0.410E+04   -.380E+03 -.376E+02 -.411E+04   0.175E+01 0.264E+01 0.398E+01   -.107E-02 0.600E-02 0.151E-02
   0.376E+03 -.104E+01 0.956E+02   -.379E+03 0.209E+00 -.956E+02   0.149E+01 0.583E+00 0.599E+00   0.675E-02 0.168E-01 -.228E-01
   -.391E+03 0.192E+02 -.346E+04   0.389E+03 -.200E+02 0.347E+04   0.206E+01 -.383E+00 -.518E+01   0.156E-01 0.146E-01 -.116E-01
   0.197E+03 -.205E+03 0.246E+04   -.198E+03 0.205E+03 -.246E+04   0.807E+00 -.674E+00 0.472E+01   -.120E-02 -.985E-02 0.615E-03
   0.455E+03 0.155E+02 -.244E+04   -.461E+03 -.156E+02 0.245E+04   0.384E+01 0.609E-01 -.612E+01   -.224E-02 0.197E-02 -.951E-02
   -.547E+03 0.236E+03 0.242E+04   0.552E+03 -.239E+03 -.242E+04   -.397E+01 0.344E+01 0.532E+01   -.743E-02 0.307E-02 -.242E-01
   0.106E+03 0.545E+03 -.227E+04   -.105E+03 -.550E+03 0.227E+04   -.133E+01 0.348E+01 -.413E+01   -.258E-01 0.483E-02 -.279E-01
   0.112E+03 0.463E+03 0.373E+04   -.109E+03 -.462E+03 -.373E+04   -.229E+01 -.178E+01 -.162E+01   0.830E-03 0.853E-02 0.742E-02
   -.773E+02 0.424E+03 -.359E+03   0.791E+02 -.427E+03 0.360E+03   -.152E+01 0.266E+01 -.145E+01   -.108E-01 0.586E-02 -.905E-02
   0.151E+03 0.252E+03 -.386E+04   -.151E+03 -.254E+03 0.386E+04   0.109E+00 0.115E+01 0.279E+01   -.163E-02 0.440E-03 -.110E-01
   0.514E+03 -.274E+03 0.307E+04   -.515E+03 0.277E+03 -.307E+04   -.475E+00 -.192E+01 0.569E+01   0.357E-03 -.188E-02 0.725E-02
   -.175E+03 0.209E+03 -.117E+04   0.177E+03 -.212E+03 0.117E+04   -.129E+01 0.311E+01 -.350E+01   -.169E-02 0.867E-02 0.938E-02
   0.302E+03 0.382E+03 0.179E+04   -.307E+03 -.383E+03 -.180E+04   0.360E+01 0.129E+01 0.327E+01   -.418E-02 0.306E-02 -.177E-01
   -.109E+03 -.960E+02 -.213E+04   0.110E+03 0.962E+02 0.213E+04   -.689E+00 -.234E+00 -.116E+01   0.132E-02 0.309E-02 -.245E-01
   -.160E+03 0.471E+03 0.868E+03   0.159E+03 -.476E+03 -.869E+03   0.395E+00 0.325E+01 0.903E+00   -.432E-02 -.107E-03 -.209E-01
   0.780E+02 -.180E+03 -.321E+04   -.768E+02 0.178E+03 0.321E+04   -.185E+01 0.264E+01 0.847E+00   0.831E-02 -.518E-02 -.941E-02
   -.370E+03 -.168E+03 0.232E+04   0.373E+03 0.169E+03 -.232E+04   -.237E+01 -.943E+00 0.734E+01   -.737E-03 -.886E-02 -.425E-02
   -.356E+03 0.411E+03 -.194E+04   0.360E+03 -.414E+03 0.195E+04   -.250E+01 0.283E+01 -.481E+01   -.103E-01 -.785E-02 -.117E-01
   -.536E+03 -.277E+03 0.230E+04   0.540E+03 0.279E+03 -.231E+04   -.356E+01 -.371E+01 0.548E+01   -.393E-02 0.409E-02 -.141E-01
   -.168E+03 -.683E+03 -.243E+04   0.169E+03 0.687E+03 0.244E+04   -.224E+01 -.322E+01 -.453E+01   -.110E-01 0.143E-01 -.229E-01
   0.110E+03 -.400E+03 0.381E+04   -.110E+03 0.401E+03 -.382E+04   -.109E+00 -.134E+01 0.545E+01   -.247E-02 -.143E-02 0.614E-02
   -.218E+03 -.538E+03 0.246E+03   0.220E+03 0.542E+03 -.248E+03   -.120E+01 -.427E+01 0.331E+00   -.258E-02 -.133E-01 -.108E-01
   -.853E+02 -.162E+03 -.358E+04   0.885E+02 0.165E+03 0.358E+04   -.315E+01 -.366E+01 0.412E+00   0.969E-02 0.109E-02 -.390E-02
   0.591E+02 0.432E+03 0.292E+04   -.611E+02 -.434E+03 -.293E+04   0.818E+00 0.973E+00 0.631E+01   0.352E-02 0.504E-02 0.402E-02
   -.228E+03 -.165E+03 -.131E+04   0.231E+03 0.168E+03 0.131E+04   -.261E+01 -.294E+01 -.487E+01   0.183E-03 -.414E-02 -.458E-02
   0.762E+01 -.494E+03 0.183E+04   -.896E+01 0.498E+03 -.183E+04   0.150E+01 -.305E+01 0.474E+01   -.212E-02 -.158E-01 -.248E-01
   -.265E+03 0.344E+03 -.304E+04   0.266E+03 -.343E+03 0.304E+04   -.844E+00 -.155E+01 0.106E+01   0.144E-01 -.181E-01 -.239E-01
   -.440E+03 -.337E+03 0.408E+03   0.442E+03 0.340E+03 -.406E+03   -.823E+00 -.216E+01 -.174E+01   -.172E-02 0.156E-01 -.629E-02
   -.346E+03 0.214E+03 0.230E+04   0.349E+03 -.216E+03 -.231E+04   -.217E+01 0.127E+01 0.726E+01   0.655E-02 0.607E-02 -.478E-02
   -.322E+03 -.368E+03 -.194E+04   0.325E+03 0.371E+03 0.194E+04   -.236E+01 -.285E+01 -.492E+01   -.158E-01 0.331E-02 -.673E-02
   0.715E+02 -.932E+02 -.177E+04   -.715E+02 0.940E+02 0.178E+04   -.870E+00 -.587E+00 -.216E+01   -.780E-02 0.809E-02 0.666E-02
   -.215E+03 -.301E+02 0.339E+03   0.216E+03 0.309E+02 -.342E+03   0.364E+00 -.131E+01 0.134E+01   -.866E-03 0.625E-02 -.167E-01
   -.204E+03 -.297E+03 0.107E+04   0.206E+03 0.299E+03 -.108E+04   0.767E-01 -.111E+01 0.177E+01   -.110E-02 0.132E-03 0.249E-02
   -.174E+03 0.158E+02 -.843E+03   0.176E+03 -.160E+02 0.845E+03   -.193E+00 0.476E+00 -.162E+01   0.141E-02 0.197E-02 -.669E-02
   -.885E-01 -.206E+02 0.857E+03   0.202E+01 0.208E+02 -.861E+03   -.154E+01 0.490E+00 0.267E+01   0.305E-02 0.551E-02 0.390E-02
   -.589E+02 -.893E+01 -.116E+04   0.599E+02 0.876E+01 0.116E+04   -.319E+00 0.396E-01 -.266E+01   -.196E-02 -.118E-03 -.499E-02
   0.101E+03 -.361E+02 0.173E+04   -.101E+03 0.364E+02 -.173E+04   0.565E+00 -.324E+00 0.203E+01   -.569E-02 -.195E-02 0.416E-02
   -.102E+02 -.348E+02 -.569E+03   0.996E+01 0.351E+02 0.574E+03   0.812E+00 -.600E-01 -.345E+01   0.133E-02 -.447E-02 -.903E-02
   -.218E+03 0.432E+02 0.149E+04   0.219E+03 -.435E+02 -.149E+04   -.374E+00 0.231E+00 0.258E+01   -.177E-02 0.232E-02 -.952E-03
   0.454E+00 -.205E+03 -.750E+03   -.159E+01 0.207E+03 0.755E+03   0.111E+01 -.115E+01 -.301E+01   0.180E-02 0.791E-02 -.350E-02
   -.170E+03 0.690E+01 0.596E+03   0.171E+03 -.678E+01 -.599E+03   -.442E+00 -.421E-01 0.260E+01   0.108E-02 -.193E-02 -.409E-02
   -.930E+02 0.155E+02 -.149E+04   0.961E+02 -.156E+02 0.150E+04   -.208E+01 0.547E-01 -.254E+01   -.119E-01 -.154E-02 -.325E-02
   -.759E+02 -.588E+02 0.166E+04   0.761E+02 0.600E+02 -.167E+04   -.293E-01 -.815E+00 0.307E+01   0.249E-02 -.382E-02 0.171E-02
   0.616E+02 -.181E+03 -.379E+03   -.610E+02 0.181E+03 0.382E+03   -.137E+01 0.120E+01 -.182E+01   -.342E-02 -.299E-02 -.646E-02
   0.663E+02 -.317E+03 0.847E+03   -.660E+02 0.320E+03 -.849E+03   -.133E+01 -.118E+01 0.223E+01   0.999E-03 -.560E-02 -.135E-02
   0.216E+03 0.776E+02 -.135E+04   -.217E+03 -.766E+02 0.135E+04   0.765E-01 -.429E+00 -.287E+01   0.245E-02 -.952E-02 -.603E-02
   0.583E+02 0.113E+03 0.353E+03   -.603E+02 -.112E+03 -.353E+03   0.170E+01 -.113E+01 -.604E+00   0.408E-02 0.286E-02 0.283E-02
   -.366E+02 0.404E+02 -.142E+04   0.369E+02 -.390E+02 0.143E+04   -.221E+00 -.122E+01 -.195E+01   0.359E-02 -.627E-02 -.544E-02
   0.503E+02 -.355E+02 -.571E+03   -.514E+02 0.368E+02 0.572E+03   0.535E-01 -.731E+00 -.304E+00   0.538E-02 -.362E-02 -.173E-01
   0.546E+02 -.455E+02 0.132E+04   -.565E+02 0.450E+02 -.133E+04   0.124E+01 0.119E+01 0.374E+01   0.358E-02 -.163E-02 -.333E-02
   0.206E+03 -.927E+02 0.100E+04   -.206E+03 0.924E+02 -.101E+04   0.902E-01 0.327E+00 0.362E+01   -.255E-02 0.833E-02 0.974E-03
   -.140E+03 -.218E+03 -.134E+04   0.139E+03 0.221E+03 0.134E+04   0.137E+01 -.239E+01 -.129E+01   0.625E-02 0.106E-01 -.798E-02
[...]
   0.310E+02 -.251E+03 -.161E+04   -.325E+02 0.254E+03 0.161E+04   0.100E+01 -.188E+01 -.665E+00   -.378E-02 0.133E-02 -.326E-02
   0.105E+03 0.319E+03 0.731E+03   -.106E+03 -.322E+03 -.733E+03   0.488E+00 0.145E+01 0.103E+01   -.507E-03 0.165E-02 0.291E-02
   0.362E+03 0.267E+03 -.124E+04   -.365E+03 -.271E+03 0.124E+04   0.907E+00 0.219E+01 -.170E+01   -.466E-02 0.264E-02 -.947E-02
   -.712E+02 0.527E+02 0.168E+04   0.713E+02 -.535E+02 -.169E+04   0.178E+00 0.519E+00 0.285E+01   0.393E-02 0.509E-02 0.109E-02
   0.103E+03 0.165E+03 -.356E+03   -.103E+03 -.166E+03 0.359E+03   -.168E+01 -.117E+01 -.261E+01   -.828E-02 0.478E-02 -.888E-02
   -.114E+03 0.885E+02 -.708E+03   0.115E+03 -.894E+02 0.710E+03   -.492E+00 0.661E+00 -.151E+01   0.671E-02 -.544E-02 -.158E-01
   0.647E+02 0.493E+02 0.131E+04   -.664E+02 -.489E+02 -.132E+04   0.116E+01 -.101E+01 0.400E+01   0.580E-02 0.790E-03 -.431E-03
   0.618E+02 0.856E+02 0.633E+03   -.633E+02 -.874E+02 -.636E+03   0.156E+01 0.655E+00 0.218E+01   0.191E-02 -.225E-02 0.323E-02
   -.944E+02 -.955E+02 -.155E+04   0.950E+02 0.938E+02 0.155E+04   -.345E+00 0.155E+01 -.187E+01   0.303E-02 0.291E-02 -.427E-02
   -.157E+03 -.323E+02 0.167E+04   0.159E+03 0.313E+02 -.168E+04   -.569E+00 0.674E+00 0.428E+01   -.267E-02 0.981E-04 0.188E-02
   0.592E+02 -.147E+01 -.951E+02   -.612E+02 0.147E+01 0.981E+02   0.662E+00 -.121E+00 -.147E+01   -.345E-02 -.143E-02 -.237E-02
   0.357E+02 0.261E+03 -.161E+04   -.372E+02 -.265E+03 0.162E+04   0.939E+00 0.200E+01 -.735E+00   -.230E-02 -.646E-03 -.455E-02
   0.167E+03 0.198E+03 0.102E+04   -.167E+03 -.199E+03 -.103E+04   -.261E+00 -.498E-01 0.128E+01   -.285E-02 -.598E-02 -.243E-02
   -.121E+03 -.960E+00 -.102E+04   0.122E+03 -.873E+00 0.102E+04   0.714E+00 0.205E+01 -.152E+01   0.364E-02 -.146E-02 -.885E-02
   -.234E+01 0.559E+01 -.419E+02   0.639E-12 0.382E-12 -.443E-11   0.232E+01 -.570E+01 0.424E+02   -.277E-01 0.265E-01 -.506E+00

 POSITION                                       TOTAL-FORCE (eV/Angst)
     13.17084      1.39171      2.08012         0.096931      0.089509      1.345122
     13.57400      1.39795      4.78048        -0.137200     -0.071335      1.110556
      3.62868      6.02344      1.68759         1.146829      0.472469     -0.603032
      5.02033      6.18092      3.62239        -0.357067      0.459420     -0.280387
      6.76976      1.36609      2.08684         0.984838      0.415580     -0.879299
      7.93172      1.39171      4.13648        -0.402030     -0.191262     -0.918836
     16.08224      6.18092      2.59421        -0.719170     -0.138826      1.521540
     16.07508      6.16966      5.05803         0.564875      0.005058      1.039329
      2.98270      1.44108      0.84527        -0.843134      0.279674     -1.691084
      2.10894      1.39171      3.10830        -1.033108     -0.227172      0.653461
      1.11782      0.70640      5.21200         0.650872     -1.136810      0.578895
     10.25945      6.18092      1.56603        -0.588403     -0.046769      0.482976
     10.84312      6.18092      4.65057        -1.826521     -0.126066     -1.578038
     15.35854      0.04094      2.00930         1.035446      0.893587     -0.179525
     15.83598      0.05199      4.48497        -0.213209     -0.736574     -0.039980
      7.71269      4.22954      0.97939        -0.136216     -0.553337     -0.879434
      7.17375      4.91558      3.21491         0.305873      0.076123     -0.229843
      7.69742      4.63766      5.60555         0.331482     -0.151995      1.177460
     10.34889      8.96834      1.50038        -1.651021      0.748044     -0.047279
     10.08514      0.12638      3.72900         0.224127      0.253223     -0.910235
      1.35096      4.91558      2.18673        -0.885826      0.161132      0.526374
      2.75958      4.09581      3.88210         0.473698     -0.063079      0.675440
      4.26235      0.12638      2.70082         0.057182     -1.052850     -0.130039
      5.04502      9.19001      4.87843        -0.693153      0.533386      1.327324
     12.79075      4.22879      1.87999         0.378942      0.817784      0.596250
     12.99653      4.91558      4.24309         0.864791     -0.278077     -1.977011
     15.36757      2.75545      2.04062         1.100272     -0.950249     -0.245133
     15.95535      2.67870      4.51674        -0.982364      1.231821     -0.110361
      6.03965      6.17846      1.08035        -0.514974     -0.063432     -2.107445
      7.17375      7.44626      3.21491         0.518690      0.243145     -1.406847
      8.00250      8.02529      5.37229         0.005133     -0.534491      1.052012
     10.13670      3.49950      1.50518        -1.225567     -0.946163     -0.300878
     10.08514      2.65705      3.72900         0.376424     -0.182628     -0.535297
      1.35096      7.44626      2.18673         0.161817      0.532984      1.426406
      1.91052      7.61958      4.80668         0.046827     -0.416641      0.807392
      4.26235      2.65705      2.70082         1.590113      0.341597      0.501106
     12.81542      8.16512      1.89607         0.417251     -0.814414      0.684774
     12.99653      7.44626      4.24309         0.861560      0.147517     -1.879715
     16.21014      1.33267      6.04263        -0.897682      0.210159      3.884260
     16.74052      1.39171      3.07977         1.425663     -0.486837     -2.389761
      8.00634      6.18092      1.53750         2.503367      1.280217     -0.730859
      8.59001      6.18092      4.62204         1.791171      0.263885      0.352344
     10.91773      1.39171      2.05159         0.396702      0.708275     -2.178403
     11.48932      1.40900      4.70058         0.707629     -0.127455      2.687317
      1.88291      6.19259      0.64931         0.213392      0.014056     -3.746939
      2.76722      6.18092      3.59386         0.564656      0.230299      1.944755
      4.97510      1.38859      1.11409         1.381756     -0.073862     -3.131483
      5.67291      1.32697      3.87455        -0.022899      1.109210      2.298374
     13.82913      6.18092      2.56568         0.779441      0.073667     -1.048684
     14.10354      6.17945      5.46742         0.984258      0.021063      2.634373
     13.77779      2.84476      0.73501         0.191918      0.310405     -3.484414
     13.99844      3.00295      3.59863        -0.832703      2.034891      1.118211
      5.26426      7.79215      2.05636        -1.005478      1.073188      0.146833
      6.04956      7.44249      5.02213        -1.439240      0.524568      1.915208
      8.17565      3.00295      2.57045        -0.320638      0.297825     -0.986774
      8.74406      2.93876      5.30341         0.040231      0.197253      2.891989
      0.02514      7.79215      4.11272        -0.999558      0.563273      0.637626
     16.33959      7.86692      1.40816        -0.619554      0.678222     -2.855395
      2.39684      3.13975      1.91449        -0.674818      0.046606     -1.514278
      2.06161      2.49782      4.93092         0.959035      1.159622      2.199502
     11.37556      7.56391      0.47578         0.606870      0.072925     -3.422131
     11.08705      7.79215      3.08454        -1.355655      0.102853      1.486790
     11.68555      7.62247      5.78560        -0.454000      1.753910      3.243758
      5.26426      4.56969      2.05636        -0.628778     -1.834236     -0.680665
      5.83512      4.63462      4.81091        -1.796794     -1.795905      1.972058
     13.76891      9.53956      0.70797         0.268025     -0.327742     -3.515798
     13.99844      9.35889      3.59863        -1.665390     -2.158597      0.621478
      0.02514      4.56969      4.11272         0.350511     -0.251004      0.724802
     16.33140      4.50000      1.40870        -0.545271     -0.616165     -2.789249
      8.17565      9.35889      2.57045         0.032624     -1.111229     -0.862476
      8.97337      0.19389      5.47353         0.256066     -0.164411      3.192838
     11.32756      4.77214      0.46350         0.779642     -0.304060     -3.223998
     11.08705      4.56969      3.08454        -1.332545     -0.113762      1.501325
     11.68931      4.74246      5.78568        -0.522235     -1.730841      3.292058
      2.37311      9.29211      1.77833        -0.828323     -0.865119     -1.644544
      2.93654      9.35889      4.62682         1.723593      0.214972      0.883227
    total drift:                               -0.044054     -0.085493     -0.008262

  FREE ENERGIE OF THE ION-ELECTRON SYSTEM (eV)
  free  energy   TOTEN  =      -361.21861007 eV

  energy  without entropy=     -360.03165108  energy(sigma->0) =     -360.62513058