 vasp.5.4.4.18Apr17-6-g9f103f2a35 (build Aug 13 2019 17:33:20) gamma-only

 executed on             LinuxIFC date 2020.05.10  11:26:31

 INCAR:
 POTCAR:    PAW_PBE Ni_pv 06Sep2000
 POTCAR:    PAW_PBE S 06Sep2000
 POTCAR:    PAW_PBE Ni_pv 06Sep2000
   VRHFIN =Ni:

   TITEL  = PAW_PBE Ni_pv 06Sep2000
   POMASS =   58.690; ZVAL   =   16.000    mass and valenz
   ENMAX  =  367.986; ENMIN  =  275.989 eV

 POTCAR:    PAW_PBE S 06Sep2000
   VRHFIN =S : s2p4

   TITEL  = PAW_PBE S 06Sep2000
   POMASS =   32.066; ZVAL   =    6.000    mass and valenz
   ENMAX  =  258.689; ENMIN  =  194.016 eV

 Optimization of the real space projectors (new method)

 maximal supplied QI-value         = 18.90
 optimisation between [QCUT,QGAM] = [ 10.77, 21.73] = [ 32.49,132.25] Ry
 Optimized for a Real-space Cutoff    1.38 Angstroem

   l    n(q)    QCUT    max X(q) W(low)/X(q) W(high)/X(q)  e(spline)
   1      8    10.771     2.836    0.40E-04    0.29E-04    0.12E-06
   1      8    10.771     4.023    0.10E-03    0.48E-04    0.29E-06
   2      8    10.771    73.368    0.42E-03    0.97E-04    0.44E-06
   2      8    10.771    69.010    0.42E-03    0.99E-04    0.45E-06
   0      9    10.771    54.797    0.10E-03    0.56E-04    0.74E-07
   0      9    10.771    24.266    0.89E-04    0.49E-04    0.67E-07
 Optimization of the real space projectors (new method)

 maximal supplied QI-value         = 19.84
 optimisation between [QCUT,QGAM] = [ 10.71, 21.63] = [ 32.15,130.99] Ry
 Optimized for a Real-space Cutoff    1.19 Angstroem

   l    n(q)    QCUT    max X(q) W(low)/X(q) W(high)/X(q)  e(spline)
   0      8    10.715   187.594    0.41E-03    0.53E-04    0.66E-07
   0      8    10.715   164.243    0.41E-03    0.53E-04    0.65E-07
   1      7    10.715    67.533    0.19E-03    0.59E-03    0.68E-07
   1      7    10.715    50.729    0.19E-03    0.58E-03    0.67E-07
  PAW_PBE Ni_pv 06Sep2000               :
  PAW_PBE S 06Sep2000                   :

 POSCAR: Type_026 Type_126
  positions in cartesian coordinates
 exchange correlation table for  LEXCH =        8
   RHO(1)=    0.500       N(1)  =     2000
   RHO(2)=  100.500       N(2)  =     4000

 ion  position               nearest neighbor table
   1  0.425  0.526  0.217-  30 2.02  31 2.12  44 2.15  37 2.16   2 2.31
   2  0.493  0.461  0.339-  45 1.99  44 2.20  37 2.22  31 2.27   1 2.31   6 2.48  23 2.49
   3  0.156  0.977  0.101-  38 2.06  39 2.07  27 2.08  35 2.19
   4  0.224  0.979  0.243-  35 2.05  28 2.18  36 2.19  39 2.33  12 2.50
   5  0.425  0.137  0.217-  35 2.02  36 2.12  40 2.15  37 2.16   6 2.31
   6  0.493  0.202  0.339-  41 1.99  40 2.20  37 2.22  36 2.27   5 2.31   2 2.48  23 2.49
   7  0.156  0.686  0.101-  38 2.06  39 2.07  32 2.08  30 2.19
   8  0.224  0.684  0.243-  30 2.05  33 2.18  31 2.19  39 2.33  12 2.50
   9  0.126  0.332  0.159-  27 2.09  32 2.09  28 2.12  33 2.12  14 2.46  18 2.46
  10  0.182  0.332  0.319-  29 2.03  34 2.03  37 2.25  28 2.26  33 2.26
  11  0.457  0.832  0.095-  50 2.03  51 2.11  35 2.31  30 2.31  12 2.37
  12  0.407  0.832  0.229-  36 2.23  31 2.23  51 2.25  30 2.26  35 2.26  11 2.37  13 2.38   4 2.50
                             8 2.50
  13  0.465  0.832  0.362-  52 2.04  36 2.08  31 2.08  12 2.38
  14  0.939  0.464  0.163-  48 2.06  32 2.09  42 2.25  49 2.36  33 2.36   9 2.46  18 2.53
  15  0.984  0.470  0.324-  34 2.01  33 2.06  49 2.08  43 2.14
  16  0.673  0.958  0.098-  50 2.04  51 2.07  46 2.07  20 2.43
  17  0.715  0.964  0.253-  52 2.15  47 2.17  40 2.25  51 2.26  46 2.26  25 2.53  21 2.53
  18  0.939  0.200  0.163-  48 2.06  27 2.09  46 2.25  49 2.36  28 2.36   9 2.46  14 2.53
  19  0.984  0.194  0.324-  29 2.01  28 2.06  49 2.08  47 2.14
  20  0.673  0.705  0.098-  50 2.04  51 2.07  42 2.07  16 2.43
  21  0.715  0.700  0.253-  52 2.15  43 2.17  44 2.25  51 2.26  42 2.26  25 2.53  17 2.53
  22  0.729  0.332  0.185-  48 2.02  49 2.13  44 2.28  40 2.28  23 2.35
  23  0.682  0.332  0.319-  41 2.03  45 2.03  49 2.25  40 2.26  44 2.26  22 2.35   2 2.49   6 2.49

  24  0.951  0.832  0.095-  38 2.04  39 2.15  46 2.27  42 2.27  25 2.36
  25  0.907  0.832  0.229-  47 2.17  43 2.17  39 2.25  42 2.26  46 2.26  24 2.36  26 2.50  21 2.53
                            17 2.53
  26  0.821  0.832  0.363-  52 2.03  43 2.04  47 2.04  25 2.50
  27  0.078  0.171  0.084-   3 2.08  18 2.09   9 2.09  28 2.70
  28  0.111  0.164  0.239-  19 2.06   9 2.12   4 2.18  10 2.26  18 2.36  27 2.70  29 2.77
  29  0.120  0.196  0.399-  19 2.01  10 2.03  34 2.60  28 2.77
  30  0.336  0.664  0.149-   1 2.02   8 2.05   7 2.19  12 2.26  11 2.31
  31  0.386  0.657  0.313-  13 2.08   1 2.12   8 2.19  12 2.23   2 2.27
  32  0.078  0.493  0.084-   7 2.08  14 2.09   9 2.09  33 2.70
  33  0.111  0.500  0.239-  15 2.06   9 2.12   8 2.18  10 2.26  14 2.36  32 2.70  34 2.77
  34  0.120  0.468  0.399-  15 2.01  10 2.03  29 2.60  33 2.77
  35  0.336  1.000  0.149-   5 2.02   4 2.05   3 2.19  12 2.26  11 2.31
  36  0.386  0.007  0.313-  13 2.08   5 2.12   4 2.19  12 2.23   6 2.27
  37  0.368  0.332  0.269-   1 2.16   5 2.16   2 2.22   6 2.22  10 2.25
  38  0.094  0.832  0.022-  24 2.04   7 2.06   3 2.06  39 2.70
  39  0.092  0.832  0.179-   3 2.07   7 2.07  24 2.15  25 2.25   8 2.33   4 2.33  38 2.70
  40  0.611  0.164  0.239-   5 2.15   6 2.20  17 2.25  23 2.26  22 2.28
  41  0.639  0.193  0.404-   6 1.99  23 2.03  45 2.65
  42  0.836  0.664  0.149-  20 2.07  14 2.25  25 2.26  21 2.26  24 2.27  43 2.79
  43  0.884  0.659  0.308-  26 2.04  15 2.14  25 2.17  21 2.17  42 2.79
  44  0.611  0.500  0.239-   1 2.15   2 2.20  21 2.25  23 2.26  22 2.28
  45  0.639  0.470  0.404-   2 1.99  23 2.03  41 2.65
  46  0.836  1.000  0.149-  16 2.07  18 2.25  25 2.26  17 2.26  24 2.27  47 2.79
  47  0.884  0.005  0.308-  26 2.04  19 2.14  25 2.17  17 2.17  46 2.79
  48  0.842  0.332  0.093-  22 2.02  18 2.06  14 2.06
  49  0.868  0.332  0.269-  15 2.08  19 2.08  22 2.13  23 2.25  18 2.36  14 2.36
  50  0.594  0.832  0.018-  11 2.03  20 2.04  16 2.04  51 2.78
  51  0.592  0.832  0.179-  20 2.07  16 2.07  11 2.11  12 2.25  17 2.26  21 2.26  50 2.78
  52  0.644  0.832  0.342-  26 2.03  13 2.04  21 2.15  17 2.15

  LATTYP: Found a simple orthorhombic cell.
 ALAT       =     9.5784100000
 B/A-ratio  =     1.1751911892
 C/A-ratio  =     1.7949213288

  Lattice vectors:

 A1 = (   0.0000000000,  -9.5784100000,   0.0000000000)
 A2 = ( -11.2564630382,   0.0000000000,   0.0000000000)
 A3 = (   0.0000000000,   0.0000000000, -17.1924924047)

Analysis of symmetry for initial positions (statically):
 Subroutine PRICEL returns:
 Original cell was already a primitive cell.

 Routine SETGRP: Setting up the symmetry group for a
 simple orthorhombic supercell.

 Subroutine GETGRP returns: Found  2 space group operations
 (whereof  1 operations were pure point group operations)
 out of a pool of  8 trial point group operations.

The static configuration has the point symmetry C_1 .
 The point group associated with its full space group is C_1h.

Analysis of symmetry for dynamics (positions and initial velocities):
 Subroutine PRICEL returns:
 Original cell was already a primitive cell.

 Routine SETGRP: Setting up the symmetry group for a
 simple orthorhombic supercell.

 Subroutine GETGRP returns: Found  2 space group operations
 (whereof  1 operations were pure point group operations)
 out of a pool of  8 trial point group operations.

The dynamic configuration has the point symmetry C_1 .
 The point group associated with its full space group is C_1h.

 Subroutine INISYM returns: Found  2 space group operations
 (whereof  1 operations are pure point group operations),
 and found     1 'primitive' translations

 KPOINTS: gamma-point-only calculation. no periodi

Automatic generation of k-mesh.
Space group operators:
 irot       det(A)        alpha          n_x          n_y          n_z        tau_x        tau_y        tau_z
    1     1.000000     0.000000     1.000000     0.000000     0.000000     0.000000     0.000000     0.000000
    2    -1.000000   180.000000     0.000000     1.000000     0.000000     0.000000    -0.336430     0.000000

 Subroutine IBZKPT returns following result:

 Found      1 irreducible k-points:

 Following reciprocal coordinates:
            Coordinates               Weight
  0.000000  0.000000  0.000000      1.000000

 Following cartesian coordinates:
            Coordinates               Weight
  0.000000  0.000000  0.000000      1.000000

 SYSTEM =  "Millerite NiS"
 POSCAR =  Type_026 Type_126

 Startparameter for this run:
   NWRITE =      2    write-flag & timer
   PREC   = normal    normal or accurate (medium, high low for compatibility)
   ISTART =      0    job   : 0-new  1-cont  2-samecut
   ICHARG =      2    charge: 1-file 2-atom 10-const
   ISPIN  =      1    spin polarized calculation?
   LNONCOLLINEAR =      F non collinear calculations
   LSORBIT =      F    spin-orbit coupling
   INIWAV =      1    electr: 0-lowe 1-rand  2-diag
   LASPH  =      F    aspherical Exc in radial PAW
   METAGGA=      F    non-selfconsistent MetaGGA calc.

 Electronic Relaxation 1
   ENCUT  =  450.0 eV  33.07 Ry    5.75 a.u.  19.47 16.57 29.74*2*pi/ulx,y,z
   ENINI  =  450.0     initial cutoff
   ENAUG  =  703.4 eV  augmentation charge cutoff
   NELM   =    100;   NELMIN=  2; NELMDL= -5     # of ELM steps
   EDIFF  = 0.1E-03   stopping-criterion for ELM
   LREAL  =      T    real-space projection
   NLSPLINE    = F    spline interpolate recip. space projectors
   LCOMPAT=      F    compatible to vasp.4.4
   GGA_COMPAT  = T    GGA compatible to vasp.4.4-vasp.4.6
   LMAXPAW     = -100 max onsite density
   LMAXMIX     =    2 max onsite mixed and CHGCAR
   VOSKOWN=      0    Vosko Wilk Nusair interpolation
   ROPT   =   -0.00050  -0.00050
 Ionic relaxation
   EDIFFG = 0.1E-02   stopping-criterion for IOM
   NSW    =      0    number of steps for IOM
   NBLOCK =      1;   KBLOCK =      1    inner block; outer block
   IBRION =     -1    ionic relax: 0-MD 1-quasi-New 2-CG
   NFREE  =      0    steps in history (QN), initial steepest desc. (CG)
   ISIF   =      2    stress and relaxation
   IWAVPR =     10    prediction:  0-non 1-charg 2-wave 3-comb
   ISYM   =      2    0-nonsym 1-usesym 2-fastsym
   LCORR  =      T    Harris-Foulkes like correction to forces

   POTIM  = 0.5000    time-step for ionic-motion
   TEIN   =    0.0    initial temperature
   TEBEG  =    0.0;   TEEND  =   0.0 temperature during run
   SMASS  =  -3.00    Nose mass-parameter (am)
   estimated Nose-frequenzy (Omega)   =  0.10E-29 period in steps =****** mass=  -0.290E-26a.u.
   SCALEE = 1.0000    scale energy and forces
   NPACO  =    256;   APACO  = 16.0  distance and # of slots for P.C.
   PSTRESS=    0.0 pullay stress

  Mass of Ions in am
   POMASS =  58.69 32.07
  Ionic Valenz
   ZVAL   =  16.00  6.00
  Atomic Wigner-Seitz radii
  virtual crystal weights
   VCA    =   1.00  1.00
   NELECT =     572.0000    total number of electrons
   NUPDOWN=      -1.0000    fix difference up-down

 DOS related values:
   EMIN   =  10.00;   EMAX   =-10.00  energy-range for DOS
   EFERMI =   0.00
   ISMEAR =     0;   SIGMA  =   0.20  broadening in eV -4-tet -1-fermi 0-gaus

 Electronic relaxation 2 (details)
[...]
      26 -87.6581      27 -92.3153      28 -93.3638      29 -92.2397      30 -93.0732
      31 -93.2150      32 -92.3152      33 -93.3637      34 -92.2397      35 -93.0732
      36 -93.2150      37 -92.7102      38 -92.3620      39 -93.7856      40 -93.1292
      41 -92.3353      42 -93.0516      43 -92.7580      44 -93.1292      45 -92.3353
      46 -93.0516      47 -92.7579      48 -92.4663      49 -93.5847      50 -92.1007
      51 -93.6951      52 -92.8470

 E-fermi :  -0.2358     XC(G=0):  -5.4694     alpha+bet : -5.1393

 k-point     1 :       0.0000    0.0000    0.0000
  band No.  band energies     occupation
      1     -65.1425      2.00000
      2     -64.9488      2.00000
      3     -64.9447      2.00000
      4     -64.8051      2.00000
      5     -64.8025      2.00000
      6     -64.7606      2.00000
      7     -64.7387      2.00000
      8     -64.7258      2.00000
      9     -64.7121      2.00000
     10     -64.6969      2.00000
     11     -64.6890      2.00000
     12     -64.6744      2.00000
     13     -64.6699      2.00000
     14     -64.6692      2.00000
     15     -64.6651      2.00000
     16     -64.6647      2.00000
     17     -64.6608      2.00000
     18     -64.6365      2.00000
     19     -64.6343      2.00000
     20     -64.6228      2.00000
     21     -64.6053      2.00000
     22     -64.5869      2.00000
     23     -64.5843      2.00000
     24     -64.5801      2.00000
     25     -64.5763      2.00000
     26     -64.5648      2.00000
     27     -64.5594      2.00000
     28     -64.5465      2.00000
     29     -64.5312      2.00000
     30     -64.4992      2.00000
     31     -64.4816      2.00000
     32     -64.4811      2.00000
     33     -64.4500      2.00000
     34     -64.4152      2.00000
     35     -64.4032      2.00000
     36     -64.3948      2.00000
     37     -64.3813      2.00000
     38     -64.3716      2.00000
     39     -64.3533      2.00000
     40     -64.3523      2.00000
     41     -64.3274      2.00000
     42     -64.3250      2.00000
     43     -64.3086      2.00000
     44     -64.3074      2.00000
     45     -64.3032      2.00000
     46     -64.2983      2.00000
     47     -64.2791      2.00000
     48     -64.2649      2.00000
     49     -64.2568      2.00000
     50     -64.2552      2.00000
     51     -64.2467      2.00000
     52     -64.2438      2.00000
     53     -64.2419      2.00000
     54     -64.2223      2.00000
     55     -64.2197      2.00000
     56     -64.2163      2.00000
     57     -64.2132      2.00000
     58     -64.2020      2.00000
     59     -64.1571      2.00000
     60     -64.1453      2.00000
[...]
    330       4.9001      0.00000
    331       4.9586      0.00000
    332       5.1318      0.00000
    333       5.1439      0.00000
    334       5.1595      0.00000
    335       5.2250      0.00000
    336       5.2662      0.00000
    337       5.2893      0.00000
    338       5.3105      0.00000
    339       5.3382      0.00000
    340       5.4432      0.00000
    341       5.5329      0.00000
    342       5.6454      0.00000
    343       5.6606      0.00000
    344       5.6864      0.00000

 soft charge-density along one line, spin component           1
         0         1         2         3         4         5         6         7         8         9
 total charge-density along one line

------------------------ aborting loop because EDIFF is reached ----------------------------------------

  FORCE on cell =-STRESS in cart. coord.  units (eV):
  Direction    XX          YY          ZZ          XY          YZ          ZX
  Alpha Z  1046.73971  1046.73971  1046.73971
  Ewald  154939.83927151839.15101************     0.00000     0.00000  1304.23458
  Hartree179811.44634177370.50598************     0.00163    -0.00033   766.57003
  E(xc)   -3650.62555 -3650.83307 -3653.25299    -0.00011     0.00002     1.57651
  Local  ************************328022.37710    -0.00181    -0.00060 -2041.48511
  n-local  -417.28991  -436.82379  -426.84802     0.00389     0.00604    10.48112
  augment  4178.65520  4201.29779  4170.22887     0.00115    -0.00031   -13.73931
  Kinetic  8020.51766  8021.79890  8042.29566     0.00023     0.00047   -27.01611
  Fock        0.00000     0.00000     0.00000     0.00000     0.00000     0.00000
  Total      81.54826    72.42842   110.49663     0.00000     0.00000     0.62171
  in kB      70.48408    62.60160    95.50484     0.00000     0.00000     0.53736

 VOLUME and BASIS-vectors are now :
  energy-cutoff  :      450.00
  volume of cell :     1853.68
      direct lattice vectors                 reciprocal lattice vectors
    11.256463038  0.000000000  0.000000000     0.088837852  0.000000000  0.000000000
     0.000000000  9.578410000  0.000000000     0.000000000  0.104401461  0.000000000
     0.000000000  0.000000000 17.192492405     0.000000000  0.000000000  0.058164923

  length of vectors
    11.256463038  9.578410000 17.192492405     0.088837852  0.104401461  0.058164923

 FORCES acting on ions
    electron-ion (+dipol)            ewald-force                    non-local-force                 convergence-correction
   0.215E+02 0.559E+03 0.110E+04   -.207E+02 -.562E+03 -.111E+04   -.397E+00 0.233E+01 0.489E+01   -.101E+00 -.156E+00 -.100E+00
   0.413E+03 -.283E+03 -.307E+04   -.413E+03 0.283E+03 0.308E+04   -.706E+00 0.661E-01 -.491E+01   -.586E-01 -.175E+00 -.558E-01
   -.398E+03 -.625E+03 0.320E+04   0.399E+03 0.631E+03 -.320E+04   0.244E+00 -.618E+01 0.494E+01   0.473E-01 0.120E+00 -.337E-01
   0.423E+03 -.180E+03 -.121E+04   -.425E+03 0.181E+03 0.121E+04   0.763E+00 -.141E+01 -.150E+01   -.805E-01 0.117E+00 -.607E-01
   0.215E+02 -.559E+03 0.110E+04   -.207E+02 0.562E+03 -.111E+04   -.397E+00 -.233E+01 0.489E+01   -.101E+00 0.156E+00 -.100E+00
   0.413E+03 0.283E+03 -.307E+04   -.413E+03 -.283E+03 0.308E+04   -.706E+00 -.661E-01 -.491E+01   -.586E-01 0.175E+00 -.558E-01
   -.398E+03 0.625E+03 0.320E+04   0.399E+03 -.631E+03 -.320E+04   0.244E+00 0.618E+01 0.494E+01   0.473E-01 -.120E+00 -.337E-01
   0.423E+03 0.180E+03 -.121E+04   -.425E+03 -.181E+03 0.121E+04   0.763E+00 0.141E+01 -.150E+01   -.805E-01 -.117E+00 -.607E-01
   -.107E+04 0.552E-02 0.212E+04   0.107E+04 0.463E-07 -.212E+04   -.205E+01 0.000E+00 0.489E+01   -.598E-01 -.321E-04 -.155E-02
   -.679E+03 0.544E-02 -.244E+04   0.687E+03 0.235E-07 0.243E+04   -.710E+01 0.000E+00 -.215E+01   -.721E-01 -.264E-04 -.674E-01
   0.411E+03 0.472E-02 0.358E+04   -.414E+03 0.577E-07 -.359E+04   0.188E+01 0.000E+00 0.601E+01   -.686E-01 0.226E-05 -.158E+00
   -.666E+02 0.514E-02 -.210E+03   0.669E+02 -.477E-07 0.211E+03   -.799E+00 0.000E+00 -.660E+00   -.209E+00 0.918E-05 -.213E+00
   0.228E+03 0.429E-02 -.387E+04   -.224E+03 -.232E-07 0.387E+04   -.295E+01 0.000E+00 0.355E+01   -.218E+00 0.938E-05 0.601E-02
   0.233E+03 -.405E+03 0.183E+04   -.235E+03 0.410E+03 -.183E+04   0.103E+01 -.326E+01 0.541E+01   0.133E+00 -.113E+00 -.363E-01
   0.173E+03 -.531E+03 -.292E+04   -.174E+03 0.535E+03 0.292E+04   -.635E+00 -.318E+01 -.463E+01   0.126E+00 -.225E+00 -.723E-01
   0.926E+02 -.109E+04 0.337E+04   -.897E+02 0.109E+04 -.338E+04   -.273E+01 0.104E+00 0.439E+01   -.199E-02 0.933E-01 -.127E+00
   0.270E+03 -.708E+03 -.852E+03   -.273E+03 0.713E+03 0.853E+03   0.213E+01 -.444E+01 -.239E+01   -.409E-01 0.225E+00 -.310E+00
   0.233E+03 0.405E+03 0.183E+04   -.235E+03 -.410E+03 -.183E+04   0.103E+01 0.326E+01 0.541E+01   0.133E+00 0.113E+00 -.363E-01
   0.173E+03 0.531E+03 -.292E+04   -.174E+03 -.535E+03 0.292E+04   -.635E+00 0.318E+01 -.463E+01   0.126E+00 0.225E+00 -.724E-01
   0.926E+02 0.109E+04 0.337E+04   -.897E+02 -.109E+04 -.338E+04   -.273E+01 -.104E+00 0.439E+01   -.199E-02 -.933E-01 -.127E+00
   0.270E+03 0.708E+03 -.852E+03   -.273E+03 -.713E+03 0.853E+03   0.213E+01 0.444E+01 -.239E+01   -.409E-01 -.225E+00 -.310E+00
   0.718E+03 0.407E-02 0.183E+04   -.722E+03 -.176E-07 -.183E+04   0.302E+01 0.000E+00 0.676E+01   0.743E-01 -.159E-04 0.132E-02
   -.457E+03 0.544E-02 -.238E+04   0.461E+03 -.110E-07 0.239E+04   -.389E+01 0.000E+00 -.352E+01   -.930E-02 -.167E-04 0.330E-01
   0.309E+03 0.448E-02 0.346E+04   -.311E+03 0.168E-08 -.346E+04   0.133E+01 0.000E+00 0.471E+01   0.510E-01 0.851E-05 -.521E-01
   -.723E+03 0.478E-02 -.468E+03   0.726E+03 -.322E-07 0.469E+03   -.265E+01 0.000E+00 -.147E+01   0.194E+00 0.571E-05 -.289E+00
   -.471E+03 0.381E-02 -.414E+04   0.473E+03 0.204E-07 0.415E+04   -.193E+01 0.000E+00 -.477E+01   0.851E-01 0.138E-05 -.193E+00
   -.122E+03 -.923E+02 0.154E+04   0.122E+03 0.930E+02 -.155E+04   0.392E+00 -.408E+00 0.371E+01   0.594E-03 0.416E-01 -.300E-02
   -.167E+03 0.185E+03 -.155E+03   0.169E+03 -.188E+03 0.154E+03   -.592E+00 0.197E+01 0.177E+01   -.681E-02 0.466E-01 -.155E-01
   -.142E+03 0.274E+03 -.166E+04   0.144E+03 -.279E+03 0.167E+04   -.108E+00 0.332E+01 -.521E+00   -.197E-02 0.288E-01 -.672E-02
   -.907E+02 0.306E+03 0.105E+04   0.911E+02 -.309E+03 -.105E+04   0.543E+00 0.355E+01 0.101E+00   -.395E-01 -.690E-01 -.230E-01
   0.188E+03 0.932E+02 -.113E+04   -.189E+03 -.928E+02 0.113E+04   0.646E+00 -.530E+00 -.253E+01   -.960E-01 -.135E+00 -.479E-01
   -.122E+03 0.923E+02 0.154E+04   0.122E+03 -.930E+02 -.155E+04   0.392E+00 0.408E+00 0.371E+01   0.590E-03 -.416E-01 -.300E-02
   -.167E+03 -.185E+03 -.155E+03   0.169E+03 0.188E+03 0.154E+03   -.592E+00 -.197E+01 0.177E+01   -.681E-02 -.466E-01 -.155E-01
   -.142E+03 -.274E+03 -.166E+04   0.144E+03 0.279E+03 0.167E+04   -.108E+00 -.332E+01 -.521E+00   -.197E-02 -.288E-01 -.671E-02
   -.907E+02 -.306E+03 0.105E+04   0.911E+02 0.309E+03 -.105E+04   0.543E+00 -.355E+01 0.101E+00   -.395E-01 0.690E-01 -.230E-01
   0.188E+03 -.932E+02 -.113E+04   -.189E+03 0.928E+02 0.113E+04   0.646E+00 0.530E+00 -.253E+01   -.961E-01 0.135E+00 -.479E-01
   0.175E+03 0.414E-03 -.212E+03   -.177E+03 0.101E-07 0.210E+03   0.127E+01 0.000E+00 0.143E+01   -.252E-01 -.828E-05 -.279E-01
   -.687E+02 0.656E-04 0.184E+04   0.686E+02 0.357E-08 -.185E+04   -.386E-01 0.000E+00 0.184E+01   0.458E-01 0.483E-05 -.773E-01
   0.164E+02 0.806E-04 0.736E+02   -.169E+02 -.175E-07 -.683E+02   0.159E+00 0.000E+00 -.161E+01   0.479E-01 0.726E-05 0.976E-02
   -.161E+00 0.107E+01 0.158E+03   0.110E+01 -.385E+01 -.161E+03   0.128E+00 0.215E+01 0.188E+01   -.354E-01 0.544E-01 -.834E-02
   -.175E+03 0.210E+03 -.167E+04   0.176E+03 -.214E+03 0.167E+04   0.582E-02 0.319E+01 0.663E-01   -.644E-02 0.847E-01 0.799E-02
   -.280E+02 0.268E+03 0.842E+03   0.280E+02 -.271E+03 -.845E+03   0.861E+00 0.212E+01 0.186E+01   0.301E-01 -.690E-01 -.287E-01
   -.213E+03 0.176E+03 -.990E+03   0.214E+03 -.176E+03 0.992E+03   0.294E-01 0.282E+00 -.446E+00   0.112E+00 -.186E+00 -.117E+00
   -.160E+00 -.107E+01 0.158E+03   0.110E+01 0.385E+01 -.161E+03   0.128E+00 -.215E+01 0.188E+01   -.354E-01 -.544E-01 -.834E-02
   -.175E+03 -.210E+03 -.167E+04   0.176E+03 0.214E+03 0.167E+04   0.582E-02 -.319E+01 0.663E-01   -.644E-02 -.847E-01 0.799E-02
   -.280E+02 -.268E+03 0.842E+03   0.280E+02 0.271E+03 -.845E+03   0.861E+00 -.212E+01 0.186E+01   0.301E-01 0.690E-01 -.287E-01
   -.213E+03 -.176E+03 -.990E+03   0.214E+03 0.176E+03 0.992E+03   0.294E-01 -.282E+00 -.446E+00   0.112E+00 0.186E+00 -.117E+00
   0.263E+03 0.673E-04 0.164E+04   -.265E+03 -.742E-08 -.165E+04   -.280E+00 0.000E+00 0.210E+01   0.696E-01 -.416E-05 -.481E-01
   0.125E+03 -.190E-04 -.541E+03   -.124E+03 -.835E-08 0.545E+03   -.246E+01 0.000E+00 -.336E+01   0.750E-01 -.422E-05 0.989E-02
   0.784E+02 0.130E-03 0.185E+04   -.781E+02 -.329E-08 -.186E+04   -.641E+00 0.000E+00 0.776E+00   -.389E-02 0.721E-06 -.944E-01
   0.133E+03 0.980E-04 0.303E+03   -.135E+03 0.146E-09 -.298E+03   0.125E+01 0.000E+00 -.230E+01   0.634E-02 0.251E-05 -.622E-01
   0.136E+03 -.202E-04 -.133E+04   -.137E+03 0.246E-09 0.133E+04   0.755E+00 0.000E+00 -.156E+01   -.691E-01 0.309E-05 -.569E-01
   0.123E+02 0.346E-01 -.314E+02   0.341E-12 -.962E-14 -.387E-11   -.119E+02 -.500E-15 0.348E+02   -.129E+00 -.113E-04 -.336E+01

 POSITION                                       TOTAL-FORCE (eV/Angst)
      4.77889      5.04071      3.73310         0.307186     -0.645144     -0.589783
      5.54750      4.41997      5.82100        -1.018995     -0.023795     -0.240645
      1.76018      9.35895      1.73223         0.869340      0.009608     -0.076401
      2.52575      9.38032      4.17919        -0.972798     -0.573199      0.898930
      4.77889      1.31523      3.73310         0.307186      0.645144     -0.589783
      5.54750      1.93597      5.82100        -1.018995      0.023795     -0.240645
      1.76018      6.57540      1.73223         0.869340     -0.009608     -0.076401
      2.52575      6.55403      4.17919        -0.972798      0.573199      0.898930
      1.42242      3.17797      2.73968         1.219234     -0.000000      0.356259
      2.05421      3.17797      5.47658         1.336076     -0.000000     -2.357694
      5.14175      7.96718      1.62757        -1.034910     -0.000000      0.274406
      4.57649      7.96718      3.93431        -0.728207     -0.000000     -0.506871
      5.23765      7.96718      6.22044         0.227476     -0.000000      1.019026
     10.57359      4.44331      2.79952        -0.432428      0.983985      1.471787
     11.07696      4.49999      5.56450        -1.753541      0.283561     -0.052848
      7.57582      9.18079      1.67995         0.195574      1.483129      0.229742
      8.05131      9.23251      4.34179        -0.708827      0.999691     -1.274737
     10.57359      1.91264      2.79952        -0.432428     -0.983985      1.471787
     11.07696      1.85595      5.56450        -1.753541     -0.283561     -0.052848
      7.57582      6.75357      1.67995         0.195574     -1.483129      0.229742
      8.05131      6.70184      4.34179        -0.708827     -0.999691     -1.274737
      8.20562      3.17797      3.18362        -1.194198     -0.000000      0.317923
      7.68244      3.17797      5.47658         0.727825     -0.000000     -2.071018
     10.70936      7.96718      1.62912        -0.896674     -0.000000      0.038711
     10.20472      7.96718      3.93431         0.476697     -0.000000     -0.476995
      9.24669      7.96718      6.24687         0.496536     -0.000000      1.946640
      0.87289      1.63525      1.43672         0.732723      0.301306     -2.896842
      1.25497      1.56674      4.10795         1.150666     -1.078633     -0.093814
      1.35192      1.87738      6.86219         0.971510     -1.007219      3.454660
      3.77725      6.35595      2.56568         0.869975      0.067584     -3.695857
      4.33981      6.29328      5.38137        -0.828165     -0.255345      2.077590
      0.87289      4.72070      1.43672         0.732723     -0.301306     -2.896842
      1.25497      4.78920      4.10795         1.150666      1.078633     -0.093814
      1.35192      4.47856      6.86219         0.971510      1.007219      3.454660
      3.77725      9.57841      2.56568         0.869975     -0.067584     -3.695857
      4.33981      0.06267      5.38137        -0.828165      0.255345      2.077590
      4.14113      3.17797      4.62682        -1.397564     -0.000000     -0.022561
      1.06313      7.96718      0.38090        -0.149351     -0.000000     -4.102126
      1.03518      7.96718      3.08454        -0.304934     -0.000000      3.724525
      6.88320      1.56674      4.10795         1.030442     -0.571797     -1.090717
      7.19315      1.85185      6.93963         1.110948     -0.737014      3.628878
      9.40548      6.35595      2.56568         0.952848     -0.607333     -0.951926
      9.95279      6.30772      5.30192         0.668033     -0.806014      1.657024
      6.88320      4.78920      4.10795         1.030442      0.571797     -1.090717
      7.19315      4.50409      6.93963         1.110948      0.737014      3.628878
      9.40548      9.57841      2.56568         0.952848      0.607333     -0.951926
      9.95279      0.04823      5.30192         0.668033      0.806014      1.657024
      9.47435      3.17797      1.60707        -1.626963     -0.000000     -3.436329
      9.76936      3.17797      4.62682        -1.496695     -0.000000      0.469472
      6.68270      7.96718      0.30502        -0.345799     -0.000000     -4.568749
      6.66341      7.96718      3.08454        -0.601467     -0.000000      2.413219
      7.24750      7.96718      5.88005        -0.996065     -0.000000      2.072078
    total drift:                                0.256319      0.034617      0.098901

  FREE ENERGIE OF THE ION-ELECTRON SYSTEM (eV)
  free  energy   TOTEN  =      -248.07323971 eV

  energy  without entropy=     -247.24817668  energy(sigma->0) =     -247.66070819