 vasp.5.4.4.18Apr17-6-g9f103f2a35 (build Aug 13 2019 17:33:20) gamma-only

 executed on             LinuxIFC date 2020.05.12  03:16:26

 INCAR:
 POTCAR:    PAW_PBE Ni_pv 06Sep2000
 POTCAR:    PAW_PBE S 06Sep2000
 POTCAR:    PAW_PBE Ni_pv 06Sep2000
   VRHFIN =Ni:

   TITEL  = PAW_PBE Ni_pv 06Sep2000
   POMASS =   58.690; ZVAL   =   16.000    mass and valenz
   ENMAX  =  367.986; ENMIN  =  275.989 eV

 POTCAR:    PAW_PBE S 06Sep2000
   VRHFIN =S : s2p4

   TITEL  = PAW_PBE S 06Sep2000
   POMASS =   32.066; ZVAL   =    6.000    mass and valenz
   ENMAX  =  258.689; ENMIN  =  194.016 eV

 Optimization of the real space projectors (new method)

 maximal supplied QI-value         = 18.90
 optimisation between [QCUT,QGAM] = [ 10.77, 21.73] = [ 32.49,132.25] Ry
 Optimized for a Real-space Cutoff    1.38 Angstroem

   l    n(q)    QCUT    max X(q) W(low)/X(q) W(high)/X(q)  e(spline)
   1      8    10.771     2.836    0.40E-04    0.29E-04    0.12E-06
   1      8    10.771     4.023    0.10E-03    0.48E-04    0.29E-06
   2      8    10.771    73.368    0.42E-03    0.97E-04    0.44E-06
   2      8    10.771    69.010    0.42E-03    0.99E-04    0.45E-06
   0      9    10.771    54.797    0.10E-03    0.56E-04    0.74E-07
   0      9    10.771    24.266    0.89E-04    0.49E-04    0.67E-07
 Optimization of the real space projectors (new method)

 maximal supplied QI-value         = 19.84
 optimisation between [QCUT,QGAM] = [ 10.71, 21.63] = [ 32.15,130.99] Ry
 Optimized for a Real-space Cutoff    1.19 Angstroem

   l    n(q)    QCUT    max X(q) W(low)/X(q) W(high)/X(q)  e(spline)
   0      8    10.715   187.594    0.41E-03    0.53E-04    0.66E-07
   0      8    10.715   164.243    0.41E-03    0.53E-04    0.65E-07
   1      7    10.715    67.533    0.19E-03    0.59E-03    0.68E-07
   1      7    10.715    50.729    0.19E-03    0.58E-03    0.67E-07
  PAW_PBE Ni_pv 06Sep2000               :
  PAW_PBE S 06Sep2000                   :

 POSCAR: Type_037 Type_137
  positions in cartesian coordinates
 exchange correlation table for  LEXCH =        8
   RHO(1)=    0.500       N(1)  =     2000
   RHO(2)=  100.500       N(2)  =     4000

 ion  position               nearest neighbor table
   1  0.780  0.145  0.123-  65 2.07  51 2.07  42 2.25  52 2.36  66 2.36
   2  0.814  0.145  0.292-  66 2.07  52 2.07  43 2.19  38 2.21
   3  0.224  0.645  0.097-  44 2.03  45 2.19  63 2.23  53 2.23   4 2.33
   4  0.297  0.645  0.216-  64 2.10  54 2.10  45 2.25  53 2.26  63 2.26   3 2.33  29 2.53  17 2.53

   5  0.410  0.145  0.115-  47 2.08  48 2.10  69 2.14  55 2.14   6 2.41
   6  0.470  0.145  0.247-  56 2.08  70 2.08  48 2.25  55 2.26  69 2.26   5 2.41  32 2.53  20 2.53

   7  0.952  0.645  0.154-  58 2.07  68 2.07  49 2.25  57 2.36  67 2.36  33 2.53  21 2.53
   8  0.974  0.645  0.318-  46 2.05  67 2.06  57 2.06  50 2.10
   9  0.178  0.145  0.049-  47 2.02  73 2.05  59 2.05  10 2.44
  10  0.125  0.145  0.185-  60 2.13  74 2.13  73 2.16  59 2.16  39 2.25  11 2.43   9 2.44  35 2.53
                            23 2.53
  11  0.051  0.145  0.311-  60 2.09  74 2.09  38 2.21  39 2.35  15 2.42  27 2.42  10 2.43
  12  0.571  0.645  0.162-  40 2.01  41 2.17  71 2.20  61 2.20  13 2.27
  13  0.642  0.645  0.278-  62 2.03  72 2.03  41 2.25  61 2.26  71 2.26  12 2.27  37 2.53  25 2.53

[...]

  38  0.929  0.145  0.357-  27 2.05  15 2.05  11 2.21   2 2.21
  39  0.991  0.145  0.183-  15 2.11  27 2.11  26 2.23  14 2.23  10 2.25  11 2.35
  40  0.474  0.645  0.091-  16 2.01  28 2.01  12 2.01  17 2.26  29 2.26
  41  0.509  0.645  0.276-  18 2.06  30 2.06  12 2.17  13 2.25  29 2.36  17 2.36
  42  0.647  0.145  0.122-  19 2.03  31 2.03   1 2.25  20 2.26  32 2.26  43 2.65
  43  0.686  0.145  0.276-  20 2.15  32 2.15   2 2.19  42 2.65
  44  0.118  0.645  0.041-   3 2.03  21 2.05  33 2.05
  45  0.164  0.645  0.214-  22 2.09  34 2.09   3 2.19   4 2.25  33 2.36  21 2.36
  46  0.077  0.645  0.382-  34 2.05  22 2.05   8 2.05
  47  0.296  0.145  0.067-   9 2.02   5 2.08  35 2.14  23 2.14  48 2.64
  48  0.339  0.145  0.219-   5 2.10  23 2.17  35 2.17   6 2.25  47 2.64
  49  0.819  0.645  0.153-  36 2.23  24 2.23   7 2.25  25 2.26  37 2.26  50 2.74
  50  0.850  0.645  0.314-   8 2.10  25 2.11  37 2.11  49 2.74
  51  0.815  0.294  0.040-  24 2.02  26 2.06   1 2.07
  52  0.829  0.314  0.215-   2 2.07  27 2.09  26 2.12  24 2.15  25 2.25   1 2.36
  53  0.312  0.814  0.122-  28 1.99   3 2.23  23 2.25   4 2.26  29 2.26
  54  0.350  0.795  0.291-  30 2.03  29 2.08   4 2.10
  55  0.484  0.314  0.153-  31 1.99   5 2.14  17 2.25   6 2.26  32 2.26
  56  0.524  0.291  0.322-  18 2.01  32 2.06   6 2.08  70 2.78
  57  0.001  0.814  0.246-  34 2.05   8 2.06  15 2.10  33 2.36   7 2.36  58 2.77
  58  0.968  0.820  0.083-   7 2.07  33 2.09  14 2.10  57 2.77
  59  0.143  0.323  0.108-   9 2.05  35 2.10  21 2.14  10 2.16
  60  0.137  0.292  0.280-  11 2.09  22 2.11  10 2.13
  61  0.657  0.814  0.184-  12 2.20  20 2.25  37 2.26  13 2.26  36 2.28
  62  0.695  0.791  0.348-  37 2.02  13 2.03  72 2.79
  63  0.312  0.477  0.122-  16 1.99   3 2.23  35 2.25   4 2.26  17 2.26
  64  0.350  0.496  0.291-  18 2.03  17 2.08   4 2.10
  65  0.815  0.997  0.040-  36 2.02  14 2.06   1 2.07
  66  0.829  0.977  0.215-   2 2.07  15 2.09  14 2.12  36 2.15  37 2.25   1 2.36
  67  0.001  0.477  0.246-  22 2.05   8 2.06  27 2.10  21 2.36   7 2.36  68 2.77
  68  0.968  0.470  0.083-   7 2.07  21 2.09  26 2.10  67 2.77
  69  0.484  0.977  0.153-  19 1.99   5 2.14  29 2.25   6 2.26  20 2.26
  70  0.524  1.000  0.322-  30 2.01  20 2.06   6 2.08  56 2.78
  71  0.657  0.477  0.184-  12 2.20  32 2.25  25 2.26  13 2.26  24 2.28
  72  0.695  0.500  0.348-  25 2.02  13 2.03  62 2.79
  73  0.143  0.967  0.108-   9 2.05  23 2.10  33 2.14  10 2.16
  74  0.137  0.998  0.280-  11 2.09  34 2.11  10 2.13

  LATTYP: Found a simple orthorhombic cell.
 ALAT       =     9.5784100000
 B/A-ratio  =     1.7387693453
 C/A-ratio  =     1.7627867312

  Lattice vectors:

 A1 = (   0.0000000000,   9.5784100000,   0.0000000000)
 A2 = (   0.0000000000,   0.0000000000, -16.6546456851)
 A3 = ( -16.8846940542,   0.0000000000,   0.0000000000)

Analysis of symmetry for initial positions (statically):
 Subroutine PRICEL returns:
 Original cell was already a primitive cell.

 Routine SETGRP: Setting up the symmetry group for a
 simple orthorhombic supercell.

 Subroutine GETGRP returns: Found  2 space group operations
 (whereof  1 operations were pure point group operations)
 out of a pool of  8 trial point group operations.

The static configuration has the point symmetry C_1 .
 The point group associated with its full space group is C_1h.

Analysis of symmetry for dynamics (positions and initial velocities):
 Subroutine PRICEL returns:
 Original cell was already a primitive cell.

 Routine SETGRP: Setting up the symmetry group for a
 simple orthorhombic supercell.

 Subroutine GETGRP returns: Found  2 space group operations
 (whereof  1 operations were pure point group operations)
 out of a pool of  8 trial point group operations.

The dynamic configuration has the point symmetry C_1 .
 The point group associated with its full space group is C_1h.

 Subroutine INISYM returns: Found  2 space group operations
 (whereof  1 operations are pure point group operations),
 and found     1 'primitive' translations

 KPOINTS: gamma-point-only calculation. no periodi

Automatic generation of k-mesh.
Space group operators:
 irot       det(A)        alpha          n_x          n_y          n_z        tau_x        tau_y        tau_z
    1     1.000000     0.000000     1.000000     0.000000     0.000000     0.000000     0.000000     0.000000
    2    -1.000000   180.000000     0.000000     1.000000     0.000000     0.000000     0.290594     0.000000

 Subroutine IBZKPT returns following result:

 Found      1 irreducible k-points:

 Following reciprocal coordinates:
            Coordinates               Weight
  0.000000  0.000000  0.000000      1.000000

 Following cartesian coordinates:
            Coordinates               Weight
  0.000000  0.000000  0.000000      1.000000

 SYSTEM =  "Millerite NiS"
 POSCAR =  Type_037 Type_137

 Startparameter for this run:
   NWRITE =      2    write-flag & timer
   PREC   = normal    normal or accurate (medium, high low for compatibility)
   ISTART =      0    job   : 0-new  1-cont  2-samecut
   ICHARG =      2    charge: 1-file 2-atom 10-const
   ISPIN  =      1    spin polarized calculation?
   LNONCOLLINEAR =      F non collinear calculations
   LSORBIT =      F    spin-orbit coupling
   INIWAV =      1    electr: 0-lowe 1-rand  2-diag
   LASPH  =      F    aspherical Exc in radial PAW
   METAGGA=      F    non-selfconsistent MetaGGA calc.

 Electronic Relaxation 1
   ENCUT  =  450.0 eV  33.07 Ry    5.75 a.u.  29.20 16.57 28.81*2*pi/ulx,y,z
   ENINI  =  450.0     initial cutoff
   ENAUG  =  703.4 eV  augmentation charge cutoff
   NELM   =    100;   NELMIN=  2; NELMDL= -5     # of ELM steps
   EDIFF  = 0.1E-03   stopping-criterion for ELM
   LREAL  =      T    real-space projection
   NLSPLINE    = F    spline interpolate recip. space projectors
   LCOMPAT=      F    compatible to vasp.4.4
   GGA_COMPAT  = T    GGA compatible to vasp.4.4-vasp.4.6
   LMAXPAW     = -100 max onsite density
   LMAXMIX     =    2 max onsite mixed and CHGCAR
   VOSKOWN=      0    Vosko Wilk Nusair interpolation
   ROPT   =   -0.00050  -0.00050
 Ionic relaxation
   EDIFFG = 0.1E-02   stopping-criterion for IOM
   NSW    =      0    number of steps for IOM
   NBLOCK =      1;   KBLOCK =      1    inner block; outer block
   IBRION =     -1    ionic relax: 0-MD 1-quasi-New 2-CG
   NFREE  =      0    steps in history (QN), initial steepest desc. (CG)
   ISIF   =      2    stress and relaxation
   IWAVPR =     10    prediction:  0-non 1-charg 2-wave 3-comb
   ISYM   =      2    0-nonsym 1-usesym 2-fastsym
   LCORR  =      T    Harris-Foulkes like correction to forces

   POTIM  = 0.5000    time-step for ionic-motion
   TEIN   =    0.0    initial temperature
   TEBEG  =    0.0;   TEEND  =   0.0 temperature during run
   SMASS  =  -3.00    Nose mass-parameter (am)
   estimated Nose-frequenzy (Omega)   =  0.10E-29 period in steps =****** mass=  -0.652E-26a.u.
   SCALEE = 1.0000    scale energy and forces
   NPACO  =    256;   APACO  = 16.0  distance and # of slots for P.C.
   PSTRESS=    0.0 pullay stress

  Mass of Ions in am
   POMASS =  58.69 32.07
  Ionic Valenz
   ZVAL   =  16.00  6.00
  Atomic Wigner-Seitz radii
  virtual crystal weights
   VCA    =   1.00  1.00
   NELECT =     814.0000    total number of electrons
   NUPDOWN=      -1.0000    fix difference up-down

 DOS related values:
   EMIN   =  10.00;   EMAX   =-10.00  energy-range for DOS
   EFERMI =   0.00
   ISMEAR =     0;   SIGMA  =   0.20  broadening in eV -4-tet -1-fermi 0-gaus

 Electronic relaxation 2 (details)
   IALGO  =     38    algorithm
   LDIAG  =      T    sub-space diagonalisation (order eigenvalues)
   LSUBROT=      F    optimize rotation matrix (better conditioning)
   TURBO    =      0    0=normal 1=particle mesh
   IRESTART =      0    0=no restart 2=restart with 2 vectors
   NREBOOT  =      0    no. of reboots
   NMIN     =      0    reboot dimension
[...]
     0.000000000  9.578410000  0.000000000     0.000000000  0.104401461  0.000000000
     0.000000000  0.000000000 16.654645685     0.000000000  0.000000000  0.060043307

  length of vectors
    16.884694054  9.578410000 16.654645685     0.059225237  0.104401461  0.060043307

 FORCES acting on ions
    electron-ion (+dipol)            ewald-force                    non-local-force                 convergence-correction
   0.631E+03 -.882E-03 0.197E+04   -.635E+03 -.882E-05 -.198E+04   0.379E+01 0.000E+00 0.565E+01   0.380E-01 -.681E-07 0.125E-01
   0.749E+03 -.676E-03 -.307E+04   -.752E+03 -.149E-05 0.308E+04   0.236E+01 0.000E+00 -.265E+01   0.267E-01 -.322E-07 -.188E-01
   0.520E+02 -.678E-03 0.267E+04   -.531E+02 0.118E-05 -.267E+04   0.199E+01 0.000E+00 0.618E+01   -.123E-01 -.457E-07 -.780E-02
   0.492E+03 -.878E-03 -.144E+04   -.493E+03 -.677E-06 0.144E+04   0.840E+00 0.000E+00 -.378E+01   -.305E-01 -.115E-06 -.440E-01
   0.238E+03 -.878E-03 0.222E+04   -.238E+03 0.155E-04 -.223E+04   0.108E+01 0.000E+00 0.163E+01   -.316E-01 -.460E-07 -.424E-01
   0.717E+03 -.784E-03 -.210E+04   -.720E+03 -.851E-06 0.211E+04   0.142E+01 0.000E+00 -.593E+01   -.870E-02 -.734E-07 -.290E-01
   0.562E+03 -.827E-03 0.135E+04   -.567E+03 0.213E-06 -.135E+04   0.499E+01 0.000E+00 0.433E+01   0.145E-01 -.120E-06 -.154E-01
   0.464E+03 -.873E-03 -.331E+04   -.469E+03 0.195E-06 0.331E+04   0.354E+01 0.000E+00 -.383E+01   0.240E-01 -.149E-06 -.170E-01
   0.341E+03 -.103E-02 0.395E+04   -.345E+03 0.536E-06 -.396E+04   0.293E+01 0.000E+00 0.476E+01   -.249E-01 -.314E-06 -.371E-01
   0.375E+02 -.811E-03 0.407E+02   -.389E+02 0.116E-06 -.428E+02   0.243E+00 0.000E+00 0.196E+01   -.121E-01 -.131E-06 -.601E-01
   -.706E+03 -.102E-02 -.346E+04   0.706E+03 -.100E-06 0.346E+04   -.133E+01 0.000E+00 -.479E+01   -.271E-01 -.205E-07 -.140E-01
   -.409E+03 -.955E-03 0.156E+04   0.412E+03 0.152E-04 -.156E+04   -.340E+01 0.000E+00 0.432E+01   -.302E-03 -.267E-06 -.381E-01
   0.250E+03 -.924E-03 -.241E+04   -.253E+03 0.549E-05 0.241E+04   0.210E+01 0.000E+00 -.622E+01   0.265E-01 -.211E-06 -.236E-01
   -.482E+03 0.238E+03 0.255E+04   0.487E+03 -.240E+03 -.256E+04   -.463E+01 0.320E+01 0.595E+01   0.627E-02 0.782E-02 0.498E-02
   -.354E+02 0.637E+03 -.211E+04   0.383E+02 -.642E+03 0.211E+04   -.286E+01 0.425E+01 -.380E+01   -.222E-01 0.121E-01 -.181E-01
   -.847E+02 0.576E+03 0.381E+04   0.823E+02 -.573E+03 -.381E+04   0.264E+01 -.386E+01 -.227E+01   -.193E-01 0.105E-01 -.967E-02
   -.342E+01 0.585E+03 -.107E+03   0.319E+01 -.589E+03 0.106E+03   0.792E+00 0.407E+01 -.114E+01   -.265E-01 0.185E-01 -.679E-01
   0.206E+03 0.315E+03 -.373E+04   -.205E+03 -.318E+03 0.373E+04   -.114E+01 0.348E+01 0.223E+01   -.986E-02 -.198E-02 -.164E-01
   -.233E+03 0.623E+03 0.348E+04   0.231E+03 -.617E+03 -.349E+04   0.129E+01 -.591E+01 -.667E+00   0.515E-02 -.535E-02 -.243E-01
   -.359E+03 0.403E+03 -.108E+04   0.363E+03 -.408E+03 0.108E+04   -.238E+01 0.475E+01 -.438E+01   0.394E-01 -.643E-03 -.241E-01
   -.103E+03 0.538E+03 0.188E+04   0.101E+03 -.541E+03 -.188E+04   0.176E+01 0.256E+01 0.534E+01   0.633E-02 -.108E-01 -.934E-02
   -.795E+03 0.502E+03 -.282E+04   0.798E+03 -.507E+03 0.283E+04   -.169E+01 0.435E+01 -.427E+01   -.940E-02 0.643E-02 -.209E-01
   -.290E+03 0.491E+03 0.103E+03   0.292E+03 -.495E+03 -.102E+03   -.131E+01 0.352E+01 -.689E-01   -.357E-01 -.322E-02 -.560E-01
   0.430E+03 -.469E+03 0.253E+04   -.432E+03 0.472E+03 -.254E+04   0.158E+01 -.181E+01 0.780E+01   0.262E-01 -.162E-01 -.473E-02
   -.102E+03 0.318E+03 -.176E+04   0.104E+03 -.320E+03 0.176E+04   -.159E+01 0.275E+01 -.550E+01   0.243E-01 -.259E-01 -.222E-01
   -.482E+03 -.238E+03 0.255E+04   0.487E+03 0.240E+03 -.256E+04   -.463E+01 -.320E+01 0.595E+01   0.627E-02 -.782E-02 0.498E-02
   -.354E+02 -.637E+03 -.211E+04   0.383E+02 0.642E+03 0.211E+04   -.286E+01 -.425E+01 -.380E+01   -.222E-01 -.121E-01 -.181E-01
   -.847E+02 -.576E+03 0.381E+04   0.823E+02 0.573E+03 -.381E+04   0.264E+01 0.386E+01 -.227E+01   -.193E-01 -.105E-01 -.967E-02
   -.342E+01 -.585E+03 -.107E+03   0.319E+01 0.589E+03 0.106E+03   0.792E+00 -.407E+01 -.114E+01   -.265E-01 -.185E-01 -.679E-01
   0.206E+03 -.315E+03 -.373E+04   -.205E+03 0.318E+03 0.373E+04   -.114E+01 -.348E+01 0.223E+01   -.986E-02 0.198E-02 -.164E-01
   -.233E+03 -.623E+03 0.348E+04   0.231E+03 0.617E+03 -.349E+04   0.129E+01 0.591E+01 -.667E+00   0.515E-02 0.535E-02 -.243E-01
   -.359E+03 -.403E+03 -.108E+04   0.363E+03 0.408E+03 0.108E+04   -.238E+01 -.475E+01 -.438E+01   0.394E-01 0.644E-03 -.241E-01
   -.103E+03 -.538E+03 0.188E+04   0.101E+03 0.541E+03 -.188E+04   0.176E+01 -.256E+01 0.534E+01   0.633E-02 0.108E-01 -.934E-02
   -.795E+03 -.502E+03 -.282E+04   0.798E+03 0.507E+03 0.283E+04   -.169E+01 -.435E+01 -.427E+01   -.940E-02 -.643E-02 -.209E-01
   -.290E+03 -.491E+03 0.103E+03   0.292E+03 0.495E+03 -.102E+03   -.131E+01 -.352E+01 -.689E-01   -.357E-01 0.322E-02 -.560E-01
   0.430E+03 0.469E+03 0.253E+04   -.432E+03 -.472E+03 -.254E+04   0.158E+01 0.181E+01 0.780E+01   0.262E-01 0.162E-01 -.473E-02
   -.102E+03 -.318E+03 -.176E+04   0.104E+03 0.320E+03 0.176E+04   -.159E+01 -.275E+01 -.550E+01   0.243E-01 0.259E-01 -.222E-01
   0.800E+02 -.212E-04 -.179E+04   -.806E+02 -.117E-06 0.179E+04   0.381E+00 0.000E+00 -.281E+01   -.117E-01 0.103E-07 -.144E-01
   -.233E+03 -.843E-07 0.413E+03   0.234E+03 -.106E-06 -.417E+03   0.705E-01 0.000E+00 0.153E+01   -.107E-01 0.196E-08 -.716E-02
   -.392E+03 0.683E-05 0.113E+04   0.396E+03 -.429E-05 -.113E+04   -.149E+01 0.000E+00 0.185E+01   -.963E-02 -.372E-07 -.597E-02
   -.913E+02 -.495E-04 -.936E+03   0.918E+02 0.131E-05 0.941E+03   0.544E+00 0.000E+00 -.363E+01   0.743E-02 -.299E-07 -.273E-01
   -.269E+03 0.228E-04 0.764E+03   0.270E+03 -.188E-04 -.767E+03   0.398E+00 0.000E+00 0.186E+01   0.132E-01 0.372E-07 -.455E-02
   -.347E+02 0.988E-05 -.105E+04   0.356E+02 -.199E-05 0.105E+04   -.242E+00 0.000E+00 -.103E+01   0.272E-01 0.224E-07 -.303E-02
   0.728E+02 -.407E-05 0.169E+04   -.730E+02 0.395E-06 -.169E+04   0.351E+00 0.000E+00 0.199E+01   0.139E-02 0.463E-08 0.288E-02
   -.233E+03 0.345E-04 -.339E+03   0.233E+03 0.198E-06 0.341E+03   0.891E+00 0.000E+00 -.323E+01   -.565E-02 -.332E-08 -.634E-02
   -.186E+03 0.168E-04 -.177E+04   0.187E+03 -.202E-08 0.178E+04   0.346E+00 0.000E+00 -.114E+01   0.249E-02 -.160E-07 -.734E-02
   -.184E+03 -.250E-04 0.136E+04   0.185E+03 0.238E-05 -.137E+04   -.278E+00 0.000E+00 0.459E+01   -.263E-01 -.279E-07 -.160E-01
   0.980E+02 -.106E-04 -.785E+03   -.100E+03 0.117E-05 0.791E+03   0.152E+01 0.000E+00 -.379E+01   -.111E-01 -.137E-07 -.105E-01
   -.331E+01 0.313E-04 0.707E+03   0.481E+01 0.181E-07 -.711E+03   -.103E+01 0.000E+00 0.259E+01   0.538E-02 -.365E-08 -.730E-02
   -.264E+02 -.804E-05 -.129E+04   0.282E+02 0.296E-06 0.130E+04   -.906E+00 0.000E+00 -.255E+01   0.543E-02 -.297E-07 -.486E-02
   0.732E+02 -.107E+03 0.172E+04   -.732E+02 0.108E+03 -.173E+04   -.435E+00 -.249E+00 0.245E+01   0.828E-02 -.112E-02 0.658E-02
   0.171E+03 -.144E+03 -.338E+03   -.172E+03 0.145E+03 0.341E+03   -.395E+00 0.561E+00 -.187E+01   0.856E-02 -.139E-01 0.196E-03
   0.167E+03 -.255E+03 0.619E+03   -.168E+03 0.257E+03 -.621E+03   -.568E+00 -.104E+01 0.248E+01   -.523E-02 -.733E-02 -.111E-01
   0.386E+03 -.256E+03 -.123E+04   -.388E+03 0.260E+03 0.124E+04   0.558E+00 -.206E+01 -.170E+01   -.235E-01 -.415E-02 -.187E-01
   0.104E+03 -.177E+03 0.379E+03   -.105E+03 0.179E+03 -.381E+03   0.429E-01 -.601E+00 0.184E+01   -.424E-02 0.791E-02 -.154E-01
   -.305E+02 0.688E+02 -.146E+04   0.315E+02 -.675E+02 0.146E+04   -.566E+00 -.978E+00 -.198E+01   0.122E-01 -.926E-02 -.821E-03
   0.645E+02 -.134E+03 -.468E+03   -.662E+02 0.137E+03 0.468E+03   0.732E+00 -.207E+01 -.311E+00   0.373E-02 0.621E-02 -.698E-02
   0.763E+02 -.402E+02 0.136E+04   -.775E+02 0.398E+02 -.136E+04   0.802E+00 0.118E+01 0.373E+01   0.368E-02 0.612E-02 0.731E-04
   0.130E+03 -.184E+03 0.927E+03   -.130E+03 0.185E+03 -.930E+03   -.113E+01 0.245E+00 0.142E+01   -.183E-02 -.899E-02 -.198E-01
   -.398E+03 -.596E+02 -.103E+04   0.401E+03 0.608E+02 0.103E+04   -.110E+01 -.333E+00 -.925E+00   -.646E-02 0.103E-01 -.584E-02
   0.449E+02 -.662E+02 0.319E+03   -.468E+02 0.686E+02 -.321E+03   0.152E+01 -.156E+01 0.986E+00   0.946E-02 0.736E-03 -.101E-01
   0.525E+02 -.252E+03 -.158E+04   -.534E+02 0.256E+03 0.159E+04   0.516E+00 -.240E+01 -.763E+00   0.113E-01 0.535E-02 -.707E-03
   0.167E+03 0.255E+03 0.619E+03   -.168E+03 -.257E+03 -.621E+03   -.568E+00 0.104E+01 0.248E+01   -.523E-02 0.733E-02 -.111E-01
   0.386E+03 0.256E+03 -.123E+04   -.388E+03 -.260E+03 0.124E+04   0.558E+00 0.206E+01 -.170E+01   -.235E-01 0.415E-02 -.187E-01
   0.732E+02 0.107E+03 0.172E+04   -.732E+02 -.108E+03 -.173E+04   -.435E+00 0.249E+00 0.245E+01   0.828E-02 0.112E-02 0.658E-02
   0.171E+03 0.144E+03 -.338E+03   -.172E+03 -.145E+03 0.341E+03   -.395E+00 -.561E+00 -.187E+01   0.856E-02 0.139E-01 0.196E-03
   0.645E+02 0.134E+03 -.468E+03   -.662E+02 -.137E+03 0.468E+03   0.732E+00 0.207E+01 -.311E+00   0.373E-02 -.621E-02 -.698E-02
   0.763E+02 0.402E+02 0.136E+04   -.775E+02 -.398E+02 -.136E+04   0.802E+00 -.118E+01 0.373E+01   0.368E-02 -.612E-02 0.732E-04
   0.104E+03 0.177E+03 0.379E+03   -.105E+03 -.179E+03 -.381E+03   0.429E-01 0.601E+00 0.184E+01   -.424E-02 -.791E-02 -.154E-01
   -.305E+02 -.688E+02 -.146E+04   0.315E+02 0.675E+02 0.146E+04   -.566E+00 0.978E+00 -.198E+01   0.122E-01 0.926E-02 -.821E-03
   0.449E+02 0.662E+02 0.319E+03   -.468E+02 -.686E+02 -.321E+03   0.152E+01 0.156E+01 0.986E+00   0.946E-02 -.736E-03 -.101E-01
   0.525E+02 0.252E+03 -.158E+04   -.534E+02 -.256E+03 0.159E+04   0.516E+00 0.240E+01 -.763E+00   0.113E-01 -.535E-02 -.707E-03
   0.130E+03 0.184E+03 0.927E+03   -.130E+03 -.185E+03 -.930E+03   -.113E+01 -.245E+00 0.142E+01   -.183E-02 0.899E-02 -.198E-01
   -.398E+03 0.596E+02 -.103E+04   0.401E+03 -.608E+02 0.103E+04   -.110E+01 0.333E+00 -.925E+00   -.646E-02 -.103E-01 -.584E-02
   -.597E+01 -.116E-01 -.590E+01   -.853E-12 0.136E-11 -.432E-11   0.596E+01 0.222E-14 0.701E+01   -.292E-01 -.760E-06 -.115E+01

 POSITION                                       TOTAL-FORCE (eV/Angst)
     13.17084      1.39171      2.05636         0.020774      0.000000      1.123835
     13.75221      1.39171      4.85649        -0.966383      0.000000      1.024961
      3.77961      6.18092      1.62294         0.828217      0.000000     -0.296059
      5.02033      6.18092      3.59863         0.013366      0.000000      0.097161
      6.91998      1.39171      1.92147         0.527293      0.000000     -1.356404
      7.93172      1.39171      4.11272        -0.778118      0.000000     -1.183675
     16.08224      6.18092      2.57045        -0.372002      0.000000      1.986612
     16.44362      6.18092      5.29134        -1.626799      0.000000      0.253526
      3.00630      1.39171      0.82092        -0.391935      0.000000     -2.133324
      2.10894      1.39171      3.08454        -1.170523      0.000000     -0.252515
      0.86623      1.39171      5.17517        -1.010536      0.000000      0.689731
      9.63463      6.18092      2.70048         0.398648      0.000000     -0.656739
     10.84312      6.18092      4.62682        -0.740971      0.000000     -1.046197
     15.34921      0.03271      1.96271         0.893503      0.771317      0.238955
     15.89526      0.02293      4.42488         0.088621     -1.123691     -0.129520
      6.65612      4.95425      0.66176         0.209859     -0.565208     -1.133184
      7.17375      4.91558      3.19116         0.538695     -0.276257     -1.486948
      7.81587      4.50149      5.50690         0.014416      0.295343      0.935193
      9.54413      0.18498      1.15610        -0.000054     -0.433419     -1.209535
     10.08514      0.12638      3.70525         0.769657     -0.252697     -1.490974
      1.35096      4.91558      2.16298         0.175430     -0.461546      1.664920
      1.88117      4.85020      4.91431         1.140199     -0.971486     -0.054404
      4.26235      0.12638      2.67707         0.887085     -0.979229      1.206419
     13.07033      4.15063      2.01329        -0.853841      0.848131      0.203575
     12.99653      4.91558      4.21934         0.687963      0.000750     -1.303121
     15.34921      2.75072      1.96271         0.893503     -0.771317      0.238955
     15.89526      2.76050      4.42488         0.088621      1.123691     -0.129520
      6.65612      7.40759      0.66176         0.209859      0.565208     -1.133184
      7.17375      7.44626      3.19116         0.538695      0.276257     -1.486948
      7.81587      7.86035      5.50690         0.014416     -0.295343      0.935193
      9.54413      2.59845      1.15610        -0.000054      0.433419     -1.209535
     10.08514      2.65705      3.70525         0.769657      0.252697     -1.490974
      1.35096      7.44626      2.16298         0.175430      0.461546      1.664920
      1.88117      7.51164      4.91431         1.140199      0.971486     -0.054404
      4.26235      2.65705      2.67707         0.887085      0.979229      1.206419
     13.07033      8.21121      2.01329        -0.853841     -0.848131      0.203575
     12.99653      7.44626      4.21934         0.687963     -0.000750     -1.303121
     15.67986      1.39171      5.93740        -0.165837      0.000000      4.388042
     16.74052      1.39171      3.05601         1.176435      0.000000     -2.541982
      8.00634      6.18092      1.51374         1.619157      0.000000     -1.797512
      8.59001      6.18092      4.59828         1.095139      0.000000      1.183654
     10.91773      1.39171      2.02783         1.886201      0.000000     -1.171807
     11.58128      1.39171      4.59776         0.599333      0.000000      2.734568
      1.98957      6.18092      0.67603         0.142540      0.000000     -4.225738
      2.76722      6.18092      3.57010         1.643170      0.000000     -0.940301
      1.30662      6.18092      6.36084         0.626468      0.000000      4.556827
      5.00430      1.39171      1.11642         1.463168      0.000000     -2.988597
      5.72832      1.39171      3.65071        -0.699774      0.000000      2.389589
     13.82913      6.18092      2.54192         0.469680      0.000000     -1.697621
     14.34849      6.18092      5.22954         0.837257      0.000000      2.581654
     13.75681      2.81451      0.66450        -0.415190      0.886646     -3.879321
     13.99844      3.00295      3.57488        -1.293257      1.602720      0.812551
      5.26426      7.79215      2.03261        -1.736109      1.095812      0.003623
      5.91651      7.61561      4.83821        -1.870109      1.749447      2.147057
      8.17565      3.00295      2.54670        -0.959104      1.717623      0.219484
      8.85396      2.78370      5.35631         0.414333      0.289916      3.115360
      0.02514      7.79215      4.08897        -1.055212      0.598563     -0.956202
     16.34156      7.85761      1.37994        -0.419044      0.714053     -2.780827
      2.40921      3.09675      1.79580        -1.013719      0.919552     -1.314961
      2.31991      2.79799      4.66366         1.823121      0.842106      2.000660
     11.08705      7.79215      3.06079        -0.329728      0.845048     -0.959434
     11.74245      7.57425      5.79377        -0.409499      1.221618      3.789792
      5.26426      4.56969      2.03261        -1.736109     -1.095812      0.003623
      5.91651      4.74623      4.83821        -1.870109     -1.749447      2.147057
     13.75681      9.54733      0.66450        -0.415190     -0.886646     -3.879321
     13.99844      9.35889      3.57488        -1.293257     -1.602720      0.812551
      0.02514      4.56969      4.08897        -1.055212     -0.598563     -0.956202
     16.34156      4.50423      1.37994        -0.419044     -0.714053     -2.780827
      8.17565      9.35889      2.54670        -0.959104     -1.717623      0.219484
      8.85396      9.57814      5.35631         0.414333     -0.289916      3.115360
     11.08705      4.56969      3.06079        -0.329728     -0.845048     -0.959434
     11.74245      4.78759      5.79377        -0.409499     -1.221618      3.789792
      2.40921      9.26508      1.79580        -1.013719     -0.919552     -1.314961
      2.31991      9.56385      4.66366         1.823121     -0.842106      2.000660
    total drift:                               -0.042186     -0.011644     -0.039082

  FREE ENERGIE OF THE ION-ELECTRON SYSTEM (eV)
  free  energy   TOTEN  =      -350.20858576 eV

  energy  without entropy=     -349.05384215  energy(sigma->0) =     -349.63121396