 vasp.5.4.4.18Apr17-6-g9f103f2a35 (build Aug 13 2019 17:33:20) gamma-only

 executed on             LinuxIFC date 2020.05.12  00:30:54

 INCAR:
 POTCAR:    PAW_PBE Ni_pv 06Sep2000
 POTCAR:    PAW_PBE S 06Sep2000
 POTCAR:    PAW_PBE Ni_pv 06Sep2000
   VRHFIN =Ni:

   TITEL  = PAW_PBE Ni_pv 06Sep2000
   POMASS =   58.690; ZVAL   =   16.000    mass and valenz
   ENMAX  =  367.986; ENMIN  =  275.989 eV

 POTCAR:    PAW_PBE S 06Sep2000
   VRHFIN =S : s2p4

   TITEL  = PAW_PBE S 06Sep2000
   POMASS =   32.066; ZVAL   =    6.000    mass and valenz
   ENMAX  =  258.689; ENMIN  =  194.016 eV

 Optimization of the real space projectors (new method)

 maximal supplied QI-value         = 18.90
 optimisation between [QCUT,QGAM] = [ 10.77, 21.73] = [ 32.49,132.25] Ry
 Optimized for a Real-space Cutoff    1.38 Angstroem

   l    n(q)    QCUT    max X(q) W(low)/X(q) W(high)/X(q)  e(spline)
   1      8    10.771     2.836    0.40E-04    0.29E-04    0.12E-06
   1      8    10.771     4.023    0.10E-03    0.48E-04    0.29E-06
   2      8    10.771    73.368    0.42E-03    0.97E-04    0.44E-06
   2      8    10.771    69.010    0.42E-03    0.99E-04    0.45E-06
   0      9    10.771    54.797    0.10E-03    0.56E-04    0.74E-07
   0      9    10.771    24.266    0.89E-04    0.49E-04    0.67E-07
 Optimization of the real space projectors (new method)

 maximal supplied QI-value         = 19.84
 optimisation between [QCUT,QGAM] = [ 10.71, 21.63] = [ 32.15,130.99] Ry
 Optimized for a Real-space Cutoff    1.19 Angstroem

   l    n(q)    QCUT    max X(q) W(low)/X(q) W(high)/X(q)  e(spline)
   0      8    10.715   187.594    0.41E-03    0.53E-04    0.66E-07
   0      8    10.715   164.243    0.41E-03    0.53E-04    0.65E-07
   1      7    10.715    67.533    0.19E-03    0.59E-03    0.68E-07
   1      7    10.715    50.729    0.19E-03    0.58E-03    0.67E-07
  PAW_PBE Ni_pv 06Sep2000               :
  PAW_PBE S 06Sep2000                   :

 POSCAR: Type_037 Type_137
  positions in cartesian coordinates
 exchange correlation table for  LEXCH =        8
   RHO(1)=    0.500       N(1)  =     2000
   RHO(2)=  100.500       N(2)  =     4000

 ion  position               nearest neighbor table
   1  0.763  0.071  0.123-  51 2.02  65 2.09  42 2.09  66 2.12  36 2.46   2 2.48
   2  0.809  0.121  0.262-  52 2.04  66 2.08  43 2.09   1 2.48
   3  0.215  0.668  0.099-  44 2.03  45 2.12  53 2.18   4 2.40  63 2.48  27 2.50
   4  0.297  0.645  0.216-  54 2.13  64 2.16  45 2.25  53 2.26  63 2.26   3 2.40  28 2.53  16 2.53

   5  0.388  0.173  0.130-  47 2.04  48 2.13  55 2.14   6 2.40  30 2.49  69 2.51
   6  0.470  0.145  0.247-  70 2.11  56 2.11  48 2.25  55 2.26  69 2.26   5 2.40  31 2.53  19 2.53

   7  0.952  0.645  0.154-  58 2.01  68 2.06  49 2.21  57 2.36  67 2.36  32 2.53  20 2.53
   8  0.973  0.645  0.317-  46 2.05  67 2.06  57 2.06  50 2.09
   9  0.171  0.145  0.046-  47 2.01  59 2.04  73 2.04  10 2.44
  10  0.125  0.145  0.185-  73 2.16  39 2.16  59 2.16  60 2.36  74 2.36  11 2.37   9 2.44  34 2.53
                            22 2.53
  11  0.112  0.145  0.327-  38 2.03  74 2.10  60 2.10  10 2.37
  12  0.567  0.619  0.164-  40 2.00  71 2.11  41 2.13  13 2.30  61 2.42
  13  0.642  0.645  0.278-  72 2.04  62 2.04  71 2.12  41 2.25  61 2.26  12 2.30  37 2.53  24 2.53

  14  0.948  0.016  0.243-  38 2.06  39 2.09  57 2.14  66 2.17  26 2.50
  15  0.418  0.413  0.063-  55 2.09  63 2.13  16 2.34  27 2.46  40 2.47
  16  0.425  0.513  0.192-  64 2.15  55 2.25  40 2.26  63 2.26  15 2.34  41 2.36  17 2.40   4 2.53
                            28 2.53
  17  0.470  0.457  0.325-  56 2.00  64 2.06  41 2.08  16 2.40
  18  0.633  0.940  0.084-  65 2.04  42 2.07  61 2.10  19 2.48
  19  0.597  0.013  0.222-  70 2.07  43 2.12  61 2.25  69 2.26  42 2.26  18 2.48  31 2.53   6 2.53

[...]

  38  0.993  0.126  0.339-  11 2.03  26 2.06  14 2.06
  39  0.999  0.166  0.169-  14 2.09  25 2.11  26 2.11  10 2.16
  40  0.474  0.645  0.091-  12 2.00  27 2.02  16 2.26  28 2.26  15 2.47
  41  0.509  0.645  0.276-  29 2.07  17 2.08  12 2.13  13 2.25  28 2.36  16 2.36
  42  0.647  0.145  0.122-  30 2.03  18 2.07   1 2.09  19 2.26  31 2.26  43 2.62
  43  0.686  0.142  0.274-   2 2.09  19 2.12  31 2.16  42 2.62
  44  0.112  0.644  0.037-   3 2.03  20 2.06  32 2.07
  45  0.164  0.645  0.214-  33 2.09  21 2.09   3 2.12   4 2.25  32 2.36  20 2.36
  46  0.076  0.646  0.382-  21 2.05  33 2.05   8 2.05
  47  0.289  0.141  0.063-   9 2.01   5 2.04  22 2.13  34 2.17
  48  0.336  0.145  0.245-  23 2.04  35 2.05   5 2.13   6 2.25  34 2.36  22 2.36
  49  0.822  0.642  0.161-  36 2.09  24 2.16  37 2.19   7 2.21  50 2.63
  50  0.849  0.644  0.317-   8 2.09  24 2.11  37 2.13  49 2.63
  51  0.841  0.186  0.059-  25 2.00   1 2.02
  52  0.829  0.314  0.215-   2 2.04  25 2.08  26 2.15  24 2.25
  53  0.312  0.814  0.122-  27 2.03   3 2.18  22 2.25   4 2.26  28 2.26
  54  0.349  0.798  0.293-  29 2.04  23 2.04   4 2.13  28 2.14
  55  0.484  0.314  0.153-  30 2.07  15 2.09   5 2.14  16 2.25   6 2.26  31 2.26
  56  0.531  0.278  0.326-  17 2.00  31 2.06   6 2.11  70 2.67
  57  0.001  0.814  0.246-  33 2.05   8 2.06  14 2.14  32 2.36   7 2.36
  58  0.974  0.797  0.074-   7 2.01  32 2.03
  59  0.141  0.323  0.107-   9 2.04  20 2.13  34 2.13  10 2.16
  60  0.174  0.314  0.276-  35 2.06  11 2.10  21 2.15  10 2.36  34 2.36
  61  0.657  0.814  0.184-  18 2.10  36 2.16  19 2.25  37 2.26  13 2.26  12 2.42
  62  0.694  0.795  0.347-  37 2.02  13 2.04  72 2.72
  63  0.312  0.477  0.122-  27 2.06  15 2.13  34 2.25   4 2.26  16 2.26   3 2.48
  64  0.353  0.501  0.298-  35 2.04  17 2.06  16 2.15   4 2.16
  65  0.737  0.950  0.023-  36 2.03  18 2.04   1 2.09
  66  0.836  0.942  0.196-   2 2.08   1 2.12  37 2.15  14 2.17  36 2.21
  67  0.001  0.477  0.246-   8 2.06  21 2.06  26 2.19  20 2.36   7 2.36
  68  0.970  0.478  0.078-  25 2.05   7 2.06  20 2.08
  69  0.484  0.977  0.153-  30 2.03  28 2.25   6 2.26  19 2.26   5 2.51
  70  0.526  1.000  0.323-  29 2.00  19 2.07   6 2.11  56 2.67
  71  0.655  0.474  0.198-  12 2.11  13 2.12  31 2.16  24 2.18  72 2.69
  72  0.701  0.511  0.352-  24 2.01  13 2.04  71 2.69  62 2.72
  73  0.140  0.968  0.107-   9 2.04  32 2.12  22 2.14  10 2.16
  74  0.174  0.977  0.276-  23 2.04  11 2.10  33 2.15  10 2.36  22 2.36

  LATTYP: Found a simple orthorhombic cell.
 ALAT       =     9.5784100000
 B/A-ratio  =     1.7387693453
 C/A-ratio  =     1.7627867312

  Lattice vectors:

 A1 = (   0.0000000000,   9.5784100000,   0.0000000000)
 A2 = (   0.0000000000,   0.0000000000, -16.6546456851)
 A3 = ( -16.8846940542,   0.0000000000,   0.0000000000)

Analysis of symmetry for initial positions (statically):
 Subroutine PRICEL returns:
 Original cell was already a primitive cell.

 Routine SETGRP: Setting up the symmetry group for a
 simple orthorhombic supercell.

 Subroutine GETGRP returns: Found  1 space group operations
 (whereof  1 operations were pure point group operations)
 out of a pool of  8 trial point group operations.

The static configuration has the point symmetry C_1 .

Analysis of symmetry for dynamics (positions and initial velocities):
 Subroutine PRICEL returns:
 Original cell was already a primitive cell.

 Routine SETGRP: Setting up the symmetry group for a
 simple orthorhombic supercell.

 Subroutine GETGRP returns: Found  1 space group operations
 (whereof  1 operations were pure point group operations)
 out of a pool of  8 trial point group operations.

The dynamic configuration has the point symmetry C_1 .

 Subroutine INISYM returns: Found  1 space group operations
 (whereof  1 operations are pure point group operations),
 and found     1 'primitive' translations

 KPOINTS: gamma-point-only calculation. no periodi

Automatic generation of k-mesh.
Space group operators:
 irot       det(A)        alpha          n_x          n_y          n_z        tau_x        tau_y        tau_z
    1     1.000000     0.000000     1.000000     0.000000     0.000000     0.000000     0.000000     0.000000

 Subroutine IBZKPT returns following result:

 Found      1 irreducible k-points:

 Following reciprocal coordinates:
            Coordinates               Weight
  0.000000  0.000000  0.000000      1.000000

 Following cartesian coordinates:
            Coordinates               Weight
  0.000000  0.000000  0.000000      1.000000

 SYSTEM =  "Millerite NiS"
 POSCAR =  Type_037 Type_137

 Startparameter for this run:
   NWRITE =      2    write-flag & timer
   PREC   = normal    normal or accurate (medium, high low for compatibility)
   ISTART =      0    job   : 0-new  1-cont  2-samecut
   ICHARG =      2    charge: 1-file 2-atom 10-const
   ISPIN  =      1    spin polarized calculation?
   LNONCOLLINEAR =      F non collinear calculations
   LSORBIT =      F    spin-orbit coupling
   INIWAV =      1    electr: 0-lowe 1-rand  2-diag
   LASPH  =      F    aspherical Exc in radial PAW
   METAGGA=      F    non-selfconsistent MetaGGA calc.

 Electronic Relaxation 1
   ENCUT  =  450.0 eV  33.07 Ry    5.75 a.u.  29.20 16.57 28.81*2*pi/ulx,y,z
   ENINI  =  450.0     initial cutoff
   ENAUG  =  703.4 eV  augmentation charge cutoff
   NELM   =    100;   NELMIN=  2; NELMDL= -5     # of ELM steps
   EDIFF  = 0.1E-03   stopping-criterion for ELM
   LREAL  =      T    real-space projection
   NLSPLINE    = F    spline interpolate recip. space projectors
   LCOMPAT=      F    compatible to vasp.4.4
   GGA_COMPAT  = T    GGA compatible to vasp.4.4-vasp.4.6
   LMAXPAW     = -100 max onsite density
   LMAXMIX     =    2 max onsite mixed and CHGCAR
   VOSKOWN=      0    Vosko Wilk Nusair interpolation
   ROPT   =   -0.00050  -0.00050
 Ionic relaxation
   EDIFFG = 0.1E-02   stopping-criterion for IOM
   NSW    =      0    number of steps for IOM
   NBLOCK =      1;   KBLOCK =      1    inner block; outer block
   IBRION =     -1    ionic relax: 0-MD 1-quasi-New 2-CG
   NFREE  =      0    steps in history (QN), initial steepest desc. (CG)
   ISIF   =      2    stress and relaxation
   IWAVPR =     10    prediction:  0-non 1-charg 2-wave 3-comb
   ISYM   =      2    0-nonsym 1-usesym 2-fastsym
   LCORR  =      T    Harris-Foulkes like correction to forces

   POTIM  = 0.5000    time-step for ionic-motion
   TEIN   =    0.0    initial temperature
   TEBEG  =    0.0;   TEEND  =   0.0 temperature during run
   SMASS  =  -3.00    Nose mass-parameter (am)
   estimated Nose-frequenzy (Omega)   =  0.10E-29 period in steps =****** mass=  -0.652E-26a.u.
   SCALEE = 1.0000    scale energy and forces
   NPACO  =    256;   APACO  = 16.0  distance and # of slots for P.C.
   PSTRESS=    0.0 pullay stress

  Mass of Ions in am
   POMASS =  58.69 32.07
  Ionic Valenz
   ZVAL   =  16.00  6.00
  Atomic Wigner-Seitz radii
  virtual crystal weights
   VCA    =   1.00  1.00
   NELECT =     814.0000    total number of electrons
   NUPDOWN=      -1.0000    fix difference up-down

 DOS related values:
   EMIN   =  10.00;   EMAX   =-10.00  energy-range for DOS
   EFERMI =   0.00
   ISMEAR =     0;   SIGMA  =   0.20  broadening in eV -4-tet -1-fermi 0-gaus

 Electronic relaxation 2 (details)
   IALGO  =     38    algorithm
   LDIAG  =      T    sub-space diagonalisation (order eigenvalues)
[...]
     0.000000000  9.578410000  0.000000000     0.000000000  0.104401461  0.000000000
     0.000000000  0.000000000 16.654645685     0.000000000  0.000000000  0.060043307

  length of vectors
    16.884694054  9.578410000 16.654645685     0.059225237  0.104401461  0.060043307

 FORCES acting on ions
    electron-ion (+dipol)            ewald-force                    non-local-force                 convergence-correction
   -.391E+03 -.654E+03 0.207E+04   0.396E+03 0.658E+03 -.207E+04   -.461E+01 -.396E+01 0.319E+01   -.273E-01 0.537E-01 -.184E+00
   0.229E+03 -.176E+03 -.223E+04   -.230E+03 0.176E+03 0.223E+04   0.101E+01 -.233E+00 0.216E+01   -.620E-01 -.321E-01 0.271E-02
   0.256E+03 -.916E+02 0.292E+04   -.255E+03 0.921E+02 -.293E+04   0.654E+00 -.833E+00 0.686E+01   0.154E-01 -.232E-01 -.999E-01
   0.492E+03 -.575E+02 -.117E+04   -.494E+03 0.577E+02 0.118E+04   0.212E+01 -.184E+00 -.421E+01   -.362E-01 -.563E-01 -.146E-01
   -.134E+03 0.381E+03 0.221E+04   0.135E+03 -.380E+03 -.221E+04   -.920E+00 -.106E+01 0.461E+01   -.136E+00 0.193E+00 -.251E+00
   0.188E+01 0.104E+03 -.190E+04   -.466E+01 -.105E+03 0.190E+04   0.253E+01 -.167E-01 -.664E+01   -.295E+00 0.121E+00 -.590E-01
   0.998E+03 -.416E+02 0.141E+04   -.100E+04 0.426E+02 -.142E+04   0.494E+01 -.143E+01 0.412E+01   0.223E+00 -.732E-01 -.400E-01
   0.828E+03 -.168E+02 -.313E+04   -.833E+03 0.170E+02 0.313E+04   0.389E+01 -.435E+00 -.397E+01   0.220E+00 0.216E-01 0.865E-01
   0.680E+03 0.487E+02 0.422E+04   -.684E+03 -.485E+02 -.423E+04   0.345E+01 -.288E+00 0.381E+01   0.992E-01 0.143E-01 -.272E+00
   0.955E+03 0.541E+02 0.378E+03   -.959E+03 -.542E+02 -.376E+03   0.329E+01 0.362E+00 -.102E+01   0.243E+00 -.144E-01 -.484E+00
   0.313E+03 -.436E+01 -.359E+04   -.317E+03 0.359E+01 0.359E+04   0.445E+01 0.934E+00 0.146E+01   0.225E+00 -.467E-01 0.113E+00
   -.838E+03 0.143E+03 0.175E+04   0.842E+03 -.144E+03 -.175E+04   -.258E+01 0.216E+01 0.313E+01   -.241E+00 -.103E+00 -.490E-01
   -.111E+03 0.791E+02 -.226E+04   0.107E+03 -.776E+02 0.226E+04   0.308E+01 -.104E+01 -.590E+01   -.179E+00 -.690E-02 0.136E+00
   0.278E+03 0.408E+03 -.102E+04   -.276E+03 -.411E+03 0.102E+04   -.216E+01 0.131E+01 -.231E+00   0.149E+00 -.139E+00 -.617E-01
   -.575E+03 0.233E+03 0.399E+04   0.573E+03 -.233E+03 -.399E+04   0.180E+01 -.202E+00 -.189E+01   -.127E+00 -.929E-01 -.118E+00
   -.428E+03 0.229E+03 -.688E+01   0.428E+03 -.231E+03 0.887E+01   -.817E-03 0.253E+01 -.194E+01   -.699E-01 -.188E+00 0.734E-02
   -.381E+03 0.122E+03 -.368E+04   0.385E+03 -.127E+03 0.368E+04   -.352E+01 0.479E+01 0.101E+01   -.173E+00 0.904E-01 0.119E+00
   0.152E+03 0.453E+03 0.335E+04   -.152E+03 -.454E+03 -.336E+04   -.117E+01 -.892E-01 0.682E+01   -.974E-01 0.114E-01 -.168E+00
   -.587E+03 0.312E+03 -.113E+04   0.589E+03 -.316E+03 0.114E+04   -.125E+01 0.377E+01 -.630E+01   -.134E+00 -.820E-01 0.146E-01
   0.353E+03 0.555E+03 0.200E+04   -.354E+03 -.559E+03 -.200E+04   0.884E+00 0.314E+01 0.369E+01   0.202E+00 0.439E-01 -.823E-01
   -.743E+02 0.405E+03 -.274E+04   0.771E+02 -.411E+03 0.274E+04   -.186E+01 0.471E+01 -.397E+01   0.158E+00 0.186E+00 0.225E-01
   -.962E+02 0.629E+03 0.108E+04   0.963E+02 -.633E+03 -.108E+04   0.746E+00 0.319E+01 0.124E+01   0.258E-02 0.882E-01 -.259E+00
   -.486E+02 0.144E+03 -.336E+04   0.485E+02 -.148E+03 0.336E+04   0.212E+00 0.375E+01 0.245E+01   0.581E-01 -.859E-01 0.131E+00
   -.301E+03 0.719E+03 -.108E+04   0.304E+03 -.725E+03 0.107E+04   -.225E+01 0.522E+01 -.124E+01   -.185E-01 0.445E-01 0.515E-01
   0.441E+03 -.125E+03 0.248E+04   -.440E+03 0.127E+03 -.249E+04   -.561E+00 -.256E+01 0.533E+01   0.122E+00 0.765E-01 -.266E+00
   0.406E+03 -.355E+03 -.207E+04   -.407E+03 0.358E+03 0.207E+04   -.618E+00 -.173E+01 -.282E+01   0.109E+00 0.164E+00 -.797E-01
   -.171E+03 -.459E+03 0.404E+04   0.170E+03 0.459E+03 -.405E+04   0.828E+00 -.482E+00 0.510E+01   -.485E-01 -.210E+00 -.156E+00
   -.421E+03 -.613E+03 0.432E+03   0.421E+03 0.617E+03 -.434E+03   0.238E+00 -.354E+01 -.698E-01   -.122E+00 -.962E-01 0.694E-01
   -.301E+03 -.123E+03 -.371E+04   0.303E+03 0.127E+03 0.370E+04   -.200E+01 -.414E+01 0.214E+01   -.158E+00 -.144E+00 0.196E+00
   -.442E+03 -.147E+03 0.351E+04   0.441E+03 0.146E+03 -.351E+04   0.947E+00 0.390E+00 0.538E+01   -.338E+00 0.149E+00 -.203E+00
   -.101E+04 -.560E+03 -.648E+03   0.102E+04 0.566E+03 0.651E+03   -.260E+01 -.581E+01 -.449E+01   -.226E+00 0.143E+00 -.294E-01
   0.500E+03 -.667E+03 0.199E+04   -.501E+03 0.671E+03 -.199E+04   0.177E+01 -.415E+01 0.297E+01   0.275E+00 -.641E-01 -.267E-01
   -.580E+02 -.427E+03 -.272E+04   0.610E+02 0.433E+03 0.272E+04   -.191E+01 -.461E+01 -.380E+01   0.179E+00 -.116E+00 0.313E-01
   0.165E+03 -.520E+03 0.102E+04   -.165E+03 0.524E+03 -.102E+04   0.742E+00 -.273E+01 0.688E+00   0.115E+00 -.566E-01 -.344E+00
   0.113E+02 -.128E+03 -.335E+04   -.106E+02 0.132E+03 0.335E+04   -.726E+00 -.405E+01 0.216E+01   0.176E+00 0.959E-01 0.751E-01
   -.473E+03 0.731E+03 0.274E+04   0.475E+03 -.735E+03 -.274E+04   -.210E+01 0.278E+01 0.694E+01   -.223E-01 0.189E-01 -.121E+00
   -.405E+03 -.278E+03 -.170E+04   0.407E+03 0.282E+03 0.171E+04   -.149E+01 -.441E+01 -.715E+01   -.514E-01 -.606E-01 0.132E+00
   0.222E+03 0.644E+02 -.151E+04   -.222E+03 -.650E+02 0.151E+04   -.552E+00 0.316E+00 -.188E+01   0.312E-01 -.237E-01 0.114E+00
   0.780E+02 0.107E+03 0.630E+03   -.775E+02 -.109E+03 -.633E+03   0.158E+00 0.772E+00 0.206E+01   0.695E-01 0.347E-01 -.145E+00
   -.449E+03 -.167E+03 0.138E+04   0.453E+03 0.170E+03 -.138E+04   -.302E+01 -.291E+01 0.218E+01   -.699E-01 -.907E-01 -.780E-01
   -.226E+03 -.364E+02 -.918E+03   0.227E+03 0.364E+02 0.924E+03   0.625E+00 0.744E-01 -.416E+01   -.118E+00 -.880E-01 0.103E+00
   -.323E+03 -.442E+03 0.902E+03   0.325E+03 0.446E+03 -.908E+03   -.210E+01 -.237E+01 0.422E+01   0.524E-02 0.220E-01 -.709E-01
   -.205E+03 -.113E+03 -.102E+04   0.207E+03 0.113E+03 0.102E+04   -.295E+00 0.111E+00 -.399E+01   -.503E-01 -.842E-02 0.341E-01
   0.192E+03 0.158E+02 0.176E+04   -.192E+03 -.165E+02 -.176E+04   -.477E+00 0.825E+00 0.216E+01   0.836E-01 -.399E-02 -.241E-01
   -.501E+02 0.126E+02 -.274E+03   0.509E+02 -.127E+02 0.276E+03   0.698E+00 0.281E-01 -.266E+01   0.825E-02 0.210E-01 0.808E-03
   -.827E-01 -.428E+01 -.177E+04   0.603E+00 0.431E+01 0.177E+04   0.711E-01 -.275E-01 -.858E+00   0.814E-01 0.209E-01 0.117E-01
   -.167E+03 0.105E+03 0.161E+04   0.169E+03 -.106E+03 -.162E+04   -.310E+00 0.872E+00 0.285E+01   -.878E-01 0.372E-01 -.963E-01
   -.118E+03 0.661E+02 -.661E+03   0.119E+03 -.660E+02 0.667E+03   0.242E+00 0.144E-01 -.478E+01   0.520E-02 0.623E-02 -.324E-01
   -.219E+02 0.259E+03 0.683E+03   0.221E+02 -.262E+03 -.688E+03   0.380E+00 0.135E+01 0.230E+01   0.126E-01 -.393E-01 -.152E-01
   -.153E+02 0.235E+02 -.124E+04   0.165E+02 -.236E+02 0.124E+04   -.574E+00 0.124E+00 -.310E+01   0.596E-02 -.577E-02 0.509E-01
   -.681E+01 -.981E+02 0.142E+04   0.788E+01 0.990E+02 -.143E+04   -.572E+00 -.482E+00 0.223E+01   0.163E-01 0.280E-01 -.560E-01
   0.275E+03 -.196E+03 -.863E+02   -.278E+03 0.197E+03 0.865E+02   0.215E+01 0.119E+01 0.106E+01   0.520E-02 0.581E-01 -.737E-01
   -.147E+02 -.343E+03 0.889E+03   0.146E+02 0.346E+03 -.892E+03   -.608E+00 -.106E+01 0.281E+01   -.493E-01 -.122E-01 -.559E-01
   0.160E+03 0.287E+02 -.117E+04   -.161E+03 -.280E+02 0.117E+04   -.517E-01 -.273E+00 -.236E+01   -.295E-02 -.257E-03 0.735E-01
   -.340E+03 -.179E+03 0.493E+03   0.341E+03 0.182E+03 -.493E+03   -.123E+01 -.113E+01 0.102E+00   -.172E+00 0.753E-01 -.920E-01
   -.271E+03 0.610E+02 -.150E+04   0.272E+03 -.595E+02 0.151E+04   -.101E+01 -.135E+01 -.144E+01   -.129E+00 0.145E+00 0.840E-01
   0.281E+03 -.225E+03 -.414E+03   -.282E+03 0.227E+03 0.413E+03   -.167E+00 -.410E-01 -.575E+00   0.131E+00 -.685E-01 0.147E-01
   0.351E+03 -.280E+03 0.139E+04   -.354E+03 0.283E+03 -.139E+04   0.142E+01 -.108E+01 0.939E+00   0.823E-01 -.101E-01 -.549E-01
   0.295E+03 -.188E+03 0.104E+04   -.296E+03 0.190E+03 -.105E+04   -.793E-01 -.534E+00 0.113E+01   0.759E-01 -.989E-01 -.165E+00
   0.132E+03 -.135E+03 -.870E+03   -.133E+03 0.136E+03 0.872E+03   0.209E+00 -.842E+00 -.707E+00   0.606E-01 0.805E-01 -.704E-02
   -.462E+01 0.121E+03 0.161E+03   0.276E+01 -.120E+03 -.160E+03   0.521E+00 -.195E+01 -.412E+00   -.471E-01 -.149E-01 0.133E-01
   -.495E+02 -.253E+03 -.155E+04   0.484E+02 0.256E+03 0.155E+04   0.380E+00 -.217E+01 -.654E+00   -.344E-01 -.682E-02 0.818E-01
   0.269E+03 0.168E+03 0.803E+03   -.272E+03 -.170E+03 -.804E+03   0.113E+01 0.114E+01 0.101E+00   0.646E-01 -.344E-01 -.802E-01
   0.159E+03 -.815E+02 -.128E+04   -.160E+03 0.808E+02 0.128E+04   -.234E-01 0.135E+00 -.303E+01   0.105E+00 -.117E-01 0.456E-01
   -.203E+03 0.693E+01 0.174E+04   0.204E+03 -.727E+01 -.175E+04   -.470E+00 0.285E-01 0.163E+01   -.217E-02 0.334E-01 -.947E-01
   -.224E+03 0.822E+02 0.609E+02   0.228E+03 -.820E+02 -.608E+02   -.264E+01 0.144E-01 0.331E+00   -.180E-01 -.139E-01 -.484E-01
   0.273E+03 0.196E+03 -.436E+03   -.274E+03 -.198E+03 0.436E+03   0.237E+00 0.169E+00 -.701E+00   0.961E-01 0.647E-01 -.184E-01
   0.298E+03 0.823E+02 0.141E+04   -.300E+03 -.831E+02 -.142E+04   0.129E+01 0.268E+00 0.308E+01   0.463E-01 -.374E-01 -.494E-01
   0.299E+02 0.281E+03 0.628E+03   -.316E+02 -.284E+03 -.629E+03   0.570E+00 0.981E+00 0.106E+01   -.949E-01 0.147E-01 -.423E-01
   -.224E+03 -.460E+02 -.146E+04   0.225E+03 0.449E+02 0.146E+04   -.114E+01 0.118E+01 -.254E+01   -.720E-01 -.665E-01 0.826E-01
   -.287E+03 0.219E+03 0.348E+03   0.287E+03 -.221E+03 -.352E+03   -.822E-01 -.474E-02 0.291E+01   -.454E-01 0.118E-01 -.182E-01
   -.724E+02 0.270E+03 -.154E+04   0.717E+02 -.274E+03 0.154E+04   0.319E+00 0.276E+01 -.144E+01   -.328E-01 0.961E-02 0.703E-01
   0.318E+03 0.175E+03 0.104E+04   -.319E+03 -.176E+03 -.104E+04   -.211E+00 0.277E+00 0.837E+00   0.814E-01 0.960E-01 -.153E+00
   0.129E+03 0.146E+03 -.849E+03   -.130E+03 -.148E+03 0.850E+03   -.389E+00 0.139E+01 -.500E+00   0.730E-01 -.106E+00 0.926E-02
   0.161E+00 0.113E+02 -.150E+02   0.151E-11 -.114E-12 -.637E-11   -.345E+00 -.112E+02 0.178E+02   0.123E+00 -.158E+00 -.286E+01

 POSITION                                       TOTAL-FORCE (eV/Angst)
     12.88177      0.68349      2.05571         0.440796      0.436984      0.954718
     13.65453      1.15674      4.35897        -0.459178     -0.195933      0.212190
      3.63233      6.39554      1.64750         1.035472     -0.316886     -0.278834
      5.02033      6.18092      3.59863        -0.290330     -0.014539     -0.008408
      6.55448      1.65916      2.16208         0.435106     -0.476826     -0.490782
      7.93172      1.39171      4.11272        -0.538139     -0.591936     -0.598669
     16.08224      6.18092      2.57045        -0.283064     -0.506465      2.672733
     16.42448      6.18069      5.27220        -1.458836     -0.167622      0.507329
      2.88258      1.38746      0.77097        -0.809586     -0.026620     -1.870256
      2.10894      1.39171      3.08454        -0.308009      0.248824      0.284701
      1.88657      1.38934      5.44611         0.522745      0.113606      1.082630
      9.58001      5.93078      2.72539         0.659677      0.954924     -0.369048
     10.84312      6.18092      4.62682        -1.027595      0.440597     -0.516521
     16.00402      0.15075      4.04797        -0.792151     -1.211473     -0.009567
      7.05468      3.95193      1.05678         0.060901     -0.217843     -0.744961
      7.17375      4.91558      3.19116         0.434807      0.436446      0.065907
      7.92938      4.37749      5.40914        -0.304720      0.736747      0.997907
     10.68835      9.00750      1.39961        -1.416054     -0.555164     -0.369164
     10.08514      0.12638      3.70525         0.338491     -0.497279     -1.292074
      1.35096      4.91558      2.16298         0.275691     -0.397653      1.569843
      1.88581      4.85376      4.92286         1.034083     -1.272343      0.465290
      4.26235      0.12638      2.67707         0.836279     -0.577527      0.902274
      4.89841      9.41405      5.15181         0.137728     -0.134365      0.632866
     12.99653      4.91558      4.21934         1.038598     -0.892625     -1.963018
     15.42297      2.93357      2.05910         0.122107     -0.138719     -0.878028
     15.94973      2.62597      4.40348        -0.736708      0.919478      0.289637
      6.04498      6.19965      1.04058        -0.453481     -0.088469     -1.611092
      7.17375      7.44626      3.19116         0.445893      0.216681     -1.238272
      7.81950      7.87811      5.50685        -0.175559     -0.510982      0.763053
      8.94493      1.37052      1.53704        -0.325928      0.111504     -1.699358
     10.08514      2.65705      3.70525         1.303987     -0.027029     -1.451023
      1.35096      7.44626      2.16298         0.722588      0.077624      1.714817
      1.88380      7.50976      4.91555         1.351372      1.315111      0.343781
      4.26235      2.65705      2.67707         0.514839      0.604213      0.483241
      4.93926      3.03426      5.06406         0.142228      0.036221      0.903285
     12.89688      7.80822      1.87867        -0.125958     -0.793354     -0.205263
     12.99653      7.44626      4.21934         0.919479     -0.249657     -0.715040
     16.76327      1.20553      5.65005         0.020253     -0.358891      2.914778
     16.86362      1.59151      2.80786         0.782301     -0.680785     -1.109877
      8.00634      6.18092      1.51374         1.113248     -0.180795     -2.780804
      8.59001      6.18092      4.59828         0.955947     -0.073846      1.506650
     10.91773      1.39171      2.02783         0.156759      2.424034     -1.147329
     11.58794      1.35934      4.56073         0.992155     -0.005302      2.244242
      1.89668      6.17233      0.62347         0.066314      0.098405     -3.695590
      2.76722      6.18092      3.57010         1.516869     -0.064910     -0.424090
      1.28027      6.18454      6.35707         0.673939      0.027044      4.293612
      4.87560      1.35434      1.04975         1.519593     -0.045429     -2.839521
      5.67861      1.39171      4.08419         0.826809      0.170679      0.930178
     13.87921      6.15150      2.68630         0.631212     -1.020910     -1.871183
     14.33053      6.17116      5.27500         0.631231     -0.035551      2.624046
     14.19384      1.77902      0.97783         0.515936      0.483656     -2.505982
     13.99844      3.00295      3.57488        -0.673458      1.956099      1.119575
      5.26426      7.79215      2.03261        -0.784317      2.041319     -0.207264
      5.88714      7.64524      4.88724        -1.046198      0.410152      1.940248
      8.17565      3.00295      2.54670         0.144123      1.452786     -0.047747
      8.97123      2.66617      5.43391        -0.047882      0.274986      3.132941
      0.02514      7.79215      4.08897        -1.181024      1.823612     -1.446644
     16.44356      7.63800      1.23828        -1.540600      2.041888     -3.033898
      2.37850      3.09405      1.77628        -0.659130      0.873186     -1.267640
      2.93654      3.00295      4.60306        -0.385884      0.224184      0.841588
     11.08705      7.79215      3.06079        -1.380277     -0.852143      0.455708
     11.71902      7.61505      5.78083        -0.746302      1.268740      3.673614
      5.26426      4.56969      2.03261        -1.490911     -1.177827     -0.599844
      5.95943      4.80085      4.96482        -1.255598     -0.602349      1.745207
     12.44743      9.09579      0.38015         0.756186     -0.281288     -3.886035
     14.10907      9.02399      3.26814         1.234584      0.229497      0.426208
      0.02514      4.56969      4.08897        -1.145562     -1.788245     -0.733513
     16.37276      4.58295      1.29539        -0.711197     -0.536507     -2.922842
      8.17565      9.35889      2.54670        -1.173035     -1.512628     -0.245678
      8.87586      9.57509      5.38085         0.393964      0.043997      2.686315
     11.05984      4.53741      3.30452         0.066556     -1.369898     -1.557707
     11.83131      4.89494      5.86093        -0.368355     -1.104663      3.770359
      2.36825      9.26783      1.78697        -0.946801     -0.596951     -1.271144
      2.93654      9.35889      4.60306        -0.729023     -0.342995      0.752238
    total drift:                               -0.060269      0.025754     -0.073449

  FREE ENERGIE OF THE ION-ELECTRON SYSTEM (eV)
  free  energy   TOTEN  =      -351.23407363 eV

  energy  without entropy=     -350.15260535  energy(sigma->0) =     -350.69333949