 vasp.5.4.4.18Apr17-6-g9f103f2a35 (build Aug 13 2019 17:33:20) gamma-only

 executed on             LinuxIFC date 2020.05.11  03:05:36

 INCAR:
 POTCAR:    PAW_PBE Ni_pv 06Sep2000
 POTCAR:    PAW_PBE S 06Sep2000
 POTCAR:    PAW_PBE Ni_pv 06Sep2000
   VRHFIN =Ni:

   TITEL  = PAW_PBE Ni_pv 06Sep2000
   POMASS =   58.690; ZVAL   =   16.000    mass and valenz
   ENMAX  =  367.986; ENMIN  =  275.989 eV

 POTCAR:    PAW_PBE S 06Sep2000
   VRHFIN =S : s2p4

   TITEL  = PAW_PBE S 06Sep2000
   POMASS =   32.066; ZVAL   =    6.000    mass and valenz
   ENMAX  =  258.689; ENMIN  =  194.016 eV

 Optimization of the real space projectors (new method)

 maximal supplied QI-value         = 18.90
 optimisation between [QCUT,QGAM] = [ 10.77, 21.73] = [ 32.49,132.25] Ry
 Optimized for a Real-space Cutoff    1.38 Angstroem

   l    n(q)    QCUT    max X(q) W(low)/X(q) W(high)/X(q)  e(spline)
   1      8    10.771     2.836    0.40E-04    0.29E-04    0.12E-06
   1      8    10.771     4.023    0.10E-03    0.48E-04    0.29E-06
   2      8    10.771    73.368    0.42E-03    0.97E-04    0.44E-06
   2      8    10.771    69.010    0.42E-03    0.99E-04    0.45E-06
   0      9    10.771    54.797    0.10E-03    0.56E-04    0.74E-07
   0      9    10.771    24.266    0.89E-04    0.49E-04    0.67E-07
 Optimization of the real space projectors (new method)

 maximal supplied QI-value         = 19.84
 optimisation between [QCUT,QGAM] = [ 10.71, 21.63] = [ 32.15,130.99] Ry
 Optimized for a Real-space Cutoff    1.19 Angstroem

   l    n(q)    QCUT    max X(q) W(low)/X(q) W(high)/X(q)  e(spline)
   0      8    10.715   187.594    0.41E-03    0.53E-04    0.66E-07
   0      8    10.715   164.243    0.41E-03    0.53E-04    0.65E-07
   1      7    10.715    67.533    0.19E-03    0.59E-03    0.68E-07
   1      7    10.715    50.729    0.19E-03    0.58E-03    0.67E-07
  PAW_PBE Ni_pv 06Sep2000               :
  PAW_PBE S 06Sep2000                   :

 POSCAR: Type_052 Type_152
  positions in cartesian coordinates
 exchange correlation table for  LEXCH =        8
   RHO(1)=    0.500       N(1)  =     2000
   RHO(2)=  100.500       N(2)  =     4000

 ion  position               nearest neighbor table
   1  0.261  0.479  0.291-  79 2.25  63 2.26  87 2.26  59 2.36  64 2.36   8 2.53  23 2.53
   2  0.355  0.385  0.419-  80 2.17  57 2.17  59 2.26  64 2.26  65 2.30  71 2.36   3 2.45   9 2.53
                            24 2.53
   3  0.448  0.264  0.510-  71 2.02  65 2.03  57 2.06   2 2.45
   4  0.037  0.203  0.088-  68 1.99  69 2.18  60 2.21  88 2.21   5 2.30  14 2.44
   5  0.167  0.073  0.162-  88 2.21  69 2.25  60 2.26   4 2.30  61 2.36  89 2.36  38 2.53  32 2.53

   6  0.162  0.333  0.041-  62 2.10  60 2.11  55 2.12   7 2.36
   7  0.274  0.333  0.128-  55 2.06  62 2.18  60 2.25   6 2.36  56 2.36  63 2.36  13 2.53  31 2.53

[...]

  52  0.808  0.553  0.034-  99 2.01  68 2.04  19 2.41  26 2.43
  53  0.073  0.167  0.306-  28 2.25  11 2.26  22 2.26  10 2.36  21 2.36  54 2.56
  54  0.162  0.064  0.406-  12 2.04  22 2.08  29 2.22  11 2.23  53 2.56  83 2.69
  55  0.348  0.336  0.046-  39 2.01   7 2.06   6 2.12  13 2.63
  56  0.479  0.261  0.178-  18 2.25   8 2.26  23 2.26   7 2.36  13 2.36
  57  0.281  0.445  0.507-  37 2.05   3 2.06   2 2.17  71 2.64  65 2.73  80 2.75
  58  0.023  0.341  0.469-  12 2.07  16 2.08  11 2.08  78 2.73
  59  0.436  0.472  0.350-  34 2.25   2 2.26  24 2.26   1 2.36  23 2.36
  60  0.248  0.160  0.093-  14 2.07   6 2.11   4 2.21   7 2.25   5 2.26  38 2.26
  61  0.342  0.066  0.221-   8 2.25  28 2.26  48 2.26   5 2.36  38 2.36
  62  0.079  0.487  0.102-  39 2.09   6 2.10  26 2.15  31 2.15   7 2.18
  63  0.174  0.397  0.221-  10 2.25   8 2.26   1 2.26   7 2.36  31 2.36
  64  0.268  0.303  0.350-  11 2.25   2 2.26   9 2.26   1 2.36   8 2.36  65 2.69
  65  0.340  0.204  0.458-   3 2.03   9 2.08  12 2.08   2 2.30  64 2.69  57 2.73
  66  0.573  0.167  0.306-  40 2.25  24 2.26   9 2.26  23 2.36   8 2.36  67 2.65
  67  0.661  0.077  0.413-  25 2.09   9 2.11  24 2.13  41 2.29  96 2.50  66 2.65
  68  0.885  0.355  0.050-   4 1.99  52 2.04  19 2.05  26 2.26  20 2.26
  69  0.979  0.261  0.178-   4 2.18   5 2.25  21 2.26  10 2.26  20 2.36  26 2.36
  70  0.629  0.625  0.559-  50 2.08  43 2.08  17 2.10  30 2.14
  71  0.530  0.378  0.478-   3 2.02  43 2.09  25 2.14  24 2.36   2 2.36  57 2.64
  72  0.936  0.472  0.350-  47 2.25  16 2.26  11 2.26  15 2.36  10 2.36
  73  0.758  0.158  0.099-  44 2.07  27 2.15  20 2.16  51 2.17  18 2.22
  74  0.842  0.066  0.221-  21 2.25  40 2.26  35 2.26  18 2.36  51 2.36
  75  0.580  0.483  0.107-  19 2.01  13 2.10  42 2.11  20 2.14
  76  0.674  0.397  0.221-  23 2.25  21 2.26  15 2.26  20 2.36  42 2.36
  77  0.768  0.303  0.350-  24 2.25  16 2.26  22 2.26  15 2.36  21 2.36
  78  0.819  0.276  0.484-  25 2.08  17 2.08  16 2.09  58 2.73
  79  0.073  0.667  0.306-   1 2.25  36 2.26  47 2.26  35 2.36  46 2.36  80 2.50
  80  0.167  0.558  0.402-  37 2.04  47 2.10   2 2.17  36 2.27  79 2.50  57 2.75
  81  0.398  0.842  0.064-  14 2.01  38 2.06  32 2.06  82 2.79
  82  0.479  0.761  0.178-  42 2.25  33 2.26  48 2.26  32 2.36  38 2.36  81 2.79
  83  0.291  0.966  0.507-  12 2.04  30 2.06  29 2.21  97 2.67  54 2.69  91 2.71
  84  0.046  0.796  0.470-  36 2.00  37 2.08  41 2.24  96 2.58 104 2.65
  85  0.436  0.972  0.350-   9 2.25  29 2.26  49 2.26  28 2.36  48 2.36
  86  0.261  0.656  0.107-  39 2.06  13 2.09  31 2.12  32 2.13
  87  0.342  0.566  0.221-  33 2.25   1 2.26  23 2.26  31 2.36  13 2.36
  88  0.075  0.993  0.098-  14 2.09  27 2.13  51 2.17   4 2.21   5 2.21  32 2.27
  89  0.174  0.897  0.221-  35 2.25  33 2.26  28 2.26  32 2.36   5 2.36
  90  0.268  0.803  0.350-  36 2.25  29 2.26  34 2.26  28 2.36  33 2.36
  91  0.362  0.709  0.478-  43 2.04  30 2.06  37 2.07  29 2.36  34 2.36  83 2.71
  92  0.573  0.667  0.306-  15 2.25  49 2.26  34 2.26  48 2.36  33 2.36
  93  0.667  0.573  0.435-  50 2.08  43 2.08  17 2.23  16 2.25  49 2.36  34 2.36
  94  0.888  0.873  0.054-  44 2.01  51 2.05  27 2.17  45 2.29
  95  0.979  0.761  0.178-  31 2.25  46 2.26  35 2.26  45 2.36  51 2.36
  96  0.820  0.992  0.496-  25 2.02  41 2.08  67 2.50  84 2.58
  97  0.534  0.881  0.462-  49 2.06  30 2.07  50 2.09  29 2.23  83 2.67
  98  0.936  0.972  0.350-  22 2.25  41 2.26  36 2.26  40 2.36  35 2.36
  99  0.755  0.661  0.108-  52 2.01  42 2.10  45 2.10  26 2.14
 100  0.842  0.566  0.221-  46 2.25  15 2.26  10 2.26  42 2.36  26 2.36
 101  0.582  0.980  0.107-  44 2.06  45 2.11  38 2.11  18 2.11
 102  0.674  0.897  0.221-  48 2.25  46 2.26  40 2.26  45 2.36  18 2.36
 103  0.768  0.803  0.350-  49 2.25  41 2.26  47 2.26  40 2.36  46 2.36 104 2.75
 104  0.857  0.718  0.461-  50 2.05  47 2.06  41 2.10  84 2.65 103 2.75

  LATTYP: Found a base centered orthorhombic cell.
 ALAT       =    11.8257374459
 B/A-ratio  =     1.6199260857
 C/A-ratio  =     1.9350716598

  Lattice vectors:

 A1 = (  11.2564630382,   0.0000000000,   0.0000000000)
 A2 = (  -5.0445621212, -10.0628203371,   0.0000000000)
 A3 = (   0.0000000000,   0.0000000000, -22.8836493875)

Analysis of symmetry for initial positions (statically):
 Subroutine PRICEL returns:
 Original cell was already a primitive cell.

 Routine SETGRP: Setting up the symmetry group for a
 base centered orthorhombic supercell.

 Subroutine GETGRP returns: Found  1 space group operations
 (whereof  1 operations were pure point group operations)
 out of a pool of  8 trial point group operations.

The static configuration has the point symmetry C_1 .

Analysis of symmetry for dynamics (positions and initial velocities):
 Subroutine PRICEL returns:
 Original cell was already a primitive cell.

 Routine SETGRP: Setting up the symmetry group for a
 base centered orthorhombic supercell.

 Subroutine GETGRP returns: Found  1 space group operations
 (whereof  1 operations were pure point group operations)
 out of a pool of  8 trial point group operations.

The dynamic configuration has the point symmetry C_1 .

 Subroutine INISYM returns: Found  1 space group operations
 (whereof  1 operations are pure point group operations),
 and found     1 'primitive' translations

 KPOINTS: gamma-point-only calculation. no periodi

Automatic generation of k-mesh.
Space group operators:
 irot       det(A)        alpha          n_x          n_y          n_z        tau_x        tau_y        tau_z
    1     1.000000     0.000001     1.000000     0.000000     0.000000     0.000000     0.000000     0.000000

 Subroutine IBZKPT returns following result:

 Found      1 irreducible k-points:

 Following reciprocal coordinates:
            Coordinates               Weight
  0.000000  0.000000  0.000000      1.000000

 Following cartesian coordinates:
            Coordinates               Weight
  0.000000  0.000000  0.000000      1.000000

 SYSTEM =  "Millerite NiS"
 POSCAR =  Type_052 Type_152

 Startparameter for this run:
   NWRITE =      2    write-flag & timer
   PREC   = normal    normal or accurate (medium, high low for compatibility)
   ISTART =      0    job   : 0-new  1-cont  2-samecut
   ICHARG =      2    charge: 1-file 2-atom 10-const
   ISPIN  =      1    spin polarized calculation?
   LNONCOLLINEAR =      F non collinear calculations
   LSORBIT =      F    spin-orbit coupling
   INIWAV =      1    electr: 0-lowe 1-rand  2-diag
   LASPH  =      F    aspherical Exc in radial PAW
   METAGGA=      F    non-selfconsistent MetaGGA calc.

 Electronic Relaxation 1
   ENCUT  =  450.0 eV  33.07 Ry    5.75 a.u.  19.47 19.47 39.58*2*pi/ulx,y,z
   ENINI  =  450.0     initial cutoff
   ENAUG  =  703.4 eV  augmentation charge cutoff
   NELM   =    100;   NELMIN=  2; NELMDL= -5     # of ELM steps
   EDIFF  = 0.1E-03   stopping-criterion for ELM
   LREAL  =      T    real-space projection
   NLSPLINE    = F    spline interpolate recip. space projectors
   LCOMPAT=      F    compatible to vasp.4.4
   GGA_COMPAT  = T    GGA compatible to vasp.4.4-vasp.4.6
   LMAXPAW     = -100 max onsite density
   LMAXMIX     =    2 max onsite mixed and CHGCAR
   VOSKOWN=      0    Vosko Wilk Nusair interpolation
   ROPT   =   -0.00050  -0.00050
 Ionic relaxation
   EDIFFG = 0.1E-02   stopping-criterion for IOM
   NSW    =      0    number of steps for IOM
   NBLOCK =      1;   KBLOCK =      1    inner block; outer block
   IBRION =     -1    ionic relax: 0-MD 1-quasi-New 2-CG
   NFREE  =      0    steps in history (QN), initial steepest desc. (CG)
   ISIF   =      2    stress and relaxation
   IWAVPR =     10    prediction:  0-non 1-charg 2-wave 3-comb
   ISYM   =      2    0-nonsym 1-usesym 2-fastsym
   LCORR  =      T    Harris-Foulkes like correction to forces

   POTIM  = 0.5000    time-step for ionic-motion
   TEIN   =    0.0    initial temperature
   TEBEG  =    0.0;   TEEND  =   0.0 temperature during run
   SMASS  =  -3.00    Nose mass-parameter (am)
   estimated Nose-frequenzy (Omega)   =  0.10E-29 period in steps =****** mass=  -0.290E-26a.u.
   SCALEE = 1.0000    scale energy and forces
   NPACO  =    256;   APACO  = 16.0  distance and # of slots for P.C.
   PSTRESS=    0.0 pullay stress

  Mass of Ions in am
   POMASS =  58.69 32.07
  Ionic Valenz
   ZVAL   =  16.00  6.00
  Atomic Wigner-Seitz radii
[...]
     0.000000000  0.000000000 22.883649388     0.000000000  0.000000000  0.043699324

  length of vectors
    11.256463038 11.256463038 22.883649388     0.099375718  0.099375718  0.043699324

 FORCES acting on ions
    electron-ion (+dipol)            ewald-force                    non-local-force                 convergence-correction
   0.252E+03 -.405E+03 -.517E+03   -.252E+03 0.405E+03 0.516E+03   0.285E+00 -.220E+00 0.128E+01   0.130E+00 -.516E-01 -.321E+00
   0.445E+03 -.303E+03 -.352E+04   -.444E+03 0.302E+03 0.352E+04   -.171E+01 0.864E+00 0.178E+01   -.116E-01 0.510E-01 0.328E-01
   0.277E+03 0.488E+03 -.618E+04   -.277E+03 -.492E+03 0.618E+04   0.136E+01 0.305E+01 -.198E+01   0.490E-01 0.135E+00 0.171E+00
   0.118E+03 -.773E+02 0.483E+04   -.117E+03 0.762E+02 -.484E+04   -.694E+00 0.116E+01 0.358E+01   -.180E+00 -.355E+00 -.436E+00
   -.344E+01 -.190E+02 0.200E+04   0.441E+01 0.192E+02 -.199E+04   -.527E+00 -.373E+00 -.481E+01   -.333E-01 -.173E+00 -.774E+00
   -.334E+02 0.491E+02 0.622E+04   0.344E+02 -.491E+02 -.622E+04   -.204E+01 -.240E+00 0.149E+01   -.294E-01 -.183E+00 -.302E+00
   -.274E+03 0.599E+03 0.328E+04   0.276E+03 -.602E+03 -.327E+04   -.218E+01 0.140E+01 -.283E+01   0.104E-01 -.105E+00 -.352E+00
   0.194E+03 0.475E+03 0.497E+03   -.196E+03 -.476E+03 -.499E+03   0.102E+01 0.701E+00 0.160E+01   0.328E+00 0.556E-01 -.365E+00
   0.234E+03 0.594E+03 -.266E+04   -.237E+03 -.598E+03 0.266E+04   0.168E+01 0.291E+01 -.377E+00   0.141E+00 0.139E+00 -.111E+00
   -.524E+03 -.795E+02 0.329E+03   0.525E+03 0.804E+02 -.329E+03   -.940E+00 -.985E+00 0.565E+00   0.109E+00 0.120E+00 -.434E+00
   -.435E+03 -.163E+03 -.268E+04   0.438E+03 0.166E+03 0.267E+04   -.311E+01 -.261E+01 0.113E+01   0.137E+00 0.213E+00 0.128E+00
   0.181E+03 -.238E+02 -.561E+04   -.181E+03 0.252E+02 0.562E+04   0.117E+01 -.892E+00 -.235E+01   0.409E-01 0.140E+00 0.376E+00
   -.715E+03 0.202E+02 0.387E+04   0.719E+03 -.220E+02 -.386E+04   -.286E+01 0.855E+00 -.113E+00   0.145E+00 0.132E-01 -.156E+00
   -.285E+03 0.503E+03 0.634E+04   0.286E+03 -.506E+03 -.634E+04   -.235E+01 0.435E+01 0.466E+01   -.118E+00 -.112E+00 -.167E+00
   0.228E+03 -.424E+03 -.585E+03   -.228E+03 0.425E+03 0.585E+03   0.481E+00 -.103E+01 0.666E-02   -.178E+00 0.967E-01 -.320E+00
   -.118E+03 -.860E+02 -.348E+04   0.117E+03 0.866E+02 0.348E+04   0.528E+00 -.423E+00 0.205E+01   -.539E-01 0.142E+00 0.270E+00
   -.803E+03 0.592E+03 -.596E+04   0.800E+03 -.594E+03 0.596E+04   0.310E+01 0.272E+01 -.228E+01   -.287E-01 -.461E-02 0.331E+00
   0.450E+03 -.490E+03 0.242E+04   -.452E+03 0.493E+03 -.242E+04   0.147E+01 -.262E+01 -.177E+01   0.738E-01 -.302E-01 -.398E+00
   0.930E+03 -.226E+03 0.610E+04   -.928E+03 0.231E+03 -.610E+04   -.154E+01 -.525E+01 -.304E+01   -.227E+00 -.311E+00 -.131E+00
   0.608E+03 0.262E+03 0.331E+04   -.610E+03 -.262E+03 -.331E+04   0.235E+01 0.332E+00 -.539E+00   -.210E+00 -.289E+00 -.306E+00
   0.298E+03 0.459E+03 0.334E+03   -.299E+03 -.460E+03 -.333E+03   0.140E+01 0.654E+00 0.244E+00   -.384E+00 -.182E+00 -.540E+00
   0.309E+03 0.603E+03 -.304E+04   -.313E+03 -.605E+03 0.303E+04   0.264E+01 0.174E+01 0.143E+01   -.223E+00 0.406E-01 0.348E-01
   -.502E+03 -.164E+02 0.557E+03   0.502E+03 0.172E+02 -.558E+03   -.924E+00 -.584E+00 0.129E+01   -.510E-01 -.113E+00 -.405E+00
   -.486E+03 0.278E+02 -.238E+04   0.489E+03 -.248E+02 0.237E+04   -.289E+01 -.209E+01 0.130E+01   -.122E+00 -.598E-02 -.947E-01
   -.404E+03 0.597E+03 -.543E+04   0.405E+03 -.597E+03 0.543E+04   -.147E+01 0.362E+00 -.215E+01   -.415E-01 0.715E-01 0.250E+00
   -.475E+03 -.438E+03 0.331E+04   0.476E+03 0.440E+03 -.330E+04   -.950E+00 -.193E+01 -.764E+00   0.187E-01 -.943E-02 -.190E+00
   -.131E+03 0.120E+03 0.629E+04   0.129E+03 -.121E+03 -.629E+04   0.224E+01 0.139E+01 -.407E+00   -.683E-02 -.808E-01 -.172E+00
   0.243E+03 -.349E+03 -.596E+03   -.243E+03 0.350E+03 0.596E+03   0.544E+00 -.808E+00 0.101E+01   0.227E-01 -.121E-01 -.493E+00
   0.464E+03 -.553E+03 -.357E+04   -.466E+03 0.552E+03 0.357E+04   0.127E+01 0.362E+00 0.235E+01   0.534E-01 0.579E-02 0.330E+00
   0.268E+03 -.756E+03 -.615E+04   -.266E+03 0.757E+03 0.615E+04   -.126E+01 -.865E+00 -.338E+01   0.136E-01 -.122E+00 0.460E+00
   0.210E+03 -.639E+03 0.243E+04   -.211E+03 0.642E+03 -.242E+04   0.955E+00 -.262E+01 -.174E+01   0.266E-01 0.224E+00 -.213E+00
   0.204E+03 0.871E+03 0.377E+04   -.205E+03 -.874E+03 -.376E+04   0.665E+00 0.298E+01 -.522E-01   -.447E-01 0.818E-01 -.508E+00
   0.236E+03 0.454E+03 0.568E+03   -.237E+03 -.454E+03 -.568E+03   0.110E+01 0.375E+00 0.933E+00   -.890E-01 -.462E+00 -.694E+00
   0.295E+03 0.338E+03 -.230E+04   -.296E+03 -.338E+03 0.230E+04   0.134E+01 0.447E+00 0.282E+01   -.746E-01 -.248E+00 0.127E-01
   -.488E+03 0.289E+02 0.424E+03   0.489E+03 -.281E+02 -.425E+03   -.721E+00 -.737E+00 0.188E+01   -.243E+00 -.893E-01 -.490E+00
   -.358E+03 -.324E+03 -.277E+04   0.362E+03 0.328E+03 0.276E+04   -.364E+01 -.415E+01 0.125E+01   -.190E+00 -.134E+00 -.113E+00
   0.409E+03 -.300E+03 -.534E+04   -.407E+03 0.301E+03 0.535E+04   -.170E+01 0.326E+00 -.470E+01   -.253E-01 -.162E+00 0.225E+00
   -.852E+03 0.193E+03 0.378E+04   0.856E+03 -.194E+03 -.378E+04   -.281E+01 0.935E+00 -.194E+00   0.355E-01 -.319E-01 -.463E+00
   -.271E+03 -.830E+03 0.606E+04   0.274E+03 0.833E+03 -.607E+04   -.313E+01 -.159E+01 0.494E+01   -.365E-01 0.768E-01 -.193E+00
   0.230E+03 -.345E+03 -.623E+03   -.230E+03 0.345E+03 0.623E+03   0.329E+00 -.887E+00 0.743E+00   -.196E-02 -.414E-01 -.442E+00
   0.468E+02 -.337E+03 -.404E+04   -.480E+02 0.340E+03 0.404E+04   0.818E+00 -.279E+01 -.101E+01   -.759E-01 -.571E-02 -.696E-01
   0.422E+03 -.676E+03 0.262E+04   -.424E+03 0.678E+03 -.262E+04   0.153E+01 -.223E+01 0.865E+00   -.120E+00 0.335E-01 -.335E+00
   0.576E+03 0.429E+03 -.536E+04   -.580E+03 -.433E+03 0.536E+04   0.312E+01 0.345E+01 -.194E+01   0.612E-01 -.116E+00 0.388E+00
   0.875E+03 -.215E+03 0.605E+04   -.879E+03 0.215E+03 -.605E+04   0.281E+01 0.947E+00 0.551E+01   0.438E+00 0.277E-01 -.130E+00
   0.341E+03 0.643E+03 0.381E+04   -.341E+03 -.648E+03 -.381E+04   0.760E+00 0.340E+01 0.337E+00   0.938E-01 0.227E+00 -.247E+00
   0.239E+03 0.421E+03 0.476E+03   -.240E+03 -.421E+03 -.477E+03   0.905E+00 0.363E+00 0.124E+01   0.960E-01 0.170E+00 -.406E+00
   0.204E+03 0.441E+03 -.292E+04   -.209E+03 -.446E+03 0.292E+04   0.389E+01 0.393E+01 -.145E+01   0.285E-01 0.315E-01 -.109E+00
   -.536E+03 0.378E+01 0.555E+03   0.537E+03 -.306E+01 -.556E+03   -.873E+00 -.708E+00 0.121E+01   0.500E+00 -.101E+00 -.666E+00
   -.613E+03 -.144E+03 -.231E+04   0.614E+03 0.143E+03 0.231E+04   -.124E+01 0.245E-01 0.294E+01   0.303E+00 -.255E-02 -.618E-01
   -.114E+04 -.431E+03 -.528E+04   0.115E+04 0.433E+03 0.528E+04   -.485E+01 -.976E+00 -.175E+01   0.738E-02 -.150E+00 0.324E+00
   -.403E+03 0.460E+03 0.323E+04   0.405E+03 -.462E+03 -.323E+04   -.117E+01 0.176E+01 -.330E+01   0.358E-01 0.198E+00 -.774E+00
   -.149E+03 -.952E+03 0.610E+04   0.144E+03 0.954E+03 -.610E+04   0.468E+01 -.953E+00 -.270E+01   0.482E-01 0.315E-01 -.146E+00
   -.572E+02 0.121E+03 -.221E+03   0.581E+02 -.123E+03 0.218E+03   -.868E+00 0.158E+01 0.198E+01   -.107E+00 0.109E+00 -.812E-01
   0.108E+03 0.194E+03 -.126E+04   -.109E+03 -.196E+03 0.126E+04   0.731E+00 0.978E+00 0.186E+01   -.141E-01 0.516E-01 0.137E+00
   -.448E+03 0.292E+03 0.233E+04   0.452E+03 -.295E+03 -.233E+04   -.146E+01 0.170E+01 0.993E+00   -.166E-01 -.778E-01 -.129E+00
   -.905E+02 0.129E+03 0.103E+04   0.913E+02 -.131E+03 -.103E+04   -.770E+00 0.183E+01 0.137E+01   0.811E-01 -.459E-01 -.545E-01
   0.367E+03 -.110E+03 -.233E+04   -.372E+03 0.112E+03 0.233E+04   0.348E+01 -.908E+00 -.300E+01   0.163E-01 0.185E-01 0.641E-01
   -.183E+03 -.178E+03 -.214E+04   0.188E+03 0.181E+03 0.214E+04   -.326E+01 -.106E+01 -.997E+00   -.748E-02 0.443E-01 0.125E+00
   -.714E+02 -.143E+03 -.594E+03   0.725E+02 0.146E+03 0.595E+03   -.417E+00 -.292E+01 -.647E+00   -.755E-01 -.960E-01 -.108E+00
   -.380E+03 0.377E+02 0.172E+04   0.384E+03 -.378E+02 -.172E+04   -.300E+01 0.718E+00 -.263E+00   -.704E-04 -.870E-01 -.176E+00
[...]
   0.389E+03 -.182E+03 -.191E+04   -.393E+03 0.183E+03 0.191E+04   0.191E+01 -.387E+00 -.214E+01   -.364E-01 -.795E-01 0.179E+00
   -.811E+02 0.106E+03 -.141E+03   0.823E+02 -.108E+03 0.139E+03   -.121E+01 0.180E+01 0.139E+01   0.359E-01 -.669E-02 -.173E+00
   -.125E+03 0.109E+03 -.114E+04   0.126E+03 -.111E+03 0.113E+04   -.236E+00 0.475E+00 0.159E+01   0.400E-01 -.738E-01 0.144E+00
   -.448E+02 0.526E+03 0.229E+04   0.459E+02 -.532E+03 -.229E+04   -.886E+00 0.260E+01 0.120E+01   0.130E+00 0.212E+00 -.960E-01
   -.761E+02 0.137E+03 0.101E+04   0.772E+02 -.139E+03 -.102E+04   -.104E+01 0.141E+01 0.174E+01   -.856E-02 0.520E-01 -.115E+00
   -.146E+03 0.168E+03 -.226E+04   0.147E+03 -.169E+03 0.227E+04   -.387E+00 0.110E+00 -.326E+01   -.226E-01 0.233E-01 0.885E-01
   -.289E+03 -.479E+03 -.181E+04   0.295E+03 0.486E+03 0.181E+04   -.388E+01 -.441E+01 0.936E+00   0.565E-01 0.102E-01 0.125E+00
   -.915E+02 -.137E+03 -.751E+03   0.930E+02 0.139E+03 0.751E+03   -.103E+01 -.199E+01 0.914E-02   -.113E+00 -.458E-01 -.108E+00
   0.606E+02 -.364E+03 0.163E+04   -.621E+02 0.366E+03 -.163E+04   0.154E+01 -.697E+00 0.143E+01   0.331E-02 0.134E+00 0.137E-01
   -.675E+02 -.201E+03 0.464E+03   0.687E+02 0.203E+03 -.463E+03   -.119E+01 -.259E+01 0.474E+00   0.332E-01 0.154E+00 -.196E+00
   0.303E+03 0.449E+01 0.174E+04   -.304E+03 -.396E+01 -.175E+04   -.139E+00 -.993E-01 0.901E+00   0.185E-01 0.528E-02 -.719E-01
   0.181E+03 0.947E+01 0.497E+03   -.183E+03 -.886E+01 -.497E+03   0.249E+01 -.770E+00 0.926E+00   0.690E-01 0.230E-01 -.179E+00
   0.127E+03 -.145E+02 -.673E+03   -.130E+03 0.149E+02 0.673E+03   0.310E+01 -.419E+00 -.969E+00   0.735E-01 0.193E-01 -.106E+00
   -.167E+03 0.595E+02 -.202E+04   0.168E+03 -.614E+02 0.203E+04   -.505E-01 0.104E+01 -.138E+01   0.135E-01 -.118E-01 0.479E-01
   -.785E+01 0.664E+01 -.142E+01   0.824E-12 -.448E-12 0.523E-11   0.747E+01 -.529E+01 0.134E+02   0.175E+00 -.131E+01 -.122E+02

 POSITION                                       TOTAL-FORCE (eV/Angst)
      5.35228      4.81788      6.64784         0.190417     -0.189765     -0.114379
      5.93595      3.87238      9.58390        -0.054762     -0.089524     -0.729758
      6.37284      2.65996     11.67148         0.569999     -0.998654      1.634277
      1.43780      2.04069      2.00663         0.138857     -0.237339     -1.193238
      2.24633      0.73197      3.71178         0.413206     -0.400126      1.953431
      3.50504      3.35185      0.94022        -1.058269     -0.482461     -1.185917
      4.76861      3.35453      2.93606         0.192675     -0.822924      3.340054
      5.35228      2.40903      5.87212         0.022426      0.032155      0.096134
      5.93595      1.46353      8.80817        -0.748093     -0.360798     -1.953288
      1.87746      3.73836      5.87212         0.108141      0.080405      0.029555
      2.46113      2.79286      8.80817        -0.237998      0.086792     -2.007646
      2.88624      1.58169     10.95788         0.354262      0.578375      1.200454
      6.92203      4.68386      2.93606         0.448513     -0.887462      0.933157
      2.59679      0.07139      1.16330        -0.628380      0.561850     -1.814869
     10.98051      4.81788      6.64784         0.145796     -0.190995     -0.118944
     11.56418      3.87238      9.58390        -0.680151      0.325869     -2.504109
     11.09333      4.67678     11.76958         0.624561      0.348147      0.097056
      7.87456      0.73197      3.71178        -0.151606      0.677799      1.615775
      9.86109      4.25541      0.76307        -0.367816     -0.078949     -1.448991
     10.39684      3.35453      2.93606         0.351023     -0.551526      1.829826
     10.98051      2.40903      5.87212        -0.177899      0.012051      0.065067
     11.56418      1.46353      8.80817        -1.390200      0.294120     -0.931930
      7.50570      3.73836      5.87212        -0.191271      0.114691      0.120243
      8.08937      2.79286      8.80817         0.178772      0.857326     -1.472787
      8.75239      1.85492     10.98199        -0.606330      0.956354      0.428418
     12.55026      4.68386      2.93606         0.274681     -0.426620      1.721018
     10.53391      0.50819      0.86648         0.711077      0.566538     -1.136669
      7.87456      9.84929      6.64784         0.154947     -0.338790     -0.164313
      8.45823      8.90379      9.58390        -0.206717     -0.392129     -0.000386
      9.20989      7.99062     11.98985         0.688215      0.173609      1.739338
      4.76861      5.76338      3.71178        -0.231973      0.585589      1.861055
      7.29089      8.38594      2.93606        -0.593393     -0.734168      1.655073
      7.87456      7.44044      5.87212        -0.049058     -0.063771      0.021162
      8.45823      6.49494      8.80817        -0.035183     -0.157130     -0.122935
      4.39975      8.76977      5.87212        -0.079796     -0.071494      0.086149
      4.98341      7.82427      8.80817         0.656450     -0.231872     -2.409578
      5.75646      6.32859     10.78828         0.300700      0.803854      0.566802
      9.44431      9.71527      2.93606         0.726189      0.195643      1.586610
      5.10329      5.30648      1.29947        -0.285168      1.422136     -1.466517
     13.50279      9.84929      6.64784         0.083827     -0.264596     -0.065032
     14.08646      8.90379      9.58390        -0.458102      0.192469     -1.606647
     10.39684      5.76338      3.71178        -0.231047      0.227725      1.956473
      8.88915      5.57165     11.37369        -0.520861     -0.974692      0.123592
      8.07321      0.27826      1.29224        -1.067361      1.049447     -1.650414
     12.91912      8.38594      2.93606         0.583232     -0.847282      1.115144
     13.50279      7.44044      5.87212        -0.017446      0.198969      0.051425
     14.08646      6.49494      8.80817        -1.206486     -0.377106     -2.084136
     10.02798      8.76977      5.87212         0.062765     -0.091009      0.061448
     10.61165      7.82427      8.80817         0.073912     -0.774476     -1.541754
     11.34436      7.08742     11.23476         1.083840      0.501307      0.108409
     15.07254      9.71527      2.93606         0.476920     -0.629440      3.788928
     11.88180      5.56721      0.77215         0.159733      0.330383     -1.425694
      1.66190      1.67871      7.01153        -0.130197      0.365165     -1.029710
      2.15027      0.64337      9.29722        -0.488947     -0.573171     -0.069448
      5.61771      3.38267      1.06089         2.530675     -1.364929     -2.696059
      6.70646      2.62422      4.07548         0.099687      0.069816     -0.316548
      5.40849      4.47611     11.60553        -1.710650      0.621143      2.555322
      1.98025      3.43456     10.73220         1.215683      2.040692      2.905509
      7.29013      4.74605      7.99931         0.642882     -0.027629     -0.365856
      3.60051      1.60565      2.12720         0.811210      0.562783      0.365642
[...]
      7.07033      8.08475      7.99931         0.138777     -0.229788     -0.747401
      7.65400      7.13925     10.93537        -1.821327     -0.345434     -1.180466
      9.81241      6.71012      7.01153         0.012171     -0.242763      0.018504
     10.39608      5.76462      9.94759         0.502581     -0.808445     -2.637945
     14.39927      8.78978      1.23229         0.332574     -2.781973     -2.888969
     14.85697      7.65563      4.07548         0.049271     -0.006823      0.061838
     14.23412      9.98533     11.35872         0.653351     -0.776371      2.414902
     10.45155      8.86428     10.57552         1.463930      2.287796      0.726366
     15.44064      9.77746      7.99931         0.351753      0.510825     -0.012178
     11.83454      6.64771      2.46442        -0.010392      1.577542     -1.443406
     12.33469      5.69156      5.06325         0.039743     -0.046853      0.553248
     11.49384      9.86302      2.45969        -1.536303      0.437505     -1.307972
     12.11489      9.03025      5.06325         0.057632     -0.135791      0.694279
     12.69856      8.08475      7.99931        -0.077317      0.005041     -1.268013
     13.26781      7.22292     10.54968         0.514995     -0.899275      2.646264
    total drift:                               -0.208194      0.042157     -0.174515

  FREE ENERGIE OF THE ION-ELECTRON SYSTEM (eV)
  free  energy   TOTEN  =      -504.80346945 eV

  energy  without entropy=     -503.46488673  energy(sigma->0) =     -504.13417809