 vasp.5.4.4.18Apr17-6-g9f103f2a35 (build Aug 13 2019 17:33:20) gamma-only

 executed on             LinuxIFC date 2020.05.11  08:17:17

 INCAR:
 POTCAR:    PAW_PBE Ni_pv 06Sep2000
 POTCAR:    PAW_PBE S 06Sep2000
 POTCAR:    PAW_PBE Ni_pv 06Sep2000
   VRHFIN =Ni:

   TITEL  = PAW_PBE Ni_pv 06Sep2000
   POMASS =   58.690; ZVAL   =   16.000    mass and valenz
   ENMAX  =  367.986; ENMIN  =  275.989 eV

 POTCAR:    PAW_PBE S 06Sep2000
   VRHFIN =S : s2p4

   TITEL  = PAW_PBE S 06Sep2000
   POMASS =   32.066; ZVAL   =    6.000    mass and valenz
   ENMAX  =  258.689; ENMIN  =  194.016 eV

 Optimization of the real space projectors (new method)

 maximal supplied QI-value         = 18.90
 optimisation between [QCUT,QGAM] = [ 10.77, 21.73] = [ 32.49,132.25] Ry
 Optimized for a Real-space Cutoff    1.38 Angstroem

   l    n(q)    QCUT    max X(q) W(low)/X(q) W(high)/X(q)  e(spline)
   1      8    10.771     2.836    0.40E-04    0.29E-04    0.12E-06
   1      8    10.771     4.023    0.10E-03    0.48E-04    0.29E-06
   2      8    10.771    73.368    0.42E-03    0.97E-04    0.44E-06
   2      8    10.771    69.010    0.42E-03    0.99E-04    0.45E-06
   0      9    10.771    54.797    0.10E-03    0.56E-04    0.74E-07
   0      9    10.771    24.266    0.89E-04    0.49E-04    0.67E-07
 Optimization of the real space projectors (new method)

 maximal supplied QI-value         = 19.84
 optimisation between [QCUT,QGAM] = [ 10.71, 21.63] = [ 32.15,130.99] Ry
 Optimized for a Real-space Cutoff    1.19 Angstroem

   l    n(q)    QCUT    max X(q) W(low)/X(q) W(high)/X(q)  e(spline)
   0      8    10.715   187.594    0.41E-03    0.53E-04    0.66E-07
   0      8    10.715   164.243    0.41E-03    0.53E-04    0.65E-07
   1      7    10.715    67.533    0.19E-03    0.59E-03    0.68E-07
   1      7    10.715    50.729    0.19E-03    0.58E-03    0.67E-07
  PAW_PBE Ni_pv 06Sep2000               :
  PAW_PBE S 06Sep2000                   :

 POSCAR: Type_048 Type_148
  positions in cartesian coordinates
 exchange correlation table for  LEXCH =        8
   RHO(1)=    0.500       N(1)  =     2000
   RHO(2)=  100.500       N(2)  =     4000

 ion  position               nearest neighbor table
   1  0.261  0.479  0.295-  73 2.25  58 2.26  80 2.26  59 2.36  54 2.36   7 2.53  22 2.53
   2  0.355  0.385  0.426-  65 2.05  74 2.25  54 2.26  59 2.26  60 2.36   8 2.53  23 2.53
   3  0.549  0.193  0.486-  65 2.02  60 2.03  62 2.05  23 2.49   8 2.51
   4  0.167  0.073  0.165-  81 2.12  55 2.12  64 2.25  56 2.36  82 2.36  29 2.42  36 2.53  30 2.53

   5  0.028  0.055  0.494-  50 2.04  77 2.06  72 2.08  15 2.42  21 2.51
   6  0.274  0.333  0.130-  51 2.05  57 2.09  55 2.13  52 2.36  58 2.36  12 2.53  27 2.53
   7  0.368  0.239  0.261-  56 2.25  58 2.26  52 2.26  59 2.36  61 2.36   1 2.53  22 2.53
   8  0.462  0.145  0.391-  62 2.15  78 2.25  59 2.26  61 2.26  18 2.33  60 2.36   3 2.51   2 2.53
                            23 2.53
   9  0.000  0.372  0.261-  58 2.25  64 2.26  92 2.26  49 2.36  66 2.36  20 2.53  13 2.53
  10  0.094  0.278  0.391-  59 2.25  49 2.26  66 2.26  53 2.36  50 2.36  14 2.53  21 2.53
  11  0.188  0.195  0.501-  50 2.01  53 2.05  60 2.07  15 2.53
  12  0.406  0.465  0.130-  51 2.05  79 2.08  69 2.18  52 2.36  80 2.36  27 2.53   6 2.53
  13  0.761  0.479  0.295-  85 2.25  70 2.26  92 2.26  71 2.36  66 2.36  20 2.53   9 2.53
  14  0.855  0.385  0.426-  72 2.15  86 2.16  66 2.26  71 2.26  53 2.36  21 2.53  10 2.53
  15  0.945  0.281  0.529-  53 2.00  72 2.02   5 2.42  11 2.53
  16  0.523  0.211  0.091-  51 2.04  52 2.11  93 2.26  67 2.27  17 2.36  41 2.50
  17  0.667  0.073  0.165-  67 2.11  52 2.25  93 2.26  16 2.36  68 2.36  94 2.36  48 2.53  42 2.53

  18  0.481  0.000  0.468-  89 2.05  62 2.13  60 2.16   8 2.33  26 2.51  78 2.65
  19  0.774  0.333  0.130-  63 1.99  67 2.15  69 2.25  64 2.36  70 2.36  24 2.53  40 2.53
  20  0.868  0.239  0.261-  68 2.25  70 2.26  64 2.26  71 2.36  49 2.36  13 2.53   9 2.53
  21  0.962  0.145  0.391-  72 2.10  90 2.25  71 2.26  49 2.26  50 2.36   5 2.51  14 2.53  10 2.53

[...]

  49  0.073  0.167  0.311-  25 2.25  10 2.26  21 2.26   9 2.36  20 2.36
  50  0.167  0.073  0.442-  11 2.01   5 2.04  26 2.25  10 2.36  21 2.36
  51  0.364  0.376  0.060-  16 2.04  12 2.05   6 2.05
  52  0.479  0.261  0.181-  16 2.11  17 2.25   7 2.26  22 2.26  12 2.36   6 2.36
  53  0.030  0.378  0.486-  15 2.00  28 2.05  11 2.05  10 2.36  14 2.36
  54  0.436  0.472  0.355-  32 2.25   2 2.26  23 2.26   1 2.36  22 2.36  65 2.75
  55  0.257  0.158  0.107-  29 2.05   4 2.12   6 2.13  36 2.13
  56  0.342  0.066  0.225-   7 2.25  25 2.26  45 2.26   4 2.36  36 2.36
  57  0.082  0.480  0.113-  27 2.07   6 2.09  24 2.09  58 2.72
  58  0.174  0.397  0.225-   9 2.25   1 2.26   7 2.26   6 2.36  27 2.36  57 2.72
  59  0.268  0.303  0.355-  10 2.25   8 2.26   2 2.26   7 2.36   1 2.36
  60  0.362  0.209  0.486-   3 2.03  11 2.07  18 2.16   8 2.36   2 2.36
  61  0.573  0.167  0.311-  37 2.25  23 2.26   8 2.26  22 2.36   7 2.36
  62  0.646  0.025  0.436-   3 2.05  18 2.13   8 2.15  38 2.18
  63  0.857  0.383  0.063-  24 1.98  19 1.99
  64  0.979  0.261  0.181-   4 2.25  20 2.26   9 2.26  24 2.36  19 2.36
  65  0.518  0.381  0.469-   3 2.02   2 2.05  23 2.06  54 2.75
  66  0.936  0.472  0.355-  44 2.25  14 2.26  10 2.26  13 2.36   9 2.36
  67  0.738  0.169  0.104-  41 2.06  17 2.11  19 2.15  16 2.27  48 2.30
  68  0.842  0.066  0.225-  20 2.25  37 2.26  33 2.26  17 2.36  48 2.36
  69  0.576  0.499  0.105-  40 2.07  39 2.18  12 2.18  19 2.25
  70  0.674  0.397  0.225-  22 2.25  13 2.26  20 2.26  19 2.36  40 2.36
  71  0.768  0.303  0.355-  23 2.25  21 2.26  14 2.26  20 2.36  13 2.36  72 2.77
  72  0.852  0.217  0.470-  15 2.02   5 2.08  21 2.10  14 2.15  71 2.77
  73  0.073  0.667  0.311-   1 2.25  34 2.26  44 2.26  33 2.36  43 2.36
  74  0.167  0.573  0.442-  35 2.02  28 2.03   2 2.25  34 2.36  44 2.36
  75  0.375  0.864  0.057-  29 2.02  39 2.02  30 2.12  36 2.13
  76  0.479  0.761  0.181-  39 2.12  40 2.25  31 2.26  45 2.26  36 2.36  30 2.36
  77  0.017  0.883  0.472-  35 2.03   5 2.06  38 2.10  34 2.14
  78  0.436  0.972  0.355-   8 2.25  26 2.26  46 2.26  25 2.36  45 2.36  18 2.65
  79  0.260  0.657  0.112-  27 2.07  12 2.08  30 2.11  80 2.74
  80  0.342  0.566  0.225-  31 2.25   1 2.26  22 2.26  27 2.36  12 2.36  79 2.74
  81  0.081  0.982  0.108-  29 2.05   4 2.12  48 2.13  30 2.13
  82  0.174  0.897  0.225-  33 2.25  25 2.26  31 2.26  30 2.36   4 2.36
  83  0.268  0.803  0.355-  34 2.25  32 2.26  26 2.26  31 2.36  25 2.36  84 2.67
  84  0.344  0.722  0.466-  35 2.04  32 2.09  26 2.10  83 2.67  89 2.77
  85  0.573  0.667  0.311-  13 2.25  46 2.26  32 2.26  45 2.36  31 2.36  86 2.69
  86  0.662  0.554  0.418-  47 2.02  32 2.10  14 2.16  46 2.36  85 2.69
  87  0.895  0.845  0.065-  41 2.01  42 2.05  48 2.06
  88  0.979  0.761  0.181-  27 2.25  43 2.26  33 2.26  48 2.36  42 2.36
  89  0.544  0.800  0.479-  46 2.05  18 2.05  47 2.17  26 2.25  84 2.77
  90  0.936  0.972  0.355-  21 2.25  38 2.26  34 2.26  37 2.36  33 2.36
  91  0.741  0.664  0.106-  40 2.07  42 2.17  39 2.20  24 2.24
  92  0.842  0.566  0.225-  43 2.25  13 2.26   9 2.26  40 2.36  24 2.36
  93  0.580  0.991  0.094-  41 2.05  36 2.25  16 2.26  42 2.26  17 2.26
  94  0.674  0.897  0.225-  45 2.25  37 2.26  43 2.26  42 2.36  17 2.36
  95  0.768  0.803  0.355-  46 2.25  44 2.26  38 2.26  43 2.36  37 2.36
  96  0.868  0.729  0.477-  28 2.01  47 2.02  38 2.05  44 2.20

  LATTYP: Found a base centered orthorhombic cell.
 ALAT       =    11.8257374459
 B/A-ratio  =     1.6199260857
 C/A-ratio  =     1.9043172636

  Lattice vectors:

 A1 = (  11.2564630382,   0.0000000000,   0.0000000000)
 A2 = (  -5.0445621212, -10.0628203371,   0.0000000000)
 A3 = (   0.0000000000,   0.0000000000, -22.5199559732)

Analysis of symmetry for initial positions (statically):
 Subroutine PRICEL returns:
 Original cell was already a primitive cell.

 Routine SETGRP: Setting up the symmetry group for a
 base centered orthorhombic supercell.

 Subroutine GETGRP returns: Found  1 space group operations
 (whereof  1 operations were pure point group operations)
 out of a pool of  8 trial point group operations.

The static configuration has the point symmetry C_1 .

Analysis of symmetry for dynamics (positions and initial velocities):
 Subroutine PRICEL returns:
 Original cell was already a primitive cell.

 Routine SETGRP: Setting up the symmetry group for a
 base centered orthorhombic supercell.

 Subroutine GETGRP returns: Found  1 space group operations
 (whereof  1 operations were pure point group operations)
 out of a pool of  8 trial point group operations.

The dynamic configuration has the point symmetry C_1 .

 Subroutine INISYM returns: Found  1 space group operations
 (whereof  1 operations are pure point group operations),
 and found     1 'primitive' translations

 KPOINTS: gamma-point-only calculation. no periodi

Automatic generation of k-mesh.
Space group operators:
 irot       det(A)        alpha          n_x          n_y          n_z        tau_x        tau_y        tau_z
    1     1.000000     0.000000     1.000000     0.000000     0.000000     0.000000     0.000000     0.000000

 Subroutine IBZKPT returns following result:

 Found      1 irreducible k-points:

 Following reciprocal coordinates:
            Coordinates               Weight
  0.000000  0.000000  0.000000      1.000000

 Following cartesian coordinates:
            Coordinates               Weight
  0.000000  0.000000  0.000000      1.000000

 SYSTEM =  "Millerite NiS"
 POSCAR =  Type_048 Type_148

 Startparameter for this run:
   NWRITE =      2    write-flag & timer
   PREC   = normal    normal or accurate (medium, high low for compatibility)
   ISTART =      0    job   : 0-new  1-cont  2-samecut
   ICHARG =      2    charge: 1-file 2-atom 10-const
   ISPIN  =      1    spin polarized calculation?
   LNONCOLLINEAR =      F non collinear calculations
   LSORBIT =      F    spin-orbit coupling
   INIWAV =      1    electr: 0-lowe 1-rand  2-diag
   LASPH  =      F    aspherical Exc in radial PAW
   METAGGA=      F    non-selfconsistent MetaGGA calc.

 Electronic Relaxation 1
   ENCUT  =  450.0 eV  33.07 Ry    5.75 a.u.  19.47 19.47 38.95*2*pi/ulx,y,z
   ENINI  =  450.0     initial cutoff
   ENAUG  =  703.4 eV  augmentation charge cutoff
   NELM   =    100;   NELMIN=  2; NELMDL= -5     # of ELM steps
   EDIFF  = 0.1E-03   stopping-criterion for ELM
   LREAL  =      T    real-space projection
   NLSPLINE    = F    spline interpolate recip. space projectors
   LCOMPAT=      F    compatible to vasp.4.4
   GGA_COMPAT  = T    GGA compatible to vasp.4.4-vasp.4.6
   LMAXPAW     = -100 max onsite density
   LMAXMIX     =    2 max onsite mixed and CHGCAR
   VOSKOWN=      0    Vosko Wilk Nusair interpolation
   ROPT   =   -0.00050  -0.00050
 Ionic relaxation
   EDIFFG = 0.1E-02   stopping-criterion for IOM
   NSW    =      0    number of steps for IOM
   NBLOCK =      1;   KBLOCK =      1    inner block; outer block
   IBRION =     -1    ionic relax: 0-MD 1-quasi-New 2-CG
   NFREE  =      0    steps in history (QN), initial steepest desc. (CG)
   ISIF   =      2    stress and relaxation
[...]
     0.000000000  0.000000000 22.519955973     0.000000000  0.000000000  0.044405060

  length of vectors
    11.256463038 11.256463038 22.519955973     0.099375718  0.099375718  0.044405060

 FORCES acting on ions
    electron-ion (+dipol)            ewald-force                    non-local-force                 convergence-correction
   0.237E+03 -.441E+03 -.357E+03   -.237E+03 0.442E+03 0.356E+03   0.594E+00 -.105E+01 -.957E-01   -.719E-01 -.190E+00 0.251E+00
   0.149E+03 -.662E+03 -.392E+04   -.152E+03 0.665E+03 0.392E+04   0.171E+01 -.286E+01 -.111E+01   -.106E+00 0.107E+00 0.677E-01
   -.676E+03 -.150E+02 -.598E+04   0.681E+03 0.166E+02 0.599E+04   -.398E+01 -.263E+01 -.284E+01   0.720E-01 0.191E+00 0.312E-01
   0.429E+03 -.615E+03 0.281E+04   -.431E+03 0.619E+03 -.281E+04   0.170E+01 -.279E+01 -.117E+01   0.617E-01 0.164E+00 0.766E+00
   0.309E+03 0.651E+03 -.557E+04   -.310E+03 -.651E+03 0.557E+04   0.118E+01 0.739E-02 -.245E+00   -.127E-01 -.549E-01 0.326E-01
   0.619E+03 0.527E+02 0.431E+04   -.623E+03 -.538E+02 -.431E+04   0.292E+01 0.299E+00 0.330E+01   -.833E-01 0.217E+00 0.492E+00
   0.281E+03 0.367E+03 0.738E+03   -.283E+03 -.368E+03 -.738E+03   0.142E+01 0.754E+00 -.343E+00   -.112E+00 -.110E-01 0.366E+00
   0.138E+03 0.160E+03 -.220E+04   -.140E+03 -.160E+03 0.220E+04   0.128E+01 -.400E+00 0.350E+01   -.340E-01 0.263E+00 -.105E+00
   -.509E+03 -.369E+02 0.884E+03   0.510E+03 0.374E+02 -.885E+03   -.828E+00 -.454E+00 0.712E+00   -.252E-01 -.562E-02 0.384E+00
   -.503E+03 -.710E+02 -.231E+04   0.504E+03 0.717E+02 0.231E+04   -.163E+01 -.964E+00 0.256E+01   -.741E-01 0.124E+00 -.468E-02
   -.521E+03 0.179E+03 -.568E+04   0.521E+03 -.178E+03 0.568E+04   0.475E+00 -.864E+00 -.198E+00   -.118E+00 0.148E+00 -.184E-01
   -.345E+03 -.346E+03 0.431E+04   0.350E+03 0.348E+03 -.431E+04   -.346E+01 -.252E+01 0.364E+01   0.111E-01 0.110E+00 0.375E+00
   0.257E+03 -.351E+03 -.306E+03   -.257E+03 0.352E+03 0.305E+03   0.356E+00 -.117E+01 0.750E+00   0.161E+00 -.831E-01 0.238E+00
   0.555E+03 -.439E+03 -.368E+04   -.554E+03 0.439E+03 0.368E+04   -.400E+00 -.129E-01 -.172E+00   0.134E+00 0.832E-01 -.738E-01
   0.554E+03 -.381E+03 -.625E+04   -.552E+03 0.374E+03 0.624E+04   -.203E+01 0.665E+01 0.321E+01   0.659E-01 -.131E-01 -.186E+00
   0.133E+03 -.312E+03 0.545E+04   -.134E+03 0.313E+03 -.546E+04   0.139E+01 -.158E+01 0.766E+01   -.754E-01 0.260E+00 0.275E+00
   0.761E+02 -.194E+03 0.249E+04   -.769E+02 0.193E+03 -.248E+04   0.539E+00 0.785E+00 -.331E+01   -.593E-01 0.394E-01 0.646E+00
   -.456E+02 0.321E+03 -.537E+04   0.464E+02 -.323E+03 0.537E+04   -.654E+00 0.215E+01 -.212E+01   -.168E-01 0.350E-01 0.448E-01
   0.447E+02 0.395E+03 0.436E+04   -.462E+02 -.397E+03 -.436E+04   0.333E+00 0.158E+01 0.330E+01   0.155E+00 0.247E+00 0.402E+00
   0.225E+03 0.436E+03 0.814E+03   -.226E+03 -.437E+03 -.815E+03   0.812E+00 0.739E+00 0.925E+00   0.204E+00 0.226E+00 0.389E+00
   0.392E+03 0.433E+03 -.230E+04   -.392E+03 -.435E+03 0.229E+04   0.522E+00 0.185E+01 0.235E+01   0.132E+00 0.135E+00 0.592E-01
   -.522E+03 -.791E+02 0.691E+03   0.524E+03 0.803E+02 -.691E+03   -.128E+01 -.102E+01 -.236E+00   -.512E-01 -.385E-01 0.347E+00
   -.726E+03 -.788E+02 -.265E+04   0.729E+03 0.788E+02 0.265E+04   -.273E+01 -.238E+00 0.118E+01   0.886E-01 0.411E-01 0.493E-01
   -.628E+03 -.300E+02 0.446E+04   0.632E+03 0.306E+02 -.446E+04   -.384E+01 0.125E+00 0.327E+01   -.767E-01 0.127E-01 0.426E+00
   0.303E+03 -.379E+03 -.353E+03   -.304E+03 0.380E+03 0.352E+03   0.713E+00 -.114E+01 0.519E+00   0.815E-01 0.868E-01 0.306E+00
   0.414E+03 -.702E+02 -.394E+04   -.416E+03 0.744E+02 0.394E+04   0.277E+01 -.300E+01 -.165E+01   -.185E+00 -.151E+00 -.271E-01
   0.376E+03 -.488E+03 0.333E+04   -.378E+03 0.492E+03 -.333E+04   0.186E+01 -.337E+01 0.200E+01   -.878E-01 -.799E-01 0.387E+00
   -.171E+03 0.817E+02 -.576E+04   0.173E+03 -.830E+02 0.576E+04   -.185E+01 0.863E+00 0.136E+01   0.361E-01 0.319E-01 0.229E-01
   0.413E+03 -.529E+03 0.624E+04   -.415E+03 0.533E+03 -.625E+04   0.183E+01 -.270E+01 0.361E+01   0.135E+00 -.675E-01 0.349E+00
   0.657E+03 0.597E+03 0.410E+04   -.662E+03 -.601E+03 -.410E+04   0.400E+01 0.365E+01 0.760E+00   0.397E-01 -.294E+00 0.515E+00
   0.316E+03 0.491E+03 0.704E+03   -.318E+03 -.491E+03 -.704E+03   0.137E+01 0.447E+00 -.120E+00   0.149E+00 -.801E-01 0.380E+00
   0.285E+03 0.591E+03 -.290E+04   -.288E+03 -.594E+03 0.290E+04   0.269E+01 0.358E+01 -.127E+01   0.355E-01 -.953E-01 0.909E-01
   -.520E+03 0.233E+02 0.812E+03   0.521E+03 -.227E+02 -.813E+03   -.743E+00 -.608E+00 0.846E+00   -.151E-01 -.718E-01 0.381E+00
   -.496E+03 0.128E+02 -.241E+04   0.498E+03 -.123E+02 0.240E+04   -.208E+01 -.312E+00 0.241E+01   0.644E-01 -.123E+00 0.281E+00
   -.440E+03 0.191E+03 -.582E+04   0.440E+03 -.191E+03 0.582E+04   0.242E+00 -.383E+00 0.165E+01   -.779E-01 -.863E-01 0.100E+00
   -.591E+03 -.153E+03 0.400E+04   0.594E+03 0.155E+03 -.400E+04   -.247E+01 -.214E+01 0.721E+00   0.213E+00 -.996E-01 0.637E+00
   0.172E+03 -.395E+03 -.395E+03   -.173E+03 0.396E+03 0.395E+03   0.901E+00 -.118E+01 -.652E-02   -.626E-01 -.224E-01 0.283E+00
   0.229E+03 -.599E+03 -.399E+04   -.230E+03 0.602E+03 0.399E+04   0.130E+00 -.168E+01 -.127E+01   0.126E+00 -.128E+00 0.128E+00
   -.808E+02 0.255E+03 0.561E+04   0.823E+02 -.258E+03 -.562E+04   -.132E+01 0.225E+01 0.608E+01   0.117E+00 -.233E+00 0.303E+00
   -.135E+02 -.401E+02 0.286E+04   0.140E+02 0.391E+02 -.286E+04   -.182E+00 0.318E+00 -.171E+01   0.167E+00 -.184E+00 0.534E+00
   -.189E+03 0.413E+02 0.640E+04   0.191E+03 -.432E+02 -.641E+04   -.227E+01 0.280E+01 0.533E+01   -.187E-01 -.270E-01 0.250E+00
   0.130E+03 0.866E+03 0.411E+04   -.134E+03 -.870E+03 -.411E+04   0.257E+01 0.397E+01 0.120E+01   -.150E+00 -.301E+00 0.498E+00
   0.177E+03 0.499E+03 0.845E+03   -.178E+03 -.499E+03 -.846E+03   0.977E+00 0.519E+00 0.840E+00   -.121E+00 -.230E+00 0.336E+00
   0.101E+03 0.357E+03 -.234E+04   -.102E+03 -.359E+03 0.234E+04   0.127E+01 0.212E+01 0.184E+01   -.416E-01 -.226E+00 0.223E+00
   -.504E+03 0.875E+01 0.719E+03   0.505E+03 -.775E+01 -.720E+03   -.108E+01 -.885E+00 0.447E+00   0.809E-01 -.586E-01 0.332E+00
   -.326E+03 0.595E+02 -.248E+04   0.329E+03 -.583E+02 0.248E+04   -.336E+01 -.127E+01 0.259E+01   0.538E-01 -.284E+00 -.851E-01
   0.261E+03 0.769E+02 -.534E+04   -.260E+03 -.732E+02 0.534E+04   -.691E+00 -.371E+01 0.586E+00   0.109E+00 -.178E+00 -.135E-01
   -.847E+03 0.114E+03 0.409E+04   0.850E+03 -.114E+03 -.409E+04   -.263E+01 0.474E-01 0.697E+00   0.678E-01 0.131E-02 0.490E+00
   -.592E+02 0.115E+03 -.792E+02   0.603E+02 -.118E+03 0.777E+02   -.948E+00 0.209E+01 0.143E+01   0.367E-02 0.131E+00 0.916E-01
   -.976E+02 0.242E+03 -.136E+04   0.985E+02 -.244E+03 0.136E+04   -.260E+00 0.386E+00 -.136E+01   -.740E-01 0.537E-01 -.177E-01
   0.124E+03 -.213E+03 0.250E+04   -.124E+03 0.214E+03 -.250E+04   0.503E+00 -.861E+00 0.176E+01   -.344E-01 0.103E+00 0.214E-01
   -.365E+02 0.232E+02 0.929E+03   0.374E+02 -.247E+02 -.928E+03   -.942E+00 0.148E+01 -.224E+00   -.492E-01 0.532E-01 0.278E+00
   -.120E+03 -.220E+03 -.191E+04   0.122E+03 0.222E+03 0.191E+04   -.125E+01 -.720E+00 -.181E+01   0.457E-02 0.591E-01 -.667E-01
   -.910E+02 -.170E+03 -.672E+03   0.920E+02 0.173E+03 0.671E+03   -.152E+01 -.255E+01 0.115E+00   0.276E-01 0.189E-01 0.665E-01
   -.111E+02 -.348E+03 0.187E+04   0.116E+02 0.349E+03 -.187E+04   -.261E+00 -.206E+00 0.141E+01   0.853E-01 0.125E+00 0.228E+00
   -.494E+02 -.171E+03 0.590E+03   0.503E+02 0.174E+03 -.590E+03   -.719E+00 -.279E+01 0.925E+00   0.538E-01 0.430E-01 0.204E+00
   0.132E+03 -.117E+03 0.199E+04   -.133E+03 0.120E+03 -.200E+04   -.124E+00 -.186E+01 0.380E+01   -.384E-01 0.184E-01 0.123E+00
   0.189E+03 -.365E+02 0.650E+03   -.192E+03 0.365E+02 -.650E+03   0.263E+01 -.168E+00 0.475E+00   -.631E-01 -.400E-01 0.179E+00
   0.153E+03 -.444E+02 -.592E+03   -.156E+03 0.443E+02 0.592E+03   0.266E+01 0.145E+00 -.238E+00   -.599E-01 0.152E-01 0.168E-02
   0.563E+02 -.169E+03 -.214E+04   -.587E+02 0.172E+03 0.214E+04   0.147E+01 -.135E+01 -.278E+01   0.834E-02 0.124E+00 -.192E-02
[...]
   0.166E+03 0.275E+02 -.620E+03   -.169E+03 -.272E+02 0.619E+03   0.319E+01 0.181E-01 -.428E+00   0.196E-01 -.461E-01 0.859E-01
   -.709E+02 0.179E+03 -.204E+04   0.709E+02 -.181E+03 0.205E+04   0.473E+00 0.553E+00 -.157E+01   -.694E-01 -.536E-01 -.879E-02
   -.484E+02 0.135E+03 -.117E+03   0.493E+02 -.137E+03 0.115E+03   -.115E+01 0.193E+01 0.111E+01   0.169E-01 -.273E-01 0.835E-01
   0.211E+03 0.184E+03 -.138E+04   -.212E+03 -.185E+03 0.138E+04   0.358E+00 0.865E+00 0.259E+00   0.290E-01 -.225E-02 0.283E-02
   -.275E+03 0.475E+03 0.233E+04   0.276E+03 -.478E+03 -.233E+04   -.540E+00 0.114E+01 0.104E+01   0.262E-01 -.166E+00 0.443E-01
   -.103E+03 0.187E+03 0.120E+04   0.104E+03 -.188E+03 -.120E+04   -.645E+00 0.109E+01 0.174E+01   -.302E-01 -.114E+00 0.176E+00
   0.799E+02 0.158E+03 -.231E+04   -.802E+02 -.157E+03 0.232E+04   0.308E+00 -.901E+00 -.337E+01   0.103E-01 -.155E+00 0.572E-02
   -.485E+02 -.158E+03 -.612E+03   0.498E+02 0.162E+03 0.612E+03   -.163E+01 -.293E+01 -.784E+00   0.391E-01 0.328E-01 0.895E-01
   -.230E+03 -.446E+01 0.201E+04   0.231E+03 0.588E+01 -.201E+04   -.709E-01 -.419E+00 0.298E+01   0.184E-01 -.111E+00 0.141E+00
   -.106E+03 -.130E+03 0.657E+03   0.108E+03 0.132E+03 -.657E+03   -.943E+00 -.240E+01 0.654E+00   -.271E-02 -.780E-01 0.149E+00
   0.290E+03 0.133E+03 0.197E+04   -.293E+03 -.135E+03 -.197E+04   0.153E+01 0.193E+01 0.300E+01   -.108E+00 -.684E-01 0.164E+00
   0.143E+03 0.280E+02 0.594E+03   -.145E+03 -.276E+02 -.595E+03   0.262E+01 -.269E+00 0.609E+00   -.614E-01 -.609E-01 0.178E+00
   0.135E+03 -.172E+02 -.586E+03   -.138E+03 0.171E+02 0.586E+03   0.282E+01 0.113E+00 -.681E+00   -.151E-01 -.826E-01 0.210E-01
   0.825E+02 -.241E+03 -.215E+04   -.835E+02 0.242E+03 0.216E+04   0.407E+00 -.229E+00 -.189E+01   0.132E-01 -.111E+00 0.140E-01
   -.112E+02 0.190E+02 -.901E+02   0.192E-11 0.909E-12 -.100E-10   0.990E+01 -.178E+02 0.741E+02   0.102E+01 -.114E+01 0.162E+02

 POSITION                                       TOTAL-FORCE (eV/Angst)
      5.35228      4.81788      6.64784         0.140318     -0.078567     -0.129114
      5.93595      3.87238      9.58390        -1.505978      0.439305     -1.230926
      7.15280      1.93979     10.95509         1.198160     -0.841188      1.468771
      2.24633      0.73197      3.71178        -0.395513      0.712336      2.276708
      0.59556      0.55088     11.12760         0.030741     -0.210565      1.156226
      4.76861      3.35453      2.93606        -0.496231     -0.659492      1.703046
      5.35228      2.40903      5.87212        -0.175800      0.086740     -0.078855
      5.93595      1.46353      8.80817        -0.616506      0.551931     -2.229274
      1.87746      3.73836      5.87212        -0.084846      0.007123      0.081499
      2.46113      2.79286      8.80817        -0.087708     -0.121059     -0.216978
      3.09693      1.96654     11.29269         0.357002     -0.404348      1.188513
      6.92203      4.68386      2.93606         1.272875      0.081454      1.888664
     10.98051      4.81788      6.64784         0.127545     -0.266891     -0.083359
     11.56418      3.87238      9.58390         0.587541      0.326053     -0.288276
     12.05115      2.82792     11.90776        -0.154304      0.102627      1.518549
      6.95049      2.12271      2.04283         0.399505     -0.703142     -0.835126
      7.87456      0.73197      3.71178        -0.316083     -0.568452      2.091719
      5.41459      0.00111     10.54923         0.124996      0.137051      0.992620
     10.39684      3.35453      2.93606        -0.985301     -0.337742      2.135607
     10.98051      2.40903      5.87212         0.004141     -0.022872     -0.033886
     11.56418      1.46353      8.80817         0.336175     -0.157955     -1.536855
      7.50570      3.73836      5.87212         0.074003      0.073381      0.020850
      8.08937      2.79286      8.80817         0.323560     -0.181328     -1.787299
     12.55026      4.68386      2.93606         0.736678      0.743063      2.429049
      7.87456      9.84929      6.64784         0.050655     -0.188538     -0.068396
      8.45823      8.90379      9.58390         0.053076      1.019834     -1.129217
      4.76861      5.76338      3.71178        -0.328814      0.554356      1.972791
      3.15922      5.62181     11.17620        -0.131511     -0.484016      1.238205
      2.48073      0.34812      1.33005        -0.638932      1.033452     -1.888044
      7.29089      8.38594      2.93606        -0.183032     -1.085002      1.688604
      7.87456      7.44044      5.87212        -0.153214      0.079768      0.028296
      8.45823      6.49494      8.80817        -0.942652      0.053753     -1.834996
      4.39975      8.76977      5.87212        -0.011722     -0.060480     -0.006234
      4.98341      7.82427      8.80817        -0.128540     -0.010421     -1.434496
      5.58750      7.16420     11.15532         0.340766     -0.166677      1.225042
      9.44431      9.71527      2.93606         1.309859     -0.332293      1.486320
     13.50279      9.84929      6.64784         0.137485     -0.296724     -0.103337
     14.08646      8.90379      9.58390        -0.299232      0.979641     -1.352205
      9.55915      7.10945      2.05757         0.330216     -0.290907     -0.857186
     10.39684      5.76338      3.71178         0.538310     -0.855714      3.483798
      8.30764      0.18172      1.23258        -0.140296      0.824267     -2.059407
     12.91912      8.38594      2.93606        -0.962959     -0.759402      1.928162
     13.50279      7.44044      5.87212        -0.013307      0.069254     -0.054213
     14.08646      6.49494      8.80817         0.066427     -0.043588     -0.985594
     10.02798      8.76977      5.87212         0.102773      0.064098     -0.179848
     10.61165      7.82427      8.80817        -0.048930     -0.362555     -2.129164
     11.63300      6.47188     10.57337        -0.210512     -0.169966      0.826112
     15.07254      9.71527      2.93606         0.925058      0.502240      1.649762
      1.66190      1.67871      7.01153         0.133334     -0.040748     -0.045070
      2.24556      0.73321      9.94759         0.622877     -1.493864     -1.480846
      5.99612      3.78041      1.34793        -0.029299      0.277341     -3.946842
      6.70646      2.62422      4.07548        -0.134162      0.024530      1.413030
      2.24556      3.80055     10.93537         0.654722      1.019762     -0.390141
      7.29013      4.74605      7.99931        -0.468557      0.067974     -0.714172
      3.69531      1.59311      2.41882         0.329881      1.427616     -1.229571
      4.18418      0.66015      5.06325         0.216895     -0.168988      0.510569
      3.34176      4.82919      2.54426        -1.135199      0.691750     -2.237336
      3.96438      3.99884      5.06325        -0.103343     -0.257807      0.781361
      4.54805      3.05334      7.99931        -0.152098     -0.010211      0.065338
      5.13172      2.10784     10.93537        -0.974069      0.959023      0.860452
[...]
      6.48666      9.03025      5.06325         0.065934     -0.099651      0.814551
      7.07033      8.08475      7.99931        -0.084591      0.221758     -0.960573
      7.51289      7.26608     10.49966         0.412545     -0.852934      2.805649
      9.81241      6.71012      7.01153        -0.158115      0.318651     -1.086422
     10.24958      5.57211      9.40963        -0.175321     -0.910666      1.016225
     14.33173      8.49895      1.45301         1.244863     -2.162927     -3.156605
     14.85697      7.65563      4.07548        -0.095588     -0.072603      0.497449
     10.15465      8.04652     10.79010        -0.039840      0.004465      3.025156
     15.44064      9.77746      7.99931        -0.238261      0.261711     -0.693849
     11.69086      6.68230      2.38734         1.448710      0.886458     -2.187637
     12.33469      5.69156      5.06325         0.194627     -0.039515      0.439493
     11.53122      9.97575      2.12720        -1.718632     -0.135281     -0.116315
     12.11489      9.03025      5.06325        -0.061405      0.016274      0.116602
     12.69856      8.08475      7.99931         0.066633     -0.075996     -1.072888
     13.44966      7.33531     10.74298        -0.572441      0.484422      2.016492
    total drift:                               -0.235914     -0.003307      0.181186

  FREE ENERGIE OF THE ION-ELECTRON SYSTEM (eV)
  free  energy   TOTEN  =      -472.56303262 eV

  energy  without entropy=     -471.26806892  energy(sigma->0) =     -471.91555077