 vasp.5.4.4.18Apr17-6-g9f103f2a35 (build Aug 13 2019 17:33:20) gamma-only

 executed on             LinuxIFC date 2020.05.12  16:28:17

 INCAR:
 POTCAR:    PAW_PBE Ni_pv 06Sep2000
 POTCAR:    PAW_PBE S 06Sep2000
 POTCAR:    PAW_PBE Ni_pv 06Sep2000
   VRHFIN =Ni:

   TITEL  = PAW_PBE Ni_pv 06Sep2000
   POMASS =   58.690; ZVAL   =   16.000    mass and valenz
   ENMAX  =  367.986; ENMIN  =  275.989 eV

 POTCAR:    PAW_PBE S 06Sep2000
   VRHFIN =S : s2p4

   TITEL  = PAW_PBE S 06Sep2000
   POMASS =   32.066; ZVAL   =    6.000    mass and valenz
   ENMAX  =  258.689; ENMIN  =  194.016 eV

 Optimization of the real space projectors (new method)

 maximal supplied QI-value         = 18.90
 optimisation between [QCUT,QGAM] = [ 10.77, 21.73] = [ 32.49,132.25] Ry
 Optimized for a Real-space Cutoff    1.38 Angstroem

   l    n(q)    QCUT    max X(q) W(low)/X(q) W(high)/X(q)  e(spline)
   1      8    10.771     2.836    0.40E-04    0.29E-04    0.12E-06
   1      8    10.771     4.023    0.10E-03    0.48E-04    0.29E-06
   2      8    10.771    73.368    0.42E-03    0.97E-04    0.44E-06
   2      8    10.771    69.010    0.42E-03    0.99E-04    0.45E-06
   0      9    10.771    54.797    0.10E-03    0.56E-04    0.74E-07
   0      9    10.771    24.266    0.89E-04    0.49E-04    0.67E-07
 Optimization of the real space projectors (new method)

 maximal supplied QI-value         = 19.84
 optimisation between [QCUT,QGAM] = [ 10.71, 21.63] = [ 32.15,130.99] Ry
 Optimized for a Real-space Cutoff    1.19 Angstroem

   l    n(q)    QCUT    max X(q) W(low)/X(q) W(high)/X(q)  e(spline)
   0      8    10.715   187.594    0.41E-03    0.53E-04    0.66E-07
   0      8    10.715   164.243    0.41E-03    0.53E-04    0.65E-07
   1      7    10.715    67.533    0.19E-03    0.59E-03    0.68E-07
   1      7    10.715    50.729    0.19E-03    0.58E-03    0.67E-07
  PAW_PBE Ni_pv 06Sep2000               :
  PAW_PBE S 06Sep2000                   :

 POSCAR: Type_036 Type_136
  positions in cartesian coordinates
 exchange correlation table for  LEXCH =        8
   RHO(1)=    0.500       N(1)  =     2000
   RHO(2)=  100.500       N(2)  =     4000

 ion  position               nearest neighbor table
   1  0.341  0.768  0.162-  41 1.96  51 2.02  42 2.16  50 2.21   2 2.37  26 2.42  62 2.56
   2  0.525  0.601  0.223-  42 2.25  51 2.26  62 2.26  63 2.36  52 2.36   1 2.37  15 2.53  27 2.53

   3  0.675  0.451  0.351-  43 2.25  63 2.26  52 2.26  64 2.36  53 2.36   4 2.47  28 2.53  16 2.53

[...]

  35  0.516  0.207  0.275-  63 2.25  59 2.26  47 2.26  48 2.36  60 2.36  10 2.53  22 2.53
  36  0.658  0.069  0.389-  48 2.04  60 2.13  64 2.18  49 2.19
  37  0.064  0.262  0.341-  25 2.05  10 2.25  13 2.26  16 2.36  28 2.36  38 2.58
  38  0.202  0.136  0.443-  11 2.11  13 2.12  25 2.17  37 2.58  65 2.66
  39  0.763  0.563  0.085-  12 2.00  26 2.12  14 2.14  15 2.26  27 2.26
  40  0.914  0.412  0.213-   9 2.25  16 2.26  28 2.26  12 2.27  27 2.36  15 2.36
  41  0.147  0.846  0.128-   1 1.96  17 2.26  30 2.26  20 2.35  29 2.36  45 2.74  50 2.76
  42  0.297  0.696  0.256-   1 2.16   2 2.25  31 2.26  18 2.26  30 2.36  17 2.36
  43  0.447  0.545  0.384-  32 2.02  19 2.02   3 2.25  31 2.36  18 2.36  44 2.55  57 2.78
  44  0.530  0.439  0.496-  32 2.09   4 2.09  19 2.11  43 2.55
  45  0.891  0.941  0.064-  29 2.05   6 2.08  20 2.10  68 2.71  41 2.74
  46  0.407  0.257  0.055-  33 2.08  21 2.09  34 2.11   5 2.12  47 2.78
  47  0.530  0.129  0.171-   5 2.08  22 2.26  35 2.26  34 2.36  21 2.36   6 2.45  46 2.78
  48  0.680  0.979  0.299-  36 2.04   8 2.25  23 2.26  35 2.36  22 2.36
  49  0.797  0.856  0.419-  24 2.07  23 2.09  36 2.19   7 2.54
  50  0.381  0.899  0.083-   1 2.21  26 2.24  21 2.31  51 2.33  41 2.76
  51  0.528  0.798  0.171-   1 2.02  26 2.03  22 2.25  27 2.26   2 2.26  50 2.33
  52  0.678  0.648  0.299-  23 2.25  28 2.26   3 2.26  27 2.36   2 2.36
  53  0.829  0.497  0.427-  24 2.05   4 2.08  25 2.14  28 2.36   3 2.36  65 2.79
  54  0.795  0.253  0.083-   5 2.06  14 2.10  29 2.14  15 2.16
  55  0.911  0.081  0.214-   6 2.08  16 2.25   8 2.26  30 2.26  29 2.36
  56  0.062  0.931  0.342-  13 2.25  31 2.26   7 2.26  30 2.36   8 2.36
  57  0.224  0.740  0.452-  31 2.04   7 2.07  32 2.10  43 2.78
  58  0.145  0.515  0.129-  33 2.08  12 2.13  17 2.25  34 2.26   9 2.26  20 2.27  61 2.41
  59  0.295  0.364  0.257-  18 2.25  10 2.26  35 2.26   9 2.36  34 2.36
  60  0.445  0.214  0.385-  11 2.09  36 2.13  19 2.18  35 2.36  10 2.36
  61  0.020  0.554  0.026-  20 2.12  33 2.13  12 2.15  58 2.41
  62  0.477  0.512  0.128-  26 2.16  34 2.25  15 2.26   2 2.26  14 2.29   1 2.56   5 2.58
  63  0.628  0.362  0.256-  35 2.25   3 2.26  16 2.26   2 2.36  15 2.36
  64  0.778  0.212  0.384-   4 2.08  36 2.18  13 2.26  16 2.36   3 2.36
  65  0.942  0.239  0.493-  13 2.04   4 2.05  25 2.09  38 2.66  53 2.79
  66  0.011  0.645  0.299-  28 2.25   7 2.26  18 2.26   8 2.36  17 2.36
  67  0.152  0.504  0.412-  18 2.11  19 2.11   7 2.20  25 2.30
  68  0.861  0.795  0.171-   6 2.11  20 2.13  27 2.25  17 2.26   8 2.26  45 2.71
  69  0.101  0.222  0.094-  33 2.12   9 2.12  21 2.16  29 2.23  12 2.29
  70  0.244  0.079  0.214-  30 2.25  22 2.26  10 2.26   9 2.36  21 2.36
  71  0.395  0.928  0.342-  11 2.03  31 2.25  23 2.26  10 2.36  22 2.36  72 2.77
  72  0.525  0.820  0.459-  24 2.05  32 2.13  23 2.15  11 2.16  71 2.77

  LATTYP: Found a base centered orthorhombic cell.
 ALAT       =    11.4527836704
 B/A-ratio  =     1.4485816945
 C/A-ratio  =     1.7908432109

  Lattice vectors:

 A1 = (  10.0797329849,   0.0000000000,   0.0000000000)
 A2 = (  -3.5732980427,  -9.4251025535,   0.0000000000)
 A3 = (   0.0000000000,   0.0000000000, -20.5101398818)

Analysis of symmetry for initial positions (statically):
 Subroutine PRICEL returns:
 Original cell was already a primitive cell.

 Routine SETGRP: Setting up the symmetry group for a
 base centered orthorhombic supercell.

 Subroutine GETGRP returns: Found  1 space group operations
 (whereof  1 operations were pure point group operations)
 out of a pool of  8 trial point group operations.

The static configuration has the point symmetry C_1 .

Analysis of symmetry for dynamics (positions and initial velocities):
 Subroutine PRICEL returns:
 Original cell was already a primitive cell.

 Routine SETGRP: Setting up the symmetry group for a
 base centered orthorhombic supercell.

 Subroutine GETGRP returns: Found  1 space group operations
 (whereof  1 operations were pure point group operations)
 out of a pool of  8 trial point group operations.

The dynamic configuration has the point symmetry C_1 .

 Subroutine INISYM returns: Found  1 space group operations
 (whereof  1 operations are pure point group operations),
 and found     1 'primitive' translations

 KPOINTS: gamma-point-only calculation. no periodi

Automatic generation of k-mesh.
Space group operators:
 irot       det(A)        alpha          n_x          n_y          n_z        tau_x        tau_y        tau_z
    1     1.000000     0.000000     1.000000     0.000000     0.000000     0.000000     0.000000     0.000000

 Subroutine IBZKPT returns following result:

 Found      1 irreducible k-points:

 Following reciprocal coordinates:
            Coordinates               Weight
  0.000000  0.000000  0.000000      1.000000

 Following cartesian coordinates:
            Coordinates               Weight
  0.000000  0.000000  0.000000      1.000000

 SYSTEM =  "Millerite NiS"
 POSCAR =  Type_036 Type_136

 Startparameter for this run:
   NWRITE =      2    write-flag & timer
   PREC   = normal    normal or accurate (medium, high low for compatibility)
   ISTART =      0    job   : 0-new  1-cont  2-samecut
   ICHARG =      2    charge: 1-file 2-atom 10-const
   ISPIN  =      1    spin polarized calculation?
   LNONCOLLINEAR =      F non collinear calculations
   LSORBIT =      F    spin-orbit coupling
   INIWAV =      1    electr: 0-lowe 1-rand  2-diag
   LASPH  =      F    aspherical Exc in radial PAW
   METAGGA=      F    non-selfconsistent MetaGGA calc.

 Electronic Relaxation 1
   ENCUT  =  450.0 eV  33.07 Ry    5.75 a.u.  17.43 17.43 35.48*2*pi/ulx,y,z
   ENINI  =  450.0     initial cutoff
   ENAUG  =  703.4 eV  augmentation charge cutoff
   NELM   =    100;   NELMIN=  2; NELMDL= -5     # of ELM steps
   EDIFF  = 0.1E-03   stopping-criterion for ELM
   LREAL  =      T    real-space projection
   NLSPLINE    = F    spline interpolate recip. space projectors
   LCOMPAT=      F    compatible to vasp.4.4
   GGA_COMPAT  = T    GGA compatible to vasp.4.4-vasp.4.6
   LMAXPAW     = -100 max onsite density
   LMAXMIX     =    2 max onsite mixed and CHGCAR
   VOSKOWN=      0    Vosko Wilk Nusair interpolation
   ROPT   =   -0.00050  -0.00050
 Ionic relaxation
   EDIFFG = 0.1E-02   stopping-criterion for IOM
   NSW    =      0    number of steps for IOM
   NBLOCK =      1;   KBLOCK =      1    inner block; outer block
   IBRION =     -1    ionic relax: 0-MD 1-quasi-New 2-CG
   NFREE  =      0    steps in history (QN), initial steepest desc. (CG)
   ISIF   =      2    stress and relaxation
   IWAVPR =     10    prediction:  0-non 1-charg 2-wave 3-comb
   ISYM   =      2    0-nonsym 1-usesym 2-fastsym
   LCORR  =      T    Harris-Foulkes like correction to forces

   POTIM  = 0.5000    time-step for ionic-motion
   TEIN   =    0.0    initial temperature
   TEBEG  =    0.0;   TEEND  =   0.0 temperature during run
   SMASS  =  -3.00    Nose mass-parameter (am)
   estimated Nose-frequenzy (Omega)   =  0.10E-29 period in steps =****** mass=  -0.232E-26a.u.
   SCALEE = 1.0000    scale energy and forces
   NPACO  =    256;   APACO  = 16.0  distance and # of slots for P.C.
   PSTRESS=    0.0 pullay stress

  Mass of Ions in am
   POMASS =  58.69 32.07
  Ionic Valenz
   ZVAL   =  16.00  6.00
  Atomic Wigner-Seitz radii
  virtual crystal weights
   VCA    =   1.00  1.00
   NELECT =     792.0000    total number of electrons
   NUPDOWN=      -1.0000    fix difference up-down

 DOS related values:
   EMIN   =  10.00;   EMAX   =-10.00  energy-range for DOS
   EFERMI =   0.00
   ISMEAR =     0;   SIGMA  =   0.20  broadening in eV -4-tet -1-fermi 0-gaus

 Electronic relaxation 2 (details)
   IALGO  =     38    algorithm
   LDIAG  =      T    sub-space diagonalisation (order eigenvalues)
   LSUBROT=      F    optimize rotation matrix (better conditioning)
   TURBO    =      0    0=normal 1=particle mesh
   IRESTART =      0    0=no restart 2=restart with 2 vectors
   NREBOOT  =      0    no. of reboots
   NMIN     =      0    reboot dimension
   EREF     =   0.00    reference energy to select bands
   IMIX   =      4    mixing-type and parameters
     AMIX     =   0.40;   BMIX     =  1.00
     AMIX_MAG =   1.60;   BMIX_MAG =  1.00
     AMIN     =   0.10
     WC   =   100.;   INIMIX=   1;  MIXPRE=   1;  MAXMIX= -45

 Intra band minimization:
   WEIMIN = 0.0000     energy-eigenvalue tresh-hold
   EBREAK =  0.53E-07  absolut break condition
   DEPER  =   0.30     relativ break condition

   TIME   =   0.40     timestep for ELM

  volume/ion in A,a.u.               =      27.06       182.63
  Fermi-wavevector in a.u.,A,eV,Ry     =   1.212687  2.291646 20.008854  1.470609
[...]
  Fock        0.00000     0.00000     0.00000     0.00000     0.00000     0.00000
  Total      97.51920    79.93296    98.99946    -2.74242     2.42494     5.59032
  in kB      80.18571    65.72533    81.40286    -2.25497     1.99392     4.59667

 VOLUME and BASIS-vectors are now :
  energy-cutoff  :      450.00
  volume of cell :     1948.51
      direct lattice vectors                 reciprocal lattice vectors
    10.079732985  0.000000000  0.000000000     0.099208977 -0.037612667  0.000000000
     3.573298043  9.425102554  0.000000000     0.000000000  0.106099641  0.000000000
     0.000000000  0.000000000 20.510139882     0.000000000  0.000000000  0.048756372

  length of vectors
    10.079732985 10.079732985 20.510139882     0.106099641  0.106099641  0.048756372

 FORCES acting on ions
    electron-ion (+dipol)            ewald-force                    non-local-force                 convergence-correction
   0.212E+03 -.286E+03 0.289E+04   -.214E+03 0.286E+03 -.289E+04   0.223E+01 -.263E+00 -.367E+00   0.492E-01 0.621E-02 -.390E+00
   0.253E+03 -.158E+02 0.325E+03   -.252E+03 0.133E+02 -.321E+03   -.653E+00 0.168E+01 -.314E+01   0.372E-01 -.175E-01 -.371E+00
   0.383E+03 -.975E+02 -.233E+04   -.384E+03 0.986E+02 0.232E+04   0.149E+01 -.110E+01 0.117E+01   0.508E-02 0.117E-01 -.110E+00
   0.224E+03 0.342E+03 -.515E+04   -.229E+03 -.341E+03 0.516E+04   0.438E+01 -.184E+00 -.401E+01   -.305E-01 0.476E-01 0.125E+00
   0.462E+02 0.651E+03 0.429E+04   -.429E+02 -.653E+03 -.430E+04   -.268E+01 0.218E+01 0.328E+01   -.743E-01 0.500E-01 -.284E+00
   0.546E+03 0.138E+03 0.291E+04   -.550E+03 -.138E+03 -.291E+04   0.212E+01 0.571E+00 0.172E+01   -.365E-01 0.314E-02 -.383E+00
   0.574E+03 -.345E+03 -.400E+04   -.577E+03 0.347E+03 0.400E+04   0.173E+01 -.779E+00 -.127E+01   -.133E+00 -.262E-01 -.116E+00
   0.398E+03 -.149E+03 -.633E+03   -.399E+03 0.149E+03 0.635E+03   0.824E+00 -.299E+00 -.113E+01   -.740E-01 -.576E-01 -.395E+00
   0.232E+03 0.184E+03 0.128E+04   -.232E+03 -.186E+03 -.127E+04   0.510E+00 0.139E+01 -.401E+01   0.344E-01 -.629E-02 -.543E+00
   0.442E+03 -.136E+03 -.151E+04   -.443E+03 0.137E+03 0.151E+04   0.129E+01 -.123E+01 0.186E+01   0.187E-01 0.311E-01 -.477E+00
   0.221E+03 -.212E+03 -.473E+04   -.220E+03 0.213E+03 0.473E+04   -.899E+00 -.780E+00 -.272E+01   0.180E-01 -.144E-01 -.647E-01
   0.345E+03 -.120E+03 0.397E+04   -.348E+03 0.118E+03 -.397E+04   0.260E+01 0.111E+01 0.126E+01   0.172E+00 -.698E-01 -.316E+00
   0.160E+03 0.797E+03 -.392E+04   -.162E+03 -.803E+03 0.392E+04   0.138E+01 0.505E+01 0.570E+00   -.115E+00 0.532E-01 -.447E-01
   0.131E+03 -.225E+02 0.595E+04   -.131E+03 0.228E+02 -.595E+04   -.995E+00 0.109E-02 -.136E+01   0.165E-01 -.203E-01 -.118E+00
   -.136E+03 0.464E+03 0.229E+04   0.136E+03 -.467E+03 -.229E+04   0.783E-01 0.232E+01 -.219E+01   0.280E-01 0.108E-01 -.395E+00
   -.458E+02 0.606E+03 -.521E+03   0.450E+02 -.607E+03 0.521E+03   0.768E+00 0.657E+00 0.745E+00   -.563E-02 0.955E-01 -.406E+00
   0.445E+00 0.347E+03 0.147E+04   -.165E+01 -.346E+03 -.147E+04   0.130E+01 -.987E+00 -.208E+01   -.399E-01 -.144E+00 -.499E+00
   0.823E+02 0.379E+03 -.150E+04   -.834E+02 -.381E+03 0.150E+04   0.124E+01 0.270E+01 0.182E+01   0.233E-02 -.686E-01 -.370E+00
   0.353E+03 0.458E+03 -.465E+04   -.355E+03 -.464E+03 0.465E+04   0.132E+01 0.415E+01 -.804E+00   0.757E-01 -.686E-01 0.246E-01
   0.761E+01 -.333E+03 0.488E+04   -.864E+01 0.335E+03 -.489E+04   0.210E+01 -.326E+01 0.672E+01   -.148E-01 -.122E+00 -.251E+00
   -.425E+02 0.103E+04 0.411E+04   0.428E+02 -.103E+04 -.411E+04   -.651E+00 0.320E+01 0.137E+01   -.506E-01 0.162E+00 -.302E+00
   -.116E+03 0.435E+03 0.709E+03   0.115E+03 -.434E+03 -.707E+03   0.862E+00 -.154E+00 -.149E+01   -.409E-01 0.174E-01 -.475E+00
   -.117E+03 0.185E+03 -.247E+04   0.116E+03 -.188E+03 0.246E+04   -.514E+00 0.411E+01 0.189E+01   -.463E-02 -.163E+00 -.262E+00
   -.530E+03 -.193E+02 -.521E+04   0.532E+03 0.195E+02 0.521E+04   -.165E+01 -.534E+00 0.192E+01   0.212E-01 -.865E-01 0.105E+00
   -.578E+03 -.263E+03 -.461E+04   0.582E+03 0.268E+03 0.461E+04   -.236E+01 -.362E+01 -.262E+01   -.828E-01 0.129E+00 0.382E-01
   -.289E+02 -.804E+03 0.507E+04   0.277E+02 0.803E+03 -.508E+04   0.124E+01 0.936E+00 0.796E+01   0.325E-01 -.272E-01 -.232E+00
   -.435E+03 -.650E+03 0.161E+04   0.436E+03 0.651E+03 -.161E+04   -.887E+00 -.124E+01 -.257E+01   0.336E-01 -.324E-01 -.384E+00
   -.505E+03 -.309E+03 -.153E+04   0.505E+03 0.311E+03 0.153E+04   0.314E-01 -.146E+01 0.846E+00   -.281E-01 0.652E-01 -.346E+00
   -.391E+03 0.823E+02 0.435E+04   0.394E+03 -.826E+02 -.435E+04   -.141E+01 0.596E+00 0.231E+01   0.892E-01 0.674E-01 -.287E+00
   -.236E+03 -.486E+03 0.483E+03   0.235E+03 0.489E+03 -.483E+03   0.106E+01 -.240E+01 -.330E+00   0.913E-01 0.416E-01 -.463E+00
   -.231E+03 -.466E+03 -.261E+04   0.232E+03 0.469E+03 0.261E+04   -.126E+01 -.323E+01 -.476E+00   0.662E-01 -.259E-01 -.327E+00
   0.548E+02 -.338E+03 -.519E+04   -.506E+02 0.341E+03 0.519E+04   -.424E+01 -.170E+01 -.315E+01   0.115E+00 -.122E+00 0.114E+00
   -.175E+03 0.211E+02 0.573E+04   0.178E+03 -.207E+02 -.574E+04   -.203E+01 -.799E+00 0.892E+01   -.158E-01 -.340E-01 -.102E+00
   -.253E+03 -.408E+03 0.260E+04   0.254E+03 0.410E+03 -.260E+04   -.753E+00 -.730E+00 -.221E+01   -.156E+00 -.589E-01 -.453E+00
   -.394E+03 -.193E+03 -.493E+03   0.395E+03 0.194E+03 0.493E+03   -.670E+00 -.143E+01 0.111E+01   -.593E-01 0.498E-01 -.447E+00
   -.502E+03 -.122E+03 -.378E+04   0.505E+03 0.124E+03 0.378E+04   -.151E+01 -.128E+01 -.180E+01   0.270E-01 0.472E-01 -.124E+00
   -.115E+03 0.912E+02 -.643E+03   0.117E+03 -.910E+02 0.639E+03   -.175E+01 -.346E+00 0.182E+01   0.207E-01 0.307E-01 -.151E+00
   -.872E+02 0.111E+03 -.187E+04   0.882E+02 -.113E+03 0.188E+04   -.347E+00 0.195E+00 -.138E+01   0.203E-01 0.117E-01 0.391E-01
   -.174E+03 -.291E+03 0.193E+04   0.177E+03 0.294E+03 -.194E+04   -.441E+01 -.174E+01 0.211E+01   0.155E-01 -.240E-01 -.805E-01
   -.906E+02 0.765E+02 0.342E+03   0.902E+02 -.771E+02 -.340E+03   -.172E-01 0.590E+00 -.101E+01   0.355E-01 0.171E-01 -.184E+00
   -.585E+02 -.942E+02 0.165E+04   0.596E+02 0.945E+02 -.165E+04   -.362E+01 0.102E+01 0.242E+01   -.103E-01 -.684E-02 -.151E+00
   -.405E+02 0.648E+02 -.413E+02   0.408E+02 -.657E+02 0.431E+02   -.397E+00 0.575E+00 -.105E+01   0.175E-01 -.305E-01 -.152E+00
   -.712E+02 0.439E+02 -.987E+03   0.735E+02 -.439E+02 0.982E+03   -.946E+00 0.104E+00 0.165E+01   0.324E-01 -.557E-01 -.785E-01
   0.781E+02 0.185E+03 -.215E+04   -.776E+02 -.187E+03 0.215E+04   -.657E+00 0.916E+00 -.182E+01   0.667E-01 -.724E-01 0.696E-01
   0.147E+03 0.245E+02 0.216E+04   -.150E+03 -.231E+02 -.216E+04   0.766E+00 -.173E+01 0.337E+01   0.844E-02 -.230E-01 -.829E-01
   -.164E+03 0.190E+03 0.225E+04   0.165E+03 -.192E+03 -.226E+04   0.150E+00 0.891E+00 0.258E+01   -.901E-01 0.252E-01 -.469E-01
   -.677E+02 0.272E+03 0.904E+03   0.678E+02 -.274E+03 -.903E+03   0.376E+00 0.940E+00 0.246E+00   -.539E-01 0.120E-01 -.165E+00
   -.142E+03 0.776E+02 -.246E+03   0.144E+03 -.784E+02 0.244E+03   -.197E+01 0.238E+00 -.224E-01   -.399E-01 -.242E-01 -.168E+00
   -.369E+03 -.861E+02 -.166E+04   0.372E+03 0.863E+02 0.166E+04   -.532E-01 -.540E+00 -.119E+01   0.537E-02 -.579E-01 0.129E-01
   -.154E+02 -.130E+03 0.196E+04   0.141E+02 0.132E+03 -.197E+04   0.136E+01 -.744E+00 0.359E+01   0.125E-01 0.388E-01 -.760E-01
   -.245E+03 -.351E+03 0.884E+03   0.249E+03 0.354E+03 -.881E+03   -.126E+01 -.918E+00 0.336E-01   0.147E-01 0.141E-01 -.139E+00
   -.208E+02 -.194E+03 -.419E+03   0.213E+02 0.197E+03 0.420E+03   -.552E+00 -.272E+01 -.163E+01   0.229E-02 -.341E-02 -.120E+00
   -.176E+03 -.140E+03 -.163E+04   0.176E+03 0.145E+03 0.163E+04   0.313E+00 -.309E+01 -.223E+01   -.702E-01 -.137E-01 0.242E-01
   -.193E+03 0.244E+03 0.186E+04   0.194E+03 -.244E+03 -.186E+04   -.109E+01 -.567E+00 0.106E+01   0.243E-02 0.379E-01 -.911E-01
   -.406E+02 -.148E+03 0.334E+03   0.399E+02 0.151E+03 -.334E+03   0.168E+01 -.247E+01 0.144E+01   0.897E-02 0.383E-01 -.179E+00
   0.508E+02 -.174E+03 -.926E+03   -.512E+02 0.177E+03 0.926E+03   0.725E-01 -.304E+01 -.328E+00   0.189E-03 -.130E-01 -.905E-01
   0.192E+03 -.208E+03 -.209E+04   -.193E+03 0.210E+03 0.210E+04   0.663E+00 -.507E+00 -.157E+01   -.386E-01 -.351E-02 0.464E-01
   -.212E+03 -.241E+03 0.120E+04   0.216E+03 0.243E+03 -.119E+04   -.277E+01 -.310E+00 -.176E+01   -.313E-01 -.690E-01 -.176E+00
   0.215E+02 -.143E+03 -.734E+02   -.213E+02 0.146E+03 0.749E+02   -.113E+00 -.271E+01 -.169E+01   -.202E-01 -.949E-02 -.179E+00
   -.695E+01 -.153E+03 -.133E+04   0.737E+01 0.155E+03 0.133E+04   -.212E+00 -.133E+01 -.173E+01   -.310E-02 0.657E-01 -.653E-01
   0.444E+02 -.207E+03 0.228E+04   -.469E+02 0.209E+03 -.229E+04   0.225E+01 -.968E+00 0.463E+01   0.389E-01 -.643E-01 -.571E-02
   0.334E+03 -.716E+02 0.134E+04   -.338E+03 0.722E+02 -.134E+04   0.381E+01 -.133E+01 -.138E+01   0.711E-03 -.222E-01 -.132E+00
   0.143E+03 0.103E+03 -.142E+02   -.145E+03 -.104E+03 0.138E+02   0.227E+01 0.168E+01 0.811E+00   -.966E-02 0.222E-01 -.149E+00
   0.927E+02 0.257E+03 -.118E+04   -.952E+02 -.260E+03 0.118E+04   0.193E+01 0.120E+01 -.427E+00   -.424E-02 0.982E-01 0.121E-01
   -.291E+02 0.211E+03 -.225E+04   0.293E+02 -.212E+03 0.226E+04   -.179E+00 0.881E+00 -.296E+01   -.102E+00 0.679E-01 0.118E+00
   0.149E+03 0.312E+02 -.408E+03   -.152E+03 -.324E+02 0.408E+03   0.217E+01 0.149E+01 -.774E+00   -.234E-01 -.367E-01 -.133E+00
   0.186E+03 0.429E+02 -.164E+04   -.187E+03 -.438E+02 0.164E+04   0.102E-01 0.103E+00 -.183E+00   -.374E-02 -.358E-03 -.167E-01
   0.261E+03 -.383E+02 0.888E+03   -.265E+03 0.369E+02 -.887E+03   0.220E+01 0.478E+00 0.687E+00   -.141E-01 -.458E-01 -.173E+00
   0.233E+03 0.325E+03 0.176E+04   -.236E+03 -.326E+03 -.177E+04   0.838E+00 -.236E+00 0.148E+01   0.861E-01 0.610E-01 -.970E-01
   0.147E+03 0.649E+02 0.446E+03   -.148E+03 -.664E+02 -.447E+03   0.111E+01 0.172E+01 0.115E+01   0.434E-01 0.476E-01 -.194E+00
   0.173E+03 0.806E+02 -.725E+03   -.176E+03 -.826E+02 0.724E+03   0.218E+01 0.104E+01 -.423E+00   0.173E-01 -.159E-01 -.151E+00
   0.106E+03 -.163E+03 -.200E+04   -.107E+03 0.163E+03 0.201E+04   -.208E+00 0.165E+00 -.173E+01   0.457E-01 -.280E-01 0.440E-01
   -.890E+01 0.831E+01 0.830E+00   0.105E-11 -.171E-12 0.318E-11   0.900E+01 -.790E+01 0.115E+02   -.464E-01 -.308E+00 -.124E+02

 POSITION                                       TOTAL-FORCE (eV/Angst)
      6.18220      7.24174      3.32953         0.218357     -0.783703      0.074959
      7.43572      5.66537      4.57627         0.492160     -0.831914      0.902514
      8.41343      4.24907      7.20177         0.008372      0.020959     -0.625645
      8.71615      3.33145      9.47485        -0.938406      0.153367      0.887997
      6.90107      2.31521      2.10968         0.580313      0.194485     -0.324984
      7.96379      0.13692      3.10288        -1.921557      1.081440     -0.093442
      3.21062      6.91868      8.07694        -1.203130      0.522382     -0.737054
     12.31264      8.33497      5.45144         0.147845      0.164749      0.149236
      2.55881      2.99577      3.70110         0.775207     -0.644798      2.163494
      3.53652      1.57947      6.32660         0.393162     -0.252186     -0.328020
      4.34463      0.31116      8.67466         0.163474      0.213222      1.150013
     11.35731      4.29613      2.25087         0.262589     -0.502800      0.262627
      0.51382      1.09100      8.43993        -0.907457     -1.230885     -1.955772
      8.07107      4.16218      0.96583        -0.469389      0.248567     -1.002005
      8.63813      3.92359      3.18892         0.360114     -0.257889      2.292418
      9.61584      2.50729      5.81443        -0.081808     -0.380448     -0.057660
      3.43531      6.59319      4.06409         0.056955     -0.177780      1.258012
      4.41302      5.17689      6.68959         0.087660     -0.180283     -1.243712
      5.22364      3.93739      8.93604        -0.687065     -1.056327      0.536599
     12.66898      6.85310      1.83341         1.050162     -0.543042     -0.578736
      3.76121      1.25399      2.31376        -0.389416     -1.833160      0.669851
      8.31222      9.26279      4.93926         0.114852     -0.104119      0.245089
      9.28993      7.84650      7.56476        -1.023894      0.723668     -2.262587
      9.92832      6.60171      9.47898         0.548649     -0.444996      1.075846
      1.63504      3.25731      8.89225         1.901255      1.774414      0.776212
      7.89671      6.39800      1.85129         0.040542      0.008418     -1.673019
      9.84053      6.03956      3.88260         0.125682      0.302838      0.304869
     10.81824      4.62327      6.50810         0.051354      0.063945     -0.052637
     10.16643      0.70036      2.13226         1.543280      0.385324      0.834965
      4.63771      8.70917      4.75776        -0.210637      0.539204      0.097969
      5.61542      7.29287      7.38327         0.457881      0.189448     -1.572250
      6.80666      6.14394      9.59590         0.038328      1.150508      0.996979
      3.22083      3.45094      1.09993         0.468287     -0.436367     -1.247563
      4.96362      3.36996      3.00743        -0.232286      0.687395      1.591909
      5.94133      1.95367      5.63293        -0.121884     -0.128905      0.173047
      6.88221      0.64630      7.98411         0.672704      0.671193      1.130750
      1.57981      2.47018      7.00134        -0.529818     -0.134254     -2.825576
      2.51962      1.28132      9.08357         0.650683     -0.882027      2.154411
      9.70412      5.30277      1.75033        -1.441359      1.452142     -2.096057
     10.68183      3.88647      4.37584        -0.320419      0.052016      0.612921
      4.50130      7.97237      2.62550        -2.591244      1.308824     -1.776589
      5.47901      6.55607      5.25100        -0.079123     -0.420818      0.589424
      6.45673      5.13978      7.87651         1.385373      0.000973     -3.548181
      6.91423      4.13691     10.17560        -0.098423     -1.082601      2.250554
     12.34677      8.86657      1.31893        -1.484221     -0.401691     -3.011010
      5.02277      2.42115      1.12235         1.298084     -0.582296     -3.515077
      5.80492      1.21687      3.50067         0.433134     -0.793884      0.859811
     10.35593      9.22568      6.12617        -0.355797     -0.643191     -2.385124
     11.09101      8.06927      8.60349         2.644112     -0.350151      1.589725
      7.05431      8.46850      1.70886         0.119625      0.838237     -1.373956
      8.17302      7.52069      3.51693         3.064268      1.777658      2.866452
      9.15074      6.10439      6.14243        -0.105159     -0.166233     -0.400061
     10.12845      4.68809      8.76794         0.359459      1.242176     -0.515657
      8.92075      2.38577      1.70280        -0.034836     -0.470633     -1.218114
      9.47664      0.76519      4.39210         0.983153      0.472412      1.395468
      3.94792      8.77399      7.01760        -0.330006     -0.124580     -0.033010
      4.90065      6.97491      9.27212        -0.644655      1.714835      3.173135
      3.29611      4.85108      2.64176         1.492138      1.749623      2.241275
      4.27382      3.43479      5.26727         0.041649     -0.062021     -0.394179
      5.25153      2.01849      7.89277         0.201857      1.357992     -0.191599
      2.18307      5.22029      0.53991        -0.210889      0.853703     -3.197589
      6.64193      4.82628      2.63363        -0.715183     -0.774595     -0.767221
      7.61964      3.40999      5.25914         0.073393      0.017844      0.285564
      8.59735      1.99369      7.88464        -0.515543     -1.132386     -0.714855
     10.34656      2.25040     10.10397        -0.011233     -0.429645      3.677753
      2.41682      6.07959      6.13430        -0.289066      0.268704     -0.543867
      3.33302      4.74876      8.44875        -1.090074     -0.817355      1.999379
     11.51884      7.49589      3.50880        -1.359510     -0.981127      1.420546
      1.81203      2.09560      1.92782        -1.762235     -1.633469     -1.226205
      2.74272      0.74039      4.38397        -0.016912      0.269229      0.687938
      7.29374      8.74919      7.00947        -0.535732     -0.919834     -2.314380
      8.21748      7.72790      9.41868        -0.597747      0.120500      2.423683
    total drift:                                0.044539      0.106534     -0.014910

  FREE ENERGIE OF THE ION-ELECTRON SYSTEM (eV)
  free  energy   TOTEN  =      -349.94926584 eV

  energy  without entropy=     -348.89049952  energy(sigma->0) =     -349.41988268