 vasp.5.4.4.18Apr17-6-g9f103f2a35 (build Aug 13 2019 17:33:20) gamma-only

 executed on             LinuxIFC date 2020.05.12  02:22:08

 INCAR:
 POTCAR:    PAW_PBE Ni_pv 06Sep2000
 POTCAR:    PAW_PBE S 06Sep2000
 POTCAR:    PAW_PBE Ni_pv 06Sep2000
   VRHFIN =Ni:

   TITEL  = PAW_PBE Ni_pv 06Sep2000
   POMASS =   58.690; ZVAL   =   16.000    mass and valenz
   ENMAX  =  367.986; ENMIN  =  275.989 eV

 POTCAR:    PAW_PBE S 06Sep2000
   VRHFIN =S : s2p4

   TITEL  = PAW_PBE S 06Sep2000
   POMASS =   32.066; ZVAL   =    6.000    mass and valenz
   ENMAX  =  258.689; ENMIN  =  194.016 eV

 Optimization of the real space projectors (new method)

 maximal supplied QI-value         = 18.90
 optimisation between [QCUT,QGAM] = [ 10.77, 21.73] = [ 32.49,132.25] Ry
 Optimized for a Real-space Cutoff    1.38 Angstroem

   l    n(q)    QCUT    max X(q) W(low)/X(q) W(high)/X(q)  e(spline)
   1      8    10.771     2.836    0.40E-04    0.29E-04    0.12E-06
   1      8    10.771     4.023    0.10E-03    0.48E-04    0.29E-06
   2      8    10.771    73.368    0.42E-03    0.97E-04    0.44E-06
   2      8    10.771    69.010    0.42E-03    0.99E-04    0.45E-06
   0      9    10.771    54.797    0.10E-03    0.56E-04    0.74E-07
   0      9    10.771    24.266    0.89E-04    0.49E-04    0.67E-07
 Optimization of the real space projectors (new method)

 maximal supplied QI-value         = 19.84
 optimisation between [QCUT,QGAM] = [ 10.71, 21.63] = [ 32.15,130.99] Ry
 Optimized for a Real-space Cutoff    1.19 Angstroem

   l    n(q)    QCUT    max X(q) W(low)/X(q) W(high)/X(q)  e(spline)
   0      8    10.715   187.594    0.41E-03    0.53E-04    0.66E-07
   0      8    10.715   164.243    0.41E-03    0.53E-04    0.65E-07
   1      7    10.715    67.533    0.19E-03    0.59E-03    0.68E-07
   1      7    10.715    50.729    0.19E-03    0.58E-03    0.67E-07
  PAW_PBE Ni_pv 06Sep2000               :
  PAW_PBE S 06Sep2000                   :

 POSCAR: Type_037 Type_137
  positions in cartesian coordinates
 exchange correlation table for  LEXCH =        8
   RHO(1)=    0.500       N(1)  =     2000
   RHO(2)=  100.500       N(2)  =     4000

 ion  position               nearest neighbor table
   1  0.780  0.145  0.123-  65 2.07  51 2.07  42 2.25  52 2.36  66 2.36
   2  0.802  0.145  0.288-  38 2.05  66 2.08  52 2.08  43 2.09
   3  0.228  0.645  0.096-  44 2.01  63 2.19  53 2.19  45 2.25   4 2.32
   4  0.297  0.645  0.216-  64 2.13  54 2.13  45 2.25  53 2.26  63 2.26   3 2.32  28 2.53  15 2.53

   5  0.401  0.145  0.127-  47 2.04  69 2.18  55 2.18  48 2.26   6 2.32
   6  0.470  0.145  0.247-  56 2.10  70 2.10  48 2.25  55 2.26  69 2.26   5 2.32  31 2.53  18 2.53

[...]

  38  0.901  0.145  0.359-  13 2.04  26 2.04   2 2.05
  39  0.991  0.145  0.183-  26 2.10  13 2.10   9 2.25  12 2.47  25 2.47
  40  0.474  0.645  0.091-  14 2.01  27 2.01  10 2.02  15 2.26  28 2.26
  41  0.509  0.645  0.276-  16 2.07  29 2.07  10 2.17  11 2.25  28 2.36  15 2.36
  42  0.647  0.145  0.122-  17 2.02  30 2.02   1 2.25  18 2.26  31 2.26  43 2.73
  43  0.678  0.145  0.283-   2 2.09  18 2.11  31 2.11  42 2.73
  44  0.122  0.645  0.040-   3 2.01  19 2.08  32 2.08
  45  0.164  0.645  0.214-  33 2.09  20 2.09   3 2.25   4 2.25  32 2.36  19 2.36  46 2.79
  46  0.072  0.645  0.354-  33 2.00  20 2.00  45 2.79
  47  0.296  0.145  0.067-   8 2.02   5 2.04  34 2.14  21 2.14
  48  0.336  0.145  0.245-  22 2.05  35 2.05   6 2.25   5 2.26  34 2.36  21 2.36
  49  0.819  0.645  0.153-  36 2.23  23 2.23   7 2.25  24 2.26  37 2.26
  50  0.836  0.645  0.321-  24 2.03  37 2.03
  51  0.834  0.294  0.052-  23 2.02   1 2.07  25 2.10  52 2.72
  52  0.829  0.314  0.215-   2 2.08  25 2.11  26 2.14  23 2.14  24 2.25   1 2.36  51 2.72
  53  0.312  0.814  0.122-  27 1.99   3 2.19  21 2.25   4 2.26  28 2.26
  54  0.349  0.796  0.294-  22 2.04  29 2.05   4 2.13  28 2.15
  55  0.484  0.314  0.153-  30 2.00   5 2.18  15 2.25   6 2.26  31 2.26
  56  0.526  0.288  0.323-  16 2.00  31 2.07   6 2.10  70 2.74
  57  0.992  0.827  0.223-  33 2.11  13 2.16  12 2.18   7 2.19  32 2.20  58 2.72
  58  0.976  0.790  0.062-  12 2.05  32 2.09   7 2.11  57 2.72  68 2.77
  59  0.139  0.320  0.104-   8 2.04  19 2.14   9 2.16  34 2.17  60 2.71
  60  0.172  0.306  0.263-  35 2.05  20 2.13   9 2.17  34 2.20  59 2.71
  61  0.657  0.814  0.184-  10 2.20  18 2.25  37 2.26  11 2.26  36 2.29  62 2.79
  62  0.693  0.795  0.347-  11 2.03  37 2.03  61 2.79
  63  0.312  0.477  0.122-  14 1.99   3 2.19  34 2.25   4 2.26  15 2.26
  64  0.349  0.494  0.294-  35 2.04  16 2.05   4 2.13  15 2.15
  65  0.834  0.996  0.052-  36 2.02   1 2.07  12 2.10  66 2.72
  66  0.829  0.977  0.215-   2 2.08  12 2.11  13 2.14  36 2.14  37 2.25   1 2.36  65 2.72
  67  0.992  0.464  0.223-  20 2.11  26 2.16  25 2.18   7 2.19  19 2.20  68 2.72
  68  0.976  0.501  0.062-  25 2.05  19 2.09   7 2.11  67 2.72  58 2.77
  69  0.484  0.977  0.153-  17 2.00   5 2.18  28 2.25   6 2.26  18 2.26
  70  0.526  0.002  0.323-  29 2.00  18 2.07   6 2.10  56 2.74
  71  0.657  0.477  0.184-  10 2.20  31 2.25  24 2.26  11 2.26  23 2.29  72 2.79
  72  0.693  0.496  0.347-  11 2.03  24 2.03  71 2.79
  73  0.139  0.970  0.104-   8 2.04  32 2.14   9 2.16  21 2.17  74 2.71
  74  0.172  0.984  0.263-  22 2.05  33 2.13   9 2.17  21 2.20  73 2.71

  LATTYP: Found a simple orthorhombic cell.
 ALAT       =     9.5784100000
 B/A-ratio  =     1.7387693453
 C/A-ratio  =     1.7627867312

  Lattice vectors:

 A1 = (   0.0000000000,   9.5784100000,   0.0000000000)
 A2 = (   0.0000000000,   0.0000000000, -16.6546456851)
 A3 = ( -16.8846940542,   0.0000000000,   0.0000000000)

Analysis of symmetry for initial positions (statically):
 Subroutine PRICEL returns:
 Original cell was already a primitive cell.

 Routine SETGRP: Setting up the symmetry group for a
 simple orthorhombic supercell.

 Subroutine GETGRP returns: Found  2 space group operations
 (whereof  1 operations were pure point group operations)
 out of a pool of  8 trial point group operations.

The static configuration has the point symmetry C_1 .
 The point group associated with its full space group is C_1h.

Analysis of symmetry for dynamics (positions and initial velocities):
 Subroutine PRICEL returns:
 Original cell was already a primitive cell.

 Routine SETGRP: Setting up the symmetry group for a
 simple orthorhombic supercell.

 Subroutine GETGRP returns: Found  2 space group operations
 (whereof  1 operations were pure point group operations)
 out of a pool of  8 trial point group operations.

The dynamic configuration has the point symmetry C_1 .
 The point group associated with its full space group is C_1h.

 Subroutine INISYM returns: Found  2 space group operations
 (whereof  1 operations are pure point group operations),
 and found     1 'primitive' translations

 KPOINTS: gamma-point-only calculation. no periodi

Automatic generation of k-mesh.
Space group operators:
 irot       det(A)        alpha          n_x          n_y          n_z        tau_x        tau_y        tau_z
    1     1.000000     0.000000     1.000000     0.000000     0.000000     0.000000     0.000000     0.000000
    2    -1.000000   180.000000     0.000000     1.000000     0.000000     0.000000     0.290594     0.000000

 Subroutine IBZKPT returns following result:

 Found      1 irreducible k-points:

 Following reciprocal coordinates:
            Coordinates               Weight
  0.000000  0.000000  0.000000      1.000000

 Following cartesian coordinates:
            Coordinates               Weight
  0.000000  0.000000  0.000000      1.000000

 SYSTEM =  "Millerite NiS"
 POSCAR =  Type_037 Type_137

 Startparameter for this run:
   NWRITE =      2    write-flag & timer
   PREC   = normal    normal or accurate (medium, high low for compatibility)
   ISTART =      0    job   : 0-new  1-cont  2-samecut
   ICHARG =      2    charge: 1-file 2-atom 10-const
   ISPIN  =      1    spin polarized calculation?
   LNONCOLLINEAR =      F non collinear calculations
   LSORBIT =      F    spin-orbit coupling
   INIWAV =      1    electr: 0-lowe 1-rand  2-diag
   LASPH  =      F    aspherical Exc in radial PAW
   METAGGA=      F    non-selfconsistent MetaGGA calc.

 Electronic Relaxation 1
   ENCUT  =  450.0 eV  33.07 Ry    5.75 a.u.  29.20 16.57 28.81*2*pi/ulx,y,z
   ENINI  =  450.0     initial cutoff
   ENAUG  =  703.4 eV  augmentation charge cutoff
   NELM   =    100;   NELMIN=  2; NELMDL= -5     # of ELM steps
   EDIFF  = 0.1E-03   stopping-criterion for ELM
   LREAL  =      T    real-space projection
   NLSPLINE    = F    spline interpolate recip. space projectors
   LCOMPAT=      F    compatible to vasp.4.4
   GGA_COMPAT  = T    GGA compatible to vasp.4.4-vasp.4.6
   LMAXPAW     = -100 max onsite density
   LMAXMIX     =    2 max onsite mixed and CHGCAR
   VOSKOWN=      0    Vosko Wilk Nusair interpolation
   ROPT   =   -0.00050  -0.00050
 Ionic relaxation
   EDIFFG = 0.1E-02   stopping-criterion for IOM
   NSW    =      0    number of steps for IOM
   NBLOCK =      1;   KBLOCK =      1    inner block; outer block
   IBRION =     -1    ionic relax: 0-MD 1-quasi-New 2-CG
   NFREE  =      0    steps in history (QN), initial steepest desc. (CG)
   ISIF   =      2    stress and relaxation
   IWAVPR =     10    prediction:  0-non 1-charg 2-wave 3-comb
   ISYM   =      2    0-nonsym 1-usesym 2-fastsym
   LCORR  =      T    Harris-Foulkes like correction to forces

   POTIM  = 0.5000    time-step for ionic-motion
   TEIN   =    0.0    initial temperature
   TEBEG  =    0.0;   TEEND  =   0.0 temperature during run
   SMASS  =  -3.00    Nose mass-parameter (am)
   estimated Nose-frequenzy (Omega)   =  0.10E-29 period in steps =****** mass=  -0.652E-26a.u.
   SCALEE = 1.0000    scale energy and forces
   NPACO  =    256;   APACO  = 16.0  distance and # of slots for P.C.
   PSTRESS=    0.0 pullay stress

  Mass of Ions in am
   POMASS =  58.69 32.07
  Ionic Valenz
   ZVAL   =  16.00  6.00
  Atomic Wigner-Seitz radii
  virtual crystal weights
   VCA    =   1.00  1.00
   NELECT =     814.0000    total number of electrons
   NUPDOWN=      -1.0000    fix difference up-down

 DOS related values:
   EMIN   =  10.00;   EMAX   =-10.00  energy-range for DOS
   EFERMI =   0.00
   ISMEAR =     0;   SIGMA  =   0.20  broadening in eV -4-tet -1-fermi 0-gaus

 Electronic relaxation 2 (details)
   IALGO  =     38    algorithm
   LDIAG  =      T    sub-space diagonalisation (order eigenvalues)
   LSUBROT=      F    optimize rotation matrix (better conditioning)
   TURBO    =      0    0=normal 1=particle mesh
   IRESTART =      0    0=no restart 2=restart with 2 vectors
   NREBOOT  =      0    no. of reboots
   NMIN     =      0    reboot dimension
   EREF     =   0.00    reference energy to select bands
   IMIX   =      4    mixing-type and parameters
     AMIX     =   0.40;   BMIX     =  1.00
     AMIX_MAG =   1.60;   BMIX_MAG =  1.00
     AMIN     =   0.10
     WC   =   100.;   INIMIX=   1;  MIXPRE=   1;  MAXMIX= -45

 Intra band minimization:
   WEIMIN = 0.0000     energy-eigenvalue tresh-hold
   EBREAK =  0.51E-07  absolut break condition
   DEPER  =   0.30     relativ break condition

   TIME   =   0.40     timestep for ELM

[...]
     0.000000000  9.578410000  0.000000000     0.000000000  0.104401461  0.000000000
     0.000000000  0.000000000 16.654645685     0.000000000  0.000000000  0.060043307

  length of vectors
    16.884694054  9.578410000 16.654645685     0.059225237  0.104401461  0.060043307

 FORCES acting on ions
    electron-ion (+dipol)            ewald-force                    non-local-force                 convergence-correction
   0.177E+03 -.923E-03 0.206E+04   -.180E+03 -.195E-05 -.206E+04   0.222E+01 0.000E+00 0.632E+01   -.406E-02 -.130E-06 0.675E-02
   0.383E+03 -.964E-03 -.287E+04   -.389E+03 -.330E-06 0.287E+04   0.370E+01 0.000E+00 -.637E+01   -.752E-02 -.217E-06 -.790E-02
   0.274E+03 -.895E-03 0.280E+04   -.275E+03 0.758E-06 -.281E+04   0.184E+01 0.000E+00 0.605E+01   0.592E-02 -.188E-06 -.469E-02
   0.618E+03 -.895E-03 -.131E+04   -.619E+03 -.777E-06 0.131E+04   0.107E+01 0.000E+00 -.311E+01   0.152E-01 -.279E-06 0.420E-02
   -.191E+02 -.933E-03 0.225E+04   0.211E+02 0.686E-05 -.226E+04   -.174E+01 0.000E+00 0.319E+01   0.733E-02 -.127E-06 0.582E-02
   0.190E+03 -.732E-03 -.193E+04   -.193E+03 0.115E-05 0.193E+04   0.190E+01 0.000E+00 -.533E+01   0.517E-02 0.153E-06 -.660E-03
   0.613E+03 -.753E-03 0.719E+03   -.618E+03 0.779E-07 -.717E+03   0.460E+01 0.000E+00 -.140E+01   -.895E-02 0.241E-07 -.684E-02
   0.565E+03 -.696E-03 0.406E+04   -.569E+03 0.346E-06 -.406E+04   0.276E+01 0.000E+00 0.459E+01   0.197E-02 -.985E-08 -.315E-02
   0.965E+03 -.824E-03 -.358E+03   -.971E+03 0.133E-06 0.361E+03   0.454E+01 0.000E+00 -.262E+01   -.297E-02 -.151E-06 0.185E-02
   -.606E+03 -.976E-03 0.163E+04   0.609E+03 0.182E-05 -.163E+04   -.280E+01 0.000E+00 0.400E+01   0.100E-01 -.402E-06 0.838E-02
   0.226E+00 -.913E-03 -.241E+04   -.296E+01 0.956E-06 0.241E+04   0.200E+01 0.000E+00 -.636E+01   -.698E-02 -.390E-06 -.128E-01
   -.225E+03 -.189E+03 0.194E+04   0.228E+03 0.190E+03 -.194E+04   -.169E+01 -.450E+00 0.806E+01   -.107E-01 0.164E-03 0.390E-02
   -.444E+03 0.399E+03 -.256E+04   0.448E+03 -.400E+03 0.256E+04   -.232E+01 -.853E-01 -.569E+01   -.978E-02 0.784E-02 -.817E-02
   -.167E+03 0.585E+03 0.396E+04   0.164E+03 -.581E+03 -.396E+04   0.270E+01 -.413E+01 -.212E+01   0.101E-01 0.711E-02 -.582E-02
   -.223E+03 0.464E+03 0.699E+02   0.223E+03 -.468E+03 -.705E+02   0.297E+00 0.372E+01 -.424E+00   0.102E-01 -.301E-02 -.278E-02
   -.139E+03 0.148E+03 -.376E+04   0.142E+03 -.152E+03 0.376E+04   -.257E+01 0.457E+01 0.209E+01   0.484E-02 -.577E-02 -.612E-02
   -.371E+03 0.586E+03 0.357E+04   0.370E+03 -.581E+03 -.357E+04   0.140E+01 -.536E+01 -.151E+01   0.245E-02 -.980E-03 0.117E-01
   -.617E+03 0.430E+03 -.972E+03   0.621E+03 -.435E+03 0.974E+03   -.251E+01 0.458E+01 -.360E+01   0.777E-02 0.822E-03 0.339E-02
   0.759E+02 0.517E+03 0.175E+04   -.746E+02 -.520E+03 -.175E+04   -.544E+00 0.290E+01 0.262E+01   -.153E-01 0.429E-02 -.798E-02
   0.153E+03 0.339E+03 -.286E+04   -.151E+03 -.342E+03 0.287E+04   -.188E+01 0.944E+00 -.528E+01   -.213E-02 -.101E-01 -.854E-02
   0.498E+02 0.507E+03 0.821E+03   -.486E+02 -.513E+03 -.822E+03   -.896E+00 0.439E+01 0.103E+01   0.143E-01 0.335E-02 0.126E-01
   0.299E+03 0.642E+02 -.345E+04   -.299E+03 -.673E+02 0.345E+04   0.199E-01 0.307E+01 0.177E+01   0.129E-01 0.764E-02 0.239E-02
   0.361E+03 -.338E+03 0.253E+04   -.363E+03 0.341E+03 -.254E+04   0.927E+00 -.148E+01 0.548E+01   -.461E-02 -.203E-02 0.226E-02
   -.406E+03 0.297E+03 -.183E+04   0.409E+03 -.300E+03 0.183E+04   -.227E+01 0.289E+01 -.476E+01   -.161E-01 -.370E-02 -.122E-01
   -.225E+03 0.189E+03 0.194E+04   0.228E+03 -.190E+03 -.194E+04   -.169E+01 0.450E+00 0.806E+01   -.107E-01 -.165E-03 0.390E-02
   -.444E+03 -.399E+03 -.256E+04   0.448E+03 0.400E+03 0.256E+04   -.232E+01 0.853E-01 -.569E+01   -.978E-02 -.784E-02 -.817E-02
   -.167E+03 -.585E+03 0.396E+04   0.164E+03 0.581E+03 -.396E+04   0.270E+01 0.413E+01 -.212E+01   0.101E-01 -.711E-02 -.582E-02
   -.223E+03 -.464E+03 0.699E+02   0.223E+03 0.468E+03 -.705E+02   0.297E+00 -.372E+01 -.424E+00   0.102E-01 0.301E-02 -.278E-02
   -.139E+03 -.148E+03 -.376E+04   0.142E+03 0.152E+03 0.376E+04   -.257E+01 -.457E+01 0.209E+01   0.484E-02 0.577E-02 -.612E-02
   -.371E+03 -.586E+03 0.357E+04   0.370E+03 0.581E+03 -.357E+04   0.140E+01 0.536E+01 -.151E+01   0.245E-02 0.981E-03 0.117E-01
   -.617E+03 -.430E+03 -.972E+03   0.621E+03 0.435E+03 0.974E+03   -.251E+01 -.458E+01 -.360E+01   0.777E-02 -.822E-03 0.339E-02
   0.759E+02 -.517E+03 0.175E+04   -.746E+02 0.520E+03 -.175E+04   -.544E+00 -.290E+01 0.262E+01   -.153E-01 -.429E-02 -.798E-02
   0.153E+03 -.339E+03 -.286E+04   -.151E+03 0.342E+03 0.287E+04   -.188E+01 -.944E+00 -.528E+01   -.213E-02 0.101E-01 -.854E-02
   0.498E+02 -.507E+03 0.821E+03   -.486E+02 0.513E+03 -.822E+03   -.896E+00 -.439E+01 0.103E+01   0.143E-01 -.335E-02 0.126E-01
   0.299E+03 -.642E+02 -.345E+04   -.299E+03 0.673E+02 0.345E+04   0.199E-01 -.307E+01 0.177E+01   0.129E-01 -.764E-02 0.239E-02
   0.361E+03 0.338E+03 0.253E+04   -.363E+03 -.341E+03 -.254E+04   0.927E+00 0.148E+01 0.548E+01   -.461E-02 0.203E-02 0.226E-02
   -.406E+03 -.297E+03 -.183E+04   0.409E+03 0.300E+03 0.183E+04   -.227E+01 -.289E+01 -.476E+01   -.161E-01 0.370E-02 -.122E-01
   -.959E+02 -.275E-04 -.174E+04   0.966E+02 -.343E-08 0.174E+04   -.788E-01 0.000E+00 -.523E+00   -.136E-02 -.645E-07 -.781E-02
   -.145E+03 0.320E-04 0.284E+03   0.145E+03 -.629E-08 -.288E+03   0.940E+00 0.000E+00 0.195E+01   -.654E-02 -.184E-07 0.282E-02
   -.446E+03 0.161E-04 0.117E+04   0.449E+03 -.450E-05 -.117E+04   -.178E+01 0.000E+00 0.200E+01   0.159E-02 -.174E-07 0.131E-02
   -.174E+03 -.743E-05 -.933E+03   0.174E+03 0.213E-07 0.939E+03   0.976E+00 0.000E+00 -.402E+01   0.803E-02 -.123E-06 -.412E-02
   -.360E+03 0.196E-04 0.793E+03   0.362E+03 -.412E-05 -.796E+03   -.251E+00 0.000E+00 0.164E+01   0.242E-02 0.556E-07 0.680E-02
   -.138E+03 0.592E-06 -.111E+04   0.139E+03 -.365E-06 0.112E+04   0.116E-01 0.000E+00 -.223E+01   -.347E-02 0.471E-07 -.389E-02
   0.105E+03 -.960E-05 0.167E+04   -.104E+03 0.202E-06 -.168E+04   -.444E+00 0.000E+00 0.277E+01   -.349E-02 -.467E-07 0.190E-02
   -.604E+02 -.163E-04 -.425E+03   0.625E+02 0.450E-07 0.426E+03   -.539E+00 0.000E+00 -.158E+01   0.298E-02 -.201E-07 -.561E-02
   0.196E+03 0.601E-05 -.161E+04   -.197E+03 -.190E-07 0.161E+04   0.763E+00 0.000E+00 -.778E+00   -.265E-02 0.413E-07 0.358E-02
   -.168E+03 -.219E-04 0.149E+04   0.170E+03 0.146E-05 -.150E+04   -.432E+00 0.000E+00 0.182E+01   0.532E-02 -.225E-07 0.271E-02
   -.590E+02 -.132E-04 -.695E+03   0.589E+02 0.624E-06 0.700E+03   0.104E+01 0.000E+00 -.417E+01   -.706E-03 0.357E-07 0.538E-02
   -.327E+02 0.383E-04 0.628E+03   0.348E+02 -.188E-08 -.632E+03   -.204E+01 0.000E+00 0.211E+01   -.108E-02 0.375E-07 -.288E-02
   -.402E+03 0.198E-04 -.141E+04   0.406E+03 0.616E-07 0.142E+04   -.200E+01 0.000E+00 -.843E+00   -.307E-02 0.463E-07 -.325E-02
   -.535E+02 0.225E+02 0.161E+04   0.546E+02 -.219E+02 -.161E+04   -.714E+00 -.533E+00 0.309E+01   -.289E-02 0.740E-03 0.613E-02
   0.627E+02 -.642E+02 -.345E+03   -.643E+02 0.648E+02 0.347E+03   -.148E+00 0.373E+00 -.124E+01   -.128E-02 -.194E-02 -.312E-02
   0.172E+03 -.221E+03 0.724E+03   -.173E+03 0.224E+03 -.727E+03   -.526E+00 -.136E+01 0.303E+01   0.669E-02 0.583E-03 -.656E-03
   0.240E+03 0.330E+02 -.124E+04   -.241E+03 -.320E+02 0.124E+04   0.185E+00 -.469E+00 -.244E+01   0.125E-03 0.621E-02 0.131E-03
   0.764E+01 -.170E+03 0.479E+03   -.876E+01 0.172E+03 -.481E+03   -.358E+00 -.101E+01 0.208E+01   0.148E-02 0.777E-04 0.209E-02
   -.167E+03 0.511E+02 -.148E+04   0.168E+03 -.500E+02 0.148E+04   -.684E+00 -.902E+00 -.213E+01   0.374E-02 -.101E-02 -.327E-02
   0.113E+03 0.776E+01 -.609E+03   -.114E+03 -.976E+01 0.613E+03   0.482E+00 0.150E+01 -.157E+01   -.816E-02 0.226E-02 -.615E-02
   0.131E+03 -.684E+02 0.154E+04   -.132E+03 0.694E+02 -.155E+04   0.301E+00 -.402E+00 0.388E+01   -.290E-02 -.184E-02 0.478E-02
   0.265E+03 -.152E+03 0.975E+03   -.266E+03 0.153E+03 -.978E+03   0.455E+00 -.189E+00 0.195E+01   -.152E-02 0.421E-03 0.498E-03
   0.279E+03 0.161E+02 -.996E+03   -.280E+03 -.158E+02 0.100E+04   0.477E+00 0.437E-01 -.197E+01   0.924E-02 -.433E-02 0.172E-02
   -.390E+02 -.667E+02 0.332E+03   0.370E+02 0.692E+02 -.333E+03   0.162E+01 -.151E+01 0.571E+00   -.248E-02 -.211E-02 0.186E-02
   -.463E+02 -.244E+03 -.157E+04   0.453E+02 0.248E+03 0.158E+04   0.872E+00 -.201E+01 -.104E+01   -.602E-02 -.209E-02 -.598E-02
   0.172E+03 0.221E+03 0.724E+03   -.173E+03 -.224E+03 -.727E+03   -.526E+00 0.136E+01 0.303E+01   0.669E-02 -.583E-03 -.656E-03
   0.240E+03 -.330E+02 -.124E+04   -.241E+03 0.320E+02 0.124E+04   0.185E+00 0.469E+00 -.244E+01   0.125E-03 -.621E-02 0.131E-03
   -.535E+02 -.225E+02 0.161E+04   0.546E+02 0.219E+02 -.161E+04   -.714E+00 0.533E+00 0.309E+01   -.289E-02 -.740E-03 0.613E-02
   0.627E+02 0.642E+02 -.345E+03   -.643E+02 -.648E+02 0.347E+03   -.148E+00 -.373E+00 -.124E+01   -.128E-02 0.194E-02 -.312E-02
   0.113E+03 -.776E+01 -.609E+03   -.114E+03 0.976E+01 0.613E+03   0.482E+00 -.150E+01 -.157E+01   -.816E-02 -.226E-02 -.615E-02
   0.131E+03 0.684E+02 0.154E+04   -.132E+03 -.694E+02 -.155E+04   0.301E+00 0.402E+00 0.388E+01   -.290E-02 0.184E-02 0.478E-02
   0.764E+01 0.170E+03 0.479E+03   -.876E+01 -.172E+03 -.481E+03   -.358E+00 0.101E+01 0.208E+01   0.148E-02 -.777E-04 0.209E-02
   -.167E+03 -.511E+02 -.148E+04   0.168E+03 0.500E+02 0.148E+04   -.684E+00 0.902E+00 -.213E+01   0.374E-02 0.101E-02 -.327E-02
   -.390E+02 0.667E+02 0.332E+03   0.370E+02 -.692E+02 -.333E+03   0.162E+01 0.151E+01 0.571E+00   -.248E-02 0.211E-02 0.186E-02
   -.463E+02 0.244E+03 -.157E+04   0.453E+02 -.248E+03 0.158E+04   0.872E+00 0.201E+01 -.104E+01   -.602E-02 0.209E-02 -.598E-02
   0.265E+03 0.152E+03 0.975E+03   -.266E+03 -.153E+03 -.978E+03   0.455E+00 0.189E+00 0.195E+01   -.152E-02 -.421E-03 0.498E-03
   0.279E+03 -.161E+02 -.996E+03   -.280E+03 0.158E+02 0.100E+04   0.477E+00 -.437E-01 -.197E+01   0.924E-02 0.433E-02 0.172E-02
   -.144E+01 -.119E-01 -.842E+00   -.176E-11 0.116E-11 0.568E-11   0.153E+01 0.244E-14 0.896E+00   0.129E-01 -.872E-06 -.467E-01

 POSITION                                       TOTAL-FORCE (eV/Angst)
     13.17084      1.39171      2.05636        -0.634311      0.000000      1.180050
     13.53397      1.39171      4.80357        -1.831299      0.000000     -0.035834
      3.84544      6.18092      1.59379         0.870425      0.000000     -0.133289
      5.02033      6.18092      3.59863         0.184903      0.000000      0.114061
      6.76905      1.39171      2.10815         0.175887      0.000000     -0.349895
      7.93172      1.39171      4.11272        -0.235513      0.000000     -0.628582
     16.08224      6.18092      2.57045        -0.815282      0.000000      0.488681
      3.00053      1.39171      0.77799        -0.722151      0.000000     -2.065851
      2.10894      1.39171      3.08454        -1.607979      0.000000      1.004683
      9.63836      6.18092      2.69704         0.397897      0.000000     -0.835370
     10.84312      6.18092      4.62682        -0.745865      0.000000     -0.844332
     15.56883      8.96334      2.21560         0.640508      1.421128      0.150968
     15.88201      0.14792      4.51198         0.859523     -1.113053     -0.025060
      6.65289      4.96041      0.65514         0.268182     -0.456273     -1.105153
      7.17375      4.91558      3.19116         0.212778     -0.234914     -0.980241
      7.83738      4.46794      5.48803        -0.007801      0.623146      0.867183
      9.55995      0.17459      1.16465         0.036131     -0.466930     -1.253661
     10.08514      0.12638      3.70525         0.527881     -0.383761     -1.518028
      1.35096      4.91558      2.16298         0.742641     -0.140176      0.473873
      1.74755      4.70950      4.64058         0.305784     -1.847936      0.261225
      4.26235      0.12638      2.67707         0.389336     -0.857563      0.132191
      4.83705      9.37222      5.05938         0.121929     -0.048776      0.884692
     13.07787      4.14553      2.01304        -1.171821      0.897587      0.060077
     12.99653      4.91558      4.21934         0.175676     -0.438584     -1.499885
     15.56883      3.39849      2.21560         0.640508     -1.421128      0.150968
     15.88201      2.63551      4.51198         0.859523      1.113053     -0.025060
      6.65289      7.40142      0.65514         0.268182      0.456273     -1.105153
      7.17375      7.44626      3.19116         0.212778      0.234914     -0.980241
      7.83738      7.89390      5.48803        -0.007801     -0.623146      0.867183
      9.55995      2.60883      1.16465         0.036131      0.466930     -1.253661
     10.08514      2.65705      3.70525         0.527881      0.383761     -1.518028
      1.35096      7.44626      2.16298         0.742641      0.140176      0.473873
      1.74755      7.65234      4.64058         0.305784      1.847936      0.261225
      4.26235      2.65705      2.67707         0.389336      0.857563      0.132191
      4.83705      2.98961      5.05938         0.121929      0.048776      0.884692
     13.07787      8.21631      2.01304        -1.171821     -0.897587      0.060077
     12.99653      7.44626      4.21934         0.175676      0.438584     -1.499885
     15.20697      1.39171      5.98069         0.574646      0.000000      4.604369
     16.74052      1.39171      3.05601         1.511442      0.000000     -2.008065
      8.00634      6.18092      1.51374         1.553749      0.000000     -1.744275
      8.59001      6.18092      4.59828         1.100399      0.000000      1.182076
     10.91773      1.39171      2.02783         2.386932      0.000000     -0.978186
     11.44243      1.39171      4.71057         0.919918      0.000000      2.632378
      2.06069      6.18092      0.66771         0.434693      0.000000     -3.675757
      2.76722      6.18092      3.57010         1.584650      0.000000     -0.061106
      1.22318      6.18092      5.89627        -0.653496      0.000000      3.202079
      4.99144      1.39171      1.11120         1.694759      0.000000     -2.971498
      5.67861      1.39171      4.08419         0.991113      0.000000      0.707870
     13.82913      6.18092      2.54192         0.129617      0.000000     -1.375581
     14.10865      6.18092      5.34702         2.305423      0.000000      3.063942
     14.08124      2.81803      0.85944         0.366507      0.039585     -3.649637
     13.99844      3.00295      3.57488        -1.731660      0.893617      0.797378
      5.26426      7.79215      2.03261        -1.498937      1.090375     -0.190956
      5.89023      7.62788      4.90461        -1.084733      0.495782      1.945282
      8.17565      3.00295      2.54670        -1.471731      1.253221     -0.029723
      8.88182      2.76055      5.38427         0.166807      0.205875      2.896667
     16.75363      7.91716      3.72103        -0.183231     -0.495719      1.949364
     16.48416      7.56607      1.03516        -0.509099      0.595424     -3.100461
      2.34483      3.06716      1.73767        -0.633431      0.620413     -1.473487
      2.90380      2.93339      4.38478        -0.630970      0.341551      1.631774
     11.08705      7.79215      3.06079        -0.458387      0.969895     -1.066164
     11.70371      7.61382      5.77352        -0.217161      1.589695      3.605499
      5.26426      4.56969      2.03261        -1.498937     -1.090375     -0.190956
      5.89023      4.73396      4.90461        -1.084733     -0.495782      1.945282
     14.08124      9.54380      0.85944         0.366507     -0.039585     -3.649637
     13.99844      9.35889      3.57488        -1.731660     -0.893617      0.797378
     16.75363      4.44467      3.72103        -0.183231      0.495719      1.949364
     16.48416      4.79577      1.03516        -0.509099     -0.595424     -3.100461
      8.17565      9.35889      2.54670        -1.471731     -1.253221     -0.029723
      8.88182      0.02288      5.38427         0.166807     -0.205875      2.896667
     11.08705      4.56969      3.06079        -0.458387     -0.969895     -1.066164
     11.70371      4.74802      5.77352        -0.217161     -1.589695      3.605499
      2.34483      9.29468      1.73767        -0.633431     -0.620413     -1.473487
      2.90380      9.42845      4.38478        -0.630970     -0.341551      1.631774
    total drift:                                0.104956     -0.011864      0.007252

  FREE ENERGIE OF THE ION-ELECTRON SYSTEM (eV)
  free  energy   TOTEN  =      -349.68901586 eV

  energy  without entropy=     -348.40858523  energy(sigma->0) =     -349.04880055