 vasp.5.4.4.18Apr17-6-g9f103f2a35 (build Aug 13 2019 17:33:20) gamma-only

 executed on             LinuxIFC date 2020.05.11  09:06:52

 INCAR:
 POTCAR:    PAW_PBE Ni_pv 06Sep2000
 POTCAR:    PAW_PBE S 06Sep2000
 POTCAR:    PAW_PBE Ni_pv 06Sep2000
   VRHFIN =Ni:

   TITEL  = PAW_PBE Ni_pv 06Sep2000
   POMASS =   58.690; ZVAL   =   16.000    mass and valenz
   ENMAX  =  367.986; ENMIN  =  275.989 eV

 POTCAR:    PAW_PBE S 06Sep2000
   VRHFIN =S : s2p4

   TITEL  = PAW_PBE S 06Sep2000
   POMASS =   32.066; ZVAL   =    6.000    mass and valenz
   ENMAX  =  258.689; ENMIN  =  194.016 eV

 Optimization of the real space projectors (new method)

 maximal supplied QI-value         = 18.90
 optimisation between [QCUT,QGAM] = [ 10.77, 21.73] = [ 32.49,132.25] Ry
 Optimized for a Real-space Cutoff    1.38 Angstroem

   l    n(q)    QCUT    max X(q) W(low)/X(q) W(high)/X(q)  e(spline)
   1      8    10.771     2.836    0.40E-04    0.29E-04    0.12E-06
   1      8    10.771     4.023    0.10E-03    0.48E-04    0.29E-06
   2      8    10.771    73.368    0.42E-03    0.97E-04    0.44E-06
   2      8    10.771    69.010    0.42E-03    0.99E-04    0.45E-06
   0      9    10.771    54.797    0.10E-03    0.56E-04    0.74E-07
   0      9    10.771    24.266    0.89E-04    0.49E-04    0.67E-07
 Optimization of the real space projectors (new method)

 maximal supplied QI-value         = 19.84
 optimisation between [QCUT,QGAM] = [ 10.71, 21.63] = [ 32.15,130.99] Ry
 Optimized for a Real-space Cutoff    1.19 Angstroem

   l    n(q)    QCUT    max X(q) W(low)/X(q) W(high)/X(q)  e(spline)
   0      8    10.715   187.594    0.41E-03    0.53E-04    0.66E-07
   0      8    10.715   164.243    0.41E-03    0.53E-04    0.65E-07
   1      7    10.715    67.533    0.19E-03    0.59E-03    0.68E-07
   1      7    10.715    50.729    0.19E-03    0.58E-03    0.67E-07
  PAW_PBE Ni_pv 06Sep2000               :
  PAW_PBE S 06Sep2000                   :

 POSCAR: Type_048 Type_148
  positions in cartesian coordinates
 exchange correlation table for  LEXCH =        8
   RHO(1)=    0.500       N(1)  =     2000
   RHO(2)=  100.500       N(2)  =     4000

 ion  position               nearest neighbor table
   1  0.261  0.479  0.295-  73 2.25  58 2.26  80 2.26  59 2.36  54 2.36   6 2.53  19 2.53
   2  0.355  0.385  0.426-  60 2.04  65 2.15  74 2.25  54 2.26  59 2.26   7 2.53  20 2.53
   3  0.043  0.227  0.094-  63 1.97  64 2.07  55 2.09   4 2.31  11 2.39  81 2.48
   4  0.167  0.073  0.165-  81 2.10  64 2.25  55 2.26   3 2.31  56 2.36  82 2.36  34 2.53  28 2.53

   5  0.274  0.333  0.130-  51 1.98  55 2.25  57 2.26  52 2.36  58 2.36  10 2.53  26 2.53
   6  0.368  0.239  0.261-  56 2.25  58 2.26  52 2.26  59 2.36  61 2.36   1 2.53  19 2.53
   7  0.462  0.145  0.391-  60 2.02  62 2.18  78 2.25  59 2.26  61 2.26   2 2.53  20 2.53
   8  0.000  0.372  0.261-  58 2.25  64 2.26  92 2.26  49 2.36  66 2.36  17 2.53  12 2.53
   9  0.094  0.278  0.391-  53 2.04  50 2.13  59 2.25  49 2.26  66 2.26  13 2.53  18 2.53
  10  0.406  0.465  0.130-  51 1.98  69 2.25  79 2.26  52 2.36  80 2.36  26 2.53   5 2.53
  11  0.204  0.023  0.051-  75 1.99  81 2.05  55 2.06   3 2.39
  12  0.761  0.479  0.295-  85 2.25  70 2.26  92 2.26  71 2.36  66 2.36  17 2.53   8 2.53
  13  0.855  0.385  0.426-  53 2.08  72 2.09  86 2.25  66 2.26  71 2.26  18 2.53   9 2.53
  14  0.667  0.073  0.165-  93 2.06  67 2.07  52 2.25  68 2.36  94 2.36  47 2.53  41 2.53
  15  0.717  0.523  0.046-  63 2.00  91 2.05  69 2.05  38 2.43
  16  0.774  0.333  0.130-  67 2.09  63 2.26  69 2.26  64 2.36  70 2.36  22 2.53  39 2.53
  17  0.868  0.239  0.261-  68 2.25  70 2.26  64 2.26  71 2.36  49 2.36  12 2.53   8 2.53
  18  0.962  0.145  0.391-  72 2.05  50 2.16  90 2.25  71 2.26  49 2.26  13 2.53   9 2.53
  19  0.500  0.372  0.261-  70 2.25  52 2.26  80 2.26  61 2.36  54 2.36   6 2.53   1 2.53
  20  0.594  0.278  0.391-  65 2.10  71 2.25  62 2.25  61 2.26  54 2.26  21 2.40   2 2.53   7 2.53

[...]

  27  0.023  0.520  0.480-  53 2.00  96 2.09  74 2.14  43 2.37  37 2.46
  28  0.274  0.833  0.130-  75 2.17  79 2.18  81 2.24  76 2.36  82 2.36  34 2.53   4 2.53
  29  0.368  0.739  0.261-  80 2.25  82 2.26  76 2.26  83 2.36  85 2.36  23 2.53  44 2.53
  30  0.462  0.645  0.391-  84 2.17  54 2.25  83 2.26  85 2.26  40 2.33  86 2.36  33 2.45  24 2.53
                            45 2.53
  31  0.000  0.872  0.261-  82 2.25  88 2.26  68 2.26  73 2.36  90 2.36  42 2.53  35 2.53
  32  0.094  0.778  0.391-  77 2.08  83 2.25  73 2.26  90 2.26  74 2.36  33 2.37  37 2.48  36 2.53
                            43 2.53
  33  0.277  0.677  0.457-  84 2.03  74 2.09  77 2.09  32 2.37  30 2.45
  34  0.406  0.965  0.130-  93 2.10  75 2.12  55 2.26  76 2.36  56 2.36   4 2.53  28 2.53
  35  0.761  0.979  0.295-  61 2.25  94 2.26  68 2.26  95 2.36  90 2.36  42 2.53  31 2.53
  36  0.855  0.885  0.426-  62 2.17  90 2.26  95 2.26  96 2.36  37 2.47  43 2.53  32 2.53
  37  0.033  0.733  0.492-  77 2.04  96 2.07  74 2.08  27 2.46  36 2.47  32 2.48
  38  0.522  0.699  0.092-  75 2.00  76 2.11  69 2.13  39 2.31  91 2.39  15 2.43
  39  0.667  0.573  0.165-  76 2.25  91 2.26  69 2.26  38 2.31  92 2.36  70 2.36  22 2.53  16 2.53

[...]

  46  0.673  0.721  0.492-  89 2.03  86 2.03  96 2.08  45 2.41
  47  0.906  0.965  0.130-  87 2.06  67 2.10  81 2.13  88 2.36  68 2.36  14 2.53  41 2.53
  48  0.917  0.573  0.042-  91 2.06  57 2.08  22 2.35  63 2.64
  49  0.073  0.167  0.311-  23 2.25   9 2.26  18 2.26   8 2.36  17 2.36  50 2.61
  50  0.168  0.074  0.416-   9 2.13  18 2.16  24 2.23  49 2.61
  51  0.363  0.378  0.064-  10 1.98   5 1.98
  52  0.479  0.261  0.181-  14 2.25   6 2.26  19 2.26  10 2.36   5 2.36
  53  0.026  0.342  0.475-  27 2.00   9 2.04  13 2.08  72 2.64
  54  0.436  0.472  0.355-  30 2.25   2 2.26  20 2.26   1 2.36  19 2.36
  55  0.248  0.160  0.094-  11 2.06   3 2.09   5 2.25   4 2.26  34 2.26
  56  0.342  0.066  0.225-   6 2.25  23 2.26  44 2.26   4 2.36  34 2.36
  57  0.076  0.497  0.101-  48 2.08  26 2.15  25 2.18  22 2.20   5 2.26
  58  0.174  0.397  0.225-   8 2.25   1 2.26   6 2.26   5 2.36  26 2.36
  59  0.268  0.303  0.355-   9 2.25   7 2.26   2 2.26   6 2.36   1 2.36  60 2.61
  60  0.348  0.223  0.463-   7 2.02   2 2.04  59 2.61  65 2.75
  61  0.573  0.167  0.311-  35 2.25  20 2.26   7 2.26  19 2.36   6 2.36  62 2.72
  62  0.668  0.065  0.420-  21 2.03  36 2.17   7 2.18  20 2.25  61 2.72
  63  0.885  0.355  0.051-   3 1.97  15 2.00  16 2.26  22 2.26  48 2.64
  64  0.979  0.261  0.181-   3 2.07   4 2.25  17 2.26   8 2.26  22 2.36  16 2.36
  65  0.530  0.321  0.479-  40 2.03  21 2.08  20 2.10   2 2.15  60 2.75
  66  0.936  0.472  0.355-  43 2.25  13 2.26   9 2.26  12 2.36   8 2.36
  67  0.759  0.158  0.113-  14 2.07  16 2.09  47 2.10  68 2.73
  68  0.842  0.066  0.225-  17 2.25  35 2.26  31 2.26  14 2.36  47 2.36  67 2.73
  69  0.580  0.491  0.094-  15 2.05  38 2.13  10 2.25  16 2.26  39 2.26
  70  0.674  0.397  0.225-  19 2.25  12 2.26  17 2.26  16 2.36  39 2.36
  71  0.768  0.303  0.355-  20 2.25  18 2.26  13 2.26  17 2.36  12 2.36
  72  0.877  0.216  0.472-  21 2.00  18 2.05  13 2.09  53 2.64
  73  0.073  0.667  0.311-   1 2.25  32 2.26  43 2.26  31 2.36  42 2.36
  74  0.167  0.573  0.442-  37 2.08  33 2.09  27 2.14   2 2.25  32 2.36  43 2.36
  75  0.380  0.864  0.056-  11 1.99  38 2.00  34 2.12  28 2.17
  76  0.479  0.761  0.181-  38 2.11  39 2.25  29 2.26  44 2.26  34 2.36  28 2.36
  77  0.111  0.860  0.472-  37 2.04  32 2.08  33 2.09
  78  0.436  0.972  0.355-   7 2.25  24 2.26  45 2.26  23 2.36  44 2.36  89 2.67
  79  0.239  0.665  0.106-  26 2.06  28 2.18  10 2.26  25 2.30
  80  0.342  0.566  0.225-  29 2.25   1 2.26  19 2.26  26 2.36  10 2.36
  81  0.074  0.995  0.106-  11 2.05   4 2.10  47 2.13  28 2.24   3 2.48
  82  0.174  0.897  0.225-  31 2.25  23 2.26  29 2.26  28 2.36   4 2.36
  83  0.268  0.803  0.355-  32 2.25  30 2.26  24 2.26  29 2.36  23 2.36
  84  0.432  0.712  0.483-  33 2.03  40 2.16  24 2.16  30 2.17  86 2.57  89 2.67
  85  0.573  0.667  0.311-  12 2.25  45 2.26  30 2.26  44 2.36  29 2.36
  86  0.667  0.573  0.442-  46 2.03  40 2.12  13 2.25  45 2.36  30 2.36  84 2.57
  87  0.865  0.874  0.060-  25 2.03  41 2.05  47 2.06
  88  0.979  0.761  0.181-  25 2.12  26 2.25  42 2.26  31 2.26  47 2.36  41 2.36
  89  0.519  0.894  0.466-  46 2.03  45 2.07  24 2.11  84 2.67  78 2.67
  90  0.936  0.972  0.355-  18 2.25  36 2.26  32 2.26  35 2.36  31 2.36
  91  0.748  0.660  0.094-  15 2.05  48 2.06  41 2.25  39 2.26  22 2.26  38 2.39
  92  0.842  0.566  0.225-  42 2.25  12 2.26   8 2.26  39 2.36  22 2.36
  93  0.582  0.981  0.113-  14 2.06  41 2.09  34 2.10  94 2.74
  94  0.674  0.897  0.225-  44 2.25  35 2.26  42 2.26  41 2.36  14 2.36  93 2.74
  95  0.768  0.803  0.355-  45 2.25  43 2.26  36 2.26  42 2.36  35 2.36
  96  0.862  0.709  0.486-  37 2.07  46 2.08  27 2.09  43 2.36  36 2.36

  LATTYP: Found a base centered orthorhombic cell.
 ALAT       =    11.8257374459
 B/A-ratio  =     1.6199260857
 C/A-ratio  =     1.9043172636

  Lattice vectors:

 A1 = (  11.2564630382,   0.0000000000,   0.0000000000)
 A2 = (  -5.0445621212, -10.0628203371,   0.0000000000)
 A3 = (   0.0000000000,   0.0000000000, -22.5199559732)

Analysis of symmetry for initial positions (statically):
 Subroutine PRICEL returns:
 Original cell was already a primitive cell.

 Routine SETGRP: Setting up the symmetry group for a
 base centered orthorhombic supercell.

 Subroutine GETGRP returns: Found  1 space group operations
 (whereof  1 operations were pure point group operations)
 out of a pool of  8 trial point group operations.

The static configuration has the point symmetry C_1 .

Analysis of symmetry for dynamics (positions and initial velocities):
 Subroutine PRICEL returns:
 Original cell was already a primitive cell.

 Routine SETGRP: Setting up the symmetry group for a
 base centered orthorhombic supercell.

 Subroutine GETGRP returns: Found  1 space group operations
 (whereof  1 operations were pure point group operations)
 out of a pool of  8 trial point group operations.

The dynamic configuration has the point symmetry C_1 .

 Subroutine INISYM returns: Found  1 space group operations
 (whereof  1 operations are pure point group operations),
 and found     1 'primitive' translations

 KPOINTS: gamma-point-only calculation. no periodi

Automatic generation of k-mesh.
Space group operators:
 irot       det(A)        alpha          n_x          n_y          n_z        tau_x        tau_y        tau_z
    1     1.000000     0.000000     1.000000     0.000000     0.000000     0.000000     0.000000     0.000000

 Subroutine IBZKPT returns following result:

 Found      1 irreducible k-points:

 Following reciprocal coordinates:
            Coordinates               Weight
  0.000000  0.000000  0.000000      1.000000

 Following cartesian coordinates:
            Coordinates               Weight
  0.000000  0.000000  0.000000      1.000000

 SYSTEM =  "Millerite NiS"
 POSCAR =  Type_048 Type_148

 Startparameter for this run:
   NWRITE =      2    write-flag & timer
   PREC   = normal    normal or accurate (medium, high low for compatibility)
   ISTART =      0    job   : 0-new  1-cont  2-samecut
[...]
     0.000000000  0.000000000 22.519955973     0.000000000  0.000000000  0.044405060

  length of vectors
    11.256463038 11.256463038 22.519955973     0.099375718  0.099375718  0.044405060

 FORCES acting on ions
    electron-ion (+dipol)            ewald-force                    non-local-force                 convergence-correction
   0.245E+03 -.266E+03 -.686E+03   -.245E+03 0.267E+03 0.684E+03   0.734E+00 -.136E+01 0.662E+00   0.122E+00 -.174E-01 0.502E+00
   0.460E+03 0.254E+02 -.437E+04   -.462E+03 -.234E+02 0.437E+04   0.263E+01 -.207E+00 -.145E+01   0.166E+00 -.184E+00 0.159E-01
   0.276E+02 -.162E+02 0.509E+04   -.251E+02 0.152E+02 -.509E+04   -.267E+01 0.590E+00 0.497E+01   0.726E-01 -.494E-01 0.170E+00
   0.643E+02 -.185E+03 0.217E+04   -.631E+02 0.185E+03 -.216E+04   -.669E+00 0.226E-01 -.341E+01   -.196E-01 0.471E-01 0.550E+00
   -.141E+03 0.568E+03 0.409E+04   0.140E+03 -.570E+03 -.409E+04   -.679E-02 0.202E+01 0.264E+01   0.216E+00 0.157E-01 0.303E+00
   0.187E+03 0.500E+03 0.425E+03   -.187E+03 -.500E+03 -.427E+03   0.589E+00 0.445E+00 0.148E+01   0.215E+00 0.928E-01 0.628E+00
   0.373E+03 0.567E+03 -.331E+04   -.375E+03 -.571E+03 0.331E+04   0.207E+01 0.347E+01 -.251E+01   0.150E+00 0.881E-01 0.276E+00
   -.548E+03 0.380E+02 0.228E+03   0.549E+03 -.372E+02 -.230E+03   -.108E+01 -.866E+00 0.805E+00   -.279E-01 0.333E-01 0.640E+00
   -.568E+03 0.276E+03 -.328E+04   0.572E+03 -.276E+03 0.328E+04   -.378E+01 -.633E+00 -.132E+01   0.856E-01 -.125E+00 0.281E+00
   -.454E+03 0.243E+03 0.415E+04   0.457E+03 -.242E+03 -.415E+04   -.132E+01 0.627E-01 0.302E+01   -.120E+00 -.835E-01 0.346E+00
   0.577E+02 0.538E+02 0.639E+04   -.602E+02 -.524E+02 -.640E+04   0.160E+01 -.876E+00 0.474E+01   0.566E-01 -.257E-01 -.164E+00
   0.244E+03 -.344E+03 -.804E+03   -.244E+03 0.345E+03 0.803E+03   0.833E+00 -.105E+01 0.345E+00   -.834E-01 -.584E-01 0.532E+00
   0.153E+03 -.177E+03 -.436E+04   -.156E+03 0.182E+03 0.436E+04   0.198E+01 -.322E+01 -.292E+01   -.143E+00 -.797E-01 0.814E-01
   0.355E+03 -.596E+03 0.306E+04   -.357E+03 0.599E+03 -.306E+04   0.214E+01 -.332E+01 0.260E+01   -.573E-01 0.103E+00 0.530E+00
   0.585E+03 0.112E+03 0.635E+04   -.587E+03 -.111E+03 -.635E+04   0.200E+01 -.394E+00 0.507E+01   -.131E+00 0.801E-02 -.251E+00
   0.800E+03 0.718E+03 0.382E+04   -.803E+03 -.720E+03 -.382E+04   0.370E+01 0.282E+01 -.649E+00   -.261E+00 -.236E+00 0.476E+00
   0.311E+03 0.499E+03 0.302E+03   -.313E+03 -.500E+03 -.302E+03   0.133E+01 0.186E+00 -.257E+00   -.156E+00 -.191E-01 0.655E+00
   0.276E+02 0.530E+03 -.328E+04   -.294E+02 -.535E+03 0.328E+04   0.189E+01 0.399E+01 -.191E+01   -.850E-01 -.897E-01 0.265E+00
   -.469E+03 0.956E+02 0.511E+03   0.470E+03 -.949E+02 -.513E+03   -.784E+00 -.605E+00 0.106E+01   -.401E-01 -.464E-01 0.642E+00
   -.317E+03 0.130E+03 -.279E+04   0.321E+03 -.128E+03 0.278E+04   -.356E+01 -.157E+01 0.189E+01   -.175E+00 -.477E-01 0.177E+00
   -.138E+03 0.403E+03 -.579E+04   0.141E+03 -.402E+03 0.579E+04   -.361E+01 -.168E+01 0.158E+01   -.133E+00 0.118E-01 -.157E+00
   -.482E+03 0.376E+02 0.326E+04   0.484E+03 -.372E+02 -.325E+04   -.268E+01 -.888E+00 -.212E+01   0.182E+00 -.513E-02 0.496E+00
   0.193E+03 -.475E+03 -.859E+03   -.193E+03 0.475E+03 0.857E+03   0.348E+00 -.956E+00 0.165E+01   0.398E-01 -.116E+00 0.575E+00
   0.196E+03 -.966E+03 -.451E+04   -.197E+03 0.970E+03 0.451E+04   0.396E+00 -.302E+01 -.902E+00   0.307E-01 0.238E-01 0.212E+00
   -.486E+03 -.178E+03 0.531E+04   0.486E+03 0.178E+03 -.531E+04   -.255E+00 -.103E+01 0.802E+01   0.171E+00 0.693E-02 0.167E+00
   -.889E+02 -.610E+02 0.253E+04   0.894E+02 0.603E+02 -.253E+04   -.495E+00 0.347E-01 -.255E+01   0.138E+00 -.287E-02 0.557E+00
   0.897E+02 0.775E+03 -.570E+04   -.925E+02 -.779E+03 0.570E+04   0.329E+01 0.466E+01 -.823E-01   0.496E-01 -.101E+00 -.468E-01
   0.496E+03 0.545E+03 0.380E+04   -.500E+03 -.548E+03 -.380E+04   0.377E+01 0.310E+01 0.687E+00   -.109E+00 -.189E+00 0.411E+00
   0.250E+03 0.422E+03 0.368E+03   -.251E+03 -.422E+03 -.369E+03   0.141E+01 0.594E+00 0.122E+00   -.324E-01 -.270E+00 0.595E+00
   -.551E+02 0.212E+03 -.256E+04   0.539E+02 -.214E+03 0.256E+04   0.159E+01 0.185E+01 0.361E+01   -.321E-01 -.569E-01 0.226E+00
   -.489E+03 -.102E+03 0.357E+03   0.490E+03 0.102E+03 -.357E+03   -.128E+01 -.604E+00 -.478E+00   -.147E+00 -.292E-01 0.626E+00
   -.337E+03 -.391E+03 -.257E+04   0.336E+03 0.393E+03 0.256E+04   0.544E+00 -.229E+01 0.277E+01   -.128E-01 0.786E-01 0.127E+00
   -.734E+02 0.284E+01 -.525E+04   0.746E+02 -.273E+01 0.526E+04   -.152E+01 -.974E+00 -.272E+01   0.785E-01 0.449E-02 -.722E-01
   -.878E+03 -.370E+03 0.386E+04   0.882E+03 0.372E+03 -.386E+04   -.468E+01 -.186E+01 0.726E-01   0.246E+00 0.771E-01 0.364E+00
   0.287E+03 -.462E+03 -.728E+03   -.287E+03 0.462E+03 0.727E+03   0.394E+00 -.768E+00 0.346E+00   0.451E-01 0.204E-01 0.532E+00
   0.357E+03 -.751E+03 -.428E+04   -.357E+03 0.750E+03 0.428E+04   -.474E+00 0.734E+00 0.552E+00   -.896E-02 0.157E+00 -.420E-01
   -.851E+02 -.369E+03 -.631E+04   0.846E+02 0.373E+03 0.632E+04   0.614E+00 -.424E+01 -.339E+01   0.127E+00 0.213E+00 -.165E+00
   0.308E+03 -.216E+03 0.516E+04   -.308E+03 0.214E+03 -.517E+04   0.556E+00 0.209E+01 0.507E+01   -.140E+00 0.932E-01 0.140E+00
   0.272E+03 -.194E+03 0.215E+04   -.272E+03 0.193E+03 -.214E+04   0.104E+00 0.886E+00 -.352E+01   -.160E+00 0.731E-01 0.758E+00
   -.211E+03 0.366E+03 -.566E+04   0.210E+03 -.370E+03 0.567E+04   -.477E-01 0.470E+01 -.140E+01   -.100E+00 -.627E-01 -.115E+00
   0.447E+03 -.159E+03 0.391E+04   -.450E+03 0.159E+03 -.391E+04   0.288E+01 -.106E+01 0.290E+01   -.158E-02 0.216E+00 0.431E+00
   0.268E+03 0.363E+03 0.322E+03   -.270E+03 -.364E+03 -.322E+03   0.138E+01 0.874E+00 -.425E+00   0.108E+00 0.147E+00 0.624E+00
   0.377E+03 0.365E+03 -.259E+04   -.379E+03 -.366E+03 0.258E+04   0.234E+01 0.150E+01 0.241E+01   0.789E-01 0.212E+00 -.102E-02
   -.550E+03 -.139E+03 0.315E+03   0.551E+03 0.140E+03 -.315E+03   -.110E+01 -.113E+01 -.722E-01   0.212E+00 -.906E-01 0.595E+00
   -.478E+03 -.229E+03 -.282E+04   0.482E+03 0.229E+03 0.281E+04   -.376E+01 -.552E-01 0.172E+01   -.427E-01 0.969E-01 0.205E+00
   -.972E+02 -.150E+03 -.596E+04   0.989E+02 0.151E+03 0.596E+04   -.979E+00 -.126E+01 0.110E+01   -.142E+00 0.124E+00 -.896E-01
   -.270E+03 -.374E+03 0.407E+04   0.272E+03 0.376E+03 -.407E+04   -.821E+00 -.239E+01 0.322E+01   -.627E-01 0.489E-01 0.430E+00
   -.470E+03 -.192E+03 0.629E+04   0.471E+03 0.193E+03 -.629E+04   -.557E+00 -.869E+00 -.242E+01   0.201E+00 0.897E-01 -.271E+00
   -.854E+02 0.123E+03 -.318E+03   0.863E+02 -.124E+03 0.316E+03   -.106E+01 0.164E+01 0.533E+00   -.876E-01 0.898E-01 0.197E+00
   -.104E+03 0.630E+02 -.169E+04   0.105E+03 -.634E+02 0.169E+04   -.147E+00 -.299E+00 -.723E+00   0.143E-01 -.182E-01 0.122E+00
   -.142E+03 0.186E+03 0.241E+04   0.143E+03 -.187E+03 -.241E+04   -.183E-01 -.187E-01 0.660E+00   0.192E-01 -.122E-01 -.175E-02
   -.950E+02 0.158E+03 0.113E+04   0.959E+02 -.159E+03 -.113E+04   -.912E+00 0.138E+01 0.171E+01   0.249E-01 -.470E-02 0.199E+00
   -.808E+02 0.306E+03 -.229E+04   0.833E+02 -.307E+03 0.230E+04   -.150E+01 0.914E+00 -.157E+01   -.111E-01 -.998E-01 0.567E-02
   -.482E+02 -.717E+02 -.669E+03   0.490E+02 0.740E+02 0.668E+03   -.693E+00 -.219E+01 0.128E+00   -.789E-02 -.608E-01 0.129E+00
   -.451E+03 -.192E+03 0.192E+04   0.454E+03 0.195E+03 -.192E+04   -.922E+00 -.100E+01 0.310E+01   0.126E+00 0.558E-01 0.643E-01
   -.128E+03 -.176E+03 0.460E+03   0.129E+03 0.179E+03 -.460E+03   -.100E+01 -.278E+01 0.595E+00   0.127E+00 0.421E-01 0.166E+00
   -.193E+03 0.192E+03 0.179E+04   0.192E+03 -.195E+03 -.180E+04   0.112E+01 0.164E+01 0.155E+01   0.142E+00 -.144E-01 0.841E-01
   0.110E+03 0.331E+02 0.461E+03   -.113E+03 -.329E+02 -.462E+03   0.285E+01 -.442E+00 0.989E+00   0.604E-01 0.297E-01 0.240E+00
   0.181E+03 0.688E+02 -.813E+03   -.185E+03 -.682E+02 0.812E+03   0.318E+01 -.299E+00 0.220E+00   0.112E+00 -.106E-01 0.151E+00
   0.263E+03 0.215E+03 -.224E+04   -.266E+03 -.216E+03 0.224E+04   0.940E+00 0.756E+00 -.108E+01   0.742E-01 -.223E-01 -.601E-01
[...]
   0.131E+03 -.116E+03 -.701E+03   -.133E+03 0.117E+03 0.700E+03   0.195E+01 -.161E+01 0.227E+00   -.425E-01 -.990E-01 0.180E+00
   -.925E+02 -.213E+03 -.242E+04   0.916E+02 0.214E+03 0.243E+04   0.452E+00 -.130E+01 -.515E+01   -.456E-02 0.287E-02 -.388E-01
   -.884E+02 0.100E+03 -.253E+03   0.895E+02 -.103E+03 0.251E+03   -.970E+00 0.211E+01 0.125E+01   -.202E-01 -.984E-02 0.182E+00
   -.154E+03 0.165E+03 -.165E+04   0.157E+03 -.168E+03 0.165E+04   -.231E+01 0.484E+00 -.167E+01   -.751E-01 0.974E-02 0.996E-04
   0.594E+02 -.292E+03 0.247E+04   -.600E+02 0.294E+03 -.248E+04   0.584E+00 -.183E+01 0.184E+01   -.773E-02 0.570E-01 -.679E-01
   -.732E+02 0.249E+02 0.812E+03   0.737E+02 -.263E+02 -.810E+03   -.773E+00 0.158E+01 -.477E+00   0.415E-01 0.133E-01 0.298E+00
   -.550E+02 -.477E+03 -.215E+04   0.576E+02 0.481E+03 0.215E+04   -.160E+01 -.237E+01 -.950E+00   -.137E-01 0.370E-01 -.286E-01
   -.890E+02 -.196E+03 -.794E+03   0.902E+02 0.199E+03 0.794E+03   -.117E+01 -.280E+01 -.175E+00   -.587E-01 -.371E-01 0.105E+00
   -.158E+02 -.425E+03 0.173E+04   0.172E+02 0.429E+03 -.173E+04   -.137E+01 -.203E+01 0.724E+00   0.171E-01 0.128E+00 0.640E-01
   -.705E+02 -.159E+03 0.403E+03   0.713E+02 0.161E+03 -.403E+03   -.104E+01 -.259E+01 0.661E-01   0.236E-01 0.327E-01 0.327E+00
   0.483E+02 -.232E+03 0.190E+04   -.490E+02 0.234E+03 -.191E+04   -.300E+00 -.152E+01 0.402E+01   0.241E-01 0.743E-01 0.982E-01
   0.166E+03 -.696E+02 0.480E+03   -.169E+03 0.696E+02 -.480E+03   0.269E+01 -.414E+00 0.482E+00   0.304E-01 0.435E-01 0.266E+00
   0.189E+03 -.512E+02 -.760E+03   -.192E+03 0.511E+02 0.760E+03   0.305E+01 -.250E+00 -.724E-01   0.173E-01 0.759E-01 0.999E-01
   0.233E+03 -.137E+03 -.219E+04   -.236E+03 0.137E+03 0.220E+04   0.147E+01 0.672E+00 -.269E+01   -.258E-01 0.104E+00 -.297E-01
   -.893E+01 0.157E+02 -.679E+02   0.188E-11 -.244E-11 0.123E-10   0.835E+01 -.156E+02 0.492E+02   0.387E+00 0.847E-01 0.189E+02

 POSITION                                       TOTAL-FORCE (eV/Angst)
      5.35228      4.81788      6.64784         0.143912     -0.147312     -0.010834
      5.93595      3.87238      9.58390         0.304988      1.599500     -1.298195
      1.62731      2.27974      2.10902        -0.129526     -0.461509     -0.683516
      2.24633      0.73197      3.71178         0.585241     -0.367107      2.425139
      4.76861      3.35453      2.93606        -1.108217     -0.639669      1.874999
      5.35228      2.40903      5.87212         0.072828      0.073270      0.011071
      5.93595      1.46353      8.80817         0.028230     -0.738895     -2.243038
      1.87746      3.73836      5.87212         0.043430      0.032981     -0.106555
      2.46113      2.79286      8.80817         0.275709     -0.057167     -2.314981
      6.92203      4.68386      2.93606         0.978776      1.122597      2.027694
      2.41772      0.23286      1.15662        -0.882950      0.508066     -1.746882
     10.98051      4.81788      6.64784         0.159046     -0.293988     -0.107353
     11.56418      3.87238      9.58390        -0.691245      1.128912     -1.688109
      7.87456      0.73197      3.71178        -0.205197      0.549810      2.075478
     10.70501      5.26505      1.02746        -0.196637      0.590437     -1.687774
     10.39684      3.35453      2.93606         0.133649      0.033831      0.825143
     10.98051      2.40903      5.87212        -0.207620      0.042644      0.070738
     11.56418      1.46353      8.80817         0.002797     -0.371874     -2.159313
      7.50570      3.73836      5.87212        -0.030163      0.020508     -0.104239
      8.08937      2.79286      8.80817         0.037527      0.363615     -2.130095
      9.01589      1.72080     10.73970        -0.486374     -0.765938      0.993252
     12.55026      4.68386      2.93606         0.010653     -0.497425      1.727892
      7.87456      9.84929      6.64784         0.159944     -0.264471     -0.066066
      8.45823      8.90379      9.58390        -0.551387      0.354083     -0.782931
      3.81413      7.12456      2.03832         0.628132     -0.566402     -0.840037
      4.76861      5.76338      3.71178         0.109855     -0.660812      2.409886
      2.88589      5.23579     10.81451         0.602898      0.462127      1.047992
      7.29089      8.38594      2.93606        -0.502032     -0.538459      1.065676
      7.87456      7.44044      5.87212        -0.148867     -0.002799     -0.064305
      8.45823      6.49494      8.80817         0.377033      0.210465     -1.779576
      4.39975      8.76977      5.87212         0.117933      0.201796     -0.046780
      4.98341      7.82427      8.80817        -0.302945      0.378999     -2.528868
      6.53454      6.81652     10.29582        -0.176430     -0.860545      0.745151
      9.44431      9.71527      2.93606         0.282708      0.192686      1.502822
     13.50279      9.84929      6.64784         0.155122     -0.335531     -0.138906
     14.08646      8.90379      9.58390        -0.439319      0.084103     -0.415999
      4.07434      7.37721     11.07165         0.240281      0.106440      1.650891
      9.39754      7.03518      2.06904         0.117655     -0.139722     -0.656359
     10.39684      5.76338      3.71178         0.433810     -0.662002      1.497370
      8.52979      5.02112     10.61296        -0.470135      0.696650      0.525218
     12.91912      8.38594      2.93606        -0.622175     -0.949013      1.555611
     13.50279      7.44044      5.87212        -0.276445      0.008040     -0.019020
     14.08646      6.49494      8.80817        -0.351026      0.436909     -1.260539
     10.02798      8.76977      5.87212         0.059053      0.075179      0.108216
     10.61165      7.82427      8.80817         0.002770     -0.226468     -2.378316
     11.20936      7.25156     11.07364         0.628529     -0.048838      1.434985
     15.07254      9.71527      2.93606         0.765841      0.067106      1.698653
     13.20906      5.76286      0.95539         0.253595      0.274762     -1.286809
      1.66190      1.67871      7.01153        -0.257668      0.428958     -1.105923
      2.26615      0.74504      9.37300         0.223815     -0.695167      1.714304
      5.98556      3.79947      1.43517         0.468572     -0.908382     -4.290652
      6.70646      2.62422      4.07548         0.012001     -0.029661      0.014221
      2.01588      3.44025     10.69406         0.952932     -0.194919      3.056719
      7.29013      4.74605      7.99931         0.109582      0.065399     -0.519958
      3.60051      1.60565      2.12720         2.435419      1.290311     -0.026662
      4.18418      0.66015      5.06325         0.004527      0.112857      0.241504
      3.36418      5.00166      2.27211        -0.393339     -1.221625     -0.846349
      3.96438      3.99884      5.06325        -0.317585     -0.213063      0.193098
      4.54805      3.05334      7.99931        -0.001620      0.298738     -0.515367
      5.04261      2.24887     10.43740        -1.705532     -0.782149      3.100298
[...]
      6.48666      9.03025      5.06325         0.201175     -0.093691      0.534295
      7.07033      8.08475      7.99931        -0.085751     -0.307561     -0.833548
      8.44955      7.16595     10.87034        -0.457211      0.346553      2.990470
      9.81241      6.71012      7.01153         0.122447     -0.071932     -0.303501
     10.39608      5.76462      9.94759         1.130657     -2.264961     -0.263791
     14.14673      8.79799      1.34203        -0.060276      0.339496     -4.001746
     14.85697      7.65563      4.07548        -0.201546      0.214863      1.428784
     10.35538      9.00071     10.49774         1.045331      2.373658      2.218573
     15.44064      9.77746      7.99931         0.067053     -0.228901      0.009033
     11.75102      6.63706      2.12720         0.061855      2.143657      0.433476
     12.33469      5.69156      5.06325        -0.139884      0.015521      0.044586
     11.49942      9.86899      2.53377        -0.987222      0.672020     -2.139176
     12.11489      9.03025      5.06325        -0.065992     -0.316918      0.628544
     12.69856      8.08475      7.99931         0.143668     -0.326903     -0.417387
     13.28223      7.13925     10.93537        -0.854368      0.426082      0.645177
    total drift:                               -0.188152      0.107865      0.120156

  FREE ENERGIE OF THE ION-ELECTRON SYSTEM (eV)
  free  energy   TOTEN  =      -470.74227616 eV

  energy  without entropy=     -469.48592883  energy(sigma->0) =     -470.11410249