 vasp.5.4.4.18Apr17-6-g9f103f2a35 (build Aug 13 2019 17:33:20) gamma-only

 executed on             LinuxIFC date 2020.05.12  06:12:06

 INCAR:
 POTCAR:    PAW_PBE Ni_pv 06Sep2000
 POTCAR:    PAW_PBE S 06Sep2000
 POTCAR:    PAW_PBE Ni_pv 06Sep2000
   VRHFIN =Ni:

   TITEL  = PAW_PBE Ni_pv 06Sep2000
   POMASS =   58.690; ZVAL   =   16.000    mass and valenz
   ENMAX  =  367.986; ENMIN  =  275.989 eV

 POTCAR:    PAW_PBE S 06Sep2000
   VRHFIN =S : s2p4

   TITEL  = PAW_PBE S 06Sep2000
   POMASS =   32.066; ZVAL   =    6.000    mass and valenz
   ENMAX  =  258.689; ENMIN  =  194.016 eV

 Optimization of the real space projectors (new method)

 maximal supplied QI-value         = 18.90
 optimisation between [QCUT,QGAM] = [ 10.77, 21.73] = [ 32.49,132.25] Ry
 Optimized for a Real-space Cutoff    1.38 Angstroem

   l    n(q)    QCUT    max X(q) W(low)/X(q) W(high)/X(q)  e(spline)
   1      8    10.771     2.836    0.40E-04    0.29E-04    0.12E-06
   1      8    10.771     4.023    0.10E-03    0.48E-04    0.29E-06
   2      8    10.771    73.368    0.42E-03    0.97E-04    0.44E-06
   2      8    10.771    69.010    0.42E-03    0.99E-04    0.45E-06
   0      9    10.771    54.797    0.10E-03    0.56E-04    0.74E-07
   0      9    10.771    24.266    0.89E-04    0.49E-04    0.67E-07
 Optimization of the real space projectors (new method)

 maximal supplied QI-value         = 19.84
 optimisation between [QCUT,QGAM] = [ 10.71, 21.63] = [ 32.15,130.99] Ry
 Optimized for a Real-space Cutoff    1.19 Angstroem

   l    n(q)    QCUT    max X(q) W(low)/X(q) W(high)/X(q)  e(spline)
   0      8    10.715   187.594    0.41E-03    0.53E-04    0.66E-07
   0      8    10.715   164.243    0.41E-03    0.53E-04    0.65E-07
   1      7    10.715    67.533    0.19E-03    0.59E-03    0.68E-07
   1      7    10.715    50.729    0.19E-03    0.58E-03    0.67E-07
  PAW_PBE Ni_pv 06Sep2000               :
  PAW_PBE S 06Sep2000                   :

 POSCAR: Type_038 Type_138
  positions in cartesian coordinates
 exchange correlation table for  LEXCH =        8
   RHO(1)=    0.500       N(1)  =     2000
   RHO(2)=  100.500       N(2)  =     4000

 ion  position               nearest neighbor table
   1  0.780  0.145  0.128-  66 2.01  51 2.01  43 2.25
   2  0.224  0.645  0.100-  45 2.03  46 2.21  64 2.23  53 2.23   3 2.34
   3  0.297  0.645  0.222-  54 2.13  65 2.13  46 2.25  53 2.26  64 2.26   2 2.34  29 2.53  16 2.53

   4  0.396  0.145  0.135-  47 2.02  48 2.16  70 2.23  55 2.23   5 2.31
   5  0.470  0.145  0.254-  56 2.09  71 2.09  48 2.25  55 2.26  70 2.26   4 2.31  32 2.53  19 2.53

   6  0.952  0.645  0.159-  58 2.07  69 2.07  49 2.25  57 2.36  68 2.36  33 2.53  20 2.53
   7  0.967  0.645  0.320-  68 2.04  57 2.04  50 2.05
   8  0.176  0.145  0.050-  47 2.02  75 2.05  59 2.05   9 2.45
   9  0.125  0.145  0.191-  75 2.15  59 2.15  40 2.25  10 2.34  60 2.36  76 2.36   8 2.45  35 2.53
                            22 2.53
  10  0.101  0.145  0.332-  39 2.01  60 2.18  76 2.18   9 2.34
  11  0.608  0.645  0.096-  61 2.07  72 2.07  41 2.25  62 2.36  73 2.36
  12  0.642  0.645  0.285-  63 2.02  74 2.02  42 2.25  62 2.26  73 2.26  38 2.53  25 2.53
  13  0.906  0.983  0.151-  67 2.06  66 2.07  58 2.10  40 2.21  14 2.49
  14  0.966  0.015  0.289-  39 2.05  40 2.11  57 2.11  67 2.13  13 2.49  27 2.50
  15  0.394  0.518  0.042-  64 1.99  41 2.01  28 2.44
  16  0.425  0.513  0.197-  65 2.13  55 2.25  41 2.26  64 2.26  42 2.36  17 2.45  29 2.53   3 2.53

[...]

  36  0.292  0.313  0.314-  65 2.04  48 2.04  60 2.05  35 2.53
  37  0.740  0.785  0.097-  61 2.07  62 2.07  66 2.08  49 2.13
  38  0.770  0.777  0.260-  63 2.02  50 2.10  67 2.14  62 2.26  49 2.26  12 2.53  25 2.53
  39  0.993  0.145  0.385-  10 2.01  14 2.05  27 2.05
  40  0.991  0.145  0.189-  14 2.11  27 2.11  26 2.21  13 2.21   9 2.25
  41  0.474  0.645  0.094-  15 2.01  28 2.01  11 2.25  29 2.26  16 2.26
  42  0.509  0.645  0.284-  30 2.05  17 2.05  12 2.25  29 2.36  16 2.36
  43  0.647  0.145  0.126-  31 2.21  18 2.21   1 2.25  32 2.26  19 2.26  44 2.69
  44  0.671  0.145  0.289-  19 2.03  32 2.03  43 2.69
  45  0.118  0.645  0.043-   2 2.03  33 2.05  20 2.05
  46  0.164  0.645  0.220-  21 2.05  34 2.05   2 2.21   3 2.25  33 2.36  20 2.36
  47  0.294  0.145  0.069-   8 2.02   4 2.02  35 2.14  22 2.14
  48  0.336  0.145  0.252-  36 2.04  23 2.04   4 2.16   5 2.25  35 2.36  22 2.36
  49  0.819  0.645  0.157-  24 2.13  37 2.13   6 2.25  38 2.26  25 2.26
  50  0.845  0.645  0.327-   7 2.05  25 2.10  38 2.10
  51  0.808  0.329  0.076-   1 2.01  26 2.07  24 2.08
  52  0.848  0.338  0.260-  26 2.06  27 2.13  25 2.14
  53  0.312  0.814  0.126-  28 1.99   2 2.23  22 2.25   3 2.26  29 2.26
  54  0.351  0.793  0.303-  23 2.04  30 2.05   3 2.13  29 2.13
  55  0.484  0.314  0.158-   4 2.23  16 2.25   5 2.26  32 2.26  31 2.31
  56  0.525  0.288  0.332-  17 2.00  32 2.08   5 2.09  71 2.74
  57  0.001  0.814  0.252-  34 2.03   7 2.04  14 2.11   6 2.36  33 2.36  58 2.72
  58  0.967  0.824  0.090-   6 2.07  33 2.08  13 2.10  57 2.72
  59  0.140  0.322  0.111-   8 2.05  20 2.13  35 2.14   9 2.15
  60  0.174  0.314  0.284-  36 2.05  21 2.09  10 2.18   9 2.36  35 2.36
  61  0.648  0.793  0.014-  18 2.02  37 2.07  11 2.07
  62  0.657  0.814  0.189-  37 2.07  18 2.13  19 2.25  38 2.26  12 2.26  11 2.36
  63  0.695  0.791  0.356-  12 2.02  38 2.02  74 2.79
  64  0.312  0.477  0.126-  15 1.99   2 2.23  35 2.25   3 2.26  16 2.26
  65  0.351  0.498  0.303-  36 2.04  17 2.05   3 2.13  16 2.13
  66  0.808  0.962  0.076-   1 2.01  13 2.07  37 2.08
  67  0.848  0.953  0.260-  13 2.06  14 2.13  38 2.14
  68  0.001  0.477  0.252-  21 2.03   7 2.04  27 2.11   6 2.36  20 2.36  69 2.72
  69  0.967  0.466  0.090-   6 2.07  20 2.08  26 2.10  68 2.72
  70  0.484  0.977  0.158-   4 2.23  29 2.25  19 2.26   5 2.26  18 2.31
  71  0.525  0.002  0.332-  30 2.00  19 2.08   5 2.09  56 2.74
  72  0.648  0.497  0.014-  31 2.02  24 2.07  11 2.07
  73  0.657  0.477  0.189-  24 2.07  31 2.13  32 2.25  25 2.26  12 2.26  11 2.36
  74  0.695  0.500  0.356-  12 2.02  25 2.02  63 2.79
  75  0.140  0.969  0.111-   8 2.05  33 2.13  22 2.14   9 2.15
  76  0.174  0.977  0.284-  23 2.05  34 2.09  10 2.18   9 2.36  22 2.36

  LATTYP: Found a simple orthorhombic cell.
 ALAT       =     9.5784100000
 B/A-ratio  =     1.7016870630
 C/A-ratio  =     1.7627867312

  Lattice vectors:

 A1 = (   0.0000000000,   9.5784100000,   0.0000000000)
 A2 = (   0.0000000000,   0.0000000000, -16.2994563815)
 A3 = ( -16.8846940542,   0.0000000000,   0.0000000000)

Analysis of symmetry for initial positions (statically):
 Subroutine PRICEL returns:
 Original cell was already a primitive cell.

 Routine SETGRP: Setting up the symmetry group for a
 simple orthorhombic supercell.

 Subroutine GETGRP returns: Found  2 space group operations
 (whereof  1 operations were pure point group operations)
 out of a pool of  8 trial point group operations.

The static configuration has the point symmetry C_1 .
 The point group associated with its full space group is C_1h.

Analysis of symmetry for dynamics (positions and initial velocities):
 Subroutine PRICEL returns:
 Original cell was already a primitive cell.

 Routine SETGRP: Setting up the symmetry group for a
 simple orthorhombic supercell.

 Subroutine GETGRP returns: Found  2 space group operations
 (whereof  1 operations were pure point group operations)
 out of a pool of  8 trial point group operations.

The dynamic configuration has the point symmetry C_1 .
 The point group associated with its full space group is C_1h.

 Subroutine INISYM returns: Found  2 space group operations
 (whereof  1 operations are pure point group operations),
 and found     1 'primitive' translations

 KPOINTS: gamma-point-only calculation. no periodi

Automatic generation of k-mesh.
Space group operators:
 irot       det(A)        alpha          n_x          n_y          n_z        tau_x        tau_y        tau_z
    1     1.000000     0.000000     1.000000     0.000000     0.000000     0.000000     0.000000     0.000000
    2    -1.000000   180.000000     0.000000     1.000000     0.000000     0.000000     0.290594     0.000000

 Subroutine IBZKPT returns following result:

 Found      1 irreducible k-points:

 Following reciprocal coordinates:
            Coordinates               Weight
  0.000000  0.000000  0.000000      1.000000

 Following cartesian coordinates:
            Coordinates               Weight
  0.000000  0.000000  0.000000      1.000000

 SYSTEM =  "Millerite NiS"
 POSCAR =  Type_038 Type_138

 Startparameter for this run:
   NWRITE =      2    write-flag & timer
   PREC   = normal    normal or accurate (medium, high low for compatibility)
   ISTART =      0    job   : 0-new  1-cont  2-samecut
   ICHARG =      2    charge: 1-file 2-atom 10-const
   ISPIN  =      1    spin polarized calculation?
   LNONCOLLINEAR =      F non collinear calculations
   LSORBIT =      F    spin-orbit coupling
   INIWAV =      1    electr: 0-lowe 1-rand  2-diag
   LASPH  =      F    aspherical Exc in radial PAW
   METAGGA=      F    non-selfconsistent MetaGGA calc.

 Electronic Relaxation 1
   ENCUT  =  450.0 eV  33.07 Ry    5.75 a.u.  29.20 16.57 28.19*2*pi/ulx,y,z
   ENINI  =  450.0     initial cutoff
   ENAUG  =  703.4 eV  augmentation charge cutoff
   NELM   =    100;   NELMIN=  2; NELMDL= -5     # of ELM steps
   EDIFF  = 0.1E-03   stopping-criterion for ELM
   LREAL  =      T    real-space projection
   NLSPLINE    = F    spline interpolate recip. space projectors
   LCOMPAT=      F    compatible to vasp.4.4
   GGA_COMPAT  = T    GGA compatible to vasp.4.4-vasp.4.6
   LMAXPAW     = -100 max onsite density
   LMAXMIX     =    2 max onsite mixed and CHGCAR
   VOSKOWN=      0    Vosko Wilk Nusair interpolation
   ROPT   =   -0.00050  -0.00050
 Ionic relaxation
   EDIFFG = 0.1E-02   stopping-criterion for IOM
   NSW    =      0    number of steps for IOM
   NBLOCK =      1;   KBLOCK =      1    inner block; outer block
   IBRION =     -1    ionic relax: 0-MD 1-quasi-New 2-CG
   NFREE  =      0    steps in history (QN), initial steepest desc. (CG)
   ISIF   =      2    stress and relaxation
   IWAVPR =     10    prediction:  0-non 1-charg 2-wave 3-comb
   ISYM   =      2    0-nonsym 1-usesym 2-fastsym
   LCORR  =      T    Harris-Foulkes like correction to forces

   POTIM  = 0.5000    time-step for ionic-motion
   TEIN   =    0.0    initial temperature
   TEBEG  =    0.0;   TEEND  =   0.0 temperature during run
   SMASS  =  -3.00    Nose mass-parameter (am)
   estimated Nose-frequenzy (Omega)   =  0.10E-29 period in steps =****** mass=  -0.652E-26a.u.
   SCALEE = 1.0000    scale energy and forces
   NPACO  =    256;   APACO  = 16.0  distance and # of slots for P.C.
   PSTRESS=    0.0 pullay stress

  Mass of Ions in am
   POMASS =  58.69 32.07
  Ionic Valenz
   ZVAL   =  16.00  6.00
  Atomic Wigner-Seitz radii
  virtual crystal weights
   VCA    =   1.00  1.00
   NELECT =     836.0000    total number of electrons
   NUPDOWN=      -1.0000    fix difference up-down

 DOS related values:
   EMIN   =  10.00;   EMAX   =-10.00  energy-range for DOS
   EFERMI =   0.00
[...]

  length of vectors
    16.884694054  9.578410000 16.299456382     0.059225237  0.104401461  0.061351739

 FORCES acting on ions
    electron-ion (+dipol)            ewald-force                    non-local-force                 convergence-correction
   0.414E+02 -.795E-03 0.150E+04   -.449E+02 0.214E-07 -.150E+04   0.278E+01 0.000E+00 0.384E+01   0.430E-02 -.224E-07 0.127E-01
   0.220E+03 -.859E-03 0.289E+04   -.220E+03 0.216E-06 -.289E+04   0.157E+01 0.000E+00 0.676E+01   -.270E-01 -.687E-07 0.133E-01
   0.482E+03 -.840E-03 -.118E+04   -.483E+03 -.339E-06 0.118E+04   0.137E+01 0.000E+00 -.261E+01   -.512E-02 -.887E-07 0.245E-01
   -.360E+03 -.876E-03 0.229E+04   0.364E+03 0.235E-05 -.229E+04   -.310E+01 0.000E+00 0.395E+01   0.129E-01 -.319E-07 0.217E-01
   0.165E+02 -.868E-03 -.177E+04   -.185E+02 0.795E-06 0.178E+04   0.189E+01 0.000E+00 -.472E+01   0.141E-01 -.612E-08 0.254E-01
   0.641E+03 -.713E-03 0.132E+04   -.645E+03 -.775E-08 -.132E+04   0.402E+01 0.000E+00 0.539E+01   -.106E-01 0.155E-06 0.106E-01
   0.389E+03 -.524E-03 -.335E+04   -.391E+03 0.165E-07 0.335E+04   0.225E+01 0.000E+00 0.593E+00   -.160E-01 0.133E-06 -.142E-01
   0.570E+03 -.887E-03 0.416E+04   -.575E+03 0.131E-06 -.416E+04   0.359E+01 0.000E+00 0.401E+01   -.133E-01 0.381E-07 0.732E-02
   0.771E+03 -.859E-03 0.415E+03   -.775E+03 0.826E-07 -.415E+03   0.310E+01 0.000E+00 0.149E+00   -.144E-01 -.210E-06 -.225E-03
   -.680E+02 -.107E-02 -.352E+04   0.673E+02 0.649E-07 0.352E+04   0.149E+01 0.000E+00 -.293E+01   -.110E-01 -.244E-06 -.479E-02
   0.326E+03 -.857E-03 0.229E+04   -.331E+03 -.980E-06 -.230E+04   0.430E+01 0.000E+00 0.480E+01   0.337E-01 -.245E-06 0.164E-01
   0.273E+03 -.815E-03 -.245E+04   -.279E+03 -.194E-06 0.245E+04   0.410E+01 0.000E+00 -.543E+01   0.154E-01 -.232E-06 0.877E-02
   0.527E+02 -.995E+02 0.161E+04   -.526E+02 0.975E+02 -.161E+04   0.332E+00 0.309E+01 0.381E+01   -.130E-01 -.836E-02 0.119E-01
   0.594E+03 0.289E+03 -.243E+04   -.595E+03 -.290E+03 0.244E+04   0.890E+00 0.316E+00 -.529E+01   -.275E-01 -.138E-01 -.922E-02
   -.193E+02 0.683E+03 0.388E+04   0.176E+02 -.678E+03 -.388E+04   0.182E+01 -.558E+01 -.189E+01   0.296E-02 -.909E-02 0.717E-02
   -.347E+03 0.435E+03 0.406E+02   0.349E+03 -.438E+03 -.416E+02   -.152E+01 0.319E+01 -.435E-01   0.136E-01 0.861E-04 0.425E-01
   -.279E+03 0.141E+03 -.369E+04   0.281E+03 -.143E+03 0.369E+04   -.248E+01 0.260E+01 0.221E+01   0.115E-01 0.526E-02 0.706E-02
   0.986E+02 -.522E+03 0.286E+04   -.101E+03 0.525E+03 -.286E+04   0.807E+00 -.159E+01 0.751E+01   0.231E-01 -.529E-02 0.130E-01
   -.630E+03 0.124E+03 -.120E+04   0.632E+03 -.127E+03 0.120E+04   -.207E+01 0.291E+01 -.461E+01   0.126E-01 -.939E-02 0.139E-01
   0.201E+03 0.532E+03 0.199E+04   -.202E+03 -.535E+03 -.199E+04   0.118E+01 0.239E+01 0.489E+01   -.197E-01 0.134E-01 0.135E-01
   -.116E+03 0.878E+02 -.291E+04   0.116E+03 -.892E+02 0.291E+04   -.488E+00 0.187E+01 0.201E+00   -.119E-01 0.148E-01 -.539E-02
   -.766E+02 0.561E+03 0.980E+03   0.771E+02 -.566E+03 -.981E+03   0.142E+00 0.422E+01 0.154E+01   -.413E-02 -.120E-01 0.244E-01
   -.286E+02 0.126E+03 -.333E+04   0.291E+02 -.130E+03 0.333E+04   -.459E+00 0.438E+01 0.223E+01   0.979E-02 -.883E-02 0.780E-02
   -.759E+03 0.359E+03 0.260E+04   0.765E+03 -.361E+03 -.261E+04   -.467E+01 0.243E+01 0.523E+01   0.950E-02 0.676E-02 0.177E-01
   -.372E+03 0.737E+03 -.184E+04   0.375E+03 -.742E+03 0.184E+04   -.192E+01 0.499E+01 -.347E+01   0.220E-02 0.108E-01 0.431E-02
   0.527E+02 0.995E+02 0.161E+04   -.526E+02 -.975E+02 -.161E+04   0.332E+00 -.309E+01 0.381E+01   -.130E-01 0.836E-02 0.119E-01
   0.594E+03 -.289E+03 -.243E+04   -.595E+03 0.290E+03 0.244E+04   0.890E+00 -.316E+00 -.529E+01   -.275E-01 0.138E-01 -.922E-02
   -.193E+02 -.683E+03 0.388E+04   0.176E+02 0.678E+03 -.388E+04   0.182E+01 0.558E+01 -.189E+01   0.296E-02 0.909E-02 0.717E-02
   -.347E+03 -.435E+03 0.406E+02   0.349E+03 0.438E+03 -.416E+02   -.152E+01 -.319E+01 -.435E-01   0.136E-01 -.861E-04 0.425E-01
   -.279E+03 -.141E+03 -.369E+04   0.281E+03 0.143E+03 0.369E+04   -.248E+01 -.260E+01 0.221E+01   0.115E-01 -.526E-02 0.706E-02
   0.986E+02 0.522E+03 0.286E+04   -.101E+03 -.525E+03 -.286E+04   0.807E+00 0.159E+01 0.751E+01   0.231E-01 0.529E-02 0.130E-01
   -.630E+03 -.124E+03 -.120E+04   0.632E+03 0.127E+03 0.120E+04   -.207E+01 -.291E+01 -.461E+01   0.126E-01 0.939E-02 0.139E-01
   0.201E+03 -.532E+03 0.199E+04   -.202E+03 0.535E+03 -.199E+04   0.118E+01 -.239E+01 0.489E+01   -.197E-01 -.134E-01 0.135E-01
   -.116E+03 -.878E+02 -.291E+04   0.116E+03 0.892E+02 0.291E+04   -.488E+00 -.187E+01 0.201E+00   -.119E-01 -.148E-01 -.539E-02
   -.766E+02 -.561E+03 0.980E+03   0.771E+02 0.566E+03 -.981E+03   0.142E+00 -.422E+01 0.154E+01   -.413E-02 0.120E-01 0.244E-01
   -.286E+02 -.126E+03 -.333E+04   0.291E+02 0.130E+03 0.333E+04   -.459E+00 -.438E+01 0.223E+01   0.979E-02 0.883E-02 0.780E-02
   -.759E+03 -.359E+03 0.260E+04   0.765E+03 0.361E+03 -.261E+04   -.467E+01 -.243E+01 0.523E+01   0.950E-02 -.676E-02 0.177E-01
   -.372E+03 -.737E+03 -.184E+04   0.375E+03 0.742E+03 0.184E+04   -.192E+01 -.499E+01 -.347E+01   0.220E-02 -.108E-01 0.431E-02
   0.273E+03 -.199E-04 -.173E+04   -.273E+03 0.165E-07 0.173E+04   -.239E-01 0.000E+00 -.645E+00   -.155E-01 -.472E-07 0.339E-03
   0.287E+02 -.221E-04 0.456E+03   -.274E+02 0.131E-07 -.459E+03   -.157E+00 0.000E+00 0.141E+01   -.103E-01 -.933E-07 0.105E-02
   -.310E+03 0.271E-04 0.954E+03   0.312E+03 -.205E-05 -.957E+03   0.656E+00 0.000E+00 0.195E+01   0.155E-01 -.256E-07 0.128E-01
   -.252E+03 -.295E-04 -.812E+03   0.254E+03 -.204E-06 0.813E+03   -.433E+00 0.000E+00 -.156E+01   0.429E-02 -.437E-07 0.832E-02
   -.184E+03 0.496E-04 0.805E+03   0.185E+03 0.675E-07 -.810E+03   0.134E+00 0.000E+00 0.337E+01   0.838E-02 0.795E-07 0.395E-02
   -.485E+03 0.639E-05 -.115E+04   0.489E+03 0.577E-07 0.115E+04   -.817E+00 0.000E+00 -.189E+01   0.428E-02 0.587E-07 0.572E-03
   0.144E+03 0.132E-04 0.170E+04   -.145E+03 0.943E-07 -.171E+04   0.267E+00 0.000E+00 0.167E+01   -.680E-02 -.546E-09 0.491E-02
   -.881E+02 0.213E-05 -.299E+03   0.881E+02 0.501E-07 0.303E+03   0.164E+01 0.000E+00 -.336E+01   -.740E-02 0.258E-07 0.413E-02
   -.206E+03 -.131E-04 0.154E+04   0.208E+03 0.545E-06 -.154E+04   -.551E+00 0.000E+00 0.197E+01   0.279E-02 0.797E-10 0.354E-02
   -.128E+03 -.789E-05 -.648E+03   0.128E+03 0.269E-06 0.654E+03   0.432E+00 0.000E+00 -.448E+01   0.221E-02 -.845E-08 0.918E-02
   -.288E+03 0.355E-04 0.478E+03   0.291E+03 -.169E-07 -.480E+03   -.804E+00 0.000E+00 0.968E+00   -.810E-03 0.189E-07 0.586E-02
   -.355E+02 0.109E-04 -.135E+04   0.372E+02 -.497E-08 0.136E+04   -.105E+01 0.000E+00 -.340E+01   -.402E-02 0.530E-08 -.555E-02
   -.113E+03 0.374E+02 0.129E+04   0.112E+03 -.389E+02 -.129E+04   0.630E+00 0.191E+01 0.204E+01   -.939E-03 0.143E-02 0.712E-02
   0.254E+03 0.159E+03 -.806E+03   -.257E+03 -.162E+03 0.807E+03   0.123E+01 0.161E+01 -.320E+00   -.215E-02 0.395E-02 -.944E-03
   0.157E+03 -.218E+03 0.748E+03   -.157E+03 0.220E+03 -.752E+03   -.107E+01 -.140E+01 0.305E+01   -.726E-02 0.315E-04 0.123E-01
   0.175E+03 0.470E+02 -.121E+04   -.176E+03 -.462E+02 0.121E+04   0.138E+00 -.227E+00 -.273E+01   0.599E-02 -.126E-02 0.535E-02
   -.180E+02 -.761E+01 0.578E+03   0.160E+02 0.944E+01 -.580E+03   0.142E+01 -.115E+01 0.117E+01   0.781E-02 0.204E-02 0.959E-02
   -.212E+03 0.669E+02 -.146E+04   0.213E+03 -.655E+02 0.146E+04   -.198E+00 -.106E+01 -.207E+01   0.106E-02 0.502E-02 0.253E-02
   0.190E+03 -.132E+03 -.483E+03   -.190E+03 0.133E+03 0.486E+03   -.354E+00 -.516E+00 -.163E+01   -.554E-02 -.436E-02 -.836E-03
   0.137E+03 -.142E+03 0.133E+04   -.138E+03 0.142E+03 -.134E+04   0.378E+00 0.709E+00 0.405E+01   -.445E-02 -.395E-02 0.641E-02
   0.268E+03 -.185E+03 0.103E+04   -.268E+03 0.186E+03 -.103E+04   -.319E+00 0.847E-01 0.146E+01   -.841E-02 0.111E-01 0.765E-02
   0.638E+02 -.125E+03 -.897E+03   -.639E+02 0.127E+03 0.899E+03   -.398E+00 -.230E+01 -.110E+01   0.257E-02 0.119E-01 -.146E-02
[...]
   -.387E+02 -.309E+03 -.158E+04   0.376E+02 0.313E+03 0.158E+04   0.431E+00 -.219E+01 -.556E+00   0.144E-02 -.426E-02 -.462E-02
   0.157E+03 0.218E+03 0.748E+03   -.157E+03 -.220E+03 -.752E+03   -.107E+01 0.140E+01 0.305E+01   -.726E-02 -.315E-04 0.123E-01
   0.175E+03 -.470E+02 -.121E+04   -.176E+03 0.462E+02 0.121E+04   0.138E+00 0.227E+00 -.273E+01   0.599E-02 0.126E-02 0.535E-02
   -.113E+03 -.374E+02 0.129E+04   0.112E+03 0.389E+02 -.129E+04   0.630E+00 -.191E+01 0.204E+01   -.939E-03 -.143E-02 0.712E-02
   0.254E+03 -.159E+03 -.806E+03   -.257E+03 0.162E+03 0.807E+03   0.123E+01 -.161E+01 -.320E+00   -.215E-02 -.395E-02 -.944E-03
   0.190E+03 0.132E+03 -.483E+03   -.190E+03 -.133E+03 0.486E+03   -.354E+00 0.516E+00 -.163E+01   -.554E-02 0.436E-02 -.836E-03
   0.137E+03 0.142E+03 0.133E+04   -.138E+03 -.142E+03 -.134E+04   0.378E+00 -.709E+00 0.405E+01   -.445E-02 0.395E-02 0.641E-02
   -.180E+02 0.761E+01 0.578E+03   0.160E+02 -.944E+01 -.580E+03   0.142E+01 0.115E+01 0.117E+01   0.781E-02 -.204E-02 0.959E-02
   -.212E+03 -.669E+02 -.146E+04   0.213E+03 0.655E+02 0.146E+04   -.198E+00 0.106E+01 -.207E+01   0.106E-02 -.502E-02 0.253E-02
   -.554E+02 0.122E+03 0.174E+04   0.556E+02 -.124E+03 -.175E+04   -.541E+00 0.290E+00 0.241E+01   0.753E-02 0.209E-02 0.514E-02
   -.185E+02 0.144E+03 -.143E+03   0.174E+02 -.145E+03 0.146E+03   -.127E+00 0.229E+00 -.109E+01   0.738E-02 0.417E-02 0.601E-02
   -.387E+02 0.309E+03 -.158E+04   0.376E+02 -.313E+03 0.158E+04   0.431E+00 0.219E+01 -.556E+00   0.144E-02 0.426E-02 -.462E-02
   0.268E+03 0.185E+03 0.103E+04   -.268E+03 -.186E+03 -.103E+04   -.319E+00 -.847E-01 0.146E+01   -.841E-02 -.111E-01 0.765E-02
   0.638E+02 0.125E+03 -.897E+03   -.639E+02 -.127E+03 0.899E+03   -.398E+00 0.230E+01 -.110E+01   0.257E-02 -.119E-01 -.146E-02
   -.122E+02 -.129E-01 -.444E+02   -.831E-12 0.398E-12 0.000E+00   0.122E+02 0.444E-15 0.438E+02   0.362E-02 -.463E-06 0.576E+00

 POSITION                                       TOTAL-FORCE (eV/Angst)
     13.17084      1.39171      2.08012        -0.762124      0.000000      1.487507
      3.78986      6.18092      1.63073         0.792534      0.000000      0.142833
      5.02033      6.18092      3.62239         0.098512      0.000000     -0.331368
      6.67936      1.39171      2.19651         0.613683      0.000000     -0.405360
      7.93172      1.39171      4.13648        -0.122294      0.000000     -0.731899
     16.08224      6.18092      2.59421        -0.404925      0.000000      1.562102
     16.32351      6.18092      5.21084         0.295749      0.000000      0.655238
      2.96785      1.39171      0.81515        -0.816753      0.000000     -1.940921
      2.10894      1.39171      3.10830        -0.744409      0.000000      0.280795
      1.70299      1.39171      5.41518         0.752883      0.000000      0.000757
     10.25945      6.18092      1.56603        -0.266993      0.000000      1.079353
     10.84312      6.18092      4.65057        -2.034523      0.000000     -2.095090
     15.29621      9.41939      2.45961         0.378884      1.049268     -0.513361
     16.30348      0.14036      4.71811        -0.472496     -0.977304      0.012999
      6.65663      4.96085      0.68620         0.044704     -0.453911     -1.170518
      7.17375      4.91558      3.21491         0.407214     -0.106654     -0.986432
      7.86371      4.48869      5.52279         0.103022      0.283979      1.077144
     10.19424      8.94469      1.52624        -1.153097      0.644383      0.040052
     10.08514      0.12638      3.72900        -0.341400     -0.412163     -1.213847
      1.35096      4.91558      2.18673         0.286791     -0.571562      1.597557
      1.90206      4.80628      4.84998         0.192789      0.459564      0.991865
      4.26235      0.12638      2.70082         0.670582     -0.798160      0.864842
      4.92512      9.36119      5.11897         0.064482      0.160234      0.766075
     12.49358      4.84459      1.58574         0.814740      0.700026     -0.088188
     12.99653      4.91558      4.24309         1.066213     -0.033861     -1.793107
     15.29621      2.94244      2.45961         0.378884     -1.049268     -0.513361
     16.30348      2.64306      4.71811        -0.472496      0.977304      0.012999
      6.65663      7.40099      0.68620         0.044704      0.453911     -1.170518
      7.17375      7.44626      3.21491         0.407214      0.106654     -0.986432
      7.86371      7.87315      5.52279         0.103022     -0.283979      1.077144
     10.19424      3.41714      1.52624        -1.153097     -0.644383      0.040052
     10.08514      2.65705      3.72900        -0.341400      0.412163     -1.213847
      1.35096      7.44626      2.18673         0.286791      0.571562      1.597557
      1.90206      7.55556      4.84998         0.192789     -0.459564      0.991865
      4.26235      2.65705      2.70082         0.670582      0.798160      0.864842
      4.92512      3.00065      5.11897         0.064482     -0.160234      0.766075
     12.49358      7.51725      1.58574         0.814740     -0.700026     -0.088188
     12.99653      7.44626      4.24309         1.066213      0.033861     -1.793107
     16.76720      1.39171      6.26797        -0.725914      0.000000      3.998016
     16.74052      1.39171      3.07977         1.095916      0.000000     -2.056886
      8.00634      6.18092      1.53750         2.660450      0.000000     -0.259567
      8.59001      6.18092      4.62204         1.670028      0.000000      0.319802
     10.91773      1.39171      2.05159         1.336941      0.000000     -1.912931
     11.33754      1.39171      4.71118         3.268969      0.000000      2.540417
      1.98983      6.18092      0.69908         0.013758      0.000000     -4.198460
      2.76722      6.18092      3.59386         1.592829      0.000000      0.024676
      4.96385      1.39171      1.12614         1.500054      0.000000     -2.932689
      5.67861      1.39171      4.10795         0.958274      0.000000      0.617694
     13.82913      6.18092      2.56568         1.546804      0.000000     -0.820024
     14.27577      6.18092      5.32365         0.690314      0.000000      2.575070
     13.64597      3.15093      1.23418         0.359767      0.434075     -1.981270
     14.31740      3.23559      4.24534        -1.516860     -1.121827      1.365181
      5.26426      7.79215      2.05636        -1.621854      0.988869     -0.155128
      5.92202      7.59375      4.93651        -1.240432      0.606329      1.963967
      8.17565      3.00295      2.57045        -0.514524      0.685211     -1.072415
      8.87206      2.76083      5.40969         0.111682      0.336236      2.836830
      0.02514      7.79215      4.11272        -0.016602      0.438757      0.393756
     16.33531      7.89674      1.45998        -0.698709      0.780093     -3.157058
      2.36531      3.07985      1.80343        -0.874278      0.809163     -1.340334
      2.93654      3.00295      4.62682        -0.440356     -0.592209      0.971139
     10.94232      7.59952      0.22237        -0.290580      1.070620     -3.921006
     11.08705      7.79215      3.08454        -1.187132      0.516556      2.062487
     11.72959      7.57526      5.80925        -0.637431      1.463270      3.649239
      5.26426      4.56969      2.05636        -1.621854     -0.988869     -0.155128
      5.92202      4.76809      4.93651        -1.240432     -0.606329      1.963967
     13.64597      9.21091      1.23418         0.359767     -0.434075     -1.981270
     14.31740      9.12625      4.24534        -1.516860      1.121827      1.365181
      0.02514      4.56969      4.11272        -0.016602     -0.438757      0.393756
     16.33531      4.46509      1.45998        -0.698709     -0.780093     -3.157058
      8.17565      9.35889      2.57045        -0.514524     -0.685211     -1.072415
      8.87206      0.02260      5.40969         0.111682     -0.336236      2.836830
     10.94232      4.76232      0.22237        -0.290580     -1.070620     -3.921006
     11.08705      4.56969      3.08454        -1.187132     -0.516556      2.062487
     11.72959      4.78658      5.80925        -0.637431     -1.463270      3.649239
      2.36531      9.28199      1.80343        -0.874278     -0.809163     -1.340334
      2.93654      9.35889      4.62682        -0.440356      0.592209      0.971139
    total drift:                                0.019946     -0.012864     -0.019212

  FREE ENERGIE OF THE ION-ELECTRON SYSTEM (eV)
  free  energy   TOTEN  =      -362.46080853 eV

  energy  without entropy=     -361.26745529  energy(sigma->0) =     -361.86413191