 vasp.5.4.4.18Apr17-6-g9f103f2a35 (build Aug 13 2019 17:33:20) gamma-only

 executed on             LinuxIFC date 2020.05.12  09:26:29

 INCAR:
 POTCAR:    PAW_PBE Ni_pv 06Sep2000
 POTCAR:    PAW_PBE S 06Sep2000
 POTCAR:    PAW_PBE Ni_pv 06Sep2000
   VRHFIN =Ni:

   TITEL  = PAW_PBE Ni_pv 06Sep2000
   POMASS =   58.690; ZVAL   =   16.000    mass and valenz
   ENMAX  =  367.986; ENMIN  =  275.989 eV

 POTCAR:    PAW_PBE S 06Sep2000
   VRHFIN =S : s2p4

   TITEL  = PAW_PBE S 06Sep2000
   POMASS =   32.066; ZVAL   =    6.000    mass and valenz
   ENMAX  =  258.689; ENMIN  =  194.016 eV

 Optimization of the real space projectors (new method)

 maximal supplied QI-value         = 18.90
 optimisation between [QCUT,QGAM] = [ 10.77, 21.73] = [ 32.49,132.25] Ry
 Optimized for a Real-space Cutoff    1.38 Angstroem

   l    n(q)    QCUT    max X(q) W(low)/X(q) W(high)/X(q)  e(spline)
   1      8    10.771     2.836    0.40E-04    0.29E-04    0.12E-06
   1      8    10.771     4.023    0.10E-03    0.48E-04    0.29E-06
   2      8    10.771    73.368    0.42E-03    0.97E-04    0.44E-06
   2      8    10.771    69.010    0.42E-03    0.99E-04    0.45E-06
   0      9    10.771    54.797    0.10E-03    0.56E-04    0.74E-07
   0      9    10.771    24.266    0.89E-04    0.49E-04    0.67E-07
 Optimization of the real space projectors (new method)

 maximal supplied QI-value         = 19.84
 optimisation between [QCUT,QGAM] = [ 10.71, 21.63] = [ 32.15,130.99] Ry
 Optimized for a Real-space Cutoff    1.19 Angstroem

   l    n(q)    QCUT    max X(q) W(low)/X(q) W(high)/X(q)  e(spline)
   0      8    10.715   187.594    0.41E-03    0.53E-04    0.66E-07
   0      8    10.715   164.243    0.41E-03    0.53E-04    0.65E-07
   1      7    10.715    67.533    0.19E-03    0.59E-03    0.68E-07
   1      7    10.715    50.729    0.19E-03    0.58E-03    0.67E-07
  PAW_PBE Ni_pv 06Sep2000               :
  PAW_PBE S 06Sep2000                   :

 POSCAR: Type_048 Type_148
  positions in cartesian coordinates
 exchange correlation table for  LEXCH =        8
   RHO(1)=    0.500       N(1)  =     2000
   RHO(2)=  100.500       N(2)  =     4000

 ion  position               nearest neighbor table
   1  0.256  0.016  0.152-  73 2.25  64 2.26  80 2.26  52 2.36  93 2.36
   2  0.256  0.016  0.481-  74 2.25  65 2.26  81 2.26  53 2.36  94 2.36  10 2.53   6 2.53
   3  0.006  0.266  0.317-  61 2.25  66 2.26  69 2.26  55 2.36  59 2.36   7 2.53  23 2.53
   4  0.045  0.264  0.637-  60 2.06  56 2.07  70 2.29   8 2.30
   5  0.348  0.851  0.063-  77 2.03  90 2.03  93 2.07  71 2.24  80 2.30  33 2.39
   6  0.256  0.016  0.394-  78 2.25  61 2.26  81 2.26  49 2.36  94 2.36   2 2.53  10 2.53
   7  0.006  0.266  0.230-  64 2.25  69 2.26  62 2.26  59 2.36  50 2.36   9 2.38   3 2.53  23 2.53

   8  0.006  0.266  0.558-  65 2.25  70 2.26  63 2.26   4 2.30  60 2.36  51 2.36  24 2.49
   9  0.191  0.297  0.161-  52 2.06  57 2.09  50 2.17  64 2.21   7 2.38
  10  0.190  0.215  0.438-  58 2.25  65 2.26  61 2.26  53 2.36  49 2.36   2 2.53   6 2.53
  11  0.440  0.465  0.273-  82 2.25  50 2.26  55 2.26  62 2.36  66 2.36  19 2.53  15 2.53
  12  0.423  0.472  0.593-  51 2.05  56 2.15  83 2.17  63 2.30  20 2.50
  13  0.756  0.016  0.152-  86 2.25  52 2.26  93 2.26  64 2.36  80 2.36
  14  0.756  0.016  0.481-  87 2.25  53 2.26  94 2.26  65 2.36  81 2.36  22 2.53  18 2.53
  15  0.506  0.266  0.317-  49 2.25  55 2.26  59 2.26  66 2.36  69 2.36  19 2.53  11 2.53
  16  0.474  0.271  0.638-  60 2.05  56 2.07  20 2.33  70 2.42
  17  0.835  0.863  0.063-  90 2.02  77 2.05  80 2.07  84 2.18  93 2.21  45 2.44
  18  0.756  0.016  0.394-  91 2.25  49 2.26  94 2.26  61 2.36  81 2.36  14 2.53  22 2.53
  19  0.506  0.266  0.230-  52 2.25  59 2.26  50 2.26  69 2.36  62 2.36  21 2.38  15 2.53  11 2.53

[...]

  46  0.690  0.715  0.438-  94 2.25  76 2.26  72 2.26  89 2.36  85 2.36  38 2.53  42 2.53
  47  0.940  0.965  0.273-  69 2.25  86 2.26  91 2.26  73 2.36  78 2.36  31 2.53  27 2.53
  48  0.940  0.965  0.602-  92 2.11  79 2.14  70 2.25  87 2.26  74 2.36  28 2.48  32 2.53
  49  0.468  0.167  0.382-  15 2.25  18 2.26  22 2.26   6 2.36  10 2.36
  50  0.218  0.417  0.218-   9 2.17  25 2.25  11 2.26  19 2.26  23 2.36   7 2.36
  51  0.218  0.417  0.547-  12 2.05  24 2.09  26 2.25  20 2.26   8 2.36  56 2.74
  52  0.468  0.167  0.164-   9 2.06  21 2.21  19 2.25  13 2.26   1 2.36
  53  0.468  0.167  0.493-  20 2.25  22 2.26  14 2.26  10 2.36   2 2.36
  54  0.048  0.459  0.022-  29 2.02  41 2.04  57 2.58  84 2.61
  55  0.218  0.417  0.329-  30 2.25  15 2.26  11 2.26   3 2.36  23 2.36
  56  0.206  0.408  0.640-  16 2.07   4 2.07  24 2.14  12 2.15  51 2.74
  57  0.053  0.414  0.109-   9 2.09  41 2.10  29 2.26  25 2.26  37 2.36  54 2.58
  58  0.053  0.414  0.438-  10 2.25  26 2.26  30 2.26  38 2.36  42 2.36
  59  0.303  0.164  0.273-  35 2.25  19 2.26  15 2.26   7 2.36   3 2.36
  60  0.303  0.164  0.602-  16 2.05   4 2.06  36 2.25  20 2.26   8 2.36
  61  0.968  0.167  0.382-   3 2.25   6 2.26  10 2.26  18 2.36  22 2.36
  62  0.718  0.417  0.218-  21 2.17  37 2.25  23 2.26   7 2.26  11 2.36  19 2.36
  63  0.718  0.417  0.547-  24 2.18  38 2.25   8 2.26  12 2.30  20 2.36
  64  0.968  0.167  0.164-  21 2.07   9 2.21   7 2.25   1 2.26  13 2.36
  65  0.968  0.167  0.493-   8 2.25  10 2.26   2 2.26  22 2.36  14 2.36
  66  0.718  0.417  0.329-  42 2.25   3 2.26  23 2.26  15 2.36  11 2.36
  67  0.553  0.414  0.109-  21 2.07  37 2.26  29 2.36  25 2.36  41 2.43
  68  0.553  0.414  0.438-  22 2.25  38 2.26  42 2.26  26 2.36  30 2.36
  69  0.803  0.164  0.273-  47 2.25   7 2.26   3 2.26  19 2.36  15 2.36
  70  0.803  0.164  0.602-  48 2.25   8 2.26   4 2.29  20 2.36  16 2.42
  71  0.462  0.651  0.065-  45 2.15  33 2.15  29 2.17   5 2.24  41 2.41
  72  0.468  0.667  0.382-  39 2.25  42 2.26  46 2.26  30 2.36  34 2.36
  73  0.218  0.917  0.218-   1 2.25  35 2.26  43 2.26  47 2.36  31 2.36
  74  0.218  0.917  0.547-   2 2.25  36 2.26  44 2.26  48 2.36  32 2.36
  75  0.468  0.667  0.164-  43 2.25  37 2.26  45 2.26  25 2.36  33 2.36
  76  0.468  0.667  0.493-  44 2.25  46 2.26  38 2.26  34 2.36  26 2.36
  77  0.089  0.873  0.020-   5 2.03  17 2.05  80 2.63
  78  0.218  0.917  0.329-   6 2.25  39 2.26  35 2.26  27 2.36  47 2.36
  79  0.218  0.891  0.642-  28 2.11  36 2.11  48 2.14  40 2.14  83 2.77
  80  0.053  0.914  0.109-  17 2.07  33 2.25   1 2.26   5 2.30  13 2.36  77 2.63
  81  0.053  0.914  0.438-  34 2.25   2 2.26   6 2.26  14 2.36  18 2.36
  82  0.303  0.664  0.273-  11 2.25  43 2.26  39 2.26  31 2.36  27 2.36
  83  0.303  0.664  0.602-  40 2.16  12 2.17  28 2.21  44 2.26  32 2.36  79 2.77
  84  0.959  0.668  0.063-  33 2.11  41 2.13  45 2.14  17 2.18  29 2.28  54 2.61
  85  0.968  0.667  0.382-  27 2.25  30 2.26  34 2.26  42 2.36  46 2.36
  86  0.718  0.917  0.218-  13 2.25  47 2.26  31 2.26  35 2.36  43 2.36
  87  0.718  0.917  0.547-  14 2.25  48 2.26  32 2.26  36 2.36  44 2.36
  88  0.968  0.667  0.164-  31 2.25  25 2.26  33 2.26  37 2.36  45 2.36
  89  0.968  0.667  0.493-  32 2.25  34 2.26  26 2.26  46 2.36  38 2.36
  90  0.591  0.864  0.018-  17 2.02   5 2.03  93 2.71
  91  0.718  0.917  0.329-  18 2.25  27 2.26  47 2.26  39 2.36  35 2.36
  92  0.718  0.892  0.642-  40 2.11  48 2.11  36 2.14  28 2.14  96 2.78
  93  0.553  0.914  0.109-   5 2.07  17 2.21  45 2.25  13 2.26   1 2.36  90 2.71
  94  0.553  0.914  0.438-  46 2.25  14 2.26  18 2.26   2 2.36   6 2.36
  95  0.803  0.664  0.273-  23 2.25  31 2.26  27 2.26  43 2.36  39 2.36
  96  0.803  0.664  0.602-  28 2.15  40 2.20  24 2.21  32 2.26  44 2.36  92 2.78

  LATTYP: Found a simple monoclinic cell.
 ALAT       =    13.8711386352
 B/A-ratio  =     2.1019774055
 C/A-ratio  =     1.3233367991
 COS(beta)  =    -0.9620914447

  Lattice vectors:

 A1 = (  -8.3714133957, -11.0601955134,   0.0000000000)
 A2 = (   0.0000000000,   0.0000000000, -29.1568200000)
 A3 = (  14.6499733957,  11.0601955134,   0.0000000000)

Analysis of symmetry for initial positions (statically):
 Subroutine PRICEL returns:
 Original cell was already a primitive cell.

 Routine SETGRP: Setting up the symmetry group for a
 simple monoclinic supercell.

 Subroutine GETGRP returns: Found  1 space group operations
 (whereof  1 operations were pure point group operations)
 out of a pool of  4 trial point group operations.

The static configuration has the point symmetry C_1 .

Analysis of symmetry for dynamics (positions and initial velocities):
 Subroutine PRICEL returns:
 Original cell was already a primitive cell.

 Routine SETGRP: Setting up the symmetry group for a
 simple monoclinic supercell.

 Subroutine GETGRP returns: Found  1 space group operations
 (whereof  1 operations were pure point group operations)
 out of a pool of  4 trial point group operations.

The dynamic configuration has the point symmetry C_1 .

 Subroutine INISYM returns: Found  1 space group operations
 (whereof  1 operations are pure point group operations),
 and found     1 'primitive' translations

 KPOINTS: gamma-point-only calculation. no periodi

Automatic generation of k-mesh.
Space group operators:
 irot       det(A)        alpha          n_x          n_y          n_z        tau_x        tau_y        tau_z
    1     1.000000     0.000000     1.000000     0.000000     0.000000     0.000000     0.000000     0.000000

 Subroutine IBZKPT returns following result:

 Found      1 irreducible k-points:

 Following reciprocal coordinates:
            Coordinates               Weight
  0.000000  0.000000  0.000000      1.000000

 Following cartesian coordinates:
            Coordinates               Weight
  0.000000  0.000000  0.000000      1.000000

 SYSTEM =  "Millerite NiS"
 POSCAR =  Type_048 Type_148

 Startparameter for this run:
   NWRITE =      2    write-flag & timer
   PREC   = normal    normal or accurate (medium, high low for compatibility)
   ISTART =      0    job   : 0-new  1-cont  2-samecut
   ICHARG =      2    charge: 1-file 2-atom 10-const
   ISPIN  =      1    spin polarized calculation?
   LNONCOLLINEAR =      F non collinear calculations
   LSORBIT =      F    spin-orbit coupling
   INIWAV =      1    electr: 0-lowe 1-rand  2-diag
   LASPH  =      F    aspherical Exc in radial PAW
   METAGGA=      F    non-selfconsistent MetaGGA calc.

 Electronic Relaxation 1
   ENCUT  =  450.0 eV  33.07 Ry    5.75 a.u.  10.86 19.47 50.43*2*pi/ulx,y,z
   ENINI  =  450.0     initial cutoff
   ENAUG  =  703.4 eV  augmentation charge cutoff
   NELM   =    100;   NELMIN=  2; NELMDL= -5     # of ELM steps
   EDIFF  = 0.1E-03   stopping-criterion for ELM
   LREAL  =      T    real-space projection
   NLSPLINE    = F    spline interpolate recip. space projectors
   LCOMPAT=      F    compatible to vasp.4.4
   GGA_COMPAT  = T    GGA compatible to vasp.4.4-vasp.4.6
   LMAXPAW     = -100 max onsite density
   LMAXMIX     =    2 max onsite mixed and CHGCAR
   VOSKOWN=      0    Vosko Wilk Nusair interpolation
   ROPT   =   -0.00050  -0.00050
 Ionic relaxation
   EDIFFG = 0.1E-02   stopping-criterion for IOM
   NSW    =      0    number of steps for IOM
   NBLOCK =      1;   KBLOCK =      1    inner block; outer block
   IBRION =     -1    ionic relax: 0-MD 1-quasi-New 2-CG
[...]
     0.000000000  0.000000000 29.156820000     0.000000000  0.000000000  0.034297293

  length of vectors
     6.278560000 11.256463038 29.156820000     0.162098538  0.090414315  0.034297293

 FORCES acting on ions
    electron-ion (+dipol)            ewald-force                    non-local-force                 convergence-correction
   -.341E+02 -.338E+03 0.515E+04   0.327E+02 0.337E+03 -.514E+04   0.149E+01 0.143E+01 -.127E+01   -.886E-02 -.712E-01 -.535E+00
   -.400E+02 0.247E+03 -.345E+04   0.392E+02 -.247E+03 0.345E+04   0.961E+00 0.493E+00 -.879E+00   0.180E-02 0.552E-01 0.628E+00
   -.406E+02 0.312E+03 0.300E+03   0.398E+02 -.312E+03 -.299E+03   0.954E+00 0.668E+00 -.729E+00   0.607E-02 -.990E-01 -.387E+00
   0.417E+03 0.195E+03 -.735E+04   -.420E+03 -.194E+03 0.735E+04   0.974E+00 -.101E+01 0.281E+01   0.378E-01 -.408E-01 0.389E+00
   -.651E+00 -.107E+04 0.669E+04   -.186E+01 0.107E+04 -.670E+04   0.128E+01 -.268E+01 0.631E+01   -.535E-01 0.664E-01 -.336E+00
   -.412E+02 0.264E+03 -.538E+03   0.403E+02 -.264E+03 0.538E+03   0.967E+00 0.475E+00 0.105E+01   0.622E-02 0.398E-01 0.114E+00
   0.193E+02 0.558E+03 0.301E+04   -.197E+02 -.561E+03 -.301E+04   0.988E-01 0.238E+01 0.700E+00   -.269E-02 -.996E-01 -.614E+00
   0.116E+03 0.298E+03 -.439E+04   -.118E+03 -.299E+03 0.439E+04   0.206E+01 0.466E+00 -.771E-01   0.303E-01 -.692E-01 0.804E+00
   -.209E+02 0.625E+03 0.555E+04   0.197E+02 -.627E+03 -.555E+04   0.822E+00 0.181E+01 0.114E+01   -.515E-03 -.521E-01 -.443E+00
   -.397E+02 -.497E+03 -.200E+04   0.390E+02 0.498E+03 0.200E+04   0.911E+00 -.120E+01 -.163E-02   0.717E-02 -.591E-01 0.415E+00
   -.401E+02 -.576E+03 0.169E+04   0.398E+02 0.577E+03 -.169E+04   0.465E+00 -.126E+01 -.449E+00   0.377E-02 -.433E-01 -.591E+00
   -.380E+03 -.464E+03 -.598E+04   0.384E+03 0.465E+03 0.598E+04   -.270E+01 -.112E+01 -.189E+01   0.638E-03 -.147E+00 0.660E+00
   -.366E+02 -.349E+03 0.513E+04   0.347E+02 0.348E+03 -.513E+04   0.196E+01 0.169E+01 -.161E+01   0.192E-02 -.530E-01 -.525E+00
   -.426E+02 0.242E+03 -.346E+04   0.417E+02 -.242E+03 0.346E+04   0.996E+00 0.391E+00 -.987E+00   0.100E-01 0.566E-01 0.622E+00
   -.414E+02 0.312E+03 0.300E+03   0.405E+02 -.312E+03 -.299E+03   0.957E+00 0.663E+00 -.764E+00   0.460E-02 -.915E-01 -.398E+00
   -.453E+03 0.198E+03 -.737E+04   0.454E+03 -.197E+03 0.736E+04   0.336E+00 -.143E+01 0.399E+01   -.202E-01 -.460E-01 0.408E+00
   -.346E+02 -.117E+04 0.667E+04   0.327E+02 0.117E+04 -.668E+04   0.112E+01 -.372E+01 0.648E+01   0.438E-01 0.190E-01 -.355E+00
   -.414E+02 0.263E+03 -.539E+03   0.405E+02 -.264E+03 0.538E+03   0.987E+00 0.466E+00 0.104E+01   0.762E-02 0.448E-01 0.111E+00
   0.100E+02 0.557E+03 0.301E+04   -.105E+02 -.559E+03 -.301E+04   0.143E+00 0.241E+01 0.653E+00   0.513E-03 -.891E-01 -.604E+00
   -.189E+03 0.306E+03 -.440E+04   0.188E+03 -.306E+03 0.439E+04   0.519E+00 0.432E+00 0.467E-01   -.168E-01 -.765E-01 0.819E+00
   -.106E+02 0.617E+03 0.557E+04   0.894E+01 -.617E+03 -.557E+04   0.154E+01 0.668E+00 0.278E+01   -.568E-02 -.170E-01 -.435E+00
   -.426E+02 -.500E+03 -.201E+04   0.419E+02 0.500E+03 0.201E+04   0.903E+00 -.115E+01 0.492E-01   0.790E-02 -.614E-01 0.407E+00
   -.386E+02 -.576E+03 0.169E+04   0.382E+02 0.577E+03 -.169E+04   0.500E+00 -.130E+01 -.448E+00   -.233E-02 -.301E-01 -.591E+00
   0.307E+03 -.448E+03 -.593E+04   -.312E+03 0.450E+03 0.593E+04   0.383E+01 -.161E+01 -.258E+01   -.389E-02 -.127E+00 0.659E+00
   -.118E+03 0.171E+03 0.440E+04   0.118E+03 -.170E+03 -.440E+04   0.161E+00 -.981E+00 -.353E+00   0.230E-01 0.878E-01 -.489E+00
   -.529E+02 0.259E+03 -.339E+04   0.519E+02 -.260E+03 0.339E+04   0.107E+01 0.755E+00 -.126E+01   0.418E-02 -.754E-01 0.602E+00
   -.413E+02 0.212E+03 0.369E+03   0.405E+02 -.212E+03 -.368E+03   0.968E+00 0.504E+00 -.110E+01   0.769E-02 0.700E-01 -.398E+00
   -.592E+01 0.478E+03 -.734E+04   0.597E+01 -.480E+03 0.734E+04   0.781E-01 0.666E+00 0.675E+00   -.586E-03 0.412E-01 0.405E+00
   -.338E+03 0.101E+04 0.709E+04   0.340E+03 -.102E+04 -.709E+04   -.851E+00 0.411E+01 0.606E+01   0.292E-01 0.116E+00 -.222E+00
   -.422E+02 0.251E+03 -.552E+03   0.413E+02 -.251E+03 0.552E+03   0.936E+00 0.694E+00 0.101E+01   0.798E-02 -.874E-01 0.390E-01
   -.426E+02 0.107E+03 0.328E+04   0.417E+02 -.108E+03 -.328E+04   0.104E+01 0.559E+00 0.131E+01   0.121E-01 0.577E-01 -.698E+00
   -.323E+02 0.225E+03 -.425E+04   0.313E+02 -.225E+03 0.425E+04   0.116E+01 0.685E+00 0.193E+01   0.521E-02 0.111E+00 0.794E+00
   -.132E+02 -.436E+03 0.525E+04   0.129E+02 0.437E+03 -.524E+04   0.183E+00 -.272E+01 -.171E+01   0.200E-01 0.111E+00 -.430E+00
   -.424E+02 -.533E+03 -.198E+04   0.417E+02 0.534E+03 0.198E+04   0.869E+00 -.908E+00 -.276E+00   0.948E-02 0.890E-01 0.371E+00
   -.412E+02 -.511E+03 0.191E+04   0.404E+02 0.512E+03 -.191E+04   0.855E+00 -.130E+01 0.537E-01   -.862E-02 0.919E-01 -.582E+00
   -.420E+02 -.713E+03 -.593E+04   0.420E+02 0.717E+03 0.593E+04   0.284E-01 -.389E+01 -.499E+00   0.184E-02 0.182E-01 0.533E+00
   -.109E+02 0.171E+03 0.438E+04   0.110E+02 -.170E+03 -.438E+04   0.919E-01 -.814E+00 0.122E+00   -.662E-02 0.723E-01 -.488E+00
   -.256E+02 0.267E+03 -.342E+04   0.246E+02 -.268E+03 0.343E+04   0.103E+01 0.870E+00 -.194E+01   0.811E-02 -.860E-01 0.619E+00
   -.412E+02 0.212E+03 0.370E+03   0.403E+02 -.212E+03 -.369E+03   0.932E+00 0.493E+00 -.105E+01   -.327E-02 0.724E-01 -.407E+00
   -.194E+02 0.527E+03 -.733E+04   0.193E+02 -.528E+03 0.733E+04   0.271E-01 0.110E+00 0.585E+00   0.412E-02 0.480E-01 0.407E+00
   0.354E+03 0.101E+04 0.708E+04   -.358E+03 -.101E+04 -.709E+04   0.148E+01 0.339E+01 0.466E+01   -.323E-01 0.105E+00 -.203E+00
   -.404E+02 0.251E+03 -.554E+03   0.395E+02 -.252E+03 0.554E+03   0.101E+01 0.659E+00 0.998E+00   0.515E-02 -.976E-01 0.400E-01
   -.403E+02 0.108E+03 0.328E+04   0.394E+02 -.109E+03 -.329E+04   0.108E+01 0.761E+00 0.163E+01   -.102E-01 0.574E-01 -.701E+00
   -.445E+02 0.262E+03 -.426E+04   0.436E+02 -.263E+03 0.426E+04   0.101E+01 0.812E+00 0.184E+01   0.138E-02 0.123E+00 0.789E+00
   0.666E+02 -.417E+03 0.526E+04   -.661E+02 0.418E+03 -.526E+04   -.668E+00 -.239E+01 -.142E+01   -.222E-01 0.693E-01 -.415E+00
   -.398E+02 -.531E+03 -.198E+04   0.390E+02 0.532E+03 0.198E+04   0.948E+00 -.906E+00 -.128E+00   0.827E-02 0.904E-01 0.379E+00
   -.413E+02 -.512E+03 0.191E+04   0.406E+02 0.513E+03 -.191E+04   0.827E+00 -.133E+01 0.487E-01   0.978E-02 0.961E-01 -.576E+00
   -.157E+02 -.757E+03 -.594E+04   0.154E+02 0.762E+03 0.594E+04   0.275E+00 -.484E+01 -.697E+00   0.721E-02 -.253E-02 0.536E+00
   0.394E+02 -.748E+02 -.128E+03   -.402E+02 0.759E+02 0.125E+03   0.598E+00 -.131E+01 0.273E+01   0.385E-03 -.253E-02 0.159E-01
   0.169E+02 -.185E+03 0.117E+04   -.169E+02 0.189E+03 -.117E+04   -.198E+00 -.288E+01 0.109E+01   0.972E-02 -.125E-01 -.252E+00
   0.250E+02 -.217E+02 -.149E+04   -.263E+02 0.247E+02 0.149E+04   0.141E+01 -.362E+01 -.709E+00   -.682E-02 -.615E-01 0.302E+00
   0.295E+01 0.232E+03 0.202E+04   -.375E+01 -.233E+03 -.202E+04   0.205E+01 -.644E+00 0.258E+01   -.995E-02 -.517E-01 -.174E+00
   0.350E+02 -.772E+02 -.138E+04   -.356E+02 0.784E+02 0.138E+04   0.471E+00 -.137E+01 -.267E+01   -.146E-02 -.145E-01 0.243E+00
   0.139E+02 0.466E+03 0.276E+04   -.138E+02 -.469E+03 -.276E+04   -.460E+00 0.638E+00 0.231E+01   0.265E-03 0.168E-01 -.677E-01
   0.394E+02 -.839E+02 0.305E+02   -.403E+02 0.853E+02 -.286E+02   0.859E+00 -.163E+01 -.222E+01   0.501E-02 -.155E-01 -.916E-01
   0.188E+02 -.258E+03 -.285E+04   -.191E+02 0.261E+03 0.285E+04   0.346E+00 -.990E+00 -.363E+01   0.372E-02 -.995E-01 0.162E+00
   0.254E+02 0.528E+03 0.240E+04   -.272E+02 -.535E+03 -.240E+04   0.180E+01 0.624E+01 0.912E-01   -.111E-01 0.348E-01 -.117E+00
   0.409E+02 0.172E+03 -.745E+03   -.419E+02 -.174E+03 0.745E+03   0.809E+00 0.281E+01 0.378E+00   0.205E-02 -.605E-01 0.118E+00
   0.386E+02 0.225E+03 0.675E+03   -.395E+02 -.227E+03 -.675E+03   0.777E+00 0.272E+01 -.705E-02   0.582E-02 -.254E-01 -.225E+00
   0.182E+02 0.272E+03 -.218E+04   -.195E+02 -.274E+03 0.219E+04   0.150E+01 0.131E+01 -.218E+01   0.562E-02 0.461E-01 0.244E+00
[...]
   0.107E+02 0.230E+03 -.226E+04   -.110E+02 -.233E+03 0.226E+04   0.257E+00 0.267E+01 -.488E+00   -.496E-02 0.499E-01 0.249E+00
   -.195E+02 0.642E+01 0.273E+04   0.203E+02 -.411E+01 -.274E+04   -.931E+00 -.188E+01 0.489E+01   0.958E-02 0.609E-01 -.977E-01
   0.398E+02 -.915E+02 -.124E+03   -.406E+02 0.926E+02 0.122E+03   0.606E+00 -.134E+01 0.278E+01   0.627E-02 -.166E-02 -.225E-02
   0.400E+02 -.137E+03 0.137E+04   -.406E+02 0.138E+03 -.138E+04   0.556E+00 -.149E+01 0.250E+01   -.612E-02 0.261E-01 -.240E+00
   0.382E+02 -.113E+03 -.154E+04   -.391E+02 0.114E+03 0.154E+04   0.714E+00 -.163E+01 0.223E+01   -.691E-03 0.257E-01 0.275E+00
   0.377E+02 -.131E+03 0.144E+04   -.379E+02 0.132E+03 -.144E+04   0.100E+00 -.149E+01 -.208E+01   0.894E-04 -.524E-02 -.223E+00
   0.430E+02 -.944E+02 -.136E+04   -.435E+02 0.953E+02 0.136E+04   0.468E+00 -.117E+01 -.295E+01   0.220E-02 0.431E-01 0.270E+00
   0.813E+01 -.304E+03 0.274E+04   -.757E+01 0.305E+03 -.274E+04   -.622E+00 -.957E-01 0.145E+01   -.129E-01 0.518E-02 -.366E-01
   0.397E+02 -.862E+02 0.661E+02   -.404E+02 0.874E+02 -.637E+02   0.610E+00 -.146E+01 -.271E+01   -.508E-02 0.570E-01 -.124E+00
   -.153E+01 -.210E+03 -.281E+04   0.105E+01 0.213E+03 0.282E+04   0.452E+00 -.213E+01 -.413E+01   -.504E-03 -.264E-01 0.119E+00
   0.183E+02 -.459E+03 0.206E+04   -.186E+02 0.461E+03 -.206E+04   0.155E+01 -.776E+00 0.104E+01   -.277E-01 0.162E-02 -.168E+00
   0.393E+02 0.162E+03 -.746E+03   -.402E+02 -.165E+03 0.745E+03   0.736E+00 0.278E+01 0.113E+00   -.258E-02 0.484E-01 0.156E+00
   0.398E+02 0.132E+03 0.670E+03   -.406E+02 -.134E+03 -.670E+03   0.702E+00 0.252E+01 -.117E+00   -.835E-02 0.377E-02 -.235E+00
   0.701E+02 0.268E+03 -.226E+04   -.703E+02 -.271E+03 0.226E+04   -.365E-01 0.194E+01 -.275E+00   0.816E-02 0.449E-01 0.251E+00
   -.675E+02 0.101E+02 -.325E+02   -.469E-12 0.153E-11 0.591E-11   0.674E+02 -.103E+02 0.325E+02   0.131E+00 0.335E+00 0.175E+00

 POSITION                                       TOTAL-FORCE (eV/Angst)
      1.64370      0.18204      4.44331         0.033151      0.291982      0.688540
      1.64370      0.18204     14.02172         0.130387      0.129573     -0.402501
      0.59727      2.94708      9.23251         0.124110      0.138652     -0.277945
      0.83234      2.91660     18.57199        -1.318388     -0.504632      0.399686
      3.96840      9.41636      1.83225        -1.280034     -0.225697      0.372064
      1.64370      0.18204     11.49105         0.092472      0.156625      0.337971
      0.59727      2.94708      6.70184        -0.353042     -0.427124      1.377997
      0.59727      2.94708     16.28025        -0.075401     -0.026332     -1.389451
      1.82334      3.28573      4.69026        -0.378864      0.075338     -0.289372
      1.64370      2.37366     12.75638         0.186496     -0.365240      0.000331
      3.73655      5.13871      7.96718         0.179139     -0.336660      0.121164
      3.64606      5.22182     17.30444         1.196609     -0.185513      0.118025
      4.78298      0.18204      4.44331         0.071585      0.208383      0.680881
      4.78298      0.18204     14.02172         0.107500      0.102763     -0.362014
      3.73655      2.94708      9.23251         0.122067      0.133040     -0.291557
      3.54565      2.99389     18.59779         1.408783     -0.556204      0.352976
      7.04760      9.53953      1.84473        -0.702464      0.515931      0.480882
      4.78298      0.18204     11.49105         0.106136      0.166507      0.340670
      3.73655      2.94708      6.70184        -0.310341     -0.411927      1.415303
      3.73655      2.94708     16.28025         0.121567     -0.014348     -1.222224
      4.95289      3.29179      4.68007        -0.172498     -0.228438     -0.230525
      4.78298      2.37366     12.75638         0.194186     -0.326141     -0.024118
      6.87583      5.13871      7.96718         0.168125     -0.337989      0.107801
      7.01582      5.24000     17.23698        -1.472628     -0.146831      0.249531
      2.69013      5.71213      4.44331         0.275909      0.589921     -0.135632
      2.69013      5.71213     14.02172         0.120122     -0.001110     -0.525466
      1.64370      8.47718      9.23251         0.098176      0.164225     -0.380912
      1.67727      8.42897     18.60773         0.128579     -0.675501     -0.259423
      2.69013      5.71213      1.91264         1.358423      0.387465      2.051168
      2.69013      5.71213     11.49105         0.079112      0.206900      0.304871
      1.64370      8.47718      6.70184         0.117137      0.125214      0.452132
      1.64370      8.47718     16.28025         0.131596      0.382114     -0.958086
      2.69013      7.90376      3.17797        -0.079507     -0.865100      2.617403
      2.69013      7.90376     12.75638         0.212352     -0.323531     -0.072092
      4.78298     10.66881      7.96718         0.133394     -0.425226      0.059605
      4.78298     10.66881     17.54559         0.038796      0.072782     -2.236078
      5.82941      5.71213      4.44331         0.166234      0.724085      0.093239
      5.82941      5.71213     14.02172         0.064040      0.114709     -0.582629
      4.78298      8.47718      9.23251         0.090217      0.166451     -0.365457
      4.83023      8.42928     18.60734        -0.070043     -0.798884     -0.271097
      6.14498      5.70095      2.00005        -2.543025      0.742108      0.802954
      5.82941      5.71213     11.49105         0.073296      0.178652      0.314560
      4.78298      8.47718      6.70184         0.133660      0.122603      0.476998
      4.78298      8.47718     16.28025         0.086813      0.329808     -0.969132
      5.82941      7.90376      3.17797        -0.276791     -0.729756      2.633898
      5.82941      7.90376     12.75638         0.214261     -0.341486     -0.069792
      7.92226     10.66881      7.96718         0.128115     -0.415065      0.051887
      7.92226     10.66881     17.54559         0.040877     -0.058188     -2.197837
      3.28961      1.84282     11.14515        -0.139375     -0.247756      0.394038
      2.24318      4.60787      6.35595        -0.233461      0.506854      0.650522
      2.24318      4.60787     15.93436         0.132797     -0.698500     -2.468801
      3.28961      1.84282      4.78920         1.238967     -1.659244     -0.433564
      3.28961      1.84282     14.36761        -0.138865     -0.217587     -0.289577
      1.26129      5.07268      0.64385        -0.272708     -2.290546     -3.893261
      2.24318      4.60787      9.57841        -0.025043     -0.274811     -0.402907
      2.14659      4.51274     18.66968         0.035888      1.471629      3.195537
      1.19676      4.58218      3.17797         0.022482     -0.039151      0.337635
      1.19676      4.58218     12.75638        -0.130117      0.572362      0.132508
      2.24318      1.81714      7.96718        -0.115296      0.572841      0.027452
      2.24318      1.81714     17.54559         0.168326     -1.140988     -0.238633
[...]
      3.28961      7.34723      7.96718        -0.140137      0.450170     -0.085653
      3.28961      7.34723     17.54559        -0.028356     -0.506019     -0.142038
      7.42208      7.39267      1.84267        -0.060242      0.492813     -1.721124
      7.47532      7.37292     11.14515        -0.128313     -0.269154      0.415127
      6.42889     10.13797      6.35595        -0.084586     -0.021204     -0.034488
      6.42889     10.13797     15.93436        -0.144997     -0.154191     -0.206474
      7.47532      7.37292      4.78920        -0.105519     -0.538637     -0.082410
      7.47532      7.37292     14.36761        -0.081752     -0.298697     -0.364871
      5.51667      9.55815      0.53178        -0.071110      0.558714     -3.762175
      6.42889     10.13797      9.57841        -0.126641     -0.286301     -0.449698
      6.37112      9.86061     18.72731        -0.028009      1.513616      3.933909
      5.38246     10.11228      3.17797         1.175797      1.064374      1.756570
      5.38246     10.11228     12.75638        -0.189553      0.546449      0.024888
      6.42889      7.34723      7.96718        -0.169739      0.447335     -0.054401
      6.42889      7.34723     17.54559        -0.233069     -1.172341     -0.089178
    total drift:                                0.002849      0.136659      0.097058

  FREE ENERGIE OF THE ION-ELECTRON SYSTEM (eV)
  free  energy   TOTEN  =      -477.44888105 eV

  energy  without entropy=     -476.20113586  energy(sigma->0) =     -476.82500845