 vasp.5.4.4.18Apr17-6-g9f103f2a35 (build Aug 13 2019 17:33:20) gamma-only

 executed on             LinuxIFC date 2020.05.12  12:44:14

 INCAR:
 POTCAR:    PAW_PBE Ni_pv 06Sep2000
 POTCAR:    PAW_PBE S 06Sep2000
 POTCAR:    PAW_PBE Ni_pv 06Sep2000
   VRHFIN =Ni:

   TITEL  = PAW_PBE Ni_pv 06Sep2000
   POMASS =   58.690; ZVAL   =   16.000    mass and valenz
   ENMAX  =  367.986; ENMIN  =  275.989 eV

 POTCAR:    PAW_PBE S 06Sep2000
   VRHFIN =S : s2p4

   TITEL  = PAW_PBE S 06Sep2000
   POMASS =   32.066; ZVAL   =    6.000    mass and valenz
   ENMAX  =  258.689; ENMIN  =  194.016 eV

 Optimization of the real space projectors (new method)

 maximal supplied QI-value         = 18.90
 optimisation between [QCUT,QGAM] = [ 10.77, 21.73] = [ 32.49,132.25] Ry
 Optimized for a Real-space Cutoff    1.38 Angstroem

   l    n(q)    QCUT    max X(q) W(low)/X(q) W(high)/X(q)  e(spline)
   1      8    10.771     2.836    0.40E-04    0.29E-04    0.12E-06
   1      8    10.771     4.023    0.10E-03    0.48E-04    0.29E-06
   2      8    10.771    73.368    0.42E-03    0.97E-04    0.44E-06
   2      8    10.771    69.010    0.42E-03    0.99E-04    0.45E-06
   0      9    10.771    54.797    0.10E-03    0.56E-04    0.74E-07
   0      9    10.771    24.266    0.89E-04    0.49E-04    0.67E-07
 Optimization of the real space projectors (new method)

 maximal supplied QI-value         = 19.84
 optimisation between [QCUT,QGAM] = [ 10.71, 21.63] = [ 32.15,130.99] Ry
 Optimized for a Real-space Cutoff    1.19 Angstroem

   l    n(q)    QCUT    max X(q) W(low)/X(q) W(high)/X(q)  e(spline)
   0      8    10.715   187.594    0.41E-03    0.53E-04    0.66E-07
   0      8    10.715   164.243    0.41E-03    0.53E-04    0.65E-07
   1      7    10.715    67.533    0.19E-03    0.59E-03    0.68E-07
   1      7    10.715    50.729    0.19E-03    0.58E-03    0.67E-07
  PAW_PBE Ni_pv 06Sep2000               :
  PAW_PBE S 06Sep2000                   :

 POSCAR: Type_036 Type_136
  positions in cartesian coordinates
 exchange correlation table for  LEXCH =        8
   RHO(1)=    0.500       N(1)  =     2000
   RHO(2)=  100.500       N(2)  =     4000

 ion  position               nearest neighbor table
   1  0.374  0.751  0.095-  61 2.05  49 2.09  41 2.25  62 2.36  50 2.36  14 2.45
   2  0.525  0.601  0.223-  42 2.25  62 2.26  50 2.26  63 2.36  51 2.36  15 2.53  27 2.53
   3  0.675  0.451  0.351-  43 2.25  51 2.26  63 2.26  64 2.36  52 2.36   4 2.46  28 2.53  16 2.53

   4  0.738  0.353  0.461-  65 2.04  64 2.07  44 2.09  52 2.10   3 2.46
   5  0.556  0.169  0.072-  45 2.06  68 2.08  46 2.09  53 2.09   6 2.41
   6  0.758  0.035  0.137-  68 2.04  53 2.07  46 2.25  54 2.36  69 2.36   5 2.41
   7  0.058  0.734  0.394-  56 2.06  67 2.18  66 2.26  55 2.26  48 2.34  24 2.42  18 2.53  31 2.53

[...]

  35  0.516  0.207  0.274-  63 2.25  46 2.26  58 2.26  47 2.36  59 2.36  22 2.53  10 2.53
  36  0.658  0.073  0.389-  47 2.05  59 2.11  48 2.12  64 2.15
  37  0.064  0.262  0.341-  25 2.06  10 2.25  13 2.26  16 2.36  28 2.36  38 2.62
  38  0.195  0.140  0.447-  11 2.05  13 2.10  25 2.15  65 2.59  37 2.62
  39  0.763  0.563  0.085-  14 2.06  12 2.13  26 2.23  15 2.26  27 2.26
  40  0.914  0.412  0.213-   9 2.25  16 2.26  28 2.26  27 2.36  15 2.36
  41  0.147  0.846  0.128-  20 2.22   1 2.25  17 2.26  30 2.26  29 2.33
  42  0.297  0.696  0.256-   2 2.25  31 2.26  18 2.26  17 2.36  30 2.36
  43  0.447  0.545  0.384-  32 2.02  19 2.07   3 2.25  31 2.36  18 2.36  44 2.62
  44  0.529  0.412  0.495-  32 2.05   4 2.09  19 2.11  43 2.62
  45  0.352  0.300  0.050-   5 2.06  34 2.07  21 2.20  33 2.20
  46  0.530  0.129  0.170-   5 2.09   6 2.25  35 2.26  22 2.26  34 2.36  21 2.36
  47  0.680  0.979  0.298-  23 2.04  36 2.05   8 2.25  35 2.36  22 2.36  48 2.74
  48  0.822  0.880  0.412-  24 2.02  36 2.12   7 2.34  23 2.55  47 2.74
  49  0.406  0.935  0.063-   1 2.09  21 2.12  26 2.14  50 2.66
  50  0.528  0.798  0.171-  26 2.04  22 2.25  27 2.26   2 2.26   1 2.36  49 2.66
  51  0.678  0.648  0.299-  23 2.21   3 2.26  28 2.26  27 2.36   2 2.36  24 2.48
  52  0.829  0.497  0.427-   4 2.10  25 2.10  24 2.13  28 2.36   3 2.36  65 2.79
  53  0.720  0.237  0.101-   6 2.07  15 2.09   5 2.09
  54  0.911  0.081  0.214-  29 2.20  16 2.25   8 2.26  30 2.26   6 2.36
  55  0.062  0.931  0.342-  13 2.25  31 2.26   7 2.26  30 2.36   8 2.36
  56  0.211  0.764  0.453-  32 2.03  31 2.05   7 2.06
  57  0.145  0.515  0.128-  12 2.05  33 2.09  20 2.15  17 2.25  34 2.26   9 2.26  60 2.48
  58  0.295  0.364  0.257-  18 2.25  35 2.26  10 2.26   9 2.36  34 2.36
  59  0.445  0.214  0.385-  11 2.02  19 2.09  36 2.11  10 2.36  35 2.36
  60  0.075  0.579  0.013-  20 2.04  12 2.11  33 2.15  57 2.48
  61  0.379  0.652  0.007-  14 2.04   1 2.05  33 2.05
  62  0.477  0.512  0.128-  14 2.04  34 2.25   2 2.26  15 2.26   1 2.36  33 2.43
  63  0.628  0.362  0.256-  35 2.25  16 2.26   3 2.26   2 2.36  15 2.36
  64  0.778  0.212  0.384-   4 2.07  36 2.15  13 2.26   3 2.36  16 2.36
  65  0.938  0.239  0.493-   4 2.04  13 2.06  25 2.10  38 2.59  52 2.79
  66  0.011  0.645  0.299-  28 2.25   7 2.26  18 2.26  24 2.35  17 2.36   8 2.36
  67  0.145  0.506  0.412-  19 2.11  18 2.15   7 2.18  25 2.28
  68  0.682  0.957  0.059-   6 2.04   5 2.08  26 2.09
  69  0.861  0.795  0.171-  27 2.25   8 2.26  17 2.26  20 2.28   6 2.36
  70  0.104  0.246  0.090-  29 2.06   9 2.07  12 2.16  21 2.17
  71  0.244  0.079  0.213-  29 2.12  30 2.25  22 2.26  10 2.26   9 2.36  21 2.36
  72  0.395  0.928  0.341-  11 2.02  23 2.06  31 2.25  10 2.36  22 2.36

  LATTYP: Found a base centered orthorhombic cell.
 ALAT       =    11.4527836704
 B/A-ratio  =     1.4485816945
 C/A-ratio  =     1.7901333131

  Lattice vectors:

 A1 = (  10.0797329849,   0.0000000000,   0.0000000000)
 A2 = (  -3.5732980427,  -9.4251025535,   0.0000000000)
 A3 = (   0.0000000000,   0.0000000000, -20.5020095760)

Analysis of symmetry for initial positions (statically):
 Subroutine PRICEL returns:
 Original cell was already a primitive cell.

 Routine SETGRP: Setting up the symmetry group for a
 base centered orthorhombic supercell.

 Subroutine GETGRP returns: Found  1 space group operations
 (whereof  1 operations were pure point group operations)
 out of a pool of  8 trial point group operations.

The static configuration has the point symmetry C_1 .

Analysis of symmetry for dynamics (positions and initial velocities):
 Subroutine PRICEL returns:
 Original cell was already a primitive cell.

 Routine SETGRP: Setting up the symmetry group for a
 base centered orthorhombic supercell.

 Subroutine GETGRP returns: Found  1 space group operations
 (whereof  1 operations were pure point group operations)
 out of a pool of  8 trial point group operations.

The dynamic configuration has the point symmetry C_1 .

 Subroutine INISYM returns: Found  1 space group operations
 (whereof  1 operations are pure point group operations),
 and found     1 'primitive' translations

 KPOINTS: gamma-point-only calculation. no periodi

Automatic generation of k-mesh.
Space group operators:
 irot       det(A)        alpha          n_x          n_y          n_z        tau_x        tau_y        tau_z
    1     1.000000     0.000001     1.000000     0.000000     0.000000     0.000000     0.000000     0.000000

 Subroutine IBZKPT returns following result:

 Found      1 irreducible k-points:

 Following reciprocal coordinates:
            Coordinates               Weight
  0.000000  0.000000  0.000000      1.000000

 Following cartesian coordinates:
            Coordinates               Weight
  0.000000  0.000000  0.000000      1.000000

 SYSTEM =  "Millerite NiS"
 POSCAR =  Type_036 Type_136

 Startparameter for this run:
   NWRITE =      2    write-flag & timer
   PREC   = normal    normal or accurate (medium, high low for compatibility)
   ISTART =      0    job   : 0-new  1-cont  2-samecut
   ICHARG =      2    charge: 1-file 2-atom 10-const
   ISPIN  =      1    spin polarized calculation?
   LNONCOLLINEAR =      F non collinear calculations
   LSORBIT =      F    spin-orbit coupling
   INIWAV =      1    electr: 0-lowe 1-rand  2-diag
   LASPH  =      F    aspherical Exc in radial PAW
   METAGGA=      F    non-selfconsistent MetaGGA calc.

 Electronic Relaxation 1
   ENCUT  =  450.0 eV  33.07 Ry    5.75 a.u.  17.43 17.43 35.46*2*pi/ulx,y,z
   ENINI  =  450.0     initial cutoff
   ENAUG  =  703.4 eV  augmentation charge cutoff
   NELM   =    100;   NELMIN=  2; NELMDL= -5     # of ELM steps
   EDIFF  = 0.1E-03   stopping-criterion for ELM
   LREAL  =      T    real-space projection
   NLSPLINE    = F    spline interpolate recip. space projectors
   LCOMPAT=      F    compatible to vasp.4.4
   GGA_COMPAT  = T    GGA compatible to vasp.4.4-vasp.4.6
   LMAXPAW     = -100 max onsite density
   LMAXMIX     =    2 max onsite mixed and CHGCAR
   VOSKOWN=      0    Vosko Wilk Nusair interpolation
   ROPT   =   -0.00050  -0.00050
 Ionic relaxation
   EDIFFG = 0.1E-02   stopping-criterion for IOM
   NSW    =      0    number of steps for IOM
   NBLOCK =      1;   KBLOCK =      1    inner block; outer block
   IBRION =     -1    ionic relax: 0-MD 1-quasi-New 2-CG
   NFREE  =      0    steps in history (QN), initial steepest desc. (CG)
   ISIF   =      2    stress and relaxation
   IWAVPR =     10    prediction:  0-non 1-charg 2-wave 3-comb
   ISYM   =      2    0-nonsym 1-usesym 2-fastsym
   LCORR  =      T    Harris-Foulkes like correction to forces

   POTIM  = 0.5000    time-step for ionic-motion
   TEIN   =    0.0    initial temperature
   TEBEG  =    0.0;   TEEND  =   0.0 temperature during run
   SMASS  =  -3.00    Nose mass-parameter (am)
   estimated Nose-frequenzy (Omega)   =  0.10E-29 period in steps =****** mass=  -0.232E-26a.u.
   SCALEE = 1.0000    scale energy and forces
   NPACO  =    256;   APACO  = 16.0  distance and # of slots for P.C.
   PSTRESS=    0.0 pullay stress

  Mass of Ions in am
   POMASS =  58.69 32.07
  Ionic Valenz
   ZVAL   =  16.00  6.00
  Atomic Wigner-Seitz radii
  virtual crystal weights
   VCA    =   1.00  1.00
   NELECT =     792.0000    total number of electrons
   NUPDOWN=      -1.0000    fix difference up-down

 DOS related values:
   EMIN   =  10.00;   EMAX   =-10.00  energy-range for DOS
   EFERMI =   0.00
   ISMEAR =     0;   SIGMA  =   0.20  broadening in eV -4-tet -1-fermi 0-gaus

 Electronic relaxation 2 (details)
   IALGO  =     38    algorithm
   LDIAG  =      T    sub-space diagonalisation (order eigenvalues)
   LSUBROT=      F    optimize rotation matrix (better conditioning)
   TURBO    =      0    0=normal 1=particle mesh
   IRESTART =      0    0=no restart 2=restart with 2 vectors
   NREBOOT  =      0    no. of reboots
   NMIN     =      0    reboot dimension
   EREF     =   0.00    reference energy to select bands
   IMIX   =      4    mixing-type and parameters
     AMIX     =   0.40;   BMIX     =  1.00
     AMIX_MAG =   1.60;   BMIX_MAG =  1.00
     AMIN     =   0.10
     WC   =   100.;   INIMIX=   1;  MIXPRE=   1;  MAXMIX= -45

 Intra band minimization:
   WEIMIN = 0.0000     energy-eigenvalue tresh-hold
   EBREAK =  0.53E-07  absolut break condition
   DEPER  =   0.30     relativ break condition

[...]
  Fock        0.00000     0.00000     0.00000     0.00000     0.00000     0.00000
  Total      83.22018    78.62731   101.32366    -1.72030     2.27544    -1.07478
  in kB      68.45540    64.67738    83.34698    -1.41509     1.87174    -0.88409

 VOLUME and BASIS-vectors are now :
  energy-cutoff  :      450.00
  volume of cell :     1947.74
      direct lattice vectors                 reciprocal lattice vectors
    10.079732985  0.000000000  0.000000000     0.099208977 -0.037612667  0.000000000
     3.573298043  9.425102554  0.000000000     0.000000000  0.106099641  0.000000000
     0.000000000  0.000000000 20.502009576     0.000000000  0.000000000  0.048775706

  length of vectors
    10.079732985 10.079732985 20.502009576     0.106099641  0.106099641  0.048775706

 FORCES acting on ions
    electron-ion (+dipol)            ewald-force                    non-local-force                 convergence-correction
   0.424E+03 -.627E+03 0.375E+04   -.428E+03 0.630E+03 -.375E+04   0.366E+01 -.342E+01 0.236E+01   -.109E+00 0.111E+00 0.107E+00
   0.401E+03 -.148E+03 0.326E+03   -.402E+03 0.149E+03 -.326E+03   0.108E+01 -.716E+00 0.232E+00   -.197E-01 0.198E-01 0.115E+00
   0.479E+03 -.232E+03 -.253E+04   -.481E+03 0.233E+03 0.253E+04   0.129E+01 -.558E+00 0.603E+00   -.105E+00 -.803E-01 0.262E-01
   0.227E+03 0.600E+02 -.521E+04   -.233E+03 -.601E+02 0.522E+04   0.457E+01 0.812E+00 -.421E+01   -.821E-01 -.112E+00 0.767E-01
   -.427E+03 0.104E+03 0.504E+04   0.427E+03 -.101E+03 -.505E+04   -.613E+00 -.236E+01 0.888E+01   0.922E-01 -.654E-01 -.320E-01
   -.545E+03 0.127E+03 0.299E+04   0.548E+03 -.130E+03 -.299E+04   -.231E+01 0.154E+01 -.226E+00   0.457E-01 0.633E-01 0.442E-01
   0.217E+03 -.414E+03 -.416E+04   -.219E+03 0.414E+03 0.417E+04   0.772E+00 -.406E+00 -.322E+01   0.183E+00 0.156E+00 0.792E-01
   0.323E+03 -.312E+03 -.490E+03   -.323E+03 0.313E+03 0.489E+03   0.685E+00 -.103E+01 0.973E+00   -.252E-01 0.145E+00 0.569E-03
   0.408E+03 -.127E+03 0.144E+04   -.408E+03 0.128E+03 -.143E+04   0.585E+00 -.498E+00 -.299E+01   -.658E-01 -.905E-01 0.670E-01
   0.442E+03 -.105E+03 -.163E+04   -.443E+03 0.107E+03 0.163E+04   0.464E+00 -.153E+01 0.710E+00   0.825E-01 -.130E+00 0.121E+00
   0.689E+02 0.329E+03 -.494E+04   -.692E+02 -.329E+03 0.494E+04   0.662E+00 -.602E+00 0.106E+01   0.150E+00 -.108E+00 0.316E-01
   0.582E+03 0.323E+03 0.464E+04   -.588E+03 -.323E+03 -.464E+04   0.471E+01 -.630E+00 0.541E+01   -.132E-01 -.373E-01 -.403E-01
   0.142E+03 0.787E+03 -.399E+04   -.145E+03 -.794E+03 0.399E+04   0.136E+01 0.512E+01 0.188E+00   -.562E-01 -.462E-01 0.473E-01
   -.393E+03 0.552E+03 0.535E+04   0.393E+03 -.550E+03 -.535E+04   0.800E+00 -.279E+01 0.275E+01   -.392E-02 -.400E-01 -.419E-01
   -.201E+03 0.728E+03 0.264E+04   0.201E+03 -.731E+03 -.264E+04   -.996E+00 0.287E+01 -.437E+00   -.163E-01 -.132E+00 0.140E+00
   0.405E+02 0.572E+03 -.511E+03   -.409E+02 -.572E+03 0.510E+03   0.456E+00 0.163E+00 0.184E+01   -.819E-01 -.118E+00 0.330E-03
   -.559E+02 0.213E+03 0.125E+04   0.567E+02 -.213E+03 -.124E+04   -.316E+00 -.417E+00 -.101E+00   0.318E-01 0.133E+00 0.363E-01
   -.800E+02 0.338E+03 -.153E+04   0.803E+02 -.340E+03 0.152E+04   -.259E+00 0.212E+01 0.220E+01   0.955E-01 0.208E-01 0.271E-01
   0.259E+03 0.492E+03 -.455E+04   -.262E+03 -.495E+03 0.455E+04   0.239E+01 0.271E+01 -.313E+00   0.104E+00 -.782E-01 0.125E+00
   0.297E+03 -.869E+03 0.455E+04   -.299E+03 0.874E+03 -.455E+04   0.105E+01 -.368E+01 0.420E+01   0.365E-01 0.123E+00 0.413E-01
   0.288E+03 0.527E+03 0.395E+04   -.288E+03 -.531E+03 -.395E+04   -.190E+00 0.420E+01 0.206E+01   0.493E-02 -.648E-01 -.843E-02
   0.100E+02 0.469E+03 0.474E+03   -.100E+02 -.470E+03 -.475E+03   -.148E+00 0.509E+00 0.870E+00   0.910E-01 -.652E-01 0.197E+00
   0.248E+03 0.307E+03 -.301E+04   -.249E+03 -.310E+03 0.301E+04   0.102E+01 0.153E+01 -.956E+00   -.160E+00 0.266E+00 0.330E-01
   0.157E+03 -.305E+03 -.394E+04   -.159E+03 0.308E+03 0.394E+04   0.194E+01 -.189E+01 -.371E+01   -.136E+00 0.267E+00 -.204E-01
   -.493E+03 -.226E+03 -.475E+04   0.497E+03 0.232E+03 0.475E+04   -.235E+01 -.417E+01 -.273E+01   -.185E-02 -.173E+00 0.120E+00
   -.508E+03 -.336E+03 0.457E+04   0.512E+03 0.338E+03 -.457E+04   -.400E+01 -.161E+01 0.282E+01   0.589E-01 0.134E+00 0.181E-01
   -.424E+03 -.254E+03 0.146E+04   0.425E+03 0.254E+03 -.146E+04   -.449E+00 -.452E+00 -.354E+00   -.424E-01 0.420E-01 0.121E+00
   -.345E+03 0.635E+02 -.137E+04   0.345E+03 -.655E+02 0.137E+04   -.165E-01 0.774E+00 0.237E+01   -.850E-01 -.200E+00 -.160E+00
   0.552E+03 -.282E+02 0.341E+04   -.557E+03 0.287E+02 -.342E+04   0.350E+01 -.821E+00 0.288E+01   -.993E-01 -.544E-01 0.462E-01
   -.298E+03 -.126E+03 0.331E+03   0.298E+03 0.125E+03 -.329E+03   0.105E-01 0.617E+00 -.113E+01   -.565E-01 0.333E-01 0.971E-02
   -.520E+03 -.429E+03 -.278E+04   0.522E+03 0.431E+03 0.278E+04   -.126E+01 -.201E+01 0.410E+00   0.980E-01 0.850E-01 0.514E-01
   -.369E+03 -.623E+03 -.535E+04   0.366E+03 0.622E+03 0.535E+04   0.333E+01 0.132E+01 -.159E+00   0.452E-01 0.284E-01 0.156E+00
   0.207E+01 -.494E+02 0.502E+04   0.191E+00 0.512E+02 -.503E+04   -.194E+01 -.263E+01 0.960E+01   -.282E-01 0.175E-01 -.653E-01
   -.359E+03 -.161E+03 0.226E+04   0.360E+03 0.161E+03 -.226E+04   -.120E+01 0.946E+00 -.350E+01   0.690E-01 -.689E-01 0.389E-01
   -.481E+03 -.263E+03 -.576E+03   0.481E+03 0.264E+03 0.575E+03   -.196E+00 -.129E+01 0.473E+00   0.117E+00 -.119E+00 0.140E+00
   -.329E+03 -.239E+00 -.402E+04   0.330E+03 0.249E+01 0.402E+04   -.376E+00 -.206E+01 -.184E+01   -.129E+00 -.465E-01 -.158E-01
   -.105E+03 0.110E+03 -.678E+03   0.107E+03 -.109E+03 0.675E+03   -.195E+01 -.277E+00 0.104E+01   -.290E-01 -.527E-01 0.855E-02
   -.114E+03 0.164E+03 -.195E+04   0.116E+03 -.166E+03 0.196E+04   -.577E+00 0.430E+00 -.177E+01   0.376E-01 -.512E-01 0.371E-01
   -.197E+03 0.105E+03 0.176E+04   0.199E+03 -.105E+03 -.176E+04   -.301E+00 0.815E+00 0.290E+01   0.305E-01 -.143E-01 0.117E-01
   -.716E+02 0.727E+02 0.475E+03   0.728E+02 -.734E+02 -.477E+03   -.139E+01 0.955E+00 0.206E+01   -.317E-01 -.378E-01 0.193E-01
   -.428E+01 -.209E+03 0.143E+04   0.535E+01 0.210E+03 -.144E+04   -.471E+00 -.769E-01 0.291E+01   -.160E-01 0.350E-01 0.305E-01
   -.135E+03 0.338E+01 0.395E+02   0.137E+03 -.403E+01 -.413E+02   -.193E+01 0.468E+00 0.189E+01   0.225E-01 0.282E-01 -.440E-02
   -.205E+03 -.549E+02 -.105E+04   0.207E+03 0.560E+02 0.105E+04   -.138E+01 -.410E+00 0.152E+01   0.177E-01 0.499E-02 0.540E-01
   -.154E+02 0.188E+03 -.212E+04   0.159E+02 -.189E+03 0.212E+04   -.582E-01 0.267E+00 -.136E+01   -.132E-03 0.945E-03 0.443E-01
   0.116E+03 0.862E+02 0.220E+04   -.116E+03 -.869E+02 -.221E+04   0.908E+00 0.243E+00 0.333E+01   0.245E-01 -.454E-01 -.520E-01
   -.143E+03 0.926E+02 0.694E+03   0.143E+03 -.941E+02 -.691E+03   -.746E+00 0.134E+01 -.706E+00   0.498E-01 -.191E-01 0.599E-02
   -.178E+03 0.544E+01 -.278E+03   0.179E+03 -.554E+01 0.274E+03   -.119E+01 0.943E+00 0.464E+00   -.379E-01 -.183E-02 0.827E-01
   -.821E+02 -.138E+03 -.185E+04   0.838E+02 0.139E+03 0.185E+04   -.194E+01 -.990E+00 -.180E+01   -.343E-01 0.155E+00 0.206E-01
   0.127E+03 -.172E+03 0.195E+04   -.128E+03 0.175E+03 -.195E+04   0.875E+00 -.155E+01 0.317E+01   -.157E-01 0.363E-01 -.176E-01
   0.562E+02 -.181E+03 0.621E+03   -.573E+02 0.182E+03 -.619E+03   0.320E+00 -.184E+01 0.646E+00   -.146E-01 0.954E-02 0.689E-01
   0.122E+03 -.155E+03 -.465E+03   -.123E+03 0.158E+03 0.464E+03   0.126E+01 -.214E+01 0.669E+00   -.768E-01 0.830E-01 -.103E-02
   0.250E+02 -.276E+03 -.188E+04   -.254E+02 0.280E+03 0.188E+04   0.248E+00 -.238E+01 -.396E+01   -.863E-01 -.847E-01 0.897E-01
   -.322E+03 0.375E+02 0.163E+04   0.325E+03 -.367E+02 -.163E+04   -.120E+01 0.180E+00 0.190E+01   -.694E-02 -.592E-01 0.705E-02
   0.119E+03 -.135E+03 0.435E+03   -.120E+03 0.138E+03 -.435E+03   0.532E+00 -.249E+01 0.675E+00   -.956E-02 -.853E-02 0.106E-01
   0.650E+01 -.184E+03 -.944E+03   -.663E+01 0.187E+03 0.944E+03   0.166E+00 -.295E+01 -.601E+00   -.119E-01 0.222E-01 0.394E-02
   0.683E+02 -.303E+03 -.209E+04   -.680E+02 0.306E+03 0.209E+04   -.446E+00 -.967E+00 -.129E+01   0.267E-01 0.689E-02 0.615E-01
   0.415E+02 -.966E+01 0.100E+04   -.416E+02 0.946E+01 -.996E+03   0.503E+00 0.108E+01 -.160E+01   0.992E-02 0.379E-01 0.226E-01
   0.526E+01 -.153E+03 -.105E+03   -.515E+01 0.155E+03 0.106E+03   -.224E+00 -.243E+01 -.137E+01   0.268E-01 -.194E-01 0.241E-01
   -.408E+02 -.997E+02 -.136E+04   0.409E+02 0.102E+03 0.137E+04   -.614E-01 -.114E+01 -.143E+01   0.418E-01 -.773E-01 0.428E-01
   0.149E+03 -.591E+02 0.229E+04   -.150E+03 0.605E+02 -.230E+04   0.901E+00 -.809E+00 0.404E+01   0.717E-02 0.170E-01 -.725E-01
   0.776E+02 -.190E+03 0.230E+04   -.774E+02 0.192E+03 -.231E+04   -.360E+00 -.139E+01 0.142E+01   -.494E-01 0.312E-01 -.726E-01
   0.732E+02 0.104E+03 0.103E+04   -.741E+02 -.106E+03 -.103E+04   0.189E-01 0.226E+01 -.158E+01   -.494E-02 -.488E-02 0.715E-01
   0.126E+03 0.941E+02 -.868E+00   -.128E+03 -.952E+02 0.997E+00   0.248E+01 0.127E+01 0.187E+00   0.670E-02 -.284E-01 0.162E-01
   0.941E+02 0.231E+03 -.120E+04   -.963E+02 -.233E+03 0.120E+04   0.202E+01 0.899E+00 -.588E+00   -.366E-01 -.356E-01 0.215E-01
   -.116E+02 0.189E+03 -.226E+04   0.117E+02 -.190E+03 0.227E+04   0.135E+00 0.877E+00 -.326E+01   -.329E-01 -.273E-01 0.514E-01
   0.407E+02 0.559E+02 -.312E+03   -.417E+02 -.570E+02 0.310E+03   0.523E+00 0.122E+01 0.161E+01   0.467E-01 0.455E-01 -.544E-01
   0.141E+03 0.573E+02 -.170E+04   -.142E+03 -.587E+02 0.170E+04   0.320E+00 0.548E+00 -.758E-01   0.560E-01 -.103E-01 0.602E-01
   -.201E+03 0.101E+03 0.201E+04   0.204E+03 -.102E+03 -.202E+04   -.187E+01 -.415E+00 0.170E+01   0.289E-01 0.634E-01 -.120E-01
   0.125E+03 -.107E+03 0.852E+03   -.128E+03 0.106E+03 -.853E+03   0.251E+01 0.516E+00 0.134E+01   0.259E-01 0.535E-01 0.336E-01
   0.299E+03 0.128E+03 0.195E+04   -.302E+03 -.129E+03 -.195E+04   0.153E+01 0.682E+00 0.148E+01   -.313E-01 -.624E-01 -.829E-02
   0.557E+02 0.104E+03 0.294E+03   -.553E+02 -.105E+03 -.292E+03   0.260E+00 0.121E+01 -.129E+01   -.343E-01 -.272E-01 0.643E-02
   0.197E+03 0.158E+03 -.871E+03   -.199E+03 -.159E+03 0.870E+03   0.433E+00 0.600E+00 -.806E+00   0.100E+00 -.182E-01 0.635E-01
   -.175E+02 0.161E+02 -.408E+02   0.512E-12 -.156E-11 -.864E-11   0.176E+02 -.158E+02 0.385E+02   -.126E-01 -.239E+00 0.231E+01

 POSITION                                       TOTAL-FORCE (eV/Angst)
      6.45801      7.08167      1.94264        -0.557987      0.541738      2.108685
      7.43572      5.66537      4.56814         0.005228      0.107828      0.141272
      8.41343      4.24907      7.19364        -0.147135      0.090414     -0.400962
      8.70050      3.32319      9.45925        -1.365738      0.666107      0.655786
      6.20328      1.59184      1.47594        -0.097956      0.465296     -0.988870
      7.76163      0.32617      2.81780         1.474979     -1.042431      2.243250
      3.21062      6.91868      8.06881        -0.396215     -0.092591     -0.548311
     12.31264      8.33497      5.44331         0.464823      0.170863     -0.159150
      2.55881      2.99577      3.69297         0.137365      0.356403      1.314193
      3.53652      1.57947      6.31847        -0.001531     -0.003818     -0.254393
      4.22938      0.43184      8.61419         0.423419     -0.355283      0.903288
     11.64324      4.43818      1.62756        -0.650996     -0.262079     -0.548765
      0.51382      1.09100      8.43180        -1.077634     -1.238684     -1.883966
      7.78903      5.26025      0.99318         0.821113     -0.590392     -1.059671
      8.63813      3.92359      3.18079        -0.177261      0.225446      0.708015
      9.61584      2.50729      5.80630        -0.077120     -0.135467      0.027001
      3.43531      6.59319      4.05596         0.494044      0.121349      1.286301
      4.41302      5.17689      6.68146         0.092871      0.114023     -1.095788
      5.14332      3.87106      8.84245        -0.373829     -0.406126      0.617238
      2.79931      6.77955      1.82364        -0.475902      1.052216      0.068594
      3.76121      1.25399      2.30563        -0.030144     -0.072513      0.285528
      8.31222      9.26279      4.93113        -0.013043     -0.494470     -0.223247
      9.19756      8.00702      7.26587        -0.085560     -1.074573      0.764594
     10.92758      6.43518      7.83833        -0.203867      0.697824     -0.105944
      1.60082      3.27442      8.89027         1.668348      1.526761      0.583922
      9.01057      7.42190      1.64665         0.012650     -0.276008     -1.089504
      9.84053      6.03956      3.87447        -0.083018     -0.006535      0.259102
     10.81824      4.62327      6.49997        -0.064425     -1.369223     -0.952046
      1.11776      0.83602      3.01079        -0.930006     -0.333258     -0.693401
      4.63771      8.70917      4.74963        -0.101980     -0.965302      0.816866
      5.61542      7.29287      7.37514         0.787320      0.024842     -1.542829
      6.25572      5.81675      9.76570         0.070578      0.417862      1.183964
      4.74314      5.02359      1.12930         0.295296     -0.803712      0.472250
      4.96362      3.36996      2.99930         0.088590      0.045478      1.615894
      5.94133      1.95367      5.62480         0.370220      0.141821     -0.100897
      6.89051      0.68916      7.96758         0.262214      0.146905      0.755769
      1.57981      2.47018      6.99321        -0.503191     -0.185609     -2.659129
      2.46382      1.32270      9.17159         1.177424     -1.032143      2.234961
      9.70412      5.30277      1.74220         1.088774      0.005176     -0.483839
     10.68183      3.88647      4.36771        -0.253555      0.268655      0.279255
      4.50130      7.97237      2.61737         0.581881      0.569803     -0.892995
      5.47901      6.55607      5.24287         0.193934     -0.150603      0.107454
      6.45673      5.13978      7.86838         1.127486      0.737392     -2.780321
      6.80132      3.88204     10.14255         0.452852     -1.276305      2.280945
      4.61761      2.82767      1.03021         0.224145     -0.489433     -3.192265
      5.80492      1.21687      3.49254        -0.799059     -0.170911      2.378046
     10.35593      9.22568      6.11804         0.365470      0.845301     -3.063004
     11.42960      8.29137      8.45582        -0.317541     -0.088479      2.577994
      7.43033      8.81626      1.30182        -0.202989      0.731557     -1.869860
      8.17302      7.52069      3.50880        -0.781702     -0.344436      2.867884
      9.15074      6.10439      6.13430        -0.143109      0.161031     -0.201544
     10.12845      4.68809      8.75980        -0.250482      1.877504      0.202539
      8.10346      2.22934      2.07664         2.060482      0.921588     -1.887891
      9.47664      0.76519      4.38397        -0.478177      0.183295      0.323298
      3.94792      8.77399      7.00947         0.020580      0.097730     -0.654846
      4.85716      7.20093      9.28190        -0.168070      2.182029      3.164746
      3.29611      4.85108      2.63363         0.441540      0.927260      3.438198
      4.27382      3.43479      5.25914        -0.083024      0.019803     -0.201077
      5.25153      2.01849      7.88464         0.103096      1.139621     -0.423476
      2.82301      5.45780      0.27376        -0.616963      0.553003     -3.526214
      6.15290      6.14505      0.14529        -0.228987      0.449600     -4.120485
      6.64193      4.82628      2.62550        -0.890580      0.313772      1.843410
      7.61964      3.40999      5.25100        -0.073096      0.116437      0.332078
      8.59735      1.99369      7.87651        -0.180597     -0.862721     -0.795795
     10.30994      2.25017     10.10732         0.218030     -0.640350      3.577265
      2.41682      6.07959      6.12617        -0.368161      0.096251     -0.339576
      3.26966      4.76889      8.45231        -0.502863     -0.892569      1.663631
     10.29227      9.01809      1.21942         0.773325     -1.621542     -3.056678
     11.51884      7.49589      3.50067         0.000953      0.078303      0.229777
      1.93211      2.31938      1.83499        -1.670216     -0.663922     -2.519655
      2.74272      0.74039      4.37584         0.637435     -0.401144      1.051123
      7.29374      8.74919      7.00134        -1.512757     -0.845654     -1.047722
    total drift:                                0.117786      0.000640      0.004701

  FREE ENERGIE OF THE ION-ELECTRON SYSTEM (eV)
  free  energy   TOTEN  =      -352.17257348 eV

  energy  without entropy=     -351.23186897  energy(sigma->0) =     -351.70222123