 vasp.5.4.4.18Apr17-6-g9f103f2a35 (build Aug 13 2019 17:33:20) gamma-only

 executed on             LinuxIFC date 2020.05.12  14:41:58

 INCAR:
 POTCAR:    PAW_PBE Ni_pv 06Sep2000
 POTCAR:    PAW_PBE S 06Sep2000
 POTCAR:    PAW_PBE Ni_pv 06Sep2000
   VRHFIN =Ni:

   TITEL  = PAW_PBE Ni_pv 06Sep2000
   POMASS =   58.690; ZVAL   =   16.000    mass and valenz
   ENMAX  =  367.986; ENMIN  =  275.989 eV

 POTCAR:    PAW_PBE S 06Sep2000
   VRHFIN =S : s2p4

   TITEL  = PAW_PBE S 06Sep2000
   POMASS =   32.066; ZVAL   =    6.000    mass and valenz
   ENMAX  =  258.689; ENMIN  =  194.016 eV

 Optimization of the real space projectors (new method)

 maximal supplied QI-value         = 18.90
 optimisation between [QCUT,QGAM] = [ 10.77, 21.73] = [ 32.49,132.25] Ry
 Optimized for a Real-space Cutoff    1.38 Angstroem

   l    n(q)    QCUT    max X(q) W(low)/X(q) W(high)/X(q)  e(spline)
   1      8    10.771     2.836    0.40E-04    0.29E-04    0.12E-06
   1      8    10.771     4.023    0.10E-03    0.48E-04    0.29E-06
   2      8    10.771    73.368    0.42E-03    0.97E-04    0.44E-06
   2      8    10.771    69.010    0.42E-03    0.99E-04    0.45E-06
   0      9    10.771    54.797    0.10E-03    0.56E-04    0.74E-07
   0      9    10.771    24.266    0.89E-04    0.49E-04    0.67E-07
 Optimization of the real space projectors (new method)

 maximal supplied QI-value         = 19.84
 optimisation between [QCUT,QGAM] = [ 10.71, 21.63] = [ 32.15,130.99] Ry
 Optimized for a Real-space Cutoff    1.19 Angstroem

   l    n(q)    QCUT    max X(q) W(low)/X(q) W(high)/X(q)  e(spline)
   0      8    10.715   187.594    0.41E-03    0.53E-04    0.66E-07
   0      8    10.715   164.243    0.41E-03    0.53E-04    0.65E-07
   1      7    10.715    67.533    0.19E-03    0.59E-03    0.68E-07
   1      7    10.715    50.729    0.19E-03    0.58E-03    0.67E-07
  PAW_PBE Ni_pv 06Sep2000               :
  PAW_PBE S 06Sep2000                   :

 POSCAR: Type_036 Type_136
  positions in cartesian coordinates
 exchange correlation table for  LEXCH =        8
   RHO(1)=    0.500       N(1)  =     2000
   RHO(2)=  100.500       N(2)  =     4000

 ion  position               nearest neighbor table
   1  0.374  0.751  0.095-  61 2.04  49 2.11  41 2.25  62 2.36  50 2.36  33 2.43  26 2.45  14 2.53

   2  0.525  0.601  0.223-  42 2.25  50 2.26  62 2.26  63 2.36  51 2.36  15 2.53  27 2.53
   3  0.675  0.451  0.351-  43 2.25  63 2.26  51 2.26  64 2.36  52 2.36   4 2.47  28 2.53  16 2.53

[...]

  16  0.860  0.266  0.283-  54 2.25  63 2.26  40 2.26  37 2.36  64 2.36   3 2.53  28 2.53
  17  0.093  0.700  0.198-  57 2.25  41 2.26  68 2.26  42 2.36  66 2.36  30 2.53   8 2.53
  18  0.243  0.549  0.326-  67 2.11  58 2.25  66 2.26  42 2.26  43 2.36   7 2.53  31 2.53
  19  0.370  0.418  0.436-  43 2.02  44 2.11  67 2.11  59 2.19
  20  0.976  0.797  0.089-  45 2.02  68 2.04  60 2.08  41 2.11  33 2.40
  21  0.341  0.112  0.131-  70 2.05  49 2.10  46 2.14  69 2.42
  22  0.476  0.983  0.241-  50 2.25  70 2.26  46 2.26  47 2.36  71 2.36  35 2.53  10 2.53
  23  0.627  0.833  0.369-  48 2.09  72 2.14  51 2.25  71 2.26  47 2.26  24 2.37
  24  0.738  0.701  0.462-  52 2.05  72 2.05  48 2.07  23 2.37
  25  0.039  0.345  0.434-  37 2.05  65 2.09  52 2.14  38 2.17  67 2.32  13 2.47
  26  0.609  0.770  0.080-  50 2.02  49 2.10  39 2.12   1 2.45  14 2.48
  27  0.749  0.641  0.189-  68 2.25  50 2.26  39 2.26  40 2.36  51 2.36  15 2.53   2 2.53
  28  0.899  0.491  0.317-  66 2.25  51 2.26  40 2.26  52 2.36  37 2.36   3 2.53  16 2.53
  29  0.982  0.074  0.104-  53 2.07  45 2.07  69 2.22  41 2.36  54 2.36   6 2.43
  30  0.133  0.924  0.232-  70 2.25  54 2.26  41 2.26  55 2.36  42 2.36   8 2.53  17 2.53
  31  0.283  0.774  0.360-  56 2.04  71 2.25  55 2.26  42 2.26  43 2.36   7 2.53  18 2.53
  32  0.445  0.652  0.468-  43 2.02  44 2.09  56 2.11  72 2.13
  33  0.209  0.636  0.064-  57 2.06  61 2.06  60 2.12  41 2.38  20 2.40   1 2.43
  34  0.351  0.389  0.163-  58 2.04  57 2.14  62 2.19   5 2.37   9 2.48  46 2.60
  35  0.516  0.207  0.275-  63 2.25  58 2.26  46 2.26  47 2.36  59 2.36  10 2.53  22 2.53
  36  0.659  0.068  0.389-  47 2.04  59 2.14  64 2.18  48 2.20
  37  0.064  0.262  0.341-  25 2.05  10 2.25  13 2.26  16 2.36  28 2.36  38 2.58
  38  0.202  0.136  0.443-  11 2.11  13 2.11  25 2.17  37 2.58  65 2.66
  39  0.763  0.563  0.085-  12 2.08  14 2.10  26 2.12  15 2.26  27 2.26
  40  0.914  0.412  0.213-   9 2.25  16 2.26  28 2.26  27 2.36  15 2.36  12 2.64
  41  0.147  0.846  0.128-  20 2.11   1 2.25  17 2.26  30 2.26  29 2.36  33 2.38
  42  0.297  0.696  0.256-   2 2.25  31 2.26  18 2.26  30 2.36  17 2.36
  43  0.447  0.545  0.384-  19 2.02  32 2.02   3 2.25  31 2.36  18 2.36  44 2.55  56 2.78
  44  0.531  0.439  0.496-  32 2.09   4 2.10  19 2.11  43 2.55
  45  0.857  0.987  0.052-  20 2.02  29 2.07   6 2.09  53 2.53
  46  0.530  0.129  0.171-   5 2.09  21 2.14  22 2.26  35 2.26   6 2.37  34 2.60
  47  0.680  0.979  0.299-  36 2.04   8 2.25  23 2.26  35 2.36  22 2.36
  48  0.799  0.855  0.419-  24 2.07  23 2.09  36 2.20   7 2.52
  49  0.413  0.936  0.068-  26 2.10  21 2.10   1 2.11  50 2.58
  50  0.528  0.798  0.171-  26 2.02  22 2.25  27 2.26   2 2.26   1 2.36  49 2.58
  51  0.678  0.648  0.299-  23 2.25  28 2.26   3 2.26  27 2.36   2 2.36
  52  0.829  0.497  0.427-  24 2.05   4 2.08  25 2.14  28 2.36   3 2.36
  53  0.786  0.235  0.099-   5 2.04  15 2.06  29 2.07   6 2.30  45 2.53
  54  0.911  0.081  0.214-   6 2.12  16 2.25   8 2.26  30 2.26  29 2.36
  55  0.062  0.931  0.342-  13 2.25  31 2.26   7 2.26  30 2.36   8 2.36
  56  0.224  0.740  0.452-  31 2.04   7 2.07  32 2.11  43 2.78
  57  0.145  0.515  0.129-  12 2.05  33 2.06  34 2.14  17 2.25   9 2.26  60 2.44
  58  0.295  0.364  0.257-  34 2.04  18 2.25  10 2.26  35 2.26   9 2.36
  59  0.445  0.214  0.385-  11 2.09  36 2.14  19 2.19  35 2.36  10 2.36
  60  0.017  0.620  0.030-  20 2.08  33 2.12  12 2.21  57 2.44
  61  0.376  0.649  0.009-   1 2.04  14 2.06  33 2.06
  62  0.477  0.512  0.128-  14 2.04  34 2.19   5 2.23  15 2.26   2 2.26   1 2.36
  63  0.628  0.362  0.256-  35 2.25   3 2.26  16 2.26   2 2.36  15 2.36
  64  0.778  0.212  0.384-   4 2.08  36 2.18  13 2.26  16 2.36   3 2.36
  65  0.942  0.237  0.493-  13 2.05   4 2.05  25 2.09  38 2.66
  66  0.011  0.645  0.299-  28 2.25   7 2.26  18 2.26   8 2.36  17 2.36
  67  0.152  0.504  0.412-  18 2.11  19 2.11   7 2.20  25 2.32
  68  0.861  0.795  0.171-  20 2.04  27 2.25  17 2.26   8 2.26   6 2.29
  69  0.095  0.227  0.099-   9 2.04  29 2.22  12 2.22  21 2.42
  70  0.244  0.079  0.214-  21 2.05  30 2.25  22 2.26  10 2.26   9 2.36
  71  0.395  0.928  0.342-  11 2.03  31 2.25  23 2.26  10 2.36  22 2.36  72 2.78
  72  0.525  0.820  0.459-  24 2.05  32 2.13  23 2.14  11 2.16  71 2.78

  LATTYP: Found a base centered orthorhombic cell.
 ALAT       =    11.4527836704
 B/A-ratio  =     1.4485816945
 C/A-ratio  =     1.7908432109

  Lattice vectors:

 A1 = (  10.0797329849,   0.0000000000,   0.0000000000)
 A2 = (  -3.5732980427,  -9.4251025535,   0.0000000000)
 A3 = (   0.0000000000,   0.0000000000, -20.5101398818)

Analysis of symmetry for initial positions (statically):
 Subroutine PRICEL returns:
 Original cell was already a primitive cell.

 Routine SETGRP: Setting up the symmetry group for a
 base centered orthorhombic supercell.

 Subroutine GETGRP returns: Found  1 space group operations
 (whereof  1 operations were pure point group operations)
 out of a pool of  8 trial point group operations.

The static configuration has the point symmetry C_1 .

Analysis of symmetry for dynamics (positions and initial velocities):
 Subroutine PRICEL returns:
 Original cell was already a primitive cell.

 Routine SETGRP: Setting up the symmetry group for a
 base centered orthorhombic supercell.

 Subroutine GETGRP returns: Found  1 space group operations
 (whereof  1 operations were pure point group operations)
 out of a pool of  8 trial point group operations.

The dynamic configuration has the point symmetry C_1 .

 Subroutine INISYM returns: Found  1 space group operations
 (whereof  1 operations are pure point group operations),
 and found     1 'primitive' translations

 KPOINTS: gamma-point-only calculation. no periodi

Automatic generation of k-mesh.
Space group operators:
 irot       det(A)        alpha          n_x          n_y          n_z        tau_x        tau_y        tau_z
    1     1.000000     0.000000     1.000000     0.000000     0.000000     0.000000     0.000000     0.000000

 Subroutine IBZKPT returns following result:

 Found      1 irreducible k-points:

 Following reciprocal coordinates:
            Coordinates               Weight
  0.000000  0.000000  0.000000      1.000000

 Following cartesian coordinates:
            Coordinates               Weight
  0.000000  0.000000  0.000000      1.000000

 SYSTEM =  "Millerite NiS"
 POSCAR =  Type_036 Type_136

 Startparameter for this run:
   NWRITE =      2    write-flag & timer
   PREC   = normal    normal or accurate (medium, high low for compatibility)
   ISTART =      0    job   : 0-new  1-cont  2-samecut
   ICHARG =      2    charge: 1-file 2-atom 10-const
   ISPIN  =      1    spin polarized calculation?
   LNONCOLLINEAR =      F non collinear calculations
   LSORBIT =      F    spin-orbit coupling
   INIWAV =      1    electr: 0-lowe 1-rand  2-diag
   LASPH  =      F    aspherical Exc in radial PAW
   METAGGA=      F    non-selfconsistent MetaGGA calc.

 Electronic Relaxation 1
   ENCUT  =  450.0 eV  33.07 Ry    5.75 a.u.  17.43 17.43 35.48*2*pi/ulx,y,z
   ENINI  =  450.0     initial cutoff
   ENAUG  =  703.4 eV  augmentation charge cutoff
   NELM   =    100;   NELMIN=  2; NELMDL= -5     # of ELM steps
   EDIFF  = 0.1E-03   stopping-criterion for ELM
   LREAL  =      T    real-space projection
   NLSPLINE    = F    spline interpolate recip. space projectors
   LCOMPAT=      F    compatible to vasp.4.4
   GGA_COMPAT  = T    GGA compatible to vasp.4.4-vasp.4.6
   LMAXPAW     = -100 max onsite density
   LMAXMIX     =    2 max onsite mixed and CHGCAR
   VOSKOWN=      0    Vosko Wilk Nusair interpolation
   ROPT   =   -0.00050  -0.00050
 Ionic relaxation
   EDIFFG = 0.1E-02   stopping-criterion for IOM
   NSW    =      0    number of steps for IOM
   NBLOCK =      1;   KBLOCK =      1    inner block; outer block
   IBRION =     -1    ionic relax: 0-MD 1-quasi-New 2-CG
   NFREE  =      0    steps in history (QN), initial steepest desc. (CG)
   ISIF   =      2    stress and relaxation
   IWAVPR =     10    prediction:  0-non 1-charg 2-wave 3-comb
   ISYM   =      2    0-nonsym 1-usesym 2-fastsym
   LCORR  =      T    Harris-Foulkes like correction to forces

   POTIM  = 0.5000    time-step for ionic-motion
   TEIN   =    0.0    initial temperature
   TEBEG  =    0.0;   TEEND  =   0.0 temperature during run
   SMASS  =  -3.00    Nose mass-parameter (am)
   estimated Nose-frequenzy (Omega)   =  0.10E-29 period in steps =****** mass=  -0.232E-26a.u.
   SCALEE = 1.0000    scale energy and forces
   NPACO  =    256;   APACO  = 16.0  distance and # of slots for P.C.
   PSTRESS=    0.0 pullay stress

  Mass of Ions in am
   POMASS =  58.69 32.07
  Ionic Valenz
   ZVAL   =  16.00  6.00
[...]
  Fock        0.00000     0.00000     0.00000     0.00000     0.00000     0.00000
  Total      82.49049    70.67834   100.47242     0.00006     4.74838    -1.36131
  in kB      67.82826    58.11566    82.61402     0.00005     3.90439    -1.11935

 VOLUME and BASIS-vectors are now :
  energy-cutoff  :      450.00
  volume of cell :     1948.51
      direct lattice vectors                 reciprocal lattice vectors
    10.079732985  0.000000000  0.000000000     0.099208977 -0.037612667  0.000000000
     3.573298043  9.425102554  0.000000000     0.000000000  0.106099641  0.000000000
     0.000000000  0.000000000 20.510139882     0.000000000  0.000000000  0.048756372

  length of vectors
    10.079732985 10.079732985 20.510139882     0.106099641  0.106099641  0.048756372

 FORCES acting on ions
    electron-ion (+dipol)            ewald-force                    non-local-force                 convergence-correction
   0.194E+03 -.679E+03 0.383E+04   -.195E+03 0.684E+03 -.383E+04   0.140E+01 -.349E+01 0.318E+01   0.149E-01 -.156E-01 -.192E-01
   0.359E+03 -.255E+03 0.415E+03   -.359E+03 0.256E+03 -.414E+03   0.559E+00 -.503E+00 -.925E+00   0.232E-02 0.309E-02 -.139E-01
   0.376E+03 -.109E+03 -.229E+04   -.377E+03 0.110E+03 0.229E+04   0.138E+01 -.982E+00 0.143E+01   -.189E-01 0.282E-01 -.855E-01
   0.228E+03 0.335E+03 -.512E+04   -.233E+03 -.335E+03 0.513E+04   0.417E+01 -.177E+00 -.393E+01   0.145E-01 -.217E-01 -.134E-01
   0.286E+03 0.509E+03 0.436E+04   -.288E+03 -.509E+03 -.436E+04   0.179E+01 -.230E-01 -.145E+01   -.997E-03 0.831E-02 -.151E-01
   0.568E+03 0.649E+01 0.285E+04   -.573E+03 -.749E+01 -.284E+04   0.308E+01 0.151E+01 -.945E+00   0.155E-01 -.131E-01 -.174E-01
   0.559E+03 -.343E+03 -.397E+04   -.562E+03 0.344E+03 0.397E+04   0.170E+01 -.725E+00 -.135E+01   0.269E-01 -.857E-02 -.385E-01
   0.379E+03 -.163E+03 -.659E+03   -.379E+03 0.164E+03 0.659E+03   0.644E+00 -.538E+00 0.808E-01   -.936E-03 -.989E-02 -.201E-01
   0.282E+03 0.134E+03 0.178E+04   -.281E+03 -.136E+03 -.178E+04   0.220E+00 0.152E+01 -.157E+01   0.542E-02 0.444E-02 -.198E-01
   0.480E+03 -.129E+03 -.149E+04   -.481E+03 0.130E+03 0.149E+04   0.939E+00 -.101E+01 0.197E+01   -.164E-01 0.236E-02 -.521E-02
   0.228E+03 -.208E+03 -.469E+04   -.227E+03 0.209E+03 0.470E+04   -.909E+00 -.935E+00 -.272E+01   -.152E-01 0.673E-02 -.167E-01
   0.101E+03 0.325E+03 0.455E+04   -.104E+03 -.326E+03 -.456E+04   0.296E+01 0.108E+01 0.485E+01   -.828E-02 0.476E-02 -.113E-01
   0.152E+03 0.801E+03 -.388E+04   -.155E+03 -.807E+03 0.388E+04   0.130E+01 0.499E+01 0.527E+00   0.405E-01 -.100E-01 -.116E-01
   -.184E+03 0.533E+03 0.555E+04   0.183E+03 -.531E+03 -.555E+04   0.192E+01 -.303E+01 0.210E+01   0.105E-01 0.291E-02 -.211E-01
   -.321E+03 0.453E+03 0.257E+04   0.323E+03 -.453E+03 -.257E+04   -.167E+01 0.950E+00 -.222E+01   0.615E-02 0.195E-01 -.230E-01
   -.873E+02 0.580E+03 -.474E+03   0.868E+02 -.581E+03 0.473E+03   0.525E+00 0.585E+00 0.137E+01   0.416E-02 0.129E-02 -.349E-01
   0.983E+01 0.376E+03 0.126E+04   -.105E+02 -.377E+03 -.125E+04   0.638E+00 0.909E+00 -.177E+01   -.515E-02 -.505E-02 -.158E-02
   0.785E+02 0.348E+03 -.150E+04   -.786E+02 -.350E+03 0.150E+04   0.303E+00 0.203E+01 0.302E+01   -.338E-02 0.209E-01 -.134E-01
   0.355E+03 0.456E+03 -.462E+04   -.357E+03 -.461E+03 0.463E+04   0.155E+01 0.436E+01 -.840E+00   -.288E-01 0.166E-01 -.285E-01
   0.415E+03 -.204E+03 0.459E+04   -.419E+03 0.202E+03 -.460E+04   0.391E+01 0.662E+00 0.658E+01   -.108E-01 0.107E-01 -.127E-01
   0.232E+02 0.110E+03 0.400E+04   -.227E+02 -.112E+03 -.401E+04   -.824E+00 0.333E+01 0.354E+01   -.508E-02 0.100E-02 -.153E-01
   -.316E+02 0.490E+03 0.600E+03   0.310E+02 -.491E+03 -.598E+03   0.563E+00 0.149E+01 -.130E+01   -.980E-03 -.217E-01 -.223E-01
   -.958E+02 0.193E+03 -.245E+04   0.952E+02 -.197E+03 0.244E+04   -.352E+00 0.427E+01 0.179E+01   -.560E-02 0.255E-01 -.537E-01
   -.526E+03 -.189E+02 -.518E+04   0.528E+03 0.189E+02 0.518E+04   -.166E+01 -.419E+00 0.178E+01   0.157E-01 0.236E-01 -.104E-01
   -.586E+03 -.265E+03 -.458E+04   0.590E+03 0.271E+03 0.458E+04   -.234E+01 -.367E+01 -.275E+01   0.458E-01 -.188E-01 -.119E-01
   -.652E+03 -.768E+03 0.474E+04   0.652E+03 0.769E+03 -.474E+04   0.115E+01 -.790E+00 0.194E+01   0.391E-02 -.207E-01 -.111E-01
   -.463E+03 -.364E+03 0.147E+04   0.463E+03 0.364E+03 -.147E+04   -.386E+00 -.441E+00 -.159E+01   0.249E-02 0.506E-02 -.153E-01
   -.507E+03 -.289E+03 -.148E+04   0.507E+03 0.290E+03 0.148E+04   0.437E-01 -.125E+01 0.164E+01   0.192E-01 0.131E-01 -.393E-01
   -.595E+03 -.307E+03 0.427E+04   0.603E+03 0.308E+03 -.427E+04   -.615E+01 -.170E+01 0.220E+01   -.947E-02 -.237E-02 -.102E-01
   -.450E+03 -.380E+03 0.510E+03   0.450E+03 0.382E+03 -.510E+03   0.793E-01 -.136E+01 0.108E+00   -.283E-02 -.371E-02 -.115E-01
   -.246E+03 -.472E+03 -.253E+04   0.247E+03 0.475E+03 0.253E+04   -.997E+00 -.302E+01 0.636E+00   -.177E-01 -.110E-01 -.236E-01
   0.535E+02 -.340E+03 -.515E+04   -.490E+02 0.343E+03 0.515E+04   -.437E+01 -.191E+01 -.341E+01   -.518E-01 0.254E-01 -.283E-01
   0.214E+02 0.334E+03 0.501E+04   -.185E+02 -.335E+03 -.502E+04   -.267E+01 0.138E+01 0.784E+01   0.218E-02 -.389E-02 -.132E-01
   0.435E+02 0.216E+01 0.256E+04   -.437E+02 -.244E+01 -.256E+04   0.277E+00 -.395E+00 -.170E+00   -.560E-02 0.119E-01 -.974E-02
   -.393E+03 -.176E+03 -.507E+03   0.393E+03 0.177E+03 0.506E+03   -.597E+00 -.136E+01 0.981E+00   0.843E-02 0.842E-02 -.208E-01
   -.500E+03 -.124E+03 -.377E+04   0.502E+03 0.126E+03 0.377E+04   -.151E+01 -.130E+01 -.157E+01   -.118E-01 -.200E-01 -.250E-01
   -.116E+03 0.894E+02 -.625E+03   0.117E+03 -.891E+02 0.620E+03   -.224E+01 -.243E+00 0.174E+01   0.720E-02 0.488E-02 0.746E-03
   -.892E+02 0.112E+03 -.186E+04   0.902E+02 -.113E+03 0.187E+04   -.309E+00 0.374E+00 -.141E+01   0.252E-02 0.440E-02 0.328E-03
   -.224E+03 0.507E+02 0.182E+04   0.225E+03 -.506E+02 -.183E+04   -.141E+01 -.168E+00 0.258E+01   -.969E-02 0.355E-02 -.689E-02
   -.127E+03 0.780E+02 0.451E+03   0.127E+03 -.782E+02 -.451E+03   -.915E+00 0.601E+00 0.544E+00   0.111E-02 0.737E-02 -.803E-02
   -.218E+03 -.231E+03 0.129E+04   0.221E+03 0.233E+03 -.129E+04   -.117E+01 -.174E+01 0.455E+00   -.370E-02 0.546E-02 -.549E-02
   -.118E+03 -.198E+02 0.720E+02   0.120E+03 0.190E+02 -.737E+02   -.183E+01 0.609E+00 0.156E+01   -.151E-02 -.279E-02 0.381E-02
   -.728E+02 0.370E+02 -.974E+03   0.751E+02 -.372E+02 0.969E+03   -.904E+00 0.207E+00 0.164E+01   -.146E-01 0.914E-02 -.186E-01
   0.778E+02 0.183E+03 -.214E+04   -.772E+02 -.186E+03 0.214E+04   -.607E+00 0.113E+01 -.181E+01   -.342E-01 0.874E-02 0.134E-01
   0.202E+03 -.129E+03 0.223E+04   -.205E+03 0.130E+03 -.224E+04   0.822E+00 0.284E+00 0.274E+01   0.289E-02 0.192E-02 -.169E-02
   -.613E+02 0.160E+03 0.980E+03   0.628E+02 -.161E+03 -.980E+03   -.101E+01 0.137E+01 0.182E+00   0.253E-03 -.377E-02 -.113E-01
   -.143E+03 0.770E+02 -.252E+03   0.144E+03 -.780E+02 0.249E+03   -.172E+01 0.386E+00 0.442E+00   0.409E-02 -.710E-02 -.196E-02
   -.364E+03 -.859E+02 -.164E+04   0.367E+03 0.860E+02 0.165E+04   -.263E+00 -.465E+00 -.109E+01   0.933E-02 0.128E-01 -.180E-01
   -.390E+01 -.344E+03 0.196E+04   0.356E+01 0.346E+03 -.197E+04   0.800E+00 -.115E+01 0.258E+01   0.258E-02 -.114E-02 -.529E-02
   0.201E+02 -.246E+03 0.673E+03   -.213E+02 0.247E+03 -.670E+03   0.756E+00 -.221E+01 -.614E+00   0.453E-02 -.711E-02 -.847E-02
   -.898E+01 -.188E+03 -.409E+03   0.900E+01 0.190E+03 0.410E+03   -.183E+00 -.253E+01 -.125E+01   -.907E-03 0.135E-02 -.147E-01
   -.175E+03 -.141E+03 -.162E+04   0.175E+03 0.146E+03 0.162E+04   0.494E+00 -.309E+01 -.204E+01   0.317E-01 -.358E-03 -.246E-01
   -.141E+03 0.225E+02 0.178E+04   0.142E+03 -.173E+02 -.179E+04   -.132E+01 -.462E+01 0.279E+01   0.875E-02 -.713E-02 -.685E-02
   -.590E+02 -.161E+03 0.312E+03   0.590E+02 0.164E+03 -.312E+03   0.990E+00 -.268E+01 0.160E+01   -.200E-02 -.531E-02 -.162E-01
   0.389E+02 -.172E+03 -.911E+03   -.390E+02 0.175E+03 0.912E+03   -.674E-01 -.300E+01 -.437E+00   0.402E-02 -.131E-01 -.693E-02
   0.190E+03 -.207E+03 -.208E+04   -.191E+03 0.210E+03 0.208E+04   0.610E+00 -.912E+00 -.171E+01   -.477E-02 0.158E-02 -.131E-01
   0.236E+02 0.105E+03 0.124E+04   -.219E+02 -.105E+03 -.123E+04   -.517E+00 -.506E+00 -.589E+00   0.342E-02 -.261E-02 -.190E-02
   0.772E+02 -.110E+03 -.124E+03   -.765E+02 0.113E+03 0.126E+03   -.118E+01 -.228E+01 0.237E+00   -.148E-02 0.147E-01 -.106E-01
   -.468E+01 -.152E+03 -.133E+04   0.500E+01 0.154E+03 0.133E+04   -.106E+00 -.137E+01 -.131E+01   -.352E-02 -.363E-02 0.203E-03
   0.182E+03 0.103E+03 0.221E+04   -.183E+03 -.102E+03 -.222E+04   0.840E+00 -.186E+01 0.439E+01   -.324E-02 0.159E-02 -.878E-02
   0.731E+02 -.140E+02 0.231E+04   -.737E+02 0.142E+02 -.232E+04   0.356E+00 -.777E+00 0.900E+00   0.107E-01 -.558E-02 -.738E-02
   0.194E+03 0.194E+02 0.118E+04   -.197E+03 -.183E+02 -.118E+04   0.238E+01 -.176E+01 -.202E+00   0.262E-02 0.404E-02 -.103E-01
   0.118E+03 0.915E+02 -.183E+02   -.120E+03 -.928E+02 0.180E+02   0.221E+01 0.138E+01 0.701E+00   -.127E-03 0.952E-02 -.860E-02
   0.909E+02 0.255E+03 -.117E+04   -.933E+02 -.258E+03 0.117E+04   0.202E+01 0.110E+01 -.481E+00   -.552E-02 -.220E-01 -.294E-01
   -.293E+02 0.214E+03 -.224E+04   0.294E+02 -.216E+03 0.225E+04   -.738E-01 0.881E+00 -.294E+01   0.363E-01 -.169E-01 0.160E-01
   0.150E+03 0.403E+02 -.403E+03   -.153E+03 -.415E+02 0.403E+03   0.234E+01 0.142E+01 -.590E+00   0.589E-02 0.175E-03 -.421E-02
   0.189E+03 0.455E+02 -.163E+04   -.191E+03 -.465E+02 0.163E+04   -.264E-01 0.122E+00 -.332E+00   0.182E-02 0.167E-02 -.113E-01
   0.257E+03 -.691E+01 0.775E+03   -.261E+03 0.541E+01 -.775E+03   0.143E+01 0.146E+01 0.210E+01   -.399E-02 0.141E-02 -.517E-02
   0.134E+01 0.151E+03 0.181E+04   -.211E+01 -.151E+03 -.182E+04   0.458E+00 -.128E+01 0.152E+01   -.425E-02 -.441E-02 -.546E-02
   0.211E+03 0.711E+02 0.418E+03   -.213E+03 -.722E+02 -.418E+03   0.987E+00 0.530E+00 0.142E+01   -.470E-02 -.139E-02 -.118E-01
   0.185E+03 0.909E+02 -.704E+03   -.188E+03 -.930E+02 0.702E+03   0.252E+01 0.113E+01 -.548E+00   -.530E-02 -.756E-02 -.224E-02
   0.107E+03 -.162E+03 -.199E+04   -.107E+03 0.162E+03 0.200E+04   -.142E+00 0.278E+00 -.167E+01   -.152E-01 0.182E-01 -.672E-02
   -.107E+02 0.194E+02 -.292E+02   0.135E-11 -.625E-12 -.296E-11   0.107E+02 -.193E+02 0.301E+02   0.398E-01 0.582E-01 -.100E+01

 POSITION                                       TOTAL-FORCE (eV/Angst)
      6.45801      7.08167      1.95077        -0.314677      0.838145      1.981891
      7.43572      5.66537      4.57627         0.251055      0.055696      0.110915
      8.41343      4.24907      7.20177        -0.035028      0.027700     -0.595783
      8.72289      3.32761      9.47547        -1.035156      0.201230      0.949444
      6.79377      2.62847      2.31044        -0.429845     -0.078743     -0.522729
      7.93750      0.30366      3.00868        -1.680131      0.484458      0.324081
      3.21062      6.91868      8.07694        -1.183225      0.430936     -0.798541
     12.31264      8.33497      5.45144         0.056405      0.192406      0.244359
      2.55881      2.99577      3.70110         0.483729     -0.175969      1.754898
      3.53652      1.57947      6.32660         0.320774     -0.222542     -0.183967
      4.34145      0.30971      8.67358         0.219625      0.282444      1.185272
     11.53271      4.32945      1.91650         0.306177     -0.418800     -0.953293
      0.51382      1.09100      8.43993        -1.004115     -1.236221     -1.964680
      7.76230      5.15549      0.96653         0.596573     -0.892879     -0.907695
      8.63813      3.92359      3.18892         0.478305      0.906183      1.103257
      9.61584      2.50729      5.81443        -0.000298     -0.202305      0.042618
      3.43531      6.59319      4.06409         0.002790     -0.003403      0.523856
      4.41302      5.17689      6.68959         0.153477      0.164312     -1.254176
      5.22357      3.94024      8.93719        -0.665544     -1.002776      0.526089
     12.68128      7.51045      1.83101         0.373609     -0.701365     -0.753342
      3.83555      1.05172      2.67891        -0.275326      1.379426     -1.377230
      8.31222      9.26279      4.93926         0.031829     -0.196174     -0.005055
      9.28993      7.84650      7.56476        -0.925436      0.697082     -2.306444
      9.93873      6.60339      9.47580         0.585346     -0.440449      1.090627
      1.62276      3.24924      8.89820         1.927270      1.834221      0.729562
      8.88664      7.25739      1.64081         1.132105      0.567479     -0.679989
      9.84053      6.03956      3.88260        -0.152918      0.219496      0.115640
     10.81824      4.62327      6.50810         0.003775     -0.050225     -0.051893
     10.16643      0.70036      2.13226         2.101668     -0.082480      0.810884
      4.63771      8.70917      4.75776         0.103292      0.010381      0.138158
      5.61542      7.29287      7.38327         0.344683      0.073621     -1.612410
      6.81095      6.14565      9.59387         0.038408      1.049244      0.942425
      4.38230      5.99054      1.30824         0.180916      0.400904     -0.645950
      4.92551      3.66215      3.34327         0.055437     -0.662873     -1.508418
      5.94133      1.95367      5.63293        -0.030144     -0.128037      0.080395
      6.88305      0.64332      7.98397         0.657963      0.610161      1.058511
      1.57981      2.47018      7.00134        -0.593941      0.019452     -2.748606
      2.51713      1.28017      9.08988         0.691306     -0.876704      2.183184
      9.70412      5.30277      1.75033        -0.023070     -0.130706     -0.650750
     10.68183      3.88647      4.37584        -0.250297      0.344505      0.378057
      4.50130      7.97237      2.62550         1.558069      0.514374      0.145211
      5.47901      6.55607      5.25100         0.224794     -0.133718     -0.128168
      6.45673      5.13978      7.87651         1.385337      0.016300     -3.555730
      6.91967      4.13703     10.17024        -0.080425     -1.054893      2.235901
     12.16287      9.30514      1.07130        -1.430743      0.340847     -3.694991
      5.80492      1.21687      3.50067         0.473696     -0.109822     -0.074727
     10.35593      9.22568      6.12617        -0.387591     -0.570168     -2.266970
     11.10618      8.05963      8.58676         2.452097     -0.281020      1.620281
      7.50765      8.81768      1.38844         0.457250      1.341780     -2.273995
      8.17302      7.52069      3.51693        -0.415679     -0.477834      2.515177
      9.15074      6.10439      6.14243        -0.155843     -0.172026     -0.382052
     10.12845      4.68809      8.76794         0.422452      1.223750     -0.418622
      8.76833      2.21845      2.03152        -0.016595      0.565166     -1.704300
      9.47664      0.76519      4.39210         0.963744      0.009766      1.750697
      3.94792      8.77399      7.01760        -0.227719     -0.150563     -0.064932
      4.90321      6.97524      9.27105        -0.646086      1.667214      3.282035
      3.29611      4.85108      2.64176         1.263154     -0.299032      2.099276
      4.27382      3.43479      5.26727        -0.482918     -0.147665      1.714564
      5.25153      2.01849      7.89277         0.204859      1.277556     -0.137288
      2.38871      5.84413      0.60874        -0.915244     -0.524415     -2.018177
      6.11029      6.11321      0.18692        -0.183479     -0.621111     -3.633052
      6.64193      4.82628      2.63363        -1.174145     -0.655956      1.786454
      7.61964      3.40999      5.25914         0.031070      0.150426      0.424040
      8.59735      1.99369      7.88464        -0.460294     -1.176469     -0.819666
     10.33927      2.23840     10.11553         0.067757     -0.437117      3.618241
      2.41682      6.07959      6.13430        -0.265345      0.238115     -0.540505
      3.33359      4.75039      8.45202        -1.182238     -0.880784      1.995837
     11.51884      7.49589      3.50880        -1.755999     -0.042417      2.032399
      1.77117      2.13765      2.02348        -0.312827     -1.508277     -2.450374
      2.74272      0.74039      4.38397        -0.765759     -0.589130      2.118134
      7.29374      8.74919      7.00947        -0.557778     -0.952768     -2.356136
      8.22414      7.72807      9.41975        -0.584937      0.153052      2.428266
    total drift:                                0.044435      0.139333     -0.064329

  FREE ENERGIE OF THE ION-ELECTRON SYSTEM (eV)
  free  energy   TOTEN  =      -351.89895494 eV

  energy  without entropy=     -350.83786383  energy(sigma->0) =     -351.36840939