 vasp.5.4.4.18Apr17-6-g9f103f2a35 (build Aug 13 2019 17:33:20) gamma-only

 executed on             LinuxIFC date 2020.05.11  20:33:31

 INCAR:
 POTCAR:    PAW_PBE Ni_pv 06Sep2000
 POTCAR:    PAW_PBE S 06Sep2000
 POTCAR:    PAW_PBE Ni_pv 06Sep2000
   VRHFIN =Ni:

   TITEL  = PAW_PBE Ni_pv 06Sep2000
   POMASS =   58.690; ZVAL   =   16.000    mass and valenz
   ENMAX  =  367.986; ENMIN  =  275.989 eV

 POTCAR:    PAW_PBE S 06Sep2000
   VRHFIN =S : s2p4

   TITEL  = PAW_PBE S 06Sep2000
   POMASS =   32.066; ZVAL   =    6.000    mass and valenz
   ENMAX  =  258.689; ENMIN  =  194.016 eV

 Optimization of the real space projectors (new method)

 maximal supplied QI-value         = 18.90
 optimisation between [QCUT,QGAM] = [ 10.77, 21.73] = [ 32.49,132.25] Ry
 Optimized for a Real-space Cutoff    1.38 Angstroem

   l    n(q)    QCUT    max X(q) W(low)/X(q) W(high)/X(q)  e(spline)
   1      8    10.771     2.836    0.40E-04    0.29E-04    0.12E-06
   1      8    10.771     4.023    0.10E-03    0.48E-04    0.29E-06
   2      8    10.771    73.368    0.42E-03    0.97E-04    0.44E-06
   2      8    10.771    69.010    0.42E-03    0.99E-04    0.45E-06
   0      9    10.771    54.797    0.10E-03    0.56E-04    0.74E-07
   0      9    10.771    24.266    0.89E-04    0.49E-04    0.67E-07
 Optimization of the real space projectors (new method)

 maximal supplied QI-value         = 19.84
 optimisation between [QCUT,QGAM] = [ 10.71, 21.63] = [ 32.15,130.99] Ry
 Optimized for a Real-space Cutoff    1.19 Angstroem

   l    n(q)    QCUT    max X(q) W(low)/X(q) W(high)/X(q)  e(spline)
   0      8    10.715   187.594    0.41E-03    0.53E-04    0.66E-07
   0      8    10.715   164.243    0.41E-03    0.53E-04    0.65E-07
   1      7    10.715    67.533    0.19E-03    0.59E-03    0.68E-07
   1      7    10.715    50.729    0.19E-03    0.58E-03    0.67E-07
  PAW_PBE Ni_pv 06Sep2000               :
  PAW_PBE S 06Sep2000                   :

 POSCAR: Type_036 Type_136
  positions in cartesian coordinates
 exchange correlation table for  LEXCH =        8
   RHO(1)=    0.500       N(1)  =     2000
   RHO(2)=  100.500       N(2)  =     4000

 ion  position               nearest neighbor table
   1  0.780  0.145  0.121-  63 2.08  49 2.08  41 2.25  50 2.36  64 2.36
   2  0.800  0.145  0.286-  64 2.04  50 2.04  42 2.06
   3  0.217  0.666  0.095-  43 2.03  44 2.14  51 2.16   4 2.38  61 2.44
   4  0.297  0.645  0.216-  62 2.09  44 2.25  51 2.26  61 2.26  52 2.33   3 2.38  27 2.53  15 2.53

   5  0.387  0.151  0.126-  45 2.04  46 2.12  53 2.30  67 2.37   6 2.41  16 2.48
   6  0.470  0.145  0.248-  54 2.05  68 2.08  46 2.25  53 2.26  67 2.26   5 2.41  30 2.53  17 2.53

[...]

  34  0.292  0.321  0.304-  62 2.01  58 2.04  46 2.06  33 2.47
  35  0.777  0.857  0.118-  63 2.02  64 2.13  59 2.18  47 2.21  36 2.34
  36  0.770  0.777  0.254-  60 2.04  59 2.08  48 2.11  64 2.25  47 2.26  35 2.34  11 2.53  23 2.53

  37  0.988  0.145  0.361-  10 2.01  25 2.06  13 2.06
  38  0.991  0.145  0.182-  13 2.08  25 2.08  24 2.18  12 2.19   9 2.25
  39  0.481  0.572  0.077-  26 2.03  14 2.08  15 2.15  53 2.75
  40  0.516  0.650  0.246-  28 2.04  27 2.16  11 2.19  15 2.21
  41  0.647  0.145  0.119-  16 2.04   1 2.25  30 2.26  17 2.26  29 2.27  42 2.74
  42  0.678  0.146  0.285-   2 2.06  30 2.12  17 2.12  41 2.74
  43  0.113  0.645  0.033-   3 2.03  18 2.06  31 2.06
  44  0.164  0.645  0.214-  32 2.05  19 2.05   3 2.14   4 2.25  31 2.36  18 2.36
  45  0.282  0.146  0.063-   5 2.04  33 2.06  20 2.07
  46  0.336  0.145  0.246-  34 2.06  21 2.11   5 2.12   6 2.25  33 2.36  20 2.36
  47  0.819  0.645  0.151-  35 2.21   7 2.25  36 2.26  23 2.26  22 2.28  48 2.77
  48  0.848  0.645  0.319-   8 2.06  23 2.10  36 2.11  47 2.77
  49  0.819  0.290  0.034-  22 2.03  24 2.06   1 2.08
  50  0.829  0.314  0.214-   2 2.04  24 2.11  22 2.14  25 2.18  23 2.25   1 2.36
  51  0.312  0.814  0.119-  26 2.05   3 2.16  20 2.25   4 2.26  27 2.26
  52  0.371  0.787  0.305-  21 2.03  27 2.06  28 2.12   4 2.33  62 2.76
  53  0.484  0.314  0.151-  16 2.07  14 2.08  29 2.25  15 2.25  30 2.26   6 2.26   5 2.30  54 2.75
                            39 2.75
  54  0.519  0.302  0.317-  30 2.03   6 2.05  68 2.72  53 2.75
  55  0.001  0.814  0.246-   8 2.03  32 2.03  13 2.17   7 2.36  31 2.36  56 2.77
  56  0.967  0.821  0.079-   7 2.08  31 2.10  12 2.10  55 2.77
  57  0.140  0.322  0.110-   9 2.09  33 2.10  18 2.11  58 2.77
  58  0.174  0.314  0.278-  34 2.04  19 2.09  10 2.16   9 2.36  33 2.36  57 2.77
  59  0.668  0.828  0.189-  36 2.08  35 2.18  17 2.21  11 2.33  60 2.72
  60  0.694  0.788  0.353-  11 2.01  36 2.04  59 2.72  70 2.77
  61  0.312  0.477  0.119-  26 2.06  14 2.13  33 2.25   4 2.26  15 2.26   3 2.44
  62  0.352  0.501  0.294-  34 2.01  15 2.08   4 2.09  52 2.76
  63  0.817  0.998  0.035-  35 2.02  12 2.06   1 2.08
  64  0.829  0.977  0.214-   2 2.04  12 2.10  35 2.13  13 2.18  36 2.25   1 2.36
  65  0.001  0.477  0.246-  19 2.03   8 2.03  25 2.17   7 2.36  18 2.36  66 2.76
  66  0.968  0.469  0.079-   7 2.08  18 2.09  24 2.10  65 2.76
  67  0.484  0.977  0.151-  16 2.03  27 2.25  17 2.26   6 2.26   5 2.37
  68  0.532  0.020  0.331-  28 2.00  17 2.07   6 2.08  54 2.72
  69  0.665  0.462  0.181-  29 2.08  22 2.15  23 2.18  30 2.21  11 2.40
  70  0.694  0.499  0.350-  11 2.01  23 2.02  60 2.77
  71  0.141  0.967  0.110-  20 2.10   9 2.10  31 2.11  72 2.78
  72  0.174  0.977  0.278-  32 2.08  21 2.10  10 2.16   9 2.36  20 2.36  71 2.78

  LATTYP: Found a simple orthorhombic cell.
 ALAT       =     9.5784100000
 B/A-ratio  =     1.6880763216
 C/A-ratio  =     1.7627867312

  Lattice vectors:

 A1 = (   0.0000000000,   9.5784100000,   0.0000000000)
 A2 = (   0.0000000000,   0.0000000000, -16.1690871197)
 A3 = ( -16.8846940542,   0.0000000000,   0.0000000000)

Analysis of symmetry for initial positions (statically):
 Subroutine PRICEL returns:
 Original cell was already a primitive cell.

 Routine SETGRP: Setting up the symmetry group for a
 simple orthorhombic supercell.

 Subroutine GETGRP returns: Found  1 space group operations
 (whereof  1 operations were pure point group operations)
 out of a pool of  8 trial point group operations.

The static configuration has the point symmetry C_1 .

Analysis of symmetry for dynamics (positions and initial velocities):
 Subroutine PRICEL returns:
 Original cell was already a primitive cell.

 Routine SETGRP: Setting up the symmetry group for a
 simple orthorhombic supercell.

 Subroutine GETGRP returns: Found  1 space group operations
 (whereof  1 operations were pure point group operations)
 out of a pool of  8 trial point group operations.

The dynamic configuration has the point symmetry C_1 .

 Subroutine INISYM returns: Found  1 space group operations
 (whereof  1 operations are pure point group operations),
 and found     1 'primitive' translations

 KPOINTS: gamma-point-only calculation. no periodi

Automatic generation of k-mesh.
Space group operators:
 irot       det(A)        alpha          n_x          n_y          n_z        tau_x        tau_y        tau_z
    1     1.000000     0.000000     1.000000     0.000000     0.000000     0.000000     0.000000     0.000000

 Subroutine IBZKPT returns following result:

 Found      1 irreducible k-points:

 Following reciprocal coordinates:
            Coordinates               Weight
  0.000000  0.000000  0.000000      1.000000

 Following cartesian coordinates:
            Coordinates               Weight
  0.000000  0.000000  0.000000      1.000000

 SYSTEM =  "Millerite NiS"
 POSCAR =  Type_036 Type_136

 Startparameter for this run:
   NWRITE =      2    write-flag & timer
   PREC   = normal    normal or accurate (medium, high low for compatibility)
   ISTART =      0    job   : 0-new  1-cont  2-samecut
   ICHARG =      2    charge: 1-file 2-atom 10-const
   ISPIN  =      1    spin polarized calculation?
   LNONCOLLINEAR =      F non collinear calculations
   LSORBIT =      F    spin-orbit coupling
   INIWAV =      1    electr: 0-lowe 1-rand  2-diag
   LASPH  =      F    aspherical Exc in radial PAW
   METAGGA=      F    non-selfconsistent MetaGGA calc.

 Electronic Relaxation 1
   ENCUT  =  450.0 eV  33.07 Ry    5.75 a.u.  29.20 16.57 27.97*2*pi/ulx,y,z
   ENINI  =  450.0     initial cutoff
   ENAUG  =  703.4 eV  augmentation charge cutoff
   NELM   =    100;   NELMIN=  2; NELMDL= -5     # of ELM steps
   EDIFF  = 0.1E-03   stopping-criterion for ELM
   LREAL  =      T    real-space projection
   NLSPLINE    = F    spline interpolate recip. space projectors
   LCOMPAT=      F    compatible to vasp.4.4
   GGA_COMPAT  = T    GGA compatible to vasp.4.4-vasp.4.6
   LMAXPAW     = -100 max onsite density
   LMAXMIX     =    2 max onsite mixed and CHGCAR
   VOSKOWN=      0    Vosko Wilk Nusair interpolation
   ROPT   =   -0.00050  -0.00050
 Ionic relaxation
   EDIFFG = 0.1E-02   stopping-criterion for IOM
   NSW    =      0    number of steps for IOM
   NBLOCK =      1;   KBLOCK =      1    inner block; outer block
   IBRION =     -1    ionic relax: 0-MD 1-quasi-New 2-CG
   NFREE  =      0    steps in history (QN), initial steepest desc. (CG)
   ISIF   =      2    stress and relaxation
   IWAVPR =     10    prediction:  0-non 1-charg 2-wave 3-comb
   ISYM   =      2    0-nonsym 1-usesym 2-fastsym
   LCORR  =      T    Harris-Foulkes like correction to forces

   POTIM  = 0.5000    time-step for ionic-motion
   TEIN   =    0.0    initial temperature
   TEBEG  =    0.0;   TEEND  =   0.0 temperature during run
   SMASS  =  -3.00    Nose mass-parameter (am)
   estimated Nose-frequenzy (Omega)   =  0.10E-29 period in steps =****** mass=  -0.652E-26a.u.
   SCALEE = 1.0000    scale energy and forces
   NPACO  =    256;   APACO  = 16.0  distance and # of slots for P.C.
   PSTRESS=    0.0 pullay stress

  Mass of Ions in am
   POMASS =  58.69 32.07
  Ionic Valenz
   ZVAL   =  16.00  6.00
  Atomic Wigner-Seitz radii
  virtual crystal weights
   VCA    =   1.00  1.00
   NELECT =     792.0000    total number of electrons
   NUPDOWN=      -1.0000    fix difference up-down

 DOS related values:
   EMIN   =  10.00;   EMAX   =-10.00  energy-range for DOS
   EFERMI =   0.00
   ISMEAR =     0;   SIGMA  =   0.20  broadening in eV -4-tet -1-fermi 0-gaus

 Electronic relaxation 2 (details)
   IALGO  =     38    algorithm
   LDIAG  =      T    sub-space diagonalisation (order eigenvalues)
   LSUBROT=      F    optimize rotation matrix (better conditioning)
   TURBO    =      0    0=normal 1=particle mesh
   IRESTART =      0    0=no restart 2=restart with 2 vectors
   NREBOOT  =      0    no. of reboots
   NMIN     =      0    reboot dimension
   EREF     =   0.00    reference energy to select bands
   IMIX   =      4    mixing-type and parameters
     AMIX     =   0.40;   BMIX     =  1.00
     AMIX_MAG =   1.60;   BMIX_MAG =  1.00
     AMIN     =   0.10
     WC   =   100.;   INIMIX=   1;  MIXPRE=   1;  MAXMIX= -45

 Intra band minimization:
   WEIMIN = 0.0000     energy-eigenvalue tresh-hold
   EBREAK =  0.53E-07  absolut break condition
   DEPER  =   0.30     relativ break condition

   TIME   =   0.40     timestep for ELM

  volume/ion in A,a.u.               =      36.32       245.10
[...]
  Fock        0.00000     0.00000     0.00000     0.00000     0.00000     0.00000
  Total     110.28863   115.21958   138.87583     2.05443    -1.30167    -4.08146
  in kB      67.57238    70.59350    85.08738     1.25872    -0.79752    -2.50066

 VOLUME and BASIS-vectors are now :
  energy-cutoff  :      450.00
  volume of cell :     2615.00
      direct lattice vectors                 reciprocal lattice vectors
    16.884694054  0.000000000  0.000000000     0.059225237  0.000000000  0.000000000
     0.000000000  9.578410000  0.000000000     0.000000000  0.104401461  0.000000000
     0.000000000  0.000000000 16.169087120     0.000000000  0.000000000  0.061846411

  length of vectors
    16.884694054  9.578410000 16.169087120     0.059225237  0.104401461  0.061846411

 FORCES acting on ions
    electron-ion (+dipol)            ewald-force                    non-local-force                 convergence-correction
   0.672E+03 0.130E+03 0.202E+04   -.676E+03 -.130E+03 -.203E+04   0.357E+01 -.958E-01 0.553E+01   0.208E-01 0.215E-01 -.828E-02
   0.469E+03 0.170E+02 -.293E+04   -.472E+03 -.172E+02 0.293E+04   0.348E+01 0.196E+00 0.155E+01   0.300E-01 0.429E-02 -.163E-01
   0.640E+02 -.878E+02 0.290E+04   -.646E+02 0.884E+02 -.291E+04   0.150E+01 -.103E+01 0.715E+01   -.274E-01 0.223E-02 0.397E-02
   0.261E+03 -.244E+02 -.131E+04   -.264E+03 0.243E+02 0.132E+04   0.211E+01 0.783E+00 -.474E+01   -.213E-01 0.625E-02 0.207E-01
   0.428E+01 0.442E+03 0.213E+04   -.499E+01 -.443E+03 -.214E+04   0.131E+01 0.104E+01 0.786E+01   -.745E-02 -.650E-03 -.122E-02
   0.199E+03 -.402E+01 -.203E+04   -.203E+03 0.270E+01 0.204E+04   0.283E+01 0.519E+00 -.694E+01   -.793E-02 -.748E-02 0.916E-02
   0.662E+03 -.291E+01 0.136E+04   -.667E+03 0.284E+01 -.136E+04   0.487E+01 0.732E-01 0.470E+01   0.404E-02 -.452E-02 -.488E-02
   0.317E+03 -.291E+01 -.331E+04   -.318E+03 0.284E+01 0.331E+04   0.141E+01 0.129E-01 0.333E+00   0.231E-01 -.173E-02 -.308E-01
   0.448E+03 0.628E+01 0.829E+03   -.452E+03 -.634E+01 -.832E+03   0.373E+01 -.956E-01 0.314E+01   -.166E-01 -.248E-02 0.115E-01
   -.114E+03 0.693E+01 -.343E+04   0.112E+03 -.685E+01 0.344E+04   0.356E+01 0.510E-01 -.171E+01   -.101E-01 -.894E-03 0.247E-02
   0.624E+03 0.734E+02 -.183E+04   -.630E+03 -.746E+02 0.183E+04   0.437E+01 0.103E+01 -.313E+01   -.504E-02 0.301E-03 -.192E-01
   -.459E+03 0.232E+03 0.243E+04   0.466E+03 -.234E+03 -.244E+04   -.549E+01 0.281E+01 0.553E+01   0.940E-02 -.806E-03 0.469E-02
   0.781E+02 0.505E+03 -.225E+04   -.762E+02 -.508E+03 0.225E+04   -.297E+01 0.240E+01 -.407E+01   0.136E-01 0.824E-02 -.925E-02
   -.113E+03 0.191E+03 0.373E+04   0.113E+03 -.192E+03 -.374E+04   -.473E+00 -.721E+00 0.305E+01   0.646E-02 -.659E-02 -.176E-01
   -.723E+03 0.129E+03 -.611E+03   0.726E+03 -.129E+03 0.617E+03   -.140E+01 0.115E+00 -.586E+01   0.966E-02 -.484E-02 0.272E-03
   -.277E+03 0.733E+03 0.337E+04   0.277E+03 -.736E+03 -.338E+04   -.450E+00 0.250E+01 0.543E+01   0.963E-02 0.800E-02 -.155E-01
   -.465E+03 0.709E+03 -.611E+03   0.468E+03 -.715E+03 0.612E+03   -.274E+01 0.593E+01 -.201E+01   -.354E-02 -.768E-02 -.290E-02
   0.187E+02 0.612E+03 0.203E+04   -.186E+02 -.618E+03 -.203E+04   0.200E+00 0.466E+01 0.451E+01   -.351E-01 0.250E-02 0.159E-01
   -.242E+03 0.154E+03 -.285E+04   0.241E+03 -.156E+03 0.285E+04   0.474E+00 0.266E+01 -.457E+00   -.125E-01 -.286E-03 -.296E-02
   0.277E+02 0.398E+03 0.134E+04   -.287E+02 -.401E+03 -.135E+04   0.142E+01 0.270E+01 0.304E+01   -.224E-01 0.207E-02 0.135E-01
   -.132E+03 0.127E+03 -.302E+04   0.135E+03 -.128E+03 0.302E+04   -.302E+01 0.188E+01 -.120E+00   -.161E-01 -.845E-03 0.102E-01
   0.345E+03 -.612E+03 0.250E+04   -.347E+03 0.614E+03 -.251E+04   0.175E+01 -.154E+01 0.829E+01   0.174E-01 -.571E-02 -.841E-02
   -.665E+01 0.224E+03 -.169E+04   0.978E+01 -.226E+03 0.170E+04   -.208E+01 0.224E+01 -.613E+01   0.244E-01 -.919E-02 -.417E-01
   -.492E+03 -.220E+03 0.242E+04   0.498E+03 0.222E+03 -.242E+04   -.562E+01 -.279E+01 0.570E+01   -.740E-02 0.123E-01 0.198E-02
   0.721E+02 -.501E+03 -.226E+04   -.703E+02 0.504E+03 0.226E+04   -.276E+01 -.229E+01 -.402E+01   0.113E-01 -.591E-02 -.108E-01
   -.334E+03 -.580E+03 0.370E+04   0.337E+03 0.583E+03 -.371E+04   -.295E+01 -.256E+01 0.340E+01   0.411E-02 -.261E-02 -.171E-01
   -.657E+03 -.368E+03 0.460E+03   0.657E+03 0.370E+03 -.462E+03   -.647E+00 -.205E+01 0.239E+00   0.676E-02 0.137E-01 0.178E-01
   -.302E+03 0.191E+03 -.319E+04   0.300E+03 -.189E+03 0.319E+04   0.204E+01 -.274E+01 -.341E+00   -.172E-02 0.279E-03 0.207E-01
   -.394E+03 -.799E+03 0.310E+04   0.395E+03 0.798E+03 -.310E+04   -.139E+01 0.168E+01 -.102E+01   0.224E-01 0.612E-02 -.110E-01
   -.383E+03 -.506E+03 -.135E+04   0.387E+03 0.510E+03 0.136E+04   -.346E+01 -.469E+01 -.688E+01   0.764E-02 0.124E-01 -.203E-01
   0.933E+02 -.616E+03 0.202E+04   -.937E+02 0.621E+03 -.202E+04   0.512E+00 -.454E+01 0.441E+01   -.342E-01 -.219E-02 0.148E-01
   -.230E+03 -.155E+03 -.286E+04   0.230E+03 0.157E+03 0.286E+04   0.808E-01 -.287E+01 -.250E+00   -.871E-02 0.862E-04 -.323E-02
   0.187E+03 -.361E+03 0.120E+04   -.189E+03 0.364E+03 -.120E+04   0.224E+01 -.215E+01 0.346E+01   -.231E-01 -.617E-02 0.728E-02
   -.261E+03 -.154E+03 -.330E+04   0.263E+03 0.158E+03 0.329E+04   -.194E+01 -.424E+01 0.248E+01   -.219E-01 -.729E-02 0.835E-02
   0.646E+03 0.508E+03 0.256E+04   -.649E+03 -.511E+03 -.257E+04   0.273E+01 0.173E+01 0.869E+01   0.248E-01 -.184E-02 0.993E-03
   0.130E+02 -.262E+03 -.165E+04   -.947E+01 0.264E+03 0.165E+04   -.236E+01 -.211E+01 -.529E+01   0.260E-01 -.987E-03 -.194E-01
   0.108E+03 0.775E+00 -.164E+04   -.107E+03 -.903E+00 0.164E+04   -.127E+01 0.619E-01 -.149E+01   0.515E-02 0.406E-03 -.436E-02
   -.243E+03 0.284E+01 0.384E+03   0.244E+03 -.268E+01 -.387E+03   0.245E+00 -.215E+00 0.591E+00   -.199E-03 0.592E-03 0.201E-02
   -.616E+03 -.315E+03 0.117E+04   0.621E+03 0.317E+03 -.117E+04   -.161E+01 -.194E+01 -.169E+00   0.738E-02 -.302E-02 -.636E-02
   -.251E+03 0.181E+03 -.458E+03   0.252E+03 -.181E+03 0.459E+03   -.493E+00 -.978E+00 -.188E+00   0.291E-02 0.555E-02 0.456E-02
   -.215E+03 0.238E+03 0.913E+03   0.218E+03 -.241E+03 -.916E+03   -.130E+01 0.249E+01 0.108E+01   0.816E-02 0.634E-02 -.640E-02
   -.429E+02 0.583E+01 -.111E+04   0.444E+02 -.581E+01 0.111E+04   -.826E+00 -.745E-01 -.232E+01   0.790E-02 0.107E-02 -.266E-02
   0.878E+02 0.218E+02 0.172E+04   -.881E+02 -.219E+02 -.173E+04   0.372E+00 0.626E-01 0.197E+01   -.119E-01 -.460E-03 0.833E-03
   -.139E+03 0.213E+02 -.308E+03   0.139E+03 -.215E+02 0.312E+03   0.150E+01 0.120E+00 -.382E+01   -.158E-01 -.908E-03 0.106E-01
   0.131E+03 0.804E+02 0.162E+04   -.133E+03 -.807E+02 -.162E+04   0.208E+01 0.315E+00 0.202E+01   -.503E-02 -.556E-03 -.219E-02
   -.108E+03 0.155E+02 -.736E+03   0.109E+03 -.154E+02 0.741E+03   0.155E+00 -.684E+00 -.388E+01   -.574E-02 -.415E-02 0.559E-02
   0.596E+02 -.192E+01 0.701E+03   -.586E+02 0.190E+01 -.705E+03   -.475E+00 -.280E+00 0.158E+01   0.121E-01 -.913E-02 -.315E-02
   -.144E+01 -.478E+00 -.129E+04   0.301E+01 0.778E+00 0.129E+04   -.622E+00 -.258E+00 -.245E+01   0.445E-02 0.296E-03 -.958E-02
   0.474E+02 -.863E+02 0.170E+04   -.473E+02 0.872E+02 -.171E+04   -.398E+00 -.163E+00 0.282E+01   0.613E-03 0.605E-02 0.837E-02
   0.109E+03 -.154E+03 -.368E+03   -.109E+03 0.154E+03 0.371E+03   -.426E+00 0.821E+00 -.191E+01   0.465E-02 0.222E-02 -.110E-01
   -.422E+02 -.335E+03 0.897E+03   0.423E+02 0.337E+03 -.900E+03   -.432E+00 -.642E+00 0.281E+01   -.393E-02 0.761E-02 0.123E-02
   0.423E+02 0.121E+03 -.133E+04   -.444E+02 -.120E+03 0.133E+04   0.129E+01 -.105E+01 -.248E+01   -.107E-02 0.633E-02 0.810E-02
   -.631E+02 -.204E+03 0.261E+03   0.619E+02 0.206E+03 -.258E+03   0.701E+00 -.165E+01 -.280E+01   0.433E-02 0.569E-04 -.499E-02
   0.120E+02 -.278E+03 -.144E+04   -.127E+02 0.281E+03 0.145E+04   0.186E+00 -.169E+01 -.786E+00   -.261E-02 -.560E-03 0.239E-02
   0.137E+03 -.161E+03 -.483E+03   -.138E+03 0.163E+03 0.485E+03   -.584E+00 -.505E+00 -.155E+01   0.365E-02 -.971E-03 -.799E-02
   0.949E+02 -.638E+02 0.134E+04   -.967E+02 0.633E+02 -.135E+04   0.143E+01 0.114E+01 0.393E+01   -.131E-02 -.684E-02 0.848E-02
   0.131E+03 0.310E+02 0.111E+04   -.132E+03 -.322E+02 -.112E+04   0.463E+00 0.117E+01 0.450E+01   -.873E-02 -.164E-02 0.475E-02
   0.190E+02 -.937E+02 -.874E+03   -.196E+02 0.952E+02 0.877E+03   -.305E+00 -.211E+01 -.180E+01   -.108E-01 0.796E-03 0.257E-02
   0.287E+03 0.745E+02 0.369E+03   -.290E+03 -.752E+02 -.372E+03   0.157E+01 0.859E+00 0.239E+01   0.367E-02 -.234E-02 -.206E-02
   0.608E+02 -.210E+03 -.151E+04   -.614E+02 0.213E+03 0.151E+04   0.242E+00 -.199E+01 -.162E+01   0.213E-02 0.266E-02 -.155E-02
   0.254E+03 0.173E+03 0.760E+03   -.257E+03 -.175E+03 -.761E+03   0.929E+00 0.120E+01 0.392E+00   -.500E-02 -.659E-02 -.270E-02
   -.145E+03 -.347E+02 -.131E+04   0.146E+03 0.338E+02 0.132E+04   -.799E+00 0.721E+00 -.215E+01   -.572E-02 -.137E-02 0.918E-02
   0.112E+03 0.120E+03 0.169E+04   -.112E+03 -.121E+03 -.169E+04   -.417E+00 0.459E+00 0.279E+01   0.631E-02 0.513E-02 0.231E-03
   0.134E+03 0.157E+03 -.350E+03   -.134E+03 -.157E+03 0.354E+03   -.557E+00 -.790E+00 -.193E+01   0.926E-02 0.294E-02 -.144E-02
   0.134E+03 0.160E+03 -.482E+03   -.135E+03 -.162E+03 0.484E+03   -.547E+00 0.591E+00 -.146E+01   0.426E-02 0.599E-03 -.782E-02
   0.897E+02 0.609E+02 0.134E+04   -.914E+02 -.605E+02 -.135E+04   0.119E+01 -.112E+01 0.378E+01   -.483E-02 0.586E-02 0.886E-02
   -.788E+02 0.405E+03 0.656E+03   0.789E+02 -.408E+03 -.658E+03   -.124E+01 0.132E+01 0.192E+01   -.116E-03 -.853E-03 0.938E-03
   -.108E+03 -.676E+02 -.150E+04   0.109E+03 0.656E+02 0.151E+04   -.121E+01 0.243E+01 -.215E+01   -.601E-02 -.651E-02 0.431E-02
   0.142E+03 -.258E+03 0.181E+03   -.145E+03 0.259E+03 -.181E+03   0.121E+01 -.571E+00 0.552E+00   0.103E-01 -.297E-02 -.126E-01
   0.114E+03 0.231E+03 -.151E+04   -.116E+03 -.234E+03 0.152E+04   0.726E+00 0.223E+01 -.434E+00   0.303E-02 -.281E-02 -.144E-02
   0.123E+03 -.506E+02 0.112E+04   -.125E+03 0.520E+02 -.113E+04   0.210E+00 -.118E+01 0.429E+01   -.770E-02 0.228E-02 0.509E-02
   -.344E-01 0.774E+02 -.893E+03   -.562E+00 -.786E+02 0.896E+03   0.246E+00 0.171E+01 -.199E+01   -.633E-02 -.497E-03 0.236E-02
   -.567E+01 0.164E+01 -.355E+02   -.391E-13 -.782E-12 0.239E-11   0.567E+01 -.170E+01 0.356E+02   -.134E-01 0.242E-01 -.942E-01

 POSITION                                       TOTAL-FORCE (eV/Angst)
     13.17084      1.39171      1.94975         0.167021     -0.101357      0.942664
     13.51050      1.39150      4.62274        -0.050049     -0.046097      0.779629
      3.67090      6.38066      1.53876         0.923400     -0.373971     -0.181049
      5.02033      6.18092      3.49202        -0.224881      0.693600      0.003792
      6.53449      1.44348      2.03714         0.590741      0.095680     -0.481778
      7.93172      1.39171      4.00611        -0.821987     -0.804085     -0.978364
     16.08224      6.18092      2.46384        -0.481206     -0.008040      2.113220
     16.36940      6.18073      5.09302         0.173679     -0.054239      0.661099
      2.10894      1.39171      2.97793        -0.415207     -0.150390      0.493913
      1.73174      1.39064      5.27664         1.540837      0.126918      0.692782
     10.84312      6.18092      4.52020        -1.652705     -0.157442     -2.880958
     15.37361      0.04643      1.89697         0.959030      0.626940     -0.005806
     15.94500      0.11825      4.39474        -1.044919     -0.724618     -0.197718
      6.97330      3.77576      0.93182        -0.407295     -1.338953     -1.194454
      7.17375      4.91558      3.08454         0.775182      0.220933      0.620456
      8.93672      1.36353      1.42706        -0.250455     -0.011916     -1.883288
     10.08514      0.12638      3.59863         0.644525     -0.382473     -1.596967
      1.35096      4.91558      2.05636         0.301034     -0.463349      1.760164
      1.90351      4.80294      4.71096         0.210162      0.482642      1.144380
      4.26235      0.12638      2.57045         0.407036     -0.459412      0.402003
      5.00755      9.12536      4.75084        -0.489423      0.271941      0.747175
     13.07266      4.09974      1.87741        -0.484917      0.893792      0.162215
     12.99653      4.91558      4.11272         1.069185     -0.285497     -1.320371
     15.38018      2.73868      1.90105         0.809410     -0.548456     -0.018044
     15.94575      2.66468      4.39632        -1.005592      0.761977     -0.200169
      6.21912      6.18961      1.08217        -0.094732      0.436282     -1.814251
      7.17375      7.44626      3.08454        -0.015010      0.558255     -2.453021
      8.33965      7.89660      5.08685         0.040890     -0.843128      1.372057
     10.13636      3.46302      1.43726        -0.260424      0.612746     -1.430249
     10.08514      2.65705      3.59863         1.306846     -0.259445     -0.071638
      1.35096      7.44626      2.05636         0.055728      0.513520      1.608122
      1.90830      7.56280      4.70602         0.332439     -0.504148      1.085635
      4.26235      2.65705      2.57045         0.145293      0.760833      0.836319
      4.93409      3.07073      4.91214        -0.020589     -0.491059      0.738692
     13.11550      8.20660      1.90439        -0.521211     -0.775203      0.253019
     12.99653      7.44626      4.11272         1.166782      0.208203     -0.476658
     16.68147      1.39058      5.83831        -0.399654     -0.065517      3.551497
     16.74052      1.39171      2.94940         1.790023     -0.053490     -2.294733
      8.11838      5.47900      1.24054         2.937750      1.045050     -2.159277
      8.71649      6.22416      3.98001         1.006889     -1.323058      0.430622
     10.91773      1.39171      1.92122         1.320251      0.187167     -1.827285
     11.44773      1.39383      4.61028         0.651247     -0.044818      2.775886
      1.91633      6.17949      0.53403         0.146465     -0.072730     -3.850259
      2.76722      6.18092      3.46349         1.713848     -0.148188      0.391167
      4.76565      1.39716      1.01503         0.468528     -0.000922     -3.651207
      5.67861      1.39171      3.97758         0.868270     -0.541397      1.663468
     13.82913      6.18092      2.43531         0.529484     -0.311441     -1.901772
     14.31473      6.17515      5.15996         0.955725      0.042302      2.598939
     13.82892      2.77331      0.54475        -0.294668      0.730563     -3.861070
     13.99844      3.00295      3.46826        -0.306543      1.205724      1.667850
      5.26426      7.79215      1.92599        -0.381955      1.396944      0.008142
      6.25635      7.53625      4.92820        -0.820760      0.309695      2.404359
      8.17565      3.00295      2.44008        -0.520252      0.594047      0.164844
      8.76438      2.89395      5.12583        -0.556335      1.672434      3.251327
      0.02514      7.79215      3.98236        -0.836376      1.245461      0.505414
     16.33516      7.86576      1.27850        -0.357504      0.634400     -2.813030
      2.35983      3.08601      1.78547        -0.650935     -0.017965     -2.714923
      2.93654      3.00295      4.49645        -0.944038     -0.627362      1.211655
     11.27796      7.93046      3.04843        -1.792985      0.116699     -1.328442
     11.72392      7.54776      5.69972        -0.377814      1.444044      3.685889
      5.26426      4.56969      1.92599        -1.991525     -0.787906     -0.369971
      5.94445      4.79981      4.76166         0.217077     -0.191439      2.513992
     13.79919      9.55489      0.56630        -0.375286     -0.718598     -3.997267
     13.99844      9.35889      3.46826        -0.175201     -1.086481      1.793902
      0.02514      4.56969      3.98236        -0.816635     -1.234724      0.495264
     16.34086      4.49680      1.27811        -0.462138     -0.674285     -2.847141
      8.17565      9.35889      2.44008        -1.128524     -1.763623      0.004267
      8.97870      0.19359      5.35060        -0.014662      0.449707      3.051827
     11.22984      4.42748      2.92725        -1.131090      0.753248     -0.259013
     11.71050      4.78188      5.66682        -0.457173     -1.423319      3.797196
      2.37242      9.26689      1.77681        -0.835835      0.294999     -2.651850
      2.93654      9.35889      4.49645        -0.356284      0.483799      1.327180
    total drift:                               -0.014146     -0.036872     -0.032102

  FREE ENERGIE OF THE ION-ELECTRON SYSTEM (eV)
  free  energy   TOTEN  =      -341.61896682 eV

  energy  without entropy=     -340.54675961  energy(sigma->0) =     -341.08286321