 vasp.5.4.4.18Apr17-6-g9f103f2a35 (build Aug 13 2019 17:33:20) gamma-only

 executed on             LinuxIFC date 2020.05.11  15:47:43

 INCAR:
 POTCAR:    PAW_PBE Ni_pv 06Sep2000
 POTCAR:    PAW_PBE S 06Sep2000
 POTCAR:    PAW_PBE Ni_pv 06Sep2000
   VRHFIN =Ni:

   TITEL  = PAW_PBE Ni_pv 06Sep2000
   POMASS =   58.690; ZVAL   =   16.000    mass and valenz
   ENMAX  =  367.986; ENMIN  =  275.989 eV

 POTCAR:    PAW_PBE S 06Sep2000
   VRHFIN =S : s2p4

   TITEL  = PAW_PBE S 06Sep2000
   POMASS =   32.066; ZVAL   =    6.000    mass and valenz
   ENMAX  =  258.689; ENMIN  =  194.016 eV

 Optimization of the real space projectors (new method)

 maximal supplied QI-value         = 18.90
 optimisation between [QCUT,QGAM] = [ 10.77, 21.73] = [ 32.49,132.25] Ry
 Optimized for a Real-space Cutoff    1.38 Angstroem

   l    n(q)    QCUT    max X(q) W(low)/X(q) W(high)/X(q)  e(spline)
   1      8    10.771     2.836    0.40E-04    0.29E-04    0.12E-06
   1      8    10.771     4.023    0.10E-03    0.48E-04    0.29E-06
   2      8    10.771    73.368    0.42E-03    0.97E-04    0.44E-06
   2      8    10.771    69.010    0.42E-03    0.99E-04    0.45E-06
   0      9    10.771    54.797    0.10E-03    0.56E-04    0.74E-07
   0      9    10.771    24.266    0.89E-04    0.49E-04    0.67E-07
 Optimization of the real space projectors (new method)

 maximal supplied QI-value         = 19.84
 optimisation between [QCUT,QGAM] = [ 10.71, 21.63] = [ 32.15,130.99] Ry
 Optimized for a Real-space Cutoff    1.19 Angstroem

   l    n(q)    QCUT    max X(q) W(low)/X(q) W(high)/X(q)  e(spline)
   0      8    10.715   187.594    0.41E-03    0.53E-04    0.66E-07
   0      8    10.715   164.243    0.41E-03    0.53E-04    0.65E-07
   1      7    10.715    67.533    0.19E-03    0.59E-03    0.68E-07
   1      7    10.715    50.729    0.19E-03    0.58E-03    0.67E-07
  PAW_PBE Ni_pv 06Sep2000               :
  PAW_PBE S 06Sep2000                   :

 POSCAR: Type_048 Type_148
  positions in cartesian coordinates
 exchange correlation table for  LEXCH =        8
   RHO(1)=    0.500       N(1)  =     2000
   RHO(2)=  100.500       N(2)  =     4000

 ion  position               nearest neighbor table
   1  0.261  0.479  0.295-  73 2.25  58 2.26  80 2.26  59 2.36  54 2.36   8 2.53  23 2.53
   2  0.355  0.385  0.426-  65 2.12  74 2.19  60 2.19  54 2.26  59 2.26   9 2.53  24 2.53
   3  0.067  0.267  0.096-  55 2.04  63 2.16  64 2.18  25 2.29  57 2.36  26 2.47   4 2.50
   4  0.167  0.073  0.165-  81 2.12  55 2.16  64 2.25  56 2.36  82 2.36   3 2.50  36 2.53  31 2.53

   5  0.024  0.053  0.490-  72 2.02  50 2.03  77 2.04  22 2.43
   6  0.201  0.537  0.060-  51 2.02  79 2.05  57 2.07  29 2.40
   7  0.274  0.333  0.130-  57 2.09  55 2.14  51 2.15  52 2.36  58 2.36  13 2.53  29 2.53
   8  0.368  0.239  0.261-  56 2.25  58 2.26  52 2.26  59 2.36  61 2.36   1 2.53  23 2.53
   9  0.462  0.145  0.391-  60 2.10  62 2.24  78 2.25  59 2.26  61 2.26  18 2.35   2 2.53  24 2.53

  10  0.000  0.372  0.261-  58 2.25  64 2.26  92 2.26  49 2.36  66 2.36  21 2.53  14 2.53
  11  0.094  0.278  0.391-  53 2.08  59 2.25  49 2.26  66 2.26  12 2.32  50 2.36  30 2.44  15 2.53
                            22 2.53
  12  0.258  0.197  0.463-  60 2.03  50 2.13  53 2.22  11 2.32
  13  0.406  0.465  0.130-  79 2.12  51 2.13  69 2.19  52 2.36  80 2.36  29 2.53   7 2.53
  14  0.761  0.479  0.295-  85 2.25  70 2.26  92 2.26  71 2.36  66 2.36  21 2.53  10 2.53
  15  0.855  0.385  0.426-  72 2.07  86 2.21  66 2.26  71 2.26  53 2.27  22 2.53  11 2.53
  16  0.535  0.212  0.089-  51 2.03  52 2.16  67 2.20  93 2.30  17 2.34  42 2.53
  17  0.667  0.073  0.165-  52 2.25  67 2.26  93 2.26  16 2.34  68 2.36  94 2.36  48 2.53  43 2.53

[...]

  34  0.000  0.872  0.261-  82 2.25  88 2.26  68 2.26  73 2.36  90 2.36  44 2.53  37 2.53
  35  0.094  0.778  0.391-  74 2.13  77 2.15  83 2.25  73 2.26  90 2.26  38 2.53  45 2.53
  36  0.406  0.965  0.130-  75 1.99  55 2.06  93 2.25  76 2.36  56 2.36   4 2.53  31 2.53
  37  0.761  0.979  0.295-  61 2.25  94 2.26  68 2.26  95 2.36  90 2.36  44 2.53  34 2.53
  38  0.855  0.885  0.426-  77 2.08  62 2.18  90 2.26  95 2.26  45 2.53  35 2.53
  39  0.036  0.692  0.488-  96 2.02  77 2.05  74 2.08  45 2.47
  40  0.667  0.573  0.165-  91 2.05  69 2.22  76 2.25  92 2.36  70 2.36  25 2.53  20 2.53
  41  0.552  0.553  0.487-  65 2.02  84 2.03  86 2.03  33 2.40
  42  0.732  0.006  0.051-  87 2.01  93 2.04  67 2.07  43 2.53  16 2.53
  43  0.774  0.833  0.130-  87 2.06  91 2.10  93 2.26  88 2.36  94 2.36  42 2.53  48 2.53  17 2.53

  44  0.868  0.739  0.261-  92 2.25  94 2.26  88 2.26  95 2.36  73 2.36  37 2.53  34 2.53
  45  0.962  0.645  0.391-  96 2.06  66 2.25  95 2.26  73 2.26  30 2.42  74 2.43  39 2.47  38 2.53
                            35 2.53
  46  0.500  0.872  0.261-  94 2.25  76 2.26  56 2.26  85 2.36  78 2.36  32 2.53  27 2.53
  47  0.594  0.778  0.391-  89 2.06  86 2.19  95 2.25  85 2.26  78 2.26  28 2.53  33 2.53
  48  0.906  0.965  0.130-  87 2.08  81 2.15  67 2.26  88 2.36  68 2.36  17 2.53  43 2.53
  49  0.073  0.167  0.311-  27 2.25  11 2.26  22 2.26  10 2.36  21 2.36
  50  0.167  0.073  0.442-   5 2.03  12 2.13  28 2.25  11 2.36  22 2.36  53 2.64
  51  0.373  0.368  0.056-   6 2.02  16 2.03  13 2.13   7 2.15
  52  0.479  0.261  0.181-  16 2.16  17 2.25   8 2.26  23 2.26  13 2.36   7 2.36
  53  0.043  0.320  0.480-  30 2.05  11 2.08  12 2.22  15 2.27  50 2.64  72 2.76
  54  0.436  0.472  0.355-  33 2.25   2 2.26  24 2.26   1 2.36  23 2.36  65 2.67
  55  0.266  0.153  0.107-   3 2.04  36 2.06   7 2.14   4 2.16
  56  0.342  0.066  0.225-   8 2.25  27 2.26  46 2.26   4 2.36  36 2.36
  57  0.083  0.468  0.104-   6 2.07  25 2.09   7 2.09  29 2.28   3 2.36
  58  0.174  0.397  0.225-  10 2.25   1 2.26   8 2.26   7 2.36  29 2.36
  59  0.268  0.303  0.355-  11 2.25   9 2.26   2 2.26   8 2.36   1 2.36
  60  0.431  0.205  0.480-  12 2.03   9 2.10  18 2.11   2 2.19  65 2.76  62 2.79
  61  0.573  0.167  0.311-  37 2.25  24 2.26   9 2.26  23 2.36   8 2.36  62 2.73
  62  0.673  0.071  0.421-  18 2.06  38 2.18  24 2.19   9 2.24  61 2.73  60 2.79
  63  0.873  0.354  0.055-  20 2.10  26 2.10   3 2.16  19 2.20  25 2.25
  64  0.979  0.261  0.181-   3 2.18   4 2.25  21 2.26  10 2.26  25 2.36  20 2.36
  65  0.520  0.395  0.466-  41 2.02  24 2.07   2 2.12  54 2.67  60 2.76
  66  0.936  0.472  0.355-  45 2.25  15 2.26  11 2.26  14 2.36  10 2.36
  67  0.748  0.160  0.094-  42 2.07  26 2.11  19 2.11  16 2.20  20 2.25  17 2.26  48 2.26
  68  0.842  0.066  0.225-  21 2.25  37 2.26  34 2.26  17 2.36  48 2.36
  69  0.588  0.475  0.101-  20 2.09  19 2.12  13 2.19  40 2.22
  70  0.674  0.397  0.225-  23 2.25  14 2.26  21 2.26  20 2.36  40 2.36
  71  0.768  0.303  0.355-  24 2.25  22 2.26  15 2.26  21 2.36  14 2.36  72 2.77
  72  0.860  0.221  0.469-   5 2.02  22 2.07  15 2.07  53 2.76  71 2.77
  73  0.073  0.667  0.311-   1 2.25  35 2.26  45 2.26  34 2.36  44 2.36
  74  0.186  0.583  0.428-  30 2.08  39 2.08  35 2.13   2 2.19  45 2.43
  75  0.368  0.872  0.064-  31 1.99  36 1.99
  76  0.479  0.761  0.181-  40 2.25  32 2.26  46 2.26  36 2.36  31 2.36
  77  0.016  0.880  0.473-   5 2.04  39 2.05  38 2.08  35 2.15
  78  0.436  0.972  0.355-   9 2.25  28 2.26  47 2.26  27 2.36  46 2.36
  79  0.258  0.658  0.108-   6 2.05  29 2.11  13 2.12  31 2.13
  80  0.342  0.566  0.225-  32 2.25   1 2.26  23 2.26  29 2.36  13 2.36
  81  0.084  0.982  0.107-  26 2.07  31 2.11   4 2.12  48 2.15
  82  0.174  0.897  0.225-  34 2.25  27 2.26  32 2.26  31 2.36   4 2.36
  83  0.268  0.803  0.355-  35 2.25  33 2.26  28 2.26  32 2.36  27 2.36
  84  0.376  0.715  0.472-  41 2.03  33 2.06  28 2.10  89 2.68
  85  0.573  0.667  0.311-  14 2.25  47 2.26  33 2.26  46 2.36  32 2.36  86 2.73
  86  0.668  0.572  0.422-  41 2.03  47 2.19  33 2.19  15 2.21  85 2.73
  87  0.900  0.837  0.065-  42 2.01  43 2.06  48 2.08  88 2.77
  88  0.979  0.761  0.181-  29 2.25  44 2.26  34 2.26  48 2.36  43 2.36  87 2.77
  89  0.525  0.845  0.475-  18 2.01  47 2.06  28 2.08  84 2.68
  90  0.936  0.972  0.355-  22 2.25  38 2.26  35 2.26  37 2.36  34 2.36
  91  0.758  0.657  0.113-  40 2.05  25 2.09  43 2.10  92 2.73
  92  0.842  0.566  0.225-  44 2.25  14 2.26  10 2.26  40 2.36  25 2.36  91 2.73
  93  0.580  0.991  0.094-  42 2.04  36 2.25  43 2.26  17 2.26  16 2.30
  94  0.674  0.897  0.225-  46 2.25  37 2.26  44 2.26  43 2.36  17 2.36
  95  0.768  0.803  0.355-  47 2.25  45 2.26  38 2.26  44 2.36  37 2.36
  96  0.916  0.604  0.475-  39 2.02  45 2.06  30 2.11

  LATTYP: Found a base centered orthorhombic cell.
 ALAT       =    11.8257374459
 B/A-ratio  =     1.6199260857
 C/A-ratio  =     1.9043172636

  Lattice vectors:

 A1 = (  11.2564630382,   0.0000000000,   0.0000000000)
 A2 = (  -5.0445621212, -10.0628203371,   0.0000000000)
 A3 = (   0.0000000000,   0.0000000000, -22.5199559732)

Analysis of symmetry for initial positions (statically):
 Subroutine PRICEL returns:
 Original cell was already a primitive cell.

 Routine SETGRP: Setting up the symmetry group for a
 base centered orthorhombic supercell.

 Subroutine GETGRP returns: Found  1 space group operations
 (whereof  1 operations were pure point group operations)
 out of a pool of  8 trial point group operations.

The static configuration has the point symmetry C_1 .

Analysis of symmetry for dynamics (positions and initial velocities):
 Subroutine PRICEL returns:
 Original cell was already a primitive cell.

 Routine SETGRP: Setting up the symmetry group for a
 base centered orthorhombic supercell.

 Subroutine GETGRP returns: Found  1 space group operations
 (whereof  1 operations were pure point group operations)
 out of a pool of  8 trial point group operations.

The dynamic configuration has the point symmetry C_1 .

 Subroutine INISYM returns: Found  1 space group operations
 (whereof  1 operations are pure point group operations),
 and found     1 'primitive' translations

 KPOINTS: gamma-point-only calculation. no periodi

Automatic generation of k-mesh.
Space group operators:
 irot       det(A)        alpha          n_x          n_y          n_z        tau_x        tau_y        tau_z
    1     1.000000     0.000000     1.000000     0.000000     0.000000     0.000000     0.000000     0.000000

 Subroutine IBZKPT returns following result:

 Found      1 irreducible k-points:

 Following reciprocal coordinates:
            Coordinates               Weight
  0.000000  0.000000  0.000000      1.000000

 Following cartesian coordinates:
            Coordinates               Weight
  0.000000  0.000000  0.000000      1.000000

 SYSTEM =  "Millerite NiS"
 POSCAR =  Type_048 Type_148

 Startparameter for this run:
   NWRITE =      2    write-flag & timer
   PREC   = normal    normal or accurate (medium, high low for compatibility)
   ISTART =      0    job   : 0-new  1-cont  2-samecut
   ICHARG =      2    charge: 1-file 2-atom 10-const
   ISPIN  =      1    spin polarized calculation?
   LNONCOLLINEAR =      F non collinear calculations
   LSORBIT =      F    spin-orbit coupling
   INIWAV =      1    electr: 0-lowe 1-rand  2-diag
   LASPH  =      F    aspherical Exc in radial PAW
   METAGGA=      F    non-selfconsistent MetaGGA calc.

[...]
     0.000000000  0.000000000 22.519955973     0.000000000  0.000000000  0.044405060

  length of vectors
    11.256463038 11.256463038 22.519955973     0.099375718  0.099375718  0.044405060

 FORCES acting on ions
    electron-ion (+dipol)            ewald-force                    non-local-force                 convergence-correction
   0.151E+03 -.477E+03 -.684E+03   -.151E+03 0.478E+03 0.683E+03   0.651E+00 -.131E+01 0.103E+01   -.830E-02 0.114E-01 -.531E-01
   -.262E+03 -.441E+03 -.442E+04   0.261E+03 0.443E+03 0.442E+04   0.206E+00 -.141E+01 -.184E+01   -.125E-01 0.179E-01 -.345E-01
   -.532E+03 0.754E+02 0.523E+04   0.532E+03 -.774E+02 -.523E+04   -.102E+00 0.186E+01 0.353E+01   -.791E-03 -.113E-01 0.351E-01
   0.278E+02 0.102E+03 0.259E+04   -.292E+02 -.101E+03 -.259E+04   0.143E+01 -.837E+00 -.891E-01   0.184E-01 -.280E-01 -.120E-01
   0.895E+02 0.200E+03 -.598E+04   -.900E+02 -.200E+03 0.598E+04   0.614E+00 -.217E+00 0.935E+00   -.644E-02 -.203E-02 -.259E-01
   0.258E+03 -.677E+03 0.620E+04   -.260E+03 0.681E+03 -.621E+04   0.651E+00 -.276E+01 0.392E+01   0.102E-01 -.185E-01 0.681E-01
   0.299E+03 0.440E+03 0.376E+04   -.300E+03 -.445E+03 -.376E+04   0.122E+01 0.343E+01 -.602E-01   -.883E-02 -.268E-01 0.375E-01
   0.224E+03 0.486E+03 0.352E+03   -.225E+03 -.487E+03 -.353E+03   0.152E+01 0.551E+00 0.568E+00   -.788E-02 -.203E-02 -.538E-01
   -.287E+02 0.368E+03 -.277E+04   0.255E+02 -.370E+03 0.276E+04   0.263E+01 0.266E+01 0.246E+01   -.987E-02 -.444E-02 -.629E-01
   -.459E+03 -.990E+02 0.326E+03   0.461E+03 0.997E+02 -.326E+03   -.116E+01 -.612E+00 0.459E+00   -.207E-01 0.487E-02 -.445E-01
   -.130E+02 0.156E+03 -.264E+04   0.133E+02 -.156E+03 0.263E+04   -.838E+00 -.482E+00 0.373E+01   -.233E-01 -.312E-02 -.634E-01
   -.393E+02 0.420E+03 -.559E+04   0.417E+02 -.421E+03 0.559E+04   -.294E+01 0.624E+00 -.273E+01   -.139E-01 -.443E-02 -.789E-04
   -.665E+03 -.544E+03 0.375E+04   0.672E+03 0.545E+03 -.375E+04   -.508E+01 -.188E+01 0.121E+01   0.172E-01 -.430E-03 0.363E-01
   0.297E+03 -.475E+03 -.786E+03   -.297E+03 0.476E+03 0.785E+03   0.677E+00 -.933E+00 0.465E+00   0.184E-01 -.934E-02 -.657E-01
   0.486E+03 -.493E+03 -.450E+04   -.488E+03 0.495E+03 0.450E+04   0.146E+01 -.147E+01 -.489E+00   0.285E-02 -.424E-02 -.428E-01
   0.504E+03 -.302E+02 0.516E+04   -.506E+03 0.285E+02 -.516E+04   0.204E+01 0.123E+01 0.438E+01   -.132E-01 -.141E-01 0.229E-01
   0.316E+03 -.309E+01 0.212E+04   -.317E+03 0.182E+01 -.211E+04   0.133E+01 0.800E+00 -.419E+01   -.857E-02 -.108E-01 -.926E-02
   -.346E+03 0.363E+03 -.574E+04   0.344E+03 -.366E+03 0.574E+04   0.379E+01 0.388E+01 -.422E+00   -.839E-03 0.237E-01 -.302E-01
   0.282E+03 -.658E+03 0.638E+04   -.283E+03 0.661E+03 -.638E+04   0.345E+00 -.396E+01 -.307E+01   0.924E-02 0.951E-02 0.264E-01
   0.211E+03 -.246E+03 0.322E+04   -.211E+03 0.247E+03 -.321E+04   0.348E+00 -.163E+01 -.259E+01   0.144E-01 0.191E-01 0.417E-01
   0.277E+03 0.430E+03 0.208E+03   -.278E+03 -.431E+03 -.208E+03   0.160E+01 0.840E+00 0.258E-01   0.188E-01 0.165E-01 -.379E-01
   0.379E+03 0.397E+03 -.290E+04   -.381E+03 -.400E+03 0.289E+04   0.188E+01 0.283E+01 0.185E+01   -.605E-02 -.134E-01 -.566E-01
   -.554E+03 -.111E+03 0.279E+03   0.555E+03 0.112E+03 -.279E+03   -.125E+01 -.818E+00 0.195E+00   0.177E-01 0.269E-02 -.464E-01
   -.662E+03 0.499E+02 -.328E+04   0.667E+03 -.501E+02 0.328E+04   -.464E+01 0.260E+00 -.924E+00   0.235E-01 -.390E-02 -.634E-01
   -.300E+03 -.813E+03 0.395E+04   0.300E+03 0.817E+03 -.395E+04   -.573E-01 -.368E+01 0.122E+01   -.287E-01 0.110E-01 0.352E-01
   -.467E+03 0.627E+03 0.570E+04   0.473E+03 -.628E+03 -.570E+04   -.559E+01 0.153E+00 0.209E+01   0.123E-01 0.234E-04 0.286E-01
   0.245E+03 -.269E+03 -.734E+03   -.246E+03 0.270E+03 0.734E+03   0.612E+00 -.116E+01 -.467E-01   -.125E-01 0.762E-02 -.513E-01
   0.346E+03 -.234E+03 -.439E+04   -.347E+03 0.237E+03 0.439E+04   0.843E+00 -.300E+01 -.247E+01   -.291E-01 0.296E-02 -.483E-01
   0.317E+03 -.675E+03 0.253E+04   -.320E+03 0.678E+03 -.253E+04   0.165E+01 -.236E+01 -.132E+01   -.101E-01 0.430E-02 0.322E-01
   -.560E+02 -.314E+02 -.509E+04   0.564E+02 0.299E+02 0.509E+04   0.568E+00 0.146E+01 -.167E+01   -.763E-02 0.345E-01 -.159E-01
   0.778E+02 0.567E+03 0.419E+04   -.779E+02 -.571E+03 -.419E+04   -.616E+00 0.277E+01 0.294E+01   0.442E-01 0.266E-01 -.786E-02
   0.196E+03 0.443E+03 0.466E+03   -.197E+03 -.444E+03 -.468E+03   0.728E+00 0.438E+00 0.135E+01   0.259E-02 0.292E-02 -.521E-01
   0.264E+03 0.328E+03 -.291E+04   -.267E+03 -.330E+03 0.291E+04   0.252E+01 0.182E+01 0.128E+01   -.113E-01 0.880E-02 -.714E-01
   -.530E+03 0.422E+02 0.379E+03   0.531E+03 -.415E+02 -.380E+03   -.898E+00 -.681E+00 0.125E+01   0.739E-02 -.282E-02 -.337E-01
   -.701E+03 -.161E+03 -.293E+04   0.705E+03 0.164E+03 0.293E+04   -.366E+01 -.205E+01 0.172E+01   0.116E-02 -.357E-02 -.380E-01
   -.467E+03 0.338E+03 0.415E+04   0.470E+03 -.340E+03 -.415E+04   -.183E+01 0.156E+01 0.314E+01   -.302E-01 -.288E-01 -.158E-01
   0.240E+03 -.337E+03 -.809E+03   -.241E+03 0.337E+03 0.808E+03   0.779E+00 -.985E+00 0.896E+00   0.900E-02 -.895E-02 -.494E-01
   0.452E+03 -.515E+03 -.442E+04   -.454E+03 0.516E+03 0.442E+04   0.531E+00 -.667E+00 0.268E-01   0.308E-01 -.240E-01 -.396E-01
   -.176E+03 -.146E+03 -.632E+04   0.176E+03 0.148E+03 0.632E+04   0.953E+00 -.162E+01 -.377E+01   -.110E-03 -.709E-04 -.263E-01
   0.339E+03 -.747E+03 0.294E+04   -.342E+03 0.750E+03 -.294E+04   0.211E+01 -.248E+01 0.201E+01   0.154E-01 0.211E-02 -.392E-02
   -.196E+03 0.229E+03 -.599E+04   0.197E+03 -.227E+03 0.599E+04   -.624E+00 -.220E+01 0.230E+01   -.347E-02 0.186E-02 -.168E-01
   0.300E+03 0.515E+03 0.638E+04   -.299E+03 -.519E+03 -.638E+04   -.583E+00 0.457E+01 0.521E+01   -.179E-01 -.911E-02 0.461E-01
   0.497E+03 0.872E+03 0.389E+04   -.500E+03 -.876E+03 -.389E+04   0.254E+01 0.398E+01 0.622E+00   -.267E-01 -.231E-01 0.198E-01
   0.290E+03 0.436E+03 0.435E+03   -.291E+03 -.436E+03 -.436E+03   0.807E+00 0.474E+00 0.104E+01   -.109E-01 -.227E-01 -.434E-01
   0.538E+03 0.404E+02 -.271E+04   -.541E+03 -.387E+02 0.271E+04   0.315E+01 -.148E+01 0.173E+01   0.786E-02 0.174E-02 -.479E-01
   -.491E+03 0.838E+02 0.477E+03   0.492E+03 -.835E+02 -.478E+03   -.101E+01 -.327E+00 0.713E+00   0.478E-02 -.667E-02 -.617E-01
   -.565E+03 0.144E+03 -.314E+04   0.569E+03 -.144E+03 0.314E+04   -.377E+01 -.756E+00 -.107E+01   0.142E-02 -.140E-01 -.724E-01
   -.635E+03 0.553E+03 0.360E+04   0.640E+03 -.555E+03 -.360E+04   -.334E+01 0.238E+01 -.104E+01   0.662E-02 -.919E-02 0.206E-01
   -.466E+02 0.149E+03 -.264E+03   0.478E+02 -.151E+03 0.262E+03   -.120E+01 0.180E+01 0.126E+01   -.839E-02 0.367E-02 -.266E-01
   -.329E+02 0.220E+03 -.171E+04   0.334E+02 -.223E+03 0.171E+04   0.651E+00 0.210E+01 -.121E+01   -.856E-02 -.662E-02 -.108E-01
   0.982E+01 0.327E+02 0.247E+04   -.959E+01 -.341E+02 -.247E+04   -.510E-01 0.633E+00 0.261E+01   0.657E-02 -.184E-01 0.814E-02
   -.145E+02 0.768E+02 0.782E+03   0.146E+02 -.778E+02 -.780E+03   0.425E-01 0.101E+01 -.821E+00   -.288E-02 0.169E-02 -.464E-02
   0.221E+03 -.194E+02 -.244E+04   -.223E+03 0.200E+02 0.245E+04   0.113E+01 0.548E-01 -.412E+01   -.702E-02 -.573E-03 0.892E-02
   -.111E+03 -.163E+03 -.779E+03   0.112E+03 0.166E+03 0.779E+03   -.147E+01 -.320E+01 -.647E+00   0.490E-02 0.843E-02 -.259E-01
   -.160E+03 0.109E+03 0.192E+04   0.162E+03 -.108E+03 -.192E+04   -.950E+00 -.661E+00 0.306E+01   -.209E-04 -.182E-01 0.883E-02
   -.770E+02 -.780E+02 0.484E+03   0.779E+02 0.808E+02 -.485E+03   -.732E+00 -.273E+01 0.955E+00   -.640E-02 -.347E-02 -.232E-01
   0.194E+03 -.223E+03 0.185E+04   -.195E+03 0.226E+03 -.185E+04   0.287E+00 -.232E+01 0.152E+01   -.144E-01 -.623E-02 0.230E-01
   0.158E+03 -.414E+02 0.451E+03   -.161E+03 0.414E+02 -.451E+03   0.276E+01 -.179E+00 0.104E+01   -.116E-01 0.490E-03 -.122E-01
   0.956E+02 0.131E+02 -.642E+03   -.980E+02 -.130E+02 0.640E+03   0.240E+01 -.200E+00 0.151E+01   -.408E-02 0.429E-03 -.264E-01
   -.220E+03 -.722E+02 -.243E+04   0.220E+03 0.728E+02 0.243E+04   0.630E+00 -.494E+00 -.377E+01   -.264E-02 0.318E-02 0.735E-02
[...]
   0.158E+03 0.327E+01 -.793E+03   -.160E+03 -.324E+01 0.794E+03   0.228E+01 0.171E+00 -.600E+00   -.589E-02 0.164E-02 -.133E-01
   0.269E+03 -.722E+02 -.224E+04   -.273E+03 0.718E+02 0.224E+04   0.173E+01 0.861E+00 -.159E+01   -.114E-01 0.808E-02 -.851E-02
   -.717E+02 0.106E+03 -.248E+03   0.729E+02 -.107E+03 0.248E+03   -.121E+01 0.193E+01 -.215E-02   0.515E-02 -.714E-02 -.221E-01
   -.211E+03 0.607E+02 -.154E+04   0.213E+03 -.614E+02 0.154E+04   -.496E-01 0.424E+00 0.928E-01   0.668E-02 -.176E-02 -.239E-01
   -.195E+03 0.487E+03 0.228E+04   0.196E+03 -.490E+03 -.228E+04   -.431E+00 0.102E+01 0.123E+01   -.676E-02 -.197E-02 0.136E-01
   -.771E+02 0.154E+03 0.104E+04   0.777E+02 -.156E+03 -.104E+04   -.582E+00 0.133E+01 0.149E+01   -.530E-02 -.312E-02 -.257E-02
   -.634E+02 0.151E+03 -.232E+04   0.649E+02 -.152E+03 0.233E+04   -.896E+00 0.132E+01 -.124E+01   -.848E-02 -.314E-02 -.374E-02
   -.608E+02 -.158E+03 -.784E+03   0.619E+02 0.161E+03 0.783E+03   -.100E+01 -.290E+01 -.340E+00   0.112E-01 0.936E-03 -.169E-01
   0.736E+02 -.192E+03 0.190E+04   -.754E+02 0.193E+03 -.191E+04   0.174E+01 -.146E+00 0.378E+01   -.671E-02 0.289E-02 0.129E-01
   -.476E+02 -.211E+03 0.494E+03   0.488E+02 0.213E+03 -.494E+03   -.107E+01 -.218E+01 0.350E-01   -.426E-02 -.634E-02 -.110E-01
   0.432E+03 0.243E+03 0.191E+04   -.435E+03 -.244E+03 -.191E+04   0.155E+01 0.115E+01 0.296E+01   -.164E-01 -.923E-02 0.883E-02
   0.202E+03 0.540E+02 0.486E+03   -.205E+03 -.536E+02 -.486E+03   0.275E+01 -.453E+00 0.554E+00   -.318E-02 -.107E-01 -.186E-01
   0.188E+03 0.969E+01 -.801E+03   -.191E+03 -.911E+01 0.802E+03   0.294E+01 -.871E+00 -.296E+00   0.293E-02 -.120E-01 -.245E-01
   0.503E+03 -.603E+02 -.224E+04   -.508E+03 0.612E+02 0.225E+04   0.232E+01 -.863E+00 -.555E+00   0.642E-02 0.490E-02 -.285E-02
   -.147E+02 0.155E+02 -.419E+02   0.193E-11 0.554E-12 -.909E-12   0.145E+02 -.154E+02 0.433E+02   -.380E-01 -.969E-01 -.127E+01

 POSITION                                       TOTAL-FORCE (eV/Angst)
      5.35228      4.81788      6.64784         0.142335     -0.307564     -0.209274
      5.93595      3.87238      9.58390        -0.395526      0.190170     -0.800752
      2.10225      2.68487      2.15147         0.495576     -0.203154     -1.104152
      2.24633      0.73197      3.71178         0.049166     -0.348666      1.728852
      0.54210      0.53388     11.04018         0.132137     -0.585693      1.399390
      4.97113      5.40705      1.34484        -0.772454      1.032085     -1.667289
      4.76861      3.35453      2.93606         0.345495     -0.998584      1.866724
      5.35228      2.40903      5.87212        -0.067303      0.079794      0.045065
      5.93595      1.46353      8.80817        -0.558602      0.322521     -2.214220
      1.87746      3.73836      5.87212        -0.004725      0.075993     -0.052261
      2.46113      2.79286      8.80817        -0.638983     -0.303411     -2.386375
      3.90202      1.98596     10.43146        -0.562543      0.281721      0.552379
      6.92203      4.68386      2.93606         1.223711     -0.365554      1.553698
     10.98051      4.81788      6.64784         0.247654     -0.254757     -0.281540
     11.56418      3.87238      9.58390         0.393486      0.542691     -0.617367
      7.09323      2.13069      2.00550         0.347356     -0.536947     -0.822773
      7.87456      0.73197      3.71178        -0.074833     -0.476899      1.508278
      6.36321      0.02051     10.61450         1.117152      0.278825      0.963441
      9.45907      3.27877      0.85446        -0.617413     -0.265864     -1.301541
     10.39684      3.35453      2.93606         0.414269     -0.208781      3.902973
     10.98051      2.40903      5.87212        -0.119077     -0.054152      0.136044
     11.56418      1.46353      8.80817         0.233938      0.019771     -2.351749
      7.50570      3.73836      5.87212        -0.022465      0.119289      0.070163
      8.08937      2.79286      8.80817         0.426403      0.056584     -1.646672
     12.55026      4.68386      2.93606        -0.683687      0.904335      1.420134
     11.26350      1.51396      1.58222        -0.017294     -0.535044     -0.860472
      7.87456      9.84929      6.64784         0.162306     -0.242171     -0.154749
      8.45823      8.90379      9.58390        -0.779694      0.754928     -1.325449
      4.76861      5.76338      3.71178        -0.686733      0.307047      1.950867
      3.47850      4.57528     10.12695         0.957163      0.025455      0.638405
      7.29089      8.38594      2.93606        -0.645827     -0.891535      2.394291
      7.87456      7.44044      5.87212        -0.007961      0.111495      0.005894
      8.45823      6.49494      8.80817        -0.410299      0.051020     -2.857563
      4.39975      8.76977      5.87212        -0.054650     -0.024339      0.104079
      4.98341      7.82427      8.80817         0.259949      0.979472     -1.824051
      9.44431      9.71527      2.93606         1.489986     -0.292974      2.384206
     13.50279      9.84929      6.64784         0.216251     -0.370555     -0.084849
     14.08646      8.90379      9.58390        -0.886289      0.311261     -0.877923
      3.89425      6.96417     10.98197         0.528081      0.060954      1.515587
     10.39684      5.76338      3.71178        -0.650275     -0.081749      1.339522
      9.00202      5.56947     10.95994         0.105995     -0.856239      1.461150
      8.27131      0.06010      1.14227        -0.224550      0.887966     -1.948334
     12.91912      8.38594      2.93606        -0.731914     -0.482018      2.063995
     13.50279      7.44044      5.87212         0.012583      0.022594      0.081500
     14.08646      6.49494      8.80817        -0.316974      0.223561     -2.672423
     10.02798      8.76977      5.87212        -0.188603     -0.000278     -0.052786
     10.61165      7.82427      8.80817         0.496739     -0.381722     -1.851976
     15.07254      9.71527      2.93606         1.037741     -0.112086      1.598292
      1.66190      1.67871      7.01153        -0.021718     -0.170801     -0.288657
      2.24556      0.73321      9.94759         1.188633     -1.734415     -0.091198
      6.05474      3.70686      1.25175         0.192125     -0.818277     -3.327577
      6.70646      2.62422      4.07548         0.101535     -0.045486      0.896117
      2.10147      3.22437     10.81467        -0.161839      0.598745      2.828483
      7.29013      4.74605      7.99931        -0.088187     -0.006535     -1.304773
      3.76603      1.53921      2.40124         0.820813      0.684115     -1.918275
      4.18418      0.66015      5.06325         0.190161      0.119996      0.445717
      3.29330      4.70850      2.33223        -1.204292      0.879768     -1.438306
      3.96438      3.99884      5.06325        -0.026512     -0.152399      0.536662
      4.54805      3.05334      7.99931        -0.019428     -0.110748     -0.437160
      5.89097      2.06269     10.81932        -0.074344      0.188282      3.265092
[...]
      6.48666      9.03025      5.06325        -0.081786     -0.187008      0.580641
      7.07033      8.08475      7.99931        -0.169825      0.196846     -0.295829
      7.83699      7.19901     10.63744        -2.179082      0.464734      2.684426
      9.81241      6.71012      7.01153        -0.063454      0.210106     -0.941867
     10.40331      5.75313      9.50151         1.428195     -0.248603      1.176572
     14.35511      8.42695      1.46233         1.450536     -2.166012     -3.025707
     14.85697      7.65563      4.07548         0.021488     -0.178727      0.729151
     10.17069      8.50570     10.69822         0.572797     -0.041847      3.032046
     15.44064      9.77746      7.99931         0.193255     -0.048995     -0.939728
     11.85384      6.61620      2.54406         0.005814      1.098593     -2.360014
     12.33469      5.69156      5.06325         0.090971     -0.083605      0.806074
     11.53122      9.97575      2.12720        -1.668999      0.028484      0.068110
     12.11489      9.03025      5.06325         0.036270     -0.026456      0.219270
     12.69856      8.08475      7.99931         0.132255     -0.302755      0.098619
     13.36141      6.07942     10.69424        -2.469403      0.103265      1.994896
    total drift:                               -0.241866      0.044034      0.120123

  FREE ENERGIE OF THE ION-ELECTRON SYSTEM (eV)
  free  energy   TOTEN  =      -470.13693030 eV

  energy  without entropy=     -468.83468922  energy(sigma->0) =     -469.48580976