 vasp.5.4.4.18Apr17-6-g9f103f2a35 (build Aug 13 2019 17:33:20) gamma-only

 executed on             LinuxIFC date 2020.05.12  18:11:02

 INCAR:
 POTCAR:    PAW_PBE Ni_pv 06Sep2000
 POTCAR:    PAW_PBE S 06Sep2000
 POTCAR:    PAW_PBE Ni_pv 06Sep2000
   VRHFIN =Ni:

   TITEL  = PAW_PBE Ni_pv 06Sep2000
   POMASS =   58.690; ZVAL   =   16.000    mass and valenz
   ENMAX  =  367.986; ENMIN  =  275.989 eV

 POTCAR:    PAW_PBE S 06Sep2000
   VRHFIN =S : s2p4

   TITEL  = PAW_PBE S 06Sep2000
   POMASS =   32.066; ZVAL   =    6.000    mass and valenz
   ENMAX  =  258.689; ENMIN  =  194.016 eV

 Optimization of the real space projectors (new method)

 maximal supplied QI-value         = 18.90
 optimisation between [QCUT,QGAM] = [ 10.77, 21.73] = [ 32.49,132.25] Ry
 Optimized for a Real-space Cutoff    1.38 Angstroem

   l    n(q)    QCUT    max X(q) W(low)/X(q) W(high)/X(q)  e(spline)
   1      8    10.771     2.836    0.40E-04    0.29E-04    0.12E-06
   1      8    10.771     4.023    0.10E-03    0.48E-04    0.29E-06
   2      8    10.771    73.368    0.42E-03    0.97E-04    0.44E-06
   2      8    10.771    69.010    0.42E-03    0.99E-04    0.45E-06
   0      9    10.771    54.797    0.10E-03    0.56E-04    0.74E-07
   0      9    10.771    24.266    0.89E-04    0.49E-04    0.67E-07
 Optimization of the real space projectors (new method)

 maximal supplied QI-value         = 19.84
 optimisation between [QCUT,QGAM] = [ 10.71, 21.63] = [ 32.15,130.99] Ry
 Optimized for a Real-space Cutoff    1.19 Angstroem

   l    n(q)    QCUT    max X(q) W(low)/X(q) W(high)/X(q)  e(spline)
   0      8    10.715   187.594    0.41E-03    0.53E-04    0.66E-07
   0      8    10.715   164.243    0.41E-03    0.53E-04    0.65E-07
   1      7    10.715    67.533    0.19E-03    0.59E-03    0.68E-07
   1      7    10.715    50.729    0.19E-03    0.58E-03    0.67E-07
  PAW_PBE Ni_pv 06Sep2000               :
  PAW_PBE S 06Sep2000                   :

 POSCAR: Type_036 Type_136
  positions in cartesian coordinates
 exchange correlation table for  LEXCH =        8
   RHO(1)=    0.500       N(1)  =     2000
   RHO(2)=  100.500       N(2)  =     4000

 ion  position               nearest neighbor table
   1  0.243  0.974  0.065-  41 2.02  42 2.14  61 2.15   2 2.30  49 2.34
   2  0.397  0.795  0.127-  49 1.98  61 2.10  42 2.25   1 2.30  26 2.35  50 2.36  62 2.36
   3  0.547  0.645  0.254-  43 2.25  62 2.26  50 2.26  63 2.36  51 2.36  27 2.53  15 2.53
   4  0.698  0.494  0.381-  64 2.17  44 2.25  51 2.26  63 2.26  52 2.36  16 2.53  28 2.53
   5  0.827  0.345  0.485-  52 2.00  64 2.00  17 2.46  25 2.49
   6  0.114  0.412  0.169-  53 2.06  68 2.07  45 2.25   9 2.33  65 2.36  54 2.36  29 2.53  18 2.53

   7  0.264  0.261  0.296-  46 2.25  65 2.26  54 2.26  55 2.36  66 2.36  19 2.53  30 2.53
   8  0.414  0.111  0.423-  56 2.10  67 2.12  55 2.26  66 2.26  47 2.30  31 2.53  20 2.53
   9  0.979  0.603  0.106-  48 2.06  45 2.09  53 2.22  68 2.22   6 2.33
  10  0.099  0.781  0.451-  58 2.04  59 2.07  72 2.09  37 2.13
  11  0.548  0.222  0.150-  69 2.02  70 2.12  38 2.13  54 2.14  15 2.38  36 2.51
  12  0.831  0.028  0.212-  70 2.10  39 2.25  60 2.26  57 2.36  71 2.36  23 2.53  33 2.53
  13  0.981  0.878  0.338-  40 2.25  57 2.26  71 2.26  58 2.36  72 2.36  34 2.53  24 2.53
  14  0.358  0.551  0.113-  62 2.04  53 2.13  38 2.25  61 2.34  26 2.52
  15  0.508  0.420  0.220-  54 2.25  62 2.26  38 2.26  39 2.36  63 2.36  11 2.38  27 2.53   3 2.53

[...]

  32  0.734  0.817  0.452-  56 2.04  44 2.05  72 2.06  31 2.43
  33  0.015  0.843  0.144-  48 2.10  61 2.12  60 2.26  45 2.36  57 2.36  23 2.53  12 2.53
  34  0.166  0.693  0.271-  62 2.25  57 2.26  45 2.26  46 2.36  58 2.36  13 2.53  24 2.53
  35  0.316  0.543  0.398-  59 2.06  47 2.13  63 2.25  58 2.26  46 2.26  22 2.52
  36  0.742  0.025  0.096-  70 2.07  48 2.08  60 2.08  69 2.26  11 2.51
  37  0.002  0.997  0.480-  17 2.11  25 2.12  10 2.13  40 2.60
  38  0.586  0.406  0.117-  26 2.07  11 2.13  14 2.25  15 2.26  27 2.26
  39  0.736  0.256  0.244-  12 2.25  28 2.26  16 2.26  15 2.36  27 2.36
  40  0.886  0.105  0.371-  17 2.03  25 2.04  13 2.25  16 2.36  28 2.36  37 2.60
  41  0.154  0.183  0.045-   1 2.02  18 2.04  29 2.04
  42  0.303  0.023  0.160-   1 2.14   2 2.25  30 2.26  19 2.26  18 2.36  29 2.36
  43  0.453  0.872  0.286-   3 2.25  20 2.26  31 2.26  19 2.36  30 2.36
  44  0.603  0.722  0.413-  32 2.05  21 2.10   4 2.25  31 2.36  20 2.36
  45  0.019  0.639  0.202-   9 2.09   6 2.25  24 2.26  34 2.26  23 2.36  33 2.36
  46  0.170  0.489  0.329-  22 2.03   7 2.25  35 2.26  34 2.36  24 2.36  47 2.57
  47  0.291  0.352  0.430-  35 2.13  22 2.15   8 2.30  46 2.57
  48  0.864  0.811  0.083-   9 2.06  36 2.08  33 2.10  23 2.10
  49  0.448  0.786  0.034-   2 1.98  26 2.11   1 2.34  61 2.71
  50  0.636  0.692  0.160-  26 2.06  23 2.25  27 2.26   3 2.26   2 2.36
  51  0.787  0.542  0.287-  24 2.25   4 2.26  28 2.26  27 2.36   3 2.36
  52  0.937  0.391  0.414-   5 2.00  25 2.15  22 2.20   4 2.36  28 2.36
  53  0.202  0.463  0.087-   6 2.06  14 2.13   9 2.22  29 2.25
  54  0.353  0.308  0.202-  11 2.14  15 2.25   7 2.26  30 2.26  29 2.36   6 2.36
  55  0.503  0.158  0.329-  16 2.25   8 2.26  31 2.26   7 2.36  30 2.36  56 2.76
  56  0.633  0.031  0.442-  32 2.04   8 2.10  17 2.12  31 2.15  55 2.76
  57  0.070  0.925  0.245-  19 2.25  34 2.26  13 2.26  12 2.36  33 2.36
  58  0.220  0.775  0.372-  10 2.04  20 2.25  35 2.26  34 2.36  13 2.36  59 2.75
  59  0.286  0.637  0.488-  21 2.03  35 2.06  10 2.07  58 2.75
  60  0.920  0.075  0.118-  36 2.08  18 2.25  12 2.26  33 2.26
  61  0.207  0.784  0.091-   2 2.10  33 2.12   1 2.15  14 2.34  49 2.71
  62  0.350  0.641  0.203-  14 2.04  34 2.25  15 2.26   3 2.26   2 2.36
  63  0.501  0.491  0.330-  35 2.25   4 2.26  16 2.26   3 2.36  15 2.36
  64  0.652  0.340  0.441-   5 2.00  16 2.06  17 2.17   4 2.17
  65  0.067  0.258  0.245-  28 2.25   7 2.26  19 2.26   6 2.36  18 2.36
  66  0.218  0.108  0.372-  25 2.13  20 2.26   8 2.26  19 2.36   7 2.36
  67  0.401  0.942  0.481-  20 2.02  21 2.10   8 2.12
  68  0.923  0.416  0.131-   6 2.07  27 2.15   9 2.22  18 2.27
  69  0.513  0.135  0.067-  11 2.02  29 2.15  36 2.26  70 2.76
  70  0.640  0.008  0.180-  30 2.06  36 2.07  23 2.09  12 2.10  11 2.12  71 2.72  69 2.76
  71  0.784  0.874  0.287-  31 2.25  24 2.26  13 2.26  23 2.36  12 2.36  70 2.72
  72  0.934  0.724  0.414-  32 2.06  10 2.09  22 2.16  13 2.36  24 2.36

  LATTYP: Found a base centered orthorhombic cell.
 ALAT       =    11.4527836704
 B/A-ratio  =     1.4485816945
 C/A-ratio  =     1.8059804630

  Lattice vectors:

 A1 = (  10.0797329849,   0.0000000000,   0.0000000000)
 A2 = (  -3.5732980427,  -9.4251025535,   0.0000000000)
 A3 = (   0.0000000000,   0.0000000000, -20.6835035552)

Analysis of symmetry for initial positions (statically):
 Subroutine PRICEL returns:
 Original cell was already a primitive cell.

 Routine SETGRP: Setting up the symmetry group for a
 base centered orthorhombic supercell.

 Subroutine GETGRP returns: Found  1 space group operations
 (whereof  1 operations were pure point group operations)
 out of a pool of  8 trial point group operations.

The static configuration has the point symmetry C_1 .

Analysis of symmetry for dynamics (positions and initial velocities):
 Subroutine PRICEL returns:
 Original cell was already a primitive cell.

 Routine SETGRP: Setting up the symmetry group for a
 base centered orthorhombic supercell.

 Subroutine GETGRP returns: Found  1 space group operations
 (whereof  1 operations were pure point group operations)
 out of a pool of  8 trial point group operations.

The dynamic configuration has the point symmetry C_1 .

 Subroutine INISYM returns: Found  1 space group operations
 (whereof  1 operations are pure point group operations),
 and found     1 'primitive' translations

 KPOINTS: gamma-point-only calculation. no periodi

Automatic generation of k-mesh.
Space group operators:
 irot       det(A)        alpha          n_x          n_y          n_z        tau_x        tau_y        tau_z
    1     1.000000     0.000000     1.000000     0.000000     0.000000     0.000000     0.000000     0.000000

 Subroutine IBZKPT returns following result:

 Found      1 irreducible k-points:

 Following reciprocal coordinates:
            Coordinates               Weight
  0.000000  0.000000  0.000000      1.000000

 Following cartesian coordinates:
            Coordinates               Weight
  0.000000  0.000000  0.000000      1.000000

 SYSTEM =  "Millerite NiS"
 POSCAR =  Type_036 Type_136

 Startparameter for this run:
   NWRITE =      2    write-flag & timer
   PREC   = normal    normal or accurate (medium, high low for compatibility)
   ISTART =      0    job   : 0-new  1-cont  2-samecut
   ICHARG =      2    charge: 1-file 2-atom 10-const
   ISPIN  =      1    spin polarized calculation?
   LNONCOLLINEAR =      F non collinear calculations
   LSORBIT =      F    spin-orbit coupling
   INIWAV =      1    electr: 0-lowe 1-rand  2-diag
   LASPH  =      F    aspherical Exc in radial PAW
   METAGGA=      F    non-selfconsistent MetaGGA calc.

 Electronic Relaxation 1
   ENCUT  =  450.0 eV  33.07 Ry    5.75 a.u.  17.43 17.43 35.78*2*pi/ulx,y,z
   ENINI  =  450.0     initial cutoff
   ENAUG  =  703.4 eV  augmentation charge cutoff
   NELM   =    100;   NELMIN=  2; NELMDL= -5     # of ELM steps
   EDIFF  = 0.1E-03   stopping-criterion for ELM
   LREAL  =      T    real-space projection
   NLSPLINE    = F    spline interpolate recip. space projectors
   LCOMPAT=      F    compatible to vasp.4.4
   GGA_COMPAT  = T    GGA compatible to vasp.4.4-vasp.4.6
   LMAXPAW     = -100 max onsite density
   LMAXMIX     =    2 max onsite mixed and CHGCAR
   VOSKOWN=      0    Vosko Wilk Nusair interpolation
   ROPT   =   -0.00050  -0.00050
 Ionic relaxation
   EDIFFG = 0.1E-02   stopping-criterion for IOM
   NSW    =      0    number of steps for IOM
   NBLOCK =      1;   KBLOCK =      1    inner block; outer block
   IBRION =     -1    ionic relax: 0-MD 1-quasi-New 2-CG
   NFREE  =      0    steps in history (QN), initial steepest desc. (CG)
   ISIF   =      2    stress and relaxation
   IWAVPR =     10    prediction:  0-non 1-charg 2-wave 3-comb
   ISYM   =      2    0-nonsym 1-usesym 2-fastsym
   LCORR  =      T    Harris-Foulkes like correction to forces

   POTIM  = 0.5000    time-step for ionic-motion
   TEIN   =    0.0    initial temperature
   TEBEG  =    0.0;   TEEND  =   0.0 temperature during run
   SMASS  =  -3.00    Nose mass-parameter (am)
   estimated Nose-frequenzy (Omega)   =  0.10E-29 period in steps =****** mass=  -0.232E-26a.u.
   SCALEE = 1.0000    scale energy and forces
   NPACO  =    256;   APACO  = 16.0  distance and # of slots for P.C.
   PSTRESS=    0.0 pullay stress

  Mass of Ions in am
   POMASS =  58.69 32.07
  Ionic Valenz
   ZVAL   =  16.00  6.00
  Atomic Wigner-Seitz radii
  virtual crystal weights
   VCA    =   1.00  1.00
   NELECT =     792.0000    total number of electrons
   NUPDOWN=      -1.0000    fix difference up-down

 DOS related values:
   EMIN   =  10.00;   EMAX   =-10.00  energy-range for DOS
   EFERMI =   0.00
[...]
  Fock        0.00000     0.00000     0.00000     0.00000     0.00000     0.00000
  Total      77.43633    68.60579   103.72411    -0.75299     0.19524    -0.52199
  in kB      63.13877    55.93867    84.57287    -0.61396     0.15919    -0.42561

 VOLUME and BASIS-vectors are now :
  energy-cutoff  :      450.00
  volume of cell :     1964.98
      direct lattice vectors                 reciprocal lattice vectors
    10.079732985  0.000000000  0.000000000     0.099208977 -0.037612667  0.000000000
     3.573298043  9.425102554  0.000000000     0.000000000  0.106099641  0.000000000
     0.000000000  0.000000000 20.683503555     0.000000000  0.000000000  0.048347708

  length of vectors
    10.079732985 10.079732985 20.683503555     0.106099641  0.106099641  0.048347708

 FORCES acting on ions
    electron-ion (+dipol)            ewald-force                    non-local-force                 convergence-correction
   0.246E+03 -.373E+02 0.532E+04   -.248E+03 0.395E+02 -.533E+04   0.209E+01 -.299E+01 0.566E+01   0.288E-01 -.596E-02 0.896E-02
   -.241E+03 -.226E+03 0.324E+04   0.244E+03 0.227E+03 -.324E+04   -.233E+01 -.737E+00 -.130E+01   0.751E-01 -.101E+00 0.896E-01
   -.673E+02 -.437E+03 0.717E+02   0.668E+02 0.438E+03 -.718E+02   0.602E+00 -.140E+01 0.331E+00   0.172E-01 -.109E+00 -.133E+00
   -.213E+02 -.560E+03 -.306E+04   0.218E+02 0.563E+03 0.306E+04   -.225E+00 -.281E+01 0.359E+00   0.418E-01 -.167E+00 -.189E+00
   -.191E+03 -.513E+03 -.565E+04   0.191E+03 0.509E+03 0.564E+04   0.567E+00 0.350E+01 0.608E+01   0.306E-01 -.757E-01 0.149E-01
   0.112E+03 -.139E+03 0.224E+04   -.111E+03 0.137E+03 -.223E+04   0.198E+00 0.466E+00 -.109E+01   -.981E-05 -.137E-01 0.626E-01
   0.463E+02 -.435E+03 -.108E+04   -.473E+02 0.436E+03 0.108E+04   0.878E+00 -.114E+01 -.354E-03   -.286E-01 0.327E-01 -.163E+00
   0.775E+02 -.723E+03 -.442E+04   -.788E+02 0.725E+03 0.442E+04   0.769E+00 -.159E+01 -.239E+01   -.228E-01 0.514E-01 -.724E-01
   0.320E+03 0.911E+02 0.489E+04   -.323E+03 -.934E+02 -.490E+04   0.231E+01 0.189E+01 0.561E+01   -.143E-01 -.694E-01 0.698E-01
   0.951E+02 -.856E+02 -.494E+04   -.958E+02 0.894E+02 0.495E+04   -.398E-01 -.356E+01 -.376E+01   0.119E-01 0.447E-01 -.141E-01
   -.311E+03 -.536E+02 0.342E+04   0.313E+03 0.560E+02 -.342E+04   -.160E+01 -.219E+01 0.408E+01   -.152E-01 0.109E+00 0.101E+00
   -.284E+03 -.469E+03 0.113E+04   0.288E+03 0.472E+03 -.113E+04   -.282E+01 -.319E+01 -.954E+00   0.114E-01 0.443E-01 0.530E-01
   -.165E+02 -.413E+03 -.184E+04   0.163E+02 0.414E+03 0.183E+04   0.316E+00 -.151E+01 0.149E+01   0.104E-01 0.622E-01 -.206E+00
   0.366E+03 0.153E+03 0.439E+04   -.370E+03 -.155E+03 -.440E+04   0.393E+01 0.252E+01 0.182E+01   0.101E-01 -.655E-01 0.782E-01
   0.222E+03 0.435E+02 0.890E+03   -.222E+03 -.414E+02 -.888E+03   -.307E+00 -.145E+01 -.203E+01   0.478E-01 -.259E-01 -.373E-01
   0.515E+03 0.202E+03 -.193E+04   -.517E+03 -.203E+03 0.192E+04   0.210E+01 0.397E+00 0.200E+01   0.106E+00 0.118E-01 -.158E+00
   0.457E+03 0.260E+03 -.497E+04   -.459E+03 -.262E+03 0.497E+04   0.130E+01 0.189E+01 -.338E+01   0.829E-01 0.126E+00 -.383E-01
   0.790E+03 -.538E+02 0.344E+04   -.794E+03 0.554E+02 -.344E+04   0.334E+01 -.152E+01 0.145E+01   -.228E-01 0.142E+00 0.114E+00
   0.436E+03 0.285E+03 0.824E+02   -.438E+03 -.285E+03 -.820E+02   0.161E+01 0.185E+00 -.425E+00   0.306E-02 0.942E-01 -.661E-01
   0.389E+03 0.483E+02 -.282E+04   -.392E+03 -.487E+02 0.282E+04   0.230E+01 0.704E+00 0.770E+00   -.264E-01 0.695E-01 -.152E+00
   -.128E+03 0.406E+03 -.527E+04   0.123E+03 -.407E+03 0.527E+04   0.544E+01 0.942E+00 -.131E+01   -.126E-01 -.495E-01 0.862E-01
   0.284E+03 0.358E+03 -.428E+04   -.288E+03 -.360E+03 0.428E+04   0.269E+01 0.149E+01 0.212E-01   -.716E-01 -.103E+00 -.111E+00
   0.591E+03 0.367E+03 0.230E+04   -.593E+03 -.371E+03 -.230E+04   0.185E+01 0.319E+01 -.327E+00   -.471E-02 -.438E-01 0.599E-01
   0.443E+03 0.355E+03 -.929E+03   -.445E+03 -.355E+03 0.929E+03   0.143E+01 0.396E+00 -.181E+00   0.525E-02 -.680E-01 -.189E+00
   -.757E+03 0.959E+02 -.405E+04   0.762E+03 -.970E+02 0.406E+04   -.430E+01 0.126E+01 -.118E+01   -.487E-01 0.782E-01 -.104E+00
   -.681E+03 0.359E+03 0.529E+04   0.678E+03 -.356E+03 -.529E+04   0.293E+01 -.325E+01 0.484E+00   0.280E-01 -.417E-01 0.373E-01
   -.556E+03 0.279E+03 0.244E+04   0.559E+03 -.280E+03 -.244E+04   -.259E+01 0.113E+01 0.231E-01   -.286E-01 -.326E-01 0.522E-01
   -.471E+03 0.104E+03 -.786E+03   0.472E+03 -.103E+03 0.783E+03   -.531E+00 -.816E+00 0.276E+01   -.329E-03 -.189E-01 -.990E-01
   -.251E+03 -.681E+02 0.468E+04   0.253E+03 0.689E+02 -.468E+04   -.807E+00 -.704E+00 0.576E+01   0.388E-01 0.100E+00 0.832E-01
   -.180E+03 0.341E+03 0.996E+03   0.178E+03 -.341E+03 -.992E+03   0.153E+01 0.684E+00 -.221E+01   0.753E-02 0.728E-01 -.287E-01
   -.277E+03 0.134E+03 -.184E+04   0.279E+03 -.135E+03 0.183E+04   -.175E+01 0.118E+01 0.254E+01   -.587E-02 0.708E-01 -.283E+00
   -.187E+03 0.337E+03 -.500E+04   0.187E+03 -.339E+03 0.500E+04   -.486E+00 0.109E+01 0.193E+01   -.520E-02 0.680E-02 -.228E-01
   -.481E+03 -.273E+02 0.348E+04   0.487E+03 0.291E+02 -.349E+04   -.509E+01 -.141E+01 0.246E+01   -.463E-01 -.193E-01 0.906E-01
   -.449E+03 0.175E+03 0.938E+02   0.451E+03 -.174E+03 -.941E+02   -.120E+01 -.356E+00 0.312E+00   -.215E-01 -.482E-01 -.117E+00
   -.357E+03 0.428E+03 -.331E+04   0.361E+03 -.431E+03 0.331E+04   -.433E+01 0.274E+01 -.150E+01   0.920E-02 -.680E-01 -.148E+00
   -.409E+02 -.194E+03 0.526E+04   0.399E+02 0.198E+03 -.527E+04   -.479E+00 -.381E+01 0.727E+01   -.470E-02 0.246E-01 0.765E-01
   -.117E+03 0.923E+02 -.208E+04   0.118E+03 -.935E+02 0.208E+04   -.255E+00 0.732E+00 -.180E+01   0.750E-02 0.736E-01 0.931E-02
   -.196E+03 0.220E+03 0.180E+04   0.197E+03 -.222E+03 -.180E+04   -.193E+01 0.181E+01 0.373E+01   0.119E-01 0.160E-02 0.479E-01
   -.840E+02 0.102E+03 0.342E+03   0.842E+02 -.103E+03 -.343E+03   -.456E-01 0.135E+01 0.106E+01   0.176E-01 0.251E-01 -.560E-02
   0.116E+00 0.139E+03 -.745E+03   -.126E+01 -.141E+03 0.740E+03   0.711E+00 0.155E+01 0.154E+01   0.239E-01 0.650E-01 -.443E-01
   0.199E+03 -.216E+03 0.230E+04   -.201E+03 0.217E+03 -.231E+04   0.723E+00 -.663E+00 0.116E+01   -.302E-02 0.696E-01 -.196E-01
   -.310E+02 0.106E+03 0.997E+03   0.324E+02 -.108E+03 -.995E+03   -.125E+01 0.144E+01 -.795E+00   0.312E-01 0.194E-01 0.597E-01
   0.209E+02 0.135E+03 -.509E+02   -.212E+02 -.138E+03 0.501E+02   0.201E+00 0.229E+01 0.789E+00   0.136E-01 0.285E-02 -.661E-01
   -.664E+02 0.203E+03 -.133E+04   0.678E+02 -.205E+03 0.133E+04   -.127E+01 0.326E+00 -.138E+01   -.303E-01 -.427E-01 -.713E-01
   -.708E+01 0.104E+03 0.582E+03   0.806E+01 -.105E+03 -.579E+03   -.484E+00 0.141E+01 -.110E+01   -.810E-02 -.226E-01 0.705E-02
   -.194E+02 0.149E+03 -.445E+03   0.196E+02 -.150E+03 0.441E+03   0.256E+00 0.141E+01 0.150E+01   -.195E-01 -.264E-01 -.853E-01
   -.442E+02 0.161E+03 -.174E+04   0.441E+02 -.162E+03 0.175E+04   0.598E+00 -.127E+00 -.340E+00   -.144E-01 -.206E-02 -.193E-01
   0.123E+03 0.567E+02 0.220E+04   -.124E+03 -.579E+02 -.221E+04   0.397E+00 0.515E+00 0.281E+01   -.638E-02 -.347E-01 0.155E-01
   -.182E+03 -.476E+02 0.228E+04   0.185E+03 0.476E+02 -.229E+04   -.118E+01 0.527E+00 0.109E+01   0.278E-01 -.406E-01 -.201E-01
   -.187E+03 -.148E+03 0.110E+04   0.188E+03 0.150E+03 -.109E+04   -.158E+01 -.817E+00 0.613E+00   0.892E-02 -.273E-01 0.223E-01
   -.119E+03 -.104E+03 -.130E+03   0.121E+03 0.106E+03 0.131E+03   -.196E+01 -.167E+01 -.290E-01   -.152E-03 -.545E-01 -.593E-01
   -.252E+03 -.177E+03 -.138E+04   0.253E+03 0.179E+03 0.138E+04   -.397E-01 -.307E+00 -.140E+01   -.128E-01 -.571E-01 -.557E-01
   -.340E+02 -.755E+02 0.204E+04   0.355E+02 0.769E+02 -.205E+04   -.324E+00 -.998E+00 0.172E+01   -.128E-01 -.155E-01 0.270E-01
   0.535E+02 -.173E+03 0.544E+03   -.540E+02 0.176E+03 -.544E+03   -.680E-01 -.294E+01 0.768E+00   0.665E-03 0.960E-02 0.140E-01
   -.861E+02 -.139E+03 -.590E+03   0.872E+02 0.141E+03 0.589E+03   -.126E+01 -.230E+01 -.788E-01   0.909E-02 0.226E-01 -.860E-01
   -.200E+02 -.175E+03 -.181E+04   0.213E+02 0.174E+03 0.181E+04   -.397E+00 0.341E+00 -.716E+00   0.239E-01 0.867E-01 -.219E-01
   -.128E+03 -.129E+03 0.266E+03   0.130E+03 0.131E+03 -.266E+03   -.149E+01 -.224E+01 0.905E+00   -.233E-01 0.121E-01 -.156E-01
   -.150E+03 -.635E+02 -.847E+03   0.152E+03 0.658E+02 0.845E+03   -.141E+01 -.219E+01 -.130E+00   -.105E-01 0.303E-02 -.864E-01
   0.421E+02 0.227E+03 -.219E+04   -.418E+02 -.228E+03 0.219E+04   -.170E+00 0.744E+00 -.195E+01   -.160E-03 -.332E-01 0.549E-01
   -.109E+03 -.259E+03 0.168E+04   0.110E+03 0.261E+03 -.168E+04   0.119E+00 -.128E+01 0.301E+01   0.702E-03 0.238E-01 0.481E-01
   0.221E+03 0.756E+02 0.185E+04   -.225E+03 -.764E+02 -.185E+04   0.273E+01 0.181E+00 0.283E+01   -.141E-01 -.465E-01 0.178E-01
   0.122E+03 -.136E+03 0.488E+03   -.124E+03 0.138E+03 -.487E+03   0.224E+01 -.139E+01 0.184E+01   0.124E-01 -.357E-01 0.972E-02
   0.160E+03 -.662E+02 -.647E+03   -.162E+03 0.676E+02 0.648E+03   0.211E+01 -.942E+00 -.171E+01   0.175E-01 -.337E-01 -.906E-01
   0.422E+03 -.152E+03 -.183E+04   -.427E+03 0.155E+03 0.183E+04   0.303E+01 -.187E+01 -.125E+01   0.215E-01 -.276E-01 -.210E-01
   0.171E+03 -.714E+02 0.191E+03   -.173E+03 0.724E+02 -.191E+03   0.251E+01 -.116E+01 -.276E-01   -.124E-01 0.334E-01 0.586E-02
   0.935E+02 -.955E+02 -.106E+04   -.962E+02 0.970E+02 0.106E+04   0.288E+01 -.173E+01 -.102E+01   -.491E-01 0.485E-01 -.530E-01
   0.299E+02 -.200E+03 -.222E+04   -.310E+02 0.202E+03 0.223E+04   0.194E+00 -.464E+00 -.166E+01   -.232E-01 0.342E-01 0.530E-01
   0.261E+03 0.385E+02 0.157E+04   -.264E+03 -.383E+02 -.158E+04   0.167E+01 -.298E+00 0.224E+01   -.281E-02 0.351E-02 0.397E-01
   -.385E+02 0.936E+02 0.219E+04   0.376E+02 -.940E+02 -.220E+04   0.110E+01 -.545E+00 0.295E+01   -.127E-01 0.297E-01 -.232E-02
   0.186E+03 0.120E+03 0.830E+03   -.189E+03 -.122E+03 -.827E+03   0.137E+01 0.169E+01 -.187E+01   0.467E-03 -.187E-03 0.485E-01
   0.144E+03 -.427E+02 -.212E+03   -.147E+03 0.431E+02 0.213E+03   0.291E+01 -.767E+00 -.729E+00   0.904E-02 0.918E-02 -.755E-01
   0.158E+03 0.774E+02 -.149E+04   -.160E+03 -.767E+02 0.150E+04   0.157E+01 -.826E+00 -.252E+01   0.331E-01 -.436E-01 -.747E-01
   -.215E+02 0.180E+02 -.395E+02   0.796E-12 -.838E-12 0.205E-11   0.215E+02 -.180E+02 0.412E+02   0.201E+00 0.434E-01 -.175E+01

 POSITION                                       TOTAL-FORCE (eV/Angst)
      5.93240      9.18116      1.35198         0.427509     -0.833409     -0.915307
      6.84285      7.49250      2.62550         0.163914     -0.208056      4.012622
      7.82056      6.07621      5.25100         0.031159     -0.181771      0.141234
      8.79827      4.65991      7.87651         0.377478      0.458167     -0.261747
      9.56701      3.24738     10.03023         0.376869      0.073516      1.458851
      2.61774      3.87870      3.50067         0.603858     -1.352348      2.799178
      3.59545      2.46241      6.12617        -0.081395     -0.451953     -0.037401
      4.57317      1.04611      8.75167        -0.580817      1.197019     -0.780168
     12.02719      5.68511      2.18308        -0.207486     -0.489956     -0.959624
      3.79121      7.36487      9.33789        -0.657820      0.264744      0.651877
      6.32302      2.09594      3.09973         0.287415      0.268634      0.508318
      8.47237      0.26490      4.37584         0.826915      0.016297      1.030395
     13.02338      8.27371      7.00134         0.085072     -0.415424     -0.311458
      5.57771      5.19694      2.34752         0.102088      0.326776     -1.495994
      6.61816      3.96023      4.55733         0.144015      0.667640      0.692936
      7.59587      2.54394      7.18283         0.189653     -0.457515     -1.536536
      8.39517      1.15306      9.48249        -0.685338      0.365848      1.084033
      1.41534      1.76273      2.80700        -0.873815      0.198381      1.723092
      2.39305      0.34643      5.43250         0.049738     -0.045510     -0.059949
      6.94406      8.35524      8.05800        -0.757960      0.388900     -2.848775
      6.98670      6.83196      9.81821         0.968248     -0.374406      0.879088
      2.66219      4.79960      8.65624        -1.095213     -0.450992      1.358647
     10.84326      7.57403      3.68216        -0.228626     -1.278838      0.915332
     11.82097      6.15773      6.30767        -0.159256      0.057327     -0.031820
      0.84018      1.55816      8.80467         0.803953      0.233031      0.656309
      7.96241      5.65609      1.67702         0.468603     -0.338956     -1.304963
      9.02296      4.33443      3.86366         0.074824      0.224508      0.288623
     10.00068      2.91813      6.48916         0.163772     -0.017369     -0.108335
      3.82015      2.13692      2.11332         1.016344      0.209191      1.051849
      4.79786      0.72063      4.73883        -0.845477     -0.026798      1.278113
      9.34887      8.72943      7.36433        -0.318798      0.330595     -1.482276
     10.31763      7.70376      9.34734         0.404801     -0.793124      1.079267
      3.16834      7.94822      2.98849         0.714274      0.409118      1.296984
      4.14605      6.53193      5.61399         0.259074      0.199448     -0.103683
      5.12376      5.11563      8.23950         0.095164      0.138697     -1.829524
      7.56459      0.23156      1.97785        -1.408332      0.687386     -0.953115
      3.58046      9.39658      9.93361         0.622665     -0.327824      1.942072
      7.35546      3.82659      2.42507        -0.050647     -0.365185     -0.844959
      8.33317      2.41029      5.05057         0.152279      0.078145     -0.134877
      9.31088      0.99399      7.67607        -0.409147     -0.635841     -3.430679
      2.20538      1.72306      0.93128        -1.148843      1.079101     -3.992288
      3.13035      0.21279      3.30024         0.239593     -0.100383      0.925485
      7.68136      8.22159      5.92574        -0.110878     -0.245988     -0.060676
      8.65907      6.80530      8.55124         0.098476     -1.636540     -0.286860
      2.47854      6.02409      4.17540         0.487733      0.383814      1.680747
      3.45626      4.60779      6.80091         0.454343      0.307009     -2.832585
      4.19468      3.31434      8.90063         0.479418     -0.820998      2.111082
     11.60572      7.64719      1.72250        -0.757457     -0.740474     -3.615740
      7.32307      7.41080      0.70228         1.208049      0.506193     -3.623577
      8.88655      6.52099      3.30837         0.126066      0.585044      1.049924
      9.86427      5.10469      5.93387         0.040190      0.026247      0.329172
     10.84198      3.68840      8.55937         1.356116      1.110918     -0.391321
      3.68751      4.36609      1.80734         1.126869      0.407940     -2.610315
      4.66145      2.90719      4.18354        -0.577543      0.451389      1.225095
      5.63916      1.49089      6.80904        -0.159416      0.152583     -0.723018
      6.49106      0.28969      9.14183         0.931019      0.022987      1.894511
      4.00964      8.71849      5.05870         0.167674      0.046346      0.327780
      4.98735      7.30220      7.68420         0.924653      0.110163     -1.989326
      5.15605      6.00096     10.09611         0.161853     -0.659949      3.477093
      9.53836      0.70969      2.43320         1.420991      0.642021      0.026884
      4.88233      7.38543      1.88095        -1.718284     -0.662281     -1.585888
      5.82436      6.04450      4.19167         0.247134      0.636254      2.605704
      6.80207      4.62821      6.81717        -0.012938      0.481959     -0.676992
      7.78498      3.20314      9.12569        -2.274884      0.861181      2.367220
      1.59925      2.43070      5.06683         0.047995     -0.085538      0.236579
      2.57697      1.01441      7.69234         0.122470     -0.148731     -0.552627
      7.41349      8.87963      9.95329        -0.949598      0.900626      3.592979
     10.78749      3.91883      2.70186        -1.798995     -0.057115     -1.701632
      5.65383      1.27449      1.38126         0.166403     -0.862791     -3.384673
      6.47692      0.07730      3.73326        -0.850449      0.171503      0.536426
     11.02718      8.24201      5.94200         0.376204     -0.352283      0.456646
     12.00489      6.82571      8.56750        -0.873519     -0.258296     -0.233437
    total drift:                                0.165125      0.057358     -0.027944

  FREE ENERGIE OF THE ION-ELECTRON SYSTEM (eV)
  free  energy   TOTEN  =      -352.18464179 eV

  energy  without entropy=     -351.17800730  energy(sigma->0) =     -351.68132454