 vasp.6.1.0 28Jan20 (build Mar 31 2020 17:42:31) gamma-only

 executed on             LinuxIFC date 2020.04.13  01:49:08

 INCAR:
 POTCAR:    PAW_PBE Ni_pv 06Sep2000
 POTCAR:    PAW_PBE S 06Sep2000
 POTCAR:    PAW_PBE Ni_pv 06Sep2000
   VRHFIN =Ni:

   TITEL  = PAW_PBE Ni_pv 06Sep2000
   POMASS =   58.690; ZVAL   =   16.000    mass and valenz
   ENMAX  =  367.986; ENMIN  =  275.989 eV

 POTCAR:    PAW_PBE S 06Sep2000
   VRHFIN =S : s2p4

   TITEL  = PAW_PBE S 06Sep2000
   POMASS =   32.066; ZVAL   =    6.000    mass and valenz
   ENMAX  =  258.689; ENMIN  =  194.016 eV

 Optimization of the real space projectors (new method)

 maximal supplied QI-value         = 18.90
 optimisation between [QCUT,QGAM] = [ 10.77, 21.73] = [ 32.49,132.25] Ry
 Optimized for a Real-space Cutoff    1.38 Angstroem

   l    n(q)    QCUT    max X(q) W(low)/X(q) W(high)/X(q)  e(spline)
   1      8    10.771     2.836    0.40E-04    0.29E-04    0.12E-06
   1      8    10.771     4.023    0.10E-03    0.48E-04    0.29E-06
   2      8    10.771    73.368    0.42E-03    0.97E-04    0.44E-06
   2      8    10.771    69.010    0.42E-03    0.99E-04    0.45E-06
   0      9    10.771    54.797    0.10E-03    0.56E-04    0.74E-07
   0      9    10.771    24.266    0.89E-04    0.49E-04    0.67E-07
 Optimization of the real space projectors (new method)

 maximal supplied QI-value         = 19.84
 optimisation between [QCUT,QGAM] = [ 10.71, 21.63] = [ 32.15,130.99] Ry
 Optimized for a Real-space Cutoff    1.19 Angstroem

   l    n(q)    QCUT    max X(q) W(low)/X(q) W(high)/X(q)  e(spline)
   0      8    10.715   187.594    0.41E-03    0.53E-04    0.66E-07
   0      8    10.715   164.243    0.41E-03    0.53E-04    0.65E-07
   1      7    10.715    67.533    0.19E-03    0.59E-03    0.68E-07
   1      7    10.715    50.729    0.19E-03    0.58E-03    0.67E-07
  PAW_PBE Ni_pv 06Sep2000               :
  PAW_PBE S 06Sep2000                   :

 POSCAR: Structure 28 made from 011-3.xsd file
  positions in direct lattice
 exchange correlation table for  LEXCH =        8
   RHO(1)=    0.500       N(1)  =     2000
   RHO(2)=  100.500       N(2)  =     4000

 ion  position               nearest neighbor table
   1  0.645  0.915  0.103-  31 2.25  37 2.26  38 2.36  46 2.36  19 2.53
   2  0.583  0.790  0.257-  32 2.25  46 2.26  38 2.26  39 2.36  47 2.36  10 2.53  20 2.53
   3  0.333  0.290  0.051-  34 2.25  40 2.36  49 2.36  12 2.53  22 2.53
   4  0.270  0.165  0.206-  35 2.25  49 2.26  40 2.26  50 2.36  41 2.36  13 2.53  23 2.53
   5  0.208  0.040  0.360-  36 2.25  50 2.26  41 2.26  42 2.36  51 2.36  24 2.53  14 2.53
   6  0.020  0.665  0.000-  43 2.36  52 2.36
   7  0.958  0.540  0.154-  28 2.25  52 2.26  43 2.26  44 2.36  53 2.36  25 2.53  16 2.53
   8  0.895  0.415  0.309-  29 2.25  53 2.26  44 2.26  45 2.36  54 2.36  17 2.53  26 2.53
   9  0.832  0.290  0.463-  30 2.25  54 2.26  45 2.26  18 2.53  27 2.53
  10  0.599  0.559  0.217-  40 2.25  46 2.26  28 2.26  47 2.36  29 2.36   2 2.53  20 2.53
  11  0.537  0.434  0.371-  41 2.25  29 2.26  47 2.26  30 2.36  48 2.36  21 2.53
  12  0.349  0.059  0.011-  31 2.36  49 2.36   3 2.53  22 2.53
  13  0.287  0.934  0.165-  43 2.25  31 2.26  49 2.26  50 2.36  32 2.36   4 2.53  23 2.53
  14  0.224  0.809  0.320-  44 2.25  50 2.26  32 2.26  51 2.36  33 2.36  24 2.53   5 2.53
  15  0.161  0.683  0.474-  45 2.25  51 2.26  33 2.26
  16  0.974  0.309  0.114-  37 2.25  34 2.26  52 2.26  35 2.36  53 2.36  25 2.53   7 2.53
  17  0.912  0.184  0.268-  38 2.25  53 2.26  35 2.26  36 2.36  54 2.36   8 2.53  26 2.53
  18  0.849  0.058  0.423-  39 2.25  54 2.26  36 2.26   9 2.53  27 2.53
  19  0.909  0.915  0.103-  49 2.25  37 2.26  38 2.36  28 2.36   1 2.53
  20  0.847  0.790  0.257-  50 2.25  28 2.26  38 2.26  29 2.36  39 2.36   2 2.53  10 2.53
  21  0.784  0.665  0.412-  51 2.25  29 2.26  39 2.26  30 2.36  11 2.53
  22  0.597  0.290  0.051-  52 2.25  31 2.36  40 2.36  12 2.53   3 2.53
  23  0.534  0.165  0.206-  53 2.25  31 2.26  40 2.26  41 2.36  32 2.36  13 2.53   4 2.53
  24  0.472  0.040  0.360-  54 2.25  41 2.26  32 2.26  42 2.36  33 2.36   5 2.53  14 2.53
  25  0.222  0.540  0.154-  46 2.25  34 2.26  43 2.26  44 2.36  35 2.36   7 2.53  16 2.53
  26  0.159  0.415  0.309-  47 2.25  35 2.26  44 2.26  45 2.36  36 2.36  17 2.53   8 2.53
  27  0.097  0.290  0.463-  48 2.25  36 2.26  45 2.26  18 2.53   9 2.53
  28  0.825  0.674  0.153-   7 2.25  20 2.26  10 2.26  19 2.36
  29  0.763  0.549  0.307-   8 2.25  21 2.26  11 2.26  20 2.36  10 2.36
  30  0.700  0.424  0.462-   9 2.25  11 2.36  21 2.36
  31  0.513  0.050  0.102-   1 2.25  23 2.26  13 2.26  22 2.36  12 2.36
  32  0.450  0.924  0.256-   2 2.25  24 2.26  14 2.26  23 2.36  13 2.36
  33  0.387  0.799  0.410-  15 2.26  14 2.36  24 2.36
  34  0.200  0.425  0.050-   3 2.25  25 2.26  16 2.26
  35  0.138  0.299  0.204-   4 2.25  26 2.26  17 2.26  16 2.36  25 2.36
  36  0.075  0.174  0.359-   5 2.25  27 2.26  18 2.26  17 2.36  26 2.36
  37  0.867  0.094  0.051-  16 2.25  19 2.26   1 2.26
  38  0.804  0.969  0.205-  17 2.25   2 2.26  20 2.26  19 2.36   1 2.36
  39  0.741  0.843  0.359-  18 2.25  21 2.26   2 2.36  20 2.36
  40  0.492  0.344  0.153-  10 2.25   4 2.26  23 2.26   3 2.36  22 2.36
  41  0.429  0.219  0.308-  11 2.25  24 2.26   5 2.26  23 2.36   4 2.36
  42  0.366  0.093  0.462-  24 2.36   5 2.36
  43  0.179  0.719  0.102-  13 2.25  25 2.26   7 2.26   6 2.36
  44  0.117  0.594  0.256-  14 2.25  26 2.26   8 2.26  25 2.36   7 2.36
  45  0.054  0.468  0.411-  15 2.25   9 2.26  27 2.26   8 2.36  26 2.36
  46  0.489  0.674  0.153-  25 2.25  10 2.26   2 2.26   1 2.36
  47  0.426  0.549  0.307-  26 2.25  11 2.26   2 2.36  10 2.36
  48  0.363  0.424  0.462-  27 2.25  11 2.36
  49  0.176  0.050  0.102-  19 2.25   4 2.26  13 2.26   3 2.36  12 2.36
  50  0.114  0.924  0.256-  20 2.25   5 2.26  14 2.26   4 2.36  13 2.36
  51  0.051  0.799  0.410-  21 2.25  15 2.26  14 2.36   5 2.36
  52  0.864  0.425  0.050-  22 2.25   7 2.26  16 2.26   6 2.36
  53  0.801  0.299  0.204-  23 2.25   8 2.26  17 2.26   7 2.36  16 2.36
  54  0.739  0.174  0.359-  24 2.25   9 2.26  18 2.26  17 2.36   8 2.36

  LATTYP: Found a base centered orthorhombic cell.
 ALAT       =     9.5784100000
 B/A-ratio  =     1.8519363485
 C/A-ratio  =     1.9847903504

  Lattice vectors:

 A1 = (   8.4281814759,   5.5287226424,   0.0000000000)
 A2 = (   0.0000000000, -10.0797329849,   0.0000000000)
 A3 = (   0.0000000000,   0.0000000000, -19.0111357400)

Analysis of symmetry for initial positions (statically):
 Subroutine PRICEL returns:
 Original cell was already a primitive cell.

 Routine SETGRP: Setting up the symmetry group for a
 base centered orthorhombic supercell.

 Subroutine GETGRP returns: Found  1 space group operations
 (whereof  1 operations were pure point group operations)
 out of a pool of  8 trial point group operations.

The static configuration has the point symmetry C_1 .

Analysis of symmetry for dynamics (positions and initial velocities):
 Subroutine PRICEL returns:
 Original cell was already a primitive cell.

 Routine SETGRP: Setting up the symmetry group for a
 base centered orthorhombic supercell.

 Subroutine GETGRP returns: Found  1 space group operations
 (whereof  1 operations were pure point group operations)
 out of a pool of  8 trial point group operations.

The dynamic configuration has the point symmetry C_1 .

 Subroutine INISYM returns: Found  1 space group operations
 (whereof  1 operations are pure point group operations),
 and found     1 'primitive' translations

                                     Primitive cell

  volume of cell :    1615.0686

  direct lattice vectors                    reciprocal lattice vectors
     8.428181476 -4.551010342  0.000000000     0.118649557  0.000000000  0.000000000
     0.000000000 10.079732985  0.000000000     0.053570403  0.099208977  0.000000000
     0.000000000  0.000000000 19.011135740     0.000000000  0.000000000  0.052600750

  length of vectors
     9.578410000 10.079732985 19.011135740     0.118649557  0.112748434  0.052600750

  position of ions in fractional coordinates (direct lattice)
     0.645270229  0.915243159  0.102959234
     0.582630317  0.789963333  0.257398085
     0.332816867  0.290336434  0.051479617
     0.270176954  0.165056608  0.205918468
     0.207537041  0.039776783  0.360357319
     0.020363505  0.665429709  0.000000000
     0.957723592  0.540149884  0.154438851
     0.895083679  0.414870058  0.308877702
     0.832443766  0.289590232  0.463316553
     0.599180157  0.558857015  0.216594414
     0.536540245  0.433577189  0.371033265
     0.349366708  0.059230116  0.010675946
     0.286726795  0.933950290  0.165114797
     0.224086882  0.808670464  0.319553648
     0.161446969  0.683390639  0.473992499
     0.974273433  0.309043565  0.113635180
     0.911633520  0.183763740  0.268074031
     0.848993607  0.058483914  0.422512882
     0.909476229  0.915243159  0.102959234
     0.846836317  0.789963333  0.257398085
     0.784196404  0.664683508  0.411836936
     0.597022867  0.290336434  0.051479617
     0.534382954  0.165056608  0.205918468
     0.471743041  0.039776783  0.360357319
     0.221929592  0.540149884  0.154438851
     0.159289679  0.414870058  0.308877702
     0.096649766  0.289590232  0.463316553
     0.825181678  0.674430055  0.153010292
     0.762541765  0.549150230  0.307449143
     0.699901852  0.423870404  0.461887994
     0.512728315  0.049523331  0.101530675
     0.450088403  0.924243505  0.255969526
     0.387448490  0.798963679  0.410408377
     0.200274953  0.424616606  0.050051058
     0.137635040  0.299336780  0.204489909
     0.074995127  0.174056954  0.358928760
     0.866747645  0.093991989  0.050529303
     0.804107732  0.968712164  0.204968154
     0.741467819  0.843432338  0.359407005
     0.491654369  0.343805439  0.153488537
     0.429014457  0.218525613  0.307927388
     0.366374544  0.093245787  0.462366239
     0.179201007  0.718898714  0.102008920
     0.116561094  0.593618888  0.256447771
     0.053921181  0.468339063  0.410886622
     0.488751678  0.674430055  0.153010292
     0.426111765  0.549150230  0.307449143
     0.363471852  0.423870404  0.461887994
     0.176298315  0.049523331  0.101530675
     0.113658403  0.924243505  0.255969526
     0.051018490  0.798963679  0.410408377
     0.863844953  0.424616606  0.050051058
     0.801205040  0.299336780  0.204489909
     0.738565127  0.174056954  0.358928760

  ion indices of the primitive-cell ions
   primitive index   ion index
                 1           1
                 2           2
                 3           3
                 4           4
                 5           5
                 6           6
                 7           7
                 8           8
                 9           9
                10          10
                11          11
                12          12
                13          13
                14          14
                15          15
                16          16
                17          17
                18          18
                19          19
                20          20
                21          21
                22          22
[...]
      51 -91.3316      52 -91.2841      53 -91.6606      54 -91.8245

 E-fermi :   0.9722     XC(G=0):  -6.5030     alpha+bet : -6.1254

 k-point     1 :       0.0000    0.0000    0.0000
  band No.  band energies     occupation
      1     -63.2139      2.00000
      2     -63.1896      2.00000
      3     -63.1818      2.00000
      4     -63.1686      2.00000
      5     -63.1685      2.00000
      6     -63.1628      2.00000
      7     -63.1466      2.00000
      8     -63.1465      2.00000
      9     -63.1426      2.00000
     10     -63.1366      2.00000
     11     -63.1341      2.00000
     12     -63.1318      2.00000
     13     -63.1287      2.00000
     14     -63.1275      2.00000
     15     -63.1150      2.00000
     16     -63.1125      2.00000
     17     -63.1109      2.00000
     18     -63.1096      2.00000
     19     -63.1081      2.00000
     20     -63.1066      2.00000
     21     -63.1054      2.00000
     22     -63.0881      2.00000
     23     -63.0877      2.00000
     24     -63.0842      2.00000
     25     -63.0691      2.00000
     26     -63.0624      2.00000
     27     -63.0586      2.00000
     28     -63.0524      2.00000
     29     -63.0468      2.00000
     30     -63.0464      2.00000
     31     -63.0458      2.00000
     32     -63.0336      2.00000
     33     -63.0308      2.00000
     34     -63.0190      2.00000
     35     -62.9981      2.00000
     36     -62.9749      2.00000
     37     -62.9722      2.00000
     38     -62.9637      2.00000
     39     -62.9587      2.00000
     40     -62.9529      2.00000
     41     -62.9468      2.00000
     42     -62.9274      2.00000
     43     -62.8995      2.00000
     44     -62.8909      2.00000
     45     -62.8901      2.00000
     46     -62.8773      2.00000
     47     -62.8695      2.00000
     48     -62.7883      2.00000
     49     -62.7772      2.00000
     50     -62.7322      2.00000
     51     -62.6954      2.00000
     52     -62.6815      2.00000
     53     -62.6777      2.00000
     54     -62.6659      2.00000
     55     -62.5837      2.00000
     56     -62.5757      2.00000
     57     -62.5431      2.00000
     58     -62.5114      2.00000
     59     -62.4950      2.00000
     60     -62.4554      2.00000
[...]
    346       5.9982      0.00000
    347       6.0343      0.00000
    348       6.1814      0.00000
    349       6.3111      0.00000
    350       6.4087      0.00000
    351       6.4671      0.00000
    352       6.5123      0.00000
    353       6.5698      0.00000
    354       6.6513      0.00000
    355       6.6587      0.00000
    356       6.7291      0.00000
    357       6.8225      0.00000
    358       6.8525      0.00000
    359       6.9358      0.00000
    360       6.9493      0.00000

 soft charge-density along one line, spin component           1
         0         1         2         3         4         5         6         7         8         9
 total charge-density along one line

------------------------ aborting loop because EDIFF is reached ----------------------------------------

  FORCE on cell =-STRESS in cart. coord.  units (eV):
  Direction    XX          YY          ZZ          XY          YZ          ZX
  Alpha Z  1295.57566  1295.57566  1295.57566
  Ewald  141272.24157140667.66074************    80.83946  -638.87781   341.60582
  Hartree168827.78465168389.20739************    63.73813  -398.58883   308.91309
  E(xc)   -3768.05115 -3768.37574 -3771.55966     0.01119    -0.83675    -0.11629
  Local  ************************308161.07367  -140.60387  1009.88677  -656.94210
  n-local  -523.14763  -526.19854  -524.66513    -1.73501    -2.71278    -1.69918
  augment  4341.09651  4345.36161  4343.65237    -0.60042    11.34578     3.61680
  Kinetic  8219.41001  8220.72431  8242.33804    -3.59156    27.52415     8.56635
  Fock        0.00000     0.00000     0.00000     0.00000     0.00000     0.00000
  Total     -25.63374   -27.52606   -29.46852    -1.94209     7.74053     3.94448
  in kB     -25.42913   -27.30635   -29.23331    -1.92659     7.67875     3.91300

 VOLUME and BASIS-vectors are now :
  energy-cutoff  :      450.00
  volume of cell :     1615.07
      direct lattice vectors                 reciprocal lattice vectors
     8.428181476 -4.551010342  0.000000000     0.118649557  0.000000000  0.000000000
     0.000000000 10.079732985  0.000000000     0.053570403  0.099208977  0.000000000
     0.000000000  0.000000000 19.011135740     0.000000000  0.000000000  0.052600750

  length of vectors
     9.578410000 10.079732985 19.011135740     0.118649557  0.112748434  0.052600750

 FORCES acting on ions
    electron-ion (+dipol)            ewald-force                    non-local-force                 convergence-correction
   0.333E+03 0.209E+03 0.336E+04   -.330E+03 -.206E+03 -.335E+04   -.218E+01 -.213E+01 -.255E+00   -.129E-01 -.236E-02 0.905E-02
   0.320E+03 -.261E+03 -.467E+03   -.321E+03 0.261E+03 0.467E+03   0.107E+01 -.728E+00 0.601E+00   -.713E-03 0.307E-02 0.797E-02
   0.930E+02 -.718E+03 0.386E+04   -.953E+02 0.719E+03 -.386E+04   0.175E+01 -.733E+00 -.181E+01   -.755E-02 0.130E-01 0.103E-01
   0.278E+03 -.450E+03 0.736E+03   -.278E+03 0.451E+03 -.737E+03   -.163E+00 -.111E+01 0.367E+00   0.199E-03 0.337E-02 0.431E-02
   0.280E+03 -.316E+03 -.274E+04   -.279E+03 0.316E+03 0.275E+04   -.507E+00 -.745E+00 -.297E+01   -.132E-02 0.805E-02 0.116E-01
   0.551E+02 -.169E+03 0.413E+04   -.528E+02 0.160E+03 -.412E+04   -.215E+01 0.796E+01 -.114E+02   0.807E-02 -.756E-02 0.122E-03
   0.266E+03 -.490E+03 0.195E+04   -.266E+03 0.493E+03 -.195E+04   0.445E+00 -.245E+01 0.154E+01   0.114E-01 -.154E-02 0.605E-02
   0.298E+03 -.465E+03 -.139E+04   -.299E+03 0.466E+03 0.139E+04   0.665E+00 -.134E+01 0.134E+01   -.180E-02 -.661E-02 0.178E-01
   0.508E+03 -.214E+03 -.425E+04   -.506E+03 0.215E+03 0.424E+04   -.168E+01 0.576E+00 0.533E+01   0.644E-02 -.103E-01 -.111E-02
   0.217E+03 0.234E+03 0.977E+03   -.218E+03 -.234E+03 -.978E+03   0.126E+01 0.346E+00 0.630E+00   -.205E-02 0.654E-02 0.193E-02
   0.271E+03 -.459E+02 -.277E+04   -.273E+03 0.465E+02 0.277E+04   0.217E+01 0.152E+00 -.186E+01   0.181E-02 -.447E-02 0.111E-01
   0.199E+03 0.493E+03 0.440E+04   -.194E+03 -.484E+03 -.439E+04   -.436E+01 -.883E+01 -.102E+02   -.514E-02 -.372E-03 0.531E-02
   0.239E+03 0.563E+03 0.190E+04   -.240E+03 -.564E+03 -.191E+04   0.107E+01 0.162E+01 0.158E+01   0.249E-02 -.342E-02 0.691E-02
   0.127E+03 0.470E+03 -.153E+04   -.127E+03 -.472E+03 0.153E+04   -.387E-01 0.162E+01 -.855E+00   0.221E-02 -.114E-02 0.408E-02
   -.230E+03 -.801E+02 -.420E+04   0.233E+03 0.833E+02 0.419E+04   -.275E+01 -.304E+01 0.119E+02   -.604E-02 -.727E-02 0.186E-02
   0.166E+03 0.408E+03 0.310E+04   -.166E+03 -.411E+03 -.310E+04   0.448E+00 0.294E+01 0.375E+01   0.180E-01 0.681E-03 0.883E-02
   0.271E+03 0.507E+03 -.277E+03   -.271E+03 -.508E+03 0.276E+03   0.330E+00 0.621E+00 0.855E+00   -.815E-03 0.239E-02 0.193E-01
   0.469E+03 0.745E+03 -.365E+04   -.467E+03 -.741E+03 0.364E+04   -.209E+01 -.389E+01 0.376E+01   0.738E-02 0.137E-01 0.822E-02
   0.564E+02 0.248E+03 0.329E+04   -.557E+02 -.244E+03 -.329E+04   -.653E+00 -.292E+01 0.315E+00   0.116E-02 -.300E-02 0.867E-02
   -.323E+03 0.196E+01 -.319E+03   0.324E+03 -.113E+01 0.319E+03   -.125E+01 -.701E+00 0.958E+00   0.181E-02 0.258E-02 0.146E-01
   0.326E+02 -.347E+03 -.371E+04   -.307E+02 0.345E+03 0.370E+04   -.156E+01 0.148E+01 0.288E+01   0.918E-02 0.353E-02 0.773E-02
   -.544E+03 -.258E+03 0.384E+04   0.544E+03 0.257E+03 -.384E+04   0.400E+00 0.736E+00 -.112E+01   -.283E-02 0.521E-02 0.731E-02
   -.507E+03 0.273E+02 0.738E+03   0.508E+03 -.263E+02 -.739E+03   -.108E+01 -.790E+00 0.470E+00   -.197E-02 -.371E-02 0.129E-01
   -.430E+03 0.183E+03 -.276E+04   0.430E+03 -.183E+03 0.277E+04   0.213E-01 0.491E-01 -.352E+01   0.156E-01 0.222E-02 0.101E-01
   -.698E+03 -.567E+02 0.210E+04   0.701E+03 0.569E+02 -.210E+04   -.242E+01 -.205E+00 0.251E+01   0.971E-02 -.476E-02 0.163E-02
   -.708E+03 -.318E+02 -.146E+04   0.710E+03 0.319E+02 0.146E+04   -.226E+01 -.150E+00 0.153E+01   -.793E-02 -.147E-02 0.111E-01
   -.563E+03 0.250E+03 -.423E+04   0.564E+03 -.249E+03 0.422E+04   -.219E+00 -.494E+00 0.498E+01   -.108E-01 -.531E-03 0.356E-02
   0.481E+02 0.180E+02 0.986E+03   -.488E+02 -.190E+02 -.989E+03   0.112E+01 0.137E+01 0.219E+01   -.528E-03 0.284E-03 0.415E-02
   -.428E+02 0.498E+02 -.438E+03   0.441E+02 -.518E+02 0.437E+03   -.189E+01 0.209E+01 0.133E+01   0.612E-02 -.721E-03 0.305E-02
   0.120E+03 -.526E+02 -.161E+04   -.121E+03 0.527E+02 0.161E+04   0.846E+00 0.629E+00 -.333E+01   0.440E-02 -.598E-02 0.378E-02
   -.126E+03 0.223E+03 0.122E+04   0.128E+03 -.224E+03 -.122E+04   -.115E+01 0.151E+01 -.723E+00   -.252E-02 -.124E-02 0.525E-02
   -.107E+03 0.182E+03 -.289E+02   0.108E+03 -.184E+03 0.279E+02   -.135E+01 0.201E+01 0.120E+01   0.312E-02 0.905E-03 0.244E-02
   -.251E+03 0.217E+03 -.134E+04   0.254E+03 -.221E+03 0.134E+04   -.391E+01 0.441E+01 -.722E+00   0.341E-02 0.109E-02 0.221E-02
   -.144E+03 -.881E+02 0.164E+04   0.145E+03 0.896E+02 -.165E+04   -.337E+00 -.247E+01 0.472E+01   0.338E-02 0.115E-02 0.408E-02
   -.120E+03 0.108E+03 0.427E+03   0.121E+03 -.110E+03 -.427E+03   -.129E+01 0.206E+01 0.255E+00   0.304E-02 0.244E-02 0.631E-03
   -.106E+03 0.166E+03 -.832E+03   0.107E+03 -.168E+03 0.832E+03   -.172E+01 0.191E+01 0.157E+01   -.442E-02 0.404E-02 0.986E-02
   0.547E+01 -.546E+01 0.165E+04   -.547E+01 0.550E+01 -.165E+04   -.589E+00 -.110E+01 0.429E+01   0.155E-02 0.238E-02 -.932E-03
   -.297E+02 -.857E+02 0.371E+03   0.310E+02 0.875E+02 -.370E+03   -.161E+01 -.233E+01 -.114E+01   -.107E-02 -.214E-03 0.802E-02
   0.130E+03 -.566E+02 -.104E+04   -.131E+03 0.571E+02 0.105E+04   0.138E+01 -.892E+00 -.179E+01   0.301E-02 0.297E-02 0.357E-02
   -.120E+03 -.251E+03 0.760E+03   0.121E+03 0.253E+03 -.760E+03   -.792E+00 -.149E+01 -.892E+00   -.394E-02 0.575E-03 0.175E-02
   -.835E+02 -.170E+03 -.546E+03   0.849E+02 0.172E+03 0.547E+03   -.153E+01 -.271E+01 -.144E+01   0.447E-03 -.536E-02 0.909E-03
   -.304E+02 -.413E+02 -.171E+04   0.308E+02 0.419E+02 0.171E+04   -.532E+00 -.792E+00 -.497E+01   0.238E-02 0.677E-03 0.274E-02
   -.161E+03 -.355E+02 0.125E+04   0.163E+03 0.362E+02 -.125E+04   -.256E+01 -.243E+00 0.296E+00   0.270E-02 -.386E-02 0.699E-03
   -.120E+03 -.155E+03 -.855E+02   0.121E+03 0.157E+03 0.860E+02   -.128E+01 -.251E+01 -.599E+00   0.173E-03 -.393E-02 0.519E-03
   -.150E+03 -.175E+03 -.122E+04   0.151E+03 0.177E+03 0.122E+04   -.137E+01 -.262E+01 0.839E+00   -.509E-02 -.778E-02 0.525E-02
   0.328E+02 0.283E+02 0.103E+04   -.332E+02 -.296E+02 -.103E+04   0.447E+00 0.194E+01 0.261E+01   -.712E-02 -.169E-03 0.188E-02
   0.430E+02 -.102E+03 -.607E+03   -.441E+02 0.103E+03 0.608E+03   0.163E+01 -.162E+01 -.104E+01   -.269E-02 0.422E-02 -.718E-04
   -.169E+03 -.817E+02 -.154E+04   0.171E+03 0.832E+02 0.154E+04   -.133E+01 -.236E+01 -.306E+01   -.917E-02 -.327E-03 0.561E-02
   0.227E+03 -.159E+02 0.121E+04   -.229E+03 0.159E+02 -.121E+04   0.171E+01 -.174E+00 -.858E+00   0.431E-02 0.174E-02 0.338E-02
   0.177E+03 -.281E+01 -.139E+02   -.179E+03 0.272E+01 0.129E+02   0.263E+01 0.907E-01 0.121E+01   -.246E-02 0.172E-02 0.703E-03
   0.891E+02 -.102E+03 -.134E+04   -.903E+02 0.103E+03 0.134E+04   0.152E+01 -.124E+01 -.112E+01   -.458E-02 0.813E-03 0.331E-02
   0.626E+02 -.140E+02 0.158E+04   -.640E+02 0.132E+02 -.158E+04   0.820E+00 0.184E+01 0.167E+01   0.393E-02 0.214E-02 -.227E-02
   0.158E+03 -.169E+02 0.425E+03   -.160E+03 0.169E+02 -.425E+03   0.234E+01 -.535E-01 0.323E+00   -.956E-03 -.935E-03 0.773E-02
   0.213E+03 0.393E+02 -.833E+03   -.215E+03 -.393E+02 0.832E+03   0.252E+01 -.316E+00 0.180E+01   0.207E-02 -.165E-03 0.786E-02
   0.219E+02 0.152E+02 -.142E+02   0.159E-11 0.313E-12 -.568E-12   -.220E+02 -.152E+02 0.139E+02   0.330E-01 0.229E-02 0.297E+00

 POSITION                                       TOTAL-FORCE (eV/Angst)
      5.43845      6.28878      1.95737         0.603172      0.371088      0.572340
      4.91051      5.31106      4.89343        -0.040779     -0.284953      0.137377
      2.80504      1.41186      0.97869        -0.491818      0.100560      0.952910
      2.27710      0.43415      3.91474         0.233030      0.137417     -0.227472
      1.74916     -0.54356      6.85080         0.252826     -0.177876      0.645155
      0.17163      6.61468      0.00000         0.077459     -1.198579      2.170932
      8.07187      1.08596      2.93606         0.053972      0.138265     -0.141995
      7.54393      0.10824      5.87212         0.050324     -0.060976      0.257668
      7.01599     -0.86947      8.80817         0.235246      0.905649     -1.504427
      5.05000      2.90625      4.11771        -0.058860      0.202027     -0.476498
      4.52206      1.92854      7.05376         0.006622      0.725717      0.690478
      2.94453     -0.99295      0.20296         0.182044      0.352695      2.063484
      2.41659      8.10907      3.13902        -0.018530      0.029188     -0.288509
      1.88864      7.13136      6.07508         0.038308     -0.125978      0.489529
      1.36070      6.15365      9.01114         0.222158      0.184542     -2.069579
      8.21135     -1.31885      2.16033         0.302596     -0.067805     -0.366534
      7.68341     -2.29656      5.09639         0.016842     -0.038916      0.148436
      7.15547     -3.27428      8.03245         0.133949      0.239044     -1.639557
      7.66523      5.08637      1.95737         0.069326      0.596048      0.430168
      7.13729      4.10866      4.89343        -0.021292      0.135990      0.043258
      6.60935      3.13095      7.82949         0.270408     -0.576687     -0.618208
      5.03182      0.20946      0.97869         0.154037     -0.238664      0.980331
      4.50388     -0.76826      3.91474        -0.048879      0.210889     -0.208896
      3.97594     -1.74597      6.85080        -0.348460      0.000744      0.757944
      1.87046      4.43456      2.93606         0.078433     -0.078737     -0.477768
      1.34252      3.45685      5.87212         0.086816     -0.019838      0.186552
      0.81458      2.47914      8.80817         0.995423      0.682475     -1.446082
      6.95478      3.04266      2.90890         0.381451      0.373146     -0.108874
      6.42684      2.06495      5.84496        -0.563247      0.101910      0.017056
      5.89890      1.08724      8.78102        -0.296472      0.720285     -0.015317
      4.32137     -1.83425      1.93021        -0.091900     -0.095998     -1.590800
      3.79343      7.26777      4.86627        -0.044068     -0.046617      0.160706
      3.26549      6.29006      7.80233        -0.726324      0.605572      0.159963
      1.68795      3.36857      0.95153         0.455320     -1.036549      0.043680
      1.16001      2.39086      3.88759        -0.153803      0.099882      0.107883
      0.63207      1.41314      6.82364        -0.350869     -0.170456      0.937097
      7.30511     -2.99716      0.96062        -0.588729     -1.066446      0.763050
      6.77717      6.10486      3.89668        -0.359341     -0.569107      0.053462
      6.24923      5.12715      6.83274         0.191409     -0.334650      0.635072
      4.14375      1.22794      2.91799         0.063882      0.081326     -0.844763
      3.61581      0.25023      5.85405        -0.136492     -0.187850      0.161877
      3.08787     -0.72748      8.79011        -0.119293     -0.180501     -1.399080
      1.51034      6.43076      1.93931        -0.649310      0.484255     -0.672588
      0.98240      5.45305      4.87536         0.007275     -0.063778     -0.065564
      0.45446      4.47534      7.81142        -0.129415     -0.292436      1.486254
      4.11929      4.57376      2.90890         0.066061      0.649942     -0.197802
      3.59135      3.59605      5.84496         0.452067     -0.493322     -0.188947
      3.06341      2.61834      8.78102        -0.139061     -0.803431      0.219882
      1.48587     -0.30315      1.93021         0.009177     -0.214073     -1.638628
      0.95793      8.79887      4.86627         0.000242      0.004877      0.161355
      0.42999      7.82115      7.80233         0.236722     -0.230404      0.745663
      7.28064      0.34865      0.95153        -0.611806      0.961189     -0.974809
      6.75270     -0.62906      3.88759         0.034574     -0.065565      0.016234
      6.22476     -1.60677      6.82364         0.027582     -0.374531      0.966900
    total drift:                               -0.017643     -0.017841     -0.000412

  FREE ENERGIE OF THE ION-ELECTRON SYSTEM (eV)
  free  energy   TOTEN  =      -263.88319862 eV

  energy  without entropy=     -263.08484536  energy(sigma->0) =     -263.48402199