 vasp.5.4.4.18Apr17-6-g9f103f2a35 (build Aug 13 2019 17:33:20) gamma-only

 executed on             LinuxIFC date 2020.05.11  21:02:54

 INCAR:
 POTCAR:    PAW_PBE Ni_pv 06Sep2000
 POTCAR:    PAW_PBE S 06Sep2000
 POTCAR:    PAW_PBE Ni_pv 06Sep2000
   VRHFIN =Ni:

   TITEL  = PAW_PBE Ni_pv 06Sep2000
   POMASS =   58.690; ZVAL   =   16.000    mass and valenz
   ENMAX  =  367.986; ENMIN  =  275.989 eV

 POTCAR:    PAW_PBE S 06Sep2000
   VRHFIN =S : s2p4

   TITEL  = PAW_PBE S 06Sep2000
   POMASS =   32.066; ZVAL   =    6.000    mass and valenz
   ENMAX  =  258.689; ENMIN  =  194.016 eV

 Optimization of the real space projectors (new method)

 maximal supplied QI-value         = 18.90
 optimisation between [QCUT,QGAM] = [ 10.77, 21.73] = [ 32.49,132.25] Ry
 Optimized for a Real-space Cutoff    1.38 Angstroem

   l    n(q)    QCUT    max X(q) W(low)/X(q) W(high)/X(q)  e(spline)
   1      8    10.771     2.836    0.40E-04    0.29E-04    0.12E-06
   1      8    10.771     4.023    0.10E-03    0.48E-04    0.29E-06
   2      8    10.771    73.368    0.42E-03    0.97E-04    0.44E-06
   2      8    10.771    69.010    0.42E-03    0.99E-04    0.45E-06
   0      9    10.771    54.797    0.10E-03    0.56E-04    0.74E-07
   0      9    10.771    24.266    0.89E-04    0.49E-04    0.67E-07
 Optimization of the real space projectors (new method)

 maximal supplied QI-value         = 19.84
 optimisation between [QCUT,QGAM] = [ 10.71, 21.63] = [ 32.15,130.99] Ry
 Optimized for a Real-space Cutoff    1.19 Angstroem

   l    n(q)    QCUT    max X(q) W(low)/X(q) W(high)/X(q)  e(spline)
   0      8    10.715   187.594    0.41E-03    0.53E-04    0.66E-07
   0      8    10.715   164.243    0.41E-03    0.53E-04    0.65E-07
   1      7    10.715    67.533    0.19E-03    0.59E-03    0.68E-07
   1      7    10.715    50.729    0.19E-03    0.58E-03    0.67E-07
  PAW_PBE Ni_pv 06Sep2000               :
  PAW_PBE S 06Sep2000                   :

 POSCAR: Type_036 Type_136
  positions in cartesian coordinates
 exchange correlation table for  LEXCH =        8
   RHO(1)=    0.500       N(1)  =     2000
   RHO(2)=  100.500       N(2)  =     4000

 ion  position               nearest neighbor table
   1  0.780  0.145  0.121-  49 2.06  63 2.06  41 2.25  64 2.35  50 2.40
   2  0.214  0.667  0.097-  43 2.03  44 2.09  51 2.19   3 2.39  61 2.48  27 2.50
   3  0.297  0.645  0.216-  62 2.10  52 2.12  44 2.25  51 2.26  61 2.26   2 2.39  28 2.53  15 2.53

   4  0.390  0.158  0.117-  45 2.05  46 2.06  53 2.25  67 2.41  17 2.43   5 2.51
   5  0.470  0.145  0.248-  68 2.08  54 2.09  46 2.24  53 2.26  67 2.26   4 2.51  31 2.53  18 2.53

[...]

   7  0.948  0.646  0.303-  48 2.01  55 2.06  65 2.07   6 2.44
   8  0.125  0.145  0.184-  57 2.08  71 2.13  58 2.15  38 2.25   9 2.30  72 2.36  20 2.36  34 2.53
                            21 2.53
   9  0.081  0.126  0.319-  37 2.02  72 2.22  58 2.22   8 2.30
  10  0.570  0.634  0.159-  39 2.00  69 2.13  40 2.19  59 2.29  11 2.30
  11  0.642  0.645  0.280-  60 2.03  70 2.03  40 2.25  59 2.26  69 2.26  10 2.30  36 2.53  24 2.53

  12  0.907  0.001  0.120-  63 2.06  56 2.10  64 2.10  38 2.24  13 2.49
  13  0.943  0.007  0.269-  37 2.05  38 2.09  55 2.14  64 2.21  12 2.49
  14  0.445  0.436  0.054-  53 2.08  39 2.13  15 2.36  27 2.49  61 2.51
  15  0.425  0.513  0.191-  62 2.10  53 2.25  39 2.26  61 2.26  14 2.36  40 2.36  16 2.48  28 2.53
                             3 2.53
  16  0.460  0.477  0.338-  54 2.01  62 2.02  40 2.05  15 2.48
  17  0.531  0.143  0.088-  41 2.02  67 2.05  53 2.09   4 2.43  30 2.45
  18  0.597  0.013  0.223-  42 2.03  68 2.08  59 2.25  67 2.26  41 2.26   5 2.53  31 2.53
  19  0.080  0.513  0.127-  57 2.06  43 2.07  66 2.10  44 2.36  65 2.36  20 2.38   6 2.53  32 2.53

[...]

  37  0.970  0.139  0.364-   9 2.02  13 2.05  26 2.05
  38  0.991  0.145  0.182-  26 2.07  13 2.09  25 2.21  12 2.24   8 2.25
  39  0.474  0.645  0.087-  10 2.00  27 2.03  14 2.13  28 2.26  15 2.26
  40  0.509  0.645  0.278-  16 2.05  29 2.07  10 2.19  11 2.25  28 2.36  15 2.36
  41  0.647  0.145  0.119-  17 2.02   1 2.25  31 2.26  18 2.26  30 2.42  42 2.77
  42  0.667  0.145  0.289-  18 2.03  31 2.03  41 2.77
  43  0.112  0.646  0.032-   2 2.03  32 2.06  19 2.07
  44  0.164  0.645  0.214-  33 2.03   2 2.09   3 2.25  32 2.36  19 2.36
  45  0.281  0.146  0.063-   4 2.05  34 2.06  21 2.07
  46  0.338  0.142  0.232-  22 2.05   4 2.06  21 2.24   5 2.24  34 2.27  58 2.79
  47  0.819  0.645  0.151-  35 2.23   6 2.25  36 2.26  24 2.26  23 2.38
  48  0.832  0.646  0.333-   7 2.01  36 2.08  24 2.08
  49  0.819  0.291  0.036-  23 2.02  25 2.06   1 2.06
  50  0.826  0.317  0.218-  25 2.09  23 2.11  24 2.19  26 2.29   1 2.40
  51  0.312  0.814  0.119-  27 2.04   2 2.19  21 2.25   3 2.26  28 2.26
  52  0.350  0.792  0.298-  22 2.03  29 2.05   3 2.12  28 2.15
  53  0.484  0.314  0.151-  14 2.08  17 2.09  30 2.18   4 2.25  15 2.25  31 2.26   5 2.26
  54  0.520  0.297  0.324-  16 2.01   5 2.09  31 2.10
  55  0.001  0.814  0.246-  33 2.01   7 2.06  13 2.14   6 2.36  32 2.36  56 2.76
  56  0.967  0.822  0.080-   6 2.08  12 2.10  32 2.10  55 2.76
  57  0.140  0.327  0.116-  19 2.06   8 2.08  34 2.08  20 2.18
  58  0.190  0.241  0.283-  20 2.00   8 2.15   9 2.22  34 2.30  72 2.54  46 2.79
  59  0.657  0.814  0.183-  18 2.25  36 2.26  11 2.26  35 2.27  10 2.29  60 2.73
  60  0.690  0.801  0.348-  11 2.03  36 2.03  59 2.73
  61  0.312  0.477  0.119-  27 2.03  34 2.25   3 2.26  15 2.26   2 2.48  14 2.51
  62  0.349  0.493  0.293-  16 2.02  15 2.10   3 2.10
  63  0.815  0.996  0.036-  35 2.02  12 2.06   1 2.06
  64  0.824  0.976  0.215-  12 2.10  35 2.11  36 2.20  13 2.21   1 2.35
  65  0.001  0.477  0.246-  20 2.03   7 2.07  26 2.12   6 2.36  19 2.36  66 2.77
  66  0.967  0.470  0.079-   6 2.08  25 2.10  19 2.10  65 2.77
  67  0.484  0.977  0.151-  17 2.05  28 2.25  18 2.26   5 2.26   4 2.41
  68  0.525  0.004  0.327-  29 2.00  18 2.08   5 2.08
  69  0.657  0.477  0.183-  30 2.10  10 2.13  23 2.21  31 2.25  24 2.26  11 2.26  70 2.76
  70  0.692  0.493  0.349-  11 2.03  24 2.03  69 2.76
  71  0.141  0.965  0.109-  21 2.09  32 2.10   8 2.13  72 2.79
  72  0.174  0.977  0.278-  33 2.03  22 2.07   9 2.22   8 2.36  21 2.36  58 2.54  71 2.79

  LATTYP: Found a simple orthorhombic cell.
 ALAT       =     9.5784100000
 B/A-ratio  =     1.6880763216
 C/A-ratio  =     1.7627867312

  Lattice vectors:

 A1 = (   0.0000000000,   9.5784100000,   0.0000000000)
 A2 = (   0.0000000000,   0.0000000000, -16.1690871197)
 A3 = ( -16.8846940542,   0.0000000000,   0.0000000000)

Analysis of symmetry for initial positions (statically):
 Subroutine PRICEL returns:
 Original cell was already a primitive cell.

 Routine SETGRP: Setting up the symmetry group for a
 simple orthorhombic supercell.

 Subroutine GETGRP returns: Found  1 space group operations
 (whereof  1 operations were pure point group operations)
 out of a pool of  8 trial point group operations.

The static configuration has the point symmetry C_1 .

Analysis of symmetry for dynamics (positions and initial velocities):
 Subroutine PRICEL returns:
 Original cell was already a primitive cell.

 Routine SETGRP: Setting up the symmetry group for a
 simple orthorhombic supercell.

 Subroutine GETGRP returns: Found  1 space group operations
 (whereof  1 operations were pure point group operations)
 out of a pool of  8 trial point group operations.

The dynamic configuration has the point symmetry C_1 .

 Subroutine INISYM returns: Found  1 space group operations
 (whereof  1 operations are pure point group operations),
 and found     1 'primitive' translations

 KPOINTS: gamma-point-only calculation. no periodi

Automatic generation of k-mesh.
Space group operators:
 irot       det(A)        alpha          n_x          n_y          n_z        tau_x        tau_y        tau_z
    1     1.000000     0.000000     1.000000     0.000000     0.000000     0.000000     0.000000     0.000000

 Subroutine IBZKPT returns following result:

 Found      1 irreducible k-points:

 Following reciprocal coordinates:
            Coordinates               Weight
  0.000000  0.000000  0.000000      1.000000

 Following cartesian coordinates:
            Coordinates               Weight
  0.000000  0.000000  0.000000      1.000000

 SYSTEM =  "Millerite NiS"
 POSCAR =  Type_036 Type_136

 Startparameter for this run:
   NWRITE =      2    write-flag & timer
   PREC   = normal    normal or accurate (medium, high low for compatibility)
   ISTART =      0    job   : 0-new  1-cont  2-samecut
   ICHARG =      2    charge: 1-file 2-atom 10-const
   ISPIN  =      1    spin polarized calculation?
   LNONCOLLINEAR =      F non collinear calculations
   LSORBIT =      F    spin-orbit coupling
   INIWAV =      1    electr: 0-lowe 1-rand  2-diag
   LASPH  =      F    aspherical Exc in radial PAW
   METAGGA=      F    non-selfconsistent MetaGGA calc.

 Electronic Relaxation 1
   ENCUT  =  450.0 eV  33.07 Ry    5.75 a.u.  29.20 16.57 27.97*2*pi/ulx,y,z
   ENINI  =  450.0     initial cutoff
   ENAUG  =  703.4 eV  augmentation charge cutoff
   NELM   =    100;   NELMIN=  2; NELMDL= -5     # of ELM steps
   EDIFF  = 0.1E-03   stopping-criterion for ELM
   LREAL  =      T    real-space projection
   NLSPLINE    = F    spline interpolate recip. space projectors
   LCOMPAT=      F    compatible to vasp.4.4
   GGA_COMPAT  = T    GGA compatible to vasp.4.4-vasp.4.6
   LMAXPAW     = -100 max onsite density
   LMAXMIX     =    2 max onsite mixed and CHGCAR
   VOSKOWN=      0    Vosko Wilk Nusair interpolation
   ROPT   =   -0.00050  -0.00050
 Ionic relaxation
   EDIFFG = 0.1E-02   stopping-criterion for IOM
   NSW    =      0    number of steps for IOM
   NBLOCK =      1;   KBLOCK =      1    inner block; outer block
   IBRION =     -1    ionic relax: 0-MD 1-quasi-New 2-CG
   NFREE  =      0    steps in history (QN), initial steepest desc. (CG)
   ISIF   =      2    stress and relaxation
   IWAVPR =     10    prediction:  0-non 1-charg 2-wave 3-comb
   ISYM   =      2    0-nonsym 1-usesym 2-fastsym
   LCORR  =      T    Harris-Foulkes like correction to forces

   POTIM  = 0.5000    time-step for ionic-motion
   TEIN   =    0.0    initial temperature
   TEBEG  =    0.0;   TEEND  =   0.0 temperature during run
   SMASS  =  -3.00    Nose mass-parameter (am)
   estimated Nose-frequenzy (Omega)   =  0.10E-29 period in steps =****** mass=  -0.652E-26a.u.
   SCALEE = 1.0000    scale energy and forces
   NPACO  =    256;   APACO  = 16.0  distance and # of slots for P.C.
   PSTRESS=    0.0 pullay stress

  Mass of Ions in am
   POMASS =  58.69 32.07
  Ionic Valenz
   ZVAL   =  16.00  6.00
  Atomic Wigner-Seitz radii
  virtual crystal weights
   VCA    =   1.00  1.00
   NELECT =     792.0000    total number of electrons
   NUPDOWN=      -1.0000    fix difference up-down

 DOS related values:
   EMIN   =  10.00;   EMAX   =-10.00  energy-range for DOS
   EFERMI =   0.00
   ISMEAR =     0;   SIGMA  =   0.20  broadening in eV -4-tet -1-fermi 0-gaus

 Electronic relaxation 2 (details)
   IALGO  =     38    algorithm
   LDIAG  =      T    sub-space diagonalisation (order eigenvalues)
[...]
  Fock        0.00000     0.00000     0.00000     0.00000     0.00000     0.00000
  Total     115.53847   122.34594   142.91126    -2.94490    -2.61432     1.15935
  in kB      70.78889    74.95973    87.55983    -1.80430    -1.60176     0.71032

 VOLUME and BASIS-vectors are now :
  energy-cutoff  :      450.00
  volume of cell :     2615.00
      direct lattice vectors                 reciprocal lattice vectors
    16.884694054  0.000000000  0.000000000     0.059225237  0.000000000  0.000000000
     0.000000000  9.578410000  0.000000000     0.000000000  0.104401461  0.000000000
     0.000000000  0.000000000 16.169087120     0.000000000  0.000000000  0.061846411

  length of vectors
    16.884694054  9.578410000 16.169087120     0.059225237  0.104401461  0.061846411

 FORCES acting on ions
    electron-ion (+dipol)            ewald-force                    non-local-force                 convergence-correction
   0.467E+03 0.138E+03 0.158E+04   -.470E+03 -.137E+03 -.158E+04   0.304E+01 -.138E+00 0.251E+01   -.295E-01 -.126E-02 -.755E-02
   0.195E+03 -.397E+02 0.270E+04   -.195E+03 0.402E+02 -.270E+04   0.122E+01 -.592E+00 0.629E+01   0.228E-01 0.547E-03 -.852E-02
   0.709E+03 0.161E+03 -.138E+04   -.712E+03 -.162E+03 0.138E+04   0.240E+01 0.418E+00 -.481E+01   0.689E-02 -.221E-02 -.141E-01
   0.254E+03 0.297E+03 0.234E+04   -.255E+03 -.298E+03 -.235E+04   0.196E+01 0.880E+00 0.853E+01   0.119E-01 0.722E-02 -.911E-02
   0.410E+03 0.793E+02 -.200E+04   -.414E+03 -.810E+02 0.200E+04   0.273E+01 0.121E+01 -.705E+01   -.492E-02 0.648E-02 -.239E-01
   0.537E+03 -.980E+01 0.131E+04   -.542E+03 0.985E+01 -.131E+04   0.540E+01 -.158E+00 0.336E+01   -.115E-01 0.128E-02 -.118E-01
   -.461E+02 0.567E+02 -.316E+04   0.431E+02 -.558E+02 0.316E+04   0.394E+01 -.108E+01 0.124E+00   -.298E-02 0.470E-03 0.533E-02
   0.324E+03 0.246E+03 0.913E+03   -.329E+03 -.250E+03 -.919E+03   0.437E+01 0.241E+01 0.442E+01   0.200E-01 -.285E-02 -.637E-02
   -.136E+03 0.112E+03 -.352E+04   0.133E+03 -.112E+03 0.352E+04   0.372E+01 -.301E+00 -.565E+01   0.130E-01 -.238E-02 0.365E-02
   -.530E+03 -.540E+03 0.154E+04   0.533E+03 0.541E+03 -.155E+04   -.273E+01 -.104E+01 0.308E+01   -.428E-02 -.121E-01 -.152E-01
   0.403E+02 -.128E+03 -.240E+04   -.429E+02 0.128E+03 0.240E+04   0.196E+01 -.336E-01 -.756E+01   -.214E-01 -.318E-02 -.262E-01
   -.402E+03 0.116E+03 0.222E+04   0.408E+03 -.119E+03 -.222E+04   -.509E+01 0.358E+01 0.404E+01   -.114E-01 -.345E-02 -.967E-02
   0.462E+03 0.352E+03 -.224E+04   -.463E+03 -.355E+03 0.225E+04   0.331E+00 0.302E+01 -.422E+01   -.223E-02 0.343E-05 0.205E-02
   0.169E+02 0.246E+03 0.388E+04   -.145E+02 -.244E+03 -.388E+04   -.253E+01 -.195E+01 -.803E+00   0.168E-01 -.102E-01 0.486E-02
   0.100E+03 0.377E+03 -.306E+03   -.101E+03 -.380E+03 0.308E+03   0.123E+01 0.290E+01 -.238E+01   0.158E-01 -.996E-02 -.272E-01
   0.122E+03 0.260E+03 -.380E+04   -.122E+03 -.263E+03 0.380E+04   0.662E+00 0.345E+01 0.234E+01   0.645E-02 0.239E-02 -.672E-02
   -.284E+03 0.773E+03 0.337E+04   0.283E+03 -.775E+03 -.338E+04   0.411E+00 0.166E+01 0.546E+01   -.896E-02 0.198E-01 -.124E-01
   -.679E+03 0.565E+03 -.756E+03   0.683E+03 -.571E+03 0.757E+03   -.337E+01 0.511E+01 -.267E+01   -.106E-01 -.247E-02 -.193E-01
   0.244E+02 0.355E+03 0.193E+04   -.260E+02 -.356E+03 -.193E+04   0.168E+01 0.157E+01 0.401E+01   0.195E-01 -.138E-02 -.114E-01
   -.220E+03 -.574E+03 -.187E+04   0.220E+03 0.576E+03 0.187E+04   -.111E+01 -.714E+00 -.159E+01   0.178E-01 -.619E-02 -.582E-03
   0.589E+02 0.348E+03 0.124E+04   -.592E+02 -.352E+03 -.125E+04   0.683E+00 0.351E+01 0.375E+01   0.199E-01 0.673E-02 -.115E-01
   0.411E+02 -.118E+03 -.321E+04   -.404E+02 0.113E+03 0.321E+04   -.916E+00 0.460E+01 0.175E+01   0.116E-01 0.283E-02 -.112E-01
   0.833E+02 -.381E+03 0.232E+04   -.846E+02 0.383E+03 -.232E+04   0.695E+00 -.541E+00 0.601E+01   -.353E-01 0.486E-02 -.608E-02
   -.347E+03 0.464E+03 -.179E+04   0.350E+03 -.467E+03 0.179E+04   -.265E+01 0.287E+01 -.497E+01   -.211E-01 -.331E-03 -.144E-01
   -.367E+03 -.104E+03 0.213E+04   0.373E+03 0.106E+03 -.213E+04   -.485E+01 -.332E+01 0.451E+01   -.106E-01 0.307E-04 -.861E-02
   0.526E+03 -.358E+03 -.240E+04   -.528E+03 0.361E+03 0.240E+04   0.101E+01 -.170E+01 -.469E+01   -.209E-02 -.953E-03 0.450E-02
   0.115E+03 -.425E+03 0.384E+04   -.117E+03 0.425E+03 -.385E+04   0.131E+01 -.383E+00 0.493E+01   0.110E-01 -.593E-02 -.796E-03
   -.246E+03 -.684E+03 0.367E+03   0.246E+03 0.688E+03 -.368E+03   0.588E+00 -.424E+01 -.541E+00   0.133E-01 0.884E-03 -.158E-01
   -.133E+03 -.203E+03 -.361E+04   0.135E+03 0.206E+03 0.361E+04   -.138E+01 -.393E+01 0.249E+01   0.522E-02 -.191E-02 -.671E-02
   -.704E+03 -.310E+03 0.321E+04   0.703E+03 0.309E+03 -.322E+04   0.172E+01 0.918E+00 0.145E+01   -.157E-01 0.368E-02 -.585E-02
   -.722E+03 -.114E+03 -.135E+04   0.727E+03 0.118E+03 0.136E+04   -.438E+01 -.330E+01 -.554E+01   -.139E-01 0.152E-01 -.332E-01
   0.136E+03 -.559E+03 0.188E+04   -.136E+03 0.564E+03 -.188E+04   0.578E+00 -.493E+01 0.381E+01   0.194E-01 0.465E-02 -.103E-01
   -.121E+03 0.276E+03 -.290E+04   0.122E+03 -.275E+03 0.290E+04   -.119E+01 -.166E+01 0.190E+01   0.172E-01 0.334E-02 0.450E-03
   0.585E-01 -.491E+03 0.816E+03   0.633E+00 0.494E+03 -.818E+03   -.375E-01 -.246E+01 0.362E+01   0.247E-01 -.466E-02 -.106E-01
   0.421E+03 0.300E+03 0.242E+04   -.423E+03 -.303E+03 -.243E+04   0.958E+00 0.114E+01 0.598E+01   -.224E-01 -.400E-02 -.599E-02
   -.244E+03 -.546E+03 -.174E+04   0.247E+03 0.549E+03 0.174E+04   -.213E+01 -.279E+01 -.437E+01   -.173E-01 0.228E-03 -.167E-01
   0.245E+03 -.700E+01 -.168E+04   -.246E+03 0.683E+01 0.168E+04   -.271E+00 0.144E-01 -.586E+00   0.239E-02 -.529E-03 0.345E-02
   -.111E+03 0.470E+02 0.403E+03   0.113E+03 -.473E+02 -.407E+03   -.214E+00 -.337E+00 0.172E+01   0.477E-02 -.166E-02 -.225E-02
   -.320E+03 -.357E+03 0.129E+04   0.323E+03 0.360E+03 -.129E+04   -.200E+01 -.253E+01 0.214E+01   0.604E-02 -.569E-02 0.818E-03
   -.155E+03 -.438E+02 -.913E+03   0.154E+03 0.440E+02 0.918E+03   0.125E+01 0.509E-01 -.405E+01   0.438E-02 0.121E-02 -.885E-02
   -.313E+03 0.224E+03 0.867E+03   0.315E+03 -.227E+03 -.870E+03   -.239E+00 0.272E+01 0.167E+01   -.853E-02 0.641E-02 -.585E-02
   -.444E+03 0.314E+02 -.119E+04   0.448E+03 -.317E+02 0.119E+04   -.126E+01 0.224E+00 -.106E+01   -.381E-02 0.186E-02 -.509E-02
   0.107E+03 0.221E+02 0.170E+04   -.108E+03 -.221E+02 -.171E+04   0.342E+00 -.108E+00 0.215E+01   0.881E-02 0.806E-03 -.354E-02
   -.262E+02 0.171E+03 -.542E+03   0.256E+02 -.172E+03 0.548E+03   0.121E+01 0.422E+00 -.384E+01   0.945E-02 0.857E-03 -.314E-02
   0.152E+03 0.449E+02 0.158E+04   -.154E+03 -.449E+02 -.159E+04   0.149E+01 -.195E+00 0.226E+01   0.946E-02 0.112E-02 0.313E-02
   0.140E+02 -.175E+03 -.676E+03   -.146E+02 0.176E+03 0.682E+03   0.140E+01 -.101E+01 -.325E+01   0.474E-02 0.172E-02 -.962E-02
   -.279E+02 0.935E+01 0.696E+03   0.288E+02 -.947E+01 -.699E+03   -.336E+00 -.178E+00 0.239E+01   -.102E-01 0.103E-02 -.334E-02
   -.680E+02 -.710E+00 -.146E+04   0.709E+02 0.106E+01 0.147E+04   -.200E+01 -.343E+00 -.248E+01   -.722E-02 -.164E-03 -.990E-03
   -.144E+02 -.665E+02 0.166E+04   0.148E+02 0.677E+02 -.167E+04   -.494E+00 -.473E+00 0.241E+01   -.910E-02 0.957E-03 -.226E-02
   0.106E+03 0.139E+03 -.608E+03   -.108E+03 -.142E+03 0.613E+03   0.103E+01 0.189E+01 -.257E+01   -.935E-02 0.163E-02 -.116E-02
   0.367E+02 -.360E+03 0.856E+03   -.364E+02 0.363E+03 -.859E+03   -.965E+00 -.156E+01 0.228E+01   0.232E-02 0.518E-03 -.335E-02
   0.243E+03 0.535E+02 -.121E+04   -.245E+03 -.525E+02 0.122E+04   0.158E+00 -.408E+00 -.269E+01   0.280E-02 0.925E-03 -.242E-02
   0.908E+02 -.280E+02 0.272E+03   -.918E+02 0.305E+02 -.270E+03   0.197E+00 -.139E+01 -.231E+01   0.324E-02 0.140E-02 -.111E-01
   -.104E+03 0.706E+02 -.145E+04   0.105E+03 -.694E+02 0.146E+04   0.492E-01 -.919E+00 -.229E+01   -.116E-03 -.803E-03 -.663E-02
   0.836E+02 -.902E+02 -.563E+03   -.843E+02 0.921E+02 0.565E+03   -.488E+00 -.149E+01 -.147E+01   0.310E-02 0.322E-02 -.267E-03
   0.825E+02 -.786E+02 0.132E+04   -.842E+02 0.784E+02 -.132E+04   0.131E+01 0.829E+00 0.398E+01   -.196E-02 0.968E-03 -.460E-02
   0.554E+02 0.316E+02 0.115E+04   -.558E+02 -.331E+02 -.116E+04   -.110E+00 0.132E+01 0.517E+01   0.965E-02 -.314E-02 -.283E-02
   -.340E+03 -.180E+03 -.121E+04   0.344E+03 0.182E+03 0.122E+04   -.289E+01 -.140E+01 -.241E+01   0.655E-02 -.163E-02 -.270E-02
   0.312E+02 -.151E+03 0.374E+03   -.331E+02 0.153E+03 -.376E+03   0.117E+01 -.174E+01 0.162E+01   -.575E-02 -.444E-02 -.597E-02
   -.255E+02 -.320E+03 -.151E+04   0.244E+02 0.323E+03 0.151E+04   0.656E+00 -.176E+01 -.137E+01   -.490E-02 -.105E-03 -.328E-02
   0.287E+03 0.292E+03 0.728E+03   -.289E+03 -.295E+03 -.729E+03   0.167E+01 0.153E+01 0.136E+00   0.606E-02 -.247E-02 -.349E-02
   0.429E+03 0.232E+03 -.122E+04   -.432E+03 -.236E+03 0.122E+04   0.109E+01 0.205E+01 -.172E+01   0.368E-03 -.149E-02 -.530E-02
   0.654E+02 0.902E+02 0.165E+04   -.651E+02 -.917E+02 -.165E+04   -.636E+00 0.705E+00 0.219E+01   -.736E-02 -.229E-02 -.251E-03
   0.158E+03 -.130E+03 -.557E+03   -.160E+03 0.132E+03 0.562E+03   0.107E+01 -.176E+01 -.243E+01   -.844E-02 -.221E-02 -.327E-02
   0.446E+02 -.431E+02 -.670E+03   -.452E+02 0.426E+02 0.674E+03   -.552E+00 0.140E+01 -.263E+01   0.172E-02 -.177E-02 0.163E-03
   0.951E+02 0.642E+02 0.134E+04   -.962E+02 -.642E+02 -.135E+04   0.694E+00 -.680E+00 0.378E+01   -.148E-02 0.585E-03 -.487E-02
   -.232E+02 0.309E+03 0.628E+03   0.232E+02 -.312E+03 -.630E+03   -.109E+01 0.189E+01 0.197E+01   -.178E-02 0.347E-02 -.604E-02
   -.163E+03 -.604E+02 -.144E+04   0.163E+03 0.592E+02 0.144E+04   0.572E-01 0.948E+00 -.228E+01   -.319E-02 -.135E-02 -.335E-02
   -.166E+03 -.155E+02 0.137E+03   0.165E+03 0.132E+02 -.137E+03   0.905E+00 0.124E+01 -.631E+00   -.122E-01 -.478E-03 -.114E-01
   -.371E+02 0.299E+03 -.155E+04   0.358E+02 -.303E+03 0.155E+04   0.101E+01 0.173E+01 -.823E+00   -.484E-02 -.376E-03 -.412E-02
   0.137E+03 -.532E+02 0.111E+04   -.137E+03 0.542E+02 -.112E+04   -.350E+00 -.585E+00 0.341E+01   0.847E-02 0.215E-02 -.165E-02
   -.724E+00 0.812E+02 -.935E+03   0.609E+00 -.850E+02 0.937E+03   -.228E+00 0.357E+01 -.427E-01   0.449E-02 0.143E-02 -.252E-02
   -.128E+02 -.775E+01 -.255E+02   0.245E-11 -.142E-12 0.364E-11   0.129E+02 0.768E+01 0.258E+02   0.257E-01 0.697E-02 -.475E+00

 POSITION                                       TOTAL-FORCE (eV/Angst)
     13.17084      1.39171      1.94975        -0.055868     -0.034765      1.519146
      3.62064      6.38689      1.56333         1.116600     -0.114783     -0.434412
      5.02033      6.18092      3.49202        -0.456709      0.061549     -0.206025
      6.58707      1.51260      1.89486         1.033690     -0.145138     -0.619862
      7.93172      1.39171      4.00611        -1.170610     -0.481966     -1.333666
     16.08224      6.18092      2.46384        -0.444179     -0.110192      1.368448
     16.00328      6.19084      4.90073         0.880498     -0.192646      0.841696
      2.10894      1.39171      2.97793        -0.458938     -1.580110     -0.970834
      1.37350      1.20723      5.15381         1.150459     -0.085315      0.212910
      9.63077      6.07063      2.57166         0.549151      0.393224     -0.567486
     10.84312      6.18092      4.52020        -0.672081      0.342116     -0.685679
     15.30604      0.00648      1.93423         1.030281      0.921026      0.006880
     15.91948      0.07159      4.34704        -0.663550     -0.341034     -0.500590
      7.50879      4.17857      0.86565        -0.203522     -0.431488     -0.694978
      7.17375      4.91558      3.08454         0.123417      0.143889     -0.080711
      7.76614      4.57187      5.46300         0.385343      0.079192      0.798130
      8.96615      1.36545      1.41561        -0.337558     -0.051798     -1.886838
     10.08514      0.12638      3.59863        -0.093656     -1.086974     -2.100724
      1.35096      4.91558      2.05636         0.078880      0.779138      0.678167
      1.76245      3.52362      3.93987        -0.175280      0.944495      0.369295
      4.26235      0.12638      2.57045         0.376772     -0.897813      0.601690
      4.97484      9.38917      4.87787        -0.156350      0.044408      1.016587
     12.96900      4.02510      1.92876        -0.675174      1.350197      0.021301
     12.99653      4.91558      4.11272         0.815322      0.099035     -1.430965
     15.33752      2.79908      1.98660         0.864115     -0.765834     -0.152990
     16.03178      2.68926      4.39800        -0.932310      0.848196     -0.316156
      6.02918      6.17660      0.94228        -0.436272      0.191277     -1.696431
      7.17375      7.44626      3.08454         0.306752      0.177552     -1.042625
      7.84810      7.90037      5.37942         0.098782     -0.420885      0.866970
     10.01643      3.58254      1.43454         0.106946      0.385442     -0.944038
     10.08514      2.65705      3.59863         0.156995      0.355702     -0.463624
      1.35096      7.44626      2.05636        -0.113472      0.419097      1.376193
      1.92200      7.61055      4.63334         0.241547     -0.665619      1.078275
      4.26235      2.65705      2.57045         0.677622      0.732912      1.268258
     13.05805      8.20948      1.91821        -0.953732     -1.055393     -0.026943
     12.99653      7.44626      4.11272         0.293753     -0.022922     -1.394831
     16.38629      1.33090      5.89301        -1.045527     -0.151871      4.304264
     16.74052      1.39171      2.94940         1.228359     -0.689046     -2.413119
      8.00634      6.18092      1.40713         1.102899      0.512534     -3.088432
      8.59001      6.18092      4.49167         1.215289      0.234459      1.055934
     10.91773      1.39171      1.92122         1.616417      0.519722     -0.983214
     11.25970      1.38564      4.66790         2.803664     -0.020877      2.774412
      1.88857      6.18734      0.51779         0.019093     -0.143151     -3.636888
      2.76722      6.18092      3.46349         0.549898     -1.346490      1.585345
      4.74443      1.39730      1.01079         0.373223     -0.162591     -4.155991
      5.70775      1.36362      3.75029         0.773595      0.944907      2.036110
     13.82913      6.18092      2.43531         0.552632     -0.295006     -1.354879
     14.05416      6.18287      5.38186         0.861257      0.005554      2.845065
     13.83055      2.78735      0.58361        -0.180855      0.760195     -3.737693
     13.94564      3.03421      3.52133        -0.586553     -0.761851      2.665821
      5.26426      7.79215      1.92599        -0.656767      1.617668     -0.239555
      5.90746      7.58495      4.81429        -1.012630      0.597667      1.959455
      8.17565      3.00295      2.44008        -0.784381      1.043582     -0.561924
      8.78715      2.84922      5.24322         0.157828      0.235555      2.757152
      0.02514      7.79215      3.98236        -1.168888      0.410649      0.838353
     16.32987      7.87604      1.28557        -0.325225      0.607583     -2.733445
      2.35845      3.13307      1.87650        -0.487785     -0.114228     -2.498110
      3.21404      2.30490      4.58323         1.274066      1.144297      2.922967
     11.08705      7.79215      2.95417        -0.730716      0.636493     -1.212299
     11.65686      7.67350      5.62261        -0.437530      1.758887      3.520233
      5.26426      4.56969      1.92599        -0.752832     -1.315110     -0.546176
      5.88743      4.72528      4.72991        -1.799174     -1.807766      1.958693
     13.75779      9.54411      0.57931        -0.352570     -0.742759     -3.901545
     13.90656      9.34491      3.47664        -0.485774      0.659676      2.605868
      0.02514      4.56969      3.98236        -1.099855      0.949351      1.375018
     16.33298      4.49966      1.27028        -0.427622     -0.644498     -2.842949
      8.17565      9.35889      2.44008        -1.117487     -1.371374     -0.181155
      8.87267      0.04145      5.28276         0.279945     -0.172738      2.814468
     11.08705      4.56969      2.95417        -0.133070     -1.042157     -0.758568
     11.67930      4.72032      5.64965        -0.320900     -1.806898      3.597161
      2.38672      9.24549      1.76148        -0.851086      0.419703     -2.727407
      2.93654      9.35889      4.49645        -0.338603     -0.253843      1.483487
    total drift:                                0.057060     -0.060095     -0.087527

  FREE ENERGIE OF THE ION-ELECTRON SYSTEM (eV)
  free  energy   TOTEN  =      -341.11217012 eV

  energy  without entropy=     -339.98594299  energy(sigma->0) =     -340.54905655