 vasp.5.4.4.18Apr17-6-g9f103f2a35 (build Aug 13 2019 17:33:20) gamma-only

 executed on             LinuxIFC date 2020.05.12  02:49:44

 INCAR:
 POTCAR:    PAW_PBE Ni_pv 06Sep2000
 POTCAR:    PAW_PBE S 06Sep2000
 POTCAR:    PAW_PBE Ni_pv 06Sep2000
   VRHFIN =Ni:

   TITEL  = PAW_PBE Ni_pv 06Sep2000
   POMASS =   58.690; ZVAL   =   16.000    mass and valenz
   ENMAX  =  367.986; ENMIN  =  275.989 eV

 POTCAR:    PAW_PBE S 06Sep2000
   VRHFIN =S : s2p4

   TITEL  = PAW_PBE S 06Sep2000
   POMASS =   32.066; ZVAL   =    6.000    mass and valenz
   ENMAX  =  258.689; ENMIN  =  194.016 eV

 Optimization of the real space projectors (new method)

 maximal supplied QI-value         = 18.90
 optimisation between [QCUT,QGAM] = [ 10.77, 21.73] = [ 32.49,132.25] Ry
 Optimized for a Real-space Cutoff    1.38 Angstroem

   l    n(q)    QCUT    max X(q) W(low)/X(q) W(high)/X(q)  e(spline)
   1      8    10.771     2.836    0.40E-04    0.29E-04    0.12E-06
   1      8    10.771     4.023    0.10E-03    0.48E-04    0.29E-06
   2      8    10.771    73.368    0.42E-03    0.97E-04    0.44E-06
   2      8    10.771    69.010    0.42E-03    0.99E-04    0.45E-06
   0      9    10.771    54.797    0.10E-03    0.56E-04    0.74E-07
   0      9    10.771    24.266    0.89E-04    0.49E-04    0.67E-07
 Optimization of the real space projectors (new method)

 maximal supplied QI-value         = 19.84
 optimisation between [QCUT,QGAM] = [ 10.71, 21.63] = [ 32.15,130.99] Ry
 Optimized for a Real-space Cutoff    1.19 Angstroem

   l    n(q)    QCUT    max X(q) W(low)/X(q) W(high)/X(q)  e(spline)
   0      8    10.715   187.594    0.41E-03    0.53E-04    0.66E-07
   0      8    10.715   164.243    0.41E-03    0.53E-04    0.65E-07
   1      7    10.715    67.533    0.19E-03    0.59E-03    0.68E-07
   1      7    10.715    50.729    0.19E-03    0.58E-03    0.67E-07
  PAW_PBE Ni_pv 06Sep2000               :
  PAW_PBE S 06Sep2000                   :

 POSCAR: Type_037 Type_137
  positions in cartesian coordinates
 exchange correlation table for  LEXCH =        8
   RHO(1)=    0.500       N(1)  =     2000
   RHO(2)=  100.500       N(2)  =     4000

 ion  position               nearest neighbor table
   1  0.780  0.145  0.123-  65 2.02  51 2.08  42 2.25  52 2.36  66 2.36  26 2.53
   2  0.799  0.144  0.283-  66 2.02  52 2.05  43 2.06
   3  0.217  0.627  0.098-  44 2.03  45 2.14  63 2.18   4 2.39  53 2.43  15 2.52
   4  0.297  0.645  0.216-  54 2.13  64 2.14  45 2.25  53 2.26  63 2.26   3 2.39  29 2.53  16 2.53

   5  0.389  0.121  0.130-  47 2.04  48 2.14  69 2.15   6 2.39  18 2.47  55 2.47
   6  0.470  0.145  0.247-  56 2.09  70 2.10  48 2.25  55 2.26  69 2.26   5 2.39  32 2.53  19 2.53

   7  0.952  0.645  0.154-  58 2.06  68 2.08  49 2.21  57 2.36  67 2.36  33 2.53  20 2.53
   8  0.974  0.645  0.317-  46 2.05  57 2.06  67 2.06  50 2.10
   9  0.171  0.145  0.046-  47 2.02  73 2.04  59 2.05  10 2.44
  10  0.125  0.145  0.185-  73 2.14  59 2.15  39 2.25  60 2.36  74 2.36  11 2.38   9 2.44  35 2.53
                            22 2.53
  11  0.111  0.145  0.327-  38 2.03  60 2.10  74 2.11  10 2.38
  12  0.642  0.645  0.278-  62 2.03  72 2.03  61 2.09  41 2.25  71 2.32  37 2.53  25 2.53
  13  0.913  0.005  0.123-  65 2.00  58 2.09  66 2.10  39 2.14  14 2.50
  14  0.942  0.013  0.270-  38 2.07  39 2.10  66 2.14  57 2.20  13 2.50
  15  0.363  0.642  0.067-  40 2.02  63 2.02  53 2.07  28 2.45   3 2.52
  16  0.425  0.513  0.192-  64 2.12  55 2.25  63 2.26  41 2.36  17 2.45  40 2.48   4 2.53  29 2.53

[...]

  26  0.909  0.281  0.119-  51 2.08  68 2.11  52 2.11  39 2.19   1 2.53
  27  0.943  0.278  0.270-  38 2.07  39 2.08  52 2.16  67 2.18
  28  0.420  0.877  0.062-  69 2.09  40 2.15  53 2.17  29 2.35  15 2.45
  29  0.425  0.777  0.192-  40 2.07  54 2.17  69 2.25  53 2.26  28 2.35  41 2.36  30 2.46   4 2.53
                            16 2.53
  30  0.465  0.819  0.332-  70 2.01  41 2.04  54 2.05  29 2.46
  31  0.642  0.346  0.087-  42 2.01  71 2.05  32 2.46  24 2.50
  32  0.597  0.277  0.222-  56 2.07  43 2.12  55 2.26  42 2.26  71 2.27  31 2.46  19 2.53   6 2.53

  33  0.080  0.777  0.130-  44 2.06  58 2.09  73 2.13  57 2.36  45 2.36   7 2.53  20 2.53
  34  0.112  0.784  0.295-  46 2.05  57 2.06  45 2.09  74 2.15
  35  0.252  0.277  0.161-  47 2.13  59 2.13  63 2.25  48 2.36  60 2.36  10 2.53  22 2.53
  36  0.290  0.309  0.308-  60 2.04  48 2.04  64 2.05
  37  0.770  0.777  0.253-  62 2.02  61 2.08  50 2.11  66 2.25  49 2.28  12 2.53  25 2.53
  38  0.994  0.145  0.353-  11 2.03  14 2.07  27 2.07
  39  0.991  0.145  0.183-  27 2.08  14 2.10  13 2.14  26 2.19  10 2.25
  40  0.477  0.684  0.093-  15 2.02  29 2.07  28 2.15  16 2.48
  41  0.509  0.645  0.276-  17 2.04  30 2.04  12 2.25  29 2.36  16 2.36
  42  0.647  0.145  0.122-  31 2.01  18 2.02   1 2.25  19 2.26  32 2.26  43 2.75
  43  0.677  0.144  0.284-   2 2.06  19 2.10  32 2.12  42 2.75
  44  0.113  0.645  0.038-   3 2.03  20 2.06  33 2.06
  45  0.164  0.645  0.214-  21 2.09  34 2.09   3 2.14   4 2.25  33 2.36  20 2.36
  46  0.077  0.645  0.382-   8 2.05  34 2.05  21 2.05
  47  0.289  0.148  0.063-   9 2.02   5 2.04  35 2.13  22 2.16
  48  0.336  0.145  0.245-  36 2.04  23 2.05   5 2.14   6 2.25  35 2.36  22 2.36
  49  0.822  0.631  0.159-  25 2.12  24 2.15   7 2.21  37 2.28  50 2.64
  50  0.850  0.647  0.315-   8 2.10  37 2.11  25 2.13  49 2.64
  51  0.815  0.290  0.037-  24 2.03   1 2.08  26 2.08  65 2.72
  52  0.829  0.314  0.215-   2 2.05  26 2.11  24 2.14  27 2.16  25 2.25   1 2.36
  53  0.312  0.814  0.122-  15 2.07  28 2.17  22 2.25   4 2.26  29 2.26   3 2.43
  54  0.350  0.792  0.297-  23 2.04  30 2.05   4 2.13  29 2.17
  55  0.484  0.314  0.153-  18 2.03  16 2.25   6 2.26  32 2.26   5 2.47
  56  0.525  0.290  0.323-  17 2.01  32 2.07   6 2.09  70 2.79
  57  0.001  0.814  0.246-   8 2.06  34 2.06  14 2.20  33 2.36   7 2.36  58 2.75
  58  0.968  0.821  0.084-   7 2.06  33 2.09  13 2.09  57 2.75
  59  0.140  0.323  0.107-   9 2.05  20 2.12  35 2.13  10 2.15
  60  0.174  0.314  0.276-  36 2.04  11 2.10  21 2.15  10 2.36  35 2.36
  61  0.658  0.824  0.208-  37 2.08  12 2.09  19 2.10  62 2.61
  62  0.704  0.769  0.354-  37 2.02  12 2.03  61 2.61  72 2.68
  63  0.312  0.477  0.122-  15 2.02   3 2.18  35 2.25   4 2.26  16 2.26
  64  0.350  0.493  0.293-  36 2.05  17 2.05  16 2.12   4 2.14
  65  0.824  0.007  0.044-  13 2.00   1 2.02  51 2.72
  66  0.829  0.977  0.215-   2 2.02  13 2.10  14 2.14  37 2.25   1 2.36
  67  0.001  0.477  0.246-   8 2.06  21 2.06  27 2.18  20 2.36   7 2.36  68 2.74
  68  0.966  0.467  0.085-   7 2.08  20 2.10  26 2.11  67 2.74
  69  0.484  0.977  0.153-  18 2.07  28 2.09   5 2.15  29 2.25   6 2.26  19 2.26
  70  0.525  0.999  0.323-  30 2.01  19 2.07   6 2.10  56 2.79
  71  0.666  0.471  0.184-  31 2.05  25 2.14  24 2.21  32 2.27  12 2.32  72 2.72
  72  0.691  0.491  0.345-  12 2.03  25 2.03  62 2.68  71 2.72
  73  0.140  0.969  0.108-   9 2.04  33 2.13  10 2.14  22 2.14
  74  0.174  0.977  0.276-  23 2.05  11 2.11  34 2.15  10 2.36  22 2.36

  LATTYP: Found a simple orthorhombic cell.
 ALAT       =     9.5784100000
 B/A-ratio  =     1.7387693453
 C/A-ratio  =     1.7627867312

  Lattice vectors:

 A1 = (   0.0000000000,   9.5784100000,   0.0000000000)
 A2 = (   0.0000000000,   0.0000000000, -16.6546456851)
 A3 = ( -16.8846940542,   0.0000000000,   0.0000000000)

Analysis of symmetry for initial positions (statically):
 Subroutine PRICEL returns:
 Original cell was already a primitive cell.

 Routine SETGRP: Setting up the symmetry group for a
 simple orthorhombic supercell.

 Subroutine GETGRP returns: Found  1 space group operations
 (whereof  1 operations were pure point group operations)
 out of a pool of  8 trial point group operations.

The static configuration has the point symmetry C_1 .

Analysis of symmetry for dynamics (positions and initial velocities):
 Subroutine PRICEL returns:
 Original cell was already a primitive cell.

 Routine SETGRP: Setting up the symmetry group for a
 simple orthorhombic supercell.

 Subroutine GETGRP returns: Found  1 space group operations
 (whereof  1 operations were pure point group operations)
 out of a pool of  8 trial point group operations.

The dynamic configuration has the point symmetry C_1 .

 Subroutine INISYM returns: Found  1 space group operations
 (whereof  1 operations are pure point group operations),
 and found     1 'primitive' translations

 KPOINTS: gamma-point-only calculation. no periodi

Automatic generation of k-mesh.
Space group operators:
 irot       det(A)        alpha          n_x          n_y          n_z        tau_x        tau_y        tau_z
    1     1.000000     0.000000     1.000000     0.000000     0.000000     0.000000     0.000000     0.000000

 Subroutine IBZKPT returns following result:

 Found      1 irreducible k-points:

 Following reciprocal coordinates:
            Coordinates               Weight
  0.000000  0.000000  0.000000      1.000000

 Following cartesian coordinates:
            Coordinates               Weight
  0.000000  0.000000  0.000000      1.000000

 SYSTEM =  "Millerite NiS"
 POSCAR =  Type_037 Type_137

 Startparameter for this run:
   NWRITE =      2    write-flag & timer
   PREC   = normal    normal or accurate (medium, high low for compatibility)
   ISTART =      0    job   : 0-new  1-cont  2-samecut
   ICHARG =      2    charge: 1-file 2-atom 10-const
   ISPIN  =      1    spin polarized calculation?
   LNONCOLLINEAR =      F non collinear calculations
   LSORBIT =      F    spin-orbit coupling
   INIWAV =      1    electr: 0-lowe 1-rand  2-diag
   LASPH  =      F    aspherical Exc in radial PAW
   METAGGA=      F    non-selfconsistent MetaGGA calc.

 Electronic Relaxation 1
   ENCUT  =  450.0 eV  33.07 Ry    5.75 a.u.  29.20 16.57 28.81*2*pi/ulx,y,z
   ENINI  =  450.0     initial cutoff
   ENAUG  =  703.4 eV  augmentation charge cutoff
   NELM   =    100;   NELMIN=  2; NELMDL= -5     # of ELM steps
   EDIFF  = 0.1E-03   stopping-criterion for ELM
   LREAL  =      T    real-space projection
   NLSPLINE    = F    spline interpolate recip. space projectors
   LCOMPAT=      F    compatible to vasp.4.4
   GGA_COMPAT  = T    GGA compatible to vasp.4.4-vasp.4.6
   LMAXPAW     = -100 max onsite density
   LMAXMIX     =    2 max onsite mixed and CHGCAR
   VOSKOWN=      0    Vosko Wilk Nusair interpolation
   ROPT   =   -0.00050  -0.00050
 Ionic relaxation
   EDIFFG = 0.1E-02   stopping-criterion for IOM
   NSW    =      0    number of steps for IOM
   NBLOCK =      1;   KBLOCK =      1    inner block; outer block
   IBRION =     -1    ionic relax: 0-MD 1-quasi-New 2-CG
   NFREE  =      0    steps in history (QN), initial steepest desc. (CG)
   ISIF   =      2    stress and relaxation
   IWAVPR =     10    prediction:  0-non 1-charg 2-wave 3-comb
   ISYM   =      2    0-nonsym 1-usesym 2-fastsym
   LCORR  =      T    Harris-Foulkes like correction to forces

   POTIM  = 0.5000    time-step for ionic-motion
   TEIN   =    0.0    initial temperature
   TEBEG  =    0.0;   TEEND  =   0.0 temperature during run
   SMASS  =  -3.00    Nose mass-parameter (am)
   estimated Nose-frequenzy (Omega)   =  0.10E-29 period in steps =****** mass=  -0.652E-26a.u.
[...]
     0.000000000  9.578410000  0.000000000     0.000000000  0.104401461  0.000000000
     0.000000000  0.000000000 16.654645685     0.000000000  0.000000000  0.060043307

  length of vectors
    16.884694054  9.578410000 16.654645685     0.059225237  0.104401461  0.060043307

 FORCES acting on ions
    electron-ion (+dipol)            ewald-force                    non-local-force                 convergence-correction
   0.690E+03 0.637E+03 0.206E+04   -.693E+03 -.640E+03 -.206E+04   0.344E+01 0.335E+01 0.475E+01   0.259E-02 0.383E-02 0.747E-02
   0.514E+03 0.152E+03 -.279E+04   -.516E+03 -.154E+03 0.279E+04   0.260E+01 0.238E+01 0.123E+01   0.752E-02 0.723E-02 0.210E-02
   0.107E+03 0.680E+02 0.296E+04   -.107E+03 -.684E+02 -.297E+04   0.129E+01 0.718E+00 0.745E+01   -.275E-01 0.151E-02 0.353E-02
   0.301E+03 0.574E+02 -.113E+04   -.303E+03 -.578E+02 0.114E+04   0.203E+01 0.277E+00 -.426E+01   -.286E-01 0.317E-04 -.914E-02
   -.242E+03 -.351E+03 0.222E+04   0.243E+03 0.351E+03 -.222E+04   -.109E+01 0.571E+00 0.505E+01   -.162E-01 -.246E-02 -.508E-02
   -.515E+02 -.782E+02 -.183E+04   0.481E+02 0.789E+02 0.184E+04   0.282E+01 -.158E+00 -.698E+01   -.659E-02 0.317E-02 -.157E-01
   0.987E+03 -.141E+03 0.145E+04   -.993E+03 0.142E+03 -.145E+04   0.554E+01 -.366E+00 0.437E+01   0.251E-01 -.171E-02 0.102E-02
   0.817E+03 -.325E+02 -.317E+04   -.822E+03 0.325E+02 0.318E+04   0.340E+01 0.127E+00 -.381E+01   0.192E-01 -.268E-02 -.108E-01
   0.493E+03 -.201E+02 0.424E+04   -.497E+03 0.198E+02 -.424E+04   0.328E+01 0.297E+00 0.383E+01   -.451E-02 -.325E-02 0.102E-01
   0.778E+03 0.588E+00 0.366E+03   -.782E+03 -.582E+00 -.365E+03   0.361E+01 0.225E-01 -.692E+00   -.442E-02 -.426E-02 0.156E-01
   0.142E+03 0.662E+01 -.358E+04   -.146E+03 -.643E+01 0.358E+04   0.480E+01 -.218E+00 0.294E+00   -.563E-03 -.135E-02 -.163E-01
   0.361E+03 -.113E+03 -.160E+04   -.370E+03 0.112E+03 0.160E+04   0.678E+01 0.846E+00 -.193E+01   0.910E-02 -.906E-02 -.117E-01
   0.116E+03 0.545E+03 0.242E+04   -.112E+03 -.549E+03 -.242E+04   -.332E+01 0.402E+01 0.560E+01   0.167E-01 -.417E-02 0.756E-02
   0.315E+03 0.545E+03 -.222E+04   -.315E+03 -.548E+03 0.223E+04   -.106E+01 0.236E+01 -.375E+01   0.168E-01 0.905E-02 0.548E-05
   -.441E+03 0.518E+03 0.392E+04   0.443E+03 -.520E+03 -.393E+04   -.278E+01 0.108E+01 0.519E+01   -.111E-01 0.102E-02 -.446E-02
   -.853E+03 0.432E+03 0.566E+03   0.854E+03 -.435E+03 -.568E+03   -.877E+00 0.237E+01 -.734E-01   -.133E-01 -.113E-01 -.259E-01
   -.411E+03 0.686E+02 -.350E+04   0.413E+03 -.715E+02 0.350E+04   -.227E+01 0.308E+01 0.230E+01   -.925E-02 -.192E-01 -.577E-02
   -.450E+03 0.856E+02 0.347E+04   0.449E+03 -.853E+02 -.348E+04   0.604E+00 -.556E+00 0.552E+01   -.728E-02 0.115E-02 0.101E-02
   -.776E+03 0.776E+03 -.533E+03   0.780E+03 -.782E+03 0.536E+03   -.312E+01 0.534E+01 -.428E+01   0.996E-02 0.158E-01 -.694E-02
   0.283E+03 0.518E+03 0.202E+04   -.284E+03 -.521E+03 -.202E+04   0.144E+01 0.286E+01 0.428E+01   0.555E-02 0.731E-02 0.327E-02
   -.205E+03 0.389E+03 -.273E+04   0.208E+03 -.395E+03 0.273E+04   -.176E+01 0.467E+01 -.354E+01   -.649E-02 -.361E-03 -.144E-01
   -.156E+02 0.555E+03 0.103E+04   0.149E+02 -.558E+03 -.103E+04   0.102E+01 0.272E+01 0.108E+01   -.770E-02 -.524E-02 0.993E-02
   -.135E+03 0.143E+03 -.334E+04   0.136E+03 -.146E+03 0.334E+04   -.670E+00 0.372E+01 0.242E+01   -.272E-01 0.100E-01 -.135E-01
   0.253E+03 -.809E+03 0.254E+04   -.256E+03 0.812E+03 -.255E+04   0.209E+01 -.255E+01 0.790E+01   0.610E-02 -.255E-02 0.392E-02
   -.228E+02 0.885E+02 -.160E+04   0.257E+02 -.917E+02 0.161E+04   -.168E+01 0.269E+01 -.671E+01   0.149E-01 -.213E-01 -.689E-02
   -.305E+03 -.193E+03 0.250E+04   0.312E+03 0.195E+03 -.251E+04   -.582E+01 -.234E+01 0.548E+01   0.124E-01 0.564E-02 0.104E-01
   0.234E+03 -.454E+03 -.224E+04   -.232E+03 0.457E+03 0.225E+04   -.298E+01 -.210E+01 -.392E+01   0.119E-01 -.425E-02 0.984E-03
   -.731E+03 -.182E+03 0.390E+04   0.731E+03 0.182E+03 -.390E+04   -.302E+00 0.164E+01 0.108E+01   -.100E-01 0.131E-01 -.340E-02
   -.892E+03 -.102E+03 0.136E+02   0.893E+03 0.103E+03 -.956E+01   -.164E+01 -.725E+00 -.237E+01   -.185E-01 0.656E-02 -.346E-01
   -.469E+03 -.583E+02 -.356E+04   0.472E+03 0.609E+02 0.356E+04   -.277E+01 -.277E+01 0.249E+01   -.115E-01 0.157E-01 -.397E-02
   0.163E+03 -.678E+03 0.333E+04   -.161E+03 0.679E+03 -.333E+04   -.274E+01 0.323E+00 -.188E+01   -.140E-03 -.115E-02 -.341E-03
   -.457E+03 -.520E+03 -.959E+03   0.459E+03 0.525E+03 0.963E+03   -.197E+01 -.489E+01 -.430E+01   0.100E-01 -.116E-01 -.473E-02
   0.257E+03 -.540E+03 0.204E+04   -.258E+03 0.543E+03 -.204E+04   0.870E+00 -.272E+01 0.445E+01   0.591E-02 -.599E-02 0.185E-02
   -.186E+03 -.397E+03 -.272E+04   0.189E+03 0.404E+03 0.272E+04   -.179E+01 -.475E+01 -.390E+01   -.305E-02 0.156E-02 -.152E-01
   -.264E+03 -.641E+03 0.110E+04   0.264E+03 0.644E+03 -.110E+04   0.838E+00 -.330E+01 0.126E+01   -.845E-02 -.277E-02 0.704E-02
   -.182E+03 -.169E+03 -.331E+04   0.182E+03 0.174E+03 0.330E+04   -.398E-01 -.395E+01 0.248E+01   -.207E-01 -.948E-02 -.789E-02
   -.875E+01 -.510E+03 -.952E+03   0.130E+02 0.515E+03 0.950E+03   -.263E+01 -.487E+01 -.826E-01   0.127E-01 0.488E-02 -.739E-02
   0.157E+03 0.696E+01 -.161E+04   -.156E+03 -.701E+01 0.161E+04   -.958E+00 0.417E-01 -.171E+01   0.292E-02 0.493E-03 -.693E-02
   -.132E+03 0.125E+02 0.345E+03   0.134E+03 -.125E+02 -.349E+03   -.569E-01 0.124E+00 0.119E+01   0.612E-02 -.197E-03 0.578E-02
   -.793E+03 0.206E+03 0.116E+04   0.799E+03 -.207E+03 -.116E+04   -.304E+01 0.283E-01 0.463E+00   0.157E-04 0.923E-03 -.249E-02
   -.379E+03 0.189E+01 -.613E+03   0.380E+03 -.217E+01 0.615E+03   0.318E+00 0.152E+00 -.217E+01   0.452E-02 -.537E-02 -.152E-01
   -.244E+03 0.364E+03 0.909E+03   0.246E+03 -.366E+03 -.913E+03   -.267E+00 0.785E+00 0.244E+01   0.555E-04 0.132E-02 0.363E-02
   -.102E+03 0.616E+02 -.108E+04   0.103E+03 -.613E+02 0.108E+04   -.487E+00 -.205E+00 -.208E+01   0.379E-02 0.122E-02 -.357E-02
   0.150E+03 -.246E+02 0.176E+04   -.151E+03 0.248E+02 -.177E+04   0.306E+00 -.666E-01 0.186E+01   0.851E-03 -.163E-03 0.832E-02
   -.105E+03 -.159E+02 -.259E+03   0.105E+03 0.160E+02 0.261E+03   0.912E+00 0.138E-01 -.312E+01   -.589E-02 0.302E-04 -.513E-02
   -.355E+02 -.184E+01 -.178E+04   0.359E+02 0.186E+01 0.178E+04   0.160E+00 -.238E-01 -.805E+00   -.109E-02 -.603E-03 -.626E-02
   -.222E+03 -.974E+02 0.160E+04   0.223E+03 0.980E+02 -.161E+04   -.224E+00 -.604E+00 0.265E+01   0.579E-02 -.298E-02 0.452E-02
   -.172E+03 -.553E+02 -.638E+03   0.172E+03 0.551E+02 0.643E+03   0.506E+00 0.183E+00 -.456E+01   -.806E-02 -.329E-02 -.251E-02
   0.134E+03 -.301E+03 0.719E+03   -.135E+03 0.304E+03 -.724E+03   0.161E+01 -.989E+00 0.234E+01   0.744E-02 -.512E-02 -.279E-02
   0.439E+02 -.342E+02 -.121E+04   -.427E+02 0.345E+02 0.122E+04   -.486E+00 -.231E+00 -.231E+01   0.114E-01 -.554E-02 -.657E-03
   0.676E+02 -.587E+02 0.173E+04   -.671E+02 0.601E+02 -.174E+04   -.808E+00 -.122E+01 0.272E+01   0.111E-02 0.238E-02 -.493E-03
   0.133E+03 -.137E+03 -.355E+03   -.133E+03 0.136E+03 0.359E+03   -.540E+00 0.152E+01 -.184E+01   0.339E-02 -.155E-02 0.509E-02
   0.191E+03 -.168E+03 0.811E+03   -.194E+03 0.170E+03 -.812E+03   0.129E+01 -.132E+01 0.222E+00   -.829E-02 0.613E-02 -.212E-03
   0.106E+03 0.712E+02 -.120E+04   -.107E+03 -.704E+02 0.121E+04   -.205E+00 -.119E+00 -.250E+01   -.238E-01 0.615E-02 -.695E-02
   -.298E+02 -.366E+03 0.646E+03   0.282E+02 0.369E+03 -.647E+03   0.439E+00 -.127E+01 0.136E+01   -.349E-02 -.871E-03 -.249E-02
   -.206E+03 0.201E+02 -.140E+04   0.207E+03 -.191E+02 0.141E+04   -.694E+00 -.100E+01 -.245E+01   0.632E-02 -.104E-01 -.450E-02
   0.252E+03 -.186E+03 -.420E+03   -.253E+03 0.188E+03 0.420E+03   0.174E+00 -.513E+00 -.106E+01   0.561E-02 -.531E-03 -.214E-02
   0.280E+03 -.521E+02 0.135E+04   -.282E+03 0.518E+02 -.136E+04   0.760E+00 0.108E+01 0.405E+01   0.761E-02 -.209E-02 0.390E-02
   0.223E+03 -.188E+03 0.104E+04   -.224E+03 0.189E+03 -.104E+04   -.313E+00 -.139E+00 0.905E+00   -.501E-02 0.645E-02 0.645E-02
   0.697E+02 -.148E+03 -.850E+03   -.702E+02 0.150E+03 0.851E+03   -.236E+00 -.125E+01 -.544E+00   -.388E-02 -.227E-02 -.172E-02
   -.160E+01 0.143E+01 0.332E+03   0.515E+00 -.236E+01 -.337E+03   0.371E+00 0.134E+01 0.370E+01   -.307E-02 0.796E-02 -.651E-02
   0.630E+01 -.218E+03 -.151E+04   -.691E+01 0.222E+03 0.151E+04   0.318E+00 -.272E+01 -.228E+01   0.234E-02 0.299E-02 0.522E-02
   -.818E+02 0.330E+03 0.898E+03   0.816E+02 -.333E+03 -.901E+03   -.558E+00 0.914E+00 0.291E+01   -.659E-02 -.221E-02 0.549E-03
   0.969E+02 -.333E+02 -.113E+04   -.981E+02 0.327E+02 0.114E+04   -.193E-01 0.762E-01 -.238E+01   -.163E-01 -.516E-02 -.690E-02
   0.243E+03 0.364E+03 0.153E+04   -.244E+03 -.367E+03 -.154E+04   0.389E+00 0.210E+01 0.128E+01   0.328E-02 -.142E-02 -.127E-02
   0.293E+03 0.333E+03 -.119E+03   -.295E+03 -.334E+03 0.120E+03   0.116E+01 -.244E+00 -.239E+00   0.637E-02 0.835E-02 0.268E-02
   0.223E+03 0.170E+03 -.436E+03   -.224E+03 -.173E+03 0.436E+03   -.938E-01 0.554E+00 -.863E+00   0.473E-02 0.227E-03 -.170E-02
   0.174E+03 0.200E+02 0.134E+04   -.175E+03 -.196E+02 -.134E+04   0.133E+01 -.103E+01 0.418E+01   0.739E-02 0.278E-02 0.450E-02
   -.378E+03 0.262E+03 0.480E+03   0.379E+03 -.264E+03 -.480E+03   -.121E+01 0.882E+00 -.306E+00   -.476E-02 0.326E-02 -.501E-02
   -.241E+03 -.121E+02 -.140E+04   0.241E+03 0.110E+02 0.140E+04   -.397E+00 0.102E+01 -.176E+01   0.866E-02 0.161E-01 -.600E-02
   0.193E+03 -.303E+03 0.249E+03   -.197E+03 0.304E+03 -.250E+03   0.209E+01 -.110E+01 0.885E+00   0.273E-02 -.611E-02 -.354E-02
   0.348E+02 0.221E+03 -.148E+04   -.362E+02 -.224E+03 0.148E+04   0.849E+00 0.230E+01 0.146E-01   0.596E-02 -.729E-02 -.126E-02
   0.244E+03 0.207E+03 0.104E+04   -.245E+03 -.207E+03 -.104E+04   -.250E-01 0.220E-01 0.101E+01   -.179E-02 -.593E-02 0.784E-02
   0.834E+02 0.146E+03 -.856E+03   -.838E+02 -.148E+03 0.857E+03   -.120E+00 0.118E+01 -.541E+00   0.136E-03 0.238E-02 -.330E-02
   -.735E+01 -.943E+01 -.266E+02   0.249E-11 -.165E-11 0.261E-11   0.739E+01 0.944E+01 0.267E+02   -.401E-01 -.165E-01 -.179E+00

 POSITION                                       TOTAL-FORCE (eV/Angst)
     13.17084      1.39171      2.05636        -0.165261      0.156971      1.654560
     13.48924      1.37572      4.70683        -0.080919      0.369460      0.963816
      3.66509      6.00123      1.63969         0.959089      0.306052     -0.189024
      5.02033      6.18092      3.59863        -0.436000     -0.148859      0.083970
      6.57627      1.15703      2.15919         0.195268      0.341231     -0.512344
      7.93172      1.39171      4.11272        -0.590953      0.521528     -0.793619
     16.08224      6.18092      2.57045        -0.299702     -0.189024      2.280741
     16.44580      6.18255      5.28214        -1.482844      0.118261      0.416691
      2.88837      1.39330      0.77362        -0.844153      0.011828     -1.873441
      2.10894      1.39171      3.08454        -0.941672      0.024175      0.537298
      1.88194      1.39227      5.45230         0.889960     -0.026543      1.014561
     10.84312      6.18092      4.62682        -2.105262     -0.477580     -1.859929
     15.41720      0.04441      2.04771         0.841302      0.444767      0.064232
     15.90104      0.12152      4.50386        -0.682089     -0.816972      0.218965
      6.12706      6.15135      1.11462        -0.443843     -0.314289     -1.832095
      7.17375      4.91558      3.19116         0.514431      0.002034     -1.538129
      7.85150      4.51107      5.50879        -0.056929      0.192276      1.080168
      8.95694      1.42076      1.54732        -0.249421     -0.200513     -1.780021
     10.08514      0.12638      3.70525         0.636084     -0.157114     -1.075302
      1.35096      4.91558      2.16298        -0.117633     -0.461499      1.268460
      1.88843      4.85466      4.91939         1.295925     -1.324593      0.421852
      4.26235      0.12638      2.67707         0.366452     -0.639522      0.595458
      4.91878      9.37174      5.10914         0.074308     -0.081338      0.901861
     13.12848      4.14119      1.98200        -0.611440      0.597702     -0.099558
     12.99653      4.91558      4.21934         1.263486     -0.542916     -0.361069
     15.34051      2.69019      1.97513         1.096383     -0.345989      0.053032
     15.92776      2.66157      4.48986        -0.963401      1.048885     -0.009457
      7.09431      8.39967      1.03939        -0.210588      0.806051     -0.873730
      7.17375      7.44626      3.19116        -0.001794      0.110396      1.637573
      7.84686      7.84041      5.52865        -0.001386     -0.245481      1.006706
     10.83416      3.31242      1.45049        -0.184689      0.673377     -1.036351
     10.08514      2.65705      3.70525         0.567749      0.501881     -1.029671
      1.35096      7.44626      2.16298         0.193209      0.375506      1.612861
      1.88741      7.50754      4.92038         1.134869      1.283560      0.483095
      4.26235      2.65705      2.67707         0.715751      0.586715      0.873038
      4.90435      2.96162      5.13740         0.198901      0.137945      0.711914
     12.99653      7.44626      4.21934         1.672775      0.703065     -2.101613
     16.78338      1.38964      5.87507        -0.024742     -0.007759      3.035197
     16.74052      1.39171      3.05601         2.121879      0.118488     -2.127371
      8.05461      6.54766      1.55151         3.226056     -1.261579     -2.024376
      8.59001      6.18092      4.59828         1.689106     -0.137558      0.043287
     10.91773      1.39171      2.02783         1.936217     -1.804106     -1.457954
     11.42546      1.38148      4.73283         0.809991      0.065309      2.673901
      1.90904      6.17909      0.63958         0.099928      0.084316     -3.808271
      2.76722      6.18092      3.57010         1.564388      0.072870     -0.635790
      1.29881      6.18065      6.36535         0.595093     -0.003260      4.185829
      4.88352      1.41733      1.05684         1.570127      0.037957     -3.015975
      5.67861      1.39171      4.08419         1.064557     -0.045438      0.917888
     13.87408      6.04353      2.65366         0.678931      1.243270     -1.898764
     14.35061      6.19462      5.24494         0.706033      0.052682      2.501916
     13.76440      2.77468      0.62377        -0.318223      0.176407     -3.829859
     13.99844      3.00295      3.57488        -0.349636      0.794453      1.816951
      5.26426      7.79215      2.03261        -1.542375      1.163372     -0.732179
      5.90275      7.58735      4.93993        -1.207709      0.706237      1.617314
      8.17565      3.00295      2.54670        -1.116053      1.860591     -0.045775
      8.86044      2.77991      5.37553         0.137343      0.063589      2.758210
      0.02514      7.79215      4.08897        -1.090772      1.793641     -0.597323
     16.34037      7.85925      1.39733        -0.882678      0.708082     -2.944985
      2.37078      3.09214      1.78877        -0.928936      0.614999     -1.292822
      2.93654      3.00295      4.60306        -0.706498      0.329393      0.754858
     11.11204      7.89029      3.46185        -0.713062      0.413985     -1.779176
     11.88090      7.36719      5.89886        -0.290293      0.890505      3.677609
      5.26426      4.56969      2.03261        -0.777280     -1.841939     -0.148982
      5.91380      4.72241      4.88169        -1.207377     -0.559411      1.860740
     13.90655      0.06464      0.73003        -0.788483     -1.587066     -3.467522
     13.99844      9.35889      3.57488        -1.075879     -1.981047      0.889107
      0.02514      4.56969      4.08897        -1.104900     -1.684938     -0.561000
     16.31845      4.47048      1.41663        -0.293774     -0.673881     -2.786372
      8.17565      9.35889      2.54670         0.092306     -1.291914     -0.020066
      8.85919      9.57023      5.37250        -0.099291     -0.041297      2.821201
     11.23868      4.50825      3.06215        -2.014156      0.541037     -0.425282
     11.66857      4.70500      5.74298        -0.558592     -1.155142      3.724663
      2.35747      9.28093      1.79220        -0.790502     -0.786083     -1.276430
      2.93654      9.35889      4.60306        -0.556713     -0.210196      0.682103
    total drift:                               -0.001550     -0.003818     -0.049019

  FREE ENERGIE OF THE ION-ELECTRON SYSTEM (eV)
  free  energy   TOTEN  =      -351.98981868 eV

  energy  without entropy=     -350.85826862  energy(sigma->0) =     -351.42404365