 vasp.6.1.0 28Jan20 (build Mar 31 2020 17:42:31) gamma-only

 executed on             LinuxIFC date 2020.04.13  05:27:42

 INCAR:
 POTCAR:    PAW_PBE Ni_pv 06Sep2000
 POTCAR:    PAW_PBE S 06Sep2000
 POTCAR:    PAW_PBE Ni_pv 06Sep2000
   VRHFIN =Ni:

   TITEL  = PAW_PBE Ni_pv 06Sep2000
   POMASS =   58.690; ZVAL   =   16.000    mass and valenz
   ENMAX  =  367.986; ENMIN  =  275.989 eV

 POTCAR:    PAW_PBE S 06Sep2000
   VRHFIN =S : s2p4

   TITEL  = PAW_PBE S 06Sep2000
   POMASS =   32.066; ZVAL   =    6.000    mass and valenz
   ENMAX  =  258.689; ENMIN  =  194.016 eV

 Optimization of the real space projectors (new method)

 maximal supplied QI-value         = 18.90
 optimisation between [QCUT,QGAM] = [ 10.77, 21.73] = [ 32.49,132.25] Ry
 Optimized for a Real-space Cutoff    1.38 Angstroem

   l    n(q)    QCUT    max X(q) W(low)/X(q) W(high)/X(q)  e(spline)
   1      8    10.771     2.836    0.40E-04    0.29E-04    0.12E-06
   1      8    10.771     4.023    0.10E-03    0.48E-04    0.29E-06
   2      8    10.771    73.368    0.42E-03    0.97E-04    0.44E-06
   2      8    10.771    69.010    0.42E-03    0.99E-04    0.45E-06
   0      9    10.771    54.797    0.10E-03    0.56E-04    0.74E-07
   0      9    10.771    24.266    0.89E-04    0.49E-04    0.67E-07
 Optimization of the real space projectors (new method)

 maximal supplied QI-value         = 19.84
 optimisation between [QCUT,QGAM] = [ 10.71, 21.63] = [ 32.15,130.99] Ry
 Optimized for a Real-space Cutoff    1.19 Angstroem

   l    n(q)    QCUT    max X(q) W(low)/X(q) W(high)/X(q)  e(spline)
   0      8    10.715   187.594    0.41E-03    0.53E-04    0.66E-07
   0      8    10.715   164.243    0.41E-03    0.53E-04    0.65E-07
   1      7    10.715    67.533    0.19E-03    0.59E-03    0.68E-07
   1      7    10.715    50.729    0.19E-03    0.58E-03    0.67E-07
  PAW_PBE Ni_pv 06Sep2000               :
  PAW_PBE S 06Sep2000                   :

 POSCAR: Structure 30 made from 02-1-7.xsd file
  positions in direct lattice
 exchange correlation table for  LEXCH =        8
   RHO(1)=    0.500       N(1)  =     2000
   RHO(2)=  100.500       N(2)  =     4000

 ion  position               nearest neighbor table
   1  0.580  0.074  0.354-  44 2.25  66 2.26  51 2.26  63 2.36  52 2.36  26 2.53  14 2.53
   2  0.763  0.165  0.233-  45 2.25  52 2.26  63 2.26  53 2.36  64 2.36  15 2.53  27 2.53
   3  0.945  0.256  0.111-  42 2.25  53 2.26  64 2.26  50 2.36  16 2.53  28 2.53
   4  0.035  0.802  0.273-  46 2.25  57 2.26  70 2.26  54 2.36  67 2.36  20 2.53  29 2.53
   5  0.217  0.893  0.152-  47 2.25  67 2.26  54 2.26  68 2.36  55 2.36  30 2.53  17 2.53
   6  0.399  0.984  0.031-  48 2.25  68 2.26  55 2.26  56 2.36  31 2.53
   7  0.671  0.620  0.516-  58 2.36  69 2.36  18 2.53  32 2.53
   8  0.853  0.711  0.394-  49 2.25  69 2.26  58 2.26  57 2.36  70 2.36  33 2.53  19 2.53
   9  0.126  0.347  0.435-  38 2.25  74 2.26  59 2.36  71 2.36  34 2.53  25 2.53
  10  0.308  0.438  0.313-  39 2.25  59 2.26  71 2.26  60 2.36  72 2.36  21 2.53  35 2.53
  11  0.490  0.529  0.192-  40 2.25  60 2.26  72 2.26  61 2.36  73 2.36  36 2.53  22 2.53
  12  0.672  0.620  0.071-  41 2.25  73 2.26  61 2.26  62 2.36  23 2.53  37 2.53
  13  0.230  0.031  0.411-  57 2.25  65 2.26  38 2.26  66 2.36  39 2.36
  14  0.412  0.122  0.290-  54 2.25  39 2.26  66 2.26  63 2.36  40 2.36  26 2.53   1 2.53
  15  0.595  0.214  0.169-  55 2.25  63 2.26  40 2.26  64 2.36  41 2.36   2 2.53  27 2.53
  16  0.777  0.305  0.047-  56 2.25  64 2.26  41 2.26   3 2.53  28 2.53
  17  0.049  0.941  0.088-  62 2.25  42 2.26  67 2.26  43 2.36  68 2.36  30 2.53   5 2.53
  18  0.503  0.668  0.451-  59 2.25  44 2.36  69 2.36   7 2.53  32 2.53
  19  0.685  0.759  0.330-  60 2.25  44 2.26  69 2.26  70 2.36  45 2.36  33 2.53   8 2.53
  20  0.867  0.850  0.209-  61 2.25  70 2.26  45 2.26  42 2.36  67 2.36   4 2.53  29 2.53
  21  0.140  0.486  0.249-  53 2.25  46 2.26  71 2.26  72 2.36  47 2.36  10 2.53  35 2.53
  22  0.322  0.577  0.128-  50 2.25  47 2.26  72 2.26  48 2.36  73 2.36  36 2.53  11 2.53
  23  0.504  0.668  0.007-  48 2.26  73 2.26  12 2.53  37 2.53
  24  0.776  0.304  0.492-  51 2.25  74 2.36  49 2.36
  25  0.958  0.395  0.371-  52 2.25  74 2.26  49 2.26  46 2.36  71 2.36  34 2.53   9 2.53
  26  0.580  0.339  0.354-  69 2.25  39 2.26  51 2.26  52 2.36  40 2.36  14 2.53   1 2.53
  27  0.763  0.430  0.233-  70 2.25  52 2.26  40 2.26  53 2.36  41 2.36   2 2.53  15 2.53
  28  0.945  0.521  0.111-  67 2.25  53 2.26  41 2.26  50 2.36   3 2.53  16 2.53
  29  0.035  0.066  0.273-  71 2.25  45 2.26  57 2.26  42 2.36  54 2.36   4 2.53  20 2.53
  30  0.217  0.157  0.152-  72 2.25  42 2.26  54 2.26  55 2.36  43 2.36  17 2.53   5 2.53
  31  0.399  0.248  0.031-  73 2.25  43 2.26  55 2.26  56 2.36   6 2.53
  32  0.671  0.884  0.516-  58 2.36  44 2.36   7 2.53  18 2.53
  33  0.853  0.975  0.394-  74 2.25  44 2.26  58 2.26  45 2.36  57 2.36  19 2.53   8 2.53
  34  0.126  0.611  0.435-  65 2.25  49 2.26  59 2.36  46 2.36  25 2.53   9 2.53
  35  0.308  0.702  0.313-  66 2.25  59 2.26  46 2.26  60 2.36  47 2.36  10 2.53  21 2.53
  36  0.490  0.793  0.192-  63 2.25  60 2.26  47 2.26  61 2.36  48 2.36  22 2.53  11 2.53
  37  0.672  0.884  0.071-  64 2.25  48 2.26  61 2.26  62 2.36  12 2.53  23 2.53
  38  0.184  0.177  0.484-   9 2.25  13 2.26
  39  0.367  0.268  0.363-  10 2.25  26 2.26  14 2.26  13 2.36
  40  0.549  0.359  0.242-  11 2.25  27 2.26  15 2.26  14 2.36  26 2.36
  41  0.731  0.450  0.121-  12 2.25  16 2.26  28 2.26  15 2.36  27 2.36
  42  0.003  0.086  0.161-   3 2.25  30 2.26  17 2.26  20 2.36  29 2.36
  43  0.185  0.177  0.040-  31 2.26  17 2.36  30 2.36
  44  0.639  0.904  0.403-   1 2.25  33 2.26  19 2.26  18 2.36  32 2.36
  45  0.821  0.995  0.282-   2 2.25  29 2.26  20 2.26  19 2.36  33 2.36
  46  0.094  0.631  0.323-   4 2.25  21 2.26  35 2.26  25 2.36  34 2.36
  47  0.276  0.722  0.201-   5 2.25  22 2.26  36 2.26  21 2.36  35 2.36
  48  0.458  0.814  0.080-   6 2.25  37 2.26  23 2.26  22 2.36  36 2.36
  49  0.912  0.540  0.444-   8 2.25  25 2.26  34 2.26  24 2.36
  50  0.127  0.480  0.081-  22 2.25   3 2.36  28 2.36
  51  0.580  0.206  0.445-  24 2.25   1 2.26  26 2.26
  52  0.763  0.298  0.323-  25 2.25  27 2.26   2 2.26  26 2.36   1 2.36
  53  0.945  0.389  0.202-  21 2.25   3 2.26  28 2.26  27 2.36   2 2.36
  54  0.217  0.025  0.243-  14 2.25   5 2.26  30 2.26   4 2.36  29 2.36
  55  0.399  0.116  0.121-  15 2.25  31 2.26   6 2.26  30 2.36   5 2.36
  56  0.582  0.207  0.000-  16 2.25   6 2.36  31 2.36
  57  0.035  0.934  0.364-  13 2.25   4 2.26  29 2.26   8 2.36  33 2.36
  58  0.853  0.843  0.485-  33 2.26   8 2.26  32 2.36   7 2.36
  59  0.308  0.570  0.404-  18 2.25  10 2.26  35 2.26   9 2.36  34 2.36
  60  0.490  0.661  0.283-  19 2.25  36 2.26  11 2.26  10 2.36  35 2.36
  61  0.672  0.752  0.162-  20 2.25  12 2.26  37 2.26  36 2.36  11 2.36
  62  0.854  0.843  0.040-  17 2.25  12 2.36  37 2.36
  63  0.549  0.022  0.242-  36 2.25  15 2.26   2 2.26  14 2.36   1 2.36
  64  0.731  0.113  0.121-  37 2.25  16 2.26   3 2.26  15 2.36   2 2.36
  65  0.184  0.840  0.484-  34 2.25  13 2.26
  66  0.367  0.931  0.363-  35 2.25   1 2.26  14 2.26  13 2.36
  67  0.003  0.750  0.161-  28 2.25   5 2.26  17 2.26  20 2.36   4 2.36
  68  0.185  0.841  0.040-   6 2.26  17 2.36   5 2.36
  69  0.639  0.568  0.403-  26 2.25   8 2.26  19 2.26  18 2.36   7 2.36
  70  0.821  0.659  0.282-  27 2.25   4 2.26  20 2.26  19 2.36   8 2.36
  71  0.094  0.295  0.323-  29 2.25  21 2.26  10 2.26  25 2.36   9 2.36
  72  0.276  0.386  0.201-  30 2.25  22 2.26  11 2.26  21 2.36  10 2.36
  73  0.458  0.477  0.080-  31 2.25  12 2.26  23 2.26  11 2.36  22 2.36
  74  0.912  0.204  0.444-  33 2.25  25 2.26   9 2.26  24 2.36

  Warning from LATTYP: Monoclinic adjustment (A1->A3, A2->A1, A3->A2)!
  LATTYP: Found a base centered orthorhombic cell.
 ALAT       =     9.5784100000
 B/A-ratio  =     2.1722506661
 C/A-ratio  =     2.1551480229

  Lattice vectors:

 A1 = (  10.4033537511,  -4.7892050000,   0.0000000000)
 A2 = ( -10.4033537511,  -4.7892050000,   0.0000000000)
 A3 = (   0.0000000000,   0.0000000000, -20.6428913744)

Analysis of symmetry for initial positions (statically):
 Subroutine PRICEL returns:
 Original cell was already a primitive cell.

 Routine SETGRP: Setting up the symmetry group for a
 base centered orthorhombic supercell.

 Subroutine GETGRP returns: Found  2 space group operations
 (whereof  1 operations were pure point group operations)
 out of a pool of  8 trial point group operations.

The static configuration has the point symmetry C_1 .
 The point group associated with its full space group is C_1h.

Analysis of symmetry for dynamics (positions and initial velocities):
 Subroutine PRICEL returns:
 Original cell was already a primitive cell.

 Routine SETGRP: Setting up the symmetry group for a
 base centered orthorhombic supercell.

 Subroutine GETGRP returns: Found  2 space group operations
 (whereof  1 operations were pure point group operations)
 out of a pool of  8 trial point group operations.

The dynamic configuration has the point symmetry C_1 .
 The point group associated with its full space group is C_1h.

 Subroutine INISYM returns: Found  2 space group operations
 (whereof  1 operations are pure point group operations),
 and found     1 'primitive' translations

                                     Primitive cell

  volume of cell :    2057.0143

  direct lattice vectors                    reciprocal lattice vectors
    10.403353751 -4.789205000  0.000000000     0.096122849  0.000000000  0.000000000
     0.000000000  9.578410000  0.000000000     0.048061424  0.104401461  0.000000000
     0.000000000  0.000000000 20.642891374     0.000000000  0.000000000  0.048442826

  length of vectors
    11.452783670  9.578410000 20.642891374     0.096122849  0.114932874  0.048442826

  position of ions in fractional coordinates (direct lattice)
     0.580446796  0.074375138  0.353894474
     0.762560812  0.165432146  0.232636526
     0.944674827  0.256489154  0.111378578
     0.035189473  0.801746477  0.273055842
     0.217303488  0.892803484  0.151797894
     0.399417503  0.983860492  0.030539946
     0.670961443  0.619632462  0.515571738
     0.853075458  0.710689469  0.394313790
     0.125704120  0.347003800  0.434733106
     0.307818135  0.438060808  0.313475158
     0.489932150  0.529117815  0.192217210
     0.672046165  0.620174823  0.070959262
     0.230358012  0.031433746  0.411078267
     0.412472027  0.122490754  0.289820319
     0.594586043  0.213547761  0.168562371
     0.776700058  0.304604769  0.047304423
     0.049328719  0.940919100  0.087723739
     0.502986674  0.667748077  0.451497583
     0.685100689  0.758805085  0.330239635
     0.867214704  0.849862092  0.208981687
     0.139843366  0.486176423  0.249401003
     0.321957381  0.577233431  0.128143055
     0.504071396  0.668290438  0.006885107
     0.775615336  0.304062408  0.491916899
     0.957729351  0.395119416  0.370658951
     0.580446796  0.338581138  0.353894474
     0.762560812  0.429638146  0.232636526
     0.944674827  0.520695154  0.111378578
     0.035189473  0.065952477  0.273055842
[...]
     0.000000000  9.578410000  0.000000000     0.048061424  0.104401461  0.000000000
     0.000000000  0.000000000 20.642891374     0.000000000  0.000000000  0.048442826

  length of vectors
    11.452783670  9.578410000 20.642891374     0.096122849  0.114932874  0.048442826

 FORCES acting on ions
    electron-ion (+dipol)            ewald-force                    non-local-force                 convergence-correction
   0.618E+02 0.351E+03 -.264E+04   -.629E+02 -.351E+03 0.265E+04   0.961E+00 0.356E+00 -.340E+01   -.461E-01 0.431E-01 -.273E+00
   -.262E+03 0.434E+03 0.346E+03   0.263E+03 -.434E+03 -.345E+03   -.443E-01 0.498E+00 -.100E+01   0.865E-01 -.327E-01 0.101E+00
   -.438E+03 0.393E+03 0.350E+04   0.439E+03 -.390E+03 -.350E+04   -.737E+00 -.197E+01 -.524E+00   0.255E+00 -.204E+00 0.405E+00
   -.307E+03 0.444E+03 -.602E+03   0.306E+03 -.445E+03 0.603E+03   0.601E+00 0.805E+00 -.943E+00   0.289E-01 -.477E-03 -.464E-01
   -.133E+03 0.484E+03 0.224E+04   0.133E+03 -.486E+03 -.224E+04   0.409E+00 0.151E+01 0.140E+01   -.123E+00 0.968E-01 0.159E+00
   0.114E+03 0.352E+03 0.460E+04   -.115E+03 -.350E+03 -.460E+04   0.792E+00 -.151E+01 -.255E+01   -.150E+00 0.249E-01 0.150E+00
   0.138E+03 0.702E+03 -.478E+04   -.137E+03 -.690E+03 0.477E+04   0.358E-01 -.107E+02 0.838E+01   0.707E-01 -.180E+00 0.102E+00
   -.378E+03 0.481E+03 -.322E+04   0.377E+03 -.482E+03 0.322E+04   -.234E+00 0.127E+01 -.186E+01   0.200E+00 -.719E-01 -.357E+00
   -.360E+03 0.437E+03 -.432E+04   0.360E+03 -.442E+03 0.432E+04   -.119E+00 0.380E+01 -.201E+01   -.864E-01 0.443E-01 -.245E+00
   -.229E+03 0.514E+03 -.164E+04   0.229E+03 -.516E+03 0.164E+04   0.163E+00 0.214E+01 -.121E+01   -.139E+00 -.200E-01 -.159E+00
   -.180E+03 0.451E+03 0.120E+04   0.179E+03 -.451E+03 -.120E+04   0.312E+00 0.685E+00 -.141E+01   0.224E-01 0.380E-01 0.204E+00
   -.493E+03 0.447E+03 0.401E+04   0.494E+03 -.445E+03 -.401E+04   -.138E+01 -.218E+01 -.282E+00   0.203E+00 0.732E-01 0.319E+00
   -.187E+03 0.164E-02 -.376E+04   0.184E+03 0.182E-05 0.377E+04   0.316E+01 0.100E-16 -.400E+01   -.465E-01 -.258E-04 -.194E+00
   0.443E+03 0.366E-02 -.773E+03   -.445E+03 0.402E-06 0.775E+03   0.241E+01 -.368E-16 -.151E+01   -.130E+00 -.362E-05 -.609E-01
   0.361E+03 0.180E-02 0.219E+04   -.363E+03 0.322E-05 -.219E+04   0.151E+01 0.701E-17 -.487E-01   -.113E+00 0.238E-04 0.322E+00
   -.175E+03 -.405E-03 0.485E+04   0.170E+03 0.181E-05 -.484E+04   0.355E+01 -.361E-16 -.520E+01   0.767E-01 0.239E-04 0.228E+00
   0.400E+03 0.121E-02 0.423E+04   -.401E+03 -.749E-06 -.423E+04   0.957E+00 -.693E-17 0.336E+01   -.747E-01 -.178E-04 0.217E+00
   0.850E+03 -.313E-02 -.401E+04   -.848E+03 -.947E-06 0.401E+04   -.105E+01 0.732E-17 0.826E+00   -.178E+00 0.676E-06 -.244E+00
   0.442E+03 -.598E-03 -.138E+04   -.444E+03 -.212E-05 0.138E+04   0.139E+01 -.389E-17 0.883E-01   0.101E+00 -.227E-04 -.396E+00
   0.326E+03 0.192E-03 0.140E+04   -.327E+03 0.228E-06 -.140E+04   0.135E+01 -.131E-17 0.242E+00   0.477E-01 -.337E-04 -.282E-02
   0.379E+03 -.112E-02 0.452E+03   -.380E+03 0.832E-06 -.452E+03   0.151E+01 0.755E-17 -.317E+00   -.532E-01 0.297E-04 0.948E-01
   0.643E+03 -.291E-02 0.327E+04   -.646E+03 -.200E-05 -.327E+04   0.338E+01 -.403E-16 0.716E+00   -.617E-01 0.347E-05 0.342E+00
   0.386E+03 -.313E-02 0.512E+04   -.382E+03 -.663E-07 -.510E+04   -.434E+01 0.792E-16 -.140E+02   0.859E-03 -.137E-04 0.522E-01
   0.156E+03 0.373E-03 -.467E+04   -.160E+03 0.190E-05 0.466E+04   0.425E+01 0.863E-16 0.102E+02   0.149E+00 0.158E-04 -.119E+00
   0.303E+03 -.346E-03 -.238E+04   -.304E+03 -.108E-05 0.239E+04   0.149E+01 0.910E-17 -.168E+01   0.152E+00 0.291E-04 -.190E+00
   0.618E+02 -.351E+03 -.264E+04   -.629E+02 0.351E+03 0.265E+04   0.961E+00 -.356E+00 -.340E+01   -.461E-01 -.431E-01 -.273E+00
   -.262E+03 -.434E+03 0.346E+03   0.263E+03 0.434E+03 -.345E+03   -.443E-01 -.498E+00 -.100E+01   0.865E-01 0.328E-01 0.101E+00
   -.438E+03 -.393E+03 0.350E+04   0.439E+03 0.390E+03 -.350E+04   -.737E+00 0.197E+01 -.524E+00   0.255E+00 0.204E+00 0.405E+00
   -.307E+03 -.444E+03 -.602E+03   0.306E+03 0.445E+03 0.603E+03   0.601E+00 -.805E+00 -.943E+00   0.289E-01 0.424E-03 -.464E-01
   -.133E+03 -.484E+03 0.224E+04   0.133E+03 0.486E+03 -.224E+04   0.409E+00 -.151E+01 0.140E+01   -.123E+00 -.968E-01 0.159E+00
   0.114E+03 -.352E+03 0.460E+04   -.115E+03 0.350E+03 -.460E+04   0.792E+00 0.151E+01 -.255E+01   -.150E+00 -.249E-01 0.150E+00
   0.138E+03 -.702E+03 -.478E+04   -.137E+03 0.690E+03 0.477E+04   0.358E-01 0.107E+02 0.838E+01   0.707E-01 0.180E+00 0.102E+00
   -.378E+03 -.481E+03 -.322E+04   0.377E+03 0.482E+03 0.322E+04   -.234E+00 -.127E+01 -.186E+01   0.200E+00 0.719E-01 -.357E+00
   -.360E+03 -.437E+03 -.432E+04   0.360E+03 0.442E+03 0.432E+04   -.119E+00 -.380E+01 -.201E+01   -.864E-01 -.443E-01 -.245E+00
   -.229E+03 -.514E+03 -.164E+04   0.229E+03 0.516E+03 0.164E+04   0.163E+00 -.214E+01 -.121E+01   -.139E+00 0.200E-01 -.159E+00
   -.180E+03 -.451E+03 0.120E+04   0.179E+03 0.451E+03 -.120E+04   0.312E+00 -.685E+00 -.141E+01   0.224E-01 -.380E-01 0.204E+00
   -.493E+03 -.447E+03 0.401E+04   0.494E+03 0.445E+03 -.401E+04   -.138E+01 0.218E+01 -.282E+00   0.203E+00 -.732E-01 0.319E+00
   -.103E+03 0.570E+02 -.183E+04   0.103E+03 -.571E+02 0.184E+04   -.303E+00 0.491E+00 -.445E+01   0.272E-02 -.272E-01 -.873E-01
   0.800E+02 -.614E+02 -.116E+04   -.807E+02 0.633E+02 0.116E+04   0.609E+00 -.232E+01 -.293E+01   -.890E-01 -.469E-01 -.588E-01
   0.109E+03 -.136E+03 0.740E+02   -.110E+03 0.138E+03 -.750E+02   0.144E+01 -.212E+01 0.952E+00   -.148E-01 0.152E-01 0.921E-03
   0.157E+02 -.148E+03 0.116E+04   -.169E+02 0.149E+03 -.116E+04   0.178E+01 -.194E+01 0.212E+00   0.715E-02 0.115E+00 0.207E+00
   0.768E+02 -.166E+03 0.857E+03   -.781E+02 0.168E+03 -.859E+03   0.121E+01 -.236E+01 0.892E+00   0.132E-01 -.636E-01 0.287E-01
   0.194E+03 -.220E+03 0.184E+04   -.196E+03 0.223E+03 -.184E+04   0.238E+01 -.414E+01 0.351E+01   -.575E-01 -.548E-01 0.783E-01
   0.191E+03 -.207E+03 -.122E+04   -.192E+03 0.209E+03 0.122E+04   0.862E+00 -.181E+01 0.138E+01   0.438E-01 0.603E-01 -.164E+00
   0.774E+02 -.151E+03 -.224E+03   -.793E+02 0.153E+03 0.223E+03   0.181E+01 -.225E+01 0.111E+00   0.269E-01 -.125E-01 -.526E-01
   0.577E+02 -.154E+03 -.600E+03   -.592E+02 0.156E+03 0.600E+03   0.155E+01 -.233E+01 0.354E+00   -.902E-02 -.251E-01 -.145E-01
   0.119E+03 -.141E+03 0.464E+03   -.121E+03 0.142E+03 -.465E+03   0.158E+01 -.191E+01 0.885E+00   -.160E-01 0.164E-01 0.620E-01
   0.141E+03 -.134E+03 0.142E+04   -.143E+03 0.136E+03 -.142E+04   0.182E+01 -.244E+01 -.596E+00   -.382E-01 0.527E-01 0.143E+00
   0.999E+01 -.914E+02 -.164E+04   -.105E+02 0.923E+02 0.164E+04   0.539E+00 -.173E+01 -.833E+00   0.903E-01 -.455E-01 -.104E+00
   -.420E+02 -.197E-03 0.165E+04   0.422E+02 -.190E-06 -.165E+04   -.163E+01 -.186E-16 0.399E+01   -.593E-02 0.578E-05 0.847E-01
   0.256E+03 -.825E-04 -.174E+04   -.259E+03 0.465E-06 0.174E+04   0.499E+01 -.104E-15 -.279E+01   -.374E-01 0.234E-05 -.594E-01
   -.882E+02 -.206E-03 -.744E+03   0.899E+02 -.257E-06 0.745E+03   -.175E+01 -.303E-17 -.166E+01   0.754E-01 0.928E-05 -.567E-01
   -.136E+03 -.207E-03 0.349E+03   0.137E+03 0.570E-06 -.348E+03   -.179E+01 -.324E-16 -.157E+01   0.313E-01 0.119E-04 0.766E-01
   -.113E+03 -.111E-05 -.768E+02   0.115E+03 0.255E-06 0.785E+02   -.129E+01 -.193E-16 -.196E+01   -.200E-01 -.790E-05 0.361E-02
   -.586E+02 -.162E-03 0.964E+03   0.602E+02 0.276E-06 -.962E+03   -.171E+01 -.405E-17 -.264E+01   -.647E-01 0.272E-05 0.100E+00
   -.127E+03 -.247E-03 0.186E+04   0.128E+03 0.334E-06 -.186E+04   -.149E+01 0.816E-17 0.314E+01   -.148E+00 0.549E-05 -.648E-01
   -.195E+03 0.131E-03 -.113E+04   0.196E+03 0.865E-06 0.113E+04   -.140E+01 0.234E-17 -.107E+01   0.866E-01 -.120E-04 -.562E-01
   -.370E+03 -.776E-04 -.185E+04   0.375E+03 -.285E-06 0.186E+04   -.686E+01 0.475E-16 -.261E+01   0.114E+00 -.683E-05 -.492E-01
   -.111E+03 -.126E-03 -.147E+04   0.113E+03 0.162E-07 0.147E+04   -.157E+01 -.283E-16 -.638E-01   -.161E+00 0.609E-05 -.120E+00
   -.823E+02 0.159E-04 -.416E+03   0.837E+02 -.674E-06 0.417E+03   -.143E+01 -.822E-17 -.179E+01   -.909E-02 -.323E-05 -.821E-01
   -.134E+03 0.162E-03 0.646E+03   0.135E+03 -.208E-06 -.644E+03   -.133E+01 -.338E-16 -.245E+01   0.325E-01 -.928E-05 0.114E+00
   -.164E+03 -.109E-03 0.181E+04   0.164E+03 -.219E-06 -.181E+04   -.169E+01 -.475E-16 0.402E+01   0.116E+00 -.703E-05 0.745E-01
   0.109E+03 0.136E+03 0.740E+02   -.110E+03 -.138E+03 -.750E+02   0.144E+01 0.212E+01 0.952E+00   -.148E-01 -.152E-01 0.924E-03
   0.157E+02 0.148E+03 0.116E+04   -.169E+02 -.149E+03 -.116E+04   0.178E+01 0.194E+01 0.212E+00   0.715E-02 -.115E+00 0.207E+00
   -.103E+03 -.570E+02 -.183E+04   0.103E+03 0.571E+02 0.184E+04   -.303E+00 -.491E+00 -.445E+01   0.272E-02 0.272E-01 -.873E-01
   0.800E+02 0.614E+02 -.116E+04   -.807E+02 -.633E+02 0.116E+04   0.609E+00 0.232E+01 -.293E+01   -.890E-01 0.469E-01 -.588E-01
   0.768E+02 0.166E+03 0.857E+03   -.781E+02 -.168E+03 -.859E+03   0.121E+01 0.236E+01 0.892E+00   0.132E-01 0.636E-01 0.287E-01
   0.194E+03 0.220E+03 0.184E+04   -.196E+03 -.223E+03 -.184E+04   0.238E+01 0.414E+01 0.351E+01   -.576E-01 0.548E-01 0.783E-01
   0.191E+03 0.207E+03 -.122E+04   -.192E+03 -.209E+03 0.122E+04   0.862E+00 0.181E+01 0.138E+01   0.438E-01 -.603E-01 -.164E+00
   0.774E+02 0.151E+03 -.224E+03   -.793E+02 -.153E+03 0.223E+03   0.181E+01 0.225E+01 0.111E+00   0.269E-01 0.124E-01 -.526E-01
   0.577E+02 0.154E+03 -.600E+03   -.592E+02 -.156E+03 0.600E+03   0.155E+01 0.233E+01 0.354E+00   -.901E-02 0.251E-01 -.145E-01
   0.119E+03 0.141E+03 0.464E+03   -.121E+03 -.142E+03 -.465E+03   0.158E+01 0.191E+01 0.885E+00   -.160E-01 -.164E-01 0.620E-01
   0.141E+03 0.134E+03 0.142E+04   -.143E+03 -.136E+03 -.142E+04   0.182E+01 0.244E+01 -.596E+00   -.382E-01 -.528E-01 0.143E+00
   0.999E+01 0.914E+02 -.164E+04   -.105E+02 -.923E+02 0.164E+04   0.539E+00 0.173E+01 -.833E+00   0.903E-01 0.455E-01 -.104E+00
   -.333E+02 -.371E-02 0.300E+02   0.288E-12 -.210E-11 0.364E-11   0.327E+02 -.244E-14 -.307E+02   0.441E+00 0.131E-05 0.811E+00

 POSITION                                       TOTAL-FORCE (eV/Angst)
      6.03859     -2.06748      7.30541        -0.140806      0.180929      0.307209
      7.93319     -2.06748      4.80229         0.172875      0.053302      0.036981
      9.82779     -2.06748      2.29918         0.440998      0.583767      0.657267
      0.36609      7.51093      5.63666        -0.017749     -0.012575      0.176214
      2.26069      7.51093      3.13355         0.003343      0.042201     -0.215354
      4.15528      7.51093      0.63043         0.083848      0.535292      0.843842
      6.98025      2.72172     10.64289         0.832894      0.856386     -1.765850
      8.87485      2.72172      8.13978        -0.132142      0.012972      0.254859
      1.30774      2.72172      8.97415         0.053566     -1.051552     -0.116326
      3.20234      2.72172      6.47103        -0.097780     -0.123651      0.119613
      5.09694      2.72172      3.96792         0.064020      0.107715      0.020886
      6.99153      2.72172      1.46480         0.558801      0.332399      0.804171
      2.39650     -0.80215      8.48584         0.249350      0.000000      0.759394
      4.29109     -0.80215      5.98273         0.159258      0.000000      0.034407
      6.18569     -0.80215      3.47961         0.207970      0.000000     -0.029594
      8.08029     -0.80215      0.97650        -1.509142      0.000000      0.839980
      0.51318      8.77626      1.81087         0.371987      0.000000     -0.699755
      5.23275      3.98706      9.32022         0.544465      0.000000     -0.841130
      7.12734      3.98706      6.81710        -0.092944      0.000000      0.151708
      9.02194      3.98706      4.31399         0.229508      0.000000      0.159126
      1.45484      3.98706      5.14836        -0.014279      0.000000      0.177237
      3.34944      3.98706      2.64524        -0.146374      0.000000     -0.406924
      5.24403      3.98706      0.14213        -0.322612      0.000000      1.719968
      8.06900     -0.80215     10.15459         0.020192      0.000000     -1.900493
      9.96360     -0.80215      7.65147         0.119415      0.000000      0.341513
      6.03859      0.46319      7.30541        -0.140806     -0.180929      0.307209
      7.93319      0.46319      4.80229         0.172875     -0.053302      0.036981
      9.82779      0.46319      2.29918         0.440998     -0.583767      0.657267
      0.36609      0.46319      5.63666        -0.017749      0.012575      0.176214
      2.26069      0.46319      3.13355         0.003343     -0.042201     -0.215354
      4.15528      0.46319      0.63043         0.083848     -0.535292      0.843842
      6.98025      5.25240     10.64289         0.832894     -0.856386     -1.765850
      8.87485      5.25240      8.13978        -0.132142     -0.012972      0.254859
      1.30774      5.25240      8.97415         0.053566      1.051552     -0.116326
      3.20234      5.25240      6.47103        -0.097780      0.123651      0.119613
      5.09694      5.25240      3.96792         0.064020     -0.107715      0.020886
      6.99153      5.25240      1.46480         0.558801     -0.332399      0.804171
      1.91849      0.80909      9.99696        -0.247036      0.349306     -0.720804
      3.81309      0.80909      7.49384        -0.110015     -0.438772     -0.344752
      5.70769      0.80909      4.99073        -0.140110     -0.109161     -0.017642
      7.60228      0.80909      2.48761         0.620463     -0.069055     -0.957035
      0.03518      0.80909      3.32198        -0.037744     -0.138760     -0.302864
      1.92978      0.80909      0.81887         0.252481     -0.285426      0.627462
      6.64934      5.59829      8.32821        -0.517586     -0.137740      0.968522
      8.54394      5.59829      5.82510        -0.099599     -0.057036     -0.144980
      0.97684      5.59829      6.65947         0.069700     -0.289607     -0.196453
      2.87143      5.59829      4.15636        -0.019296     -0.133242     -0.071534
      4.76603      5.59829      1.65324         0.413102     -0.323518     -1.393849
      9.48560      0.80909      9.16258         0.090854     -0.853042      0.529981
      1.31873      3.98706      1.66874        -1.361886     -0.000000     -0.530387
      6.03829     -0.80215      9.17809         1.330511      0.000000      0.748856
      7.93289     -0.80215      6.67497        -0.040342      0.000000     -0.077702
      9.82749     -0.80215      4.17186        -0.132085      0.000000     -0.099526
      2.26038     -0.80215      5.00623         0.135760      0.000000     -0.288415
      4.15498     -0.80215      2.50311        -0.220725      0.000000     -0.358105
      6.04958     -0.80215      0.00000        -0.874931      0.000000     -0.173691
      0.36579      8.77626      7.50934         0.067599      0.000000      0.244603
      8.87455      3.98706     10.01246        -1.245167      0.000000      1.236639
      3.20204      3.98706      8.34372        -0.036567      0.000000      1.487241
      5.09664      3.98706      5.84060        -0.038922      0.000000     -0.024114
      6.99123      3.98706      3.33749        -0.051095      0.000000     -0.289206
      8.88583      3.98706      0.83437        -1.543107      0.000000     -0.380755
      5.70769     -2.41338      4.99073        -0.140110      0.109161     -0.017642
      7.60228     -2.41338      2.48761         0.620463      0.069055     -0.957035
      1.91849      7.16503      9.99696        -0.247036     -0.349306     -0.720804
      3.81309      7.16503      7.49384        -0.110015      0.438772     -0.344752
      0.03518      7.16503      3.32198        -0.037744      0.138760     -0.302864
      1.92978      7.16503      0.81887         0.252481      0.285426      0.627462
      6.64934      2.37583      8.32821        -0.517586      0.137740      0.968522
      8.54394      2.37583      5.82510        -0.099599      0.057036     -0.144980
      0.97684      2.37583      6.65947         0.069700      0.289607     -0.196453
      2.87143      2.37583      4.15636        -0.019296      0.133242     -0.071534
      4.76603      2.37583      1.65324         0.413102      0.323518     -1.393849
      9.48560     -2.41338      9.16258         0.090854      0.853042      0.529981
    total drift:                               -0.115335     -0.003709      0.096583

  FREE ENERGIE OF THE ION-ELECTRON SYSTEM (eV)
  free  energy   TOTEN  =      -365.43646512 eV

  energy  without entropy=     -364.22243324  energy(sigma->0) =     -364.82944918