 vasp.5.4.4.18Apr17-6-g9f103f2a35 (build Aug 13 2019 17:33:20) gamma-only

 executed on             LinuxIFC date 2020.05.11  10:51:01

 INCAR:
 POTCAR:    PAW_PBE Ni_pv 06Sep2000
 POTCAR:    PAW_PBE S 06Sep2000
 POTCAR:    PAW_PBE Ni_pv 06Sep2000
   VRHFIN =Ni:

   TITEL  = PAW_PBE Ni_pv 06Sep2000
   POMASS =   58.690; ZVAL   =   16.000    mass and valenz
   ENMAX  =  367.986; ENMIN  =  275.989 eV

 POTCAR:    PAW_PBE S 06Sep2000
   VRHFIN =S : s2p4

   TITEL  = PAW_PBE S 06Sep2000
   POMASS =   32.066; ZVAL   =    6.000    mass and valenz
   ENMAX  =  258.689; ENMIN  =  194.016 eV

 Optimization of the real space projectors (new method)

 maximal supplied QI-value         = 18.90
 optimisation between [QCUT,QGAM] = [ 10.77, 21.73] = [ 32.49,132.25] Ry
 Optimized for a Real-space Cutoff    1.38 Angstroem

   l    n(q)    QCUT    max X(q) W(low)/X(q) W(high)/X(q)  e(spline)
   1      8    10.771     2.836    0.40E-04    0.29E-04    0.12E-06
   1      8    10.771     4.023    0.10E-03    0.48E-04    0.29E-06
   2      8    10.771    73.368    0.42E-03    0.97E-04    0.44E-06
   2      8    10.771    69.010    0.42E-03    0.99E-04    0.45E-06
   0      9    10.771    54.797    0.10E-03    0.56E-04    0.74E-07
   0      9    10.771    24.266    0.89E-04    0.49E-04    0.67E-07
 Optimization of the real space projectors (new method)

 maximal supplied QI-value         = 19.84
 optimisation between [QCUT,QGAM] = [ 10.71, 21.63] = [ 32.15,130.99] Ry
 Optimized for a Real-space Cutoff    1.19 Angstroem

   l    n(q)    QCUT    max X(q) W(low)/X(q) W(high)/X(q)  e(spline)
   0      8    10.715   187.594    0.41E-03    0.53E-04    0.66E-07
   0      8    10.715   164.243    0.41E-03    0.53E-04    0.65E-07
   1      7    10.715    67.533    0.19E-03    0.59E-03    0.68E-07
   1      7    10.715    50.729    0.19E-03    0.58E-03    0.67E-07
  PAW_PBE Ni_pv 06Sep2000               :
  PAW_PBE S 06Sep2000                   :

 POSCAR: Type_048 Type_148
  positions in cartesian coordinates
 exchange correlation table for  LEXCH =        8
   RHO(1)=    0.500       N(1)  =     2000
   RHO(2)=  100.500       N(2)  =     4000

 ion  position               nearest neighbor table
   1  0.261  0.479  0.295-  73 2.25  58 2.26  80 2.26  59 2.36  54 2.36   6 2.53  21 2.53
   2  0.355  0.385  0.426-  65 2.13  74 2.25  54 2.26  59 2.26  60 2.36   7 2.53  22 2.53
   3  0.541  0.218  0.490-  65 2.03  60 2.06  62 2.07  16 2.41  22 2.47
   4  0.167  0.073  0.165-  81 2.12  55 2.12  64 2.25  56 2.36  82 2.36  12 2.44  35 2.53  29 2.53

   5  0.274  0.333  0.130-  51 1.99  55 2.13  57 2.23  52 2.36  58 2.36  11 2.53  27 2.53
   6  0.368  0.239  0.261-  56 2.25  58 2.26  52 2.26  59 2.36  61 2.36   1 2.53  21 2.53
   7  0.462  0.145  0.391-  62 2.16  78 2.25  59 2.26  61 2.26  16 2.34  60 2.36   2 2.53  22 2.53

[...]

  45  0.500  0.872  0.261-  94 2.25  76 2.26  56 2.26  85 2.36  78 2.36  30 2.53  24 2.53
  46  0.594  0.778  0.391-  89 2.15  95 2.25  85 2.26  78 2.26  86 2.36  25 2.53  31 2.53
  47  0.697  0.684  0.504-  86 2.01  89 2.03  96 2.05
  48  0.906  0.965  0.130-  67 2.12  87 2.13  81 2.15  88 2.36  68 2.36  15 2.53  42 2.53
  49  0.073  0.167  0.311-  24 2.25   9 2.26  20 2.26   8 2.36  19 2.36  50 2.73
  50  0.164  0.071  0.422-  10 2.03  20 2.15   9 2.21  25 2.24  49 2.73
  51  0.359  0.381  0.063-   5 1.99  11 1.99
  52  0.479  0.261  0.181-  15 2.25   6 2.26  21 2.26  11 2.36   5 2.36
  53  0.025  0.358  0.476-  10 2.06  28 2.07   9 2.11  14 2.13
  54  0.436  0.472  0.355-  31 2.25   2 2.26  22 2.26   1 2.36  21 2.36  65 2.69
  55  0.257  0.158  0.107-  12 2.06   4 2.12  35 2.12   5 2.13
  56  0.342  0.066  0.225-   6 2.25  24 2.26  45 2.26   4 2.36  35 2.36
  57  0.078  0.498  0.106-  27 2.07  23 2.19  26 2.19   5 2.23
  58  0.174  0.397  0.225-   8 2.25   1 2.26   6 2.26   5 2.36  27 2.36
  59  0.268  0.303  0.355-   9 2.25   7 2.26   2 2.26   6 2.36   1 2.36
  60  0.362  0.209  0.486-  10 2.03   3 2.06  16 2.14   7 2.36   2 2.36
  61  0.573  0.167  0.311-  36 2.25  22 2.26   7 2.26  21 2.36   6 2.36
  62  0.657  0.069  0.431-   3 2.07  16 2.15   7 2.16  37 2.27  22 2.30
  63  0.885  0.355  0.062-  17 2.01  23 2.06  18 2.06
  64  0.979  0.261  0.181-   4 2.25  19 2.26   8 2.26  23 2.36  18 2.36
  65  0.516  0.403  0.468-   3 2.03  40 2.08   2 2.13  22 2.16  54 2.69
  66  0.936  0.472  0.355-  44 2.25  14 2.26   9 2.26  13 2.36   8 2.36
  67  0.758  0.158  0.108-  41 2.05  15 2.12  48 2.12  18 2.13
  68  0.842  0.066  0.225-  19 2.25  36 2.26  32 2.26  15 2.36  48 2.36
  69  0.582  0.482  0.108-  17 2.06  39 2.12  18 2.12  11 2.13
  70  0.674  0.397  0.225-  21 2.25  13 2.26  19 2.26  18 2.36  39 2.36
  71  0.768  0.303  0.355-  22 2.25  20 2.26  14 2.26  19 2.36  13 2.36  72 2.77
  72  0.868  0.221  0.468-  20 2.01  14 2.02  71 2.77
  73  0.073  0.667  0.311-   1 2.25  33 2.26  44 2.26  32 2.36  43 2.36
  74  0.167  0.573  0.442-  34 2.03  28 2.04   2 2.25  33 2.36  44 2.36
  75  0.383  0.856  0.062-  12 2.00  29 2.05  35 2.06
  76  0.479  0.761  0.181-  39 2.25  30 2.26  45 2.26  35 2.36  29 2.36
  77  0.019  0.882  0.471-  38 2.02  34 2.08  37 2.10  33 2.11
  78  0.436  0.972  0.355-   7 2.25  25 2.26  46 2.26  24 2.36  45 2.36
  79  0.241  0.662  0.105-  27 2.07  29 2.19  26 2.19  11 2.23
  80  0.342  0.566  0.225-  30 2.25   1 2.26  21 2.26  27 2.36  11 2.36
  81  0.083  0.983  0.107-  12 2.06   4 2.12  29 2.13  48 2.15
  82  0.174  0.897  0.225-  32 2.25  24 2.26  30 2.26  29 2.36   4 2.36
  83  0.268  0.803  0.355-  33 2.25  31 2.26  25 2.26  30 2.36  24 2.36  84 2.79
  84  0.355  0.722  0.471-  34 2.03  40 2.03  25 2.10  31 2.12  89 2.71  83 2.79
  85  0.573  0.667  0.311-  13 2.25  46 2.26  31 2.26  45 2.36  30 2.36
  86  0.667  0.573  0.442-  47 2.01  40 2.01  14 2.25  46 2.36  31 2.36
  87  0.875  0.864  0.057-  41 2.01  26 2.03  42 2.12  48 2.13
  88  0.979  0.761  0.181-  26 2.12  27 2.25  43 2.26  32 2.26  48 2.36  42 2.36
  89  0.521  0.836  0.480-  16 2.01  47 2.03  25 2.09  46 2.15  84 2.71
  90  0.936  0.972  0.355-  20 2.25  37 2.26  33 2.26  36 2.36  32 2.36
  91  0.757  0.656  0.107-  17 2.06  39 2.12  23 2.12  42 2.16
  92  0.842  0.566  0.225-  43 2.25  13 2.26   8 2.26  39 2.36  23 2.36
  93  0.582  0.982  0.108-  41 2.05  15 2.12  42 2.12  35 2.13
  94  0.674  0.897  0.225-  45 2.25  36 2.26  43 2.26  42 2.36  15 2.36
  95  0.768  0.803  0.355-  46 2.25  44 2.26  37 2.26  43 2.36  36 2.36
  96  0.862  0.709  0.486-  38 1.98  28 2.05  47 2.05  44 2.36  37 2.36

  LATTYP: Found a base centered orthorhombic cell.
 ALAT       =    11.8257374459
 B/A-ratio  =     1.6199260857
 C/A-ratio  =     1.9043172636

  Lattice vectors:

 A1 = (  11.2564630382,   0.0000000000,   0.0000000000)
 A2 = (  -5.0445621212, -10.0628203371,   0.0000000000)
 A3 = (   0.0000000000,   0.0000000000, -22.5199559732)

Analysis of symmetry for initial positions (statically):
 Subroutine PRICEL returns:
 Original cell was already a primitive cell.

 Routine SETGRP: Setting up the symmetry group for a
 base centered orthorhombic supercell.

 Subroutine GETGRP returns: Found  1 space group operations
 (whereof  1 operations were pure point group operations)
 out of a pool of  8 trial point group operations.

The static configuration has the point symmetry C_1 .

Analysis of symmetry for dynamics (positions and initial velocities):
 Subroutine PRICEL returns:
 Original cell was already a primitive cell.

 Routine SETGRP: Setting up the symmetry group for a
 base centered orthorhombic supercell.

 Subroutine GETGRP returns: Found  1 space group operations
 (whereof  1 operations were pure point group operations)
 out of a pool of  8 trial point group operations.

The dynamic configuration has the point symmetry C_1 .

 Subroutine INISYM returns: Found  1 space group operations
 (whereof  1 operations are pure point group operations),
 and found     1 'primitive' translations

 KPOINTS: gamma-point-only calculation. no periodi

Automatic generation of k-mesh.
Space group operators:
 irot       det(A)        alpha          n_x          n_y          n_z        tau_x        tau_y        tau_z
    1     1.000000     0.000000     1.000000     0.000000     0.000000     0.000000     0.000000     0.000000

 Subroutine IBZKPT returns following result:

 Found      1 irreducible k-points:

 Following reciprocal coordinates:
            Coordinates               Weight
  0.000000  0.000000  0.000000      1.000000

 Following cartesian coordinates:
            Coordinates               Weight
  0.000000  0.000000  0.000000      1.000000

 SYSTEM =  "Millerite NiS"
 POSCAR =  Type_048 Type_148

 Startparameter for this run:
   NWRITE =      2    write-flag & timer
   PREC   = normal    normal or accurate (medium, high low for compatibility)
   ISTART =      0    job   : 0-new  1-cont  2-samecut
   ICHARG =      2    charge: 1-file 2-atom 10-const
   ISPIN  =      1    spin polarized calculation?
   LNONCOLLINEAR =      F non collinear calculations
   LSORBIT =      F    spin-orbit coupling
   INIWAV =      1    electr: 0-lowe 1-rand  2-diag
   LASPH  =      F    aspherical Exc in radial PAW
   METAGGA=      F    non-selfconsistent MetaGGA calc.

 Electronic Relaxation 1
   ENCUT  =  450.0 eV  33.07 Ry    5.75 a.u.  19.47 19.47 38.95*2*pi/ulx,y,z
   ENINI  =  450.0     initial cutoff
   ENAUG  =  703.4 eV  augmentation charge cutoff
   NELM   =    100;   NELMIN=  2; NELMDL= -5     # of ELM steps
   EDIFF  = 0.1E-03   stopping-criterion for ELM
   LREAL  =      T    real-space projection
   NLSPLINE    = F    spline interpolate recip. space projectors
   LCOMPAT=      F    compatible to vasp.4.4
   GGA_COMPAT  = T    GGA compatible to vasp.4.4-vasp.4.6
   LMAXPAW     = -100 max onsite density
   LMAXMIX     =    2 max onsite mixed and CHGCAR
   VOSKOWN=      0    Vosko Wilk Nusair interpolation
   ROPT   =   -0.00050  -0.00050
 Ionic relaxation
   EDIFFG = 0.1E-02   stopping-criterion for IOM
   NSW    =      0    number of steps for IOM
   NBLOCK =      1;   KBLOCK =      1    inner block; outer block
   IBRION =     -1    ionic relax: 0-MD 1-quasi-New 2-CG
   NFREE  =      0    steps in history (QN), initial steepest desc. (CG)
   ISIF   =      2    stress and relaxation
   IWAVPR =     10    prediction:  0-non 1-charg 2-wave 3-comb
   ISYM   =      2    0-nonsym 1-usesym 2-fastsym
   LCORR  =      T    Harris-Foulkes like correction to forces

   POTIM  = 0.5000    time-step for ionic-motion
   TEIN   =    0.0    initial temperature
   TEBEG  =    0.0;   TEEND  =   0.0 temperature during run
   SMASS  =  -3.00    Nose mass-parameter (am)
   estimated Nose-frequenzy (Omega)   =  0.10E-29 period in steps =****** mass=  -0.290E-26a.u.
   SCALEE = 1.0000    scale energy and forces
   NPACO  =    256;   APACO  = 16.0  distance and # of slots for P.C.
   PSTRESS=    0.0 pullay stress

  Mass of Ions in am
   POMASS =  58.69 32.07
  Ionic Valenz
   ZVAL   =  16.00  6.00
  Atomic Wigner-Seitz radii
  virtual crystal weights
   VCA    =   1.00  1.00
   NELECT =    1056.0000    total number of electrons
   NUPDOWN=      -1.0000    fix difference up-down

 DOS related values:
[...]
     0.000000000  0.000000000 22.519955973     0.000000000  0.000000000  0.044405060

  length of vectors
    11.256463038 11.256463038 22.519955973     0.099375718  0.099375718  0.044405060

 FORCES acting on ions
    electron-ion (+dipol)            ewald-force                    non-local-force                 convergence-correction
   0.221E+03 -.370E+03 -.311E+03   -.222E+03 0.371E+03 0.312E+03   0.815E+00 -.123E+01 0.210E+00   -.228E-01 0.188E-03 -.418E+00
   0.328E+03 -.513E+03 -.377E+04   -.331E+03 0.515E+03 0.377E+04   0.249E+01 -.205E+01 -.287E+00   -.917E-01 -.845E-01 0.106E+00
   -.665E+03 -.417E+02 -.601E+04   0.668E+03 0.415E+02 0.602E+04   -.171E+01 0.358E+00 -.440E+01   -.103E+00 -.240E+00 0.424E+00
   0.288E+03 -.579E+03 0.281E+04   -.290E+03 0.583E+03 -.280E+04   0.182E+01 -.285E+01 -.106E+01   -.489E-01 -.721E-01 -.931E+00
   0.216E+03 0.463E+03 0.437E+04   -.218E+03 -.465E+03 -.437E+04   0.682E+00 0.188E+01 0.340E+01   -.230E-01 -.227E+00 -.576E+00
   0.237E+03 0.430E+03 0.859E+03   -.237E+03 -.431E+03 -.859E+03   0.791E+00 0.563E+00 0.104E+01   0.985E-02 -.676E-01 -.448E+00
   0.276E+03 0.276E+03 -.217E+04   -.279E+03 -.277E+03 0.216E+04   0.282E+01 0.179E+01 0.237E+01   -.326E-01 -.171E+00 0.343E-01
   -.493E+03 0.273E+02 0.785E+03   0.494E+03 -.268E+02 -.785E+03   -.870E+00 -.466E+00 0.106E+01   -.146E+00 0.302E-01 -.417E+00
   -.282E+03 -.121E+02 -.245E+04   0.286E+03 0.137E+02 0.245E+04   -.408E+01 -.134E+01 0.981E+00   0.500E-01 -.520E-01 -.883E-01
   0.254E+03 0.294E+03 -.566E+04   -.256E+03 -.294E+03 0.566E+04   0.192E+01 -.844E+00 0.154E+01   0.868E-01 -.619E-01 0.356E+00
   -.513E+03 0.113E+02 0.437E+04   0.515E+03 -.107E+02 -.437E+04   -.196E+01 0.231E+00 0.342E+01   0.211E+00 -.765E-01 -.573E+00
   0.177E+03 -.443E+03 0.622E+04   -.177E+03 0.444E+03 -.623E+04   -.431E+00 0.437E+00 0.596E+01   -.625E-01 0.352E-01 -.562E+00
   0.266E+03 -.341E+03 -.385E+03   -.266E+03 0.342E+03 0.385E+03   0.730E+00 -.145E+01 0.320E+00   0.414E-01 -.388E-02 -.462E+00
   0.394E+03 -.171E+03 -.400E+04   -.396E+03 0.174E+03 0.400E+04   0.239E+01 -.213E+01 -.336E+01   0.283E-01 0.848E-02 -.483E-01
   0.378E+03 -.633E+03 0.278E+04   -.380E+03 0.637E+03 -.278E+04   0.181E+01 -.307E+01 -.120E+01   0.135E+00 -.228E+00 -.123E+01
   -.827E+00 0.356E+03 -.538E+04   0.116E+01 -.359E+03 0.538E+04   -.306E+00 0.304E+01 -.598E+00   0.425E-01 0.110E+00 0.314E+00
   0.320E+03 -.354E+03 0.623E+04   -.321E+03 0.355E+03 -.623E+04   -.163E+00 0.539E+00 0.593E+01   -.700E-02 0.196E-01 -.545E+00
   0.319E+03 0.654E+03 0.409E+04   -.321E+03 -.658E+03 -.409E+04   0.130E+01 0.283E+01 0.142E+01   -.692E-01 -.263E-01 -.871E+00
   0.245E+03 0.447E+03 0.732E+03   -.245E+03 -.447E+03 -.732E+03   0.747E+00 0.366E+00 0.108E+01   -.288E-02 0.511E-01 -.493E+00
   0.343E+03 0.498E+03 -.290E+04   -.345E+03 -.502E+03 0.290E+04   0.226E+01 0.342E+01 -.249E+01   0.229E-02 -.392E-01 -.186E+00
   -.525E+03 -.124E+02 0.832E+03   0.526E+03 0.128E+02 -.833E+03   -.859E+00 -.389E+00 0.122E+01   0.292E-01 -.415E-01 -.478E+00
   -.835E+03 0.143E+02 -.251E+04   0.839E+03 -.139E+02 0.250E+04   -.345E+01 -.150E+00 0.150E+01   0.183E-01 -.129E+00 -.974E-01
   -.721E+03 0.172E+03 0.410E+04   0.728E+03 -.172E+03 -.410E+04   -.518E+01 0.333E-01 0.197E+01   -.292E+00 0.883E-01 -.790E+00
   0.278E+03 -.404E+03 -.348E+03   -.279E+03 0.405E+03 0.347E+03   0.670E+00 -.109E+01 0.468E+00   0.354E-01 -.698E-01 -.454E+00
   0.481E+03 -.500E+03 -.391E+04   -.483E+03 0.503E+03 0.391E+04   0.147E+01 -.253E+01 -.134E-01   0.465E-01 0.179E+00 -.168E-01
   -.135E+03 0.217E+03 0.558E+04   0.137E+03 -.220E+03 -.559E+04   -.127E+01 0.208E+01 0.600E+01   -.241E+00 0.394E+00 -.563E+00
   0.747E+01 -.205E+02 0.284E+04   -.659E+01 0.191E+02 -.283E+04   -.212E+00 0.187E+00 -.185E+01   -.138E+00 0.237E+00 -.548E+00
   0.664E+02 0.639E+03 -.545E+04   -.671E+02 -.643E+03 0.545E+04   0.907E+00 0.291E+01 0.202E+01   0.427E-01 0.102E-01 0.403E+00
   0.176E+03 0.723E+03 0.411E+04   -.179E+03 -.730E+03 -.411E+04   0.232E+01 0.468E+01 0.198E+01   0.227E-01 0.323E+00 -.785E+00
   0.229E+03 0.469E+03 0.806E+03   -.230E+03 -.470E+03 -.806E+03   0.937E+00 0.684E+00 0.918E+00   0.672E-01 0.128E+00 -.428E+00
   0.209E+03 0.450E+03 -.235E+04   -.210E+03 -.453E+03 0.235E+04   0.152E+01 0.224E+01 0.296E+01   0.358E-01 0.557E-01 -.305E+00
   -.543E+03 -.730E+02 0.683E+03   0.545E+03 0.740E+02 -.682E+03   -.129E+01 -.946E+00 -.231E+00   -.139E+00 0.836E-01 -.557E+00
   -.528E+03 -.196E+03 -.233E+04   0.530E+03 0.196E+03 0.233E+04   -.188E+01 0.568E-01 0.231E+01   0.297E-02 0.369E-01 -.147E+00
   -.616E+03 -.120E+02 -.554E+04   0.615E+03 0.124E+02 0.554E+04   0.408E+00 -.679E+00 -.183E+00   -.166E+00 0.453E-01 0.441E+00
   -.718E+03 0.677E+01 0.411E+04   0.722E+03 -.720E+01 -.411E+04   -.305E+01 0.151E+00 0.150E+01   0.161E-01 0.631E-01 -.872E+00
   0.201E+03 -.447E+03 -.391E+03   -.201E+03 0.448E+03 0.392E+03   0.579E+00 -.100E+01 0.233E+00   0.145E-01 -.563E-01 -.570E+00
   0.208E+03 -.752E+03 -.374E+04   -.209E+03 0.753E+03 0.374E+04   0.106E+01 -.816E+00 0.548E+00   -.865E-01 0.695E-01 0.955E-01
   0.857E+02 -.548E+03 -.620E+04   -.804E+02 0.545E+03 0.619E+04   -.502E+01 0.339E+01 0.359E+01   0.893E-02 0.887E-02 0.491E+00
   0.394E+03 -.506E+03 0.281E+04   -.396E+03 0.510E+03 -.281E+04   0.175E+01 -.290E+01 -.119E+01   0.705E-01 -.186E-02 -.875E+00
   0.492E+02 0.422E+03 -.579E+04   -.496E+02 -.422E+03 0.579E+04   0.465E+00 -.616E+00 -.112E-03   -.139E-01 -.379E-01 0.393E+00
   0.345E+03 -.562E+03 0.620E+04   -.347E+03 0.566E+03 -.621E+04   0.162E+01 -.289E+01 0.400E+01   0.187E-01 -.265E-01 -.373E+00
   0.560E+03 0.509E+03 0.402E+04   -.564E+03 -.513E+03 -.402E+04   0.304E+01 0.180E+01 0.818E+00   0.753E-01 0.458E+00 -.953E+00
   0.272E+03 0.455E+03 0.714E+03   -.273E+03 -.456E+03 -.713E+03   0.135E+01 0.865E+00 -.493E+00   -.203E-01 0.164E+00 -.543E+00
   0.278E+03 0.384E+03 -.229E+04   -.279E+03 -.386E+03 0.228E+04   0.141E+01 0.134E+01 0.208E+01   -.550E-01 -.208E-01 -.124E+00
   -.488E+03 -.845E+01 0.816E+03   0.489E+03 0.898E+01 -.816E+03   -.754E+00 -.497E+00 0.979E+00   -.281E-01 -.794E-03 -.457E+00
   -.477E+03 0.609E+02 -.237E+04   0.480E+03 -.605E+02 0.237E+04   -.248E+01 -.972E+00 0.263E+01   0.468E-01 0.989E-01 -.242E+00
   -.116E+03 0.161E+03 -.574E+04   0.119E+03 -.163E+03 0.574E+04   -.203E+01 0.130E+01 0.189E+01   0.125E+00 0.769E-01 0.366E+00
   -.709E+03 -.276E+03 0.402E+04   0.713E+03 0.278E+03 -.402E+04   -.298E+01 -.195E+01 0.910E+00   -.438E+00 0.136E+00 -.950E+00
   -.458E+02 0.116E+03 -.116E+03   0.468E+02 -.117E+03 0.115E+03   -.110E+01 0.183E+01 0.127E+00   0.771E-02 -.349E-01 -.190E+00
   0.129E+03 0.217E+03 -.140E+04   -.129E+03 -.219E+03 0.140E+04   0.545E-01 0.364E+00 0.264E+00   0.432E-01 0.410E-02 0.314E-01
   -.628E+02 0.101E+03 0.242E+04   0.633E+02 -.101E+03 -.242E+04   -.121E-01 0.104E+00 0.630E+00   0.500E-01 -.829E-01 -.183E+00
   -.666E+02 0.102E+03 0.119E+04   0.674E+02 -.104E+03 -.119E+04   -.818E+00 0.126E+01 0.200E+01   0.667E-01 -.116E+00 -.231E+00
   0.134E+03 0.196E+02 -.210E+04   -.132E+03 -.174E+02 0.211E+04   -.100E+01 -.118E+01 -.143E+01   0.486E-01 -.258E-01 0.124E+00
   -.874E+02 -.145E+03 -.581E+03   0.884E+02 0.147E+03 0.581E+03   -.125E+01 -.246E+01 -.341E+00   -.120E-01 0.229E-01 -.159E+00
   -.123E+03 -.318E+03 0.187E+04   0.124E+03 0.321E+03 -.188E+04   0.407E+00 -.435E+00 0.143E+01   -.118E+00 -.178E+00 -.350E+00
   -.789E+02 -.166E+03 0.623E+03   0.799E+02 0.168E+03 -.624E+03   -.861E+00 -.225E+01 0.116E+01   -.436E-03 -.445E-01 -.151E+00
   0.120E+03 0.172E+03 0.200E+04   -.122E+03 -.173E+03 -.200E+04   0.304E+00 0.215E-01 0.300E+01   -.492E-01 0.824E-01 -.216E+00
   0.161E+03 0.239E+02 0.638E+03   -.164E+03 -.237E+02 -.638E+03   0.275E+01 -.298E+00 0.641E+00   -.254E-01 -.735E-02 -.121E+00
   0.176E+03 -.154E+02 -.579E+03   -.179E+03 0.154E+02 0.579E+03   0.310E+01 0.954E-01 -.349E+00   -.136E-01 -.160E-02 -.129E+00
   0.187E+03 -.128E+03 -.215E+04   -.190E+03 0.129E+03 0.215E+04   0.277E+01 -.476E+00 -.294E+01   0.653E-02 -.760E-01 0.139E+00
[...]
   0.174E+03 -.320E+02 -.603E+03   -.178E+03 0.322E+02 0.603E+03   0.279E+01 -.257E+00 -.993E+00   0.390E-01 0.485E-01 -.180E+00
   0.106E+03 -.131E+03 -.196E+04   -.109E+03 0.131E+03 0.197E+04   0.153E+01 0.357E+00 -.112E+01   -.446E-01 0.517E-01 0.834E-01
   -.695E+02 0.134E+03 -.939E+02   0.707E+02 -.136E+03 0.926E+02   -.113E+01 0.164E+01 0.131E+01   0.297E-01 -.112E-01 -.202E+00
   -.997E+02 0.259E+03 -.138E+04   0.100E+03 -.261E+03 0.138E+04   0.477E+00 0.673E+00 -.138E+01   0.403E-01 -.747E-02 -.256E-01
   -.720E+02 0.114E+03 0.247E+04   0.731E+02 -.116E+03 -.247E+04   -.369E+00 0.577E+00 0.224E+01   -.177E+00 0.280E+00 -.766E-01
   -.586E+02 0.889E+02 0.932E+03   0.588E+02 -.894E+02 -.930E+03   -.505E+00 0.932E+00 -.494E+00   -.576E-01 0.926E-01 -.250E+00
   0.109E+03 -.721E+02 -.213E+04   -.108E+03 0.746E+02 0.213E+04   -.270E+00 -.106E+01 -.154E+01   0.381E-01 0.131E+00 0.887E-01
   -.897E+02 -.209E+03 -.664E+03   0.909E+02 0.211E+03 0.664E+03   -.143E+01 -.269E+01 -.156E+00   -.354E-01 0.168E-01 -.178E+00
   -.346E+02 -.263E+03 0.187E+04   0.351E+02 0.265E+03 -.187E+04   -.170E+00 0.133E+00 0.118E+01   -.766E-01 -.715E-02 -.336E+00
   -.610E+02 -.131E+03 0.596E+03   0.619E+02 0.133E+03 -.596E+03   -.728E+00 -.239E+01 0.106E+01   -.217E-01 0.164E-01 -.133E+00
   0.325E+03 -.577E+02 0.185E+04   -.327E+03 0.585E+02 -.186E+04   -.213E+00 -.496E+00 0.127E+01   0.308E+00 0.548E-01 -.384E+00
   0.192E+03 -.113E+02 0.600E+03   -.195E+03 0.114E+02 -.600E+03   0.262E+01 -.325E+00 0.991E+00   0.534E-01 0.181E-01 -.228E+00
   0.157E+03 -.700E+01 -.590E+03   -.160E+03 0.684E+01 0.591E+03   0.270E+01 -.385E-01 -.671E+00   -.112E-01 0.400E-01 -.171E+00
   0.232E+03 -.684E+02 -.189E+04   -.234E+03 0.689E+02 0.189E+04   0.843E+00 -.280E+00 -.223E+01   0.598E-01 0.268E-01 0.146E+00
   -.669E+01 0.781E+01 -.498E+02   0.625E-12 0.135E-11 0.114E-10   0.759E+01 -.930E+01 0.719E+02   -.110E+01 0.151E+01 -.219E+02

 POSITION                                       TOTAL-FORCE (eV/Angst)
      5.35228      4.81788      6.64784         0.122918     -0.193949     -0.036829
      5.93595      3.87238      9.58390        -0.907444      0.517363     -0.920713
      7.18551      2.19241     11.03048         0.735474     -0.086564      1.414709
      2.24633      0.73197      3.71178        -0.474050      0.736956      2.232611
      4.76861      3.35453      2.93606        -1.061096     -0.348957      2.223280
      5.35228      2.40903      5.87212         0.042161      0.096685     -0.037015
      5.93595      1.46353      8.80817        -0.777177      0.579117     -2.045987
      1.87746      3.73836      5.87212        -0.215755     -0.009468     -0.038980
      2.46113      2.79286      8.80817        -0.086159      0.248245     -2.402911
      3.11997      1.82988     10.93447         0.113118     -0.508192      1.607526
      6.92203      4.68386      2.93606         0.780675      0.802520      2.188811
      2.54928      0.26696      1.33323        -0.769161      1.288788     -1.991667
     10.98051      4.81788      6.64784         0.135837     -0.273325     -0.130783
     11.56418      3.87238      9.58390        -0.109593      1.453677     -1.742610
      7.87456      0.73197      3.71178        -0.452702      0.656396      2.373289
      5.94872      0.14419     10.73882         0.072629      0.362147      1.016160
     10.67736      5.26790      1.33546        -0.771642      1.318967     -2.007434
     10.39684      3.35453      2.93606        -0.340705     -1.401995      2.100171
     10.98051      2.40903      5.87212         0.017587      0.132417     -0.004886
     11.56418      1.46353      8.80817        -0.026840     -0.412541     -2.438857
      7.50570      3.73836      5.87212        -0.032678     -0.008898     -0.069300
      8.08937      2.79286      8.80817         0.414248      0.111582     -1.258286
     12.55026      4.68386      2.93606         1.757367     -0.204846      2.328730
      7.87456      9.84929      6.64784         0.143707     -0.337571     -0.206164
      8.45823      8.90379      9.58390        -0.587397      0.615973     -1.185039
      3.93421      7.10124      2.05625         0.146642     -0.257884     -0.928121
      4.76861      5.76338      3.71178         0.530452     -0.906176      3.602764
      3.08499      5.39276     11.04551         0.232606     -0.360204      1.138949
      7.29089      8.38594      2.93606        -0.650504     -1.602826      2.253107
      7.87456      7.44044      5.87212         0.057709      0.127940      0.015445
      8.45823      6.49494      8.80817         0.242721     -0.022868     -1.541318
      4.39975      8.76977      5.87212         0.159706      0.115159      0.017438
      4.98341      7.82427      8.80817        -0.130249     -0.332552     -1.450667
      5.68268      7.13911     11.12836         0.153343     -0.184374      1.204735
      9.44431      9.71527      2.93606         1.364133     -0.223018      2.140497
     13.50279      9.84929      6.64784         0.128197     -0.214677     -0.076475
     14.08646      8.90379      9.58390        -0.813802      0.066766     -0.627411
     14.83337      7.82341     11.95228         0.221594      0.139715      1.622987
     10.39684      5.76338      3.71178        -0.404719      0.795152      2.260601
      8.83362      5.74587     11.21951        -0.015146     -0.720798      1.432385
      8.10699      0.34411      1.33265        -0.600543      1.002379     -1.861204
     12.91912      8.38594      2.93606        -0.263360     -1.179090      1.538756
     13.50279      7.44044      5.87212        -0.181712     -0.016911     -0.029020
     14.08646      6.49494      8.80817         0.036524      0.126688     -0.595930
     10.02798      8.76977      5.87212        -0.065623      0.027820      0.053458
     10.61165      7.82427      8.80817        -0.003006     -0.466819     -0.762025
     11.29384      6.88397     11.35758         0.176878     -0.139950      1.328699
     15.07254      9.71527      2.93606         1.060682     -0.313390      1.551906
      1.66190      1.67871      7.01153        -0.024335      0.129759     -0.895932
      2.20086      0.71747      9.50978        -0.137164     -1.353356      1.127247
      5.95940      3.83424      1.41966         0.514599     -0.807519     -4.380448
      6.70646      2.62422      4.07548         0.075758     -0.140780      0.163590
      2.09096      3.60404     10.71561         0.293081      0.919922      2.242398
      7.29013      4.74605      7.99931        -0.260331      0.113665     -0.834635
      3.69472      1.58872      2.41896         0.511583      1.883770     -1.369611
      4.18418      0.66015      5.06325         0.063987     -0.107810      0.611018
      3.38241      5.00673      2.37964        -1.564397     -0.909238     -2.216490
      3.96438      3.99884      5.06325        -0.110577     -0.196146      0.418490
      4.54805      3.05334      7.99931         0.096436      0.069103     -0.027886
      5.13172      2.10784     10.93537        -0.094812      0.480700      0.933518
[...]
      6.48666      9.03025      5.06325         0.040922     -0.210080      0.592803
      7.07033      8.08475      7.99931        -0.218386     -0.038345     -1.137912
      7.63558      7.26473     10.60351        -1.299353      0.163001      2.043608
      9.81241      6.71012      7.01153         0.080341     -0.202444     -0.159644
     10.39608      5.76462      9.94759         1.301533     -1.795359     -1.687720
     14.20867      8.69409      1.27689         0.626920     -0.888186     -3.684224
     14.85697      7.65563      4.07548        -0.314428      0.504120      1.240637
     10.07782      8.41348     10.80579         0.657935      1.525914      1.747773
     15.44064      9.77746      7.99931        -0.214509      0.022410     -0.642614
     11.83261      6.60310      2.40163         0.329145      1.726506     -1.376650
     12.33469      5.69156      5.06325         0.098199     -0.097039      0.514605
     11.50352      9.87991      2.42885        -1.866725      0.365324     -1.229414
     12.11489      9.03025      5.06325         0.124083     -0.132531      0.645345
     12.69856      8.08475      7.99931        -0.000516     -0.160251     -0.153402
     13.28223      7.13925     10.93537        -1.594911      0.307272     -0.489047
    total drift:                               -0.199618      0.011489      0.210538

  FREE ENERGIE OF THE ION-ELECTRON SYSTEM (eV)
  free  energy   TOTEN  =      -471.33218287 eV

  energy  without entropy=     -469.91629944  energy(sigma->0) =     -470.62424115