 vasp.5.4.4.18Apr17-6-g9f103f2a35 (build Aug 13 2019 17:33:20) gamma-only

 executed on             LinuxIFC date 2020.05.11  23:25:12

 INCAR:
 POTCAR:    PAW_PBE Ni_pv 06Sep2000
 POTCAR:    PAW_PBE S 06Sep2000
 POTCAR:    PAW_PBE Ni_pv 06Sep2000
   VRHFIN =Ni:

   TITEL  = PAW_PBE Ni_pv 06Sep2000
   POMASS =   58.690; ZVAL   =   16.000    mass and valenz
   ENMAX  =  367.986; ENMIN  =  275.989 eV

 POTCAR:    PAW_PBE S 06Sep2000
   VRHFIN =S : s2p4

   TITEL  = PAW_PBE S 06Sep2000
   POMASS =   32.066; ZVAL   =    6.000    mass and valenz
   ENMAX  =  258.689; ENMIN  =  194.016 eV

 Optimization of the real space projectors (new method)

 maximal supplied QI-value         = 18.90
 optimisation between [QCUT,QGAM] = [ 10.77, 21.73] = [ 32.49,132.25] Ry
 Optimized for a Real-space Cutoff    1.38 Angstroem

   l    n(q)    QCUT    max X(q) W(low)/X(q) W(high)/X(q)  e(spline)
   1      8    10.771     2.836    0.40E-04    0.29E-04    0.12E-06
   1      8    10.771     4.023    0.10E-03    0.48E-04    0.29E-06
   2      8    10.771    73.368    0.42E-03    0.97E-04    0.44E-06
   2      8    10.771    69.010    0.42E-03    0.99E-04    0.45E-06
   0      9    10.771    54.797    0.10E-03    0.56E-04    0.74E-07
   0      9    10.771    24.266    0.89E-04    0.49E-04    0.67E-07
 Optimization of the real space projectors (new method)

 maximal supplied QI-value         = 19.84
 optimisation between [QCUT,QGAM] = [ 10.71, 21.63] = [ 32.15,130.99] Ry
 Optimized for a Real-space Cutoff    1.19 Angstroem

   l    n(q)    QCUT    max X(q) W(low)/X(q) W(high)/X(q)  e(spline)
   0      8    10.715   187.594    0.41E-03    0.53E-04    0.66E-07
   0      8    10.715   164.243    0.41E-03    0.53E-04    0.65E-07
   1      7    10.715    67.533    0.19E-03    0.59E-03    0.68E-07
   1      7    10.715    50.729    0.19E-03    0.58E-03    0.67E-07
  PAW_PBE Ni_pv 06Sep2000               :
  PAW_PBE S 06Sep2000                   :

 POSCAR: Type_037 Type_137
  positions in cartesian coordinates
 exchange correlation table for  LEXCH =        8
   RHO(1)=    0.500       N(1)  =     2000
   RHO(2)=  100.500       N(2)  =     4000

 ion  position               nearest neighbor table
   1  0.780  0.145  0.118-  51 2.07  65 2.07  42 2.25  52 2.36  66 2.36
   2  0.802  0.145  0.283-  38 2.05  66 2.07  52 2.07  43 2.10
   3  0.222  0.645  0.092-  44 2.02  45 2.17  63 2.25  53 2.25   4 2.35
   4  0.297  0.645  0.211-  64 2.13  54 2.13  45 2.25  53 2.26  63 2.26   3 2.35  28 2.53  15 2.53

   5  0.394  0.145  0.123-  47 2.03  48 2.17  69 2.26  55 2.26   6 2.36
   6  0.470  0.145  0.242-  56 2.10  70 2.10  48 2.25  55 2.26  69 2.26   5 2.36  31 2.53  18 2.53

[...]

  38  0.904  0.145  0.351-  13 2.04  26 2.04   2 2.05
  39  0.991  0.145  0.178-  26 2.09  13 2.09  25 2.19  12 2.19   9 2.25
  40  0.474  0.645  0.085-  14 2.01  27 2.01  10 2.02  15 2.26  28 2.26
  41  0.509  0.645  0.271-  29 2.07  16 2.07  10 2.17  11 2.25  28 2.36  15 2.36
  42  0.647  0.145  0.116-  17 2.02  30 2.02   1 2.25  18 2.26  31 2.26  43 2.73
  43  0.678  0.145  0.278-   2 2.10  18 2.11  31 2.11  42 2.73
  44  0.116  0.645  0.034-   3 2.02  19 2.06  32 2.06
  45  0.164  0.645  0.209-  20 2.07  33 2.07   3 2.17   4 2.25  32 2.36  19 2.36
  46  0.084  0.645  0.371-   8 2.05  20 2.05  33 2.05
  47  0.288  0.145  0.064-   5 2.03  21 2.06  34 2.06
  48  0.336  0.145  0.240-  35 2.06  22 2.06   5 2.17   6 2.25  34 2.36  21 2.36
  49  0.819  0.645  0.147-  36 2.23  23 2.23   7 2.25  24 2.26  37 2.26  50 2.72
  50  0.851  0.645  0.308-   8 2.11  24 2.12  37 2.12  49 2.72
  51  0.817  0.293  0.035-  23 2.02  25 2.06   1 2.07
  52  0.829  0.314  0.210-   2 2.07  26 2.11  25 2.11  23 2.14  24 2.25   1 2.36
  53  0.312  0.814  0.116-  27 1.99   3 2.25  21 2.25   4 2.26  28 2.26
  54  0.350  0.795  0.290-  22 2.04  29 2.05   4 2.13  28 2.15
  55  0.484  0.314  0.147-  30 1.99  15 2.25   5 2.26   6 2.26  31 2.26
  56  0.526  0.288  0.319-  16 2.00  31 2.07   6 2.10  70 2.73
  57  0.001  0.814  0.241-   8 2.05  33 2.06  13 2.18  32 2.36   7 2.36  58 2.76
  58  0.968  0.821  0.078-   7 2.07  32 2.09  12 2.10  57 2.76
  59  0.140  0.321  0.105-   9 2.11  34 2.12  19 2.12  60 2.62
  60  0.173  0.304  0.260-  35 2.04  20 2.15   9 2.17  34 2.21  59 2.62
  61  0.657  0.814  0.179-  10 2.20  18 2.25  37 2.26  11 2.26  36 2.30
  62  0.696  0.791  0.344-  37 2.02  11 2.03  72 2.78
  63  0.312  0.477  0.116-  14 1.99   3 2.25  34 2.25   4 2.26  15 2.26
  64  0.350  0.496  0.290-  35 2.04  16 2.05   4 2.13  15 2.15
  65  0.817  0.997  0.035-  36 2.02  12 2.06   1 2.07
  66  0.829  0.977  0.210-   2 2.07  13 2.11  12 2.11  36 2.14  37 2.25   1 2.36
  67  0.001  0.477  0.241-   8 2.05  20 2.06  26 2.18  19 2.36   7 2.36  68 2.76
  68  0.968  0.469  0.078-   7 2.07  19 2.09  25 2.10  67 2.76
  69  0.484  0.977  0.147-  17 1.99  28 2.25   5 2.26   6 2.26  18 2.26
  70  0.526  0.003  0.319-  29 2.00  18 2.07   6 2.10  56 2.73
  71  0.657  0.477  0.179-  10 2.20  31 2.25  24 2.26  11 2.26  23 2.30
  72  0.696  0.500  0.344-  24 2.02  11 2.03  62 2.78
  73  0.140  0.970  0.105-   9 2.11  21 2.12  32 2.12  74 2.62
  74  0.173  0.987  0.260-  22 2.04  33 2.15   9 2.17  21 2.21  73 2.62

  LATTYP: Found a simple orthorhombic cell.
 ALAT       =     9.5784100000
 B/A-ratio  =     1.7276387782
 C/A-ratio  =     1.7627867312

  Lattice vectors:

 A1 = (   0.0000000000,   9.5784100000,   0.0000000000)
 A2 = (   0.0000000000,   0.0000000000, -16.5480325497)
 A3 = ( -16.8846940542,   0.0000000000,   0.0000000000)

Analysis of symmetry for initial positions (statically):
 Subroutine PRICEL returns:
 Original cell was already a primitive cell.

 Routine SETGRP: Setting up the symmetry group for a
 simple orthorhombic supercell.

 Subroutine GETGRP returns: Found  2 space group operations
 (whereof  1 operations were pure point group operations)
 out of a pool of  8 trial point group operations.

The static configuration has the point symmetry C_1 .
 The point group associated with its full space group is C_1h.

Analysis of symmetry for dynamics (positions and initial velocities):
 Subroutine PRICEL returns:
 Original cell was already a primitive cell.

 Routine SETGRP: Setting up the symmetry group for a
 simple orthorhombic supercell.

 Subroutine GETGRP returns: Found  2 space group operations
 (whereof  1 operations were pure point group operations)
 out of a pool of  8 trial point group operations.

The dynamic configuration has the point symmetry C_1 .
 The point group associated with its full space group is C_1h.

 Subroutine INISYM returns: Found  2 space group operations
 (whereof  1 operations are pure point group operations),
 and found     1 'primitive' translations

 KPOINTS: gamma-point-only calculation. no periodi

Automatic generation of k-mesh.
Space group operators:
 irot       det(A)        alpha          n_x          n_y          n_z        tau_x        tau_y        tau_z
    1     1.000000     0.000001     1.000000     0.000000     0.000000     0.000000     0.000000     0.000000
    2    -1.000000   180.000000     0.000000     1.000000     0.000000     0.000000     0.290594     0.000000

 Subroutine IBZKPT returns following result:

 Found      1 irreducible k-points:

 Following reciprocal coordinates:
            Coordinates               Weight
  0.000000  0.000000  0.000000      1.000000

 Following cartesian coordinates:
            Coordinates               Weight
  0.000000  0.000000  0.000000      1.000000

 SYSTEM =  "Millerite NiS"
 POSCAR =  Type_037 Type_137

 Startparameter for this run:
   NWRITE =      2    write-flag & timer
   PREC   = normal    normal or accurate (medium, high low for compatibility)
   ISTART =      0    job   : 0-new  1-cont  2-samecut
   ICHARG =      2    charge: 1-file 2-atom 10-const
   ISPIN  =      1    spin polarized calculation?
   LNONCOLLINEAR =      F non collinear calculations
   LSORBIT =      F    spin-orbit coupling
   INIWAV =      1    electr: 0-lowe 1-rand  2-diag
   LASPH  =      F    aspherical Exc in radial PAW
   METAGGA=      F    non-selfconsistent MetaGGA calc.

 Electronic Relaxation 1
   ENCUT  =  450.0 eV  33.07 Ry    5.75 a.u.  29.20 16.57 28.62*2*pi/ulx,y,z
   ENINI  =  450.0     initial cutoff
   ENAUG  =  703.4 eV  augmentation charge cutoff
   NELM   =    100;   NELMIN=  2; NELMDL= -5     # of ELM steps
   EDIFF  = 0.1E-03   stopping-criterion for ELM
   LREAL  =      T    real-space projection
   NLSPLINE    = F    spline interpolate recip. space projectors
   LCOMPAT=      F    compatible to vasp.4.4
   GGA_COMPAT  = T    GGA compatible to vasp.4.4-vasp.4.6
   LMAXPAW     = -100 max onsite density
   LMAXMIX     =    2 max onsite mixed and CHGCAR
   VOSKOWN=      0    Vosko Wilk Nusair interpolation
   ROPT   =   -0.00050  -0.00050
 Ionic relaxation
   EDIFFG = 0.1E-02   stopping-criterion for IOM
   NSW    =      0    number of steps for IOM
   NBLOCK =      1;   KBLOCK =      1    inner block; outer block
   IBRION =     -1    ionic relax: 0-MD 1-quasi-New 2-CG
   NFREE  =      0    steps in history (QN), initial steepest desc. (CG)
   ISIF   =      2    stress and relaxation
   IWAVPR =     10    prediction:  0-non 1-charg 2-wave 3-comb
   ISYM   =      2    0-nonsym 1-usesym 2-fastsym
   LCORR  =      T    Harris-Foulkes like correction to forces

   POTIM  = 0.5000    time-step for ionic-motion
   TEIN   =    0.0    initial temperature
   TEBEG  =    0.0;   TEEND  =   0.0 temperature during run
   SMASS  =  -3.00    Nose mass-parameter (am)
   estimated Nose-frequenzy (Omega)   =  0.10E-29 period in steps =****** mass=  -0.652E-26a.u.
   SCALEE = 1.0000    scale energy and forces
   NPACO  =    256;   APACO  = 16.0  distance and # of slots for P.C.
   PSTRESS=    0.0 pullay stress

  Mass of Ions in am
   POMASS =  58.69 32.07
  Ionic Valenz
   ZVAL   =  16.00  6.00
  Atomic Wigner-Seitz radii
  virtual crystal weights
   VCA    =   1.00  1.00
   NELECT =     814.0000    total number of electrons
   NUPDOWN=      -1.0000    fix difference up-down

 DOS related values:
   EMIN   =  10.00;   EMAX   =-10.00  energy-range for DOS
   EFERMI =   0.00
   ISMEAR =     0;   SIGMA  =   0.20  broadening in eV -4-tet -1-fermi 0-gaus

 Electronic relaxation 2 (details)
   IALGO  =     38    algorithm
   LDIAG  =      T    sub-space diagonalisation (order eigenvalues)
   LSUBROT=      F    optimize rotation matrix (better conditioning)
   TURBO    =      0    0=normal 1=particle mesh
   IRESTART =      0    0=no restart 2=restart with 2 vectors
   NREBOOT  =      0    no. of reboots
   NMIN     =      0    reboot dimension
   EREF     =   0.00    reference energy to select bands
   IMIX   =      4    mixing-type and parameters
     AMIX     =   0.40;   BMIX     =  1.00
     AMIX_MAG =   1.60;   BMIX_MAG =  1.00
     AMIN     =   0.10
     WC   =   100.;   INIMIX=   1;  MIXPRE=   1;  MAXMIX= -45

 Intra band minimization:
   WEIMIN = 0.0000     energy-eigenvalue tresh-hold
   EBREAK =  0.51E-07  absolut break condition
   DEPER  =   0.30     relativ break condition

   TIME   =   0.40     timestep for ELM

  volume/ion in A,a.u.               =      36.17       244.06
[...]
     0.000000000  9.578410000  0.000000000     0.000000000  0.104401461  0.000000000
     0.000000000  0.000000000 16.548032550     0.000000000  0.000000000  0.060430145

  length of vectors
    16.884694054  9.578410000 16.548032550     0.059225237  0.104401461  0.060430145

 FORCES acting on ions
    electron-ion (+dipol)            ewald-force                    non-local-force                 convergence-correction
   0.477E+03 -.959E-03 0.201E+04   -.481E+03 -.382E-06 -.202E+04   0.417E+01 0.000E+00 0.557E+01   0.293E+00 0.207E-05 0.524E-01
   0.451E+03 -.859E-03 -.291E+04   -.456E+03 -.214E-07 0.291E+04   0.283E+01 0.000E+00 -.548E+01   0.225E+00 0.351E-07 0.508E-01
   0.191E+03 -.654E-03 0.292E+04   -.191E+03 0.102E-06 -.293E+04   0.177E+01 0.000E+00 0.611E+01   -.240E+00 0.904E-06 -.121E+00
   0.559E+03 -.840E-03 -.109E+04   -.559E+03 -.214E-06 0.109E+04   0.997E+00 0.000E+00 -.281E+01   -.431E+00 0.852E-06 -.175E+00
   0.498E+02 -.104E-02 0.233E+04   -.496E+02 0.196E-05 -.234E+04   0.134E+01 0.000E+00 0.601E+01   -.311E+00 -.394E-07 -.972E-01
   0.249E+03 -.752E-03 -.181E+04   -.251E+03 0.447E-06 0.182E+04   0.168E+01 0.000E+00 -.478E+01   -.933E-01 -.967E-06 0.124E+00
   0.549E+03 -.830E-03 0.134E+04   -.554E+03 -.359E-07 -.134E+04   0.496E+01 0.000E+00 0.452E+01   0.146E+00 0.516E-06 -.676E-01
   0.475E+03 -.825E-03 -.328E+04   -.479E+03 -.408E-07 0.328E+04   0.264E+01 0.000E+00 -.354E+01   0.132E-01 0.226E-05 -.104E+00
   0.696E+03 -.758E-03 0.263E+03   -.701E+03 0.517E-07 -.263E+03   0.424E+01 0.000E+00 0.128E+01   -.125E+00 -.197E-06 -.368E-01
   -.536E+03 -.976E-03 0.167E+04   0.539E+03 0.133E-06 -.167E+04   -.285E+01 0.000E+00 0.395E+01   0.164E+00 0.195E-05 -.224E+00
   0.797E+02 -.930E-03 -.236E+04   -.831E+02 0.149E-06 0.236E+04   0.238E+01 0.000E+00 -.636E+01   0.350E+00 0.212E-05 0.261E+00
   -.648E+03 0.195E+03 0.243E+04   0.653E+03 -.198E+03 -.244E+04   -.464E+01 0.278E+01 0.580E+01   0.596E-01 -.439E-01 0.629E-01
   -.514E+03 0.352E+03 -.232E+04   0.517E+03 -.356E+03 0.232E+04   -.247E+01 0.236E+01 -.479E+01   -.593E-02 0.721E-01 -.144E-01
   -.368E+02 0.607E+03 0.397E+04   0.346E+02 -.604E+03 -.397E+04   0.259E+01 -.427E+01 -.223E+01   -.256E+00 0.885E-01 -.337E+00
   -.166E+03 0.485E+03 0.163E+03   0.167E+03 -.489E+03 -.164E+03   0.333E+00 0.381E+01 -.394E+00   -.295E+00 -.487E-01 -.253E+00
   -.127E+03 0.164E+03 -.370E+04   0.129E+03 -.167E+03 0.370E+04   -.263E+01 0.444E+01 0.207E+01   -.355E-01 -.116E+00 0.256E+00
   -.234E+03 0.568E+03 0.357E+04   0.232E+03 -.563E+03 -.357E+04   0.167E+01 -.535E+01 -.174E+01   0.786E-01 -.162E+00 -.172E+00
   -.527E+03 0.427E+03 -.935E+03   0.530E+03 -.432E+03 0.937E+03   -.237E+01 0.467E+01 -.369E+01   0.234E+00 0.187E-01 0.201E+00
   0.630E+02 0.671E+03 0.199E+04   -.628E+02 -.676E+03 -.200E+04   0.736E-01 0.438E+01 0.489E+01   -.714E-01 0.154E+00 -.450E-01
   -.203E+03 0.602E+03 -.271E+04   0.206E+03 -.608E+03 0.271E+04   -.177E+01 0.379E+01 -.347E+01   -.130E+00 0.288E-01 -.104E+00
   0.273E+03 0.302E+03 0.127E+04   -.272E+03 -.307E+03 -.127E+04   -.421E+00 0.344E+01 0.419E+01   -.237E+00 -.157E-01 -.878E-01
   0.248E+03 -.979E+01 -.328E+04   -.247E+03 0.665E+01 0.328E+04   -.533E+00 0.328E+01 0.183E+01   -.247E+00 0.393E-01 0.181E-01
   0.297E+03 -.460E+03 0.255E+04   -.299E+03 0.462E+03 -.255E+04   0.139E+01 -.166E+01 0.739E+01   0.275E+00 0.227E-02 -.745E-01
   -.266E+03 0.318E+03 -.173E+04   0.268E+03 -.321E+03 0.173E+04   -.135E+01 0.270E+01 -.564E+01   0.265E+00 -.870E-01 0.493E-01
   -.648E+03 -.195E+03 0.243E+04   0.653E+03 0.198E+03 -.244E+04   -.464E+01 -.278E+01 0.580E+01   0.596E-01 0.439E-01 0.629E-01
   -.514E+03 -.352E+03 -.232E+04   0.517E+03 0.356E+03 0.232E+04   -.247E+01 -.236E+01 -.479E+01   -.593E-02 -.721E-01 -.144E-01
   -.368E+02 -.607E+03 0.397E+04   0.346E+02 0.604E+03 -.397E+04   0.259E+01 0.427E+01 -.223E+01   -.256E+00 -.885E-01 -.337E+00
   -.166E+03 -.485E+03 0.163E+03   0.167E+03 0.489E+03 -.164E+03   0.333E+00 -.381E+01 -.394E+00   -.295E+00 0.487E-01 -.253E+00
   -.127E+03 -.164E+03 -.370E+04   0.129E+03 0.167E+03 0.370E+04   -.263E+01 -.444E+01 0.207E+01   -.355E-01 0.116E+00 0.256E+00
   -.234E+03 -.568E+03 0.357E+04   0.232E+03 0.563E+03 -.357E+04   0.167E+01 0.535E+01 -.174E+01   0.786E-01 0.162E+00 -.172E+00
   -.527E+03 -.427E+03 -.935E+03   0.530E+03 0.432E+03 0.937E+03   -.237E+01 -.467E+01 -.369E+01   0.234E+00 -.187E-01 0.201E+00
   0.630E+02 -.671E+03 0.199E+04   -.628E+02 0.676E+03 -.200E+04   0.736E-01 -.438E+01 0.489E+01   -.714E-01 -.154E+00 -.450E-01
   -.203E+03 -.602E+03 -.271E+04   0.206E+03 0.608E+03 0.271E+04   -.177E+01 -.379E+01 -.347E+01   -.130E+00 -.288E-01 -.104E+00
   0.273E+03 -.302E+03 0.127E+04   -.272E+03 0.307E+03 -.127E+04   -.421E+00 -.344E+01 0.419E+01   -.237E+00 0.157E-01 -.878E-01
   0.248E+03 0.979E+01 -.328E+04   -.247E+03 -.665E+01 0.328E+04   -.533E+00 -.328E+01 0.183E+01   -.247E+00 -.393E-01 0.181E-01
   0.297E+03 0.460E+03 0.255E+04   -.299E+03 -.462E+03 -.255E+04   0.139E+01 0.166E+01 0.739E+01   0.275E+00 -.227E-02 -.745E-01
   -.266E+03 -.318E+03 -.173E+04   0.268E+03 0.321E+03 0.173E+04   -.135E+01 -.270E+01 -.564E+01   0.265E+00 0.870E-01 0.493E-01
   -.107E+03 -.917E-05 -.171E+04   0.107E+03 0.126E-07 0.172E+04   0.180E+00 0.000E+00 -.757E+00   -.487E-02 -.395E-06 -.434E-01
   -.363E+03 -.487E-05 0.253E+03   0.364E+03 -.296E-08 -.254E+03   0.497E+00 0.000E+00 -.524E+00   0.435E-02 -.148E-06 0.347E-01
   -.410E+03 0.131E-04 0.118E+04   0.413E+03 -.137E-05 -.119E+04   -.190E+01 0.000E+00 0.220E+01   -.113E+00 0.270E-06 -.211E+00
   -.159E+03 -.842E-05 -.910E+03   0.159E+03 -.428E-07 0.915E+03   0.104E+01 0.000E+00 -.399E+01   0.406E-01 0.651E-06 0.513E-01
   -.307E+03 0.146E-04 0.797E+03   0.308E+03 -.800E-06 -.799E+03   0.151E+00 0.000E+00 0.166E+01   0.198E+00 -.258E-07 0.396E-01
   -.106E+03 0.318E-05 -.111E+04   0.107E+03 -.522E-07 0.111E+04   -.610E+00 0.000E+00 -.193E+01   0.149E+00 -.329E-06 0.640E-01
   0.109E+03 -.161E-04 0.172E+04   -.109E+03 0.912E-07 -.172E+04   0.269E+00 0.000E+00 0.177E+01   -.132E-01 0.176E-06 0.542E-01
   -.899E+02 -.239E-06 -.269E+03   0.909E+02 0.379E-07 0.271E+03   0.836E+00 0.000E+00 -.295E+01   -.898E-01 0.255E-06 -.913E-01
   -.991E+02 -.112E-04 -.172E+04   0.996E+02 -.811E-08 0.173E+04   0.235E+00 0.000E+00 -.129E+01   -.946E-02 0.418E-06 0.224E-01
   0.151E+03 -.183E-05 0.159E+04   -.152E+03 0.403E-06 -.160E+04   0.880E+00 0.000E+00 0.145E+01   -.810E-01 -.124E-06 -.422E-01
   -.296E+02 0.874E-05 -.651E+03   0.302E+02 0.205E-06 0.656E+03   0.539E+00 0.000E+00 -.410E+01   -.934E-01 -.139E-06 -.674E-02
   -.452E+02 0.371E-04 0.708E+03   0.466E+02 -.202E-07 -.712E+03   -.110E+01 0.000E+00 0.210E+01   0.119E+00 -.365E-06 -.448E-01
   -.752E+02 -.177E-04 -.127E+04   0.771E+02 -.105E-08 0.127E+04   -.107E+01 0.000E+00 -.217E+01   0.585E-01 0.380E-06 0.149E-01
   0.204E+02 -.101E+03 0.171E+04   -.204E+02 0.102E+03 -.172E+04   -.435E+00 -.250E+00 0.246E+01   0.497E-01 0.181E-01 -.519E-02
   0.695E+02 -.140E+03 -.342E+03   -.699E+02 0.142E+03 0.345E+03   -.995E+00 -.224E+00 -.174E+01   0.739E-01 -.489E-01 0.209E-01
   0.212E+03 -.240E+03 0.790E+03   -.213E+03 0.242E+03 -.793E+03   -.613E+00 -.163E+01 0.286E+01   -.113E+00 -.263E-01 -.120E+00
   0.221E+03 0.224E+02 -.120E+04   -.222E+03 -.217E+02 0.121E+04   0.504E-01 -.338E+00 -.260E+01   -.164E+00 0.149E-01 0.369E-01
   0.534E+02 -.141E+03 0.511E+03   -.544E+02 0.143E+03 -.513E+03   -.606E+00 -.125E+01 0.200E+01   -.839E-01 -.769E-02 0.433E-03
   -.150E+03 0.545E+02 -.146E+04   0.151E+03 -.532E+02 0.147E+04   -.704E+00 -.102E+01 -.219E+01   0.495E-01 -.694E-01 0.855E-01
   0.102E+03 -.235E+03 -.487E+03   -.103E+03 0.238E+03 0.487E+03   0.418E+00 -.130E+01 -.483E-01   -.266E-03 -.307E-02 -.627E-01
   0.577E+02 -.745E+02 0.134E+04   -.590E+02 0.741E+02 -.135E+04   0.822E+00 0.115E+01 0.389E+01   0.447E-01 -.570E-01 0.348E-01
   0.163E+03 0.717E+02 0.111E+04   -.164E+03 -.728E+02 -.112E+04   0.238E+00 0.112E+01 0.461E+01   -.506E-01 0.334E-01 0.310E-02
   0.262E+03 0.760E+02 -.881E+03   -.263E+03 -.759E+02 0.886E+03   0.234E+00 0.309E+00 -.227E+01   -.731E-01 -.966E-02 -.290E-01
   -.136E+02 -.632E+02 0.345E+03   0.116E+02 0.657E+02 -.347E+03   0.164E+01 -.155E+01 0.103E+01   0.138E+00 0.326E-01 -.170E-01
   -.126E+02 -.244E+03 -.157E+04   0.116E+02 0.247E+03 0.158E+04   0.506E+00 -.244E+01 -.712E+00   0.889E-01 0.355E-01 0.107E+00
   0.212E+03 0.240E+03 0.790E+03   -.213E+03 -.242E+03 -.793E+03   -.613E+00 0.163E+01 0.286E+01   -.113E+00 0.263E-01 -.120E+00
   0.221E+03 -.224E+02 -.120E+04   -.222E+03 0.217E+02 0.121E+04   0.504E-01 0.338E+00 -.260E+01   -.164E+00 -.149E-01 0.369E-01
   0.204E+02 0.101E+03 0.171E+04   -.204E+02 -.102E+03 -.172E+04   -.435E+00 0.250E+00 0.246E+01   0.497E-01 -.181E-01 -.519E-02
   0.695E+02 0.140E+03 -.342E+03   -.699E+02 -.142E+03 0.345E+03   -.995E+00 0.224E+00 -.174E+01   0.739E-01 0.489E-01 0.209E-01
   0.102E+03 0.235E+03 -.487E+03   -.103E+03 -.238E+03 0.487E+03   0.418E+00 0.130E+01 -.483E-01   -.266E-03 0.307E-02 -.627E-01
   0.577E+02 0.745E+02 0.134E+04   -.590E+02 -.741E+02 -.135E+04   0.822E+00 -.115E+01 0.389E+01   0.447E-01 0.570E-01 0.348E-01
   0.534E+02 0.141E+03 0.511E+03   -.544E+02 -.143E+03 -.513E+03   -.606E+00 0.125E+01 0.200E+01   -.839E-01 0.769E-02 0.433E-03
   -.150E+03 -.545E+02 -.146E+04   0.151E+03 0.532E+02 0.147E+04   -.704E+00 0.102E+01 -.219E+01   0.495E-01 0.694E-01 0.855E-01
   -.136E+02 0.632E+02 0.345E+03   0.116E+02 -.657E+02 -.347E+03   0.164E+01 0.155E+01 0.103E+01   0.138E+00 -.326E-01 -.170E-01
   -.126E+02 0.244E+03 -.157E+04   0.116E+02 -.247E+03 0.158E+04   0.506E+00 0.244E+01 -.712E+00   0.889E-01 -.355E-01 0.107E+00
   0.163E+03 -.717E+02 0.111E+04   -.164E+03 0.728E+02 -.112E+04   0.238E+00 -.112E+01 0.461E+01   -.506E-01 -.334E-01 0.310E-02
   0.262E+03 -.760E+02 -.881E+03   -.263E+03 0.759E+02 0.886E+03   0.234E+00 -.309E+00 -.227E+01   -.731E-01 0.966E-02 -.290E-01
   -.412E+01 -.125E-01 -.175E+02   0.568E-13 -.512E-12 -.341E-12   0.495E+01 -.777E-15 0.190E+02   -.656E+00 0.867E-05 -.139E+01

 POSITION                                       TOTAL-FORCE (eV/Angst)
     13.17084      1.39171      1.94975        -0.030680     -0.000000      1.145066
     13.54296      1.39171      4.69130        -2.004236     -0.000000      0.392955
      3.74231      6.18092      1.52392         1.241388     -0.000000     -0.101435
      5.02033      6.18092      3.49202         0.001027     -0.000000     -0.135164
      6.64505      1.39171      2.03366         1.145644     -0.000000     -0.295552
      7.93172      1.39171      4.00611        -0.343639     -0.000000     -0.840889
     16.08224      6.18092      2.46384        -0.330451     -0.000000      1.955952
     16.47995      6.18092      5.17670        -1.905019     -0.000000      0.801511
      2.10894      1.39171      2.97793        -1.347411     -0.000000      0.966154
      9.63919      6.18092      2.58966         0.403891     -0.000000     -0.673856
     10.84312      6.18092      4.52020        -0.666672     -0.000000     -1.143939
     15.37648      0.05211      1.88859         0.970590      0.576662      0.005360
     15.88618      0.10051      4.35852         1.011751     -1.390267     -0.097658
      6.66380      4.94776      0.55824         0.203378     -0.456858     -1.115773
      7.17375      4.91558      3.08454         0.338857     -0.185319     -0.986837
      7.84663      4.46761      5.38218        -0.001728      0.544182      0.858068
      9.56548      0.16833      1.06326         0.029067     -0.452242     -1.259872
     10.08514      0.12638      3.59863         0.656006     -0.409573     -1.515873
      1.35096      4.91558      2.05636         0.231190     -0.534554      1.727477
      1.93376      4.77303      4.72969         0.974138     -1.692338      0.335728
      4.26235      0.12638      2.57045         0.229668     -0.999159      0.641884
      4.84907      9.35365      4.94102         0.063900      0.179106      0.863331
     13.08907      4.14901      1.90517        -0.938016      0.902361      0.228121
     12.99653      4.91558      4.11272         0.700362     -0.014710     -1.212404
     15.37648      2.73132      1.88859         0.970590     -0.576662      0.005360
     15.88618      2.68292      4.35852         1.011751      1.390267     -0.097658
      6.66380      7.41408      0.55824         0.203378      0.456858     -1.115773
      7.17375      7.44626      3.08454         0.338857      0.185319     -0.986837
      7.84663      7.89423      5.38218        -0.001728     -0.544182      0.858068
      9.56548      2.61510      1.06326         0.029067      0.452242     -1.259872
     10.08514      2.65705      3.59863         0.656006      0.409573     -1.515873
      1.35096      7.44626      2.05636         0.231190      0.534554      1.727477
      1.93376      7.58880      4.72969         0.974138      1.692338      0.335728
      4.26235      2.65705      2.57045         0.229668      0.999159      0.641884
      4.84907      3.00818      4.94102         0.063900     -0.179106      0.863331
     13.08907      8.21283      1.90517        -0.938016     -0.902361      0.228121
     12.99653      7.44626      4.11272         0.700362      0.014710     -1.212404
     15.25813      1.39171      5.81263         0.496680     -0.000000      4.719335
     16.74052      1.39171      2.94940         2.138539     -0.000000     -1.518198
      8.00634      6.18092      1.40713         1.564511     -0.000000     -1.767720
      8.59001      6.18092      4.49167         1.149827     -0.000000      1.139655
     10.91773      1.39171      1.92122         2.195115     -0.000000     -0.958103
     11.44568      1.39171      4.60352         0.924078     -0.000000      2.553690
      1.96628      6.18092      0.55737         0.170082     -0.000000     -4.095396
      2.76722      6.18092      3.46349         1.759270     -0.000000     -0.889340
      1.41158      6.18092      6.13158         0.714829     -0.000000      4.166860
      4.86410      1.39171      1.05722         0.398377     -0.000000     -4.103983
      5.67861      1.39171      3.97758         1.019798     -0.000000      0.963588
     13.82913      6.18092      2.43531         0.464699     -0.000000     -1.725285
     14.37624      6.18092      5.09771         0.854193     -0.000000      2.485605
     13.79345      2.81069      0.57141        -0.366241      0.817449     -3.916532
     13.99844      3.00295      3.46826        -1.334633      1.514958      0.804031
      5.26426      7.79215      1.92599        -1.680099      0.785760     -0.224182
      5.90151      7.61163      4.80537        -1.071377      0.439646      1.976251
      8.17565      3.00295      2.44008        -1.736683      0.870771     -0.043911
      8.88694      2.75785      5.27913         0.177433      0.211631      2.886513
      0.02514      7.79215      3.98236        -0.935094      1.679060     -0.519057
     16.34086      7.86703      1.28454        -0.440753      0.710474     -2.854131
      2.36132      3.07388      1.73772        -0.713412      0.045322     -2.765598
      2.91263      2.91234      4.29681        -0.671251      0.405250      1.793587
     11.08705      7.79215      2.95417        -0.288069      0.971802     -0.945852
     11.74498      7.57278      5.68819        -0.415903      1.156374      3.816572
      5.26426      4.56969      1.92599        -1.680099     -0.785760     -0.224182
      5.90151      4.75021      4.80537        -1.071377     -0.439646      1.976251
     13.79345      9.55115      0.57141        -0.366241     -0.817449     -3.916532
     13.99844      9.35889      3.46826        -1.334633     -1.514958      0.804031
      0.02514      4.56969      3.98236        -0.935094     -1.679060     -0.519057
     16.34086      4.49481      1.28454        -0.440753     -0.710474     -2.854131
      8.17565      9.35889      2.44008        -1.736683     -0.870771     -0.043911
      8.88694      0.02558      5.27913         0.177433     -0.211631      2.886513
     11.08705      4.56969      2.95417        -0.288069     -0.971802     -0.945852
     11.74498      4.78906      5.68819        -0.415903     -1.156374      3.816572
      2.36132      9.28796      1.73772        -0.713412     -0.045322     -2.765598
      2.91263      9.44950      4.29681        -0.671251     -0.405250      1.793587
    total drift:                                0.176338     -0.012485      0.034000

  FREE ENERGIE OF THE ION-ELECTRON SYSTEM (eV)
  free  energy   TOTEN  =      -351.73014742 eV

  energy  without entropy=     -350.52144047  energy(sigma->0) =     -351.12579395