 vasp.6.1.0 28Jan20 (build Mar 31 2020 17:42:31) gamma-only

 executed on             LinuxIFC date 2020.04.12  14:30:46

 INCAR:
 POTCAR:    PAW_PBE Ni_pv 06Sep2000
 POTCAR:    PAW_PBE S 06Sep2000
 POTCAR:    PAW_PBE Ni_pv 06Sep2000
   VRHFIN =Ni:

   TITEL  = PAW_PBE Ni_pv 06Sep2000
   POMASS =   58.690; ZVAL   =   16.000    mass and valenz
   ENMAX  =  367.986; ENMIN  =  275.989 eV

 POTCAR:    PAW_PBE S 06Sep2000
   VRHFIN =S : s2p4

   TITEL  = PAW_PBE S 06Sep2000
   POMASS =   32.066; ZVAL   =    6.000    mass and valenz
   ENMAX  =  258.689; ENMIN  =  194.016 eV

 Optimization of the real space projectors (new method)

 maximal supplied QI-value         = 18.90
 optimisation between [QCUT,QGAM] = [ 10.77, 21.73] = [ 32.49,132.25] Ry
 Optimized for a Real-space Cutoff    1.38 Angstroem

   l    n(q)    QCUT    max X(q) W(low)/X(q) W(high)/X(q)  e(spline)
   1      8    10.771     2.836    0.40E-04    0.29E-04    0.12E-06
   1      8    10.771     4.023    0.10E-03    0.48E-04    0.29E-06
   2      8    10.771    73.368    0.42E-03    0.97E-04    0.44E-06
   2      8    10.771    69.010    0.42E-03    0.99E-04    0.45E-06
   0      9    10.771    54.797    0.10E-03    0.56E-04    0.74E-07
   0      9    10.771    24.266    0.89E-04    0.49E-04    0.67E-07
 Optimization of the real space projectors (new method)

 maximal supplied QI-value         = 19.84
 optimisation between [QCUT,QGAM] = [ 10.71, 21.63] = [ 32.15,130.99] Ry
 Optimized for a Real-space Cutoff    1.19 Angstroem

   l    n(q)    QCUT    max X(q) W(low)/X(q) W(high)/X(q)  e(spline)
   0      8    10.715   187.594    0.41E-03    0.53E-04    0.66E-07
   0      8    10.715   164.243    0.41E-03    0.53E-04    0.65E-07
   1      7    10.715    67.533    0.19E-03    0.59E-03    0.68E-07
   1      7    10.715    50.729    0.19E-03    0.58E-03    0.67E-07
  PAW_PBE Ni_pv 06Sep2000               :
  PAW_PBE S 06Sep2000                   :

 POSCAR: Structure 22 made from -120-5.xsd file
  positions in direct lattice
 exchange correlation table for  LEXCH =        8
   RHO(1)=    0.500       N(1)  =     2000
   RHO(2)=  100.500       N(2)  =     4000

 ion  position               nearest neighbor table
   1  0.256  0.016  0.152-  75 2.25  66 2.26  81 2.26  53 2.36  93 2.36   5 2.53   9 2.53
   2  0.256  0.016  0.481-  76 2.25  67 2.26  82 2.26  54 2.36  94 2.36  10 2.53   6 2.53
   3  0.006  0.266  0.317-  63 2.25  69 2.26  72 2.26  56 2.36  60 2.36   7 2.53  23 2.53
   4  0.006  0.266  0.645-  73 2.26  57 2.36  61 2.36   8 2.53  24 2.53
   5  0.256  0.016  0.066-  79 2.25  62 2.26  81 2.26  49 2.36  93 2.36   9 2.53   1 2.53
   6  0.256  0.016  0.394-  80 2.25  63 2.26  82 2.26  50 2.36  94 2.36   2 2.53  10 2.53
   7  0.006  0.266  0.230-  66 2.25  72 2.26  64 2.26  60 2.36  51 2.36   3 2.53  23 2.53
   8  0.006  0.266  0.558-  67 2.25  73 2.26  65 2.26  61 2.36  52 2.36   4 2.53  24 2.53
   9  0.190  0.215  0.109-  58 2.25  62 2.26  66 2.26  49 2.36  53 2.36   5 2.53   1 2.53
  10  0.190  0.215  0.438-  59 2.25  67 2.26  63 2.26  54 2.36  50 2.36   2 2.53   6 2.53
  11  0.440  0.465  0.273-  83 2.25  51 2.26  56 2.26  64 2.36  69 2.36  19 2.53  15 2.53
  12  0.440  0.465  0.602-  84 2.25  57 2.26  52 2.26  65 2.36  20 2.53  16 2.53
  13  0.756  0.016  0.152-  87 2.25  53 2.26  93 2.26  66 2.36  81 2.36  17 2.53  21 2.53
  14  0.756  0.016  0.481-  88 2.25  54 2.26  94 2.26  67 2.36  82 2.36  22 2.53  18 2.53
  15  0.506  0.266  0.317-  50 2.25  56 2.26  60 2.26  69 2.36  72 2.36  19 2.53  11 2.53
  16  0.506  0.266  0.645-  57 2.26  61 2.26  73 2.36  20 2.53  12 2.53
  17  0.756  0.016  0.066-  91 2.25  49 2.26  93 2.26  62 2.36  81 2.36  21 2.53  13 2.53
  18  0.756  0.016  0.394-  92 2.25  50 2.26  94 2.26  63 2.36  82 2.36  14 2.53  22 2.53
  19  0.506  0.266  0.230-  53 2.25  60 2.26  51 2.26  72 2.36  64 2.36  15 2.53  11 2.53
  20  0.506  0.266  0.558-  54 2.25  61 2.26  52 2.26  73 2.36  65 2.36  16 2.53  12 2.53
  21  0.690  0.215  0.109-  70 2.25  49 2.26  53 2.26  62 2.36  66 2.36  17 2.53  13 2.53
  22  0.690  0.215  0.438-  71 2.25  54 2.26  50 2.26  67 2.36  63 2.36  14 2.53  18 2.53
  23  0.940  0.465  0.273-  95 2.25  64 2.26  69 2.26  51 2.36  56 2.36   7 2.53   3 2.53
  24  0.940  0.465  0.602-  96 2.25  65 2.26  52 2.36  57 2.36   8 2.53   4 2.53
  25  0.256  0.516  0.152-  51 2.25  89 2.26  58 2.26  77 2.36  70 2.36  29 2.53  33 2.53
  26  0.256  0.516  0.481-  52 2.25  90 2.26  59 2.26  78 2.36  71 2.36  34 2.53  30 2.53
  27  0.006  0.766  0.317-  86 2.25  92 2.26  95 2.26  80 2.36  83 2.36  31 2.53  47 2.53
  28  0.006  0.766  0.645-  96 2.26  84 2.36  32 2.53  48 2.53
  29  0.256  0.516  0.066-  55 2.25  85 2.26  58 2.26  70 2.36  33 2.53  25 2.53
  30  0.256  0.516  0.394-  56 2.25  86 2.26  59 2.26  74 2.36  71 2.36  26 2.53  34 2.53
  31  0.006  0.766  0.230-  89 2.25  95 2.26  87 2.26  83 2.36  75 2.36  27 2.53  47 2.53
  32  0.006  0.766  0.558-  90 2.25  96 2.26  88 2.26  84 2.36  76 2.36  28 2.53  48 2.53
  33  0.190  0.715  0.109-  81 2.25  85 2.26  89 2.26  77 2.36  29 2.53  25 2.53
  34  0.190  0.715  0.438-  82 2.25  90 2.26  86 2.26  78 2.36  74 2.36  26 2.53  30 2.53
  35  0.440  0.965  0.273-  60 2.25  75 2.26  80 2.26  87 2.36  92 2.36  43 2.53  39 2.53
  36  0.440  0.965  0.602-  61 2.25  76 2.26  88 2.36  44 2.53  40 2.53
  37  0.756  0.516  0.152-  64 2.25  77 2.26  70 2.26  89 2.36  58 2.36  41 2.53  45 2.53
  38  0.756  0.516  0.481-  65 2.25  78 2.26  71 2.26  90 2.36  59 2.36  46 2.53  42 2.53
  39  0.506  0.766  0.317-  74 2.25  80 2.26  83 2.26  92 2.36  95 2.36  43 2.53  35 2.53
  40  0.506  0.766  0.645-  84 2.26  96 2.36  44 2.53  36 2.53
  41  0.756  0.516  0.066-  68 2.25  70 2.26  85 2.36  58 2.36  45 2.53  37 2.53
  42  0.756  0.516  0.394-  69 2.25  74 2.26  71 2.26  86 2.36  59 2.36  38 2.53  46 2.53
  43  0.506  0.766  0.230-  77 2.25  83 2.26  75 2.26  95 2.36  87 2.36  39 2.53  35 2.53
  44  0.506  0.766  0.558-  78 2.25  84 2.26  76 2.26  96 2.36  88 2.36  40 2.53  36 2.53
  45  0.690  0.715  0.109-  93 2.25  77 2.26  85 2.36  89 2.36  41 2.53  37 2.53
  46  0.690  0.715  0.438-  94 2.25  78 2.26  74 2.26  90 2.36  86 2.36  38 2.53  42 2.53
  47  0.940  0.965  0.273-  72 2.25  87 2.26  92 2.26  75 2.36  80 2.36  31 2.53  27 2.53
  48  0.940  0.965  0.602-  73 2.25  88 2.26  76 2.36  32 2.53  28 2.53
  49  0.468  0.167  0.054-  21 2.26  17 2.26   9 2.36   5 2.36
  50  0.468  0.167  0.382-  15 2.25  18 2.26  22 2.26   6 2.36  10 2.36
  51  0.218  0.417  0.218-  25 2.25  11 2.26  19 2.26  23 2.36   7 2.36
  52  0.218  0.417  0.547-  26 2.25  12 2.26  20 2.26  24 2.36   8 2.36
  53  0.468  0.167  0.164-  19 2.25  13 2.26  21 2.26   1 2.36   9 2.36
  54  0.468  0.167  0.493-  20 2.25  22 2.26  14 2.26  10 2.36   2 2.36
  55  0.218  0.417  0.000-  29 2.25
  56  0.218  0.417  0.329-  30 2.25  15 2.26  11 2.26   3 2.36  23 2.36
  57  0.218  0.417  0.657-  12 2.26  16 2.26  24 2.36   4 2.36
  58  0.053  0.414  0.109-   9 2.25  29 2.26  25 2.26  41 2.36  37 2.36
  59  0.053  0.414  0.438-  10 2.25  26 2.26  30 2.26  38 2.36  42 2.36
  60  0.303  0.164  0.273-  35 2.25  19 2.26  15 2.26   7 2.36   3 2.36
[...]
  82  0.053  0.914  0.438-  34 2.25   2 2.26   6 2.26  14 2.36  18 2.36
  83  0.303  0.664  0.273-  11 2.25  43 2.26  39 2.26  31 2.36  27 2.36
  84  0.303  0.664  0.602-  12 2.25  44 2.26  40 2.26  32 2.36  28 2.36
  85  0.968  0.667  0.054-  33 2.26  29 2.26  45 2.36  41 2.36
  86  0.968  0.667  0.382-  27 2.25  30 2.26  34 2.26  42 2.36  46 2.36
  87  0.718  0.917  0.218-  13 2.25  47 2.26  31 2.26  35 2.36  43 2.36
  88  0.718  0.917  0.547-  14 2.25  48 2.26  32 2.26  36 2.36  44 2.36
  89  0.968  0.667  0.164-  31 2.25  25 2.26  33 2.26  37 2.36  45 2.36
  90  0.968  0.667  0.493-  32 2.25  34 2.26  26 2.26  46 2.36  38 2.36
  91  0.718  0.917  0.000-  17 2.25
  92  0.718  0.917  0.329-  18 2.25  27 2.26  47 2.26  39 2.36  35 2.36
  93  0.553  0.914  0.109-  45 2.25  17 2.26  13 2.26   5 2.36   1 2.36
  94  0.553  0.914  0.438-  46 2.25  14 2.26  18 2.26   2 2.36   6 2.36
  95  0.803  0.664  0.273-  23 2.25  31 2.26  27 2.26  43 2.36  39 2.36
  96  0.803  0.664  0.602-  24 2.25  32 2.26  28 2.26  44 2.36  40 2.36

  LATTYP: Found a simple monoclinic cell.
 ALAT       =    13.8711386352
 B/A-ratio  =     2.1019774055
 C/A-ratio  =     1.3233367991
 COS(beta)  =    -0.9620914447

  Lattice vectors:

 A1 = (  -6.1690871197, -12.4238017992,   0.0000000000)
 A2 = (   0.0000000000,   0.0000000000, -29.1568200000)
 A3 = (  12.3381742394,  13.5911405602,   0.0000000000)

Analysis of symmetry for initial positions (statically):
 Subroutine PRICEL returns:
 Original cell was already a primitive cell.

 Routine SETGRP: Setting up the symmetry group for a
 simple monoclinic supercell.

 Subroutine GETGRP returns: Found  1 space group operations
 (whereof  1 operations were pure point group operations)
 out of a pool of  4 trial point group operations.

The static configuration has the point symmetry C_1 .

Analysis of symmetry for dynamics (positions and initial velocities):
 Subroutine PRICEL returns:
 Original cell was already a primitive cell.

 Routine SETGRP: Setting up the symmetry group for a
 simple monoclinic supercell.

 Subroutine GETGRP returns: Found  1 space group operations
 (whereof  1 operations were pure point group operations)
 out of a pool of  4 trial point group operations.

The dynamic configuration has the point symmetry C_1 .

 Subroutine INISYM returns: Found  1 space group operations
 (whereof  1 operations are pure point group operations),
 and found     1 'primitive' translations

                                     Primitive cell

  volume of cell :    2024.7108

  direct lattice vectors                    reciprocal lattice vectors
     6.169087120  1.167338761  0.000000000     0.162098538  0.000000000  0.000000000
     0.000000000 11.256463038  0.000000000    -0.016810245  0.088837852  0.000000000
     0.000000000  0.000000000 29.156820000     0.000000000  0.000000000  0.034297293

  length of vectors
     6.278560000 11.256463038 29.156820000     0.162098538  0.090414315  0.034297293

  position of ions in fractional coordinates (direct lattice)
     0.256309438  0.016458591  0.152393487
     0.256309438  0.016458591  0.480907021
     0.006309438  0.266458583  0.316650254
     0.006309438  0.266458583  0.645163789
     0.256309438  0.016458591  0.065598240
     0.256309438  0.016458591  0.394111774
     0.006309438  0.266458583  0.229855007
     0.006309438  0.266458583  0.558368542
     0.190257938  0.214613085  0.108995863
     0.190257938  0.214613085  0.437509398
     0.440257938  0.464613078  0.273252630
     0.440257938  0.464613078  0.601766165
     0.756309438  0.016458591  0.152393487
     0.756309438  0.016458591  0.480907021
     0.506309438  0.266458583  0.316650254
     0.506309438  0.266458583  0.645163789
     0.756309438  0.016458591  0.065598240
     0.756309438  0.016458591  0.394111774
     0.506309438  0.266458583  0.229855007
     0.506309438  0.266458583  0.558368542
     0.690257938  0.214613085  0.108995863
     0.690257938  0.214613085  0.437509398
     0.940257938  0.464613078  0.273252630
[...]
     0.000000000  0.000000000 29.156820000     0.000000000  0.000000000  0.034297293

  length of vectors
     6.278560000 11.256463038 29.156820000     0.162098538  0.090414315  0.034297293

 FORCES acting on ions
    electron-ion (+dipol)            ewald-force                    non-local-force                 convergence-correction
   -.974E+02 0.279E+03 0.394E+04   0.965E+02 -.280E+03 -.394E+04   0.868E+00 0.115E+01 0.233E+00   0.125E-01 0.574E-01 -.428E+00
   -.900E+02 0.255E+03 -.359E+04   0.893E+02 -.256E+03 0.359E+04   0.679E+00 0.118E+01 -.206E+01   0.474E-02 -.453E-01 -.265E+00
   -.882E+02 0.244E+03 0.198E+03   0.875E+02 -.245E+03 -.197E+03   0.839E+00 0.729E+00 -.991E+00   -.162E-01 0.134E+00 -.614E+00
   0.570E+02 0.340E+03 -.693E+04   -.569E+02 -.334E+03 0.693E+04   0.422E+00 -.611E+01 0.586E+01   -.742E-02 0.159E-01 0.257E+00
   -.115E+03 0.329E+03 0.658E+04   0.114E+03 -.332E+03 -.658E+04   0.732E+00 0.308E+01 0.769E+01   0.161E-01 0.313E-01 0.665E-01
   -.890E+02 0.248E+03 -.690E+03   0.882E+02 -.249E+03 0.690E+03   0.835E+00 0.803E+00 0.669E+00   0.118E-01 -.214E-01 -.512E+00
   -.870E+02 0.239E+03 0.308E+04   0.862E+02 -.239E+03 -.308E+04   0.852E+00 0.866E+00 0.125E+01   -.283E-01 0.154E+00 -.497E+00
   -.718E+02 0.270E+03 -.442E+04   0.706E+02 -.270E+03 0.442E+04   0.137E+01 -.439E+00 -.488E+00   -.139E-01 0.610E-01 -.170E+00
   0.650E+02 -.555E+03 0.538E+04   -.654E+02 0.555E+03 -.538E+04   0.612E+00 -.996E+00 0.200E+01   -.872E-02 0.805E-01 -.157E+00
   0.545E+02 -.508E+03 -.213E+04   -.554E+02 0.509E+03 0.213E+04   0.109E+01 -.788E+00 -.367E+00   -.932E-02 0.139E+00 -.411E+00
   0.563E+02 -.520E+03 0.165E+04   -.572E+02 0.521E+03 -.165E+04   0.115E+01 -.107E+01 -.305E-01   0.131E-01 -.104E+00 -.589E+00
   -.701E+02 -.557E+03 -.586E+04   0.681E+02 0.556E+03 0.586E+04   0.164E+01 0.159E+01 -.256E+01   -.987E-03 -.992E-02 -.100E-01
   -.915E+02 0.274E+03 0.393E+04   0.909E+02 -.275E+03 -.393E+04   0.689E+00 0.987E+00 0.102E-01   -.307E-01 0.283E-01 -.459E+00
   -.902E+02 0.254E+03 -.359E+04   0.896E+02 -.255E+03 0.359E+04   0.700E+00 0.116E+01 -.207E+01   0.108E-01 -.126E-01 -.263E+00
   -.883E+02 0.244E+03 0.199E+03   0.875E+02 -.245E+03 -.197E+03   0.861E+00 0.730E+00 -.103E+01   -.496E-01 0.194E+00 -.699E+00
   -.223E+03 0.311E+03 -.693E+04   0.218E+03 -.306E+03 0.692E+04   0.441E+01 -.472E+01 0.587E+01   0.142E-02 0.389E-01 0.262E+00
   -.987E+02 0.310E+03 0.657E+04   0.977E+02 -.313E+03 -.658E+04   0.812E+00 0.311E+01 0.734E+01   -.126E-01 -.250E-01 0.595E-01
   -.890E+02 0.248E+03 -.690E+03   0.882E+02 -.249E+03 0.690E+03   0.845E+00 0.810E+00 0.687E+00   -.450E-02 0.121E-01 -.479E+00
   -.873E+02 0.238E+03 0.308E+04   0.865E+02 -.239E+03 -.308E+04   0.907E+00 0.792E+00 0.122E+01   -.456E-01 0.209E+00 -.427E+00
   -.114E+03 0.264E+03 -.441E+04   0.112E+03 -.264E+03 0.441E+04   0.150E+01 -.272E+00 -.403E+00   -.233E-02 0.601E-01 -.174E+00
   0.691E+02 -.561E+03 0.538E+04   -.695E+02 0.561E+03 -.538E+04   0.656E+00 -.814E+00 0.232E+01   -.128E-01 0.308E-01 -.159E+00
   0.541E+02 -.509E+03 -.213E+04   -.549E+02 0.509E+03 0.213E+04   0.111E+01 -.729E+00 -.318E+00   -.340E-01 0.110E+00 -.402E+00
   0.568E+02 -.520E+03 0.165E+04   -.577E+02 0.521E+03 -.165E+04   0.114E+01 -.111E+01 -.372E-01   0.130E-01 -.314E-01 -.587E+00
   0.200E+03 -.498E+03 -.588E+04   -.201E+03 0.497E+03 0.589E+04   0.558E+00 0.109E+01 -.350E+01   0.280E-02 0.103E-01 -.109E-01
   -.101E+03 0.196E+03 0.398E+04   0.995E+02 -.196E+03 -.399E+04   0.113E+01 0.477E+00 0.745E+00   0.788E-02 -.206E-01 -.247E+00
   -.881E+02 0.238E+03 -.356E+04   0.874E+02 -.239E+03 0.356E+04   0.794E+00 0.121E+01 -.186E+01   -.609E-04 0.253E-01 -.318E+00
   -.888E+02 0.247E+03 0.202E+03   0.880E+02 -.247E+03 -.201E+03   0.850E+00 0.703E+00 -.904E+00   0.481E-01 -.163E+00 -.498E+00
   -.210E+02 0.626E+02 -.697E+04   0.190E+02 -.605E+02 0.696E+04   0.219E+01 -.285E+01 0.886E+01   0.133E-01 -.620E-01 0.208E+00
   -.193E+03 0.554E+02 0.661E+04   0.190E+03 -.573E+02 -.661E+04   0.287E+01 0.112E+01 0.509E+01   -.190E-01 -.265E-01 0.146E+00
   -.881E+02 0.243E+03 -.684E+03   0.873E+02 -.244E+03 0.684E+03   0.829E+00 0.769E+00 0.826E+00   0.180E-01 0.302E-04 -.555E+00
   -.909E+02 0.253E+03 0.310E+04   0.902E+02 -.254E+03 -.310E+04   0.680E+00 0.136E+01 0.197E+01   0.337E-01 -.198E+00 -.576E+00
   -.750E+02 0.187E+03 -.447E+04   0.737E+02 -.186E+03 0.447E+04   0.138E+01 -.368E+00 -.102E+01   0.107E-01 -.642E-01 -.256E+00
   -.783E+02 -.512E+03 0.554E+04   0.762E+02 0.511E+03 -.554E+04   0.190E+01 0.181E+01 0.254E+01   0.296E-02 -.846E-01 -.102E+00
   0.565E+02 -.521E+03 -.213E+04   -.574E+02 0.521E+03 0.213E+04   0.110E+01 -.854E+00 -.291E+00   0.101E-01 -.451E-01 -.397E+00
   0.543E+02 -.508E+03 0.164E+04   -.552E+02 0.508E+03 -.164E+04   0.112E+01 -.914E+00 0.559E-02   -.212E-03 0.541E-01 -.541E+00
   0.531E+02 -.448E+03 -.605E+04   -.551E+02 0.446E+03 0.605E+04   0.159E+01 0.197E+01 -.618E+00   -.998E-02 0.505E-01 -.244E-01
   -.587E+02 0.202E+03 0.399E+04   0.579E+02 -.202E+03 -.399E+04   0.939E+00 0.223E+00 0.902E+00   -.112E-01 0.529E-01 -.351E+00
   -.863E+02 0.240E+03 -.357E+04   0.855E+02 -.240E+03 0.357E+04   0.885E+00 0.817E+00 -.167E+01   -.205E-02 -.388E-02 -.274E+00
   -.887E+02 0.247E+03 0.202E+03   0.879E+02 -.247E+03 -.201E+03   0.880E+00 0.783E+00 -.902E+00   0.117E-01 -.171E+00 -.529E+00
   -.378E+02 0.811E+02 -.697E+04   0.356E+02 -.789E+02 0.696E+04   0.235E+01 -.290E+01 0.880E+01   0.247E-01 -.135E+00 0.216E+00
   0.831E+02 0.848E+02 0.661E+04   -.847E+02 -.852E+02 -.662E+04   0.171E+01 -.332E+00 0.632E+01   0.234E-02 0.383E-01 0.181E+00
   -.879E+02 0.243E+03 -.684E+03   0.871E+02 -.244E+03 0.684E+03   0.829E+00 0.806E+00 0.836E+00   -.710E-02 -.281E-01 -.555E+00
   -.891E+02 0.255E+03 0.310E+04   0.883E+02 -.255E+03 -.310E+04   0.862E+00 0.885E+00 0.160E+01   0.364E-01 -.200E+00 -.557E+00
   -.807E+02 0.192E+03 -.447E+04   0.793E+02 -.191E+03 0.447E+04   0.134E+01 -.232E+00 -.122E+01   0.333E-01 -.126E+00 -.275E+00
   0.193E+03 -.453E+03 0.556E+04   -.193E+03 0.452E+03 -.556E+04   0.173E+00 0.942E+00 0.400E+01   0.379E-01 -.121E+00 -.134E+00
   0.567E+02 -.520E+03 -.213E+04   -.575E+02 0.521E+03 0.213E+04   0.111E+01 -.881E+00 -.203E+00   0.559E-02 -.106E-01 -.382E+00
   0.542E+02 -.508E+03 0.164E+04   -.550E+02 0.509E+03 -.164E+04   0.105E+01 -.853E+00 0.109E+00   -.227E-01 0.491E-01 -.539E+00
   0.572E+02 -.454E+03 -.605E+04   -.592E+02 0.451E+03 0.605E+04   0.171E+01 0.236E+01 -.642E+00   -.920E-02 0.779E-01 -.895E-02
   0.578E+02 -.188E+03 0.263E+04   -.587E+02 0.191E+03 -.263E+04   0.232E+00 -.354E+01 0.687E+01   0.146E-01 -.971E-02 0.685E-01
   0.542E+02 -.736E+02 -.179E+03   -.552E+02 0.745E+02 0.177E+03   0.914E+00 -.124E+01 0.267E+01   0.127E-02 0.799E-01 -.243E+00
   0.551E+02 -.800E+02 0.124E+04   -.559E+02 0.810E+02 -.124E+04   0.694E+00 -.121E+01 0.236E+01   0.537E-01 0.196E-01 -.159E+00
   0.539E+02 -.765E+02 -.157E+04   -.559E+02 0.780E+02 0.157E+04   0.220E+01 -.181E+01 0.147E+01   -.832E-03 0.145E-01 -.764E-01
   0.549E+02 -.771E+02 0.140E+04   -.558E+02 0.779E+02 -.140E+04   0.849E+00 -.127E+01 -.276E+01   -.721E-03 0.672E-01 -.127E+00
   0.526E+02 -.679E+02 -.142E+04   -.536E+02 0.690E+02 0.142E+04   0.788E+00 -.135E+01 -.302E+01   0.155E-01 0.337E-01 -.955E-01
   -.498E+01 0.851E+02 0.238E+04   0.556E+01 -.865E+02 -.238E+04   0.161E+00 0.179E+01 0.332E+01   -.566E-02 -.681E-02 0.133E+00
   0.546E+02 -.754E+02 -.330E+01   -.556E+02 0.765E+02 0.586E+01   0.888E+00 -.129E+01 -.271E+01   0.504E-01 0.441E-02 -.277E+00
   0.584E+02 -.188E+03 -.266E+04   -.587E+02 0.191E+03 0.267E+04   -.375E-01 -.411E+01 -.597E+01   0.149E-03 0.153E-01 0.125E+00
   0.939E+01 0.164E+03 0.201E+04   -.104E+02 -.166E+03 -.201E+04   0.108E+01 0.212E+01 0.249E+01   -.279E-01 0.169E-01 -.181E-01
   0.811E+01 0.171E+03 -.797E+03   -.855E+01 -.173E+03 0.797E+03   0.177E+00 0.296E+01 0.183E+00   0.949E-02 0.177E-01 -.155E+00
   0.770E+01 0.171E+03 0.614E+03   -.823E+01 -.174E+03 -.614E+03   0.251E+00 0.287E+01 0.262E-01   0.237E-01 0.108E+00 -.212E+00
[...]
   0.754E+01 0.171E+03 0.620E+03   -.811E+01 -.173E+03 -.619E+03   0.262E+00 0.280E+01 -.288E+00   0.376E-01 -.105E+00 -.201E+00
   0.394E+01 0.150E+03 -.218E+04   -.460E+01 -.151E+03 0.218E+04   0.707E+00 0.234E+01 -.449E+00   0.119E-01 -.398E-01 -.345E-01
   0.583E+02 -.188E+03 0.263E+04   -.587E+02 0.191E+03 -.263E+04   -.163E+00 -.354E+01 0.679E+01   -.492E-01 -.120E-01 0.993E-01
   0.546E+02 -.755E+02 -.178E+03   -.556E+02 0.765E+02 0.176E+03   0.910E+00 -.125E+01 0.278E+01   0.276E-01 -.202E-02 -.194E+00
   0.542E+02 -.682E+02 0.124E+04   -.548E+02 0.691E+02 -.124E+04   0.664E+00 -.114E+01 0.242E+01   -.978E-02 -.509E-02 -.224E+00
   0.541E+02 -.765E+02 -.161E+04   -.558E+02 0.779E+02 0.162E+04   0.192E+01 -.157E+01 0.108E+01   0.260E-01 -.140E-01 -.102E+00
   0.543E+02 -.751E+02 0.142E+04   -.559E+02 0.780E+02 -.142E+04   0.170E+01 -.307E+01 0.195E+00   -.234E-01 -.696E-01 -.190E+00
   0.562E+02 -.801E+02 -.142E+04   -.571E+02 0.812E+02 0.142E+04   0.787E+00 -.127E+01 -.282E+01   0.163E-01 0.115E-02 -.119E+00
   -.412E+00 0.143E+03 0.238E+04   0.105E+01 -.144E+03 -.238E+04   0.201E+00 0.154E+01 0.370E+01   0.202E-02 0.144E-01 0.173E+00
   0.542E+02 -.735E+02 -.403E+01   -.552E+02 0.745E+02 0.668E+01   0.989E+00 -.124E+01 -.286E+01   -.447E-02 -.309E-01 -.204E+00
   0.723E+01 0.224E+03 0.202E+04   -.752E+01 -.227E+03 -.202E+04   0.974E-01 0.246E+01 0.260E+00   0.457E-01 -.346E-01 -.980E-01
   0.784E+01 0.171E+03 -.802E+03   -.825E+01 -.174E+03 0.802E+03   0.111E+00 0.300E+01 0.326E+00   0.142E-01 -.449E-01 -.131E+00
   0.803E+01 0.171E+03 0.619E+03   -.856E+01 -.173E+03 -.619E+03   0.302E+00 0.281E+01 -.327E+00   -.787E-03 -.726E-01 -.206E+00
   0.182E+02 0.162E+03 -.218E+04   -.187E+02 -.163E+03 0.219E+04   0.403E+00 0.166E+01 -.149E+00   0.262E-02 -.458E-01 -.351E-01
   -.882E+02 -.103E+02 -.654E+02   0.167E-11 -.378E-11 0.500E-11   0.882E+02 0.104E+02 0.833E+02   -.289E-01 -.347E-01 -.178E+02

 POSITION                                       TOTAL-FORCE (eV/Angst)
      1.58120      0.48447      4.44331        -0.015898      0.121213     -0.286233
      1.58120      0.48447     14.02172         0.059438      0.143246     -0.467313
      0.03892      3.00675      9.23251         0.068229      0.175725     -0.370018
      0.03892      3.00675     18.81092         0.454354      0.082968     -1.422850
      1.58120      0.48447      1.91264        -0.190903      0.263866      0.350157
      1.58120      0.48447     11.49105         0.039489      0.232234      0.287376
      0.03892      3.00675      6.70184         0.084310      0.189405      0.368653
      0.03892      3.00675     16.28025         0.188390      0.158858     -0.148187
      1.17372      2.63788      3.17797         0.212414     -0.395974      0.098712
      1.17372      2.63788     12.75638         0.248596     -0.360973     -0.084178
      2.71599      5.74383      7.96718         0.215474     -0.332867     -0.011264
      2.71599      5.74383     17.54559        -0.301066     -0.105930     -0.855171
      4.66574      1.06813      4.44331         0.011714      0.175502     -0.268303
      4.66574      1.06813     14.02172         0.066189      0.125062     -0.401854
      3.12347      3.59042      9.23251         0.060398      0.159643     -0.374407
      3.12347      3.59042     18.81092        -0.193727     -0.170369     -1.516575
      4.66574      1.06813      1.91264        -0.173483      0.231574      0.322093
      4.66574      1.06813     11.49105         0.033586      0.241665      0.297251
      3.12347      3.59042      6.70184         0.089247      0.173989      0.323899
      3.12347      3.59042     16.28025        -0.044768      0.116218     -0.219153
      4.25826      3.22155      3.17797         0.240161     -0.513377      0.050109
      4.25826      3.22155     12.75638         0.250631     -0.324757     -0.084858
      5.80053      6.32750      7.96718         0.225121     -0.366733     -0.010145
      5.80053      6.32750     17.54559        -0.011338     -0.111986     -0.576737
      1.58120      6.11270      4.44331        -0.069399     -0.029282      0.046575
      1.58120      6.11270     14.02172         0.101819      0.090077     -0.379798
      0.03892      8.63498      9.23251         0.047051      0.197193     -0.350442
      0.03892      8.63498     18.81092         0.211595     -0.760374     -1.588487
      1.58120      6.11270      1.91264        -0.527999     -0.823879      0.000294
      1.58120      6.11270     11.49105         0.034834      0.223649      0.330002
      0.03892      8.63498      6.70184         0.046852      0.013219      0.410883
      0.03892      8.63498     16.28025         0.040274      0.195816     -0.368917
      1.17372      8.26611      3.17797        -0.185602     -0.058045      0.646398
      1.17372      8.26611     12.75638         0.261490     -0.370368     -0.057341
      2.71599     11.37206      7.96718         0.226480     -0.324566      0.005480
      2.71599     11.37206     17.54559        -0.413784      0.060544     -1.333232
      4.66574      6.69637      4.44331         0.146479      0.006993     -0.009710
      4.66574      6.69637     14.02172         0.096882      0.219297     -0.432812
      3.12347      9.21865      9.23251         0.048018      0.174513     -0.378716
      3.12347      9.21865     18.81092         0.168477     -0.766423     -1.585231
      4.66574      6.69637      1.91264         0.086481     -0.662822     -0.063855
      4.66574      6.69637     11.49105         0.046307      0.203735      0.345540
      3.12347      9.21865      6.70184         0.074136      0.200131      0.436542
      3.12347      9.21865     16.28025        -0.005382      0.087212     -0.390838
      4.25826      8.84978      3.17797        -0.006760     -0.054299      0.769646
      4.25826      8.84978     12.75638         0.248756     -0.365842     -0.065727
      5.80053     11.95573      7.96718         0.228403     -0.341301      0.030239
      5.80053     11.95573     17.54559        -0.338751     -0.083980     -1.271130
      2.88963      2.42231      1.56674        -0.666128     -0.368910      0.231643
      2.88963      2.42231     11.14515        -0.068191     -0.300589      0.436859
      1.34735      4.94459      6.35595        -0.058657     -0.154649      0.219454
      1.34735      4.94459     15.93436         0.249453     -0.228693      0.576824
      2.88963      2.42231      4.78920        -0.133953     -0.347989     -0.576663
      2.88963      2.42231     14.36761        -0.138104     -0.295342     -0.219739
      1.34735      4.94459      0.00000         0.732565      0.417340      0.490629
      1.34735      4.94459      9.57841        -0.027541     -0.273184     -0.428895
      1.34735      4.94459     19.15682        -0.397140     -0.842763      0.183662
      0.32395      4.72480      3.17797         0.052663      0.782863     -0.120846
      0.32395      4.72480     12.75638        -0.247698      0.520431      0.089199
      1.86622      2.20252      7.96718        -0.260854      0.516316      0.014697
[...]
      0.32395     10.35303     12.75638        -0.253635      0.553953      0.109483
      1.86622      7.83075      7.96718        -0.268947      0.534624     -0.002950
      1.86622      7.83075     17.54559         0.056216      1.191058      1.609771
      5.97417      8.63421      1.56674        -0.617535     -0.329716      0.281374
      5.97417      8.63421     11.14515        -0.084137     -0.304001      0.416336
      4.43190     11.15649      6.35595         0.016621     -0.234013      0.305926
      4.43190     11.15649     15.93436         0.235848     -0.108995      1.611868
      5.97417      8.63421      4.78920         0.145849     -0.201355     -0.606313
      5.97417      8.63421     14.36761        -0.081003     -0.162307     -0.216127
      4.43190     11.15649      0.00000         0.846988      0.123787      0.306766
      4.43190     11.15649      9.57841        -0.022706     -0.275285     -0.415789
      3.40849     10.93670      3.17797        -0.152844     -0.181819     -0.387511
      3.40849     10.93670     12.75638        -0.275226      0.545829      0.100964
      4.95076      8.41442      7.96718        -0.229900      0.540806     -0.078007
      4.95076      8.41442     17.54559        -0.110383      0.823472      1.807379
    total drift:                               -0.086920      0.108643      0.091523

  FREE ENERGIE OF THE ION-ELECTRON SYSTEM (eV)
  free  energy   TOTEN  =      -478.23304349 eV

  energy  without entropy=     -476.87070753  energy(sigma->0) =     -477.55187551