 vasp.5.4.4.18Apr17-6-g9f103f2a35 (build Aug 13 2019 17:33:20) gamma-only

 executed on             LinuxIFC date 2020.05.10  11:28:49

 INCAR:
 POTCAR:    PAW_PBE Ni_pv 06Sep2000
 POTCAR:    PAW_PBE S 06Sep2000
 POTCAR:    PAW_PBE Ni_pv 06Sep2000
   VRHFIN =Ni:

   TITEL  = PAW_PBE Ni_pv 06Sep2000
   POMASS =   58.690; ZVAL   =   16.000    mass and valenz
   ENMAX  =  367.986; ENMIN  =  275.989 eV

 POTCAR:    PAW_PBE S 06Sep2000
   VRHFIN =S : s2p4

   TITEL  = PAW_PBE S 06Sep2000
   POMASS =   32.066; ZVAL   =    6.000    mass and valenz
   ENMAX  =  258.689; ENMIN  =  194.016 eV

 Optimization of the real space projectors (new method)

 maximal supplied QI-value         = 18.90
 optimisation between [QCUT,QGAM] = [ 10.77, 21.73] = [ 32.49,132.25] Ry
 Optimized for a Real-space Cutoff    1.38 Angstroem

   l    n(q)    QCUT    max X(q) W(low)/X(q) W(high)/X(q)  e(spline)
   1      8    10.771     2.836    0.40E-04    0.29E-04    0.12E-06
   1      8    10.771     4.023    0.10E-03    0.48E-04    0.29E-06
   2      8    10.771    73.368    0.42E-03    0.97E-04    0.44E-06
   2      8    10.771    69.010    0.42E-03    0.99E-04    0.45E-06
   0      9    10.771    54.797    0.10E-03    0.56E-04    0.74E-07
   0      9    10.771    24.266    0.89E-04    0.49E-04    0.67E-07
 Optimization of the real space projectors (new method)

 maximal supplied QI-value         = 19.84
 optimisation between [QCUT,QGAM] = [ 10.71, 21.63] = [ 32.15,130.99] Ry
 Optimized for a Real-space Cutoff    1.19 Angstroem

   l    n(q)    QCUT    max X(q) W(low)/X(q) W(high)/X(q)  e(spline)
   0      8    10.715   187.594    0.41E-03    0.53E-04    0.66E-07
   0      8    10.715   164.243    0.41E-03    0.53E-04    0.65E-07
   1      7    10.715    67.533    0.19E-03    0.59E-03    0.68E-07
   1      7    10.715    50.729    0.19E-03    0.58E-03    0.67E-07
  PAW_PBE Ni_pv 06Sep2000               :
  PAW_PBE S 06Sep2000                   :

 POSCAR: Type_026 Type_126
  positions in cartesian coordinates
 exchange correlation table for  LEXCH =        8
   RHO(1)=    0.500       N(1)  =     2000
   RHO(2)=  100.500       N(2)  =     4000

 ion  position               nearest neighbor table
   1  0.439  0.464  0.163-  45 2.07  36 2.08  30 2.25  37 2.36  46 2.36   5 2.53  22 2.53
   2  0.479  0.474  0.320-  42 2.05  37 2.05  46 2.06  31 2.16
   3  0.158  0.974  0.099-  38 2.06  27 2.08  39 2.09  34 2.19
   4  0.218  0.972  0.241-  34 2.08  35 2.16  28 2.19  39 2.23  13 2.49  12 2.52
   5  0.439  0.200  0.163-  40 2.07  36 2.08  34 2.25  37 2.36  41 2.36   1 2.53  22 2.53
   6  0.480  0.190  0.321-  42 2.05  37 2.05  41 2.06  35 2.16
   7  0.158  0.689  0.099-  38 2.06  32 2.08  39 2.09  30 2.19
   8  0.218  0.692  0.242-  30 2.08  31 2.15  33 2.19  39 2.22  13 2.49  12 2.52
   9  0.131  0.332  0.139-  32 2.07  27 2.07  36 2.11  28 2.36  33 2.36  18 2.53  14 2.53
  10  0.181  0.332  0.298-  29 2.05  33 2.06  28 2.06  37 2.17
  11  0.454  0.832  0.095-  51 2.03  52 2.13  34 2.29  30 2.29  12 2.36
  12  0.407  0.832  0.229-  31 2.17  35 2.17  52 2.25  30 2.26  34 2.26  11 2.36  13 2.49   8 2.52
                             4 2.52
  13  0.293  0.832  0.353-  31 2.02  35 2.02   4 2.49   8 2.49  12 2.49
  14  0.939  0.464  0.163-  32 2.07  49 2.08  43 2.25  50 2.36  33 2.36  18 2.53   9 2.53
  15  0.979  0.474  0.320-  29 2.05  50 2.05  33 2.06  44 2.16
  16  0.658  0.974  0.099-  51 2.06  40 2.08  52 2.09  47 2.19
  17  0.718  0.972  0.241-  47 2.08  48 2.16  41 2.19  52 2.23  26 2.49  25 2.52
  18  0.939  0.200  0.163-  27 2.07  49 2.08  47 2.25  50 2.36  28 2.36  14 2.53   9 2.53
  19  0.980  0.190  0.321-  29 2.05  50 2.05  28 2.06  48 2.16
  20  0.658  0.689  0.099-  51 2.06  45 2.08  52 2.09  43 2.19
  21  0.718  0.692  0.242-  43 2.08  44 2.15  46 2.19  52 2.22  26 2.49  25 2.52
  22  0.631  0.332  0.139-  45 2.07  40 2.07  49 2.11  41 2.36  46 2.36   5 2.53   1 2.53
  23  0.681  0.332  0.298-  42 2.05  46 2.06  41 2.06  50 2.17
  24  0.954  0.832  0.095-  38 2.03  39 2.13  47 2.29  43 2.29  25 2.36
  25  0.907  0.832  0.229-  44 2.17  48 2.17  39 2.25  43 2.26  47 2.26  24 2.36  26 2.49  21 2.52
                            17 2.52
  26  0.793  0.832  0.353-  44 2.02  48 2.02  17 2.49  21 2.49  25 2.49
  27  0.067  0.160  0.079-  18 2.07   9 2.07   3 2.08
  28  0.111  0.164  0.239-  19 2.06  10 2.06   4 2.19   9 2.36  18 2.36
  29  0.065  0.332  0.390-  10 2.05  15 2.05  19 2.05
  30  0.336  0.664  0.149-   8 2.08   7 2.19   1 2.25  12 2.26  11 2.29
  31  0.376  0.662  0.310-  13 2.02   8 2.15   2 2.16  12 2.17
  32  0.067  0.503  0.079-  14 2.07   9 2.07   7 2.08
  33  0.111  0.500  0.239-  15 2.06  10 2.06   8 2.19   9 2.36  14 2.36
  34  0.336  1.000  0.149-   4 2.08   3 2.19   5 2.25  12 2.26  11 2.29
  35  0.376  0.001  0.310-  13 2.02   4 2.16   6 2.16  12 2.17
  36  0.314  0.332  0.113-   5 2.08   1 2.08   9 2.11  37 2.76
  37  0.368  0.332  0.269-   6 2.05   2 2.05  10 2.17   1 2.36   5 2.36  36 2.76
  38  0.094  0.832  0.020-  24 2.03   3 2.06   7 2.06  39 2.74
  39  0.092  0.832  0.179-   3 2.09   7 2.09  24 2.13   8 2.22   4 2.23  25 2.25  38 2.74
  40  0.567  0.160  0.079-   5 2.07  22 2.07  16 2.08
  41  0.611  0.164  0.239-   6 2.06  23 2.06  17 2.19  22 2.36   5 2.36
  42  0.565  0.332  0.390-  23 2.05   2 2.05   6 2.05
  43  0.836  0.664  0.149-  21 2.08  20 2.19  14 2.25  25 2.26  24 2.29
  44  0.876  0.662  0.310-  26 2.02  21 2.15  15 2.16  25 2.17
  45  0.567  0.503  0.079-   1 2.07  22 2.07  20 2.08
  46  0.611  0.500  0.239-   2 2.06  23 2.06  21 2.19  22 2.36   1 2.36
  47  0.836  1.000  0.149-  17 2.08  16 2.19  18 2.25  25 2.26  24 2.29
  48  0.876  0.001  0.310-  26 2.02  17 2.16  19 2.16  25 2.17
  49  0.814  0.332  0.113-  18 2.08  14 2.08  22 2.11  50 2.76
  50  0.868  0.332  0.269-  19 2.05  15 2.05  23 2.17  14 2.36  18 2.36  49 2.76
  51  0.594  0.832  0.020-  11 2.03  16 2.06  20 2.06  52 2.74
  52  0.592  0.832  0.179-  16 2.09  20 2.09  11 2.13  21 2.22  17 2.23  12 2.25  51 2.74

  LATTYP: Found a simple orthorhombic cell.
 ALAT       =     9.5784100000
 B/A-ratio  =     1.1751911892
 C/A-ratio  =     1.7949213288

  Lattice vectors:

 A1 = (   0.0000000000,  -9.5784100000,   0.0000000000)
 A2 = ( -11.2564630382,   0.0000000000,   0.0000000000)
 A3 = (   0.0000000000,   0.0000000000, -17.1924924047)

Analysis of symmetry for initial positions (statically):
 Subroutine PRICEL returns following result:

[...]

   2 primitive cells build up your supercell.

 Routine SETGRP: Setting up the symmetry group for a
 simple orthorhombic supercell.

 Subroutine GETGRP returns: Found  1 space group operations
 (whereof  1 operations were pure point group operations)
 out of a pool of  8 trial point group operations.

The static configuration has the point symmetry C_1 .

Analysis of symmetry for dynamics (positions and initial velocities):
 Subroutine PRICEL returns following result:

  LATTYP: Found a simple orthorhombic cell.
 ALAT       =     5.6282315191
 B/A-ratio  =     1.7018507443
 C/A-ratio  =     3.0546881994

  Lattice vectors:

 A1 = (   5.6282315191,   0.0000000000,   0.0000000000)
 A2 = (   0.0000000000,   9.5784100000,   0.0000000000)
 A3 = (   0.0000000000,   0.0000000000,  17.1924924047)

   2 primitive cells build up your supercell.

 Routine SETGRP: Setting up the symmetry group for a
 simple orthorhombic supercell.

 Subroutine GETGRP returns: Found  1 space group operations
 (whereof  1 operations were pure point group operations)
 out of a pool of  8 trial point group operations.

The dynamic configuration has the point symmetry C_1 .

 Subroutine INISYM returns: Found  1 space group operations
 (whereof  1 operations are pure point group operations),
 and found     2 'primitive' translations

 KPOINTS: gamma-point-only calculation. no periodi

Automatic generation of k-mesh.
Space group operators:
 irot       det(A)        alpha          n_x          n_y          n_z        tau_x        tau_y        tau_z
    1     1.000000     0.000000     1.000000     0.000000     0.000000     0.000000     0.000000     0.000000

 Subroutine IBZKPT returns following result:

 Found      1 irreducible k-points:

 Following reciprocal coordinates:
            Coordinates               Weight
  0.000000  0.000000  0.000000      1.000000

 Following cartesian coordinates:
            Coordinates               Weight
  0.000000  0.000000  0.000000      1.000000

 SYSTEM =  "Millerite NiS"
 POSCAR =  Type_026 Type_126

 Startparameter for this run:
   NWRITE =      2    write-flag & timer
   PREC   = normal    normal or accurate (medium, high low for compatibility)
   ISTART =      0    job   : 0-new  1-cont  2-samecut
   ICHARG =      2    charge: 1-file 2-atom 10-const
   ISPIN  =      1    spin polarized calculation?
   LNONCOLLINEAR =      F non collinear calculations
   LSORBIT =      F    spin-orbit coupling
   INIWAV =      1    electr: 0-lowe 1-rand  2-diag
   LASPH  =      F    aspherical Exc in radial PAW
   METAGGA=      F    non-selfconsistent MetaGGA calc.

 Electronic Relaxation 1
   ENCUT  =  450.0 eV  33.07 Ry    5.75 a.u.  19.47 16.57 29.74*2*pi/ulx,y,z
   ENINI  =  450.0     initial cutoff
   ENAUG  =  703.4 eV  augmentation charge cutoff
   NELM   =    100;   NELMIN=  2; NELMDL= -5     # of ELM steps
   EDIFF  = 0.1E-03   stopping-criterion for ELM
   LREAL  =      T    real-space projection
   NLSPLINE    = F    spline interpolate recip. space projectors
   LCOMPAT=      F    compatible to vasp.4.4
   GGA_COMPAT  = T    GGA compatible to vasp.4.4-vasp.4.6
   LMAXPAW     = -100 max onsite density
   LMAXMIX     =    2 max onsite mixed and CHGCAR
   VOSKOWN=      0    Vosko Wilk Nusair interpolation
   ROPT   =   -0.00050  -0.00050
 Ionic relaxation
   EDIFFG = 0.1E-02   stopping-criterion for IOM
   NSW    =      0    number of steps for IOM
   NBLOCK =      1;   KBLOCK =      1    inner block; outer block
   IBRION =     -1    ionic relax: 0-MD 1-quasi-New 2-CG
   NFREE  =      0    steps in history (QN), initial steepest desc. (CG)
   ISIF   =      2    stress and relaxation
   IWAVPR =     10    prediction:  0-non 1-charg 2-wave 3-comb
   ISYM   =      2    0-nonsym 1-usesym 2-fastsym
   LCORR  =      T    Harris-Foulkes like correction to forces

   POTIM  = 0.5000    time-step for ionic-motion
   TEIN   =    0.0    initial temperature
   TEBEG  =    0.0;   TEEND  =   0.0 temperature during run
   SMASS  =  -3.00    Nose mass-parameter (am)
   estimated Nose-frequenzy (Omega)   =  0.10E-29 period in steps =****** mass=  -0.290E-26a.u.
   SCALEE = 1.0000    scale energy and forces
   NPACO  =    256;   APACO  = 16.0  distance and # of slots for P.C.
   PSTRESS=    0.0 pullay stress

  Mass of Ions in am
   POMASS =  58.69 32.07
  Ionic Valenz
   ZVAL   =  16.00  6.00
  Atomic Wigner-Seitz radii
  virtual crystal weights
   VCA    =   1.00  1.00
   NELECT =     572.0000    total number of electrons
   NUPDOWN=      -1.0000    fix difference up-down

 DOS related values:
   EMIN   =  10.00;   EMAX   =-10.00  energy-range for DOS
   EFERMI =   0.00
   ISMEAR =     0;   SIGMA  =   0.20  broadening in eV -4-tet -1-fermi 0-gaus

 Electronic relaxation 2 (details)
[...]
      26 -87.0780      27 -92.2855      28 -93.3255      29 -92.3099      30 -93.1026
      31 -92.7082      32 -92.2847      33 -93.3251      34 -93.1037      35 -92.7071
      36 -92.2635      37 -93.1591      38 -92.3822      39 -93.6237      40 -92.2855
      41 -93.3255      42 -92.3099      43 -93.1027      44 -92.7083      45 -92.2847
      46 -93.3251      47 -93.1037      48 -92.7071      49 -92.2636      50 -93.1591
      51 -92.3822      52 -93.6237

 E-fermi :  -0.1001     XC(G=0):  -5.4024     alpha+bet : -5.1393

 k-point     1 :       0.0000    0.0000    0.0000
  band No.  band energies     occupation
      1     -64.8599      2.00000
      2     -64.8599      2.00000
      3     -64.7591      2.00000
      4     -64.7585      2.00000
      5     -64.7323      2.00000
      6     -64.7322      2.00000
      7     -64.7296      2.00000
      8     -64.7289      2.00000
      9     -64.6844      2.00000
     10     -64.6844      2.00000
     11     -64.6696      2.00000
     12     -64.6696      2.00000
     13     -64.6297      2.00000
     14     -64.6297      2.00000
     15     -64.6180      2.00000
     16     -64.6179      2.00000
     17     -64.5962      2.00000
     18     -64.5962      2.00000
     19     -64.5934      2.00000
     20     -64.5933      2.00000
     21     -64.5581      2.00000
     22     -64.5580      2.00000
     23     -64.5454      2.00000
     24     -64.5454      2.00000
     25     -64.5364      2.00000
     26     -64.5363      2.00000
     27     -64.5326      2.00000
     28     -64.5325      2.00000
     29     -64.5271      2.00000
     30     -64.5271      2.00000
     31     -64.5187      2.00000
     32     -64.5186      2.00000
     33     -64.5071      2.00000
     34     -64.5069      2.00000
     35     -64.5038      2.00000
     36     -64.5038      2.00000
     37     -64.4837      2.00000
     38     -64.4836      2.00000
     39     -64.4708      2.00000
     40     -64.4707      2.00000
     41     -64.4668      2.00000
     42     -64.4668      2.00000
     43     -64.4590      2.00000
     44     -64.4589      2.00000
     45     -64.4537      2.00000
     46     -64.4537      2.00000
     47     -64.3311      2.00000
     48     -64.3306      2.00000
     49     -64.3291      2.00000
     50     -64.3289      2.00000
     51     -64.3168      2.00000
     52     -64.3168      2.00000
     53     -64.3058      2.00000
     54     -64.3047      2.00000
     55     -64.2973      2.00000
     56     -64.2965      2.00000
     57     -64.2796      2.00000
     58     -64.2795      2.00000
     59     -64.2780      2.00000
     60     -64.2780      2.00000
[...]
    330       4.9920      0.00000
    331       5.0129      0.00000
    332       5.1150      0.00000
    333       5.1639      0.00000
    334       5.2503      0.00000
    335       5.2535      0.00000
    336       5.3011      0.00000
    337       5.3694      0.00000
    338       5.5441      0.00000
    339       5.6109      0.00000
    340       5.6728      0.00000
    341       5.6739      0.00000
    342       5.7480      0.00000
    343       5.7940      0.00000
    344       5.8013      0.00000

 soft charge-density along one line, spin component           1
         0         1         2         3         4         5         6         7         8         9
 total charge-density along one line

------------------------ aborting loop because EDIFF is reached ----------------------------------------

  FORCE on cell =-STRESS in cart. coord.  units (eV):
  Direction    XX          YY          ZZ          XY          YZ          ZX
  Alpha Z  1046.73971  1046.73971  1046.73971
  Ewald  158287.78138158950.73582************    -0.67252     1.41601   216.14692
  Hartree183226.84554183589.87730************    -0.00939     0.10532   189.02114
  E(xc)   -3649.90935 -3648.67089 -3654.06253    -0.00081     0.00403     0.47460
  Local  ************************342716.57588     0.63523    -1.35780  -403.42263
  n-local  -412.00369  -415.65104  -428.50730    -0.03876     0.02579    -3.71215
  augment  4182.39989  4177.54726  4202.08149     0.02622    -0.07339    -0.72525
  Kinetic  8006.54285  7982.68151  8083.97411     0.00444    -0.13658    -5.82861
  Fock        0.00000     0.00000     0.00000     0.00000     0.00000     0.00000
  Total      75.41510    76.59486   104.17883    -0.05559    -0.01662    -8.04597
  in kB      65.18305    66.20275    90.04422    -0.04805    -0.01436    -6.95433

 VOLUME and BASIS-vectors are now :
  energy-cutoff  :      450.00
  volume of cell :     1853.68
      direct lattice vectors                 reciprocal lattice vectors
    11.256463038  0.000000000  0.000000000     0.088837852  0.000000000  0.000000000
     0.000000000  9.578410000  0.000000000     0.000000000  0.104401461  0.000000000
     0.000000000  0.000000000 17.192492405     0.000000000  0.000000000  0.058164923

  length of vectors
    11.256463038  9.578410000 17.192492405     0.088837852  0.104401461  0.058164923

 FORCES acting on ions
    electron-ion (+dipol)            ewald-force                    non-local-force                 convergence-correction
   0.335E+03 -.286E+03 0.145E+04   -.338E+03 0.289E+03 -.146E+04   0.177E+01 -.253E+01 0.453E+01   -.673E-02 0.722E-01 0.969E-01
   0.177E+03 -.567E+03 -.321E+04   -.178E+03 0.571E+03 0.321E+04   0.105E+01 -.219E+01 -.392E+01   -.368E-01 0.190E+00 0.220E+00
   -.251E+03 -.557E+03 0.307E+04   0.252E+03 0.564E+03 -.308E+04   -.337E+00 -.719E+01 0.531E+01   0.898E-02 -.400E-01 0.653E-01
   0.381E+03 -.472E+03 -.132E+04   -.384E+03 0.474E+03 0.133E+04   0.105E+01 -.788E+00 -.420E+01   0.115E+00 -.262E+00 0.502E+00
   0.335E+03 0.286E+03 0.145E+04   -.337E+03 -.289E+03 -.146E+04   0.177E+01 0.253E+01 0.454E+01   -.590E-02 -.117E+00 0.107E+00
   0.177E+03 0.567E+03 -.321E+04   -.178E+03 -.571E+03 0.321E+04   0.105E+01 0.217E+01 -.394E+01   -.399E-01 -.212E+00 0.197E+00
   -.251E+03 0.556E+03 0.307E+04   0.252E+03 -.564E+03 -.308E+04   -.330E+00 0.720E+01 0.530E+01   0.136E-01 0.563E-01 0.524E-01
   0.382E+03 0.472E+03 -.132E+04   -.384E+03 -.473E+03 0.133E+04   0.105E+01 0.770E+00 -.419E+01   0.108E+00 0.289E+00 0.502E+00
   -.465E+03 0.343E+00 0.221E+04   0.470E+03 -.311E+00 -.221E+04   -.375E+01 0.106E-02 0.582E+01   0.390E-02 -.289E-01 0.366E-01
   -.577E+03 0.786E-01 -.258E+04   0.583E+03 -.589E-01 0.259E+04   -.428E+01 -.739E-02 -.241E+01   0.251E-01 -.203E-01 0.207E+00
   0.426E+03 -.332E+00 0.328E+04   -.429E+03 0.319E+00 -.328E+04   0.230E+01 -.219E-03 0.520E+01   -.238E-02 0.116E-01 0.745E-01
   -.591E+03 0.146E-01 -.877E+03   0.595E+03 -.365E-01 0.879E+03   -.340E+01 0.680E-02 -.273E+01   -.146E+00 0.225E-01 0.546E+00
   0.207E+03 -.780E+00 -.425E+04   -.206E+03 0.795E+00 0.425E+04   -.152E+01 -.160E-01 0.206E+01   -.221E-01 0.138E-01 0.260E+00
   0.335E+03 -.286E+03 0.145E+04   -.338E+03 0.289E+03 -.146E+04   0.177E+01 -.253E+01 0.453E+01   -.604E-02 0.727E-01 0.975E-01
   0.177E+03 -.567E+03 -.321E+04   -.178E+03 0.571E+03 0.321E+04   0.105E+01 -.219E+01 -.392E+01   -.360E-01 0.190E+00 0.220E+00
   -.251E+03 -.557E+03 0.307E+04   0.252E+03 0.564E+03 -.308E+04   -.337E+00 -.719E+01 0.531E+01   0.804E-02 -.399E-01 0.651E-01
   0.381E+03 -.472E+03 -.132E+04   -.384E+03 0.474E+03 0.133E+04   0.105E+01 -.788E+00 -.420E+01   0.114E+00 -.262E+00 0.502E+00
   0.335E+03 0.286E+03 0.145E+04   -.337E+03 -.289E+03 -.146E+04   0.177E+01 0.253E+01 0.454E+01   -.496E-02 -.118E+00 0.107E+00
   0.177E+03 0.567E+03 -.321E+04   -.178E+03 -.571E+03 0.321E+04   0.105E+01 0.217E+01 -.394E+01   -.387E-01 -.213E+00 0.198E+00
   -.251E+03 0.556E+03 0.307E+04   0.252E+03 -.564E+03 -.308E+04   -.330E+00 0.720E+01 0.530E+01   0.123E-01 0.557E-01 0.523E-01
   0.382E+03 0.472E+03 -.132E+04   -.384E+03 -.473E+03 0.133E+04   0.105E+01 0.770E+00 -.419E+01   0.106E+00 0.289E+00 0.502E+00
   -.465E+03 0.343E+00 0.221E+04   0.470E+03 -.311E+00 -.221E+04   -.375E+01 0.106E-02 0.582E+01   0.164E-02 -.287E-01 0.360E-01
   -.577E+03 0.783E-01 -.258E+04   0.583E+03 -.589E-01 0.259E+04   -.428E+01 -.739E-02 -.241E+01   0.245E-01 -.200E-01 0.207E+00
   0.426E+03 -.332E+00 0.328E+04   -.429E+03 0.319E+00 -.328E+04   0.230E+01 -.219E-03 0.520E+01   -.202E-02 0.118E-01 0.743E-01
   -.591E+03 0.144E-01 -.877E+03   0.595E+03 -.365E-01 0.879E+03   -.340E+01 0.680E-02 -.273E+01   -.145E+00 0.227E-01 0.545E+00
   0.207E+03 -.780E+00 -.425E+04   -.206E+03 0.795E+00 0.425E+04   -.152E+01 -.160E-01 0.206E+01   -.235E-01 0.139E-01 0.261E+00
   0.213E+02 -.441E+02 0.150E+04   -.225E+02 0.440E+02 -.150E+04   0.148E+01 -.117E+00 0.342E+01   -.681E-02 -.205E-01 -.166E-01
   -.104E+03 0.179E+03 -.296E+03   0.105E+03 -.180E+03 0.296E+03   -.487E+00 0.340E+00 -.123E+01   0.607E-03 -.716E-01 0.690E-01
   -.950E+02 -.457E+00 -.181E+04   0.959E+02 0.466E+00 0.182E+04   -.278E+00 0.626E-02 -.103E+01   0.459E-02 -.622E-02 0.937E-01
   -.715E+02 0.219E+03 0.762E+03   0.721E+02 -.221E+03 -.765E+03   0.775E+00 0.973E+00 0.347E+00   -.629E-02 0.424E-01 0.640E-01
   -.145E+03 0.179E+03 -.118E+04   0.147E+03 -.180E+03 0.118E+04   -.981E+00 -.382E+00 -.108E+00   -.974E-01 0.227E+00 0.172E+00
   0.215E+02 0.442E+02 0.150E+04   -.227E+02 -.441E+02 -.150E+04   0.148E+01 0.103E+00 0.342E+01   0.605E-02 0.224E-01 -.297E-01
   -.104E+03 -.178E+03 -.296E+03   0.105E+03 0.180E+03 0.296E+03   -.499E+00 -.321E+00 -.123E+01   0.107E-01 0.665E-01 0.725E-01
   -.716E+02 -.219E+03 0.762E+03   0.722E+02 0.221E+03 -.765E+03   0.789E+00 -.952E+00 0.334E+00   0.353E-02 -.258E-01 0.713E-01
   -.145E+03 -.179E+03 -.118E+04   0.147E+03 0.179E+03 0.118E+04   -.101E+01 0.370E+00 -.103E+00   -.958E-01 -.217E+00 0.166E+00
   0.957E+02 0.670E-01 0.122E+04   -.955E+02 -.524E-01 -.122E+04   -.117E+01 0.472E-02 0.427E+01   0.215E-02 -.146E-01 -.105E-01
   0.236E+03 0.247E+00 -.614E+03   -.238E+03 -.234E+00 0.614E+03   0.194E+00 0.103E-02 -.124E+01   -.659E-02 -.149E-01 0.695E-01
   -.179E+02 0.193E+00 0.185E+04   0.176E+02 -.192E+00 -.185E+04   0.159E+00 -.512E-02 0.175E+01   0.361E-02 -.889E-03 -.396E-01
   0.101E+03 -.296E+00 0.140E+02   -.101E+03 0.290E+00 -.835E+01   -.119E+01 -.453E-02 -.165E+01   0.756E-02 0.379E-02 0.106E+00
   0.213E+02 -.441E+02 0.150E+04   -.225E+02 0.440E+02 -.150E+04   0.148E+01 -.117E+00 0.342E+01   -.728E-02 -.204E-01 -.166E-01
   -.104E+03 0.179E+03 -.296E+03   0.105E+03 -.180E+03 0.296E+03   -.487E+00 0.340E+00 -.123E+01   0.168E-03 -.718E-01 0.688E-01
   -.950E+02 -.457E+00 -.181E+04   0.959E+02 0.466E+00 0.182E+04   -.278E+00 0.626E-02 -.103E+01   0.430E-02 -.620E-02 0.937E-01
   -.715E+02 0.219E+03 0.762E+03   0.721E+02 -.221E+03 -.765E+03   0.775E+00 0.973E+00 0.347E+00   -.653E-02 0.426E-01 0.639E-01
   -.145E+03 0.179E+03 -.118E+04   0.147E+03 -.180E+03 0.118E+04   -.981E+00 -.382E+00 -.108E+00   -.974E-01 0.226E+00 0.173E+00
   0.215E+02 0.442E+02 0.150E+04   -.227E+02 -.441E+02 -.150E+04   0.148E+01 0.103E+00 0.342E+01   0.558E-02 0.224E-01 -.296E-01
   -.104E+03 -.178E+03 -.296E+03   0.105E+03 0.180E+03 0.296E+03   -.499E+00 -.321E+00 -.123E+01   0.101E-01 0.666E-01 0.723E-01
   -.716E+02 -.219E+03 0.762E+03   0.722E+02 0.221E+03 -.765E+03   0.789E+00 -.952E+00 0.334E+00   0.327E-02 -.260E-01 0.713E-01
   -.145E+03 -.179E+03 -.118E+04   0.147E+03 0.179E+03 0.118E+04   -.101E+01 0.370E+00 -.103E+00   -.958E-01 -.216E+00 0.167E+00
   0.957E+02 0.670E-01 0.122E+04   -.955E+02 -.524E-01 -.122E+04   -.117E+01 0.472E-02 0.427E+01   0.167E-02 -.147E-01 -.107E-01
   0.236E+03 0.247E+00 -.614E+03   -.238E+03 -.234E+00 0.614E+03   0.194E+00 0.103E-02 -.124E+01   -.648E-02 -.149E-01 0.699E-01
   -.179E+02 0.193E+00 0.185E+04   0.176E+02 -.192E+00 -.185E+04   0.159E+00 -.512E-02 0.175E+01   0.334E-02 -.890E-03 -.397E-01
   0.101E+03 -.296E+00 0.140E+02   -.101E+03 0.290E+00 -.835E+01   -.119E+01 -.453E-02 -.165E+01   0.719E-02 0.371E-02 0.106E+00
   0.897E+01 0.169E+00 -.439E+02   -.131E-11 0.330E-12 0.227E-12   -.861E+01 -.659E-01 0.366E+02   -.327E+00 -.704E-01 0.731E+01

 POSITION                                       TOTAL-FORCE (eV/Angst)
      4.94536      4.44331      2.79952        -0.374953      0.652509      1.636907
      5.39614      4.53607      5.51003        -0.731301      1.887324      0.786344
      1.78194      9.33393      1.69621         0.847513      0.117994     -0.174458
      2.45320      9.30996      4.15190        -1.235170      0.304317      0.325449
      4.94536      1.91264      2.79952        -0.381834     -0.653816      1.646336
      5.39762      1.82196      5.51108        -0.726227     -1.889206      0.785024
      1.78099      6.59857      1.69718         0.849393     -0.114213     -0.195151
      2.45258      6.62559      4.15207        -1.234004     -0.319098      0.321946
      1.47054      3.17797      2.39204         0.693962      0.003620      2.164592
      2.03432      3.17819      5.12847         1.828679     -0.008667      0.691277
      5.11114      7.96720      1.63066        -1.075594     -0.002260      0.176261
      4.57649      7.96718      3.93431         0.377014      0.006742     -0.797473
      3.29491      7.96819      6.07132        -0.875085      0.012781      1.324004
     10.57359      4.44331      2.79952        -0.374953      0.652509      1.636907
     11.02437      4.53607      5.51003        -0.731301      1.887324      0.786344
      7.41017      9.33393      1.69621         0.847513      0.117994     -0.174458
      8.08143      9.30996      4.15190        -1.235170      0.304317      0.325449
     10.57359      1.91264      2.79952        -0.381834     -0.653816      1.646336
     11.02585      1.82196      5.51108        -0.726227     -1.889206      0.785024
      7.40922      6.59857      1.69718         0.849393     -0.114213     -0.195151
      8.08081      6.62559      4.15207        -1.234004     -0.319098      0.321946
      7.09877      3.17797      2.39204         0.693962      0.003620      2.164592
      7.66255      3.17819      5.12847         1.828679     -0.008667      0.691277
     10.73937      7.96720      1.63066        -1.075594     -0.002260      0.176261
     10.20472      7.96718      3.93431         0.377014      0.006742     -0.797473
      8.92314      7.96819      6.07132        -0.875085      0.012781      1.324004
      0.75213      1.53284      1.35946         0.256792     -0.219749     -3.136490
      1.25497      1.56674      4.10795         0.617364     -1.698663     -1.272413
      0.73014      3.18015      6.70580         0.662368      0.007706      3.992397
      3.77725      6.35595      2.56568         1.367401     -0.589634     -2.028389
      4.23289      6.34358      5.33205         0.550693     -0.598373      1.874972
      0.75120      4.82172      1.35837         0.261779      0.205718     -3.143426
      1.25497      4.78920      4.10795         0.605455      1.717479     -1.275919
      3.77725      9.57841      2.56568         1.376273      0.605317     -2.040799
      4.23553      0.01433      5.33082         0.535340      0.582881      1.876764
      3.53636      3.17781      1.93875        -0.895799      0.004047     -2.528866
      4.14113      3.17797      4.62682        -2.132052     -0.001262     -1.026495
      1.05544      7.96607      0.34172        -0.143759     -0.006277     -4.100583
      1.03518      7.96718      3.08454        -1.024247     -0.007219      4.118189
      6.38036      1.53284      1.35946         0.256792     -0.219749     -3.136490
      6.88320      1.56674      4.10795         0.617364     -1.698663     -1.272413
      6.35837      3.18015      6.70580         0.662368      0.007706      3.992397
      9.40548      6.35595      2.56568         1.367401     -0.589634     -2.028389
      9.86113      6.34358      5.33205         0.550693     -0.598373      1.874972
      6.37943      4.82172      1.35837         0.261779      0.205718     -3.143426
      6.88320      4.78920      4.10795         0.605455      1.717479     -1.275919
      9.40548      9.57841      2.56568         1.376273      0.605317     -2.040799
      9.86376      0.01433      5.33082         0.535340      0.582881      1.876764
      9.16459      3.17781      1.93875        -0.895799      0.004047     -2.528866
      9.76936      3.17797      4.62682        -2.132052     -0.001262     -1.026495
      6.68367      7.96607      0.34172        -0.143759     -0.006277     -4.100583
      6.66341      7.96718      3.08454        -1.024247     -0.007219      4.118189
    total drift:                                0.037108      0.033164      0.035818

  FREE ENERGIE OF THE ION-ELECTRON SYSTEM (eV)
  free  energy   TOTEN  =      -250.96598091 eV

  energy  without entropy=     -250.25549404  energy(sigma->0) =     -250.61073748