 vasp.5.4.4.18Apr17-6-g9f103f2a35 (build Aug 13 2019 17:33:20) gamma-only

 executed on             LinuxIFC date 2020.05.10  20:58:40

 INCAR:
 POTCAR:    PAW_PBE Ni_pv 06Sep2000
 POTCAR:    PAW_PBE S 06Sep2000
 POTCAR:    PAW_PBE Ni_pv 06Sep2000
   VRHFIN =Ni:

   TITEL  = PAW_PBE Ni_pv 06Sep2000
   POMASS =   58.690; ZVAL   =   16.000    mass and valenz
   ENMAX  =  367.986; ENMIN  =  275.989 eV

 POTCAR:    PAW_PBE S 06Sep2000
   VRHFIN =S : s2p4

   TITEL  = PAW_PBE S 06Sep2000
   POMASS =   32.066; ZVAL   =    6.000    mass and valenz
   ENMAX  =  258.689; ENMIN  =  194.016 eV

 Optimization of the real space projectors (new method)

 maximal supplied QI-value         = 18.90
 optimisation between [QCUT,QGAM] = [ 10.77, 21.73] = [ 32.49,132.25] Ry
 Optimized for a Real-space Cutoff    1.38 Angstroem

   l    n(q)    QCUT    max X(q) W(low)/X(q) W(high)/X(q)  e(spline)
   1      8    10.771     2.836    0.40E-04    0.29E-04    0.12E-06
   1      8    10.771     4.023    0.10E-03    0.48E-04    0.29E-06
   2      8    10.771    73.368    0.42E-03    0.97E-04    0.44E-06
   2      8    10.771    69.010    0.42E-03    0.99E-04    0.45E-06
   0      9    10.771    54.797    0.10E-03    0.56E-04    0.74E-07
   0      9    10.771    24.266    0.89E-04    0.49E-04    0.67E-07
 Optimization of the real space projectors (new method)

 maximal supplied QI-value         = 19.84
 optimisation between [QCUT,QGAM] = [ 10.71, 21.63] = [ 32.15,130.99] Ry
 Optimized for a Real-space Cutoff    1.19 Angstroem

   l    n(q)    QCUT    max X(q) W(low)/X(q) W(high)/X(q)  e(spline)
   0      8    10.715   187.594    0.41E-03    0.53E-04    0.66E-07
   0      8    10.715   164.243    0.41E-03    0.53E-04    0.65E-07
   1      7    10.715    67.533    0.19E-03    0.59E-03    0.68E-07
   1      7    10.715    50.729    0.19E-03    0.58E-03    0.67E-07
  PAW_PBE Ni_pv 06Sep2000               :
  PAW_PBE S 06Sep2000                   :

 POSCAR: Type_048 Type_148
  positions in cartesian coordinates
 exchange correlation table for  LEXCH =        8
   RHO(1)=    0.500       N(1)  =     2000
   RHO(2)=  100.500       N(2)  =     4000

 ion  position               nearest neighbor table
   1  0.261  0.479  0.253-  72 2.25  56 2.26  79 2.26  28 2.32  54 2.36  57 2.36   7 2.53  21 2.53

   2  0.355  0.385  0.388-  73 2.25  54 2.26  57 2.26  58 2.36  64 2.36   3 2.38   8 2.53  22 2.53

[...]

  80  0.102  0.880  0.061-  48 2.02  30 2.03  81 2.76
  81  0.174  0.897  0.180-  30 2.15   4 2.23  33 2.25  31 2.26  25 2.26  80 2.76
  82  0.268  0.803  0.315-  34 2.25  26 2.26  32 2.26  31 2.36  25 2.36
  83  0.362  0.709  0.451-  27 2.08  41 2.10  35 2.15  32 2.36  26 2.36
  84  0.573  0.667  0.270-  13 2.25  46 2.26  32 2.26  45 2.36  31 2.36
  85  0.667  0.573  0.405-  41 2.05  47 2.05  14 2.25  46 2.36  32 2.36  63 2.69
  86  0.870  0.870  0.013-  42 2.01  48 2.01
  87  0.979  0.761  0.135-  28 1.99  43 2.26  33 2.26  30 2.28  42 2.36  48 2.36
  88  0.711  0.029  0.527-  39 2.04  17 2.08  23 2.08  60 2.69
  89  0.530  0.878  0.451-  27 2.08  47 2.10  17 2.15  46 2.36  26 2.36
  90  0.936  0.972  0.315-  20 2.25  38 2.26  34 2.26  37 2.36  33 2.36
  91  0.772  0.650  0.066-  40 2.09  42 2.11  24 2.13  92 2.65
  92  0.842  0.566  0.180-  24 2.07  43 2.25  13 2.26   9 2.26  40 2.36  91 2.65
  93  0.603  0.990  0.050-  36 2.01  16 2.05  42 2.07
  94  0.674  0.897  0.180-  36 2.12  45 2.25  43 2.26  37 2.26  42 2.36  16 2.36
  95  0.768  0.803  0.315-  46 2.25  38 2.26  44 2.26  43 2.36  37 2.36
  96  0.862  0.709  0.451-  39 2.08  29 2.10  47 2.15  44 2.36  38 2.36

  LATTYP: Found a base centered orthorhombic cell.
 ALAT       =    11.8257374459
 B/A-ratio  =     1.6199260857
 C/A-ratio  =     1.8387210052

  Lattice vectors:

 A1 = (  11.2564630382,   0.0000000000,   0.0000000000)
 A2 = (  -5.0445621212, -10.0628203371,   0.0000000000)
 A3 = (   0.0000000000,   0.0000000000, -21.7442318436)

Analysis of symmetry for initial positions (statically):
 Subroutine PRICEL returns:
 Original cell was already a primitive cell.

 Routine SETGRP: Setting up the symmetry group for a
 base centered orthorhombic supercell.

 Subroutine GETGRP returns: Found  1 space group operations
 (whereof  1 operations were pure point group operations)
 out of a pool of  8 trial point group operations.

The static configuration has the point symmetry C_1 .

Analysis of symmetry for dynamics (positions and initial velocities):
 Subroutine PRICEL returns:
 Original cell was already a primitive cell.

 Routine SETGRP: Setting up the symmetry group for a
 base centered orthorhombic supercell.

 Subroutine GETGRP returns: Found  1 space group operations
 (whereof  1 operations were pure point group operations)
 out of a pool of  8 trial point group operations.

The dynamic configuration has the point symmetry C_1 .

 Subroutine INISYM returns: Found  1 space group operations
 (whereof  1 operations are pure point group operations),
 and found     1 'primitive' translations

 KPOINTS: gamma-point-only calculation. no periodi

Automatic generation of k-mesh.
Space group operators:
 irot       det(A)        alpha          n_x          n_y          n_z        tau_x        tau_y        tau_z
    1     1.000000     0.000000     1.000000     0.000000     0.000000     0.000000     0.000000     0.000000

 Subroutine IBZKPT returns following result:

 Found      1 irreducible k-points:

 Following reciprocal coordinates:
            Coordinates               Weight
  0.000000  0.000000  0.000000      1.000000

 Following cartesian coordinates:
            Coordinates               Weight
  0.000000  0.000000  0.000000      1.000000

 SYSTEM =  "Millerite NiS"
 POSCAR =  Type_048 Type_148

 Startparameter for this run:
   NWRITE =      2    write-flag & timer
   PREC   = normal    normal or accurate (medium, high low for compatibility)
   ISTART =      0    job   : 0-new  1-cont  2-samecut
   ICHARG =      2    charge: 1-file 2-atom 10-const
   ISPIN  =      1    spin polarized calculation?
   LNONCOLLINEAR =      F non collinear calculations
   LSORBIT =      F    spin-orbit coupling
   INIWAV =      1    electr: 0-lowe 1-rand  2-diag
   LASPH  =      F    aspherical Exc in radial PAW
   METAGGA=      F    non-selfconsistent MetaGGA calc.

 Electronic Relaxation 1
   ENCUT  =  450.0 eV  33.07 Ry    5.75 a.u.  19.47 19.47 37.61*2*pi/ulx,y,z
   ENINI  =  450.0     initial cutoff
   ENAUG  =  703.4 eV  augmentation charge cutoff
   NELM   =    100;   NELMIN=  2; NELMDL= -5     # of ELM steps
   EDIFF  = 0.1E-03   stopping-criterion for ELM
   LREAL  =      T    real-space projection
   NLSPLINE    = F    spline interpolate recip. space projectors
   LCOMPAT=      F    compatible to vasp.4.4
   GGA_COMPAT  = T    GGA compatible to vasp.4.4-vasp.4.6
   LMAXPAW     = -100 max onsite density
   LMAXMIX     =    2 max onsite mixed and CHGCAR
   VOSKOWN=      0    Vosko Wilk Nusair interpolation
   ROPT   =   -0.00050  -0.00050
 Ionic relaxation
   EDIFFG = 0.1E-02   stopping-criterion for IOM
   NSW    =      0    number of steps for IOM
   NBLOCK =      1;   KBLOCK =      1    inner block; outer block
   IBRION =     -1    ionic relax: 0-MD 1-quasi-New 2-CG
   NFREE  =      0    steps in history (QN), initial steepest desc. (CG)
   ISIF   =      2    stress and relaxation
   IWAVPR =     10    prediction:  0-non 1-charg 2-wave 3-comb
   ISYM   =      2    0-nonsym 1-usesym 2-fastsym
   LCORR  =      T    Harris-Foulkes like correction to forces

   POTIM  = 0.5000    time-step for ionic-motion
   TEIN   =    0.0    initial temperature
   TEBEG  =    0.0;   TEEND  =   0.0 temperature during run
   SMASS  =  -3.00    Nose mass-parameter (am)
   estimated Nose-frequenzy (Omega)   =  0.10E-29 period in steps =****** mass=  -0.290E-26a.u.
   SCALEE = 1.0000    scale energy and forces
   NPACO  =    256;   APACO  = 16.0  distance and # of slots for P.C.
   PSTRESS=    0.0 pullay stress

  Mass of Ions in am
   POMASS =  58.69 32.07
  Ionic Valenz
   ZVAL   =  16.00  6.00
  Atomic Wigner-Seitz radii
  virtual crystal weights
   VCA    =   1.00  1.00
   NELECT =    1056.0000    total number of electrons
   NUPDOWN=      -1.0000    fix difference up-down

 DOS related values:
   EMIN   =  10.00;   EMAX   =-10.00  energy-range for DOS
   EFERMI =   0.00
   ISMEAR =     0;   SIGMA  =   0.20  broadening in eV -4-tet -1-fermi 0-gaus

 Electronic relaxation 2 (details)
   IALGO  =     38    algorithm
   LDIAG  =      T    sub-space diagonalisation (order eigenvalues)
   LSUBROT=      F    optimize rotation matrix (better conditioning)
   TURBO    =      0    0=normal 1=particle mesh
   IRESTART =      0    0=no restart 2=restart with 2 vectors
   NREBOOT  =      0    no. of reboots
   NMIN     =      0    reboot dimension
   EREF     =   0.00    reference energy to select bands
   IMIX   =      4    mixing-type and parameters
     AMIX     =   0.40;   BMIX     =  1.00
     AMIX_MAG =   1.60;   BMIX_MAG =  1.00
     AMIN     =   0.10
     WC   =   100.;   INIMIX=   1;  MIXPRE=   1;  MAXMIX= -45

 Intra band minimization:
   WEIMIN = 0.0000     energy-eigenvalue tresh-hold
   EBREAK =  0.39E-07  absolut break condition
   DEPER  =   0.30     relativ break condition

   TIME   =   0.40     timestep for ELM

  volume/ion in A,a.u.               =      25.66       173.14
  Fermi-wavevector in a.u.,A,eV,Ry     =   1.234452  2.332776 20.733535  1.523872
  Thomas-Fermi vector in A             =   2.369142

 Write flags
   LWAVE        =      F    write WAVECAR
   LDOWNSAMPLE  =      F    k-point downsampling of WAVECAR
   LCHARG       =      F    write CHGCAR
   LVTOT        =      F    write LOCPOT, total local potential
   LVHAR        =      F    write LOCPOT, Hartree potential only
   LELF         =      F    write electronic localiz. function (ELF)
   LORBIT       =      0    0 simple, 1 ext, 2 COOP (PROOUT), +10 PAW based schemes

 Dipole corrections
   LMONO  =      F    monopole corrections only (constant potential shift)
   LDIPOL =      F    correct potential (dipole corrections)
   IDIPOL =      0    1-x, 2-y, 3-z, 4-all directions
   EPSILON=  1.0000000 bulk dielectric constant

 Exchange correlation treatment:
   GGA     =    --    GGA type
   VOSKOWN=      0    Vosko Wilk Nusair interpolation
   LHFCALC =     F    Hartree Fock is set to
   LHFONE  =     F    Hartree Fock one center treatment
   AEXX    =    0.0000 exact exchange contribution

 Linear response parameters
   LEPSILON=     F    determine dielectric tensor
   LRPA    =     F    only Hartree local field effects (RPA)
   LNABLA  =     F    use nabla operator in PAW spheres
   LVEL    =     F    velocity operator in full k-point grid
   LINTERFAST=   F  fast interpolation
   KINTER  =     0    interpolate to denser k-point grid
   CSHIFT  =0.1000    complex shift for real part using Kramers Kronig
   OMEGAMAX=  -1.0    maximum frequency
   DEG_THRESHOLD= 0.2000000E-02 threshold for treating states as degnerate
   RTIME   =   -0.100 relaxation time in fs
  (WPLASMAI=    0.000 imaginary part of plasma frequency in eV, 0.658/RTIME)
   DFIELD  = 0.0000000 0.0000000 0.0000000 field for delta impulse in time

[...]
     0.000000000  0.000000000 21.744231844     0.000000000  0.000000000  0.045989208

  length of vectors
    11.256463038 11.256463038 21.744231844     0.099375718  0.099375718  0.045989208

 FORCES acting on ions
    electron-ion (+dipol)            ewald-force                    non-local-force                 convergence-correction
   0.958E+02 -.673E+02 0.408E+03   -.954E+02 0.661E+02 -.403E+03   0.148E+00 0.694E+00 -.387E+01   0.496E-01 -.319E-01 -.466E-01
   0.221E+03 -.342E+03 -.237E+04   -.222E+03 0.343E+03 0.237E+04   0.640E+00 -.997E+00 0.553E-01   0.805E-01 -.425E-01 0.202E+00
   -.156E+02 0.288E+02 -.562E+04   0.131E+02 -.246E+02 0.562E+04   0.286E+01 -.493E+01 0.829E+00   0.293E-01 -.160E-03 0.105E+00
   -.270E+03 0.690E+02 0.392E+04   0.272E+03 -.717E+02 -.393E+04   -.236E+01 0.207E+01 0.454E+01   0.911E-02 0.555E-01 -.913E-01
   0.299E+03 0.226E+03 -.488E+04   -.304E+03 -.230E+03 0.488E+04   0.364E+01 0.320E+01 -.229E+01   -.657E-02 -.556E-01 0.165E+00
   0.633E+03 0.572E+03 0.522E+04   -.639E+03 -.575E+03 -.523E+04   0.426E+01 0.203E+01 0.896E+01   0.188E-01 0.854E-02 0.124E-01
   0.379E+03 0.673E+03 0.216E+04   -.380E+03 -.677E+03 -.216E+04   0.145E+01 0.339E+01 0.372E+00   0.588E-01 0.399E-01 -.104E-02
   0.261E+03 0.456E+03 -.132E+04   -.262E+03 -.457E+03 0.132E+04   0.776E+00 0.358E+00 0.221E+01   0.344E-01 0.655E-01 0.110E+00
   -.556E+03 0.386E+02 0.197E+04   0.557E+03 -.372E+02 -.197E+04   -.457E-01 -.150E+01 -.810E+00   -.136E-01 0.291E-01 0.681E-03
   -.510E+03 -.136E+02 -.137E+04   0.511E+03 0.149E+02 0.137E+04   -.989E+00 -.132E+01 0.984E+00   0.479E-01 0.219E-01 0.881E-01
   -.344E+03 -.161E+03 -.488E+04   0.348E+03 0.164E+03 0.488E+04   -.452E+01 -.164E+01 -.209E+01   0.951E-01 -.138E-01 0.157E+00
   0.689E+02 -.593E+02 0.482E+04   -.678E+02 0.595E+02 -.483E+04   -.115E+01 -.474E+00 0.557E+01   -.943E-01 -.163E-01 0.310E-01
   0.251E+03 -.399E+03 0.693E+03   -.251E+03 0.400E+03 -.692E+03   -.312E-01 -.107E+01 -.118E+01   -.521E-01 -.274E-01 0.156E-01
   0.242E+03 -.372E+03 -.236E+04   -.243E+03 0.373E+03 0.236E+04   0.652E+00 -.875E+00 0.248E+00   -.628E-01 0.157E-01 0.127E+00
   -.111E+02 0.234E+02 -.561E+04   0.865E+01 -.193E+02 0.561E+04   0.292E+01 -.478E+01 0.699E+00   -.248E-01 0.121E-02 0.134E+00
   0.386E+03 -.643E+03 0.416E+04   -.386E+03 0.647E+03 -.416E+04   0.416E+00 -.317E+01 0.274E+01   -.668E-01 -.663E-01 -.186E-01
   0.305E+03 0.230E+03 -.487E+04   -.309E+03 -.233E+03 0.487E+04   0.346E+01 0.334E+01 -.243E+01   -.423E-01 0.502E-01 0.127E+00
   0.300E+02 0.652E+03 0.517E+04   -.319E+02 -.658E+03 -.517E+04   0.130E+01 0.424E+01 0.409E+01   -.498E-01 0.241E-01 0.169E-01
   0.317E+03 0.450E+03 0.191E+04   -.318E+03 -.451E+03 -.191E+04   0.129E+01 0.637E+00 0.758E-01   -.514E-01 0.603E-01 0.232E-01
   0.267E+03 0.429E+03 -.138E+04   -.269E+03 -.429E+03 0.137E+04   0.171E+01 0.317E+00 0.104E+01   -.508E-01 0.291E-01 0.987E-01
   -.494E+03 0.245E+03 0.163E+04   0.497E+03 -.249E+03 -.163E+04   -.203E+01 0.298E+01 -.251E+01   -.468E-01 0.163E-01 0.703E-02
   -.503E+03 -.966E+01 -.136E+04   0.504E+03 0.100E+02 0.135E+04   -.100E+01 -.553E+00 0.210E+01   -.784E-01 0.485E-01 0.943E-01
   -.338E+03 -.166E+03 -.487E+04   0.343E+03 0.168E+03 0.487E+04   -.459E+01 -.170E+01 -.236E+01   -.839E-01 0.458E-01 0.117E+00
   -.105E+04 0.169E+03 0.503E+04   0.105E+04 -.168E+03 -.503E+04   -.214E+01 -.474E+00 0.502E+01   0.115E-01 0.213E-01 0.177E-01
   0.341E+02 -.206E+03 0.809E+03   -.327E+02 0.205E+03 -.805E+03   -.851E+00 0.514E+00 -.203E+01   0.483E-01 -.261E-01 0.172E-01
   0.213E+03 -.384E+03 -.234E+04   -.213E+03 0.385E+03 0.234E+04   0.580E+00 -.998E+00 -.146E-03   0.264E-01 -.616E-01 0.251E+00
   -.177E+02 0.187E+02 -.561E+04   0.152E+02 -.145E+02 0.561E+04   0.296E+01 -.485E+01 0.890E+00   0.497E-02 -.249E-01 0.127E+00
   0.386E+03 0.207E+03 0.328E+04   -.389E+03 -.210E+03 -.328E+04   0.267E+01 0.323E+01 0.267E+01   0.940E-01 -.645E-01 -.706E-01
   0.306E+03 0.233E+03 -.489E+04   -.310E+03 -.236E+03 0.490E+04   0.357E+01 0.331E+01 -.220E+01   0.664E-01 -.340E-02 0.182E+00
   -.453E+03 -.311E+03 0.483E+04   0.455E+03 0.311E+03 -.483E+04   -.141E+01 -.305E+00 0.681E+01   -.255E-01 -.826E-01 -.136E-01
   0.274E+02 0.168E+03 0.204E+04   -.256E+02 -.167E+03 -.204E+04   -.164E+01 -.114E+01 0.280E+00   -.966E-02 -.128E+00 0.243E-02
   0.224E+03 0.414E+03 -.136E+04   -.225E+03 -.414E+03 0.136E+04   0.839E+00 0.210E+00 0.193E+01   -.360E-01 -.448E-01 0.114E+00
   -.488E+03 -.373E+03 0.179E+04   0.489E+03 0.376E+03 -.179E+04   -.121E+01 -.323E+01 -.428E+00   0.738E-02 -.474E-01 -.643E-01
   -.521E+03 -.811E+02 -.144E+04   0.523E+03 0.827E+02 0.144E+04   -.127E+01 -.153E+01 0.900E+00   0.810E-01 -.371E-01 0.136E+00
   -.346E+03 -.171E+03 -.489E+04   0.351E+03 0.173E+03 0.490E+04   -.458E+01 -.163E+01 -.213E+01   0.654E-01 -.229E-01 0.159E+00
   0.829E+03 -.394E+03 0.492E+04   -.834E+03 0.395E+03 -.492E+04   0.333E+01 -.789E+00 0.524E+01   0.407E-01 0.320E-01 -.754E-01
   0.288E+03 -.474E+03 0.726E+03   -.288E+03 0.476E+03 -.725E+03   -.169E+00 -.114E+01 -.136E+01   -.762E-01 0.794E-01 0.631E-02
   0.251E+03 -.402E+03 -.237E+04   -.252E+03 0.402E+03 0.237E+04   0.544E+00 -.838E+00 0.229E+00   -.147E-01 0.395E-01 0.227E+00
   -.886E+01 0.160E+02 -.562E+04   0.648E+01 -.120E+02 0.562E+04   0.286E+01 -.478E+01 0.698E+00   0.431E-03 0.719E-02 0.186E+00
   0.203E+03 -.689E+03 0.421E+04   -.205E+03 0.695E+03 -.421E+04   0.208E+01 -.555E+01 0.168E+01   -.418E-01 0.457E-03 0.246E-01
   0.299E+03 0.228E+03 -.488E+04   -.303E+03 -.231E+03 0.488E+04   0.354E+01 0.334E+01 -.221E+01   -.105E+00 0.178E-01 0.103E+00
   0.209E+03 0.508E+03 0.514E+04   -.210E+03 -.513E+03 -.514E+04   0.141E+01 0.388E+01 0.406E+01   -.395E-01 0.661E-01 0.739E-02
   0.534E+03 0.270E+03 0.180E+04   -.536E+03 -.270E+03 -.180E+04   0.174E+01 0.286E+00 0.227E-01   -.121E-01 -.370E-01 -.725E-01
   0.305E+03 0.424E+03 -.145E+04   -.307E+03 -.425E+03 0.144E+04   0.156E+01 0.233E+00 0.117E+01   0.196E-01 -.236E-01 0.941E-01
   -.247E+03 -.719E+02 0.183E+04   0.246E+03 0.709E+02 -.183E+04   0.509E+00 0.690E+00 -.526E+00   0.850E-01 0.998E-03 -.866E-01
   -.487E+03 -.546E+02 -.134E+04   0.488E+03 0.553E+02 0.134E+04   -.919E+00 -.838E+00 0.215E+01   -.583E-01 0.400E-02 0.120E+00
   -.335E+03 -.172E+03 -.487E+04   0.340E+03 0.174E+03 0.488E+04   -.451E+01 -.161E+01 -.229E+01   -.505E-01 0.643E-01 0.143E+00
   -.756E+03 -.261E+03 0.509E+04   0.761E+03 0.265E+03 -.509E+04   -.464E+01 -.259E+01 0.421E+01   -.217E-01 -.474E-01 -.245E-01
   -.661E+02 0.873E+02 0.189E+03   0.667E+02 -.886E+02 -.188E+03   -.643E+00 0.114E+01 -.357E+00   -.137E-01 0.362E-01 -.154E-02
   -.821E+02 0.126E+03 -.898E+03   0.833E+02 -.128E+03 0.893E+03   -.740E+00 0.130E+01 0.126E+01   0.247E-01 -.298E-01 0.606E-01
   0.117E+03 0.266E+03 0.178E+04   -.118E+03 -.269E+03 -.178E+04   0.142E+01 0.692E+00 0.355E+01   -.256E-01 0.283E-01 -.151E-02
   -.535E+01 0.882E+01 -.235E+04   0.587E+01 -.958E+01 0.235E+04   -.354E+00 0.515E+00 -.211E+01   0.479E-01 -.439E-01 0.443E-01
   -.124E+03 -.108E+03 -.157E+04   0.126E+03 0.109E+03 0.157E+04   -.158E+01 -.519E+00 -.148E+01   0.173E-02 0.285E-02 0.660E-01
   -.932E+02 -.139E+03 -.219E+03   0.948E+02 0.142E+03 0.219E+03   -.160E+01 -.273E+01 -.430E+00   0.391E-02 -.127E-01 0.285E-01
   -.826E+01 -.163E+03 0.139E+04   0.821E+01 0.166E+03 -.140E+04   0.895E+00 -.228E+01 0.222E+01   0.587E-01 0.155E-01 -.498E-01
   0.263E+03 0.305E+03 0.132E+04   -.266E+03 -.307E+03 -.132E+04   0.155E+01 -.133E+00 0.343E+01   0.510E-01 0.215E-01 -.232E-01
   0.166E+03 0.349E+02 -.190E+03   -.169E+03 -.348E+02 0.190E+03   0.277E+01 -.747E-01 0.336E-01   0.494E-01 -.785E-03 0.146E-01
   0.155E+03 0.668E+02 -.157E+04   -.157E+03 -.675E+02 0.157E+04   0.112E+01 0.105E+01 -.183E+01   0.504E-01 0.372E-01 0.667E-01
   -.582E+02 0.134E+03 0.314E+03   0.594E+02 -.137E+03 -.317E+03   -.109E+01 0.188E+01 0.273E+01   -.202E-01 0.293E-01 0.150E-01
   -.733E+02 0.124E+03 -.892E+03   0.746E+02 -.126E+03 0.888E+03   -.834E+00 0.129E+01 0.851E+00   -.279E-01 0.278E-01 0.483E-01
[...]
   0.151E+03 0.603E+02 -.157E+04   -.153E+03 -.611E+02 0.157E+04   0.110E+01 0.103E+01 -.185E+01   0.155E-01 0.145E-01 0.652E-01
   -.727E+02 0.950E+02 0.303E+03   0.742E+02 -.969E+02 -.306E+03   -.141E+01 0.186E+01 0.250E+01   -.155E-01 -.245E-01 0.940E-02
   -.759E+02 0.123E+03 -.896E+03   0.771E+02 -.125E+03 0.892E+03   -.768E+00 0.117E+01 0.849E+00   -.340E-01 -.224E-02 0.371E-01
   -.100E+03 0.133E+03 0.237E+04   0.101E+03 -.134E+03 -.238E+04   0.473E+00 0.596E+00 0.203E+01   -.486E-02 0.570E-02 -.146E-02
   0.394E+02 0.734E+02 0.176E+04   -.415E+02 -.753E+02 -.176E+04   0.762E+00 0.316E+01 0.261E+01   0.111E-01 -.140E-01 -.375E-01
   -.334E+01 0.670E+01 -.234E+04   0.386E+01 -.748E+01 0.235E+04   -.368E+00 0.524E+00 -.212E+01   0.212E-02 -.231E-01 0.494E-01
   -.125E+03 -.113E+03 -.156E+04   0.126E+03 0.114E+03 0.156E+04   -.153E+01 -.505E+00 -.166E+01   -.420E-01 0.129E-01 0.741E-01
   -.676E+02 -.173E+03 -.201E+03   0.689E+02 0.176E+03 0.201E+03   -.132E+01 -.242E+01 -.341E+00   -.663E-02 0.150E-01 0.303E-01
   -.399E+02 -.812E+02 0.219E+04   0.389E+02 0.821E+02 -.219E+04   0.153E+01 -.672E+00 0.360E+01   0.792E-03 0.403E-01 -.899E-02
   -.434E+02 -.168E+03 0.101E+04   0.443E+02 0.171E+03 -.101E+04   -.101E+01 -.154E+01 0.216E+01   -.711E-02 -.424E-02 -.560E-02
   0.342E+03 -.251E+03 0.238E+04   -.345E+03 0.254E+03 -.238E+04   0.133E+01 -.213E+01 0.118E+01   -.338E-01 -.195E-01 0.789E-02
   0.104E+03 -.255E+02 0.936E+03   -.103E+03 0.245E+02 -.934E+03   0.232E+00 0.643E+00 -.817E+00   -.338E-01 0.193E-01 -.620E-01
   0.193E+03 -.182E+02 -.203E+03   -.196E+03 0.185E+02 0.203E+03   0.289E+01 -.181E+00 0.202E+00   -.305E-01 0.170E-01 0.171E-01
   0.160E+03 0.602E+02 -.157E+04   -.162E+03 -.609E+02 0.157E+04   0.119E+01 0.103E+01 -.153E+01   0.580E-02 0.370E-01 0.935E-01
   -.154E+02 0.170E+02 -.715E+02   -.227E-12 -.218E-11 0.216E-10   0.155E+02 -.169E+02 0.678E+02   -.310E+00 -.896E-01 0.377E+01

 POSITION                                       TOTAL-FORCE (eV/Angst)
      5.35228      4.81788      5.50842         0.672303     -0.547565      1.257675
      5.93595      3.87238      8.44448        -0.122083      0.102582     -0.899265
      6.05851      3.67381     10.81302         0.393176     -0.693729      0.806568
      2.03860      1.10961      3.84221         0.235992     -0.561173     -0.807637
      0.82573      0.54840     10.27281        -0.530254     -0.028464      0.492341
      5.62834      4.36103      2.73956        -1.510421     -0.468439     -1.109390
      5.35228      2.40903      4.73270         0.045894     -0.358637      0.049975
      5.93595      1.46353      7.66876         0.090313     -0.026765     -0.070308
      1.87746      3.73836      4.73270         0.111307     -0.053692      0.223017
      2.46113      2.79286      7.66876         0.139740     -0.013522     -0.134212
      3.04700      1.91960     10.27291         0.212751      0.464713      0.538305
      8.02881      4.68414      2.51063        -0.160556     -0.307942     -0.051737
     10.98051      4.81788      5.50842        -0.072120      0.030158      0.000106
     11.56418      3.87238      8.44448        -0.045547      0.058151     -0.930478
     11.68643      3.67438     10.81283         0.440292     -0.703678      0.778381
      7.87456      0.73197      2.57236         0.282716      0.724690      2.099655
      6.45390      0.54846     10.27180        -0.565904      0.006078      0.451097
     10.39684      3.35453      1.79664        -0.647739     -1.547784      2.050013
     10.98051      2.40903      4.73270        -0.104723     -0.186293      0.172862
     11.56418      1.46353      7.66876        -0.071018     -0.196618     -0.051278
      7.50570      3.73836      4.73270         0.259598     -0.639087      0.601490
      8.08937      2.79286      7.66876        -0.035173     -0.131455     -0.066115
      8.67533      1.91978     10.27176         0.234719      0.514452      0.492342
     12.50759      4.61017      2.16787         1.652655      0.166168      0.704798
      7.87456      9.84929      5.50842         0.581168     -0.860807      1.396850
      8.45823      8.90379      8.44448        -0.061129      0.124761     -0.954973
      8.58067      8.70540     10.81292         0.460443     -0.679639      0.848827
      4.19611      6.02388      3.90197         0.259533     -0.258980     -0.201327
      3.34815      5.57985     10.27318        -0.511936     -0.004954      0.520213
      5.85067      7.37758      2.69751         0.115138     -0.914789      0.554039
      7.87456      7.44044      4.73270         0.219704      0.240855      0.062030
      8.45823      6.49494      7.66876         0.096098     -0.009487     -0.082140
      4.39975      8.76977      4.73270         0.068692      0.070048      0.432362
      4.98341      7.82427      7.66876         0.103772     -0.021911     -0.018647
      5.56928      6.95099     10.27312         0.238766      0.465810      0.479253
     10.54026      9.32404      2.53896        -1.365491      0.590405      0.133110
     13.50279      9.84929      5.50842         0.043132      0.194673      0.043112
     14.08646      8.90379      8.44448        -0.024846      0.101425     -0.971508
     14.20870      8.70580     10.81285         0.486071     -0.744184      0.799097
     10.39684      5.76338      2.57236        -0.525387      1.021623      2.074542
      8.97620      5.57989     10.27185        -0.541489      0.012235      0.457144
     12.91912      8.38594      1.79664        -0.262421     -1.131626      1.983358
     13.50279      7.44044      4.73270        -0.273510     -0.137037      0.326472
     14.08646      6.49494      7.66876        -0.028863     -0.143349     -0.120021
     10.02798      8.76977      4.73270        -0.174586     -0.245087      1.130654
     10.61165      7.82427      7.66876        -0.035836     -0.095293      0.021469
     11.19759      6.95119     10.27180         0.268385      0.519552      0.461520
     15.07254      9.71527      1.79664         0.078868      1.041979      2.520888
      1.66190      1.67871      5.87212        -0.079305     -0.076689      0.859295
      2.24556      0.73321      8.80817         0.500550     -0.743445     -3.131985
      6.70646      2.62422      2.93606         0.888127     -1.749769     -0.082311
      5.04056      5.32292     11.44947         0.212567     -0.285282      2.725003
      2.24556      3.80055      9.79595         0.092516      1.046563     -0.098051
      7.29013      4.74605      6.85989        -0.064124     -0.032829     -0.149103
      4.18418      0.66015      3.92384         0.907530      0.498884     -0.433772
      3.96438      3.99884      3.92384        -2.277449     -2.100878      0.600665
      4.54805      3.05334      6.85989         0.084061      0.013609      0.044709
      5.13172      2.10784      9.79595        -0.927734      0.325320     -0.163797
      7.29013      1.67871      5.87212         0.050565     -0.149179      0.332775
      7.87380      0.73321      8.80817         0.462863     -0.738446     -3.120628
[...]
      7.07033      8.08475      6.85989         0.005032      0.018958     -0.005098
      7.65400      7.13925      9.79595        -0.963126      0.300966     -0.141904
      9.81241      6.71012      5.87212        -0.015421     -0.053146      0.096688
     10.39608      5.76462      8.80817         0.438980     -0.731568     -3.117292
     14.17779      8.75474      0.27805         0.588362     -0.754959     -3.961871
     14.85697      7.65563      2.93606        -1.315504      1.237679     -0.951216
      8.14614      0.29211     11.44895         0.153372     -0.275759      2.752151
     10.39608      8.83196      9.79595         0.118342      0.998195     -0.120528
     15.44064      9.77746      6.85989        -0.021624     -0.028369      0.022290
     11.96696      6.53821      1.43568         0.525185      0.274183     -2.318162
     12.33469      5.69156      3.92384        -0.132201      0.969637      1.957180
     11.78075      9.96069      1.08972        -1.491559      1.028792     -3.564837
     12.11489      9.03025      3.92384         0.383663     -0.299412      1.031590
     12.69856      8.08475      6.85989        -0.076141      0.133220      0.009593
     13.28223      7.13925      9.79595        -0.977834      0.369099     -0.076731
    total drift:                               -0.207648     -0.013784      0.070452

  FREE ENERGIE OF THE ION-ELECTRON SYSTEM (eV)
  free  energy   TOTEN  =      -473.60651481 eV

  energy  without entropy=     -472.43413409  energy(sigma->0) =     -473.02032445