 vasp.5.4.4.18Apr17-6-g9f103f2a35 (build Aug 13 2019 17:33:20) gamma-only

 executed on             LinuxIFC date 2020.05.12  11:27:26

 INCAR:
 POTCAR:    PAW_PBE Ni_pv 06Sep2000
 POTCAR:    PAW_PBE S 06Sep2000
 POTCAR:    PAW_PBE Ni_pv 06Sep2000
   VRHFIN =Ni:

   TITEL  = PAW_PBE Ni_pv 06Sep2000
   POMASS =   58.690; ZVAL   =   16.000    mass and valenz
   ENMAX  =  367.986; ENMIN  =  275.989 eV

 POTCAR:    PAW_PBE S 06Sep2000
   VRHFIN =S : s2p4

   TITEL  = PAW_PBE S 06Sep2000
   POMASS =   32.066; ZVAL   =    6.000    mass and valenz
   ENMAX  =  258.689; ENMIN  =  194.016 eV

 Optimization of the real space projectors (new method)

 maximal supplied QI-value         = 18.90
 optimisation between [QCUT,QGAM] = [ 10.77, 21.73] = [ 32.49,132.25] Ry
 Optimized for a Real-space Cutoff    1.38 Angstroem

   l    n(q)    QCUT    max X(q) W(low)/X(q) W(high)/X(q)  e(spline)
   1      8    10.771     2.836    0.40E-04    0.29E-04    0.12E-06
   1      8    10.771     4.023    0.10E-03    0.48E-04    0.29E-06
   2      8    10.771    73.368    0.42E-03    0.97E-04    0.44E-06
   2      8    10.771    69.010    0.42E-03    0.99E-04    0.45E-06
   0      9    10.771    54.797    0.10E-03    0.56E-04    0.74E-07
   0      9    10.771    24.266    0.89E-04    0.49E-04    0.67E-07
 Optimization of the real space projectors (new method)

 maximal supplied QI-value         = 19.84
 optimisation between [QCUT,QGAM] = [ 10.71, 21.63] = [ 32.15,130.99] Ry
 Optimized for a Real-space Cutoff    1.19 Angstroem

   l    n(q)    QCUT    max X(q) W(low)/X(q) W(high)/X(q)  e(spline)
   0      8    10.715   187.594    0.41E-03    0.53E-04    0.66E-07
   0      8    10.715   164.243    0.41E-03    0.53E-04    0.65E-07
   1      7    10.715    67.533    0.19E-03    0.59E-03    0.68E-07
   1      7    10.715    50.729    0.19E-03    0.58E-03    0.67E-07
  PAW_PBE Ni_pv 06Sep2000               :
  PAW_PBE S 06Sep2000                   :

 POSCAR: Type_048 Type_148
  positions in cartesian coordinates
 exchange correlation table for  LEXCH =        8
   RHO(1)=    0.500       N(1)  =     2000
   RHO(2)=  100.500       N(2)  =     4000

 ion  position               nearest neighbor table
   1  0.256  0.016  0.152-  73 2.25  63 2.26  80 2.26  52 2.36  93 2.36
   2  0.256  0.016  0.481-  74 2.25  64 2.26  81 2.26  53 2.36  94 2.36  10 2.53   6 2.53
   3  0.006  0.266  0.317-  60 2.25  66 2.26  70 2.26  54 2.36  58 2.36   7 2.53  23 2.53
   4  0.014  0.262  0.638-  55 2.11  67 2.14  71 2.15  59 2.20   8 2.33  24 2.48
   5  0.338  0.851  0.064-  77 2.02  90 2.03  93 2.09  65 2.20  80 2.22  33 2.43
   6  0.256  0.016  0.394-  78 2.25  60 2.26  81 2.26  49 2.36  94 2.36   2 2.53  10 2.53
   7  0.006  0.266  0.230-  63 2.25  70 2.26  61 2.26  58 2.36  50 2.36   9 2.38   3 2.53  23 2.53

   8  0.006  0.266  0.558-  64 2.25  71 2.26  62 2.26   4 2.33  59 2.36  51 2.36  24 2.53
   9  0.190  0.297  0.161-  52 2.07  56 2.08  50 2.17  63 2.21   7 2.38
  10  0.190  0.215  0.438-  57 2.25  64 2.26  60 2.26  53 2.36  49 2.36   2 2.53   6 2.53
  11  0.440  0.465  0.273-  82 2.25  50 2.26  54 2.26  61 2.36  66 2.36  19 2.53  15 2.53
  12  0.440  0.465  0.602-  55 2.11  67 2.14  83 2.25  51 2.26  62 2.36  16 2.48  20 2.53
  13  0.756  0.016  0.152-  86 2.25  52 2.26  93 2.26  63 2.36  80 2.36
  14  0.756  0.016  0.481-  87 2.25  53 2.26  94 2.26  64 2.36  81 2.36  22 2.53  18 2.53
  15  0.506  0.266  0.317-  49 2.25  54 2.26  58 2.26  66 2.36  70 2.36  19 2.53  11 2.53
  16  0.514  0.262  0.638-  67 2.11  55 2.14  59 2.15  71 2.20  20 2.33  12 2.48
  17  0.838  0.851  0.065-  90 2.02  77 2.04  80 2.09  84 2.21  93 2.22  45 2.42
  18  0.756  0.016  0.394-  91 2.25  49 2.26  94 2.26  60 2.36  81 2.36  14 2.53  22 2.53
  19  0.506  0.266  0.230-  52 2.25  58 2.26  50 2.26  70 2.36  61 2.36  21 2.38  15 2.53  11 2.53

[...]

  34  0.190  0.715  0.438-  81 2.25  89 2.26  85 2.26  76 2.36  72 2.36  26 2.53  30 2.53
  35  0.440  0.965  0.273-  58 2.25  73 2.26  78 2.26  86 2.36  91 2.36  43 2.53  39 2.53
  36  0.440  0.965  0.602-  79 2.11  92 2.14  59 2.25  74 2.26  87 2.36  40 2.48  44 2.53
  37  0.756  0.516  0.152-  61 2.25  75 2.26  68 2.26  41 2.33  88 2.36  56 2.36
  38  0.756  0.516  0.481-  62 2.25  76 2.26  69 2.26  89 2.36  57 2.36  46 2.53  42 2.53
  39  0.506  0.766  0.317-  72 2.25  78 2.26  82 2.26  91 2.36  95 2.36  43 2.53  35 2.53
  40  0.514  0.762  0.638-  92 2.11  79 2.14  83 2.15  96 2.20  44 2.33  36 2.48
  41  0.742  0.521  0.073-  84 2.11  68 2.12  65 2.18  37 2.33  56 2.34  45 2.50
  42  0.756  0.516  0.394-  66 2.25  72 2.26  69 2.26  85 2.36  57 2.36  38 2.53  46 2.53
  43  0.506  0.766  0.230-  75 2.25  82 2.26  73 2.26  95 2.36  86 2.36  39 2.53  35 2.53
  44  0.506  0.766  0.558-  76 2.25  83 2.26  74 2.26  40 2.33  96 2.36  87 2.36  36 2.53
  45  0.666  0.720  0.113-  75 2.11  93 2.17  65 2.18  84 2.21  88 2.41  17 2.42  41 2.50
  46  0.690  0.715  0.438-  94 2.25  76 2.26  72 2.26  89 2.36  85 2.36  38 2.53  42 2.53
  47  0.940  0.965  0.273-  70 2.25  86 2.26  91 2.26  73 2.36  78 2.36  31 2.53  27 2.53
  48  0.940  0.965  0.602-  92 2.11  79 2.14  71 2.25  87 2.26  74 2.36  28 2.48  32 2.53
  49  0.468  0.167  0.382-  15 2.25  18 2.26  22 2.26   6 2.36  10 2.36
  50  0.218  0.417  0.218-   9 2.17  25 2.25  11 2.26  19 2.26  23 2.36   7 2.36
  51  0.218  0.417  0.547-  26 2.25  12 2.26  20 2.26  24 2.36   8 2.36
  52  0.468  0.167  0.164-   9 2.07  21 2.21  19 2.25  13 2.26   1 2.36
  53  0.468  0.167  0.493-  20 2.25  22 2.26  14 2.26  10 2.36   2 2.36
  54  0.218  0.417  0.329-  30 2.25  15 2.26  11 2.26   3 2.36  23 2.36
  55  0.218  0.391  0.642-   4 2.11  12 2.11  24 2.14  16 2.14  59 2.77
  56  0.053  0.414  0.109-   9 2.08  29 2.13  25 2.26  41 2.34  37 2.36
  57  0.053  0.414  0.438-  10 2.25  26 2.26  30 2.26  38 2.36  42 2.36
  58  0.303  0.164  0.273-  35 2.25  19 2.26  15 2.26   7 2.36   3 2.36
  59  0.303  0.164  0.602-  16 2.15   4 2.20  36 2.25  20 2.26   8 2.36  55 2.77
  60  0.968  0.167  0.382-   3 2.25   6 2.26  10 2.26  18 2.36  22 2.36
  61  0.718  0.417  0.218-  21 2.17  37 2.25  23 2.26   7 2.26  11 2.36  19 2.36
  62  0.718  0.417  0.547-  38 2.25  24 2.26   8 2.26  12 2.36  20 2.36
  63  0.968  0.167  0.164-  21 2.07   9 2.21   7 2.25   1 2.26  13 2.36
  64  0.968  0.167  0.493-   8 2.25  10 2.26   2 2.26  22 2.36  14 2.36
  65  0.441  0.653  0.067-  29 2.11  45 2.18  41 2.18  33 2.20   5 2.20
  66  0.718  0.417  0.329-  42 2.25   3 2.26  23 2.26  15 2.36  11 2.36
  67  0.718  0.391  0.642-  16 2.11  24 2.11  12 2.14   4 2.14  71 2.77
  68  0.553  0.414  0.109-  21 2.08  41 2.12  37 2.26  29 2.35  25 2.36
  69  0.553  0.414  0.438-  22 2.25  38 2.26  42 2.26  26 2.36  30 2.36
  70  0.803  0.164  0.273-  47 2.25   7 2.26   3 2.26  19 2.36  15 2.36
  71  0.803  0.164  0.602-   4 2.15  16 2.20  48 2.25   8 2.26  20 2.36  67 2.77
  72  0.468  0.667  0.382-  39 2.25  42 2.26  46 2.26  30 2.36  34 2.36
  73  0.218  0.917  0.218-   1 2.25  35 2.26  43 2.26  47 2.36  31 2.36
  74  0.218  0.917  0.547-   2 2.25  36 2.26  44 2.26  48 2.36  32 2.36
  75  0.468  0.667  0.164-  45 2.11  43 2.25  37 2.26  25 2.36  33 2.41
  76  0.468  0.667  0.493-  44 2.25  46 2.26  38 2.26  34 2.36  26 2.36
  77  0.087  0.857  0.020-   5 2.02  17 2.04  80 2.66
  78  0.218  0.917  0.329-   6 2.25  39 2.26  35 2.26  27 2.36  47 2.36
  79  0.218  0.891  0.642-  28 2.11  36 2.11  48 2.14  40 2.14  83 2.77
  80  0.053  0.914  0.109-  17 2.09  33 2.17   5 2.22   1 2.26  13 2.36  77 2.66
  81  0.053  0.914  0.438-  34 2.25   2 2.26   6 2.26  14 2.36  18 2.36
  82  0.303  0.664  0.273-  11 2.25  43 2.26  39 2.26  31 2.36  27 2.36
  83  0.303  0.664  0.602-  40 2.15  28 2.20  12 2.25  44 2.26  32 2.36  79 2.77
  84  0.940  0.653  0.066-  41 2.11  29 2.18  33 2.19  45 2.21  17 2.21
  85  0.968  0.667  0.382-  27 2.25  30 2.26  34 2.26  42 2.36  46 2.36
  86  0.718  0.917  0.218-  13 2.25  47 2.26  31 2.26  35 2.36  43 2.36
  87  0.718  0.917  0.547-  14 2.25  48 2.26  32 2.26  36 2.36  44 2.36
  88  0.968  0.667  0.164-  33 2.10  31 2.25  25 2.26  37 2.36  45 2.41
  89  0.968  0.667  0.493-  32 2.25  34 2.26  26 2.26  46 2.36  38 2.36
  90  0.588  0.856  0.021-  17 2.02   5 2.03  93 2.66
  91  0.718  0.917  0.329-  18 2.25  27 2.26  47 2.26  39 2.36  35 2.36
  92  0.718  0.891  0.642-  40 2.11  48 2.11  36 2.14  28 2.14  96 2.77
  93  0.553  0.914  0.109-   5 2.09  45 2.17  17 2.22  13 2.26   1 2.36  90 2.66
  94  0.553  0.914  0.438-  46 2.25  14 2.26  18 2.26   2 2.36   6 2.36
  95  0.803  0.664  0.273-  23 2.25  31 2.26  27 2.26  43 2.36  39 2.36
  96  0.803  0.664  0.602-  28 2.15  40 2.20  24 2.25  32 2.26  44 2.36  92 2.77

  LATTYP: Found a simple monoclinic cell.
 ALAT       =    13.8711386352
 B/A-ratio  =     2.1019774055
 C/A-ratio  =     1.3233367991
 COS(beta)  =    -0.9620914447

  Lattice vectors:

 A1 = (  -8.3714133957, -11.0601955134,   0.0000000000)
 A2 = (   0.0000000000,   0.0000000000, -29.1568200000)
 A3 = (  14.6499733957,  11.0601955134,   0.0000000000)

Analysis of symmetry for initial positions (statically):
 Subroutine PRICEL returns:
 Original cell was already a primitive cell.

 Routine SETGRP: Setting up the symmetry group for a
 simple monoclinic supercell.

 Subroutine GETGRP returns: Found  1 space group operations
 (whereof  1 operations were pure point group operations)
 out of a pool of  4 trial point group operations.

The static configuration has the point symmetry C_1 .

Analysis of symmetry for dynamics (positions and initial velocities):
 Subroutine PRICEL returns:
 Original cell was already a primitive cell.

 Routine SETGRP: Setting up the symmetry group for a
 simple monoclinic supercell.

 Subroutine GETGRP returns: Found  1 space group operations
 (whereof  1 operations were pure point group operations)
 out of a pool of  4 trial point group operations.

The dynamic configuration has the point symmetry C_1 .

 Subroutine INISYM returns: Found  1 space group operations
 (whereof  1 operations are pure point group operations),
 and found     1 'primitive' translations

 KPOINTS: gamma-point-only calculation. no periodi

Automatic generation of k-mesh.
Space group operators:
 irot       det(A)        alpha          n_x          n_y          n_z        tau_x        tau_y        tau_z
    1     1.000000     0.000000     1.000000     0.000000     0.000000     0.000000     0.000000     0.000000

 Subroutine IBZKPT returns following result:

 Found      1 irreducible k-points:

 Following reciprocal coordinates:
            Coordinates               Weight
  0.000000  0.000000  0.000000      1.000000

 Following cartesian coordinates:
            Coordinates               Weight
  0.000000  0.000000  0.000000      1.000000

 SYSTEM =  "Millerite NiS"
 POSCAR =  Type_048 Type_148

 Startparameter for this run:
   NWRITE =      2    write-flag & timer
   PREC   = normal    normal or accurate (medium, high low for compatibility)
   ISTART =      0    job   : 0-new  1-cont  2-samecut
   ICHARG =      2    charge: 1-file 2-atom 10-const
   ISPIN  =      1    spin polarized calculation?
   LNONCOLLINEAR =      F non collinear calculations
   LSORBIT =      F    spin-orbit coupling
[...]
     0.000000000  0.000000000 29.156820000     0.000000000  0.000000000  0.034297293

  length of vectors
     6.278560000 11.256463038 29.156820000     0.162098538  0.090414315  0.034297293

 FORCES acting on ions
    electron-ion (+dipol)            ewald-force                    non-local-force                 convergence-correction
   -.353E+02 -.396E+03 0.524E+04   0.339E+02 0.395E+03 -.524E+04   0.149E+01 0.171E+01 -.152E+01   -.363E-02 -.137E+00 -.263E+00
   -.413E+02 0.258E+03 -.337E+04   0.405E+02 -.258E+03 0.337E+04   0.991E+00 0.457E+00 -.776E+00   -.281E-02 -.579E-01 0.490E+00
   -.410E+02 0.310E+03 0.372E+03   0.401E+02 -.311E+03 -.371E+03   0.967E+00 0.694E+00 -.730E+00   -.136E-02 0.578E-01 -.334E+00
   -.127E+02 0.455E+03 -.732E+04   0.128E+02 -.457E+03 0.732E+04   -.139E+00 0.101E+01 0.560E+00   -.615E-03 0.909E-02 0.338E+00
   -.125E+02 -.110E+04 0.679E+04   0.105E+02 0.110E+04 -.680E+04   0.117E+01 -.372E+01 0.683E+01   0.114E-01 -.419E+00 0.227E-01
   -.413E+02 0.265E+03 -.468E+03   0.404E+02 -.265E+03 0.467E+03   0.965E+00 0.444E+00 0.113E+01   -.563E-02 -.856E-01 -.259E+00
   0.150E+02 0.558E+03 0.309E+04   -.154E+02 -.561E+03 -.309E+04   0.116E+00 0.244E+01 0.646E+00   -.360E-01 0.160E+00 -.564E+00
   -.370E+02 0.275E+03 -.418E+04   0.360E+02 -.276E+03 0.418E+04   0.118E+01 0.834E+00 0.214E+01   -.364E-02 0.823E-02 0.566E+00
   -.151E+02 0.627E+03 0.568E+04   0.140E+02 -.628E+03 -.568E+04   0.823E+00 0.108E+01 0.231E+01   0.305E-01 0.446E+00 -.744E+00
   -.411E+02 -.507E+03 -.193E+04   0.404E+02 0.508E+03 0.193E+04   0.895E+00 -.123E+01 0.928E-01   -.433E-02 0.107E+00 0.139E+00
   -.394E+02 -.566E+03 0.176E+04   0.390E+02 0.567E+03 -.176E+04   0.473E+00 -.126E+01 -.479E+00   -.291E-02 0.398E+00 -.651E+00
   -.283E+02 -.671E+03 -.590E+04   0.282E+02 0.675E+03 0.589E+04   0.225E+00 -.413E+01 -.338E+00   -.339E-02 -.165E-01 0.443E+00
   -.357E+02 -.397E+03 0.524E+04   0.343E+02 0.396E+03 -.523E+04   0.150E+01 0.170E+01 -.152E+01   -.942E-02 -.133E+00 -.265E+00
   -.413E+02 0.258E+03 -.337E+04   0.405E+02 -.258E+03 0.337E+04   0.991E+00 0.457E+00 -.777E+00   -.224E-02 -.588E-01 0.492E+00
   -.410E+02 0.310E+03 0.372E+03   0.402E+02 -.311E+03 -.371E+03   0.966E+00 0.693E+00 -.731E+00   0.109E-02 0.551E-01 -.336E+00
   -.127E+02 0.455E+03 -.732E+04   0.128E+02 -.457E+03 0.732E+04   -.139E+00 0.101E+01 0.560E+00   -.148E-03 0.867E-02 0.338E+00
   -.198E+02 -.110E+04 0.679E+04   0.182E+02 0.110E+04 -.680E+04   0.967E+00 -.368E+01 0.683E+01   -.958E-02 -.405E+00 0.424E-01
   -.413E+02 0.265E+03 -.468E+03   0.404E+02 -.265E+03 0.467E+03   0.965E+00 0.444E+00 0.113E+01   -.541E-02 -.861E-01 -.262E+00
   0.147E+02 0.558E+03 0.309E+04   -.151E+02 -.561E+03 -.309E+04   0.114E+00 0.245E+01 0.642E+00   -.110E-01 0.150E+00 -.571E+00
   -.370E+02 0.275E+03 -.418E+04   0.360E+02 -.276E+03 0.418E+04   0.118E+01 0.834E+00 0.214E+01   -.241E-02 0.842E-02 0.567E+00
   -.144E+02 0.627E+03 0.568E+04   0.132E+02 -.628E+03 -.568E+04   0.827E+00 0.106E+01 0.232E+01   0.288E-01 0.430E+00 -.746E+00
   -.411E+02 -.507E+03 -.193E+04   0.404E+02 0.508E+03 0.193E+04   0.895E+00 -.123E+01 0.929E-01   -.376E-02 0.109E+00 0.138E+00
   -.393E+02 -.566E+03 0.176E+04   0.390E+02 0.567E+03 -.176E+04   0.475E+00 -.126E+01 -.478E+00   -.868E-02 0.404E+00 -.651E+00
   -.283E+02 -.671E+03 -.590E+04   0.282E+02 0.675E+03 0.589E+04   0.225E+00 -.413E+01 -.338E+00   -.426E-02 -.166E-01 0.443E+00
   -.916E+02 0.241E+03 0.445E+04   0.922E+02 -.240E+03 -.445E+04   -.279E+00 -.686E+00 -.864E+00   0.516E-02 0.292E+00 -.590E+00
   -.413E+02 0.254E+03 -.338E+04   0.405E+02 -.255E+03 0.338E+04   0.973E+00 0.510E+00 -.740E+00   -.396E-02 -.141E-01 0.441E+00
   -.413E+02 0.213E+03 0.428E+03   0.404E+02 -.213E+03 -.427E+03   0.956E+00 0.496E+00 -.111E+01   -.526E-02 -.106E+00 -.633E+00
   -.126E+02 0.454E+03 -.732E+04   0.128E+02 -.456E+03 0.731E+04   -.143E+00 0.101E+01 0.555E+00   0.300E-03 -.266E-02 0.287E+00
   -.170E+02 0.113E+04 0.743E+04   0.155E+02 -.113E+04 -.743E+04   0.177E+01 0.115E+01 -.296E+01   0.956E-02 0.864E-01 0.121E+00
   -.413E+02 0.250E+03 -.495E+03   0.404E+02 -.250E+03 0.494E+03   0.960E+00 0.644E+00 0.130E+01   -.663E-02 0.379E-01 -.276E+00
   -.405E+02 0.105E+03 0.332E+04   0.396E+02 -.105E+03 -.332E+04   0.100E+01 0.531E+00 0.129E+01   -.139E-01 -.202E+00 -.664E+00
   -.370E+02 0.273E+03 -.418E+04   0.360E+02 -.274E+03 0.418E+04   0.118E+01 0.829E+00 0.213E+01   -.355E-02 -.743E-02 0.556E+00
   -.628E+01 -.430E+03 0.531E+04   0.698E+01 0.434E+03 -.531E+04   -.214E+00 -.493E+01 -.248E+01   -.138E-01 -.610E+00 -.547E-01
   -.411E+02 -.522E+03 -.192E+04   0.404E+02 0.523E+03 0.192E+04   0.883E+00 -.124E+01 0.541E-01   -.528E-02 0.359E-01 0.769E-01
   -.412E+02 -.522E+03 0.197E+04   0.405E+02 0.523E+03 -.197E+04   0.848E+00 -.133E+01 0.549E-01   0.889E-02 -.227E+00 -.607E+00
   -.283E+02 -.674E+03 -.589E+04   0.282E+02 0.678E+03 0.589E+04   0.230E+00 -.414E+01 -.343E+00   -.378E-02 -.567E-01 0.430E+00
   -.909E+02 0.240E+03 0.445E+04   0.915E+02 -.239E+03 -.445E+04   -.276E+00 -.710E+00 -.878E+00   -.177E-02 0.293E+00 -.586E+00
   -.413E+02 0.254E+03 -.338E+04   0.405E+02 -.255E+03 0.338E+04   0.972E+00 0.510E+00 -.740E+00   -.337E-02 -.144E-01 0.443E+00
   -.413E+02 0.213E+03 0.428E+03   0.404E+02 -.213E+03 -.427E+03   0.954E+00 0.496E+00 -.111E+01   -.167E-02 -.107E+00 -.627E+00
   -.126E+02 0.454E+03 -.732E+04   0.128E+02 -.456E+03 0.731E+04   -.143E+00 0.101E+01 0.555E+00   0.588E-04 -.288E-02 0.285E+00
   -.168E+02 0.113E+04 0.743E+04   0.156E+02 -.113E+04 -.743E+04   0.159E+01 0.118E+01 -.292E+01   0.350E-02 0.929E-01 0.138E+00
   -.413E+02 0.250E+03 -.495E+03   0.404E+02 -.250E+03 0.494E+03   0.960E+00 0.646E+00 0.130E+01   -.449E-02 0.379E-01 -.276E+00
   -.398E+02 0.105E+03 0.332E+04   0.389E+02 -.105E+03 -.332E+04   0.100E+01 0.538E+00 0.129E+01   0.107E-01 -.211E+00 -.664E+00
   -.370E+02 0.273E+03 -.418E+04   0.360E+02 -.274E+03 0.418E+04   0.118E+01 0.828E+00 0.213E+01   -.417E-02 -.827E-02 0.558E+00
   -.119E+01 -.427E+03 0.531E+04   0.194E+01 0.432E+03 -.530E+04   -.316E+00 -.498E+01 -.253E+01   -.721E-02 -.608E+00 -.446E-01
   -.411E+02 -.522E+03 -.192E+04   0.404E+02 0.523E+03 0.192E+04   0.883E+00 -.124E+01 0.544E-01   -.622E-02 0.351E-01 0.765E-01
   -.413E+02 -.522E+03 0.197E+04   0.406E+02 0.523E+03 -.197E+04   0.848E+00 -.133E+01 0.543E-01   -.123E-01 -.230E+00 -.616E+00
   -.283E+02 -.674E+03 -.589E+04   0.282E+02 0.678E+03 0.589E+04   0.230E+00 -.414E+01 -.343E+00   -.351E-02 -.546E-01 0.429E+00
   0.397E+02 -.759E+02 -.101E+03   -.404E+02 0.770E+02 0.986E+02   0.542E+00 -.136E+01 0.266E+01   -.550E-02 0.213E-01 -.994E-01
   0.183E+02 -.177E+03 0.121E+04   -.182E+02 0.180E+03 -.121E+04   -.299E+00 -.275E+01 0.991E+00   0.331E-02 0.260E+00 -.297E+00
   0.391E+02 -.984E+02 -.152E+04   -.399E+02 0.997E+02 0.151E+04   0.761E+00 -.135E+01 0.218E+01   -.169E-02 -.240E-01 0.221E+00
   0.546E+01 0.223E+03 0.206E+04   -.656E+01 -.224E+03 -.206E+04   0.220E+01 -.627E+00 0.249E+01   0.218E-01 -.366E-01 -.231E+00
   0.399E+02 -.796E+02 -.134E+04   -.405E+02 0.806E+02 0.134E+04   0.480E+00 -.131E+01 -.253E+01   -.291E-02 0.380E-01 0.217E+00
   0.394E+02 -.833E+02 0.554E+02   -.404E+02 0.846E+02 -.535E+02   0.960E+00 -.164E+01 -.210E+01   -.456E-02 0.864E-01 -.174E+00
   0.656E-01 -.193E+03 -.281E+04   -.434E+00 0.197E+03 0.282E+04   0.369E+00 -.233E+01 -.436E+01   -.519E-03 -.116E-01 0.142E+00
   0.730E+02 0.517E+03 0.255E+04   -.745E+02 -.522E+03 -.256E+04   0.269E+00 0.559E+01 0.147E+01   -.715E-02 0.213E+00 -.124E+00
   0.396E+02 0.167E+03 -.725E+03   -.404E+02 -.169E+03 0.725E+03   0.716E+00 0.275E+01 0.344E-01   -.438E-02 -.488E-02 0.407E-01
   0.387E+02 0.222E+03 0.703E+03   -.396E+02 -.225E+03 -.703E+03   0.761E+00 0.274E+01 -.814E-02   -.248E-02 -.909E-01 -.153E+00
   0.364E+02 0.238E+03 -.219E+04   -.366E+02 -.241E+03 0.219E+04   0.906E-01 0.204E+01 -.102E+00   -.401E-03 0.220E-01 0.163E+00
   0.397E+02 -.759E+02 -.101E+03   -.404E+02 0.770E+02 0.986E+02   0.542E+00 -.136E+01 0.266E+01   -.429E-02 0.207E-01 -.986E-01
[...]
   0.364E+02 0.238E+03 -.219E+04   -.366E+02 -.241E+03 0.219E+04   0.885E-01 0.204E+01 -.117E+00   0.270E-03 0.306E-01 0.147E+00
   -.174E+02 0.117E+03 0.279E+04   0.170E+02 -.118E+03 -.279E+04   0.662E+00 0.140E+01 0.293E+01   0.129E-03 -.184E+00 0.686E-01
   0.398E+02 -.901E+02 -.102E+03   -.404E+02 0.911E+02 0.100E+03   0.500E+00 -.128E+01 0.258E+01   -.330E-02 0.147E-01 -.151E+00
   0.396E+02 -.147E+03 0.140E+04   -.403E+02 0.149E+03 -.140E+04   0.558E+00 -.158E+01 0.253E+01   0.413E-02 -.121E+00 -.206E+00
   0.391E+02 -.989E+02 -.152E+04   -.399E+02 0.100E+03 0.151E+04   0.764E+00 -.135E+01 0.218E+01   -.141E-02 -.511E-01 0.231E+00
   0.636E+02 -.984E+02 0.145E+04   -.643E+02 0.998E+02 -.145E+04   -.268E-01 -.178E+01 -.134E+01   -.174E-02 -.113E+00 -.198E+00
   0.399E+02 -.818E+02 -.134E+04   -.405E+02 0.828E+02 0.134E+04   0.427E+00 -.131E+01 -.249E+01   -.170E-02 0.321E-01 0.214E+00
   0.196E+01 -.287E+03 0.276E+04   -.141E+01 0.288E+03 -.276E+04   -.502E+00 -.314E+00 0.165E+01   -.170E-02 -.807E-01 -.616E-01
   0.396E+02 -.869E+02 0.902E+02   -.404E+02 0.881E+02 -.877E+02   0.648E+00 -.147E+01 -.265E+01   -.309E-02 -.568E-01 -.206E+00
   0.656E-01 -.195E+03 -.281E+04   -.434E+00 0.198E+03 0.282E+04   0.367E+00 -.234E+01 -.437E+01   -.690E-03 -.165E-01 0.126E+00
   0.761E+01 -.503E+03 0.212E+04   -.777E+01 0.505E+03 -.212E+04   0.117E+01 -.900E+00 0.121E+01   0.265E-01 -.903E-01 0.208E-01
   0.395E+02 0.166E+03 -.719E+03   -.404E+02 -.168E+03 0.719E+03   0.719E+00 0.270E+01 0.932E-01   -.617E-02 -.509E-01 0.444E-01
   0.395E+02 0.135E+03 0.691E+03   -.404E+02 -.137E+03 -.690E+03   0.715E+00 0.249E+01 -.190E+00   0.576E-03 0.358E-02 -.290E+00
   0.364E+02 0.238E+03 -.219E+04   -.366E+02 -.241E+03 0.219E+04   0.884E-01 0.204E+01 -.116E+00   -.903E-03 0.304E-01 0.147E+00
   -.598E+02 0.227E+02 -.144E+02   -.462E-12 0.134E-11 -.159E-10   0.600E+02 -.216E+02 0.190E+02   -.180E+00 -.105E+01 -.453E+01

 POSITION                                       TOTAL-FORCE (eV/Angst)
      1.64370      0.18204      4.44331         0.073807      0.285778      0.749884
      1.64370      0.18204     14.02172         0.109926      0.121737     -0.364334
      0.59727      2.94708      9.23251         0.112431      0.144403     -0.275370
      0.63825      2.89373     18.60505         0.029506     -0.614459     -0.097465
      3.90502      9.41286      1.88033        -0.874287     -0.047015      0.580359
      1.64370      0.18204     11.49105         0.111148      0.149735      0.338332
      0.59727      2.94708      6.70184        -0.302966     -0.441011      1.391357
      0.59727      2.94708     16.28025         0.093860      0.242493     -1.034608
      1.81744      3.28839      4.68557        -0.284033     -0.164055     -0.233408
      1.64370      2.37366     12.75638         0.182550     -0.359594      0.002359
      3.73655      5.13871      7.96718         0.148469     -0.300908      0.106193
      3.73655      5.13871     17.54559         0.081529      0.007712     -2.114266
      4.78298      0.18204      4.44331         0.073452      0.284461      0.747195
      4.78298      0.18204     14.02172         0.109947      0.121818     -0.364241
      3.73655      2.94708      9.23251         0.112608      0.143783     -0.275928
      3.77753      2.89373     18.60505         0.029556     -0.614473     -0.097381
      7.04160      9.41250      1.88405        -0.719895     -0.035482      0.478254
      4.78298      0.18204     11.49105         0.111046      0.149803      0.338392
      3.73655      2.94708      6.70184        -0.300678     -0.438700      1.390325
      3.73655      2.94708     16.28025         0.093842      0.242492     -1.034547
      4.95687      3.28738      4.68465        -0.287171     -0.158851     -0.226585
      4.78298      2.37366     12.75638         0.182584     -0.359629      0.002266
      6.87583      5.13871      7.96718         0.148970     -0.301120      0.105621
      6.87583      5.13871     17.54559         0.081601      0.007775     -2.114225
      2.69013      5.71213      4.44331         0.290225      0.663768      0.738669
      2.69013      5.71213     14.02172         0.118265      0.123162     -0.354109
      1.64370      8.47718      9.23251         0.070384      0.173222     -0.375732
      1.68468      8.42383     18.60505         0.031416     -0.611308     -0.096367
      2.61184      5.76772      2.10914         0.298246      0.139169     -0.086613
      2.69013      5.71213     11.49105         0.089775      0.143412      0.326249
      1.64370      8.47718      6.70184         0.087801      0.089320      0.497328
      1.64370      8.47718     16.28025         0.086798      0.241284     -1.033663
      2.54349      7.96375      3.28324         0.467531     -1.197043      1.475227
      2.69013      7.90376     12.75638         0.173981     -0.354090     -0.018371
      4.78298     10.66881      7.96718         0.138496     -0.430496      0.077357
      4.78298     10.66881     17.54559         0.081784      0.008339     -2.116114
      5.82941      5.71213      4.44331         0.299378      0.662919      0.796877
      5.82941      5.71213     14.02172         0.118221      0.123322     -0.354032
      4.78298      8.47718      9.23251         0.070311      0.173305     -0.375059
      4.82396      8.42383     18.60505         0.031406     -0.611299     -0.096205
      5.74895      5.76215      2.11712         0.353877      0.194339     -0.178474
      5.82941      5.71213     11.49105         0.089555      0.143329      0.326098
      4.78298      8.47718      6.70184         0.086545      0.088622      0.496407
      4.78298      8.47718     16.28025         0.086779      0.241218     -1.033871
      5.68998      7.96754      3.28499         0.420558     -1.275070      1.530260
      5.82941      7.90376     12.75638         0.173876     -0.354173     -0.018377
      7.92226     10.66881      7.96718         0.138584     -0.430043      0.077682
      7.92226     10.66881     17.54559         0.081802      0.008136     -2.115983
      3.28961      1.84282     11.14515        -0.156792     -0.237580      0.380208
      2.24318      4.60787      6.35595        -0.235229      0.509131      0.659882
      2.24318      4.60787     15.93436        -0.083447     -0.078389     -0.266132
      3.28961      1.84282      4.78920         1.109556     -1.468602     -0.343296
      3.28961      1.84282     14.36761        -0.121333     -0.208713     -0.404546
      2.24318      4.60787      9.57841        -0.001638     -0.274717     -0.389180
      2.18559      4.32168     18.72375         0.000057      1.279523      3.822894
      1.19676      4.58218      3.17797        -1.253553      0.132443     -1.181487
      1.19676      4.58218     12.75638        -0.132255      0.532308      0.012474
      2.24318      1.81714      7.96718        -0.115460      0.577031      0.048712
      2.24318      1.81714     17.54559        -0.118200     -0.816672     -0.011661
      6.42889      1.84282     11.14515        -0.156624     -0.237468      0.380272
[...]
      3.28961      7.34723      7.96718        -0.151524      0.439690     -0.053703
      3.28961      7.34723     17.54559        -0.115827     -0.819378     -0.015713
      7.26798      7.21723      1.93681         0.313832     -0.164515     -2.146991
      7.47532      7.37292     11.14515        -0.116411     -0.256065      0.410150
      6.42889     10.13797      6.35595        -0.100286     -0.019406     -0.013299
      6.42889     10.13797     15.93436        -0.080379     -0.075444     -0.265647
      7.47532      7.37292      4.78920        -0.730379     -0.482818      1.051819
      7.47532      7.37292     14.36761        -0.119783     -0.210850     -0.399851
      5.48119      9.46787      0.59897         0.046588      0.598075     -3.903120
      6.42889     10.13797      9.57841        -0.138674     -0.274954     -0.439099
      6.37129      9.85178     18.72375        -0.002531      1.277482      3.820292
      5.38246     10.11228      3.17797         1.027154      1.520618      1.525410
      5.38246     10.11228     12.75638        -0.144427      0.524521      0.023190
      6.42889      7.34723      7.96718        -0.151443      0.440421     -0.054516
      6.42889      7.34723     17.54559        -0.115607     -0.819382     -0.015725
    total drift:                               -0.007004     -0.008027      0.099562

  FREE ENERGIE OF THE ION-ELECTRON SYSTEM (eV)
  free  energy   TOTEN  =      -479.31142994 eV

  energy  without entropy=     -478.09344523  energy(sigma->0) =     -478.70243758