 vasp.5.4.4.18Apr17-6-g9f103f2a35 (build Aug 13 2019 17:33:20) gamma-only

 executed on             LinuxIFC date 2020.05.12  19:48:52

 INCAR:
 POTCAR:    PAW_PBE Ni_pv 06Sep2000
 POTCAR:    PAW_PBE S 06Sep2000
 POTCAR:    PAW_PBE Ni_pv 06Sep2000
   VRHFIN =Ni:

   TITEL  = PAW_PBE Ni_pv 06Sep2000
   POMASS =   58.690; ZVAL   =   16.000    mass and valenz
   ENMAX  =  367.986; ENMIN  =  275.989 eV

 POTCAR:    PAW_PBE S 06Sep2000
   VRHFIN =S : s2p4

   TITEL  = PAW_PBE S 06Sep2000
   POMASS =   32.066; ZVAL   =    6.000    mass and valenz
   ENMAX  =  258.689; ENMIN  =  194.016 eV

 Optimization of the real space projectors (new method)

 maximal supplied QI-value         = 18.90
 optimisation between [QCUT,QGAM] = [ 10.77, 21.73] = [ 32.49,132.25] Ry
 Optimized for a Real-space Cutoff    1.38 Angstroem

   l    n(q)    QCUT    max X(q) W(low)/X(q) W(high)/X(q)  e(spline)
   1      8    10.771     2.836    0.40E-04    0.29E-04    0.12E-06
   1      8    10.771     4.023    0.10E-03    0.48E-04    0.29E-06
   2      8    10.771    73.368    0.42E-03    0.97E-04    0.44E-06
   2      8    10.771    69.010    0.42E-03    0.99E-04    0.45E-06
   0      9    10.771    54.797    0.10E-03    0.56E-04    0.74E-07
   0      9    10.771    24.266    0.89E-04    0.49E-04    0.67E-07
 Optimization of the real space projectors (new method)

 maximal supplied QI-value         = 19.84
 optimisation between [QCUT,QGAM] = [ 10.71, 21.63] = [ 32.15,130.99] Ry
 Optimized for a Real-space Cutoff    1.19 Angstroem

   l    n(q)    QCUT    max X(q) W(low)/X(q) W(high)/X(q)  e(spline)
   0      8    10.715   187.594    0.41E-03    0.53E-04    0.66E-07
   0      8    10.715   164.243    0.41E-03    0.53E-04    0.65E-07
   1      7    10.715    67.533    0.19E-03    0.59E-03    0.68E-07
   1      7    10.715    50.729    0.19E-03    0.58E-03    0.67E-07
  PAW_PBE Ni_pv 06Sep2000               :
  PAW_PBE S 06Sep2000                   :

 POSCAR: Type_036 Type_136
  positions in cartesian coordinates
 exchange correlation table for  LEXCH =        8
   RHO(1)=    0.500       N(1)  =     2000
   RHO(2)=  100.500       N(2)  =     4000

 ion  position               nearest neighbor table
   1  0.169  0.966  0.088-  61 2.04  41 2.11  42 2.20  17 2.31  60 2.44   2 2.47
   2  0.397  0.795  0.127-  49 2.00  61 2.18  42 2.25  50 2.36  62 2.36   1 2.47  26 2.47
   3  0.547  0.645  0.254-  43 2.25  62 2.26  50 2.26  63 2.36  51 2.36  27 2.53  14 2.53
   4  0.698  0.494  0.381-  64 2.17  44 2.25  51 2.26  63 2.26  52 2.36  15 2.53  28 2.53
   5  0.827  0.345  0.485-  52 2.00  64 2.00  16 2.46  25 2.49
   6  0.114  0.412  0.169-  68 2.12  53 2.13  45 2.25  65 2.36  54 2.36  21 2.47  29 2.53  17 2.53

   7  0.264  0.261  0.296-  46 2.25  65 2.26  54 2.26  55 2.36  66 2.36  18 2.53  30 2.53
   8  0.414  0.111  0.423-  56 2.10  67 2.14  55 2.26  66 2.26  47 2.30  31 2.53  19 2.53
   9  0.098  0.783  0.451-  58 2.04  59 2.07  72 2.09  37 2.13
  10  0.546  0.222  0.149-  69 2.03  70 2.13  38 2.13  54 2.13  14 2.40  36 2.51
  11  0.831  0.028  0.212-  70 2.11  39 2.25  60 2.26  57 2.36  71 2.36  23 2.53  33 2.53
  12  0.981  0.878  0.338-  40 2.25  57 2.26  71 2.26  58 2.36  72 2.36  34 2.53  24 2.53
  13  0.369  0.548  0.113-  62 2.06  38 2.15  61 2.15  53 2.16  26 2.53
  14  0.508  0.420  0.220-  54 2.25  62 2.26  38 2.26  39 2.36  63 2.36  10 2.40  27 2.53   3 2.53

  15  0.658  0.270  0.347-  64 2.06  55 2.25  63 2.26  39 2.26  40 2.36   4 2.53  28 2.53
  16  0.789  0.123  0.458-  40 2.03  37 2.11  56 2.12  64 2.17   5 2.46
  17  0.074  0.187  0.136-  41 2.09  68 2.14  60 2.25   1 2.31  42 2.36  65 2.36  21 2.46   6 2.53
                            29 2.53
  18  0.224  0.037  0.263-  57 2.25  42 2.26  65 2.26  66 2.36  43 2.36   7 2.53  30 2.53
  19  0.375  0.886  0.390-  67 2.02  58 2.25  66 2.26  43 2.26  20 2.32  44 2.36  31 2.53   8 2.53

[...]

  32  0.734  0.817  0.452-  56 2.04  44 2.05  72 2.05  31 2.43
  33  0.015  0.843  0.144-  48 2.05  61 2.14  60 2.26  45 2.36  57 2.36  23 2.53  11 2.53
  34  0.166  0.693  0.271-  62 2.25  57 2.26  45 2.26  46 2.36  58 2.36  12 2.53  24 2.53
  35  0.316  0.543  0.398-  59 2.06  47 2.13  63 2.25  58 2.26  46 2.26  22 2.51
  36  0.739  0.024  0.095-  48 2.04  70 2.07  60 2.11  69 2.21  10 2.51
  37  0.001  0.998  0.481-  16 2.11  25 2.12   9 2.13  40 2.60
  38  0.586  0.406  0.117-  26 2.03  10 2.13  13 2.15  14 2.26  27 2.26
  39  0.736  0.256  0.244-  11 2.25  28 2.26  15 2.26  14 2.36  27 2.36
  40  0.886  0.105  0.371-  16 2.03  25 2.05  12 2.25  15 2.36  28 2.36  37 2.60
  41  0.165  0.155  0.043-  21 2.05  17 2.09   1 2.11  29 2.12
  42  0.303  0.023  0.160-   1 2.20   2 2.25  30 2.26  18 2.26  17 2.36  29 2.36
  43  0.453  0.872  0.286-   3 2.25  19 2.26  31 2.26  18 2.36  30 2.36
  44  0.603  0.722  0.413-  32 2.05  20 2.11   4 2.25  31 2.36  19 2.36  67 2.79
  45  0.019  0.639  0.202-   6 2.25  24 2.26  34 2.26  23 2.36  33 2.36
  46  0.170  0.489  0.329-  22 2.03   7 2.25  35 2.26  34 2.36  24 2.36  47 2.57
  47  0.292  0.351  0.430-  35 2.13  22 2.15   8 2.30  46 2.57
  48  0.863  0.815  0.086-  36 2.04  23 2.05  33 2.05
  49  0.455  0.754  0.034-  26 1.99   2 2.00  61 2.75
  50  0.636  0.692  0.160-  26 2.03  23 2.25  27 2.26   3 2.26   2 2.36
  51  0.787  0.542  0.287-  24 2.25   4 2.26  28 2.26  27 2.36   3 2.36
  52  0.937  0.391  0.414-   5 2.00  25 2.14  22 2.20   4 2.36  28 2.36
  53  0.220  0.447  0.086-  21 2.07  29 2.10   6 2.13  13 2.16
  54  0.353  0.308  0.202-  10 2.13  14 2.25   7 2.26  30 2.26  29 2.36   6 2.36
  55  0.503  0.158  0.329-  15 2.25   8 2.26  31 2.26   7 2.36  30 2.36  56 2.76
  56  0.633  0.031  0.442-  32 2.04   8 2.10  16 2.12  31 2.16  55 2.76
  57  0.070  0.925  0.245-  18 2.25  34 2.26  12 2.26  11 2.36  33 2.36
  58  0.220  0.775  0.372-   9 2.04  19 2.25  35 2.26  34 2.36  12 2.36  59 2.75
  59  0.283  0.636  0.488-  20 2.03  35 2.06   9 2.07  58 2.75
  60  0.920  0.075  0.118-  36 2.11  17 2.25  11 2.26  33 2.26   1 2.44
  61  0.211  0.753  0.093-   1 2.04  33 2.14  13 2.15   2 2.18  62 2.70  49 2.75
  62  0.350  0.641  0.203-  13 2.06  34 2.25  14 2.26   3 2.26   2 2.36  61 2.70
  63  0.501  0.491  0.330-  35 2.25   4 2.26  15 2.26   3 2.36  14 2.36
  64  0.651  0.340  0.441-   5 2.00  15 2.06  16 2.17   4 2.17
  65  0.067  0.258  0.245-  28 2.25   7 2.26  18 2.26   6 2.36  17 2.36
  66  0.218  0.108  0.372-  25 2.13  19 2.26   8 2.26  18 2.36   7 2.36
  67  0.402  0.941  0.481-  19 2.02  20 2.11   8 2.14  44 2.79
  68  0.924  0.399  0.131-  21 2.07   6 2.12  17 2.14  27 2.14
  69  0.515  0.129  0.066-  10 2.03  29 2.18  36 2.21  70 2.75
  70  0.639  0.008  0.181-  30 2.06  36 2.07  23 2.09  11 2.11  10 2.13  71 2.72  69 2.75
  71  0.784  0.874  0.287-  31 2.25  24 2.26  12 2.26  23 2.36  11 2.36  70 2.72
  72  0.934  0.724  0.414-  32 2.05   9 2.09  22 2.16  12 2.36  24 2.36

  LATTYP: Found a base centered orthorhombic cell.
 ALAT       =    11.4527836704
 B/A-ratio  =     1.4485816945
 C/A-ratio  =     1.8059804630

  Lattice vectors:

 A1 = (  10.0797329849,   0.0000000000,   0.0000000000)
 A2 = (  -3.5732980427,  -9.4251025535,   0.0000000000)
 A3 = (   0.0000000000,   0.0000000000, -20.6835035552)

Analysis of symmetry for initial positions (statically):
 Subroutine PRICEL returns:
 Original cell was already a primitive cell.

 Routine SETGRP: Setting up the symmetry group for a
 base centered orthorhombic supercell.

 Subroutine GETGRP returns: Found  1 space group operations
 (whereof  1 operations were pure point group operations)
 out of a pool of  8 trial point group operations.

The static configuration has the point symmetry C_1 .

Analysis of symmetry for dynamics (positions and initial velocities):
 Subroutine PRICEL returns:
 Original cell was already a primitive cell.

 Routine SETGRP: Setting up the symmetry group for a
 base centered orthorhombic supercell.

 Subroutine GETGRP returns: Found  1 space group operations
 (whereof  1 operations were pure point group operations)
 out of a pool of  8 trial point group operations.

The dynamic configuration has the point symmetry C_1 .

 Subroutine INISYM returns: Found  1 space group operations
 (whereof  1 operations are pure point group operations),
 and found     1 'primitive' translations

 KPOINTS: gamma-point-only calculation. no periodi

Automatic generation of k-mesh.
Space group operators:
 irot       det(A)        alpha          n_x          n_y          n_z        tau_x        tau_y        tau_z
    1     1.000000     0.000000     1.000000     0.000000     0.000000     0.000000     0.000000     0.000000

 Subroutine IBZKPT returns following result:

 Found      1 irreducible k-points:

 Following reciprocal coordinates:
            Coordinates               Weight
  0.000000  0.000000  0.000000      1.000000

 Following cartesian coordinates:
            Coordinates               Weight
  0.000000  0.000000  0.000000      1.000000

 SYSTEM =  "Millerite NiS"
 POSCAR =  Type_036 Type_136

 Startparameter for this run:
   NWRITE =      2    write-flag & timer
   PREC   = normal    normal or accurate (medium, high low for compatibility)
   ISTART =      0    job   : 0-new  1-cont  2-samecut
   ICHARG =      2    charge: 1-file 2-atom 10-const
   ISPIN  =      1    spin polarized calculation?
   LNONCOLLINEAR =      F non collinear calculations
   LSORBIT =      F    spin-orbit coupling
   INIWAV =      1    electr: 0-lowe 1-rand  2-diag
   LASPH  =      F    aspherical Exc in radial PAW
   METAGGA=      F    non-selfconsistent MetaGGA calc.

 Electronic Relaxation 1
   ENCUT  =  450.0 eV  33.07 Ry    5.75 a.u.  17.43 17.43 35.78*2*pi/ulx,y,z
   ENINI  =  450.0     initial cutoff
   ENAUG  =  703.4 eV  augmentation charge cutoff
   NELM   =    100;   NELMIN=  2; NELMDL= -5     # of ELM steps
   EDIFF  = 0.1E-03   stopping-criterion for ELM
   LREAL  =      T    real-space projection
   NLSPLINE    = F    spline interpolate recip. space projectors
   LCOMPAT=      F    compatible to vasp.4.4
   GGA_COMPAT  = T    GGA compatible to vasp.4.4-vasp.4.6
   LMAXPAW     = -100 max onsite density
   LMAXMIX     =    2 max onsite mixed and CHGCAR
   VOSKOWN=      0    Vosko Wilk Nusair interpolation
   ROPT   =   -0.00050  -0.00050
 Ionic relaxation
   EDIFFG = 0.1E-02   stopping-criterion for IOM
   NSW    =      0    number of steps for IOM
   NBLOCK =      1;   KBLOCK =      1    inner block; outer block
   IBRION =     -1    ionic relax: 0-MD 1-quasi-New 2-CG
   NFREE  =      0    steps in history (QN), initial steepest desc. (CG)
   ISIF   =      2    stress and relaxation
   IWAVPR =     10    prediction:  0-non 1-charg 2-wave 3-comb
   ISYM   =      2    0-nonsym 1-usesym 2-fastsym
   LCORR  =      T    Harris-Foulkes like correction to forces

   POTIM  = 0.5000    time-step for ionic-motion
   TEIN   =    0.0    initial temperature
   TEBEG  =    0.0;   TEEND  =   0.0 temperature during run
   SMASS  =  -3.00    Nose mass-parameter (am)
   estimated Nose-frequenzy (Omega)   =  0.10E-29 period in steps =****** mass=  -0.232E-26a.u.
   SCALEE = 1.0000    scale energy and forces
   NPACO  =    256;   APACO  = 16.0  distance and # of slots for P.C.
[...]
  Fock        0.00000     0.00000     0.00000     0.00000     0.00000     0.00000
  Total      73.07441    79.62624    98.75202    -1.74329     1.51644     0.47110
  in kB      59.58222    64.92435    80.51881    -1.42141     1.23645     0.38412

 VOLUME and BASIS-vectors are now :
  energy-cutoff  :      450.00
  volume of cell :     1964.98
      direct lattice vectors                 reciprocal lattice vectors
    10.079732985  0.000000000  0.000000000     0.099208977 -0.037612667  0.000000000
     3.573298043  9.425102554  0.000000000     0.000000000  0.106099641  0.000000000
     0.000000000  0.000000000 20.683503555     0.000000000  0.000000000  0.048347708

  length of vectors
    10.079732985 10.079732985 20.683503555     0.106099641  0.106099641  0.048347708

 FORCES acting on ions
    electron-ion (+dipol)            ewald-force                    non-local-force                 convergence-correction
   0.197E+03 0.239E+03 0.495E+04   -.198E+03 -.239E+03 -.495E+04   -.233E+00 -.411E+00 0.200E+01   0.871E-02 0.252E+00 -.324E+00
   -.353E+03 -.313E+03 0.345E+04   0.356E+03 0.316E+03 -.345E+04   -.248E+01 -.309E+01 0.109E+01   -.736E-01 0.145E+00 -.200E+00
   -.100E+03 -.454E+03 0.894E+02   0.993E+02 0.455E+03 -.896E+02   0.646E+00 -.157E+01 0.175E+00   0.120E+00 -.166E+00 0.117E+00
   -.317E+02 -.572E+03 -.305E+04   0.321E+02 0.575E+03 0.304E+04   -.208E+00 -.279E+01 0.238E+00   0.124E+00 -.107E+00 0.417E+00
   -.192E+03 -.518E+03 -.564E+04   0.192E+03 0.514E+03 0.563E+04   0.624E+00 0.347E+01 0.608E+01   -.121E+00 0.907E-01 0.195E+00
   0.145E+03 -.750E+03 0.209E+04   -.145E+03 0.754E+03 -.209E+04   0.865E+00 -.366E+01 -.641E+00   -.233E+00 -.508E-01 -.646E+00
   0.383E+02 -.463E+03 -.109E+04   -.393E+02 0.463E+03 0.109E+04   0.775E+00 -.107E+01 -.646E-01   0.365E-01 0.917E-01 0.393E-01
   0.774E+02 -.715E+03 -.442E+04   -.789E+02 0.718E+03 0.442E+04   0.664E+00 -.156E+01 -.236E+01   0.200E+00 -.187E+00 0.386E+00
   0.997E+02 -.828E+02 -.492E+04   -.100E+03 0.868E+02 0.493E+04   -.165E+00 -.377E+01 -.369E+01   -.128E+00 0.484E-01 0.259E+00
   -.317E+03 -.110E+02 0.340E+04   0.319E+03 0.130E+02 -.340E+04   -.194E+01 -.205E+01 0.405E+01   0.793E-02 0.133E+00 -.133E+00
   -.207E+03 -.379E+03 0.111E+04   0.211E+03 0.382E+03 -.111E+04   -.238E+01 -.312E+01 -.179E+01   0.466E-01 0.125E+00 0.465E-01
   0.382E+01 -.383E+03 -.181E+04   -.391E+01 0.384E+03 0.181E+04   0.357E+00 -.153E+01 0.139E+01   -.174E+00 0.620E-01 0.172E+00
   0.429E+03 0.856E+02 0.438E+04   -.430E+03 -.891E+02 -.438E+04   0.175E+01 0.373E+01 0.994E+00   -.130E+00 -.121E+00 -.219E+00
   0.235E+03 0.225E+02 0.854E+03   -.234E+03 -.208E+02 -.851E+03   -.360E+00 -.104E+01 -.257E+01   0.163E+00 -.643E-01 0.133E-01
   0.517E+03 0.200E+03 -.193E+04   -.519E+03 -.201E+03 0.192E+04   0.213E+01 0.481E+00 0.193E+01   0.211E+00 0.651E-01 0.285E+00
   0.460E+03 0.262E+03 -.496E+04   -.462E+03 -.264E+03 0.496E+04   0.137E+01 0.177E+01 -.340E+01   -.526E-01 0.278E+00 0.304E+00
   0.755E+03 -.932E+01 0.308E+04   -.759E+03 0.989E+01 -.308E+04   0.311E+01 -.769E+00 -.105E+01   0.506E-01 0.287E+00 -.599E+00
   0.401E+03 0.308E+03 0.174E+02   -.402E+03 -.308E+03 -.176E+02   0.150E+01 0.232E+00 0.208E+00   -.108E+00 -.834E-01 -.919E-01
   0.376E+03 0.472E+02 -.282E+04   -.380E+03 -.473E+02 0.281E+04   0.231E+01 0.667E+00 0.743E+00   0.243E+00 -.151E+00 0.372E+00
   -.141E+03 0.405E+03 -.524E+04   0.136E+03 -.406E+03 0.524E+04   0.515E+01 0.774E+00 -.167E+01   0.318E+00 -.540E-01 0.234E+00
   0.538E+03 -.800E+03 0.568E+04   -.542E+03 0.803E+03 -.568E+04   0.274E+01 -.125E+01 0.306E+01   -.383E-01 -.785E-01 -.169E+00
   0.289E+03 0.349E+03 -.426E+04   -.293E+03 -.351E+03 0.426E+04   0.286E+01 0.156E+01 -.129E+00   -.323E+00 0.393E-02 0.327E+00
   0.455E+03 0.643E+03 0.248E+04   -.456E+03 -.649E+03 -.248E+04   0.652E+00 0.526E+01 0.152E+01   -.151E-01 -.171E+00 -.530E-01
   0.444E+03 0.356E+03 -.828E+03   -.445E+03 -.356E+03 0.827E+03   0.121E+01 0.547E+00 0.108E+01   -.179E+00 -.134E-01 0.159E+00
   -.757E+03 0.929E+02 -.405E+04   0.762E+03 -.943E+02 0.405E+04   -.435E+01 0.127E+01 -.122E+01   -.301E+00 0.332E+00 0.389E+00
   -.754E+03 0.198E+03 0.522E+04   0.754E+03 -.194E+03 -.523E+04   0.815E+00 -.401E+01 0.507E+01   0.171E+00 -.152E+00 -.202E+00
   -.629E+03 0.150E+03 0.237E+04   0.630E+03 -.150E+03 -.237E+04   -.120E+01 0.685E+00 -.112E+01   0.161E+00 -.143E+00 -.649E-01
   -.473E+03 0.717E+02 -.800E+03   0.474E+03 -.712E+02 0.797E+03   -.370E+00 -.711E+00 0.272E+01   -.215E+00 0.154E+00 0.226E+00
   -.521E+03 0.237E+03 0.453E+04   0.524E+03 -.240E+03 -.453E+04   -.169E+01 0.133E+01 0.496E+01   -.421E+00 0.226E+00 -.435E+00
   -.212E+03 0.383E+03 0.990E+03   0.209E+03 -.383E+03 -.986E+03   0.151E+01 0.460E+00 -.231E+01   0.178E+00 -.677E-01 -.126E+00
   -.286E+03 0.149E+03 -.182E+04   0.288E+03 -.150E+03 0.182E+04   -.179E+01 0.118E+01 0.258E+01   0.173E+00 -.174E+00 0.459E+00
   -.182E+03 0.343E+03 -.498E+04   0.183E+03 -.345E+03 0.498E+04   -.328E+00 0.116E+01 0.211E+01   -.131E+00 -.292E-01 0.215E+00
   -.124E+03 0.438E+03 0.347E+04   0.126E+03 -.440E+03 -.347E+04   -.158E+01 0.230E+01 0.222E+01   0.137E+00 -.261E-01 -.237E+00
   -.385E+03 0.211E+03 0.155E+03   0.386E+03 -.210E+03 -.156E+03   -.272E+00 -.136E+00 0.101E+01   -.279E-01 -.103E-01 -.510E-02
   -.344E+03 0.428E+03 -.329E+04   0.349E+03 -.431E+03 0.329E+04   -.436E+01 0.279E+01 -.142E+01   0.237E+00 -.215E-01 0.208E+00
   0.217E+02 -.398E+02 0.523E+04   -.227E+02 0.400E+02 -.524E+04   -.255E+00 0.772E+00 0.882E+01   0.448E-01 0.967E-01 -.304E+00
   -.116E+03 0.932E+02 -.208E+04   0.117E+03 -.944E+02 0.208E+04   -.237E+00 0.715E+00 -.176E+01   -.807E-01 0.102E+00 0.119E+00
   -.189E+03 0.226E+03 0.177E+04   0.191E+03 -.228E+03 -.178E+04   -.166E+01 0.934E+00 0.452E+01   0.559E-01 -.345E-01 -.288E-01
   -.730E+02 0.995E+02 0.328E+03   0.730E+02 -.101E+03 -.330E+03   0.124E+00 0.132E+01 0.911E+00   0.295E-01 0.885E-01 0.416E-01
   0.237E+01 0.141E+03 -.746E+03   -.350E+01 -.144E+03 0.741E+03   0.762E+00 0.185E+01 0.158E+01   -.778E-01 0.825E-01 0.100E+00
   0.343E+02 0.152E+03 0.234E+04   -.338E+02 -.154E+03 -.234E+04   -.333E+00 0.751E+00 0.224E+01   -.547E-01 0.179E+00 -.388E-01
   -.124E+03 0.154E+03 0.105E+04   0.126E+03 -.155E+03 -.105E+04   -.206E+01 0.301E+00 0.218E+00   -.511E-01 0.380E-01 -.194E+00
   0.103E+02 0.143E+03 -.459E+02   -.106E+02 -.146E+03 0.452E+02   0.201E+00 0.211E+01 0.533E+00   0.769E-01 -.502E-01 0.796E-01
   -.695E+02 0.201E+03 -.133E+04   0.708E+02 -.203E+03 0.133E+04   -.132E+01 0.292E+00 -.137E+01   0.111E+00 -.820E-02 0.155E+00
   0.670E+02 0.129E+03 0.812E+03   -.673E+02 -.130E+03 -.813E+03   0.406E+00 0.138E+01 0.883E+00   -.190E-01 -.553E-01 -.587E-01
   -.131E+02 0.138E+03 -.430E+03   0.132E+02 -.139E+03 0.426E+03   0.328E+00 0.161E+01 0.134E+01   -.383E-01 0.785E-01 0.337E-01
   -.425E+02 0.158E+03 -.174E+04   0.425E+02 -.158E+03 0.174E+04   0.482E+00 -.149E+00 -.422E+00   0.240E-01 -.250E-01 0.150E+00
   0.956E+02 0.331E+03 0.213E+04   -.962E+02 -.335E+03 -.213E+04   0.105E+00 0.150E+01 0.150E+01   0.254E-01 -.658E-01 -.114E+00
   -.991E+02 -.142E+03 0.227E+04   0.997E+02 0.143E+03 -.228E+04   -.428E-01 -.560E+00 0.680E+00   -.178E-01 0.325E-01 -.113E+00
   -.240E+03 -.173E+03 0.110E+04   0.242E+03 0.175E+03 -.110E+04   -.113E+01 -.109E+01 0.889E+00   0.373E-01 -.657E-01 -.340E-01
   -.136E+03 -.121E+03 -.110E+03   0.138E+03 0.123E+03 0.111E+03   -.209E+01 -.177E+01 -.234E+00   -.234E-01 -.587E-01 0.728E-01
   -.253E+03 -.183E+03 -.137E+04   0.255E+03 0.184E+03 0.137E+04   -.554E-01 -.208E+00 -.142E+01   -.207E+00 0.162E-01 0.191E+00
   -.106E+03 -.352E+03 0.191E+04   0.106E+03 0.354E+03 -.191E+04   0.618E+00 -.883E+00 0.746E+00   -.233E+00 -.102E+00 -.160E+00
   0.485E+02 -.192E+03 0.518E+03   -.491E+02 0.195E+03 -.517E+03   -.238E+00 -.249E+01 0.813E+00   0.297E-01 0.360E-01 -.137E+00
   -.877E+02 -.136E+03 -.590E+03   0.888E+02 0.138E+03 0.589E+03   -.136E+01 -.224E+01 0.307E-01   0.134E+00 -.433E-01 0.103E+00
   -.193E+02 -.171E+03 -.180E+04   0.206E+02 0.171E+03 0.181E+04   -.413E+00 0.473E+00 -.788E+00   0.483E-01 -.115E+00 0.105E+00
   -.104E+03 -.942E+02 0.240E+03   0.106E+03 0.965E+02 -.240E+03   -.167E+01 -.225E+01 0.104E+01   -.396E-01 -.210E-01 -.102E-01
   -.145E+03 -.588E+02 -.840E+03   0.147E+03 0.611E+02 0.838E+03   -.130E+01 -.221E+01 -.384E+00   0.381E-01 -.714E-03 0.343E-01
   0.470E+02 0.227E+03 -.219E+04   -.468E+02 -.229E+03 0.219E+04   -.154E+00 0.682E+00 -.207E+01   0.963E-01 -.227E-01 0.140E+00
   0.250E+02 -.240E+03 0.164E+04   -.264E+02 0.245E+03 -.164E+04   0.286E+01 -.449E+01 0.221E+01   0.118E+00 0.678E-01 -.119E+00
   0.223E+03 0.172E+03 0.186E+04   -.227E+03 -.173E+03 -.186E+04   0.259E+01 0.314E+00 0.383E+01   -.264E-01 0.738E-01 -.108E+00
   0.143E+03 -.133E+03 0.495E+03   -.145E+03 0.135E+03 -.493E+03   0.215E+01 -.147E+01 0.936E+00   -.147E-01 -.250E-01 -.264E-02
   0.161E+03 -.695E+02 -.643E+03   -.163E+03 0.709E+02 0.644E+03   0.208E+01 -.961E+00 -.161E+01   0.109E+00 -.411E-01 0.777E-01
   0.421E+03 -.154E+03 -.183E+04   -.427E+03 0.156E+03 0.183E+04   0.318E+01 -.189E+01 -.137E+01   0.191E+00 0.922E-02 0.134E+00
   0.165E+03 -.101E+03 0.154E+03   -.167E+03 0.102E+03 -.154E+03   0.238E+01 -.124E+01 0.152E+00   -.143E+00 0.896E-01 -.989E-01
   0.916E+02 -.955E+02 -.106E+04   -.942E+02 0.972E+02 0.106E+04   0.278E+01 -.173E+01 -.114E+01   -.253E-01 -.273E-01 0.170E+00
   0.254E+02 -.195E+03 -.222E+04   -.264E+02 0.196E+03 0.223E+04   0.339E-01 -.454E+00 -.167E+01   0.801E-01 -.549E-01 0.956E-01
   0.300E+03 -.234E+03 0.139E+04   -.302E+03 0.236E+03 -.140E+04   0.809E+00 -.866E+00 0.105E+01   0.110E+00 -.355E-01 -.208E+00
   -.194E+02 0.147E+03 0.218E+04   0.187E+02 -.148E+03 -.219E+04   0.485E+00 0.304E-01 0.320E+01   -.598E-01 0.435E-01 -.108E+00
   0.180E+03 0.155E+03 0.830E+03   -.183E+03 -.156E+03 -.828E+03   0.147E+01 0.184E+01 -.228E+01   -.366E-01 0.204E-01 -.139E-01
   0.143E+03 -.222E+02 -.191E+03   -.146E+03 0.225E+02 0.192E+03   0.261E+01 -.785E+00 -.861E+00   -.304E-01 -.110E-01 0.121E+00
   0.159E+03 0.807E+02 -.149E+04   -.161E+03 -.801E+02 0.149E+04   0.159E+01 -.882E+00 -.263E+01   -.211E+00 0.478E-01 0.117E+00
   -.208E+02 0.140E+02 -.414E+02   0.284E-11 -.156E-12 -.932E-11   0.211E+02 -.146E+02 0.399E+02   -.117E+00 0.661E+00 0.151E+01

 POSITION                                       TOTAL-FORCE (eV/Angst)
      5.15389      9.10480      1.82844        -1.135475     -0.014011     -0.107907
      6.84285      7.49250      2.62550        -0.127542      0.487023      2.450668
      7.82056      6.07621      5.25100         0.039875     -0.134751      0.075743
      8.79827      4.65991      7.87651         0.347389      0.446168     -0.263872
      9.56403      3.24721     10.02759         0.370161      0.082103      1.419565
      2.61774      3.87870      3.50067         0.538582      0.440060      2.057454
      3.59545      2.46241      6.12617        -0.111555     -0.431493     -0.004017
      4.57317      1.04611      8.75167        -0.628565      1.127613     -0.765146
      3.78773      7.38280      9.33645        -0.655980      0.275271      0.688248
      6.30157      2.09534      3.08644         0.371399      0.073669      0.321704
      8.47237      0.26490      4.37584         0.923035      0.055408      1.056883
     13.02338      8.27371      7.00134         0.094820     -0.406564     -0.305602
      5.67729      5.16522      2.33189        -0.078176      0.077578     -1.203026
      6.61816      3.96023      4.55733         0.081779      0.598732      0.605034
      7.59587      2.54394      7.18283         0.157879     -0.421372     -1.519086
      8.38926      1.15615      9.47982        -0.705317      0.363217      1.062671
      1.41534      1.76273      2.80700        -0.972001      0.091432      2.393963
      2.39305      0.34643      5.43250         0.168182     -0.016567     -0.072405
      6.94406      8.35524      8.05800        -0.723885      0.366911     -2.915409
      6.95609      6.81312      9.79255         0.951569     -0.348454      0.787549
      1.98820      3.48433      1.14511        -0.772442      1.020505     -1.280013
      2.66395      4.80018      8.65595        -1.127606     -0.406308      1.313669
     10.84326      7.57403      3.68216        -0.358110     -1.457344      1.546398
     11.82097      6.15773      6.30767         0.057772      0.077442     -0.124701
      0.84014      1.55943      8.80464         0.776868      0.228732      0.655947
      8.09529      5.57502      1.69256         0.964435     -0.818799     -0.903443
      9.02296      4.33443      3.86366        -0.136406      0.140730      0.202962
     10.00068      2.91813      6.48916         0.195356     -0.039710     -0.121813
      3.82015      2.13692      2.11332         1.652194     -1.474558      1.082772
      4.79786      0.72063      4.73883        -0.789847     -0.134500      1.326970
      9.34887      8.72943      7.36433        -0.344499      0.286288     -1.480217
     10.31835      7.70308      9.34646         0.396074     -0.802549      1.112473
      3.16834      7.94822      2.98849         1.081793      0.155887      1.569504
      4.14605      6.53193      5.61399         0.058991      0.176738     -0.136771
      5.12376      5.11563      8.23950         0.181179      0.210155     -1.763460
      7.53839      0.22359      1.96414        -1.229483      1.014608     -0.919890
      3.57639      9.40998      9.94412         0.645003     -0.375504      1.954416
      7.35546      3.82659      2.42507         0.069551     -1.493915     -0.681008
      8.33317      2.41029      5.05057         0.178857      0.052584     -0.102157
      9.31088      0.99399      7.67607        -0.451706     -0.620210     -3.438114
      2.21745      1.45753      0.89709         0.134253     -0.617761     -3.794537
      3.13035      0.21279      3.30024         0.221418     -0.425971      0.675172
      7.68136      8.22159      5.92574        -0.084764     -0.214885     -0.089357
      8.65907      6.80530      8.55124         0.096292     -1.632066     -0.240705
      2.47854      6.02409      4.17540         0.050203     -0.090394      0.270957
      3.45626      4.60779      6.80091         0.374089      0.247187     -2.766370
      4.19477      3.30978      8.89639         0.485685     -0.764380      2.074432
     11.60895      7.67780      1.78326        -0.469224     -2.117307     -3.694063
      7.28068      7.10713      0.70995         0.551160      0.669710     -3.733979
      8.88655      6.52099      3.30837         0.527128      1.171343      1.477384
      9.86427      5.10469      5.93387         0.119580      0.018295      0.228227
     10.84198      3.68840      8.55937         1.365693      1.141797     -0.379938
      3.81666      4.21007      1.77578         0.705277      1.530638     -1.909521
      4.66145      2.90719      4.18354        -0.783479      0.544034      1.366700
      5.63916      1.49089      6.80904        -0.145411      0.233380     -0.716411
      6.48651      0.28852      9.14481         0.963919      0.067121      1.878772
      4.00964      8.71849      5.05870         0.243370      0.049697      0.450854
      4.98735      7.30220      7.68420         0.928530      0.049841     -2.074138
      5.12554      5.99586     10.09867         0.105089     -0.725972      3.530272
      9.53836      0.70969      2.43320         1.569092      0.390684     -0.437253
      4.81209      7.09572      1.92397        -1.310276     -0.349345     -2.005087
      5.82436      6.04450      4.19167         0.388453      0.576933      2.818171
      6.80207      4.62821      6.81717        -0.022580      0.438003     -0.653994
      7.78017      3.20610      9.12536        -2.281146      0.828607      2.379625
      1.59925      2.43070      5.06683         0.228715     -0.141609      0.347265
      2.57697      1.01441      7.69234         0.087319     -0.098336     -0.620274
      7.41055      8.86464      9.95401        -0.868584      0.903341      3.585931
     10.73377      3.75876      2.70904        -1.563094      1.050229     -0.983740
      5.65284      1.21923      1.37447        -0.195493     -0.699177     -3.179169
      6.47422      0.07714      3.73674        -0.864962      0.187025      0.530670
     11.02718      8.24201      5.94200         0.343782     -0.427609      0.385901
     12.00489      6.82571      8.56750        -0.854184     -0.245296     -0.298329
    total drift:                                0.174822      0.046409     -0.034575

  FREE ENERGIE OF THE ION-ELECTRON SYSTEM (eV)
  free  energy   TOTEN  =      -351.42435014 eV

  energy  without entropy=     -350.39131946  energy(sigma->0) =     -350.90783480