 vasp.5.4.4.18Apr17-6-g9f103f2a35 (build Aug 13 2019 17:33:20) gamma-only

 executed on             LinuxIFC date 2020.05.12  16:37:33

 INCAR:
 POTCAR:    PAW_PBE Ni_pv 06Sep2000
 POTCAR:    PAW_PBE S 06Sep2000
 POTCAR:    PAW_PBE Ni_pv 06Sep2000
   VRHFIN =Ni:

   TITEL  = PAW_PBE Ni_pv 06Sep2000
   POMASS =   58.690; ZVAL   =   16.000    mass and valenz
   ENMAX  =  367.986; ENMIN  =  275.989 eV

 POTCAR:    PAW_PBE S 06Sep2000
   VRHFIN =S : s2p4

   TITEL  = PAW_PBE S 06Sep2000
   POMASS =   32.066; ZVAL   =    6.000    mass and valenz
   ENMAX  =  258.689; ENMIN  =  194.016 eV

 Optimization of the real space projectors (new method)

 maximal supplied QI-value         = 18.90
 optimisation between [QCUT,QGAM] = [ 10.77, 21.73] = [ 32.49,132.25] Ry
 Optimized for a Real-space Cutoff    1.38 Angstroem

   l    n(q)    QCUT    max X(q) W(low)/X(q) W(high)/X(q)  e(spline)
   1      8    10.771     2.836    0.40E-04    0.29E-04    0.12E-06
   1      8    10.771     4.023    0.10E-03    0.48E-04    0.29E-06
   2      8    10.771    73.368    0.42E-03    0.97E-04    0.44E-06
   2      8    10.771    69.010    0.42E-03    0.99E-04    0.45E-06
   0      9    10.771    54.797    0.10E-03    0.56E-04    0.74E-07
   0      9    10.771    24.266    0.89E-04    0.49E-04    0.67E-07
 Optimization of the real space projectors (new method)

 maximal supplied QI-value         = 19.84
 optimisation between [QCUT,QGAM] = [ 10.71, 21.63] = [ 32.15,130.99] Ry
 Optimized for a Real-space Cutoff    1.19 Angstroem

   l    n(q)    QCUT    max X(q) W(low)/X(q) W(high)/X(q)  e(spline)
   0      8    10.715   187.594    0.41E-03    0.53E-04    0.66E-07
   0      8    10.715   164.243    0.41E-03    0.53E-04    0.65E-07
   1      7    10.715    67.533    0.19E-03    0.59E-03    0.68E-07
   1      7    10.715    50.729    0.19E-03    0.58E-03    0.67E-07
  PAW_PBE Ni_pv 06Sep2000               :
  PAW_PBE S 06Sep2000                   :

 POSCAR: Type_037 Type_137
  positions in cartesian coordinates
 exchange correlation table for  LEXCH =        8
   RHO(1)=    0.500       N(1)  =     2000
   RHO(2)=  100.500       N(2)  =     4000

 ion  position               nearest neighbor table
   1  0.310  0.982  0.065-  71 2.06  42 2.06  43 2.16  62 2.19  50 2.26   2 2.30
   2  0.397  0.795  0.136-  50 2.05  62 2.07  43 2.25   1 2.30  51 2.36  63 2.36  23 2.46
   3  0.547  0.645  0.263-  44 2.25  63 2.26  51 2.26  52 2.36  64 2.36  28 2.53  15 2.53
   4  0.698  0.494  0.390-  65 2.16  45 2.25  64 2.26  52 2.26  53 2.36  29 2.53  16 2.53
   5  0.825  0.342  0.492-  53 2.00  65 2.00  17 2.45  26 2.47
   6  0.114  0.412  0.178-  54 2.12  46 2.25  70 2.26   9 2.35  66 2.36  55 2.36  30 2.53  18 2.53

   7  0.264  0.261  0.305-  47 2.25  55 2.26  66 2.26  56 2.36  67 2.36  31 2.53  19 2.53
   8  0.414  0.111  0.432-  68 2.01  57 2.14  48 2.21  67 2.26  56 2.26  32 2.53  20 2.53
   9  0.960  0.591  0.113-  49 1.97  70 2.06  46 2.22  69 2.23  54 2.27   6 2.35  21 2.41
  10  0.082  0.807  0.458-  60 2.05  59 2.07  74 2.08  38 2.11  13 2.50
  11  0.709  0.215  0.155-  39 1.98  40 2.10  61 2.17  12 2.28  72 2.32  37 2.42
  12  0.831  0.028  0.220-  40 2.25  72 2.26  61 2.26  11 2.28  73 2.36  58 2.36  24 2.53  34 2.53

[...]

  33  0.728  0.799  0.456-  45 2.05  57 2.06  74 2.06  32 2.39
  34  0.015  0.843  0.153-  62 2.13  49 2.26  61 2.26  46 2.36  58 2.36  24 2.53  12 2.53
  35  0.166  0.693  0.280-  63 2.25  58 2.26  46 2.26  47 2.36  59 2.36  13 2.53  25 2.53
  36  0.316  0.543  0.407-  60 2.04  48 2.15  64 2.25  59 2.26  47 2.26  22 2.46
  37  0.769  0.999  0.092-  49 2.00  61 2.05  72 2.05  11 2.42  23 2.53
  38  0.989  0.014  0.494-  26 2.10  17 2.10  10 2.11  41 2.62
  39  0.586  0.406  0.126-  11 1.98  28 2.26  15 2.26  27 2.32  14 2.36
  40  0.736  0.256  0.253-  11 2.10  12 2.25  29 2.26  16 2.26  15 2.36  28 2.36
  41  0.886  0.105  0.380-  17 2.04  26 2.05  13 2.25  16 2.36  29 2.36  38 2.62
  42  0.151  0.176  0.050-  21 2.05   1 2.06  18 2.09  30 2.14
  43  0.303  0.023  0.168-   1 2.16   2 2.25  19 2.26  31 2.26  30 2.36  18 2.36  62 2.77
  44  0.453  0.872  0.295-   3 2.25  32 2.26  20 2.26  31 2.36  19 2.36  45 2.79
  45  0.591  0.730  0.405-  33 2.05  32 2.18  20 2.20   4 2.25  44 2.79
  46  0.019  0.639  0.211-   9 2.22   6 2.25  35 2.26  25 2.26  34 2.36  24 2.36
  47  0.170  0.489  0.338-  22 2.06   7 2.25  36 2.26  25 2.36  35 2.36  48 2.57
  48  0.302  0.343  0.435-  36 2.15  22 2.21   8 2.21  47 2.57  60 2.72
  49  0.869  0.789  0.084-   9 1.97  37 2.00  34 2.26  24 2.26  69 2.74
  50  0.487  0.774  0.046-   2 2.05  23 2.08  27 2.15   1 2.26
  51  0.636  0.692  0.169-  27 2.04  23 2.23  24 2.25   3 2.26  28 2.26   2 2.36
  52  0.787  0.542  0.296-  25 2.25  29 2.26   4 2.26  28 2.36   3 2.36
  53  0.937  0.391  0.423-   5 2.00  26 2.14  22 2.27   4 2.36  29 2.36
  54  0.185  0.452  0.086-  14 2.08  21 2.09   6 2.12  30 2.21   9 2.27
  55  0.353  0.308  0.211-  14 2.13  15 2.25   7 2.26  31 2.26  30 2.36   6 2.36
  56  0.503  0.158  0.338-  16 2.25   8 2.26  32 2.26  31 2.36   7 2.36
  57  0.636  0.016  0.453-  33 2.06  17 2.12  32 2.13   8 2.14
  58  0.070  0.925  0.253-  19 2.25  35 2.26  13 2.26  12 2.36  34 2.36
  59  0.220  0.775  0.380-  10 2.07  20 2.25  36 2.26  13 2.36  35 2.36
  60  0.197  0.606  0.489-  36 2.04  10 2.05  22 2.07  48 2.72
  61  0.920  0.075  0.127-  37 2.05  11 2.17  18 2.25  34 2.26  12 2.26
  62  0.193  0.849  0.099-   2 2.07  34 2.13   1 2.19  43 2.77
  63  0.350  0.641  0.212-  14 2.17  35 2.25   3 2.26  15 2.26   2 2.36
  64  0.501  0.491  0.338-  36 2.25  16 2.26   4 2.26  15 2.36   3 2.36
  65  0.646  0.344  0.450-   5 2.00  16 2.06   4 2.16  17 2.16
  66  0.067  0.258  0.254-  29 2.25  19 2.26   7 2.26  18 2.36   6 2.36
  67  0.218  0.108  0.381-  26 2.13   8 2.26  20 2.26   7 2.36  19 2.36
  68  0.391  0.957  0.487-  20 2.00   8 2.01
  69  0.835  0.555  0.030-  27 2.09  21 2.11   9 2.23  70 2.45  49 2.74
  70  0.917  0.408  0.127-  21 2.06   9 2.06  28 2.25  18 2.26   6 2.26  69 2.45
  71  0.464  0.073  0.059-   1 2.06  23 2.12  30 2.12  72 2.78
  72  0.634  0.025  0.169-  37 2.05  23 2.17  31 2.25  12 2.26  24 2.26  11 2.32  71 2.78
  73  0.784  0.874  0.296-  32 2.25  25 2.26  13 2.26  12 2.36  24 2.36
  74  0.934  0.724  0.423-  33 2.06  10 2.08  22 2.17  13 2.36  25 2.36

  LATTYP: Found a base centered orthorhombic cell.
 ALAT       =    11.4527836704
 B/A-ratio  =     1.4485816945
 C/A-ratio  =     1.8062142937

  Lattice vectors:

 A1 = (  10.0797329849,   0.0000000000,   0.0000000000)
 A2 = (  -3.5732980427,  -9.4251025535,   0.0000000000)
 A3 = (   0.0000000000,   0.0000000000, -20.6861815676)

Analysis of symmetry for initial positions (statically):
 Subroutine PRICEL returns:
 Original cell was already a primitive cell.

 Routine SETGRP: Setting up the symmetry group for a
 base centered orthorhombic supercell.

 Subroutine GETGRP returns: Found  1 space group operations
 (whereof  1 operations were pure point group operations)
 out of a pool of  8 trial point group operations.

The static configuration has the point symmetry C_1 .

Analysis of symmetry for dynamics (positions and initial velocities):
 Subroutine PRICEL returns:
 Original cell was already a primitive cell.

 Routine SETGRP: Setting up the symmetry group for a
 base centered orthorhombic supercell.

 Subroutine GETGRP returns: Found  1 space group operations
 (whereof  1 operations were pure point group operations)
 out of a pool of  8 trial point group operations.

The dynamic configuration has the point symmetry C_1 .

 Subroutine INISYM returns: Found  1 space group operations
 (whereof  1 operations are pure point group operations),
 and found     1 'primitive' translations

 KPOINTS: gamma-point-only calculation. no periodi

Automatic generation of k-mesh.
Space group operators:
 irot       det(A)        alpha          n_x          n_y          n_z        tau_x        tau_y        tau_z
    1     1.000000     0.000000     1.000000     0.000000     0.000000     0.000000     0.000000     0.000000

 Subroutine IBZKPT returns following result:

 Found      1 irreducible k-points:

 Following reciprocal coordinates:
            Coordinates               Weight
  0.000000  0.000000  0.000000      1.000000

 Following cartesian coordinates:
            Coordinates               Weight
  0.000000  0.000000  0.000000      1.000000

 SYSTEM =  "Millerite NiS"
 POSCAR =  Type_037 Type_137

 Startparameter for this run:
   NWRITE =      2    write-flag & timer
   PREC   = normal    normal or accurate (medium, high low for compatibility)
   ISTART =      0    job   : 0-new  1-cont  2-samecut
   ICHARG =      2    charge: 1-file 2-atom 10-const
   ISPIN  =      1    spin polarized calculation?
   LNONCOLLINEAR =      F non collinear calculations
   LSORBIT =      F    spin-orbit coupling
   INIWAV =      1    electr: 0-lowe 1-rand  2-diag
   LASPH  =      F    aspherical Exc in radial PAW
   METAGGA=      F    non-selfconsistent MetaGGA calc.

 Electronic Relaxation 1
   ENCUT  =  450.0 eV  33.07 Ry    5.75 a.u.  17.43 17.43 35.78*2*pi/ulx,y,z
   ENINI  =  450.0     initial cutoff
   ENAUG  =  703.4 eV  augmentation charge cutoff
   NELM   =    100;   NELMIN=  2; NELMDL= -5     # of ELM steps
   EDIFF  = 0.1E-03   stopping-criterion for ELM
   LREAL  =      T    real-space projection
   NLSPLINE    = F    spline interpolate recip. space projectors
   LCOMPAT=      F    compatible to vasp.4.4
   GGA_COMPAT  = T    GGA compatible to vasp.4.4-vasp.4.6
   LMAXPAW     = -100 max onsite density
   LMAXMIX     =    2 max onsite mixed and CHGCAR
   VOSKOWN=      0    Vosko Wilk Nusair interpolation
   ROPT   =   -0.00050  -0.00050
 Ionic relaxation
   EDIFFG = 0.1E-02   stopping-criterion for IOM
   NSW    =      0    number of steps for IOM
   NBLOCK =      1;   KBLOCK =      1    inner block; outer block
   IBRION =     -1    ionic relax: 0-MD 1-quasi-New 2-CG
   NFREE  =      0    steps in history (QN), initial steepest desc. (CG)
   ISIF   =      2    stress and relaxation
   IWAVPR =     10    prediction:  0-non 1-charg 2-wave 3-comb
   ISYM   =      2    0-nonsym 1-usesym 2-fastsym
   LCORR  =      T    Harris-Foulkes like correction to forces

   POTIM  = 0.5000    time-step for ionic-motion
   TEIN   =    0.0    initial temperature
   TEBEG  =    0.0;   TEEND  =   0.0 temperature during run
   SMASS  =  -3.00    Nose mass-parameter (am)
   estimated Nose-frequenzy (Omega)   =  0.10E-29 period in steps =****** mass=  -0.232E-26a.u.
   SCALEE = 1.0000    scale energy and forces
   NPACO  =    256;   APACO  = 16.0  distance and # of slots for P.C.
   PSTRESS=    0.0 pullay stress

  Mass of Ions in am
   POMASS =  58.69 32.07
  Ionic Valenz
   ZVAL   =  16.00  6.00
  Atomic Wigner-Seitz radii
  virtual crystal weights
   VCA    =   1.00  1.00
   NELECT =     814.0000    total number of electrons
   NUPDOWN=      -1.0000    fix difference up-down

 DOS related values:
   EMIN   =  10.00;   EMAX   =-10.00  energy-range for DOS
   EFERMI =   0.00
   ISMEAR =     0;   SIGMA  =   0.20  broadening in eV -4-tet -1-fermi 0-gaus

 Electronic relaxation 2 (details)
   IALGO  =     38    algorithm
[...]
     3.573298043  9.425102554  0.000000000     0.000000000  0.106099641  0.000000000
     0.000000000  0.000000000 20.686181568     0.000000000  0.000000000  0.048341449

  length of vectors
    10.079732985 10.079732985 20.686181568     0.106099641  0.106099641  0.048341449

 FORCES acting on ions
    electron-ion (+dipol)            ewald-force                    non-local-force                 convergence-correction
   0.463E+03 0.146E+03 0.540E+04   -.466E+03 -.148E+03 -.541E+04   0.100E+01 0.131E+01 0.676E+01   -.283E-01 -.548E-02 -.175E-01
   0.596E+03 0.480E+03 0.295E+04   -.599E+03 -.484E+03 -.294E+04   0.251E+01 0.250E+01 -.812E+00   -.495E-01 -.192E-01 0.604E-01
   0.119E+03 -.429E+03 -.397E+03   -.120E+03 0.430E+03 0.398E+03   0.774E+00 -.135E+01 -.567E+00   -.212E-01 -.120E-01 -.283E-01
   0.141E+03 -.716E+03 -.351E+04   -.141E+03 0.718E+03 0.351E+04   -.495E+00 -.149E+01 0.598E+00   -.563E-02 0.320E-01 -.431E-01
   -.110E+03 -.613E+03 -.573E+04   0.110E+03 0.611E+03 0.572E+04   0.470E+00 0.208E+01 0.562E+01   0.339E-01 0.305E-01 0.159E+00
   -.588E+02 -.172E+03 0.152E+04   0.584E+02 0.170E+03 -.151E+04   0.415E+00 0.906E+00 -.391E+01   -.132E-01 0.291E-01 0.643E-01
   -.218E+02 -.406E+03 -.145E+04   0.209E+02 0.407E+03 0.145E+04   0.863E+00 -.100E+01 0.302E-01   -.846E-02 0.471E-01 -.238E-01
   0.745E+02 -.581E+03 -.464E+04   -.750E+02 0.584E+03 0.464E+04   0.624E+00 -.120E+01 -.405E+01   -.971E-02 0.284E-01 0.225E-02
   -.235E+03 -.386E+03 0.407E+04   0.236E+03 0.388E+03 -.407E+04   -.643E+00 -.229E+01 0.296E-01   0.109E-01 -.463E-01 0.660E-01
   -.320E+03 -.513E+02 -.509E+04   0.320E+03 0.562E+02 0.510E+04   -.726E+00 -.381E+01 -.432E+01   -.944E-04 -.240E-01 -.376E-01
   0.110E+03 -.347E+03 0.340E+04   -.111E+03 0.347E+03 -.340E+04   0.611E+00 -.673E+00 0.519E+01   0.147E-01 0.121E+00 0.109E+00
   -.221E+03 -.186E+03 0.507E+03   0.222E+03 0.184E+03 -.503E+03   -.119E+01 0.100E+01 -.284E+01   0.326E-01 -.614E-01 0.137E+00
   -.706E+02 -.374E+03 -.215E+04   0.699E+02 0.376E+03 0.215E+04   0.622E+00 -.180E+01 0.133E+01   0.438E-01 -.109E+00 -.561E-01
   -.217E+03 -.414E+03 0.368E+04   0.219E+03 0.417E+03 -.368E+04   -.183E+01 -.374E+01 0.644E+00   -.341E-01 0.246E-01 0.739E-01
   0.314E+03 0.124E+03 0.573E+03   -.313E+03 -.122E+03 -.571E+03   0.325E+00 -.164E+01 -.162E+01   -.148E-01 0.497E-01 0.359E-01
   0.583E+03 0.141E+03 -.227E+04   -.585E+03 -.142E+03 0.227E+04   0.252E+01 0.523E+00 0.112E+01   -.471E-01 0.471E-03 -.274E-01
   0.522E+03 0.260E+03 -.506E+04   -.525E+03 -.262E+03 0.507E+04   0.202E+01 0.237E+01 -.353E+01   -.226E-01 -.364E-01 0.448E-01
   0.653E+03 0.400E+03 0.290E+04   -.655E+03 -.401E+03 -.290E+04   0.135E+01 0.923E+00 -.555E+00   0.284E-01 0.376E-01 0.456E-01
   0.408E+03 0.362E+03 -.355E+03   -.410E+03 -.362E+03 0.355E+03   0.137E+01 -.159E+00 0.270E-01   -.786E-02 -.154E-01 0.229E-02
   0.442E+03 0.487E+03 -.359E+04   -.445E+03 -.490E+03 0.359E+04   0.219E+01 0.190E+01 -.270E+01   -.602E-01 -.204E-01 -.327E-01
   0.132E+03 0.133E+03 0.584E+04   -.133E+03 -.133E+03 -.585E+04   0.109E+01 -.208E+00 0.829E+01   0.131E-01 0.672E-02 -.359E-01
   0.318E+03 0.384E+03 -.448E+04   -.325E+03 -.386E+03 0.448E+04   0.390E+01 0.116E+01 -.221E+01   0.254E-01 0.376E-01 -.521E-01
   -.124E+03 -.118E+03 0.434E+04   0.125E+03 0.119E+03 -.434E+04   0.117E+01 -.169E+01 0.407E+01   -.860E-01 -.495E-01 0.501E-01
   0.259E+03 0.264E+03 0.150E+04   -.259E+03 -.265E+03 -.149E+04   -.629E-01 0.548E+00 -.281E+01   0.136E-01 -.100E+00 0.141E+00
   0.385E+03 0.352E+03 -.136E+04   -.387E+03 -.352E+03 0.136E+04   0.128E+01 -.161E+00 0.589E+00   0.109E+00 0.163E-01 -.276E-01
   -.792E+03 0.150E+03 -.425E+04   0.797E+03 -.151E+03 0.425E+04   -.428E+01 0.119E+01 -.964E+00   0.467E-01 -.304E-01 -.129E-01
   0.430E+03 0.482E+03 0.503E+04   -.429E+03 -.484E+03 -.503E+04   -.170E+01 0.109E+01 0.513E+01   0.207E-02 -.233E-01 0.265E-01
   -.336E+03 0.126E+03 0.174E+04   0.336E+03 -.126E+03 -.174E+04   -.282E+00 -.731E+00 -.173E+01   0.283E-01 0.305E-01 0.389E-01
   -.474E+03 0.865E+02 -.124E+04   0.476E+03 -.858E+02 0.124E+04   -.155E+01 -.663E+00 0.181E+01   0.545E-01 0.925E-02 -.525E-01
   -.748E+03 -.103E+03 0.415E+04   0.752E+03 0.104E+03 -.415E+04   -.428E+01 0.376E+00 0.189E+01   -.466E-01 0.349E-01 0.295E-01
   -.356E+03 0.129E+03 0.608E+03   0.355E+03 -.130E+03 -.607E+03   0.273E+00 0.705E+00 -.475E+00   -.361E-01 0.970E-02 0.329E-01
   -.186E+03 0.104E+03 -.223E+04   0.188E+03 -.104E+03 0.223E+04   -.308E+01 0.972E+00 0.218E+01   0.274E-02 0.166E-01 -.697E-01
   0.631E+02 0.430E+03 -.516E+04   -.636E+02 -.431E+03 0.516E+04   0.938E+00 0.498E+00 0.123E+01   0.469E-01 -.331E-01 0.668E-01
   -.782E+03 0.182E+03 0.320E+04   0.785E+03 -.182E+03 -.320E+04   -.271E+01 0.117E+00 0.426E+00   0.625E-01 -.836E-01 0.124E+00
   -.553E+03 0.152E+03 -.295E+03   0.555E+03 -.151E+03 0.295E+03   -.132E+01 -.606E+00 0.525E+00   -.362E-01 -.989E-02 0.491E-01
   -.706E+03 0.124E+03 -.377E+04   0.712E+03 -.125E+03 0.377E+04   -.454E+01 0.642E+00 0.403E+00   -.551E-01 0.280E-01 -.536E-01
   -.194E+03 -.439E+03 0.539E+04   0.195E+03 0.443E+03 -.540E+04   -.885E+00 -.298E+01 0.435E+01   0.161E-01 -.322E-01 0.314E-02
   -.149E+03 0.128E+03 -.217E+04   0.150E+03 -.130E+03 0.217E+04   -.614E+00 0.121E+01 -.178E+01   0.862E-02 -.239E-01 0.254E-01
   0.146E+03 0.336E+01 0.177E+04   -.147E+03 -.513E+01 -.178E+04   0.119E+00 0.379E+01 0.286E+01   0.353E-02 0.248E-01 0.203E-01
   -.228E+02 0.731E+02 0.160E+02   0.232E+02 -.745E+02 -.143E+02   -.106E+00 0.122E+01 -.526E+00   0.355E-02 0.164E-01 0.375E-02
   -.696E+01 0.148E+03 -.868E+03   0.597E+01 -.150E+03 0.863E+03   0.601E+00 0.135E+01 0.167E+01   0.116E-01 -.346E-01 -.176E-01
   0.199E+03 0.137E+03 0.223E+04   -.203E+03 -.138E+03 -.224E+04   0.255E+01 0.489E-01 0.191E+01   -.817E-03 0.127E-01 -.194E-01
   0.871E+02 0.106E+03 0.779E+03   -.866E+02 -.106E+03 -.777E+03   -.797E+00 0.347E+00 0.439E+00   -.883E-02 -.305E-02 0.309E-01
   0.558E+02 0.142E+03 -.242E+03   -.563E+02 -.143E+03 0.242E+03   0.284E+00 0.182E+01 0.936E-01   -.138E-01 0.264E-02 -.970E-02
   0.177E+03 0.237E+03 -.143E+04   -.178E+03 -.238E+03 0.144E+04   0.603E+00 0.249E+00 -.590E+00   -.153E-01 0.188E-02 -.114E-01
   -.894E+02 0.681E+02 0.435E+03   0.910E+02 -.683E+02 -.434E+03   -.144E+01 0.598E+00 -.445E+00   0.124E-01 -.706E-02 0.499E-01
   -.380E+02 0.134E+03 -.591E+03   0.375E+02 -.135E+03 0.587E+03   0.625E+00 0.115E+01 0.129E+01   0.606E-02 0.354E-01 -.194E-01
   -.704E+02 0.107E+03 -.177E+04   0.700E+02 -.108E+03 0.177E+04   0.875E+00 -.151E+00 0.133E+00   -.192E-02 0.255E-01 -.327E-02
   -.145E+03 0.723E+01 0.212E+04   0.146E+03 -.727E+01 -.213E+04   -.852E+00 0.148E+01 0.351E+01   0.101E-01 -.579E-01 -.388E-03
   0.164E+03 0.200E+03 0.232E+04   -.164E+03 -.201E+03 -.233E+04   -.641E+00 0.157E+00 0.317E+01   -.233E-01 -.694E-02 -.269E-01
   0.190E+02 -.175E+02 0.736E+03   -.168E+02 0.174E+02 -.734E+03   -.201E+01 0.116E+01 0.328E+00   0.466E-02 -.187E-01 0.376E-01
   -.103E+03 -.112E+03 -.325E+03   0.105E+03 0.114E+03 0.325E+03   -.163E+01 -.218E+01 0.190E+00   0.251E-01 0.139E-01 -.277E-01
   -.253E+03 -.203E+03 -.147E+04   0.255E+03 0.204E+03 0.147E+04   -.640E+00 -.468E+00 -.973E+00   0.357E-01 0.123E-01 -.999E-03
   -.368E+03 -.252E+03 0.201E+04   0.373E+03 0.256E+03 -.201E+04   -.242E+01 -.207E+01 0.219E+01   -.169E-01 0.223E-02 -.879E-03
   -.100E+03 -.722E+01 0.403E+03   0.102E+03 0.615E+01 -.402E+03   -.168E+01 0.466E+00 -.273E+00   -.197E-01 0.102E-01 0.320E-01
   -.800E+02 -.137E+03 -.702E+03   0.816E+02 0.139E+03 0.702E+03   -.158E+01 -.194E+01 -.557E+00   -.152E-01 0.538E-02 -.143E-01
   0.622E+01 -.115E+03 -.193E+04   -.413E+01 0.114E+03 0.193E+04   -.114E+01 0.609E+00 -.744E+00   0.446E-03 0.120E-01 0.975E-02
   -.162E+03 -.879E+02 0.119E+03   0.164E+03 0.895E+02 -.119E+03   -.200E+01 -.154E+01 0.460E+00   0.548E-02 -.409E-01 0.342E-01
   -.260E+03 -.108E+02 -.107E+04   0.262E+03 0.126E+02 0.107E+04   -.114E+01 -.199E+01 -.651E+00   -.318E-01 -.182E-01 -.308E-01
   -.180E+03 0.102E+03 -.227E+04   0.182E+03 -.102E+03 0.228E+04   -.760E+00 0.669E+00 -.259E+01   0.986E-03 0.925E-03 0.740E-02
   -.253E+03 -.983E+02 0.160E+04   0.255E+03 0.100E+03 -.160E+04   -.647E+00 -.131E+01 0.194E+01   0.548E-01 0.117E-01 0.226E-01
   0.227E+03 0.155E+03 0.175E+04   -.228E+03 -.159E+03 -.176E+04   0.430E+00 0.198E+01 0.256E+01   0.133E-01 -.115E-01 0.633E-02
   0.103E+03 -.169E+03 0.499E+03   -.105E+03 0.171E+03 -.500E+03   0.210E+01 -.150E+01 0.110E+01   -.226E-01 0.969E-02 0.388E-01
   0.176E+03 -.116E+03 -.829E+03   -.179E+03 0.117E+03 0.830E+03   0.274E+01 -.126E+01 -.110E+01   -.362E-01 0.147E-01 -.147E-01
   0.450E+03 -.242E+03 -.191E+04   -.456E+03 0.244E+03 0.192E+04   0.293E+01 -.133E+01 -.141E+01   -.270E-01 0.575E-02 0.243E-01
   0.137E+03 -.495E+02 -.129E+01   -.140E+03 0.506E+02 0.213E+01   0.242E+01 -.100E+01 -.991E+00   0.218E-01 0.965E-02 -.270E-02
   0.786E+02 -.498E+02 -.118E+04   -.813E+02 0.510E+02 0.118E+04   0.280E+01 -.128E+01 -.780E+00   -.358E-02 0.367E-03 -.202E-01
   0.114E+03 0.113E+03 -.227E+04   -.115E+03 -.114E+03 0.227E+04   0.513E-01 0.417E+00 -.106E+00   -.114E-01 -.163E-02 0.318E-01
   0.115E+03 -.674E+02 0.225E+04   -.116E+03 0.697E+02 -.226E+04   0.950E+00 -.178E+01 0.341E+01   0.146E-01 -.126E-01 -.326E-01
   0.324E+03 0.137E+03 0.127E+04   -.329E+03 -.140E+03 -.126E+04   0.236E+01 0.898E+00 0.204E+00   0.137E-01 0.915E-02 0.245E-01
   -.310E+03 -.241E+03 0.211E+04   0.313E+03 0.244E+03 -.211E+04   -.784E+00 -.134E+01 0.303E+01   -.246E-01 0.161E-01 -.272E-01
   0.195E+03 -.197E+03 0.807E+03   -.198E+03 0.199E+03 -.805E+03   0.189E+01 -.149E+01 0.538E+00   -.333E-01 -.806E-02 0.641E-01
   0.149E+03 -.576E+02 -.373E+03   -.152E+03 0.587E+02 0.373E+03   0.295E+01 -.902E+00 -.102E+01   0.267E-01 -.272E-01 -.268E-02
   0.153E+03 0.798E+02 -.159E+04   -.157E+03 -.782E+02 0.159E+04   0.289E+01 -.162E+01 -.231E+01   0.401E-01 -.117E-01 -.293E-01
   -.598E+01 0.112E+02 -.343E+02   -.145E-11 0.220E-11 -.227E-11   0.605E+01 -.109E+02 0.333E+02   0.991E-02 -.153E+00 0.942E+00

 POSITION                                       TOTAL-FORCE (eV/Angst)
      6.63709      9.25860      1.35474        -1.140153     -0.733383     -1.705269
      6.84285      7.49250      2.80967        -0.417231     -1.790896      3.078389
      7.82056      6.07621      5.43518        -0.235377     -0.216630      0.109074
      8.79827      4.65991      8.06068         0.175769      0.429553     -0.254810
      9.53680      3.21954     10.18010         0.396215      0.044782      1.500749
      2.61774      3.87870      3.68484         0.066024     -0.847464      1.521089
      3.59545      2.46241      6.31034         0.008851     -0.216685     -0.192209
      4.57317      1.04611      8.93585         0.107897      1.707055     -1.272844
     11.78758      5.57197      2.32798         0.662870     -0.197952      0.271088
      3.71259      7.60594      9.46591         0.002401      1.088197      0.937967
      7.91526      2.02352      3.21220        -0.233350     -0.304695     -0.647268
      8.47237      0.26490      4.56001         0.418214     -1.090297      1.472773
     13.02338      8.27371      7.18551         0.018684     -0.056894     -0.467760
      5.12796      4.49136      3.02528         0.609213      0.075103     -0.860549
      6.61816      3.96023      4.74150         0.612876     -0.271240      0.883193
      7.59587      2.54394      7.36701        -0.140640     -0.563714     -1.311956
      8.30444      1.17979      9.62036        -0.827518      0.291321      0.827489
      1.41534      1.76273      2.99117        -0.299025      0.104381      1.604167
      2.39305      0.34643      5.61667        -0.044555     -0.125989     -0.036034
      6.94406      8.35524      8.24217        -1.203150     -0.684294     -2.188830
      1.69150      3.64556      0.87959        -0.116515     -0.318331     -2.167079
      2.73162      4.81514      8.90168        -2.405697     -1.006436      0.881837
      9.07688      8.27883      2.13391         1.643359      0.165148     -0.109789
     10.84326      7.57403      3.86634         0.078604     -0.345377      0.533047
     11.82097      6.15773      6.49184        -0.204265     -0.054952     -0.124127
      0.84408      1.56230      8.98239         0.842848      0.475787      0.459525
      8.64652      5.53506      1.72104        -1.277508     -1.259188     -0.410247
      9.02296      4.33443      4.04783        -0.028328     -0.236506     -0.081674
     10.00068      2.91813      6.67333         0.222055      0.028074     -0.123067
      3.82015      2.13692      2.29749         0.457120      0.835561      0.857560
      4.79786      0.72063      4.92300        -0.052734     -0.077665      0.208485
      9.34887      8.72943      7.54850        -0.166356      0.688307     -2.474926
     10.19787      7.53126      9.43213         0.411997     -0.905117      1.128513
      3.16834      7.94822      3.17266         0.396233      0.350725      0.544874
      4.14605      6.53193      5.79816         0.490162      0.096162      0.060641
      5.12376      5.11563      8.42367         1.560133      0.197323     -1.792331
     11.32529      9.41819      1.90814        -0.306497      0.536678     -1.658866
     10.02357      0.13654     10.22878         0.472794     -0.574531      2.135105
      7.35546      3.82659      2.60924        -1.235800      2.047350     -1.907075
      8.33317      2.41029      5.23474         0.305448     -0.114876      1.185232
      9.31088      0.99399      7.86025        -0.382819     -0.817908     -3.435913
      2.14982      1.65829      1.04155        -1.033882     -0.658526     -2.757386
      3.13035      0.21279      3.48441        -0.314303      0.528916      2.715810
      7.68136      8.22159      6.10991        -0.187378      0.335584     -0.714226
      8.56647      6.87792      8.38531        -0.256396     -1.463095      1.317007
      2.47854      6.02409      4.35958         0.223717      0.350540      0.868345
      3.45626      4.60779      6.98508         0.066251      0.410085     -2.594543
      4.26584      3.23193      9.00338         0.511407     -0.789045      1.664764
     11.58056      7.44039      1.73407         0.185752      1.389435     -2.135360
      7.67546      7.29496      0.94588        -0.087072     -0.993682     -3.538025
      8.88655      6.52099      3.49254         0.214584      0.995554      2.145342
      9.86427      5.10469      6.11804         0.340792      0.010306     -0.097067
     10.84198      3.68840      8.74354         1.542766      1.221171     -0.586106
      3.47551      4.25588      1.78723         2.272846      1.384830     -1.886618
      4.66145      2.90719      4.36771         0.001063     -0.601527      0.866549
      5.63916      1.49089      6.99321         0.009839      0.048785     -0.782025
      6.46448      0.15426      9.37452         0.952936      0.179626      2.177565
      4.00964      8.71849      5.24287        -0.010952     -0.000775      0.416609
      4.98735      7.30220      7.86838         1.273435     -0.127571     -0.987385
      4.15088      5.71057     10.11434         0.634585     -0.175688      3.712102
      9.53836      0.70969      2.61737         1.557245      0.905086     -0.004253
      4.97978      8.00429      2.05418        -1.398226     -1.269093     -1.689648
      5.82436      6.04450      4.37584        -0.079898      0.526142      0.384486
      6.80207      4.62821      7.00134         0.058930      0.198677     -0.720022
      7.74011      3.24210      9.30255        -2.280812      1.141892      2.438273
      1.59925      2.43070      5.25100        -0.137621      0.056980     -0.160143
      2.57697      1.01441      7.87651         0.074287     -0.108408     -0.544856
      7.36177      9.02156     10.07993        -0.794330     -0.670047      4.115293
     10.40156      5.22749      0.62184        -0.233218      0.532041     -2.427502
     10.70128      3.84700      2.62550        -2.343559     -1.941505      2.751615
      4.93955      0.68603      1.23057         2.009827      1.267488     -2.321514
      6.47617      0.23320      3.50067        -1.100845      0.831636      2.349552
     11.02718      8.24201      6.12617         0.369102      0.220050     -0.444477
     12.00489      6.82571      8.75167        -1.283118     -0.086352     -0.510324
    total drift:                                0.079683      0.113411     -0.020437

  FREE ENERGIE OF THE ION-ELECTRON SYSTEM (eV)
  free  energy   TOTEN  =      -359.55008681 eV

  energy  without entropy=     -358.51301719  energy(sigma->0) =     -359.03155200