 vasp.5.4.4.18Apr17-6-g9f103f2a35 (build Aug 13 2019 17:33:20) gamma-only

 executed on             LinuxIFC date 2020.05.10  14:25:23

 INCAR:
 POTCAR:    PAW_PBE Ni_pv 06Sep2000
 POTCAR:    PAW_PBE S 06Sep2000
 POTCAR:    PAW_PBE Ni_pv 06Sep2000
   VRHFIN =Ni:

   TITEL  = PAW_PBE Ni_pv 06Sep2000
   POMASS =   58.690; ZVAL   =   16.000    mass and valenz
   ENMAX  =  367.986; ENMIN  =  275.989 eV

 POTCAR:    PAW_PBE S 06Sep2000
   VRHFIN =S : s2p4

   TITEL  = PAW_PBE S 06Sep2000
   POMASS =   32.066; ZVAL   =    6.000    mass and valenz
   ENMAX  =  258.689; ENMIN  =  194.016 eV

 Optimization of the real space projectors (new method)

 maximal supplied QI-value         = 18.90
 optimisation between [QCUT,QGAM] = [ 10.77, 21.73] = [ 32.49,132.25] Ry
 Optimized for a Real-space Cutoff    1.38 Angstroem

   l    n(q)    QCUT    max X(q) W(low)/X(q) W(high)/X(q)  e(spline)
   1      8    10.771     2.836    0.40E-04    0.29E-04    0.12E-06
   1      8    10.771     4.023    0.10E-03    0.48E-04    0.29E-06
   2      8    10.771    73.368    0.42E-03    0.97E-04    0.44E-06
   2      8    10.771    69.010    0.42E-03    0.99E-04    0.45E-06
   0      9    10.771    54.797    0.10E-03    0.56E-04    0.74E-07
   0      9    10.771    24.266    0.89E-04    0.49E-04    0.67E-07
 Optimization of the real space projectors (new method)

 maximal supplied QI-value         = 19.84
 optimisation between [QCUT,QGAM] = [ 10.71, 21.63] = [ 32.15,130.99] Ry
 Optimized for a Real-space Cutoff    1.19 Angstroem

   l    n(q)    QCUT    max X(q) W(low)/X(q) W(high)/X(q)  e(spline)
   0      8    10.715   187.594    0.41E-03    0.53E-04    0.66E-07
   0      8    10.715   164.243    0.41E-03    0.53E-04    0.65E-07
   1      7    10.715    67.533    0.19E-03    0.59E-03    0.68E-07
   1      7    10.715    50.729    0.19E-03    0.58E-03    0.67E-07
  PAW_PBE Ni_pv 06Sep2000               :
  PAW_PBE S 06Sep2000                   :

 POSCAR: Type_048 Type_148
  positions in cartesian coordinates
 exchange correlation table for  LEXCH =        8
   RHO(1)=    0.500       N(1)  =     2000
   RHO(2)=  100.500       N(2)  =     4000

 ion  position               nearest neighbor table
   1  0.261  0.479  0.253-  75 2.25  59 2.26  82 2.26  55 2.36  60 2.36   7 2.53  21 2.53
   2  0.355  0.385  0.388-  76 2.25  55 2.26  60 2.26   3 2.35  61 2.36  67 2.36   8 2.53  22 2.53

   3  0.366  0.373  0.496-  53 2.04  61 2.11  67 2.12   2 2.35
   4  0.167  0.073  0.118-  83 2.06  56 2.07  65 2.25  57 2.36  84 2.36  36 2.53  30 2.53
   5  0.042  0.054  0.466-  50 2.01  74 2.02  79 2.08
   6  0.274  0.333  0.083-  51 2.00  58 2.06  56 2.10  52 2.36  59 2.36  12 2.53  28 2.53
   7  0.368  0.239  0.218-  57 2.25  59 2.26  52 2.26  60 2.36  62 2.36   1 2.53  21 2.53
   8  0.462  0.145  0.353-  80 2.25  60 2.26  62 2.26  61 2.36  63 2.36   2 2.53  22 2.53
   9  0.000  0.372  0.218-  59 2.25  65 2.26  92 2.26  49 2.36  68 2.36  24 2.37  13 2.53  19 2.53

[...]

  15  0.866  0.373  0.496-  66 2.04  74 2.11  54 2.12  14 2.35
  16  0.667  0.073  0.118-  93 2.07  69 2.08  52 2.25  70 2.36  94 2.36  42 2.41
  17  0.542  0.054  0.466-  63 2.01  61 2.02  90 2.08
  18  0.774  0.333  0.083-  64 2.04  71 2.06  69 2.12  65 2.36  72 2.36  40 2.47
  19  0.868  0.239  0.218-  70 2.25  72 2.26  65 2.26  73 2.36  49 2.36  13 2.53   9 2.53
  20  0.962  0.145  0.353-  91 2.25  73 2.26  49 2.26  74 2.36  50 2.36  14 2.53  10 2.53
  21  0.500  0.372  0.218-  72 2.25  52 2.26  82 2.26  62 2.36  55 2.36   1 2.53   7 2.53
  22  0.594  0.278  0.353-  73 2.25  62 2.26  55 2.26  67 2.36  63 2.36   8 2.53   2 2.53
  23  0.686  0.198  0.466-  63 2.02  67 2.02  74 2.07
  24  0.989  0.442  0.114-  58 2.05  64 2.08  65 2.14  92 2.16   9 2.37  59 2.39
  25  0.261  0.979  0.253-  49 2.25  84 2.26  57 2.26  80 2.36  85 2.36  31 2.53  45 2.53
  26  0.355  0.885  0.388-  50 2.25  80 2.26  85 2.26  86 2.36  90 2.36  32 2.53  46 2.53
  27  0.455  0.785  0.505-  90 2.00  86 2.01  47 2.46  41 2.47
  28  0.167  0.573  0.118-  58 2.04  81 2.08  89 2.25  82 2.36  59 2.36  12 2.53   6 2.53
  29  0.051  0.550  0.473-  76 2.05  53 2.08  54 2.11  96 2.13  39 2.47
  30  0.274  0.833  0.083-  77 1.99  83 2.07  81 2.09  78 2.36  84 2.36  36 2.53   4 2.53
  31  0.368  0.739  0.218-  82 2.25  84 2.26  78 2.26  85 2.36  87 2.36  25 2.53  45 2.53
  32  0.462  0.645  0.353-  55 2.25  85 2.26  87 2.26  86 2.36  88 2.36  26 2.53  46 2.53
  33  0.000  0.872  0.218-  84 2.25  89 2.26  70 2.26  75 2.36  91 2.36  37 2.53  43 2.53
  34  0.094  0.778  0.353-  85 2.25  75 2.26  91 2.26  79 2.36  76 2.36  44 2.53  38 2.53
  35  0.189  0.688  0.473-  76 2.05  53 2.08  86 2.12  79 2.14  39 2.46
  36  0.406  0.965  0.083-  77 1.99  56 2.08  93 2.15  78 2.36  57 2.36   4 2.53  30 2.53
  37  0.761  0.979  0.253-  62 2.25  94 2.26  70 2.26  91 2.36  95 2.36  43 2.53  33 2.53
  38  0.855  0.885  0.388-  63 2.25  91 2.26  95 2.26  96 2.36  79 2.36  44 2.53  34 2.53
  39  0.955  0.785  0.505-  79 2.00  96 2.01  35 2.46  29 2.47
  40  0.677  0.555  0.131-  64 2.08  72 2.09  71 2.14  92 2.19  78 2.39  18 2.47
  41  0.551  0.550  0.473-  88 2.05  66 2.08  67 2.11  86 2.13  27 2.47
  42  0.785  0.836  0.103-  94 2.02  89 2.08  93 2.10  16 2.41  48 2.54
  43  0.868  0.739  0.218-  92 2.25  94 2.26  89 2.26  95 2.36  75 2.36  37 2.53  33 2.53
  44  0.962  0.645  0.353-  68 2.25  95 2.26  75 2.26  96 2.36  76 2.36  38 2.53  34 2.53
  45  0.500  0.872  0.218-  94 2.25  78 2.26  57 2.26  87 2.36  80 2.36  25 2.53  31 2.53
  46  0.594  0.778  0.353-  95 2.25  87 2.26  80 2.26  90 2.36  88 2.36  32 2.53  26 2.53
  47  0.689  0.688  0.473-  88 2.05  66 2.08  96 2.12  90 2.14  27 2.46
  48  0.924  0.962  0.102-  70 2.04  83 2.08  69 2.13  89 2.19  42 2.54
  49  0.073  0.167  0.270-  25 2.25  10 2.26  20 2.26   9 2.36  19 2.36
  50  0.167  0.073  0.405-   5 2.01  11 2.02  26 2.25  10 2.36  20 2.36
  51  0.367  0.373  0.013-  12 1.99   6 2.00
  52  0.479  0.261  0.135-  16 2.25   7 2.26  21 2.26   6 2.36  12 2.36
  53  0.205  0.535  0.530-   3 2.04  35 2.08  29 2.08  76 2.76
  54  0.030  0.378  0.451-  11 2.02  29 2.11  15 2.12  10 2.36  14 2.36
  55  0.436  0.472  0.315-  32 2.25   2 2.26  22 2.26   1 2.36  21 2.36
  56  0.261  0.157  0.064-   4 2.07  36 2.08   6 2.10  57 2.73
  57  0.342  0.066  0.180-   7 2.25  25 2.26  45 2.26   4 2.36  36 2.36  56 2.73
  58  0.100  0.488  0.053-  28 2.04  24 2.05   6 2.06
  59  0.174  0.397  0.180-   9 2.25   7 2.26   1 2.26   6 2.36  28 2.36  24 2.39
  60  0.268  0.303  0.315-  10 2.25   2 2.26   8 2.26   7 2.36   1 2.36
  61  0.362  0.209  0.451-  17 2.02  11 2.07   3 2.11   8 2.36   2 2.36
  62  0.573  0.167  0.270-  37 2.25  22 2.26   8 2.26  21 2.36   7 2.36
  63  0.667  0.073  0.405-  17 2.01  23 2.02  38 2.25  22 2.36   8 2.36
  64  0.819  0.485  0.062-  18 2.04  24 2.08  40 2.08  71 2.70  92 2.78
  65  0.979  0.261  0.135-  24 2.14   4 2.25  19 2.26   9 2.26  18 2.36
  66  0.705  0.535  0.530-  15 2.04  47 2.08  41 2.08  88 2.76
  67  0.530  0.378  0.451-  23 2.02  41 2.11   3 2.12  22 2.36   2 2.36
  68  0.936  0.472  0.315-  44 2.25  14 2.26  10 2.26  13 2.36   9 2.36
  69  0.776  0.147  0.068-  16 2.08  18 2.12  48 2.13  70 2.61
  70  0.842  0.066  0.180-  48 2.04  19 2.25  37 2.26  33 2.26  16 2.36  69 2.61
  71  0.583  0.479  0.068-  18 2.06  12 2.08  40 2.14  72 2.65  64 2.70
  72  0.674  0.397  0.180-  40 2.09  21 2.25  19 2.26  13 2.26  18 2.36  71 2.65
  73  0.768  0.303  0.315-  22 2.25  14 2.26  20 2.26  19 2.36  13 2.36
  74  0.862  0.209  0.451-   5 2.02  23 2.07  15 2.11  20 2.36  14 2.36
[...]
  82  0.342  0.566  0.180-  31 2.25   1 2.26  21 2.26  28 2.36  12 2.36  81 2.73
  83  0.085  0.980  0.064-   4 2.06  30 2.07  48 2.08  84 2.74
  84  0.174  0.897  0.180-  33 2.25  31 2.26  25 2.26  30 2.36   4 2.36  83 2.74
  85  0.268  0.803  0.315-  34 2.25  26 2.26  32 2.26  31 2.36  25 2.36
  86  0.362  0.709  0.451-  27 2.01  35 2.12  41 2.13  32 2.36  26 2.36
  87  0.573  0.667  0.270-  13 2.25  46 2.26  32 2.26  45 2.36  31 2.36
  88  0.667  0.573  0.405-  47 2.05  41 2.05  14 2.25  46 2.36  32 2.36  66 2.76
  89  0.979  0.761  0.135-  42 2.08  48 2.19  28 2.25  43 2.26  33 2.26
  90  0.530  0.878  0.451-  27 2.00  17 2.08  47 2.14  46 2.36  26 2.36
  91  0.936  0.972  0.315-  20 2.25  38 2.26  34 2.26  37 2.36  33 2.36
  92  0.842  0.566  0.180-  24 2.16  40 2.19  43 2.25  13 2.26   9 2.26  64 2.78
  93  0.596  0.963  0.067-  16 2.07  42 2.10  36 2.15  94 2.61
  94  0.674  0.897  0.180-  42 2.02  45 2.25  43 2.26  37 2.26  16 2.36  93 2.61
  95  0.768  0.803  0.315-  46 2.25  38 2.26  44 2.26  43 2.36  37 2.36
  96  0.862  0.709  0.451-  39 2.01  47 2.12  29 2.13  44 2.36  38 2.36

  LATTYP: Found a base centered orthorhombic cell.
 ALAT       =    11.8257374459
 B/A-ratio  =     1.6199260857
 C/A-ratio  =     1.8387210052

  Lattice vectors:

 A1 = (  11.2564630382,   0.0000000000,   0.0000000000)
 A2 = (  -5.0445621212, -10.0628203371,   0.0000000000)
 A3 = (   0.0000000000,   0.0000000000, -21.7442318436)

Analysis of symmetry for initial positions (statically):
 Subroutine PRICEL returns:
 Original cell was already a primitive cell.

 Routine SETGRP: Setting up the symmetry group for a
 base centered orthorhombic supercell.

 Subroutine GETGRP returns: Found  1 space group operations
 (whereof  1 operations were pure point group operations)
 out of a pool of  8 trial point group operations.

The static configuration has the point symmetry C_1 .

Analysis of symmetry for dynamics (positions and initial velocities):
 Subroutine PRICEL returns:
 Original cell was already a primitive cell.

 Routine SETGRP: Setting up the symmetry group for a
 base centered orthorhombic supercell.

 Subroutine GETGRP returns: Found  1 space group operations
 (whereof  1 operations were pure point group operations)
 out of a pool of  8 trial point group operations.

The dynamic configuration has the point symmetry C_1 .

 Subroutine INISYM returns: Found  1 space group operations
 (whereof  1 operations are pure point group operations),
 and found     1 'primitive' translations

 KPOINTS: gamma-point-only calculation. no periodi

Automatic generation of k-mesh.
Space group operators:
 irot       det(A)        alpha          n_x          n_y          n_z        tau_x        tau_y        tau_z
    1     1.000000     0.000000     1.000000     0.000000     0.000000     0.000000     0.000000     0.000000

 Subroutine IBZKPT returns following result:

 Found      1 irreducible k-points:

 Following reciprocal coordinates:
            Coordinates               Weight
  0.000000  0.000000  0.000000      1.000000

 Following cartesian coordinates:
            Coordinates               Weight
  0.000000  0.000000  0.000000      1.000000

 SYSTEM =  "Millerite NiS"
 POSCAR =  Type_048 Type_148

 Startparameter for this run:
   NWRITE =      2    write-flag & timer
   PREC   = normal    normal or accurate (medium, high low for compatibility)
   ISTART =      0    job   : 0-new  1-cont  2-samecut
   ICHARG =      2    charge: 1-file 2-atom 10-const
   ISPIN  =      1    spin polarized calculation?
   LNONCOLLINEAR =      F non collinear calculations
[...]
     0.000000000  0.000000000 21.744231844     0.000000000  0.000000000  0.045989208

  length of vectors
    11.256463038 11.256463038 21.744231844     0.099375718  0.099375718  0.045989208

 FORCES acting on ions
    electron-ion (+dipol)            ewald-force                    non-local-force                 convergence-correction
   0.199E+03 -.397E+03 0.579E+03   -.199E+03 0.398E+03 -.578E+03   -.129E+00 -.110E+01 -.905E+00   0.652E-01 -.566E-01 -.164E+00
   0.206E+03 -.297E+03 -.239E+04   -.207E+03 0.298E+03 0.239E+04   0.510E+00 -.788E+00 0.957E-02   0.664E-02 -.136E+00 -.223E+00
   -.639E+02 0.238E+03 -.559E+04   0.622E+02 -.235E+03 0.559E+04   0.240E+01 -.426E+01 -.168E+00   0.331E-01 -.161E+00 -.383E-01
   0.278E+03 -.421E+03 0.390E+04   -.281E+03 0.425E+03 -.390E+04   0.236E+01 -.346E+01 0.218E+01   0.386E-01 0.861E-01 0.126E+00
   -.107E+02 0.308E+03 -.503E+04   0.103E+02 -.310E+03 0.503E+04   0.360E+00 0.107E+01 0.139E+01   0.117E+00 0.877E-01 -.602E-01
   0.139E+03 0.518E+03 0.484E+04   -.140E+03 -.524E+03 -.484E+04   0.107E+01 0.390E+01 0.368E+01   -.531E-02 -.429E-01 0.900E-01
   0.191E+03 0.502E+03 0.168E+04   -.191E+03 -.504E+03 -.168E+04   -.750E-01 0.130E+01 0.380E+00   0.669E-01 0.258E-01 -.896E-01
   0.245E+03 0.482E+03 -.146E+04   -.246E+03 -.482E+03 0.146E+04   0.125E+01 0.602E+00 0.185E+01   -.446E-01 -.133E-01 -.218E+00
   -.428E+03 0.829E+02 0.144E+04   0.428E+03 -.840E+02 -.143E+04   -.578E+00 0.823E+00 -.167E+01   0.964E-02 -.188E-01 -.522E-01
   -.488E+03 0.408E+02 -.145E+04   0.489E+03 -.399E+02 0.144E+04   -.109E+01 -.837E+00 0.197E+01   0.658E-01 -.378E-01 -.239E+00
   -.217E+03 0.315E+03 -.502E+04   0.219E+03 -.315E+03 0.502E+04   -.152E+01 -.569E+00 0.123E+01   0.954E-01 -.428E-01 -.799E-01
   -.590E+03 -.327E+02 0.481E+04   0.595E+03 0.324E+02 -.482E+04   -.343E+01 0.276E+00 0.461E+01   -.661E-01 -.105E+00 0.130E+00
   0.271E+03 -.404E+03 0.547E+03   -.272E+03 0.405E+03 -.545E+03   0.750E+00 -.474E+00 -.171E+01   0.296E-01 -.260E-01 -.124E+00
   0.218E+03 -.299E+03 -.239E+04   -.218E+03 0.300E+03 0.239E+04   0.488E+00 -.849E+00 -.191E+00   0.316E-01 -.154E-01 -.220E+00
   -.611E+02 0.238E+03 -.559E+04   0.595E+02 -.234E+03 0.559E+04   0.235E+01 -.437E+01 -.140E+00   -.477E-02 -.251E-01 0.520E-01
   0.286E+03 -.452E+03 0.413E+04   -.288E+03 0.457E+03 -.413E+04   0.189E+01 -.328E+01 0.423E+01   -.405E-01 0.332E-01 0.116E+00
   -.102E+02 0.308E+03 -.503E+04   0.101E+02 -.309E+03 0.503E+04   0.397E+00 0.114E+01 0.142E+01   -.116E+00 0.575E-02 -.795E-01
   0.565E+02 0.365E+03 0.515E+04   -.570E+02 -.373E+03 -.516E+04   0.820E+00 0.505E+01 0.473E+01   -.103E-01 -.605E-01 0.587E-01
   0.278E+03 0.468E+03 0.169E+04   -.278E+03 -.468E+03 -.169E+04   0.267E+00 0.212E+00 0.753E+00   0.753E-02 0.367E-02 -.644E-01
   0.251E+03 0.480E+03 -.147E+04   -.252E+03 -.481E+03 0.147E+04   0.119E+01 0.562E+00 0.171E+01   0.362E-01 0.159E-01 -.319E+00
   -.517E+03 0.727E+01 0.171E+04   0.518E+03 -.696E+01 -.171E+04   -.474E+00 -.399E+00 0.744E+00   -.208E-01 -.203E-01 -.729E-01
   -.482E+03 0.317E+02 -.142E+04   0.483E+03 -.308E+02 0.142E+04   -.960E+00 -.817E+00 0.183E+01   -.800E-01 -.347E-02 -.282E+00
   -.214E+03 0.313E+03 -.501E+04   0.216E+03 -.313E+03 0.501E+04   -.152E+01 -.515E+00 0.128E+01   -.761E-01 0.389E-01 -.645E-01
   0.262E+02 -.193E+03 0.457E+04   -.255E+02 0.195E+03 -.458E+04   -.136E-01 -.185E+01 0.627E+01   0.549E-01 -.648E-01 0.681E-01
   0.221E+03 -.375E+03 0.563E+03   -.222E+03 0.375E+03 -.563E+03   0.578E+00 -.940E+00 -.516E+00   0.881E-01 -.579E-01 -.141E+00
   0.291E+03 -.522E+03 -.272E+04   -.292E+03 0.523E+03 0.272E+04   0.826E+00 -.126E+01 0.119E+01   0.127E+00 0.909E-01 -.173E+00
   0.308E+03 -.668E+03 -.578E+04   -.306E+03 0.666E+03 0.577E+04   -.110E+01 0.245E+01 0.606E+01   -.451E-02 0.109E+00 0.568E-01
   0.210E+03 -.577E+03 0.390E+04   -.211E+03 0.581E+03 -.390E+04   0.172E+01 -.322E+01 0.281E+01   0.232E-03 -.116E+00 0.534E-01
   0.347E+03 0.429E+03 -.475E+04   -.351E+03 -.432E+03 0.476E+04   0.271E+01 0.357E+01 -.203E+01   -.114E+00 -.155E+00 -.100E+00
   0.187E+03 0.476E+03 0.482E+04   -.188E+03 -.481E+03 -.482E+04   0.156E+01 0.345E+01 0.431E+01   -.259E-02 0.961E-02 0.155E+00
   0.205E+03 0.435E+03 0.172E+04   -.206E+03 -.435E+03 -.172E+04   0.622E+00 0.600E+00 0.114E+01   0.508E-01 0.758E-01 -.324E-01
   0.270E+03 0.372E+03 -.139E+04   -.271E+03 -.373E+03 0.139E+04   0.757E+00 0.170E+00 0.238E+01   0.461E-01 0.578E-01 -.263E+00
   -.540E+03 0.185E+02 0.158E+04   0.541E+03 -.184E+02 -.157E+04   -.116E+01 0.537E-01 -.996E+00   -.825E-01 -.334E-02 -.341E-01
   -.516E+03 -.114E+03 -.144E+04   0.517E+03 0.114E+03 0.144E+04   -.756E+00 -.674E+00 0.242E+01   -.408E-01 0.290E-01 -.434E+00
   -.583E+03 -.280E+03 -.476E+04   0.588E+03 0.281E+03 0.476E+04   -.394E+01 -.262E+00 -.202E+01   0.130E+00 -.170E-01 -.444E-01
   -.634E+03 0.788E+02 0.482E+04   0.640E+03 -.795E+02 -.483E+04   -.400E+01 0.516E+00 0.418E+01   0.403E-01 0.108E+00 0.151E+00
   0.280E+03 -.421E+03 0.530E+03   -.281E+03 0.422E+03 -.529E+03   0.674E+00 -.986E+00 -.799E+00   -.255E-01 -.687E-01 -.170E+00
   0.298E+03 -.527E+03 -.273E+04   -.299E+03 0.528E+03 0.273E+04   0.111E+01 -.128E+01 0.125E+01   -.127E+00 0.306E-01 -.328E+00
   0.309E+03 -.669E+03 -.578E+04   -.307E+03 0.666E+03 0.577E+04   -.120E+01 0.250E+01 0.621E+01   -.157E+00 0.150E+00 0.151E+00
   0.108E+03 -.679E+03 0.390E+04   -.108E+03 0.687E+03 -.390E+04   -.572E+00 -.580E+01 0.996E+00   -.113E-01 -.325E-01 0.830E-01
   0.348E+03 0.428E+03 -.475E+04   -.352E+03 -.432E+03 0.475E+04   0.272E+01 0.357E+01 -.208E+01   -.290E-01 0.424E-01 0.167E-01
   0.324E+03 0.619E+03 0.503E+04   -.323E+03 -.619E+03 -.504E+04   -.151E+01 -.162E+01 0.165E+01   -.892E-03 0.116E+00 0.186E+00
   0.285E+03 0.448E+03 0.165E+04   -.286E+03 -.449E+03 -.164E+04   0.565E+00 0.733E+00 -.860E+00   -.289E-02 0.834E-01 -.205E-02
   0.272E+03 0.369E+03 -.141E+04   -.273E+03 -.369E+03 0.141E+04   0.806E+00 0.222E-01 0.231E+01   -.103E+00 -.104E-01 -.398E+00
   -.514E+03 0.542E+00 0.174E+04   0.514E+03 -.570E+00 -.174E+04   0.404E-01 -.403E-01 0.810E+00   -.475E-01 0.299E-01 0.113E-01
   -.504E+03 -.118E+03 -.142E+04   0.504E+03 0.119E+03 0.142E+04   -.790E+00 -.700E+00 0.248E+01   0.509E-02 0.132E+00 -.293E+00
   -.580E+03 -.281E+03 -.476E+04   0.584E+03 0.282E+03 0.476E+04   -.394E+01 -.277E+00 -.198E+01   -.169E+00 0.950E-01 -.460E-01
   -.282E+03 0.301E+02 0.489E+04   0.286E+03 -.324E+02 -.490E+04   -.381E+01 0.164E+01 0.423E+01   -.575E-01 0.387E-01 0.113E+00
   -.743E+02 0.139E+03 0.237E+03   0.754E+02 -.141E+03 -.239E+03   -.111E+01 0.218E+01 0.182E+01   0.173E-01 -.782E-02 -.783E-01
   -.110E+03 0.191E+03 -.104E+04   0.111E+03 -.193E+03 0.104E+04   -.546E+00 0.593E+00 -.132E+01   0.779E-01 0.958E-02 -.867E-01
   -.948E+02 0.122E+03 0.234E+04   0.960E+02 -.123E+03 -.234E+04   -.918E+00 0.494E+00 0.109E+01   -.345E-01 -.238E-01 0.586E-01
   -.107E+03 0.159E+03 0.147E+04   0.108E+03 -.160E+03 -.147E+04   -.567E+00 0.826E+00 0.189E+01   -.437E-02 0.114E-01 0.333E-01
   -.287E+02 0.535E+02 -.236E+04   0.295E+02 -.547E+02 0.236E+04   -.545E+00 0.913E+00 -.197E+01   0.223E-01 -.946E-01 0.123E+00
   -.873E+02 -.522E+02 -.160E+04   0.890E+02 0.533E+02 0.160E+04   -.232E+01 -.950E-01 -.167E+01   -.107E-01 -.679E-01 -.428E-01
   -.763E+02 -.150E+03 -.217E+03   0.778E+02 0.153E+03 0.217E+03   -.144E+01 -.262E+01 -.248E+00   -.203E-01 -.496E-01 -.131E+00
   0.148E+02 -.114E+03 0.209E+04   -.167E+02 0.116E+03 -.209E+04   0.186E+01 -.860E+00 0.330E+01   0.249E-01 0.571E-01 0.437E-01
   -.886E+02 -.126E+03 0.941E+03   0.901E+02 0.128E+03 -.942E+03   -.130E+01 -.181E+01 0.815E+00   0.325E-02 -.282E-01 0.252E-01
   0.205E+03 -.186E+03 0.231E+04   -.208E+03 0.189E+03 -.231E+04   0.146E+01 -.194E+01 0.216E+01   0.202E-01 -.493E-01 0.318E-01
   0.729E+02 0.188E+02 0.878E+03   -.727E+02 -.193E+02 -.877E+03   -.414E+00 0.327E+00 -.429E+00   0.188E-02 -.151E-01 -.218E-01
   0.162E+03 0.177E+02 -.231E+03   -.165E+03 -.176E+02 0.231E+03   0.284E+01 -.160E+00 0.109E-01   0.101E-01 -.103E-01 -.674E-01
[...]
   0.170E+03 -.916E+02 0.215E+04   -.171E+03 0.941E+02 -.216E+04   0.673E+00 -.207E+01 0.333E+01   -.120E-01 0.339E-01 0.272E-01
   0.137E+03 0.711E+01 0.932E+03   -.140E+03 -.741E+01 -.932E+03   0.278E+01 0.635E-01 0.827E+00   0.149E-01 -.113E-02 0.523E-01
   0.162E+03 -.199E+02 -.240E+03   -.165E+03 0.199E+02 0.241E+03   0.301E+01 -.900E-01 -.243E+00   0.431E-01 0.430E-01 -.142E+00
   0.217E+03 -.806E+02 -.153E+04   -.220E+03 0.809E+02 0.153E+04   0.160E+01 0.597E-02 -.173E+01   0.141E+00 0.448E-01 -.379E-02
   -.691E+02 0.996E+02 0.262E+03   0.701E+02 -.101E+03 -.264E+03   -.977E+00 0.177E+01 0.237E+01   0.794E-02 0.525E-01 -.961E-01
   -.819E+02 0.120E+03 -.876E+03   0.830E+02 -.122E+03 0.872E+03   -.594E+00 0.117E+01 0.728E+00   -.156E-01 -.201E-02 -.854E-01
   -.920E+02 0.186E+03 0.154E+04   0.920E+02 -.188E+03 -.154E+04   0.904E+00 0.996E+00 0.191E+01   -.154E-01 0.960E-02 0.741E-01
   -.100E+03 -.251E+03 -.157E+04   0.101E+03 0.254E+03 0.157E+04   -.736E+00 -.172E+01 -.175E+01   -.778E-01 0.303E-01 -.296E-01
   -.683E+02 -.156E+03 -.255E+03   0.697E+02 0.158E+03 0.256E+03   -.137E+01 -.264E+01 -.568E+00   -.282E-01 0.104E-01 -.141E+00
   -.477E+01 -.250E+03 0.993E+03   0.639E+01 0.254E+03 -.993E+03   -.131E+01 -.223E+01 0.134E+01   0.320E-01 0.835E-02 0.384E-01
   0.686E+02 0.399E+02 0.212E+04   -.683E+02 -.398E+02 -.212E+04   -.857E+00 -.597E+00 0.311E+01   0.212E-01 0.397E-01 0.354E-01
   0.242E+03 -.176E+02 0.923E+03   -.245E+03 0.173E+02 -.921E+03   0.217E+01 0.572E+00 -.247E+00   0.427E-02 0.815E-02 0.475E-01
   0.173E+03 -.245E+02 -.244E+03   -.176E+03 0.243E+02 0.244E+03   0.299E+01 0.254E+00 0.209E-01   -.613E-02 0.428E-02 -.129E+00
   0.218E+03 -.814E+02 -.153E+04   -.221E+03 0.817E+02 0.153E+04   0.159E+01 -.155E-02 -.166E+01   -.213E-01 0.320E-01 -.852E-01
   -.212E+01 0.143E+02 -.931E+02   0.114E-12 -.104E-11 0.232E-10   0.226E+01 -.144E+02 0.976E+02   -.336E+00 0.138E+00 -.435E+01

 POSITION                                       TOTAL-FORCE (eV/Angst)
      5.35228      4.81788      5.50842        -0.013949      0.113719      0.035974
      5.93595      3.87238      8.44448        -0.018670      0.200718     -1.274311
      6.00085      3.75519     10.79300         0.713734     -0.956403      0.816001
      2.24633      0.73197      2.57236        -0.246935      0.447892      2.098355
      0.74311      0.54776     10.13762         0.150470     -0.411753      1.125351
      4.76861      3.35453      1.79664        -0.069747     -1.403200      2.525321
      5.35228      2.40903      4.73270         0.021228     -0.133468      0.062926
      5.93595      1.46353      7.66876         0.062682      0.151327     -0.270946
      1.87746      3.73836      4.73270        -0.204515     -0.307290      1.146233
      2.46113      2.79286      7.66876        -0.076021      0.001180     -0.241828
      3.09053      1.99565     10.13763         0.225443     -0.459000      1.052035
      6.92203      4.68386      1.79664         1.144461     -0.143355      2.759958
     10.98051      4.81788      5.50842        -0.071522      0.089136     -0.075593
     11.56418      3.87238      8.44448        -0.050802      0.242633     -1.305489
     11.62922      3.75494     10.79311         0.698845     -0.925030      0.831533
      7.87456      0.73197      2.57236        -0.283093      1.313720      1.555963
      6.37130      0.54774     10.13756         0.165711     -0.398414      1.138160
     10.39684      3.35453      1.79664         0.234252     -2.366880      1.171843
     10.98051      2.40903      4.73270        -0.012318     -0.044950      0.083601
     11.56418      1.46353      7.66876         0.080335      0.164091     -0.244364
      7.50570      3.73836      4.73270        -0.074345     -0.110002      0.148745
      8.08937      2.79286      7.66876        -0.073270      0.080821     -0.309354
      8.71875      1.99568     10.13759         0.155258     -0.458668      1.085341
     13.35994      4.45231      2.48646         0.720251     -0.047916      0.282218
      7.87456      9.84929      5.50842         0.008666     -0.119431     -0.157951
      8.45823      8.90379      8.44448        -0.019634     -0.171153     -0.000199
      9.08122      7.89627     10.98514         0.012015     -0.060976      1.373784
      4.76861      5.76338      2.57236         0.323300      0.696747      2.133821
      3.34924      5.53550     10.27691        -0.896107      0.235539      0.479196
      7.29089      8.38594      1.79664        -0.171329     -1.288860      2.780840
      7.87456      7.44044      4.73270         0.010562      0.159677      0.099765
      8.45823      6.49494      7.66876         0.076566     -0.135893     -0.039716
      4.39975      8.76977      4.73270        -0.014828      0.111521      0.115919
      4.98341      7.82427      7.66876        -0.065194     -0.216619     -0.036449
      5.60323      6.92553     10.27897         0.447700      1.053541      0.461760
      9.44431      9.71527      1.79664         1.671198     -0.134851      2.624223
     13.50279      9.84929      5.50842         0.052609     -0.043903     -0.048988
     14.08646      8.90379      8.44448        -0.021405     -0.122176      0.016682
     14.70953      7.89615     10.98515         0.011772     -0.066493      1.368698
     10.42211      5.58663      2.85508        -0.692481      2.090206      0.446979
      8.97745      5.53553     10.27691        -0.890412      0.234709      0.451090
     13.05024      8.41677      2.23640        -0.328393     -1.101254     -1.315136
     13.50279      7.44044      4.73270        -0.095911      0.048190      0.145968
     14.08646      6.49494      7.66876         0.124909     -0.110776     -0.042889
     10.02798      8.76977      4.73270        -0.099717     -0.038860      0.038560
     10.61165      7.82427      7.66876        -0.101286     -0.162270     -0.022619
     11.23140      6.92551     10.27908         0.454426      1.030370      0.464589
     15.25000      9.68130      2.21121        -0.100927     -0.636505     -0.913840
      1.66190      1.67871      5.87212        -0.011111      0.018731      0.054672
      2.24556      0.73321      8.80817         0.867076     -1.372472     -1.553719
      6.01819      3.75393      0.28287         0.208856     -0.667029     -4.245290
      6.70646      2.62422      2.93606         0.197241     -0.218956      0.138668
      5.00064      5.37967     11.52825         0.241242     -0.468721      2.613503
      2.24556      3.80055      9.79595        -0.659024      0.930801      0.043071
      7.29013      4.74605      6.85989         0.073168     -0.077178      0.011555
      3.72357      1.57515      1.39207        -0.030697      1.143167     -2.252629
      4.18418      0.66015      3.92384         0.221815     -0.047928      0.580238
      3.58495      4.90740      1.14595        -1.216440      0.994692     -3.525248
      3.96438      3.99884      3.92384        -0.177113     -0.176857      0.444380
      4.54805      3.05334      6.85989        -0.060692     -0.045267      0.041361
[...]
      6.70646      5.69156      3.92384         0.203884      0.032444      0.728320
      5.89462      9.85847      1.38142        -1.166915      0.463718     -2.651412
      6.48666      9.03025      3.92384         0.259860     -0.245334      0.865422
      7.07033      8.08475      6.85989        -0.018554      0.018037      0.004964
      7.65400      7.13925      9.79595        -1.388311      0.373595     -0.753878
      9.81241      6.71012      5.87212         0.105217     -0.045306      0.240894
     10.39608      5.76462      8.80817         0.530648     -0.831380     -2.996162
     14.85697      7.65563      2.93606         0.936271     -0.724367     -0.160590
     10.39608      8.83196      9.79595         0.475348      1.299775     -0.834716
     15.44064      9.77746      6.85989        -0.024323      0.033920     -0.040549
     12.33469      5.69156      3.92384         0.352925      1.203142      1.246914
     11.56307      9.68676      1.46332        -0.494630     -0.426794     -2.152676
     12.11489      9.03025      3.92384        -0.672569      0.278807      2.285988
     12.69856      8.08475      6.85989        -0.111688      0.081594      0.081456
     13.28223      7.13925      9.79595        -1.395078      0.326211     -0.780158
    total drift:                               -0.188876     -0.000649      0.089687

  FREE ENERGIE OF THE ION-ELECTRON SYSTEM (eV)
  free  energy   TOTEN  =      -474.85524261 eV

  energy  without entropy=     -473.75854247  energy(sigma->0) =     -474.30689254