 vasp.5.4.4.18Apr17-6-g9f103f2a35 (build Aug 13 2019 17:33:20) gamma-only

 executed on             LinuxIFC date 2020.05.10  14:04:43

 INCAR:
 POTCAR:    PAW_PBE Ni_pv 06Sep2000
 POTCAR:    PAW_PBE S 06Sep2000
 POTCAR:    PAW_PBE Ni_pv 06Sep2000
   VRHFIN =Ni:

   TITEL  = PAW_PBE Ni_pv 06Sep2000
   POMASS =   58.690; ZVAL   =   16.000    mass and valenz
   ENMAX  =  367.986; ENMIN  =  275.989 eV

 POTCAR:    PAW_PBE S 06Sep2000
   VRHFIN =S : s2p4

   TITEL  = PAW_PBE S 06Sep2000
   POMASS =   32.066; ZVAL   =    6.000    mass and valenz
   ENMAX  =  258.689; ENMIN  =  194.016 eV

 Optimization of the real space projectors (new method)

 maximal supplied QI-value         = 18.90
 optimisation between [QCUT,QGAM] = [ 10.77, 21.73] = [ 32.49,132.25] Ry
 Optimized for a Real-space Cutoff    1.38 Angstroem

   l    n(q)    QCUT    max X(q) W(low)/X(q) W(high)/X(q)  e(spline)
   1      8    10.771     2.836    0.40E-04    0.29E-04    0.12E-06
   1      8    10.771     4.023    0.10E-03    0.48E-04    0.29E-06
   2      8    10.771    73.368    0.42E-03    0.97E-04    0.44E-06
   2      8    10.771    69.010    0.42E-03    0.99E-04    0.45E-06
   0      9    10.771    54.797    0.10E-03    0.56E-04    0.74E-07
   0      9    10.771    24.266    0.89E-04    0.49E-04    0.67E-07
 Optimization of the real space projectors (new method)

 maximal supplied QI-value         = 19.84
 optimisation between [QCUT,QGAM] = [ 10.71, 21.63] = [ 32.15,130.99] Ry
 Optimized for a Real-space Cutoff    1.19 Angstroem

   l    n(q)    QCUT    max X(q) W(low)/X(q) W(high)/X(q)  e(spline)
   0      8    10.715   187.594    0.41E-03    0.53E-04    0.66E-07
   0      8    10.715   164.243    0.41E-03    0.53E-04    0.65E-07
   1      7    10.715    67.533    0.19E-03    0.59E-03    0.68E-07
   1      7    10.715    50.729    0.19E-03    0.58E-03    0.67E-07
  PAW_PBE Ni_pv 06Sep2000               :
  PAW_PBE S 06Sep2000                   :

 POSCAR: Type_048 Type_148
  positions in cartesian coordinates
 exchange correlation table for  LEXCH =        8
   RHO(1)=    0.500       N(1)  =     2000
   RHO(2)=  100.500       N(2)  =     4000

 ion  position               nearest neighbor table
   1  0.261  0.479  0.253-  74 2.25  58 2.26  80 2.26  54 2.36  59 2.36   7 2.53  21 2.53
   2  0.355  0.385  0.388-  75 2.25  54 2.26  59 2.26  60 2.36  66 2.36   8 2.53  22 2.53
   3  0.454  0.286  0.505-  60 2.00  66 2.00  17 2.48  23 2.48
   4  0.167  0.073  0.118-  55 2.07  81 2.07  64 2.25  56 2.36  82 2.36
   5  0.042  0.055  0.467-  50 2.02  73 2.02  77 2.09
   6  0.274  0.333  0.083-  51 1.99  57 2.08  55 2.14  52 2.36  58 2.36  12 2.53  28 2.53
   7  0.368  0.239  0.218-  56 2.25  58 2.26  52 2.26  59 2.36  61 2.36   1 2.53  21 2.53
   8  0.462  0.145  0.353-  78 2.25  59 2.26  61 2.26  60 2.36  62 2.36   2 2.53  22 2.53
   9  0.000  0.372  0.218-  58 2.25  64 2.26  92 2.26  49 2.36  67 2.36  13 2.53  19 2.53
  10  0.094  0.278  0.353-  59 2.25  49 2.26  67 2.26  53 2.36  50 2.36  20 2.53  14 2.53
  11  0.184  0.198  0.467-  50 2.02  53 2.02  60 2.09
  12  0.406  0.465  0.083-  51 1.99  79 2.07  70 2.10  52 2.36  80 2.36  28 2.53   6 2.53
  13  0.761  0.479  0.253-  85 2.25  71 2.26  92 2.26  67 2.36  72 2.36  19 2.53   9 2.53
  14  0.855  0.385  0.388-  86 2.25  67 2.26  72 2.26  73 2.36  53 2.36  15 2.40  20 2.53  10 2.53

  15  0.877  0.363  0.498-  65 2.05  53 2.08  73 2.08  14 2.40
  16  0.667  0.073  0.118-  93 2.06  68 2.07  52 2.25  69 2.36  94 2.36  48 2.53  42 2.53
  17  0.544  0.053  0.468-  62 2.03  60 2.05  89 2.08   3 2.48
  18  0.774  0.333  0.083-  63 1.99  70 2.08  68 2.10  64 2.36  71 2.36  24 2.53  40 2.53
  19  0.868  0.239  0.218-  69 2.25  71 2.26  64 2.26  72 2.36  49 2.36  13 2.53   9 2.53
  20  0.962  0.145  0.353-  90 2.25  72 2.26  49 2.26  73 2.36  50 2.36  14 2.53  10 2.53
  21  0.500  0.372  0.218-  71 2.25  52 2.26  80 2.26  61 2.36  54 2.36   1 2.53   7 2.53
  22  0.594  0.278  0.353-  72 2.25  61 2.26  54 2.26  66 2.36  62 2.36   8 2.53   2 2.53
  23  0.687  0.196  0.468-  62 2.03  66 2.05  73 2.08   3 2.48
  24  0.906  0.465  0.083-  63 1.99  91 2.08  57 2.10  64 2.36  92 2.36  40 2.53  18 2.53
  25  0.261  0.979  0.253-  49 2.25  82 2.26  56 2.26  78 2.36  83 2.36  31 2.53  45 2.53
  26  0.355  0.885  0.388-  50 2.25  78 2.26  83 2.26  84 2.36  89 2.36  32 2.53  46 2.53
  27  0.450  0.789  0.505-  89 2.00  84 2.00  47 2.49  41 2.49
  28  0.167  0.573  0.118-  79 2.06  57 2.07  88 2.25  80 2.36  58 2.36  12 2.53   6 2.53
  29  0.044  0.553  0.468-  75 2.03  96 2.05  53 2.08  39 2.48
  30  0.280  0.820  0.102-  82 2.05  79 2.09  81 2.12  76 2.15
  31  0.368  0.739  0.218-  80 2.25  82 2.26  76 2.26  83 2.36  85 2.36  25 2.53  45 2.53
  32  0.462  0.645  0.353-  54 2.25  83 2.26  85 2.26  84 2.36  86 2.36  26 2.53  46 2.53
  33  0.000  0.872  0.218-  82 2.25  88 2.26  69 2.26  74 2.36  90 2.36  37 2.53  43 2.53
  34  0.094  0.778  0.353-  83 2.25  74 2.26  90 2.26  77 2.36  75 2.36  44 2.53  38 2.53
  35  0.187  0.696  0.468-  75 2.03  77 2.05  84 2.08  39 2.48
  36  0.420  0.959  0.102-  56 2.05  93 2.09  55 2.12  76 2.15
  37  0.761  0.979  0.253-  61 2.25  94 2.26  69 2.26  90 2.36  95 2.36  43 2.53  33 2.53
  38  0.855  0.885  0.388-  62 2.25  90 2.26  95 2.26  96 2.36  77 2.36  44 2.53  34 2.53
  39  0.954  0.786  0.505-  77 2.00  96 2.00  35 2.48  29 2.48
  40  0.667  0.573  0.118-  91 2.07  70 2.07  76 2.25  92 2.36  71 2.36  24 2.53  18 2.53
  41  0.551  0.552  0.473-  86 2.05  65 2.08  84 2.13  66 2.14  27 2.49
  42  0.774  0.833  0.083-  87 1.99  93 2.07  91 2.10  88 2.36  94 2.36  48 2.53  16 2.53
  43  0.868  0.739  0.218-  92 2.25  94 2.26  88 2.26  95 2.36  74 2.36  37 2.53  33 2.53
  44  0.962  0.645  0.353-  67 2.25  95 2.26  74 2.26  96 2.36  75 2.36  38 2.53  34 2.53
  45  0.500  0.872  0.218-  94 2.25  76 2.26  56 2.26  85 2.36  78 2.36  25 2.53  31 2.53
  46  0.594  0.778  0.353-  95 2.25  85 2.26  78 2.26  89 2.36  86 2.36  32 2.53  26 2.53
  47  0.688  0.688  0.473-  86 2.05  65 2.08  89 2.13  96 2.14  27 2.49
  48  0.906  0.965  0.083-  87 1.99  68 2.08  81 2.14  88 2.36  69 2.36  16 2.53  42 2.53
  49  0.073  0.167  0.270-  25 2.25  10 2.26  20 2.26   9 2.36  19 2.36
  50  0.167  0.073  0.405-  11 2.02   5 2.02  26 2.25  10 2.36  20 2.36
  51  0.355  0.385  0.012-   6 1.99  12 1.99
  52  0.479  0.261  0.135-  16 2.25   7 2.26  21 2.26   6 2.36  12 2.36
  53  0.030  0.378  0.451-  11 2.02  29 2.08  15 2.08  10 2.36  14 2.36
  54  0.436  0.472  0.315-  32 2.25   2 2.26  22 2.26   1 2.36  21 2.36
  55  0.276  0.145  0.067-   4 2.07  36 2.12   6 2.14  56 2.61
  56  0.342  0.066  0.180-  36 2.05   7 2.25  25 2.26  45 2.26   4 2.36  55 2.61
  57  0.083  0.479  0.064-  28 2.07   6 2.08  24 2.10  58 2.73
  58  0.174  0.397  0.180-   9 2.25   7 2.26   1 2.26   6 2.36  28 2.36  57 2.73
  59  0.268  0.303  0.315-  10 2.25   2 2.26   8 2.26   7 2.36   1 2.36
  60  0.362  0.209  0.451-   3 2.00  17 2.05  11 2.09   8 2.36   2 2.36
  61  0.573  0.167  0.270-  37 2.25  22 2.26   8 2.26  21 2.36   7 2.36
  62  0.667  0.073  0.405-  17 2.03  23 2.03  38 2.25  22 2.36   8 2.36
  63  0.856  0.384  0.012-  18 1.99  24 1.99
  64  0.979  0.261  0.135-   4 2.25  19 2.26   9 2.26  18 2.36  24 2.36
  65  0.713  0.527  0.528-  15 2.05  47 2.08  41 2.08  86 2.73
  66  0.530  0.378  0.451-   3 2.00  23 2.05  41 2.14  22 2.36   2 2.36
  67  0.936  0.472  0.315-  44 2.25  14 2.26  10 2.26  13 2.36   9 2.36
  68  0.761  0.157  0.064-  16 2.07  48 2.08  18 2.10  69 2.73
  69  0.842  0.066  0.180-  19 2.25  37 2.26  33 2.26  16 2.36  48 2.36  68 2.73
  70  0.583  0.479  0.064-  40 2.07  18 2.08  12 2.10  71 2.73
  71  0.674  0.397  0.180-  21 2.25  19 2.26  13 2.26  18 2.36  40 2.36  70 2.73
  72  0.768  0.303  0.315-  22 2.25  14 2.26  20 2.26  19 2.36  13 2.36
  73  0.862  0.209  0.451-   5 2.02  23 2.08  15 2.08  20 2.36  14 2.36
  74  0.073  0.667  0.270-   1 2.25  34 2.26  44 2.26  33 2.36  43 2.36
[...]
  82  0.174  0.897  0.180-  30 2.05  33 2.25  31 2.26  25 2.26   4 2.36  81 2.61
  83  0.268  0.803  0.315-  34 2.25  26 2.26  32 2.26  31 2.36  25 2.36
  84  0.362  0.709  0.451-  27 2.00  35 2.08  41 2.13  32 2.36  26 2.36
  85  0.573  0.667  0.270-  13 2.25  46 2.26  32 2.26  45 2.36  31 2.36
  86  0.667  0.573  0.405-  47 2.05  41 2.05  14 2.25  46 2.36  32 2.36  65 2.73
  87  0.855  0.885  0.012-  48 1.99  42 1.99
  88  0.979  0.761  0.135-  28 2.25  43 2.26  33 2.26  42 2.36  48 2.36
  89  0.530  0.878  0.451-  27 2.00  17 2.08  47 2.13  46 2.36  26 2.36
  90  0.936  0.972  0.315-  20 2.25  38 2.26  34 2.26  37 2.36  33 2.36
  91  0.760  0.657  0.064-  40 2.07  24 2.08  42 2.10  92 2.73
  92  0.842  0.566  0.180-  43 2.25  13 2.26   9 2.26  40 2.36  24 2.36  91 2.73
  93  0.583  0.978  0.065-  16 2.06  42 2.07  36 2.09  94 2.70
  94  0.674  0.897  0.180-  45 2.25  43 2.26  37 2.26  42 2.36  16 2.36  93 2.70
  95  0.768  0.803  0.315-  46 2.25  38 2.26  44 2.26  43 2.36  37 2.36
  96  0.862  0.709  0.451-  39 2.00  29 2.05  47 2.14  44 2.36  38 2.36

  LATTYP: Found a base centered orthorhombic cell.
 ALAT       =    11.8257374459
 B/A-ratio  =     1.6199260857
 C/A-ratio  =     1.8387210052

  Lattice vectors:

 A1 = (  11.2564630382,   0.0000000000,   0.0000000000)
 A2 = (  -5.0445621212, -10.0628203371,   0.0000000000)
 A3 = (   0.0000000000,   0.0000000000, -21.7442318436)

Analysis of symmetry for initial positions (statically):
 Subroutine PRICEL returns:
 Original cell was already a primitive cell.

 Routine SETGRP: Setting up the symmetry group for a
 base centered orthorhombic supercell.

 Subroutine GETGRP returns: Found  2 space group operations
 (whereof  1 operations were pure point group operations)
 out of a pool of  8 trial point group operations.

The static configuration has the point symmetry C_1 .
 The point group associated with its full space group is C_1h.

Analysis of symmetry for dynamics (positions and initial velocities):
 Subroutine PRICEL returns:
 Original cell was already a primitive cell.

 Routine SETGRP: Setting up the symmetry group for a
 base centered orthorhombic supercell.

 Subroutine GETGRP returns: Found  2 space group operations
 (whereof  1 operations were pure point group operations)
 out of a pool of  8 trial point group operations.

The dynamic configuration has the point symmetry C_1 .
 The point group associated with its full space group is C_1h.

 Subroutine INISYM returns: Found  2 space group operations
 (whereof  1 operations are pure point group operations),
 and found     1 'primitive' translations

 KPOINTS: gamma-point-only calculation. no periodi

Automatic generation of k-mesh.
Space group operators:
 irot       det(A)        alpha          n_x          n_y          n_z        tau_x        tau_y        tau_z
    1     1.000000     0.000000     1.000000     0.000000     0.000000     0.000000     0.000000     0.000000
    2    -1.000000   180.000000     0.850925     0.525287     0.000000     0.239701    -0.760299     0.000000

 Subroutine IBZKPT returns following result:

 Found      1 irreducible k-points:

 Following reciprocal coordinates:
            Coordinates               Weight
[...]
     0.000000000  0.000000000 21.744231844     0.000000000  0.000000000  0.045989208

  length of vectors
    11.256463038 11.256463038 21.744231844     0.099375718  0.099375718  0.045989208

 FORCES acting on ions
    electron-ion (+dipol)            ewald-force                    non-local-force                 convergence-correction
   0.252E+03 -.387E+03 0.503E+03   -.253E+03 0.388E+03 -.503E+03   0.703E+00 -.107E+01 -.379E+00   -.295E-03 -.217E-02 -.792E-01
   0.307E+03 -.457E+03 -.275E+04   -.307E+03 0.459E+03 0.275E+04   0.664E+00 -.106E+01 0.148E+01   0.381E-02 0.127E-01 -.697E-01
   0.315E+03 -.358E+03 -.582E+04   -.311E+03 0.353E+03 0.582E+04   -.371E+01 0.513E+01 0.391E+01   0.202E-02 0.916E-02 0.410E-01
   0.272E+03 -.440E+03 0.404E+04   -.274E+03 0.445E+03 -.405E+04   0.229E+01 -.371E+01 0.398E+01   -.961E-02 0.156E-01 -.356E-01
   -.215E+02 0.355E+03 -.504E+04   0.213E+02 -.356E+03 0.504E+04   0.237E+00 0.956E+00 0.148E+01   0.963E-03 -.163E-01 -.820E-02
   0.285E+03 0.495E+03 0.476E+04   -.287E+03 -.500E+03 -.476E+04   0.151E+01 0.379E+01 0.436E+01   0.589E-02 -.312E-02 -.538E-01
   0.241E+03 0.426E+03 0.161E+04   -.242E+03 -.426E+03 -.161E+04   0.149E+00 0.402E+00 0.536E+00   0.629E-04 0.155E-02 -.703E-01
   0.281E+03 0.426E+03 -.149E+04   -.282E+03 -.426E+03 0.149E+04   0.108E+01 0.499E+00 0.253E+01   -.156E-02 -.101E-01 -.905E-01
   -.514E+03 -.183E+00 0.163E+04   0.515E+03 0.442E+00 -.163E+04   -.911E+00 -.331E+00 0.777E+00   -.274E-02 -.523E-03 -.663E-01
   -.525E+03 -.270E+01 -.149E+04   0.526E+03 0.344E+01 0.149E+04   -.110E+01 -.755E+00 0.192E+01   0.122E-02 0.550E-02 -.986E-01
   -.307E+03 0.178E+03 -.504E+04   0.309E+03 -.179E+03 0.504E+04   -.961E+00 0.217E+00 0.148E+01   0.141E-01 -.815E-02 -.820E-02
   -.512E+03 -.237E+02 0.475E+04   0.518E+03 0.232E+02 -.476E+04   -.384E+01 0.249E+00 0.449E+01   -.118E-01 -.209E-01 -.555E-01
   0.238E+03 -.386E+03 0.540E+03   -.239E+03 0.387E+03 -.539E+03   0.571E+00 -.925E+00 -.309E+00   0.182E-02 -.295E-02 -.680E-01
   0.206E+03 -.334E+03 -.244E+04   -.207E+03 0.335E+03 0.244E+04   0.555E+00 -.899E+00 0.263E+00   -.128E-01 0.208E-01 -.103E+00
   -.997E+02 0.161E+03 -.561E+04   0.970E+02 -.157E+03 0.561E+04   0.315E+01 -.510E+01 -.544E+00   -.133E-01 0.215E-01 0.258E-01
   0.268E+03 -.474E+03 0.380E+04   -.271E+03 0.478E+03 -.380E+04   0.245E+01 -.377E+01 0.230E+01   0.463E-02 0.706E-02 -.490E-01
   0.743E+02 0.509E+03 -.492E+04   -.744E+02 -.510E+03 0.492E+04   0.240E+00 0.656E+00 0.407E-01   -.321E-02 -.234E-01 0.191E-02
   0.227E+03 0.461E+03 0.472E+04   -.229E+03 -.466E+03 -.472E+04   0.131E+01 0.341E+01 0.450E+01   0.156E-01 -.177E-01 -.580E-01
   0.231E+03 0.460E+03 0.163E+04   -.231E+03 -.460E+03 -.163E+04   0.704E+00 0.666E+00 0.777E+00   0.170E-02 0.222E-02 -.663E-01
   0.238E+03 0.468E+03 -.149E+04   -.239E+03 -.469E+03 0.149E+04   0.117E+01 0.644E+00 0.192E+01   -.547E-02 0.137E-02 -.986E-01
   -.507E+03 -.201E+01 0.161E+04   0.507E+03 0.217E+01 -.162E+04   -.801E+00 -.154E+00 0.997E+00   -.598E-03 -.288E-02 -.642E-01
   -.468E+03 -.275E+02 -.145E+04   0.469E+03 0.281E+02 0.145E+04   -.776E+00 -.677E+00 0.251E+01   0.103E-01 0.803E-02 -.888E-01
   -.437E+03 0.310E+03 -.491E+04   0.438E+03 -.310E+03 0.491E+04   -.924E+00 -.522E+00 -.187E+00   -.454E-02 -.149E-02 -.457E-02
   -.514E+03 0.331E+01 0.472E+04   0.519E+03 -.384E+01 -.472E+04   -.364E+01 0.355E+00 0.450E+01   0.881E-02 -.219E-01 -.580E-01
   0.266E+03 -.431E+03 0.457E+03   -.266E+03 0.432E+03 -.456E+03   0.594E+00 -.961E+00 -.771E+00   0.201E-02 -.326E-02 -.717E-01
   0.309E+03 -.501E+03 -.276E+04   -.310E+03 0.502E+03 0.275E+04   0.891E+00 -.144E+01 0.130E+01   0.963E-02 -.156E-01 -.636E-01
   0.362E+03 -.587E+03 -.577E+04   -.361E+03 0.584E+03 0.576E+04   -.183E+01 0.297E+01 0.592E+01   0.635E-02 -.103E-01 0.292E-01
   0.303E+03 -.452E+03 0.380E+04   -.306E+03 0.457E+03 -.380E+04   0.227E+01 -.388E+01 0.230E+01   -.838E-02 -.971E-03 -.490E-01
   -.816E+02 0.529E+03 -.491E+04   0.810E+02 -.530E+03 0.491E+04   0.881E+00 0.592E+00 -.187E+00   0.337E-02 0.339E-02 -.457E-02
   0.777E+02 0.271E+03 0.481E+04   -.774E+02 -.275E+03 -.482E+04   0.184E+00 0.422E+01 0.358E+01   -.181E-01 -.775E-02 -.243E-01
   0.224E+03 0.498E+03 0.151E+04   -.225E+03 -.498E+03 -.151E+04   0.666E+00 0.929E+00 -.853E+00   0.963E-04 -.331E-02 -.522E-01
   0.304E+03 0.414E+03 -.148E+04   -.305E+03 -.415E+03 0.148E+04   0.935E+00 0.410E+00 0.252E+01   0.104E-01 -.375E-03 -.682E-01
   -.489E+03 -.249E+02 0.161E+04   0.489E+03 0.248E+02 -.161E+04   -.426E+00 0.467E-01 0.536E+00   -.141E-02 0.636E-03 -.703E-01
   -.507E+03 -.605E+02 -.149E+04   0.507E+03 0.612E+02 0.149E+04   -.928E+00 -.738E+00 0.253E+01   0.974E-02 -.314E-02 -.905E-01
   -.488E+03 0.162E+03 -.492E+04   0.489E+03 -.162E+03 0.492E+04   -.694E+00 0.791E-01 0.407E-01   0.223E-01 -.760E-02 0.190E-02
   -.277E+03 0.520E+02 0.481E+04   0.281E+03 -.542E+02 -.482E+04   -.385E+01 0.173E+01 0.358E+01   0.150E-01 0.127E-01 -.243E-01
   0.232E+03 -.399E+03 0.503E+03   -.233E+03 0.400E+03 -.503E+03   0.641E+00 -.111E+01 -.379E+00   0.208E-02 -.712E-03 -.792E-01
   0.272E+03 -.479E+03 -.275E+04   -.272E+03 0.480E+03 0.275E+04   0.652E+00 -.107E+01 0.148E+01   -.131E-01 0.229E-02 -.697E-01
   0.179E+03 -.442E+03 -.582E+04   -.176E+03 0.436E+03 0.582E+04   -.293E+01 0.561E+01 0.391E+01   -.910E-02 0.231E-02 0.410E-01
   0.290E+03 -.470E+03 0.382E+04   -.293E+03 0.474E+03 -.382E+04   0.215E+01 -.348E+01 0.235E+01   0.469E-02 -.759E-02 -.372E-01
   0.467E+03 0.415E+03 -.480E+04   -.470E+03 -.418E+03 0.480E+04   0.164E+01 0.317E+01 -.203E+01   0.760E-02 0.200E-01 -.171E-02
   0.251E+03 0.448E+03 0.475E+04   -.253E+03 -.452E+03 -.476E+04   0.150E+01 0.354E+01 0.449E+01   0.240E-01 0.119E-02 -.555E-01
   0.229E+03 0.452E+03 0.161E+04   -.229E+03 -.452E+03 -.162E+04   0.496E+00 0.647E+00 0.997E+00   0.285E-02 -.757E-03 -.642E-01
   0.234E+03 0.406E+03 -.145E+04   -.235E+03 -.406E+03 0.145E+04   0.953E+00 0.390E+00 0.251E+01   -.118E-01 -.558E-02 -.888E-01
   -.545E+03 0.224E+02 0.151E+04   0.546E+03 -.223E+02 -.151E+04   -.113E+01 -.179E+00 -.853E+00   0.291E-02 -.157E-02 -.522E-01
   -.507E+03 -.866E+02 -.148E+04   0.507E+03 0.870E+02 0.148E+04   -.786E+00 -.652E+00 0.252E+01   -.431E-02 -.944E-02 -.682E-01
   -.580E+03 -.232E+03 -.480E+04   0.584E+03 0.233E+03 0.480E+04   -.357E+01 -.464E-01 -.203E+01   -.213E-01 0.217E-02 -.171E-02
   -.570E+03 -.331E+02 0.476E+04   0.576E+03 0.326E+02 -.476E+04   -.407E+01 0.347E+00 0.436E+01   0.151E-03 -.666E-02 -.538E-01
   -.742E+02 0.120E+03 0.229E+03   0.754E+02 -.122E+03 -.230E+03   -.119E+01 0.193E+01 0.123E+01   -.197E-02 0.320E-02 -.318E-01
   -.113E+03 0.184E+03 -.104E+04   0.115E+03 -.186E+03 0.104E+04   -.489E+00 0.793E+00 -.983E+00   0.416E-02 -.674E-02 -.295E-01
   -.469E+02 0.870E+02 0.234E+04   0.475E+02 -.879E+02 -.234E+04   -.162E+00 0.338E+00 0.709E+00   -.300E-02 -.303E-02 -.110E-01
   -.838E+02 0.134E+03 0.143E+04   0.846E+02 -.135E+03 -.143E+04   -.629E+00 0.109E+01 0.216E+01   -.402E-02 0.212E-02 -.140E-01
   -.157E+03 -.779E+02 -.162E+04   0.158E+03 0.798E+02 0.162E+04   -.172E+01 -.906E+00 -.167E+01   0.850E-02 0.622E-02 -.173E-01
   -.610E+02 -.151E+03 -.260E+03   0.624E+02 0.154E+03 0.261E+03   -.138E+01 -.259E+01 -.204E+00   0.412E-02 0.388E-02 -.323E-01
   0.132E+02 -.656E+02 0.209E+04   -.141E+02 0.665E+02 -.210E+04   0.103E+01 -.310E+00 0.344E+01   0.423E-02 0.979E-02 -.104E-01
   -.418E+02 -.219E+03 0.866E+03   0.430E+02 0.221E+03 -.863E+03   -.144E+01 -.114E+01 0.251E+00   0.443E-02 0.444E-02 -.140E-01
   0.119E+03 -.730E+02 0.204E+04   -.120E+03 0.757E+02 -.205E+04   -.167E+00 -.200E+01 0.362E+01   -.454E-03 -.453E-02 -.159E-01
   0.172E+03 0.335E+00 0.912E+03   -.174E+03 -.849E+00 -.912E+03   0.225E+01 0.332E+00 0.755E+00   -.238E-02 -.502E-02 -.173E-01
   0.167E+03 -.501E+01 -.264E+03   -.170E+03 0.474E+01 0.264E+03   0.286E+01 0.214E+00 -.335E+00   -.236E-02 0.323E-03 -.372E-01
   0.251E+03 -.157E+02 -.160E+04   -.254E+03 0.159E+02 0.160E+04   0.975E+00 0.229E+00 -.172E+01   -.369E-03 -.807E-03 -.780E-02
[...]
   0.171E+03 -.110E+02 -.273E+03   -.175E+03 0.108E+02 0.273E+03   0.293E+01 0.304E+00 -.199E+00   0.406E-02 -.276E-02 -.310E-01
   0.247E+03 -.182E+02 -.157E+04   -.250E+03 0.186E+02 0.157E+04   0.188E+01 -.259E+00 -.168E+01   0.971E-02 -.355E-02 -.646E-02
   -.753E+02 0.122E+03 0.227E+03   0.765E+02 -.124E+03 -.230E+03   -.115E+01 0.186E+01 0.239E+01   -.113E-03 0.183E-03 -.243E-01
   -.790E+02 0.128E+03 -.895E+03   0.804E+02 -.130E+03 0.891E+03   -.899E+00 0.146E+01 0.970E+00   -.453E-02 0.734E-02 -.185E-01
   -.568E+02 0.809E+02 0.234E+04   0.573E+02 -.818E+02 -.234E+04   -.229E+00 0.296E+00 0.709E+00   0.405E-02 0.132E-02 -.110E-01
   -.819E+02 0.135E+03 0.143E+04   0.826E+02 -.136E+03 -.143E+04   -.697E+00 0.105E+01 0.216E+01   -.910E-04 0.454E-02 -.140E-01
   -.943E+02 -.229E+03 -.157E+04   0.954E+02 0.232E+03 0.157E+04   -.610E+00 -.179E+01 -.168E+01   -.118E-02 -.103E-01 -.646E-02
   -.704E+02 -.152E+03 -.264E+03   0.720E+02 0.154E+03 0.264E+03   -.147E+01 -.246E+01 -.335E+00   0.770E-03 0.226E-02 -.372E-01
   0.361E+02 -.153E+03 0.205E+04   -.382E+02 0.155E+03 -.206E+04   0.189E+01 -.676E+00 0.372E+01   0.881E-02 -.174E-02 -.171E-01
   -.759E+02 -.147E+03 0.912E+03   0.770E+02 0.149E+03 -.912E+03   -.903E+00 -.215E+01 0.821E+00   0.620E-02 -.218E-02 -.114E-01
   0.169E+03 -.797E+02 0.210E+04   -.171E+03 0.820E+02 -.211E+04   0.506E+00 -.186E+01 0.332E+01   0.147E-02 0.398E-02 -.157E-01
   0.144E+03 0.189E+01 0.903E+03   -.147E+03 -.208E+01 -.903E+03   0.283E+01 -.635E-01 0.927E+00   -.157E-02 -.231E-02 -.123E-01
   0.163E+03 -.133E+02 -.260E+03   -.166E+03 0.132E+02 0.261E+03   0.293E+01 0.761E-01 -.204E+00   -.531E-02 -.194E-02 -.323E-01
   0.208E+03 -.680E+02 -.156E+04   -.210E+03 0.683E+02 0.156E+04   0.736E+00 0.209E+00 -.195E+01   -.126E-01 0.135E-02 -.805E-02
   -.201E+01 0.324E+01 -.109E+03   -.222E-11 -.796E-12 0.114E-10   0.189E+01 -.307E+01 0.112E+03   0.336E-01 -.544E-01 -.311E+01

 POSITION                                       TOTAL-FORCE (eV/Angst)
      5.35228      4.81788      5.50842         0.095452     -0.098262     -0.187622
      5.93595      3.87238      8.44448         0.069049      0.092845     -0.070742
      6.55054      2.87548     10.97919        -0.017812     -0.068515      1.245744
      2.24633      0.73197      2.57236        -0.371844      0.602361      1.325418
      0.75204      0.55621     10.15208         0.033714     -0.396880      1.243545
      4.76861      3.35453      1.79664        -0.590129     -1.575583      2.634672
      5.35228      2.40903      4.73270         0.048353      0.052713     -0.000727
      5.93595      1.46353      7.66876         0.089423      0.033460     -0.130134
      1.87746      3.73836      4.73270        -0.102328     -0.073193      0.052931
      2.46113      2.79286      7.66876        -0.106005     -0.009939     -0.270657
      3.07312      1.98904     10.15208         0.339686     -0.208000      1.243545
      6.92203      4.68386      1.79664         1.236026     -0.310652      2.670487
     10.98051      4.81788      5.50842         0.060748     -0.098407     -0.142691
     11.56418      3.87238      8.44448        -0.104675      0.169566     -1.006162
     11.70271      3.64798     10.82931         0.515142     -0.834492      0.841677
      7.87456      0.73197      2.57236        -0.198374      0.572928      2.141044
      6.38852      0.53501     10.17193         0.167677     -0.269472      1.059172
     10.39684      3.35453      1.79664        -0.416655     -1.279784      2.800001
     10.98051      2.40903      4.73270         0.111290      0.058676      0.052931
     11.56418      1.46353      7.66876         0.056391      0.090310     -0.270657
      7.50570      3.73836      4.73270        -0.146822      0.004206      0.079475
      8.08937      2.79286      7.66876         0.043617     -0.031290     -0.182414
      8.71985      1.97412     10.17228         0.085541     -0.356634      0.962948
     12.55026      4.68386      1.79664         1.330798     -0.201060      2.800001
      7.87456      9.84929      5.50842         0.006807     -0.011027     -0.043862
      8.45823      8.90379      8.44448         0.057311     -0.092840     -0.072476
      9.05111      7.94337     10.98266         0.028286     -0.045822      1.374166
      4.76861      5.76338      2.57236        -0.423274      0.434095      2.141044
      3.27937      5.56440     10.17228         0.280481     -0.236295      0.962948
      7.29320      8.25178      2.21161         0.503974     -0.228570     -1.086542
      7.87456      7.44044      4.73270         0.032176     -0.000442      0.119330
      8.45823      6.49494      7.66876         0.184832     -0.071313     -0.030497
      4.39975      8.76977      4.73270        -0.068793     -0.019602     -0.000727
      4.98341      7.82427      7.66876        -0.069987     -0.064945     -0.130134
      5.61066      7.00358     10.17193         0.165753     -0.270659      1.059172
      9.56321      9.65308      2.21161        -0.021523     -0.552966     -1.086542
     13.50279      9.84929      5.50842         0.045066     -0.129366     -0.187622
     14.08646      8.90379      8.44448        -0.113944     -0.020119     -0.070742
     14.70223      7.90761     10.97919         0.069232     -0.014782      1.245744
     10.39684      5.76338      2.57236        -0.308030      0.498985      1.979183
      8.99155      5.55332     10.29099        -1.198874      0.126772      0.543763
     12.91912      8.38594      1.79664        -0.276213     -1.244175      2.670487
     13.50279      7.44044      4.73270         0.062039      0.133138      0.079475
     14.08646      6.49494      7.66876         0.008425     -0.053015     -0.182414
     10.02798      8.76977      4.73270        -0.014024     -0.028962      0.119330
     10.61165      7.82427      7.66876        -0.019081     -0.197191     -0.030497
     11.21441      6.92552     10.29099         0.423944      1.128557      0.543763
     15.07254      9.71527      1.79664         1.672972     -0.178543      2.634672
      1.66190      1.67871      5.87212         0.054825     -0.088813      0.097330
      2.24556      0.73321      8.80817         0.899911     -1.457790     -1.749222
      5.93206      3.87176      0.27122         0.459582     -0.510464     -4.389414
      6.70646      2.62422      2.93606         0.071180     -0.107599      0.124153
      2.24556      3.80055      9.79595        -0.159255      1.036261     -0.122428
      7.29013      4.74605      6.85989         0.052879      0.041916      0.098515
      3.83741      1.45680      1.46329         0.185049      0.565027     -1.965642
      4.18418      0.66015      3.92384        -0.173326      0.766479      2.594653
      3.35108      4.81728      1.39751        -1.132783      0.650760     -2.400146
      3.96438      3.99884      3.92384        -0.039578     -0.187833      0.668886
      4.54805      3.05334      6.85989        -0.089286     -0.056791      0.056508
      5.13172      2.10784      9.79595        -1.711632      0.428231     -0.676620
[...]
      6.48666      9.03025      3.92384        -0.607525      0.498442      2.594653
      7.07033      8.08475      6.85989        -0.103372      0.064551      0.005138
      7.65400      7.13925      9.79595        -1.267893      0.126130     -0.784433
      9.81241      6.71012      5.87212        -0.005924      0.009596      0.082842
     10.39608      5.76462      8.80817         0.485801     -0.786962     -2.941438
     14.08876      8.90699      0.27122         0.250373     -0.639611     -4.389414
     14.85697      7.65563      2.93606         0.064289     -0.111853      0.124153
     10.39608      8.83196      9.79595         0.455449      1.189970     -0.784433
     15.44064      9.77746      6.85989         0.090782      0.054368      0.056508
     11.87254      6.60846      1.39451        -0.118933      1.239156     -2.445364
     12.33469      5.69156      3.92384         0.206000     -0.031249      0.760614
     11.49234      9.84405      1.42354        -1.324277      0.415069     -2.646666
     12.11489      9.03025      3.92384         0.239234     -0.261107      0.951668
     12.69856      8.08475      6.85989        -0.061168     -0.028487      0.098515
     13.28223      7.13925      9.79595        -1.775622      0.501738     -0.588886
    total drift:                               -0.086447      0.118983      0.092917

  FREE ENERGIE OF THE ION-ELECTRON SYSTEM (eV)
  free  energy   TOTEN  =      -474.68816421 eV

  energy  without entropy=     -473.60376417  energy(sigma->0) =     -474.14596419