 vasp.5.4.4.18Apr17-6-g9f103f2a35 (build Aug 13 2019 17:33:20) gamma-only

 executed on             LinuxIFC date 2020.05.11  18:59:32

 INCAR:
 POTCAR:    PAW_PBE Ni_pv 06Sep2000
 POTCAR:    PAW_PBE S 06Sep2000
 POTCAR:    PAW_PBE Ni_pv 06Sep2000
   VRHFIN =Ni:

   TITEL  = PAW_PBE Ni_pv 06Sep2000
   POMASS =   58.690; ZVAL   =   16.000    mass and valenz
   ENMAX  =  367.986; ENMIN  =  275.989 eV

 POTCAR:    PAW_PBE S 06Sep2000
   VRHFIN =S : s2p4

   TITEL  = PAW_PBE S 06Sep2000
   POMASS =   32.066; ZVAL   =    6.000    mass and valenz
   ENMAX  =  258.689; ENMIN  =  194.016 eV

 Optimization of the real space projectors (new method)

 maximal supplied QI-value         = 18.90
 optimisation between [QCUT,QGAM] = [ 10.77, 21.73] = [ 32.49,132.25] Ry
 Optimized for a Real-space Cutoff    1.38 Angstroem

   l    n(q)    QCUT    max X(q) W(low)/X(q) W(high)/X(q)  e(spline)
   1      8    10.771     2.836    0.40E-04    0.29E-04    0.12E-06
   1      8    10.771     4.023    0.10E-03    0.48E-04    0.29E-06
   2      8    10.771    73.368    0.42E-03    0.97E-04    0.44E-06
   2      8    10.771    69.010    0.42E-03    0.99E-04    0.45E-06
   0      9    10.771    54.797    0.10E-03    0.56E-04    0.74E-07
   0      9    10.771    24.266    0.89E-04    0.49E-04    0.67E-07
 Optimization of the real space projectors (new method)

 maximal supplied QI-value         = 19.84
 optimisation between [QCUT,QGAM] = [ 10.71, 21.63] = [ 32.15,130.99] Ry
 Optimized for a Real-space Cutoff    1.19 Angstroem

   l    n(q)    QCUT    max X(q) W(low)/X(q) W(high)/X(q)  e(spline)
   0      8    10.715   187.594    0.41E-03    0.53E-04    0.66E-07
   0      8    10.715   164.243    0.41E-03    0.53E-04    0.65E-07
   1      7    10.715    67.533    0.19E-03    0.59E-03    0.68E-07
   1      7    10.715    50.729    0.19E-03    0.58E-03    0.67E-07
  PAW_PBE Ni_pv 06Sep2000               :
  PAW_PBE S 06Sep2000                   :

 POSCAR: Type_036 Type_136
  positions in cartesian coordinates
 exchange correlation table for  LEXCH =        8
   RHO(1)=    0.500       N(1)  =     2000
   RHO(2)=  100.500       N(2)  =     4000

 ion  position               nearest neighbor table
   1  0.780  0.145  0.121-  63 2.06  49 2.09  41 2.25  50 2.36  64 2.36
   2  0.799  0.145  0.286-  64 2.04  50 2.05  42 2.06
   3  0.219  0.635  0.091-  43 2.02  44 2.06  61 2.23  51 2.37   4 2.42  15 2.42
   4  0.297  0.645  0.216-  52 2.09  62 2.19  51 2.26  61 2.26  44 2.30   3 2.42  28 2.53  16 2.53

   5  0.387  0.134  0.126-  45 2.04  46 2.12  67 2.27  53 2.42   6 2.42  29 2.49
   6  0.470  0.145  0.248-  68 2.05  54 2.09  46 2.25  53 2.26  67 2.26   5 2.42  30 2.53  19 2.53

[...]

  68  0.520  0.992  0.318-  19 2.03   6 2.05  54 2.73  67 2.78
  69  0.657  0.477  0.183-  11 2.18  30 2.25  24 2.26  12 2.26  23 2.32  70 2.79
  70  0.693  0.496  0.350-  24 2.03  12 2.03  69 2.79
  71  0.140  0.967  0.110-  21 2.10   9 2.10  31 2.10  72 2.78
  72  0.174  0.977  0.278-  32 2.04  22 2.04  10 2.15   9 2.36  21 2.36  58 2.73  71 2.78

  LATTYP: Found a simple orthorhombic cell.
 ALAT       =     9.5784100000
 B/A-ratio  =     1.6880763216
 C/A-ratio  =     1.7627867312

  Lattice vectors:

 A1 = (   0.0000000000,   9.5784100000,   0.0000000000)
 A2 = (   0.0000000000,   0.0000000000, -16.1690871197)
 A3 = ( -16.8846940542,   0.0000000000,   0.0000000000)

Analysis of symmetry for initial positions (statically):
 Subroutine PRICEL returns:
 Original cell was already a primitive cell.

 Routine SETGRP: Setting up the symmetry group for a
 simple orthorhombic supercell.

 Subroutine GETGRP returns: Found  1 space group operations
 (whereof  1 operations were pure point group operations)
 out of a pool of  8 trial point group operations.

The static configuration has the point symmetry C_1 .

Analysis of symmetry for dynamics (positions and initial velocities):
 Subroutine PRICEL returns:
 Original cell was already a primitive cell.

 Routine SETGRP: Setting up the symmetry group for a
 simple orthorhombic supercell.

 Subroutine GETGRP returns: Found  1 space group operations
 (whereof  1 operations were pure point group operations)
 out of a pool of  8 trial point group operations.

The dynamic configuration has the point symmetry C_1 .

 Subroutine INISYM returns: Found  1 space group operations
 (whereof  1 operations are pure point group operations),
 and found     1 'primitive' translations

 KPOINTS: gamma-point-only calculation. no periodi

Automatic generation of k-mesh.
Space group operators:
 irot       det(A)        alpha          n_x          n_y          n_z        tau_x        tau_y        tau_z
    1     1.000000     0.000000     1.000000     0.000000     0.000000     0.000000     0.000000     0.000000

 Subroutine IBZKPT returns following result:

 Found      1 irreducible k-points:

 Following reciprocal coordinates:
            Coordinates               Weight
  0.000000  0.000000  0.000000      1.000000

 Following cartesian coordinates:
            Coordinates               Weight
  0.000000  0.000000  0.000000      1.000000

 SYSTEM =  "Millerite NiS"
 POSCAR =  Type_036 Type_136

 Startparameter for this run:
   NWRITE =      2    write-flag & timer
   PREC   = normal    normal or accurate (medium, high low for compatibility)
   ISTART =      0    job   : 0-new  1-cont  2-samecut
   ICHARG =      2    charge: 1-file 2-atom 10-const
   ISPIN  =      1    spin polarized calculation?
   LNONCOLLINEAR =      F non collinear calculations
   LSORBIT =      F    spin-orbit coupling
   INIWAV =      1    electr: 0-lowe 1-rand  2-diag
   LASPH  =      F    aspherical Exc in radial PAW
   METAGGA=      F    non-selfconsistent MetaGGA calc.

 Electronic Relaxation 1
   ENCUT  =  450.0 eV  33.07 Ry    5.75 a.u.  29.20 16.57 27.97*2*pi/ulx,y,z
   ENINI  =  450.0     initial cutoff
   ENAUG  =  703.4 eV  augmentation charge cutoff
   NELM   =    100;   NELMIN=  2; NELMDL= -5     # of ELM steps
   EDIFF  = 0.1E-03   stopping-criterion for ELM
   LREAL  =      T    real-space projection
   NLSPLINE    = F    spline interpolate recip. space projectors
   LCOMPAT=      F    compatible to vasp.4.4
   GGA_COMPAT  = T    GGA compatible to vasp.4.4-vasp.4.6
   LMAXPAW     = -100 max onsite density
   LMAXMIX     =    2 max onsite mixed and CHGCAR
   VOSKOWN=      0    Vosko Wilk Nusair interpolation
   ROPT   =   -0.00050  -0.00050
 Ionic relaxation
   EDIFFG = 0.1E-02   stopping-criterion for IOM
   NSW    =      0    number of steps for IOM
   NBLOCK =      1;   KBLOCK =      1    inner block; outer block
   IBRION =     -1    ionic relax: 0-MD 1-quasi-New 2-CG
   NFREE  =      0    steps in history (QN), initial steepest desc. (CG)
   ISIF   =      2    stress and relaxation
   IWAVPR =     10    prediction:  0-non 1-charg 2-wave 3-comb
   ISYM   =      2    0-nonsym 1-usesym 2-fastsym
   LCORR  =      T    Harris-Foulkes like correction to forces

   POTIM  = 0.5000    time-step for ionic-motion
   TEIN   =    0.0    initial temperature
   TEBEG  =    0.0;   TEEND  =   0.0 temperature during run
   SMASS  =  -3.00    Nose mass-parameter (am)
   estimated Nose-frequenzy (Omega)   =  0.10E-29 period in steps =****** mass=  -0.652E-26a.u.
   SCALEE = 1.0000    scale energy and forces
   NPACO  =    256;   APACO  = 16.0  distance and # of slots for P.C.
   PSTRESS=    0.0 pullay stress

  Mass of Ions in am
   POMASS =  58.69 32.07
  Ionic Valenz
   ZVAL   =  16.00  6.00
  Atomic Wigner-Seitz radii
  virtual crystal weights
   VCA    =   1.00  1.00
   NELECT =     792.0000    total number of electrons
   NUPDOWN=      -1.0000    fix difference up-down

 DOS related values:
   EMIN   =  10.00;   EMAX   =-10.00  energy-range for DOS
   EFERMI =   0.00
   ISMEAR =     0;   SIGMA  =   0.20  broadening in eV -4-tet -1-fermi 0-gaus

 Electronic relaxation 2 (details)
   IALGO  =     38    algorithm
   LDIAG  =      T    sub-space diagonalisation (order eigenvalues)
   LSUBROT=      F    optimize rotation matrix (better conditioning)
   TURBO    =      0    0=normal 1=particle mesh
   IRESTART =      0    0=no restart 2=restart with 2 vectors
   NREBOOT  =      0    no. of reboots
   NMIN     =      0    reboot dimension
   EREF     =   0.00    reference energy to select bands
   IMIX   =      4    mixing-type and parameters
     AMIX     =   0.40;   BMIX     =  1.00
     AMIX_MAG =   1.60;   BMIX_MAG =  1.00
     AMIN     =   0.10
     WC   =   100.;   INIMIX=   1;  MIXPRE=   1;  MAXMIX= -45

 Intra band minimization:
   WEIMIN = 0.0000     energy-eigenvalue tresh-hold
   EBREAK =  0.53E-07  absolut break condition
   DEPER  =   0.30     relativ break condition

   TIME   =   0.40     timestep for ELM

  volume/ion in A,a.u.               =      36.32       245.10
  Fermi-wavevector in a.u.,A,eV,Ry     =   1.099409  2.077581 16.445356  1.208700
  Thomas-Fermi vector in A             =   2.235803

 Write flags
   LWAVE        =      F    write WAVECAR
   LDOWNSAMPLE  =      F    k-point downsampling of WAVECAR
   LCHARG       =      F    write CHGCAR
   LVTOT        =      F    write LOCPOT, total local potential
   LVHAR        =      F    write LOCPOT, Hartree potential only
   LELF         =      F    write electronic localiz. function (ELF)
   LORBIT       =      0    0 simple, 1 ext, 2 COOP (PROOUT), +10 PAW based schemes

 Dipole corrections
   LMONO  =      F    monopole corrections only (constant potential shift)
   LDIPOL =      F    correct potential (dipole corrections)
   IDIPOL =      0    1-x, 2-y, 3-z, 4-all directions
   EPSILON=  1.0000000 bulk dielectric constant

 Exchange correlation treatment:
   GGA     =    --    GGA type
   VOSKOWN=      0    Vosko Wilk Nusair interpolation
   LHFCALC =     F    Hartree Fock is set to
   LHFONE  =     F    Hartree Fock one center treatment
   AEXX    =    0.0000 exact exchange contribution

 Linear response parameters
   LEPSILON=     F    determine dielectric tensor
   LRPA    =     F    only Hartree local field effects (RPA)
   LNABLA  =     F    use nabla operator in PAW spheres
   LVEL    =     F    velocity operator in full k-point grid
   LINTERFAST=   F  fast interpolation
   KINTER  =     0    interpolate to denser k-point grid
   CSHIFT  =0.1000    complex shift for real part using Kramers Kronig
   OMEGAMAX=  -1.0    maximum frequency
   DEG_THRESHOLD= 0.2000000E-02 threshold for treating states as degnerate
   RTIME   =   -0.100 relaxation time in fs
  (WPLASMAI=    0.000 imaginary part of plasma frequency in eV, 0.658/RTIME)
   DFIELD  = 0.0000000 0.0000000 0.0000000 field for delta impulse in time

 Orbital magnetization related:
   ORBITALMAG=     F  switch on orbital magnetization
   LCHIMAG   =     F  perturbation theory with respect to B field
   DQ        =  0.001000  dq finite difference perturbation B field
   LLRAUG    =     F  two centre corrections for induced B field

 Static calculation
 charge density and potential will be updated during run
 non-spin polarized calculation
 Variant of blocked Davidson
 Davidson routine will perform the subspace rotation
 perform sub-space diagonalisation
    after iterative eigenvector-optimisation
[...]
  Fock        0.00000     0.00000     0.00000     0.00000     0.00000     0.00000
  Total     114.96556   119.33511   146.16733    -0.13702     4.36101    -6.72361
  in kB      70.43787    73.11503    89.55478    -0.08395     2.67194    -4.11947

 VOLUME and BASIS-vectors are now :
  energy-cutoff  :      450.00
  volume of cell :     2615.00
      direct lattice vectors                 reciprocal lattice vectors
    16.884694054  0.000000000  0.000000000     0.059225237  0.000000000  0.000000000
     0.000000000  9.578410000  0.000000000     0.000000000  0.104401461  0.000000000
     0.000000000  0.000000000 16.169087120     0.000000000  0.000000000  0.061846411

  length of vectors
    16.884694054  9.578410000 16.169087120     0.059225237  0.104401461  0.061846411

 FORCES acting on ions
    electron-ion (+dipol)            ewald-force                    non-local-force                 convergence-correction
   0.384E+03 -.249E+03 0.207E+04   -.386E+03 0.250E+03 -.208E+04   0.264E+01 -.101E+01 0.593E+01   0.426E-02 0.144E-01 0.117E-01
   0.337E+03 -.285E+02 -.292E+04   -.342E+03 0.276E+02 0.292E+04   0.477E+01 0.861E+00 0.152E+01   0.424E-03 0.818E-02 0.385E-02
   0.270E+03 0.139E+03 0.274E+04   -.270E+03 -.138E+03 -.275E+04   0.776E+00 0.735E-01 0.640E+01   0.276E-02 -.353E-02 0.742E-02
   0.657E+03 0.121E+03 -.144E+04   -.660E+03 -.121E+03 0.144E+04   0.236E+01 -.727E+00 -.488E+01   -.181E-02 0.605E-02 -.196E-02
   0.181E+03 -.308E+03 0.218E+04   -.182E+03 0.309E+03 -.219E+04   0.166E+01 -.965E+00 0.811E+01   -.682E-02 0.343E-02 0.845E-02
   0.342E+03 -.123E+02 -.206E+04   -.346E+03 0.140E+02 0.207E+04   0.285E+01 -.823E+00 -.747E+01   -.615E-02 -.938E-02 0.635E-02
   0.422E+03 -.134E+03 0.125E+04   -.428E+03 0.136E+03 -.125E+04   0.506E+01 -.191E+01 0.273E+01   -.449E-02 -.893E-02 0.329E-02
   -.271E+03 0.170E+03 -.323E+04   0.268E+03 -.169E+03 0.322E+04   0.305E+01 -.138E+01 0.172E+01   -.130E-01 -.674E-02 -.761E-02
   0.441E+03 -.208E+03 0.752E+03   -.445E+03 0.208E+03 -.758E+03   0.409E+01 -.291E+00 0.485E+01   -.348E-03 0.593E-02 0.200E-02
   -.234E+03 -.175E+03 -.333E+04   0.233E+03 0.176E+03 0.333E+04   0.229E+01 -.988E+00 -.534E+01   0.698E-03 0.431E-02 0.849E-03
   -.367E+03 0.494E+03 0.173E+04   0.369E+03 -.496E+03 -.174E+04   -.131E+01 0.126E+01 0.312E+01   0.857E-02 -.651E-02 0.987E-02
   0.344E+03 -.183E+01 -.249E+04   -.347E+03 0.205E+01 0.249E+04   0.201E+01 -.334E+00 -.766E+01   0.213E-01 -.116E-02 0.673E-02
   -.576E+03 0.337E+02 0.241E+04   0.582E+03 -.363E+02 -.242E+04   -.543E+01 0.309E+01 0.536E+01   0.683E-02 0.115E-02 0.590E-02
   0.222E+02 0.537E+03 -.219E+04   -.209E+02 -.540E+03 0.220E+04   -.190E+01 0.299E+01 -.424E+01   -.451E-02 0.391E-02 0.218E-02
   0.680E+02 0.457E+03 0.380E+04   -.702E+02 -.457E+03 -.380E+04   0.205E+01 0.362E+00 0.540E+01   -.806E-02 -.819E-02 0.970E-02
   -.164E+03 0.562E+03 0.268E+03   0.164E+03 -.567E+03 -.269E+03   0.681E+00 0.418E+01 -.742E+00   -.112E-01 0.110E-01 -.192E-01
   -.939E+02 -.653E+02 -.354E+04   0.951E+02 0.615E+02 0.354E+04   -.114E+01 0.445E+01 0.140E+01   0.248E-02 0.997E-02 -.397E-02
   -.587E+03 0.302E+03 0.317E+04   0.585E+03 -.302E+03 -.318E+04   0.180E+01 -.282E+00 0.164E+01   0.451E-02 -.405E-02 0.751E-02
   -.428E+03 0.288E+03 -.143E+04   0.433E+03 -.292E+03 0.143E+04   -.341E+01 0.413E+01 -.639E+01   0.462E-02 -.663E-02 0.125E-01
   -.178E+03 0.675E+03 0.151E+04   0.179E+03 -.680E+03 -.151E+04   -.112E+01 0.514E+01 -.223E+00   -.223E-02 -.276E-02 0.326E-02
   0.235E+03 0.346E+03 0.118E+04   -.236E+03 -.350E+03 -.118E+04   0.131E+01 0.274E+01 0.403E+01   -.262E-02 -.631E-02 0.121E-01
   -.839E+02 0.179E+03 -.334E+04   0.856E+02 -.184E+03 0.334E+04   -.184E+01 0.482E+01 0.218E+01   0.234E-02 -.473E-02 0.138E-02
   0.509E+03 -.292E+03 0.260E+04   -.511E+03 0.295E+03 -.261E+04   0.609E+00 -.172E+01 0.644E+01   0.398E-02 0.658E-02 0.197E-01
   -.168E+03 0.365E+03 -.176E+04   0.170E+03 -.367E+03 0.176E+04   -.165E+01 0.293E+01 -.490E+01   -.226E-02 0.269E-02 0.455E-02
   -.379E+03 0.118E+03 0.202E+04   0.381E+03 -.119E+03 -.202E+04   -.167E+01 -.376E+00 0.795E+01   -.224E-02 0.863E-02 0.104E-01
   -.201E+03 -.577E+03 -.243E+04   0.202E+03 0.578E+03 0.244E+04   -.146E+01 0.371E+00 -.625E+01   -.586E-02 0.871E-02 -.167E-02
   0.317E+02 -.232E+03 0.384E+04   -.285E+02 0.230E+03 -.384E+04   -.341E+01 0.200E+01 -.936E+00   -.638E-02 -.108E-01 0.770E-02
   -.154E+03 -.318E+03 -.715E+03   0.154E+03 0.321E+03 0.720E+03   0.436E+00 -.323E+01 -.476E+01   -.117E-01 -.621E-02 0.147E-01
   -.181E+03 -.750E+03 0.338E+04   0.181E+03 0.752E+03 -.339E+04   -.536E+00 -.208E+01 0.557E+01   0.366E-02 0.766E-02 0.209E-02
   -.481E+03 -.583E+03 -.730E+03   0.485E+03 0.589E+03 0.730E+03   -.256E+01 -.554E+01 -.223E+01   0.152E-01 0.765E-02 -.100E-02
   -.806E+00 -.525E+03 0.189E+04   0.107E+01 0.530E+03 -.189E+04   0.758E-02 -.528E+01 0.353E+01   -.192E-02 -.763E-02 -.228E-02
   -.209E+03 0.349E+03 -.274E+04   0.208E+03 -.347E+03 0.274E+04   0.390E+00 -.216E+01 0.112E+01   0.598E-02 -.882E-03 -.384E-02
   0.213E+03 -.539E+03 0.118E+04   -.214E+03 0.543E+03 -.118E+04   0.151E+01 -.350E+01 0.382E+01   -.662E-02 0.785E-02 0.269E-02
   0.267E+03 -.296E+03 -.317E+04   -.265E+03 0.299E+03 0.317E+04   -.250E+01 -.341E+01 0.238E+01   -.924E-02 -.597E-02 -.365E-02
   0.650E+02 0.458E+03 0.243E+04   -.669E+02 -.460E+03 -.244E+04   0.133E+01 0.949E+00 0.639E+01   0.301E-02 -.114E-01 0.169E-01
   -.286E+03 -.302E+03 -.179E+04   0.290E+03 0.305E+03 0.179E+04   -.225E+01 -.269E+01 -.549E+01   -.436E-02 -.165E-01 0.152E-01
   0.721E+02 -.505E+02 -.170E+04   -.717E+02 0.508E+02 0.171E+04   -.117E+01 -.500E-02 -.122E+01   -.135E-02 0.273E-02 -.967E-03
   -.216E+03 -.547E+02 0.431E+03   0.217E+03 0.551E+02 -.436E+03   0.322E+00 -.351E+00 0.204E+01   -.812E-03 0.420E-02 0.111E-02
   -.296E+03 0.345E+03 0.123E+04   0.299E+03 -.348E+03 -.123E+04   -.107E+01 0.237E+01 0.263E+01   -.227E-02 -.496E-02 0.407E-02
   -.407E+02 -.164E+03 -.911E+03   0.398E+02 0.166E+03 0.917E+03   0.113E+01 -.938E+00 -.371E+01   0.481E-02 0.872E-02 -.392E-02
   -.246E+03 -.226E+03 0.924E+03   0.249E+03 0.228E+03 -.927E+03   -.101E+01 -.229E+01 0.141E+01   0.156E-02 0.322E-02 0.178E-02
   -.748E+02 -.154E+02 -.114E+04   0.759E+02 0.155E+02 0.114E+04   -.341E+00 -.145E+00 -.257E+01   0.588E-02 0.721E-03 0.247E-02
   0.850E+02 -.529E+01 0.167E+04   -.846E+02 0.597E+01 -.168E+04   -.244E+00 -.668E+00 0.242E+01   -.614E-03 -.194E-02 0.199E-02
   -.131E+02 0.228E+03 -.486E+03   0.123E+02 -.230E+03 0.492E+03   0.130E+01 0.159E+01 -.284E+01   0.268E-02 -.331E-02 -.194E-02
   0.150E+03 -.678E+02 0.160E+04   -.151E+03 0.678E+02 -.160E+04   0.133E+01 -.365E-01 0.205E+01   -.498E-02 0.156E-02 -.707E-03
   -.553E+02 -.272E+02 -.716E+03   0.565E+02 0.268E+02 0.721E+03   0.352E+00 0.438E+00 -.410E+01   -.434E-02 -.414E-02 0.623E-02
   -.199E+02 -.481E+02 0.698E+03   0.213E+02 0.482E+02 -.701E+03   -.131E+01 0.531E+00 0.199E+01   0.233E-03 -.594E-02 0.685E-02
   -.956E+02 -.101E+02 -.139E+04   0.978E+02 0.998E+01 0.139E+04   -.137E+01 0.427E-01 -.287E+01   -.640E-02 -.243E-02 -.362E-02
   -.332E+02 -.200E+02 0.161E+04   0.343E+02 0.204E+02 -.162E+04   -.821E+00 -.118E+00 0.384E+01   0.139E-02 0.456E-02 0.435E-02
   0.901E+02 -.721E+02 -.333E+03   -.913E+02 0.723E+02 0.336E+03   0.757E-01 0.724E+00 -.188E+01   -.686E-03 0.568E-02 0.325E-02
   0.235E+03 -.264E+03 0.759E+03   -.237E+03 0.266E+03 -.761E+03   0.120E+01 -.957E+00 0.569E+00   -.286E-02 -.458E-02 0.503E-02
   -.356E+02 0.357E+02 -.133E+04   0.370E+02 -.352E+02 0.134E+04   -.985E+00 -.749E-01 -.276E+01   -.341E-02 0.322E-02 -.163E-02
   0.370E+01 -.315E+03 0.638E+03   -.343E+01 0.318E+03 -.640E+03   -.140E+01 -.183E+01 0.207E+01   0.563E-04 0.327E-02 -.127E-02
   -.111E+03 0.672E+02 -.151E+04   0.112E+03 -.650E+02 0.151E+04   -.101E+01 -.227E+01 -.207E+01   0.541E-02 -.847E-02 0.893E-03
   0.564E+02 -.757E+02 -.586E+03   -.565E+02 0.772E+02 0.587E+03   -.336E+00 -.150E+01 -.447E+00   -.364E-02 -.235E-02 -.174E-02
   0.594E+02 -.863E+02 0.131E+04   -.607E+02 0.857E+02 -.132E+04   0.880E+00 0.124E+01 0.379E+01   0.621E-03 -.331E-02 0.191E-02
   0.127E+03 0.998E+01 0.993E+03   -.128E+03 -.105E+02 -.100E+04   0.204E+00 0.398E+00 0.422E+01   -.959E-03 0.358E-02 0.115E-02
   0.136E+03 -.326E+03 -.102E+04   -.138E+03 0.330E+03 0.102E+04   -.233E-01 -.203E+01 -.197E+01   0.582E-03 0.777E-03 -.124E-03
   -.763E+02 0.335E+02 0.883E+02   0.751E+02 -.316E+02 -.884E+02   0.130E+01 -.732E+00 -.359E+00   0.209E-02 -.633E-02 0.851E-02
   0.618E+02 -.244E+03 -.158E+04   -.630E+02 0.248E+03 0.159E+04   0.664E+00 -.211E+01 -.688E+00   0.171E-02 -.442E-02 -.273E-02
   0.745E+02 0.362E+03 0.817E+03   -.746E+02 -.364E+03 -.820E+03   -.684E+00 0.123E+01 0.216E+01   -.137E-02 0.337E-02 0.166E-02
   0.214E+03 -.928E+02 -.128E+04   -.216E+03 0.914E+02 0.128E+04   0.299E+00 0.973E+00 -.223E+01   -.109E-01 0.489E-02 -.505E-02
   -.259E+02 0.559E+02 0.169E+04   0.261E+02 -.569E+02 -.170E+04   -.418E+00 0.493E+00 0.224E+01   0.292E-02 0.124E-02 -.982E-03
   0.334E+02 0.132E+03 -.363E+03   -.332E+02 -.132E+03 0.367E+03   -.864E+00 -.986E+00 -.200E+01   -.787E-03 -.680E-03 0.654E-02
   -.243E+03 0.108E+03 -.533E+03   0.247E+03 -.108E+03 0.537E+03   -.237E+01 -.710E+00 -.205E+01   -.233E-02 -.947E-03 -.162E-02
   0.605E+02 0.616E+02 0.154E+04   -.621E+02 -.621E+02 -.155E+04   0.119E+01 -.174E+00 0.343E+01   0.260E-03 0.325E-03 0.443E-02
   0.970E+02 0.754E+02 0.232E+03   -.988E+02 -.779E+02 -.231E+03   0.678E+00 0.116E+01 -.168E+01   -.946E-04 -.111E-02 0.715E-02
   0.449E+02 0.238E+03 -.150E+04   -.458E+02 -.241E+03 0.150E+04   0.306E+00 0.160E+01 -.901E+00   -.990E-03 -.313E-02 0.157E-02
   0.511E+02 0.145E+03 0.366E+03   -.532E+02 -.147E+03 -.369E+03   0.213E+01 0.100E+01 0.150E+01   0.723E-02 0.330E-02 0.448E-02
   0.293E+02 0.242E+03 -.155E+04   -.302E+02 -.245E+03 0.156E+04   0.488E+00 0.214E+01 -.112E+01   0.503E-02 0.377E-02 -.446E-02
   0.134E+03 -.523E+02 0.110E+04   -.135E+03 0.533E+02 -.110E+04   0.809E-01 -.865E+00 0.424E+01   0.384E-03 -.991E-03 0.324E-03
   0.143E+02 0.809E+02 -.931E+03   -.142E+02 -.837E+02 0.934E+03   -.512E+00 0.258E+01 -.145E+01   0.681E-02 0.137E-02 0.158E-02
   -.745E+01 -.138E+01 -.320E+02   -.329E-12 0.156E-12 -.705E-11   0.750E+01 0.139E+01 0.317E+02   -.203E-01 -.877E-02 0.211E+00

 POSITION                                       TOTAL-FORCE (eV/Angst)
     13.17084      1.39171      1.94975        -0.206834      0.251067      1.040713
     13.49196      1.38894      4.62072         0.183650      0.017510      0.744358
      3.69130      6.08242      1.47734         1.296680      0.358105     -0.728552
      5.02033      6.18092      3.49202        -0.624202     -0.487191     -0.380988
      6.52770      1.28229      2.03655         0.821841      0.179596     -0.249094
      7.93172      1.39171      4.00611        -0.996855      0.848163     -1.104209
     16.08224      6.18092      2.46384        -0.771645      0.710424      0.655263
     16.23934      6.05299      4.87170         0.234735      0.172758      0.759778
      2.10894      1.39171      2.97793        -0.556518     -0.503907     -0.560600
      1.37833      1.11121      5.15475         1.177709     -0.059337      0.227411
      9.77677      6.22064      2.41105         0.695713     -0.193536     -1.016641
     10.84312      6.18092      4.52020        -0.917309     -0.121858     -1.338453
     15.36411      0.04517      1.90485         0.698624      0.488869     -0.049636
     15.94778      0.08822      4.38553        -0.687189     -0.663197     -0.345603
      6.04696      6.17886      0.93198        -0.163421     -0.009139     -1.691617
      7.17375      4.91558      3.08454         0.067002     -0.343395     -2.028465
      8.05040      4.42256      5.22694        -0.004023      0.686002      1.144886
     10.01477      8.76093      1.43139         0.082415     -0.240807     -1.029034
     10.08514      0.12638      3.59863         1.188148      0.276561     -0.610932
      1.35096      4.91558      2.05636         0.217755     -0.287877      0.795999
      4.26235      0.12638      2.57045         0.321123     -0.861036      0.800070
      4.93337      9.30544      4.92442        -0.114672      0.226218      0.678063
     13.11960      4.16778      1.90227        -1.191740      0.583885      0.107242
     12.99653      4.91558      4.11272         0.378839      0.103929     -1.255922
     15.60323      3.38002      2.12657         0.425849     -1.048418      0.584022
     15.91096      2.59986      4.44790        -0.449274      0.884697      0.001745
      7.56483      8.17160      0.85234        -0.216044      0.397610     -0.752985
      7.17375      7.44626      3.08454         0.324721     -0.269354      0.143311
      8.94386      1.40449      1.43161        -0.307342      0.039516     -1.908074
     10.08514      2.65705      3.59863         0.573951      0.429796     -1.916192
      1.35096      7.44626      2.05636         0.272471      0.422335      1.508881
      1.97964      7.56139      4.48398        -0.030065     -0.652446      1.035120
      4.26235      2.65705      2.57045         0.644811      0.715504      0.639537
      4.91328      3.08993      4.86181        -0.437029     -0.206944      0.815278
     12.92019      8.35119      1.91134        -0.535198     -1.214324      0.218243
     12.99653      7.44626      4.11272         1.007624     -0.075596     -1.519713
     16.43019      1.31811      5.96163        -0.800638      0.289497      4.177951
     16.74052      1.39171      2.94940         1.520971      0.027817     -2.165244
      8.00634      6.18092      1.40713         1.509376     -0.377233     -2.879282
      8.64747      6.12614      4.20342         0.180087      1.194852      2.171593
     10.91773      1.39171      1.92122         1.468979     -0.390658     -1.442924
     11.43069      1.39588      4.62176         0.741097     -0.085513      2.690329
      1.91954      6.20481      0.50839         0.117625      0.015532     -3.712510
      2.73396      6.06937      3.29651         0.478680     -0.586417      2.501289
      4.75768      1.39487      1.02213         0.470133     -0.028566     -3.911382
      5.67861      1.39171      3.97758         1.504102      0.068044      1.190157
     13.82913      6.18092      2.43531         0.057306      0.580356     -1.585206
     14.24722      6.17811      5.21747         0.824990     -0.109227      2.552599
     14.11743      2.81899      0.75883         0.352192      0.283158     -3.709593
     13.99844      3.00295      3.46826        -1.128703      0.962395      1.446082
      5.26426      7.79215      1.92599        -0.757038      1.170978     -0.661024
      5.93362      7.57096      4.75441         0.384818      0.416543      2.741068
      8.17565      3.00295      2.44008        -1.130157      1.222256      0.002377
      8.95282      2.63929      5.32992         0.102571     -0.042930      2.983913
      0.02514      7.79215      3.98236        -0.507677     -0.035551      1.309128
     16.34646      7.89515      1.28088        -0.340855      0.649438     -2.788563
      2.37780      3.11049      1.80673        -0.651401     -0.132734     -2.326780
      2.95703      2.51462      4.51591        -1.316588      2.340069      2.136297
     11.08705      7.79215      2.95417         0.079466      1.159769     -0.436379
     11.72761      7.58385      5.68139        -0.531628      1.560464      3.824696
      5.26426      4.56969      1.92599        -0.783002     -1.580008     -0.193542
      6.03747      4.78977      4.84961        -1.206420     -0.448476      2.204226
     13.79999      9.57542      0.56449        -0.155737     -0.517813     -3.924013
     13.99844      9.35889      3.46826        -0.689621     -1.382282      1.648845
     16.73526      4.45721      3.63887         1.190913     -0.270790      2.032956
     16.46395      4.82090      0.93816        -0.331669     -0.638194     -3.505163
      8.17565      9.35889      2.44008        -1.108595     -1.280971     -0.287090
      8.78252      9.49961      5.14714        -0.541939     -1.667446      3.391445
     11.08705      4.56969      2.95417         0.064669     -1.270693     -1.090757
     11.70768      4.75227      5.66657        -0.403757     -1.533068      3.724613
      2.36918      9.26397      1.77846        -0.681808      0.109867     -2.707953
      2.93654      9.35889      4.49645        -0.385043     -0.226649      1.184634
    total drift:                                0.031059     -0.000651     -0.059058

  FREE ENERGIE OF THE ION-ELECTRON SYSTEM (eV)
  free  energy   TOTEN  =      -340.47536938 eV

  energy  without entropy=     -339.28389753  energy(sigma->0) =     -339.87963345