 vasp.5.4.4.18Apr17-6-g9f103f2a35 (build Aug 13 2019 17:33:20) gamma-only

 executed on             LinuxIFC date 2020.05.11  19:43:23

 INCAR:
 POTCAR:    PAW_PBE Ni_pv 06Sep2000
 POTCAR:    PAW_PBE S 06Sep2000
 POTCAR:    PAW_PBE Ni_pv 06Sep2000
   VRHFIN =Ni:

   TITEL  = PAW_PBE Ni_pv 06Sep2000
   POMASS =   58.690; ZVAL   =   16.000    mass and valenz
   ENMAX  =  367.986; ENMIN  =  275.989 eV

 POTCAR:    PAW_PBE S 06Sep2000
   VRHFIN =S : s2p4

   TITEL  = PAW_PBE S 06Sep2000
   POMASS =   32.066; ZVAL   =    6.000    mass and valenz
   ENMAX  =  258.689; ENMIN  =  194.016 eV

 Optimization of the real space projectors (new method)

 maximal supplied QI-value         = 18.90
 optimisation between [QCUT,QGAM] = [ 10.77, 21.73] = [ 32.49,132.25] Ry
 Optimized for a Real-space Cutoff    1.38 Angstroem

   l    n(q)    QCUT    max X(q) W(low)/X(q) W(high)/X(q)  e(spline)
   1      8    10.771     2.836    0.40E-04    0.29E-04    0.12E-06
   1      8    10.771     4.023    0.10E-03    0.48E-04    0.29E-06
   2      8    10.771    73.368    0.42E-03    0.97E-04    0.44E-06
   2      8    10.771    69.010    0.42E-03    0.99E-04    0.45E-06
   0      9    10.771    54.797    0.10E-03    0.56E-04    0.74E-07
   0      9    10.771    24.266    0.89E-04    0.49E-04    0.67E-07
 Optimization of the real space projectors (new method)

 maximal supplied QI-value         = 19.84
 optimisation between [QCUT,QGAM] = [ 10.71, 21.63] = [ 32.15,130.99] Ry
 Optimized for a Real-space Cutoff    1.19 Angstroem

   l    n(q)    QCUT    max X(q) W(low)/X(q) W(high)/X(q)  e(spline)
   0      8    10.715   187.594    0.41E-03    0.53E-04    0.66E-07
   0      8    10.715   164.243    0.41E-03    0.53E-04    0.65E-07
   1      7    10.715    67.533    0.19E-03    0.59E-03    0.68E-07
   1      7    10.715    50.729    0.19E-03    0.58E-03    0.67E-07
  PAW_PBE Ni_pv 06Sep2000               :
  PAW_PBE S 06Sep2000                   :

 POSCAR: Type_036 Type_136
  positions in cartesian coordinates
 exchange correlation table for  LEXCH =        8
   RHO(1)=    0.500       N(1)  =     2000
   RHO(2)=  100.500       N(2)  =     4000

 ion  position               nearest neighbor table
   1  0.780  0.145  0.121-  49 2.06  63 2.09  41 2.25  50 2.36  64 2.36
   2  0.800  0.146  0.287-  50 2.05  64 2.05  42 2.07
   3  0.222  0.637  0.090-  43 2.02  44 2.07  61 2.20  51 2.32   4 2.40  14 2.48
   4  0.297  0.645  0.216-  62 2.11  52 2.17  51 2.26  61 2.26  44 2.28   3 2.40  28 2.53  15 2.53

   5  0.393  0.132  0.124-  45 2.04  67 2.18  46 2.19  53 2.36   6 2.38
   6  0.470  0.145  0.248-  54 2.08  68 2.10  46 2.25  53 2.26  67 2.26   5 2.38  31 2.53  18 2.53

[...]

  25  0.910  0.288  0.118-  49 2.06  66 2.08  50 2.10  38 2.20  26 2.52
  26  0.942  0.283  0.270-  37 2.05  38 2.11  50 2.13  65 2.15  10 2.49  25 2.52
  27  0.429  0.869  0.056-  67 2.07  39 2.15  51 2.30  28 2.35  14 2.43
  28  0.425  0.777  0.191-  39 2.07  52 2.18  67 2.25  51 2.26  27 2.35  40 2.36  29 2.43  15 2.53
                             4 2.53
  29  0.457  0.811  0.336-  68 2.02  40 2.05  52 2.05  28 2.43
  30  0.564  0.267  0.065-  53 1.99  41 2.01  17 2.42
  31  0.597  0.277  0.223-  54 2.07  42 2.12  69 2.20  53 2.26  41 2.26   6 2.53  18 2.53
  32  0.080  0.777  0.127-  71 2.09  56 2.10  43 2.10  44 2.18  55 2.21   7 2.53  19 2.53
  33  0.252  0.277  0.159-  45 2.06  57 2.09  61 2.25  46 2.36  58 2.36  34 2.45   9 2.53  21 2.53

[...]

  37  0.964  0.152  0.368-  10 2.03  13 2.05  26 2.05
  38  0.991  0.145  0.182-  13 2.08  26 2.11  25 2.20   9 2.25  10 2.56
  39  0.481  0.675  0.094-  14 2.02  28 2.07  27 2.15  15 2.39
  40  0.509  0.645  0.278-  16 2.05  29 2.05  11 2.25  28 2.36  15 2.36
  41  0.647  0.145  0.119-  30 2.01  17 2.05   1 2.25  31 2.26  18 2.26  42 2.74
  42  0.678  0.144  0.285-   2 2.07  18 2.11  31 2.12  41 2.74
  43  0.116  0.642  0.032-   3 2.02  19 2.07  32 2.10  56 2.71
  44  0.163  0.655  0.202-  20 2.06   3 2.07  32 2.18   4 2.28  19 2.29
  45  0.287  0.145  0.065-   5 2.04  21 2.06  33 2.06
  46  0.336  0.145  0.246-  22 2.05  34 2.06   5 2.19   6 2.25  33 2.36  21 2.36
  47  0.819  0.645  0.151-   7 2.25  36 2.26  24 2.26  23 2.27  35 2.28
  48  0.844  0.646  0.323-   8 2.02  36 2.10  24 2.10
  49  0.817  0.291  0.035-  23 2.02  25 2.06   1 2.06
  50  0.829  0.314  0.214-   2 2.05  25 2.10  26 2.13  23 2.13  24 2.25   1 2.36
  51  0.312  0.814  0.119-  14 2.08  21 2.25   4 2.26  28 2.26  27 2.30   3 2.32
  52  0.343  0.813  0.293-  29 2.05  22 2.07   4 2.17  28 2.18
  53  0.484  0.314  0.151-  30 1.99  15 2.25  31 2.26   6 2.26   5 2.36
  54  0.528  0.282  0.328-  16 2.01  31 2.07   6 2.08
  55  0.993  0.823  0.225-   8 2.08  12 2.15   7 2.18  13 2.18  32 2.21
  56  0.977  0.779  0.055-  12 2.04   7 2.08  32 2.10  43 2.71
  57  0.141  0.323  0.110-  33 2.09   9 2.11  19 2.11  58 2.78
  58  0.174  0.314  0.278-  20 2.03  34 2.07  10 2.20   9 2.36  33 2.36  72 2.73  57 2.78
  59  0.665  0.825  0.190-  36 2.10  35 2.15  18 2.20  11 2.28  60 2.70
  60  0.694  0.789  0.353-  11 2.01  36 2.04  59 2.70  70 2.75
  61  0.312  0.477  0.119-  14 2.03   3 2.20  33 2.25   4 2.26  15 2.26
  62  0.354  0.509  0.300-  34 2.04  16 2.05   4 2.11  15 2.13
  63  0.835  0.994  0.048-  35 2.03   1 2.09  12 2.10  64 2.71
  64  0.829  0.977  0.214-   2 2.05  12 2.11  35 2.16  13 2.16  36 2.25   1 2.36  63 2.71
  65  0.001  0.477  0.246-  20 2.03   8 2.06  26 2.15   7 2.36  19 2.36  66 2.78
  66  0.968  0.467  0.078-  25 2.08  19 2.09   7 2.10  65 2.78
  67  0.484  0.977  0.151-  17 2.01  27 2.07   5 2.18  28 2.25  18 2.26   6 2.26
  68  0.521  0.989  0.322-  29 2.02  18 2.08   6 2.10
  69  0.666  0.464  0.189-  24 2.09  23 2.17  31 2.20  11 2.31  70 2.71
  70  0.695  0.502  0.353-  11 2.01  24 2.04  69 2.71  60 2.75
  71  0.141  0.966  0.113-  21 2.07   9 2.09  32 2.09
  72  0.158  0.030  0.288-  22 2.04   9 2.09  10 2.12  21 2.64  58 2.73

  LATTYP: Found a simple orthorhombic cell.
 ALAT       =     9.5784100000
 B/A-ratio  =     1.6880763216
 C/A-ratio  =     1.7627867312

  Lattice vectors:

 A1 = (   0.0000000000,   9.5784100000,   0.0000000000)
 A2 = (   0.0000000000,   0.0000000000, -16.1690871197)
 A3 = ( -16.8846940542,   0.0000000000,   0.0000000000)

Analysis of symmetry for initial positions (statically):
 Subroutine PRICEL returns:
 Original cell was already a primitive cell.

 Routine SETGRP: Setting up the symmetry group for a
 simple orthorhombic supercell.

 Subroutine GETGRP returns: Found  1 space group operations
 (whereof  1 operations were pure point group operations)
 out of a pool of  8 trial point group operations.

The static configuration has the point symmetry C_1 .

Analysis of symmetry for dynamics (positions and initial velocities):
 Subroutine PRICEL returns:
 Original cell was already a primitive cell.

 Routine SETGRP: Setting up the symmetry group for a
 simple orthorhombic supercell.

 Subroutine GETGRP returns: Found  1 space group operations
 (whereof  1 operations were pure point group operations)
 out of a pool of  8 trial point group operations.

The dynamic configuration has the point symmetry C_1 .

 Subroutine INISYM returns: Found  1 space group operations
 (whereof  1 operations are pure point group operations),
 and found     1 'primitive' translations

 KPOINTS: gamma-point-only calculation. no periodi

Automatic generation of k-mesh.
Space group operators:
 irot       det(A)        alpha          n_x          n_y          n_z        tau_x        tau_y        tau_z
    1     1.000000     0.000000     1.000000     0.000000     0.000000     0.000000     0.000000     0.000000

 Subroutine IBZKPT returns following result:

 Found      1 irreducible k-points:

 Following reciprocal coordinates:
            Coordinates               Weight
  0.000000  0.000000  0.000000      1.000000

 Following cartesian coordinates:
            Coordinates               Weight
  0.000000  0.000000  0.000000      1.000000

 SYSTEM =  "Millerite NiS"
 POSCAR =  Type_036 Type_136

 Startparameter for this run:
   NWRITE =      2    write-flag & timer
   PREC   = normal    normal or accurate (medium, high low for compatibility)
   ISTART =      0    job   : 0-new  1-cont  2-samecut
   ICHARG =      2    charge: 1-file 2-atom 10-const
   ISPIN  =      1    spin polarized calculation?
   LNONCOLLINEAR =      F non collinear calculations
   LSORBIT =      F    spin-orbit coupling
   INIWAV =      1    electr: 0-lowe 1-rand  2-diag
   LASPH  =      F    aspherical Exc in radial PAW
   METAGGA=      F    non-selfconsistent MetaGGA calc.

 Electronic Relaxation 1
   ENCUT  =  450.0 eV  33.07 Ry    5.75 a.u.  29.20 16.57 27.97*2*pi/ulx,y,z
   ENINI  =  450.0     initial cutoff
   ENAUG  =  703.4 eV  augmentation charge cutoff
   NELM   =    100;   NELMIN=  2; NELMDL= -5     # of ELM steps
   EDIFF  = 0.1E-03   stopping-criterion for ELM
   LREAL  =      T    real-space projection
   NLSPLINE    = F    spline interpolate recip. space projectors
   LCOMPAT=      F    compatible to vasp.4.4
   GGA_COMPAT  = T    GGA compatible to vasp.4.4-vasp.4.6
   LMAXPAW     = -100 max onsite density
   LMAXMIX     =    2 max onsite mixed and CHGCAR
   VOSKOWN=      0    Vosko Wilk Nusair interpolation
   ROPT   =   -0.00050  -0.00050
 Ionic relaxation
   EDIFFG = 0.1E-02   stopping-criterion for IOM
   NSW    =      0    number of steps for IOM
   NBLOCK =      1;   KBLOCK =      1    inner block; outer block
   IBRION =     -1    ionic relax: 0-MD 1-quasi-New 2-CG
   NFREE  =      0    steps in history (QN), initial steepest desc. (CG)
   ISIF   =      2    stress and relaxation
   IWAVPR =     10    prediction:  0-non 1-charg 2-wave 3-comb
   ISYM   =      2    0-nonsym 1-usesym 2-fastsym
   LCORR  =      T    Harris-Foulkes like correction to forces

   POTIM  = 0.5000    time-step for ionic-motion
   TEIN   =    0.0    initial temperature
   TEBEG  =    0.0;   TEEND  =   0.0 temperature during run
   SMASS  =  -3.00    Nose mass-parameter (am)
   estimated Nose-frequenzy (Omega)   =  0.10E-29 period in steps =****** mass=  -0.652E-26a.u.
   SCALEE = 1.0000    scale energy and forces
   NPACO  =    256;   APACO  = 16.0  distance and # of slots for P.C.
   PSTRESS=    0.0 pullay stress

  Mass of Ions in am
   POMASS =  58.69 32.07
  Ionic Valenz
   ZVAL   =  16.00  6.00
  Atomic Wigner-Seitz radii
  virtual crystal weights
   VCA    =   1.00  1.00
   NELECT =     792.0000    total number of electrons
   NUPDOWN=      -1.0000    fix difference up-down

 DOS related values:
   EMIN   =  10.00;   EMAX   =-10.00  energy-range for DOS
   EFERMI =   0.00
   ISMEAR =     0;   SIGMA  =   0.20  broadening in eV -4-tet -1-fermi 0-gaus

 Electronic relaxation 2 (details)
   IALGO  =     38    algorithm
   LDIAG  =      T    sub-space diagonalisation (order eigenvalues)
   LSUBROT=      F    optimize rotation matrix (better conditioning)
   TURBO    =      0    0=normal 1=particle mesh
   IRESTART =      0    0=no restart 2=restart with 2 vectors
   NREBOOT  =      0    no. of reboots
   NMIN     =      0    reboot dimension
   EREF     =   0.00    reference energy to select bands
   IMIX   =      4    mixing-type and parameters
[...]
  Fock        0.00000     0.00000     0.00000     0.00000     0.00000     0.00000
  Total     117.58553   117.81316   141.49821    -3.45135    -3.50292    -5.75183
  in kB      72.04309    72.18256    86.69407    -2.11459    -2.14620    -3.52407

 VOLUME and BASIS-vectors are now :
  energy-cutoff  :      450.00
  volume of cell :     2615.00
      direct lattice vectors                 reciprocal lattice vectors
    16.884694054  0.000000000  0.000000000     0.059225237  0.000000000  0.000000000
     0.000000000  9.578410000  0.000000000     0.000000000  0.104401461  0.000000000
     0.000000000  0.000000000 16.169087120     0.000000000  0.000000000  0.061846411

  length of vectors
    16.884694054  9.578410000 16.169087120     0.059225237  0.104401461  0.061846411

 FORCES acting on ions
    electron-ion (+dipol)            ewald-force                    non-local-force                 convergence-correction
   0.386E+03 0.721E+02 0.206E+04   -.389E+03 -.736E+02 -.206E+04   0.298E+01 0.130E+01 0.625E+01   -.181E+00 0.308E-01 0.912E-03
   0.396E+03 0.907E+01 -.286E+04   -.401E+03 -.824E+01 0.286E+04   0.538E+01 -.797E+00 0.751E+00   -.329E+00 0.110E-01 -.468E-01
   0.261E+03 0.969E+01 0.286E+04   -.261E+03 -.106E+02 -.287E+04   0.103E+01 0.813E+00 0.629E+01   0.177E+00 0.318E-01 -.787E-01
   0.690E+03 -.569E+02 -.129E+04   -.692E+03 0.566E+02 0.129E+04   0.148E+01 0.640E+00 -.440E+01   0.200E+00 -.516E-01 0.793E-01
   0.259E+02 -.349E+03 0.226E+04   -.272E+02 0.350E+03 -.226E+04   0.201E+01 -.104E+01 0.646E+01   0.140E+00 0.710E-01 0.653E-01
   0.187E+03 -.795E+02 -.178E+04   -.190E+03 0.799E+02 0.179E+04   0.202E+01 -.294E+00 -.561E+01   0.234E+00 0.195E+00 0.171E+00
   0.456E+03 0.180E+03 0.125E+04   -.462E+03 -.183E+03 -.125E+04   0.492E+01 0.264E+01 0.257E+01   -.167E+00 -.100E-01 -.476E-01
   -.226E+03 -.168E+03 -.322E+04   0.224E+03 0.167E+03 0.321E+04   0.310E+01 0.913E+00 0.199E+01   -.584E-02 -.171E-01 0.109E+00
   0.433E+03 0.207E+03 0.814E+03   -.436E+03 -.207E+03 -.819E+03   0.286E+01 0.764E+00 0.516E+01   -.227E-01 -.619E-01 -.121E-01
   -.231E+03 0.860E+02 -.323E+04   0.231E+03 -.871E+02 0.324E+04   0.125E+01 0.147E+01 -.583E+01   0.540E-01 0.260E-01 0.141E+00
   0.490E+03 0.181E+02 -.170E+04   -.497E+03 -.181E+02 0.170E+04   0.576E+01 0.238E+00 -.221E+01   -.165E+00 -.101E+00 -.831E-01
   -.290E+03 -.182E+03 0.200E+04   0.291E+03 0.183E+03 -.201E+04   -.103E+01 0.251E+00 0.768E+01   -.155E+00 -.128E-01 -.658E-01
   -.180E+03 0.571E+03 -.228E+04   0.181E+03 -.573E+03 0.229E+04   -.164E+01 0.179E+00 -.572E+01   -.806E-01 -.520E-01 0.515E-01
   -.185E+03 0.530E+03 0.376E+04   0.187E+03 -.531E+03 -.376E+04   -.282E+01 0.580E+00 0.529E+01   0.101E+00 -.112E+00 -.455E-01
   -.605E+03 0.477E+03 0.470E+03   0.607E+03 -.481E+03 -.472E+03   -.128E+01 0.353E+01 0.276E-01   0.185E+00 -.256E-01 0.231E+00
   -.259E+03 0.947E+02 -.340E+04   0.263E+03 -.980E+02 0.340E+04   -.350E+01 0.362E+01 0.159E+01   0.734E-01 -.625E-01 0.714E-01
   -.513E+03 0.544E+03 0.344E+04   0.511E+03 -.540E+03 -.344E+04   0.173E+01 -.487E+01 0.876E+00   0.132E+00 0.112E+00 0.135E+00
   -.498E+03 0.545E+03 -.920E+03   0.502E+03 -.550E+03 0.923E+03   -.349E+01 0.472E+01 -.419E+01   0.141E+00 0.148E+00 0.133E+00
   0.267E+02 0.528E+03 0.193E+04   -.267E+02 -.534E+03 -.193E+04   0.216E+00 0.557E+01 0.366E+01   -.312E-01 0.182E-01 0.396E-02
   -.174E+03 -.355E+03 -.269E+04   0.174E+03 0.353E+03 0.269E+04   -.245E+00 0.183E+01 0.119E+01   0.450E-01 0.432E-01 0.197E+00
   0.340E+03 0.458E+03 0.115E+04   -.341E+03 -.461E+03 -.115E+04   0.232E+01 0.247E+01 0.352E+01   0.163E-01 -.965E-01 0.428E-01
   0.270E+03 0.320E+03 -.325E+04   -.271E+03 -.322E+03 0.324E+04   0.939E+00 0.173E+01 0.379E+01   0.699E-01 -.176E-01 0.201E+00
   0.503E+03 -.519E+03 0.253E+04   -.506E+03 0.522E+03 -.253E+04   0.282E+01 -.193E+01 0.752E+01   -.171E+00 0.301E-01 -.304E-01
   -.807E+02 0.271E+03 -.163E+04   0.846E+02 -.273E+03 0.164E+04   -.253E+01 0.223E+01 -.465E+01   -.151E+00 -.320E-01 -.130E+00
   -.513E+03 0.268E+02 0.245E+04   0.519E+03 -.249E+02 -.246E+04   -.573E+01 -.245E+01 0.581E+01   -.164E+00 0.220E-01 -.399E-01
   0.995E+02 -.542E+03 -.212E+04   -.981E+02 0.546E+03 0.212E+04   -.172E+01 -.337E+01 -.409E+01   -.936E-01 0.730E-01 0.428E-01
   -.217E+03 -.183E+03 0.374E+04   0.219E+03 0.182E+03 -.375E+04   -.257E+01 0.171E+01 0.222E+01   -.206E-01 -.182E+00 -.519E-01
   -.500E+03 -.158E+03 -.141E+03   0.502E+03 0.161E+03 0.145E+03   -.192E+01 -.162E+01 -.206E+01   0.828E-01 -.190E+00 0.123E+00
   -.152E+03 -.840E+02 -.360E+04   0.154E+03 0.865E+02 0.360E+04   -.179E+01 -.240E+01 0.280E+01   0.349E-01 -.139E+00 0.679E-01
   -.150E+03 -.872E+03 0.346E+04   0.149E+03 0.867E+03 -.346E+04   0.143E+01 0.594E+01 -.201E+01   0.902E-01 0.153E+00 0.138E+00
   -.444E+03 -.630E+03 -.802E+03   0.448E+03 0.636E+03 0.803E+03   -.255E+01 -.525E+01 -.309E+01   0.877E-02 0.127E-02 0.131E+00
   -.202E+03 -.687E+03 0.155E+04   0.204E+03 0.692E+03 -.155E+04   -.116E+01 -.526E+01 -.337E+00   0.424E-02 0.498E-01 -.255E-01
   0.767E+02 -.369E+03 0.134E+04   -.774E+02 0.372E+03 -.135E+04   0.115E+01 -.248E+01 0.392E+01   0.956E-01 0.372E-01 0.298E-01
   0.672E+02 -.119E+03 -.308E+04   -.660E+02 0.123E+03 0.308E+04   -.180E+01 -.428E+01 0.980E+00   0.219E+00 0.775E-01 0.219E+00
   0.587E+03 0.441E+03 0.258E+04   -.589E+03 -.444E+03 -.259E+04   0.189E+01 0.133E+01 0.713E+01   -.122E+00 -.412E-01 -.258E-01
   -.582E+02 -.250E+03 -.168E+04   0.620E+02 0.252E+03 0.168E+04   -.262E+01 -.245E+01 -.459E+01   -.113E+00 -.288E-02 -.122E+00
   0.941E+02 0.626E+02 -.171E+04   -.938E+02 -.630E+02 0.171E+04   -.102E+01 0.127E+00 -.158E+01   -.148E-01 -.642E-02 0.109E+00
   -.177E+03 0.851E+02 0.482E+03   0.177E+03 -.866E+02 -.486E+03   0.120E+01 0.185E+01 0.275E+01   -.174E-02 -.833E-02 -.221E-01
   -.687E+03 0.265E+03 0.106E+04   0.693E+03 -.266E+03 -.106E+04   -.305E+01 0.527E+00 0.133E-01   0.280E-02 -.857E-01 -.126E-02
   -.310E+03 0.368E+01 -.644E+03   0.311E+03 -.368E+01 0.646E+03   0.172E+00 0.812E-01 -.186E+01   -.161E-01 -.134E+00 0.630E-01
   -.290E+03 -.246E+02 0.784E+03   0.292E+03 0.248E+02 -.787E+03   -.448E+00 -.513E+00 0.146E+01   0.203E-01 0.620E-01 0.803E-01
   -.757E+02 -.183E+01 -.109E+04   0.766E+02 0.175E+01 0.109E+04   -.111E-01 0.811E-01 -.279E+01   -.896E-01 0.150E-01 -.798E-02
   0.782E+02 -.103E+02 0.167E+04   -.777E+02 0.968E+01 -.167E+04   -.363E+00 0.713E+00 0.275E+01   0.228E-02 0.184E-01 -.945E-01
   -.118E+01 -.237E+03 -.432E+03   0.235E+00 0.239E+03 0.437E+03   0.144E+01 -.120E+01 -.268E+01   0.191E-01 0.486E-02 0.591E-01
   0.137E+03 -.631E+02 0.158E+04   -.138E+03 0.634E+02 -.159E+04   0.111E+01 -.219E+00 0.206E+01   0.425E-02 -.871E-02 -.828E-01
   -.804E+02 0.531E+01 -.637E+03   0.811E+02 -.496E+01 0.642E+03   0.421E+00 -.386E+00 -.431E+01   0.501E-01 0.220E-02 0.864E-01
   0.699E+02 0.374E+02 0.707E+03   -.686E+02 -.371E+02 -.711E+03   -.120E+01 -.420E+00 0.161E+01   -.707E-01 -.131E-01 -.210E-01
   -.680E+02 0.116E+02 -.137E+04   0.701E+02 -.118E+02 0.137E+04   -.108E+01 0.209E+00 -.205E+01   -.489E-01 -.216E-02 0.158E-01
   0.369E+02 -.705E+02 0.168E+04   -.367E+02 0.712E+02 -.168E+04   -.435E+00 -.314E+00 0.228E+01   -.735E-01 0.215E-01 -.425E-01
   0.102E+03 -.130E+03 -.328E+03   -.102E+03 0.130E+03 0.331E+03   -.535E+00 0.928E+00 -.194E+01   -.995E-01 0.332E-01 -.252E-01
   0.279E+03 -.250E+03 0.761E+03   -.282E+03 0.253E+03 -.763E+03   0.253E+01 -.113E+01 0.910E-02   0.261E-01 -.475E-01 -.845E-02
   0.259E+03 0.936E+01 -.112E+04   -.260E+03 -.832E+01 0.113E+04   0.148E+00 -.504E+00 -.258E+01   0.346E-01 -.242E-01 0.642E-01
   0.498E+02 -.280E+03 0.558E+03   -.512E+02 0.282E+03 -.561E+03   -.760E+00 -.138E+01 0.320E+01   0.799E-01 0.631E-01 0.572E-01
   -.156E+03 0.331E+02 -.142E+04   0.157E+03 -.317E+02 0.142E+04   -.632E+00 -.130E+01 -.203E+01   -.173E-01 0.114E+00 0.356E-01
   -.247E+03 -.127E+03 -.536E+03   0.250E+03 0.127E+03 0.540E+03   -.209E+01 0.917E+00 -.184E+01   -.136E-02 0.173E-02 0.145E-01
   0.598E+02 -.724E+02 0.158E+04   -.612E+02 0.734E+02 -.159E+04   0.122E+01 -.240E+00 0.332E+01   -.316E-01 -.268E-02 -.738E-01
   0.127E+03 0.599E+02 0.112E+04   -.127E+03 -.610E+02 -.113E+04   -.166E+00 0.819E+00 0.404E+01   -.142E-01 -.106E-01 -.305E-01
   0.208E+02 -.605E+02 -.924E+03   -.203E+02 0.635E+02 0.927E+03   -.521E+00 -.278E+01 -.172E+01   0.652E-02 0.324E-01 0.794E-01
   0.223E+03 0.123E+03 0.286E+03   -.226E+03 -.124E+03 -.289E+03   0.841E+00 0.428E+00 0.185E+01   -.823E-02 -.470E-02 0.155E-01
   0.338E+02 -.229E+03 -.151E+04   -.350E+02 0.232E+03 0.151E+04   0.794E+00 -.236E+01 -.110E+01   -.440E-01 0.232E-04 -.727E-03
   0.327E+02 0.354E+03 0.872E+03   -.334E+02 -.356E+03 -.875E+03   -.145E+00 0.594E+00 0.252E+01   0.105E+00 0.558E-01 -.204E-01
   0.195E+03 -.744E+02 -.122E+04   -.197E+03 0.741E+02 0.122E+04   0.811E-01 -.333E+00 -.253E+01   0.179E+00 -.158E-01 0.782E-01
   -.598E+02 -.181E+00 0.160E+04   0.611E+02 -.110E+00 -.160E+04   -.886E+00 0.132E+00 0.400E+01   -.582E-01 -.652E-02 -.510E-01
   0.967E+02 0.539E+02 -.320E+03   -.974E+02 -.540E+02 0.323E+03   -.412E+00 -.799E+00 -.183E+01   -.846E-01 -.213E-01 -.181E-01
   0.682E+02 0.717E+02 -.574E+03   -.686E+02 -.729E+02 0.576E+03   -.156E+00 0.121E+01 -.390E+00   0.869E-02 0.214E-02 0.339E-01
   0.708E+02 0.902E+02 0.133E+04   -.717E+02 -.898E+02 -.134E+04   0.694E+00 -.891E+00 0.390E+01   -.558E-01 0.120E-01 -.484E-01
   -.105E+03 0.109E+03 0.321E+03   0.105E+03 -.110E+03 -.321E+03   -.876E+00 0.211E+00 0.625E+00   0.523E-01 -.197E-02 0.101E+00
   -.149E+03 -.874E+01 -.137E+04   0.150E+03 0.761E+01 0.137E+04   -.648E+00 0.913E+00 -.189E+01   0.463E-01 0.322E-01 0.247E-01
   0.246E+03 -.112E+03 0.322E+03   -.250E+03 0.113E+03 -.325E+03   0.118E+01 -.437E+00 0.204E+01   -.353E-01 -.165E-01 0.308E-02
   0.305E+02 0.228E+03 -.150E+04   -.315E+02 -.231E+03 0.151E+04   0.704E+00 0.228E+01 -.127E+01   -.776E-01 -.249E-01 -.639E-04
   0.148E+03 -.237E+01 0.991E+03   -.149E+03 0.326E+01 -.997E+03   -.965E-01 -.782E+00 0.400E+01   0.257E-02 -.733E-02 -.182E-01
   0.127E+03 0.361E+03 -.103E+04   -.128E+03 -.365E+03 0.104E+04   0.635E+00 0.263E+01 -.126E+01   0.359E-01 -.262E-01 0.604E-01
   -.456E+01 -.459E+01 -.475E+02   0.227E-12 -.341E-12 -.455E-11   0.453E+01 0.467E+01 0.454E+02   -.362E-01 -.755E-01 0.199E+01

 POSITION                                       TOTAL-FORCE (eV/Angst)
     13.17084      1.39171      1.94975        -0.199437     -0.191843      1.207841
     13.50997      1.39390      4.63409         0.075753      0.046395      0.645572
      3.74558      6.09881      1.45972         1.276894     -0.054703     -0.731466
      5.02033      6.18092      3.49202        -0.572103      0.215512      0.042919
      6.63788      1.26322      2.00953         0.853004      0.152545     -0.334609
      7.93172      1.39171      4.00611        -0.504644      0.276739     -1.057231
     16.08224      6.18092      2.46384        -0.874247     -0.744205      0.480152
     16.24148      6.30229      4.88152         0.492092     -0.225193      0.800137
      2.10894      1.39171      2.97793        -0.359780      0.594646     -0.379807
      1.21113      1.76959      5.09029         0.854552      0.449615      0.301389
     10.84312      6.18092      4.52020        -1.565789      0.066182     -2.788001
     15.50425      8.74368      2.12738         0.284624      0.938378      0.576370
     15.91075      0.16168      4.40429        -0.379438     -1.036375     -0.121551
      6.18364      6.15170      1.03684        -0.259562     -0.412313     -1.753443
      7.17375      4.91558      3.08454         0.396500     -0.191614     -1.467566
      7.92272      4.44725      5.34811         0.010776      0.320782      1.158653
      9.56500      0.12910      1.03428        -0.065496     -0.542493     -0.998931
     10.08514      0.12638      3.59863         0.616275     -0.387770     -1.335634
      1.35096      4.91558      2.05636         0.196408     -0.377478      1.385825
      1.98572      4.80062      4.47404        -0.092688      0.500251      1.078529
      4.26235      0.12638      2.57045         0.605178     -0.639603      0.868883
      4.64454      9.49914      4.97073        -0.079427     -0.494362      0.443124
     13.06393      4.10892      1.90610        -0.400540      0.949642      0.192469
     12.99653      4.91558      4.11272         1.153175     -0.041506     -0.599380
     15.37313      2.76083      1.90137         0.600398     -0.581030      0.073514
     15.90307      2.70727      4.36909        -0.456990      0.694098     -0.322072
      7.25005      8.32676      0.90355        -0.351841      0.865509     -0.921685
      7.17375      7.44626      3.08454        -0.195679      0.510540      1.632310
      7.71712      7.77265      5.43462         0.182672     -0.096414      1.091935
      9.52683      2.55332      1.05581         0.150721      0.416857     -1.325384
     10.08514      2.65705      3.59863         0.652396      0.166602     -1.584832
      1.35096      7.44626      2.05636         0.429163      0.182097      0.684917
      4.26235      2.65705      2.57045         0.484549      0.757566      0.881249
      4.97171      3.10969      4.86798        -0.342103     -0.116976      0.815845
     13.01491      8.23911      1.90633        -0.615981     -0.843988     -0.048287
     12.99653      7.44626      4.11272         1.017262     -0.074543     -0.369097
     16.28107      1.45555      5.95210        -0.727085     -0.270380      4.151012
     16.74052      1.39171      2.94940         1.542035      0.332467     -2.183143
      8.12088      6.46492      1.52610         3.095431     -1.009316     -2.103201
      8.59001      6.18092      4.49167         1.795550     -0.052804      0.242301
     10.91773      1.39171      1.92122         2.007641     -0.267439     -1.304669
     11.44173      1.38322      4.60930         0.856799      0.016288      2.867098
      1.95741      6.15316      0.51498         0.180458      0.072859     -3.644490
      2.74941      6.27724      3.26125         0.511440      0.647484      2.431899
      4.84504      1.39004      1.05264         0.150705      0.085292     -3.913522
      5.67861      1.39171      3.97758         1.201947     -0.035991      0.666200
     13.82913      6.18092      2.43531         0.010065     -0.142544     -1.961510
     14.25030      6.18321      5.22577         0.974893      0.058427      2.420852
     13.80098      2.78617      0.57033        -0.263841      0.463921     -4.018302
     13.99844      3.00295      3.46826        -0.605423      1.224909      1.557683
      5.26426      7.79215      1.92599        -0.899113      1.279116     -1.444191
      5.78524      7.78589      4.73661        -0.950664      0.502466      1.691265
      8.17565      3.00295      2.44008        -2.033128      1.097996      0.210244
      8.91020      2.69813      5.29722         0.178393      0.161050      3.088973
     16.76742      7.88297      3.64244         1.131197      0.477888      2.189556
     16.50064      7.46634      0.88200        -0.229528      0.740059     -3.532634
      2.37933      3.09844      1.77424        -0.690288     -0.320325     -2.847931
      2.93654      3.00295      4.49645         0.009099      0.230407      1.160219
     11.23234      7.90090      3.06793        -1.965746      0.068468     -1.175409
     11.72463      7.55561      5.70010        -0.424120      1.250947      3.588855
      5.26426      4.56969      1.92599        -0.718307     -1.384702      0.000245
      5.98055      4.87861      4.85203        -1.349953     -0.641783      1.965149
     14.10376      9.51937      0.76971         0.399541     -0.166028     -3.738970
     13.99844      9.35889      3.46826        -1.130285     -0.909637      1.427534
      0.02514      4.56969      3.98236        -0.539333      0.034775      1.373559
     16.35071      4.47642      1.26000        -0.183063     -0.488311     -2.760040
      8.17565      9.35889      2.44008        -0.651408     -0.647181      0.265467
      8.79058      9.47382      5.20794         0.012017     -0.184323      2.900906
     11.25311      4.44533      3.05526        -2.021903      0.027682     -1.091392
     11.72711      4.81017      5.70139        -0.389232     -1.319934      3.652735
      2.38220      9.25076      1.82885        -0.464540      0.102005     -2.319476
      2.66425      0.28837      4.65997        -0.836900     -2.085356      1.964470
    total drift:                               -0.063535      0.004158     -0.015589

  FREE ENERGIE OF THE ION-ELECTRON SYSTEM (eV)
  free  energy   TOTEN  =      -341.09620502 eV

  energy  without entropy=     -339.94260935  energy(sigma->0) =     -340.51940719