 vasp.5.4.4.18Apr17-6-g9f103f2a35 (build Aug 13 2019 17:33:20) gamma-only

 executed on             LinuxIFC date 2020.05.12  06:27:18

 INCAR:
 POTCAR:    PAW_PBE Ni_pv 06Sep2000
 POTCAR:    PAW_PBE S 06Sep2000
 POTCAR:    PAW_PBE Ni_pv 06Sep2000
   VRHFIN =Ni:

   TITEL  = PAW_PBE Ni_pv 06Sep2000
   POMASS =   58.690; ZVAL   =   16.000    mass and valenz
   ENMAX  =  367.986; ENMIN  =  275.989 eV

 POTCAR:    PAW_PBE S 06Sep2000
   VRHFIN =S : s2p4

   TITEL  = PAW_PBE S 06Sep2000
   POMASS =   32.066; ZVAL   =    6.000    mass and valenz
   ENMAX  =  258.689; ENMIN  =  194.016 eV

 Optimization of the real space projectors (new method)

 maximal supplied QI-value         = 18.90
 optimisation between [QCUT,QGAM] = [ 10.77, 21.73] = [ 32.49,132.25] Ry
 Optimized for a Real-space Cutoff    1.38 Angstroem

   l    n(q)    QCUT    max X(q) W(low)/X(q) W(high)/X(q)  e(spline)
   1      8    10.771     2.836    0.40E-04    0.29E-04    0.12E-06
   1      8    10.771     4.023    0.10E-03    0.48E-04    0.29E-06
   2      8    10.771    73.368    0.42E-03    0.97E-04    0.44E-06
   2      8    10.771    69.010    0.42E-03    0.99E-04    0.45E-06
   0      9    10.771    54.797    0.10E-03    0.56E-04    0.74E-07
   0      9    10.771    24.266    0.89E-04    0.49E-04    0.67E-07
 Optimization of the real space projectors (new method)

 maximal supplied QI-value         = 19.84
 optimisation between [QCUT,QGAM] = [ 10.71, 21.63] = [ 32.15,130.99] Ry
 Optimized for a Real-space Cutoff    1.19 Angstroem

   l    n(q)    QCUT    max X(q) W(low)/X(q) W(high)/X(q)  e(spline)
   0      8    10.715   187.594    0.41E-03    0.53E-04    0.66E-07
   0      8    10.715   164.243    0.41E-03    0.53E-04    0.65E-07
   1      7    10.715    67.533    0.19E-03    0.59E-03    0.68E-07
   1      7    10.715    50.729    0.19E-03    0.58E-03    0.67E-07
  PAW_PBE Ni_pv 06Sep2000               :
  PAW_PBE S 06Sep2000                   :

 POSCAR: Type_038 Type_138
  positions in cartesian coordinates
 exchange correlation table for  LEXCH =        8
   RHO(1)=    0.500       N(1)  =     2000
   RHO(2)=  100.500       N(2)  =     4000

 ion  position               nearest neighbor table
   1  0.780  0.145  0.128-  51 2.07  66 2.07  43 2.25  52 2.36  67 2.36
   2  0.801  0.145  0.291-  67 2.03  52 2.03  44 2.07
   3  0.297  0.645  0.222-  64 2.13  53 2.13  54 2.15  65 2.15  46 2.25  29 2.53  16 2.53
   4  0.395  0.145  0.135-  47 2.03  48 2.15  70 2.24  55 2.24   5 2.31
   5  0.470  0.145  0.254-  71 2.09  56 2.09  48 2.25  55 2.26  70 2.26   4 2.31  32 2.53  19 2.53

   6  0.952  0.645  0.159-  58 2.08  69 2.08  49 2.25  57 2.36  68 2.36  33 2.53  20 2.53
   7  0.969  0.645  0.320-  68 2.03  57 2.03  50 2.06
   8  0.175  0.145  0.051-  47 2.02  75 2.05  59 2.05   9 2.43
   9  0.125  0.145  0.191-  59 2.14  75 2.14  40 2.25  10 2.36  60 2.36  76 2.36   8 2.43  35 2.53
                            22 2.53
  10  0.108  0.145  0.335-  39 2.02  76 2.12  60 2.12   9 2.36
  11  0.608  0.645  0.096-  61 2.07  72 2.07  41 2.25  62 2.36  73 2.36
  12  0.642  0.645  0.285-  63 2.02  74 2.02  42 2.25  62 2.26  73 2.26  38 2.53  25 2.53
  13  0.909  0.007  0.124-  66 2.08  67 2.09  58 2.09  40 2.20
  14  0.943  0.012  0.277-  39 2.07  40 2.09  67 2.15  57 2.19
  15  0.388  0.518  0.053-  64 2.01  41 2.02  16 2.44  28 2.44
  16  0.425  0.513  0.197-  64 2.16  65 2.17  55 2.25  41 2.26  42 2.36  15 2.44  17 2.47  29 2.53
                             3 2.53
  17  0.468  0.468  0.339-  56 2.00  65 2.04  42 2.05  16 2.47
  18  0.605  0.935  0.093-  61 2.02  62 2.13  43 2.20  70 2.33  19 2.34
  19  0.597  0.013  0.229-  71 2.07  44 2.11  62 2.25  70 2.26  43 2.26  18 2.34   5 2.53  32 2.53

  20  0.080  0.513  0.134-  45 2.00  69 2.09  59 2.12  46 2.36  68 2.36   6 2.53  33 2.53
  21  0.113  0.504  0.296-  46 2.03  68 2.03  60 2.10
  22  0.252  0.013  0.166-  53 2.13  75 2.14  47 2.15  48 2.36  76 2.36  23 2.47   9 2.53  35 2.53

  23  0.293  0.970  0.309-  54 2.03  76 2.05  48 2.06  22 2.47
  24  0.745  0.490  0.101-  72 2.07  73 2.08  51 2.09  49 2.15
  25  0.770  0.513  0.260-  74 2.02  50 2.10  52 2.25  73 2.26  49 2.26  12 2.53  38 2.53
  26  0.909  0.284  0.124-  51 2.08  52 2.09  69 2.09  40 2.20
  27  0.943  0.278  0.277-  39 2.07  40 2.09  52 2.15  68 2.19
  28  0.388  0.773  0.053-  53 2.01  41 2.02  29 2.44  15 2.44
  29  0.425  0.777  0.197-  53 2.16  54 2.17  70 2.25  41 2.26  42 2.36  28 2.44  30 2.47  16 2.53
                             3 2.53
  30  0.468  0.822  0.339-  71 2.00  54 2.04  42 2.05  29 2.47
  31  0.605  0.356  0.093-  72 2.02  73 2.13  43 2.20  55 2.33  32 2.34
  32  0.597  0.277  0.229-  56 2.07  44 2.11  73 2.25  55 2.26  43 2.26  31 2.34   5 2.53  19 2.53

[...]

  36  0.293  0.321  0.309-  65 2.03  60 2.05  48 2.06  35 2.47
  37  0.745  0.801  0.101-  61 2.07  62 2.08  66 2.09  49 2.15
  38  0.770  0.777  0.260-  63 2.02  50 2.10  67 2.25  62 2.26  49 2.26  12 2.53  25 2.53
  39  0.992  0.145  0.363-  10 2.02  27 2.07  14 2.07
  40  0.991  0.145  0.189-  14 2.09  27 2.09  26 2.20  13 2.20   9 2.25
  41  0.474  0.645  0.094-  15 2.02  28 2.02  11 2.25  29 2.26  16 2.26
  42  0.509  0.645  0.284-  17 2.05  30 2.05  12 2.25  29 2.36  16 2.36
  43  0.647  0.145  0.126-  18 2.20  31 2.20   1 2.25  32 2.26  19 2.26  44 2.72
  44  0.679  0.145  0.290-   2 2.07  19 2.11  32 2.11  43 2.72
  45  0.100  0.645  0.042-  33 2.00  20 2.00
  46  0.164  0.645  0.220-  34 2.03  21 2.03   3 2.25  33 2.36  20 2.36
  47  0.294  0.145  0.068-   8 2.02   4 2.03  35 2.15  22 2.15
  48  0.336  0.145  0.252-  23 2.06  36 2.06   4 2.15   5 2.25  35 2.36  22 2.36
  49  0.819  0.645  0.157-  37 2.15  24 2.15   6 2.25  38 2.26  25 2.26  50 2.76
  50  0.847  0.645  0.324-   7 2.06  25 2.10  38 2.10  49 2.76
  51  0.807  0.316  0.055-   1 2.07  26 2.08  24 2.09  52 2.72
  52  0.829  0.314  0.221-   2 2.03  26 2.09  27 2.15  25 2.25   1 2.36  51 2.72
  53  0.311  0.820  0.143-  28 2.01   3 2.13  22 2.13  29 2.16  54 2.79
  54  0.353  0.786  0.307-  23 2.03  30 2.04   3 2.15  29 2.17  65 2.70  53 2.79
  55  0.484  0.314  0.158-   4 2.24  16 2.25   5 2.26  32 2.26  31 2.33
  56  0.526  0.287  0.332-  17 2.00  32 2.07   5 2.09  71 2.71
  57  0.001  0.814  0.252-   7 2.03  34 2.03  14 2.19   6 2.36  33 2.36  58 2.73
  58  0.967  0.824  0.088-   6 2.08  33 2.09  13 2.09  57 2.73
  59  0.140  0.322  0.111-   8 2.05  20 2.12  35 2.14   9 2.14
  60  0.174  0.314  0.284-  36 2.05  21 2.10  10 2.12   9 2.36  35 2.36
  61  0.654  0.793  0.017-  18 2.02  11 2.07  37 2.07
  62  0.657  0.814  0.189-  37 2.08  18 2.13  19 2.25  38 2.26  12 2.26  11 2.36
  63  0.695  0.790  0.357-  38 2.02  12 2.02  74 2.77
  64  0.311  0.471  0.143-  15 2.01   3 2.13  35 2.13  16 2.16  65 2.79
  65  0.353  0.504  0.307-  36 2.03  17 2.04   3 2.15  16 2.17  54 2.70  64 2.79
  66  0.807  0.974  0.055-   1 2.07  13 2.08  37 2.09  67 2.72
  67  0.829  0.977  0.221-   2 2.03  13 2.09  14 2.15  38 2.25   1 2.36  66 2.72
  68  0.001  0.477  0.252-   7 2.03  21 2.03  27 2.19   6 2.36  20 2.36  69 2.73
  69  0.967  0.467  0.088-   6 2.08  20 2.09  26 2.09  68 2.73
  70  0.484  0.977  0.158-   4 2.24  29 2.25  19 2.26   5 2.26  18 2.33
  71  0.526  0.004  0.332-  30 2.00  19 2.07   5 2.09  56 2.71
  72  0.654  0.498  0.017-  31 2.02  11 2.07  24 2.07
  73  0.657  0.477  0.189-  24 2.08  31 2.13  32 2.25  25 2.26  12 2.26  11 2.36
  74  0.695  0.501  0.357-  25 2.02  12 2.02  63 2.77
  75  0.140  0.969  0.111-   8 2.05  33 2.12  22 2.14   9 2.14
  76  0.174  0.977  0.284-  23 2.05  34 2.10  10 2.12   9 2.36  22 2.36

  LATTYP: Found a simple orthorhombic cell.
 ALAT       =     9.5784100000
 B/A-ratio  =     1.7016870630
 C/A-ratio  =     1.7627867312

  Lattice vectors:

 A1 = (   0.0000000000,   9.5784100000,   0.0000000000)
 A2 = (   0.0000000000,   0.0000000000, -16.2994563815)
 A3 = ( -16.8846940542,   0.0000000000,   0.0000000000)

Analysis of symmetry for initial positions (statically):
 Subroutine PRICEL returns:
 Original cell was already a primitive cell.

 Routine SETGRP: Setting up the symmetry group for a
 simple orthorhombic supercell.

 Subroutine GETGRP returns: Found  2 space group operations
 (whereof  1 operations were pure point group operations)
 out of a pool of  8 trial point group operations.

The static configuration has the point symmetry C_1 .
 The point group associated with its full space group is C_1h.

Analysis of symmetry for dynamics (positions and initial velocities):
 Subroutine PRICEL returns:
 Original cell was already a primitive cell.

 Routine SETGRP: Setting up the symmetry group for a
 simple orthorhombic supercell.

 Subroutine GETGRP returns: Found  2 space group operations
 (whereof  1 operations were pure point group operations)
 out of a pool of  8 trial point group operations.

The dynamic configuration has the point symmetry C_1 .
 The point group associated with its full space group is C_1h.

 Subroutine INISYM returns: Found  2 space group operations
 (whereof  1 operations are pure point group operations),
 and found     1 'primitive' translations

 KPOINTS: gamma-point-only calculation. no periodi

Automatic generation of k-mesh.
Space group operators:
 irot       det(A)        alpha          n_x          n_y          n_z        tau_x        tau_y        tau_z
    1     1.000000     0.000000     1.000000     0.000000     0.000000     0.000000     0.000000     0.000000
    2    -1.000000   180.000000     0.000000     1.000000     0.000000     0.000000     0.290594     0.000000

 Subroutine IBZKPT returns following result:

 Found      1 irreducible k-points:

 Following reciprocal coordinates:
            Coordinates               Weight
  0.000000  0.000000  0.000000      1.000000

 Following cartesian coordinates:
            Coordinates               Weight
  0.000000  0.000000  0.000000      1.000000

 SYSTEM =  "Millerite NiS"
 POSCAR =  Type_038 Type_138

 Startparameter for this run:
   NWRITE =      2    write-flag & timer
   PREC   = normal    normal or accurate (medium, high low for compatibility)
   ISTART =      0    job   : 0-new  1-cont  2-samecut
   ICHARG =      2    charge: 1-file 2-atom 10-const
   ISPIN  =      1    spin polarized calculation?
   LNONCOLLINEAR =      F non collinear calculations
   LSORBIT =      F    spin-orbit coupling
   INIWAV =      1    electr: 0-lowe 1-rand  2-diag
   LASPH  =      F    aspherical Exc in radial PAW
   METAGGA=      F    non-selfconsistent MetaGGA calc.

 Electronic Relaxation 1
   ENCUT  =  450.0 eV  33.07 Ry    5.75 a.u.  29.20 16.57 28.19*2*pi/ulx,y,z
   ENINI  =  450.0     initial cutoff
   ENAUG  =  703.4 eV  augmentation charge cutoff
   NELM   =    100;   NELMIN=  2; NELMDL= -5     # of ELM steps
   EDIFF  = 0.1E-03   stopping-criterion for ELM
   LREAL  =      T    real-space projection
   NLSPLINE    = F    spline interpolate recip. space projectors
   LCOMPAT=      F    compatible to vasp.4.4
   GGA_COMPAT  = T    GGA compatible to vasp.4.4-vasp.4.6
   LMAXPAW     = -100 max onsite density
   LMAXMIX     =    2 max onsite mixed and CHGCAR
   VOSKOWN=      0    Vosko Wilk Nusair interpolation
   ROPT   =   -0.00050  -0.00050
 Ionic relaxation
[...]

  length of vectors
    16.884694054  9.578410000 16.299456382     0.059225237  0.104401461  0.061351739

 FORCES acting on ions
    electron-ion (+dipol)            ewald-force                    non-local-force                 convergence-correction
   0.320E+03 -.965E-03 0.193E+04   -.325E+03 0.302E-07 -.193E+04   0.432E+01 0.000E+00 0.646E+01   -.662E-01 -.123E-06 -.267E-01
   0.317E+03 -.752E-03 -.300E+04   -.318E+03 0.349E-07 0.300E+04   0.158E+01 0.000E+00 0.122E+01   -.859E-01 0.557E-07 -.176E-01
   0.877E+03 -.874E-03 -.645E+03   -.883E+03 -.710E-08 0.643E+03   0.467E+01 0.000E+00 0.155E+01   0.972E-01 -.388E-06 -.735E-01
   -.233E+03 -.841E-03 0.235E+04   0.237E+03 0.203E-06 -.235E+04   -.268E+01 0.000E+00 0.375E+01   0.367E-01 0.605E-07 -.218E-01
   0.203E+03 -.867E-03 -.173E+04   -.205E+03 0.647E-07 0.173E+04   0.213E+01 0.000E+00 -.479E+01   0.350E-01 0.593E-07 -.108E-01
   0.409E+03 -.765E-03 0.129E+04   -.415E+03 -.172E-07 -.129E+04   0.483E+01 0.000E+00 0.396E+01   -.314E-01 -.281E-06 -.332E-01
   0.211E+03 -.770E-03 -.334E+04   -.212E+03 0.243E-07 0.334E+04   0.174E+01 0.000E+00 0.308E+00   -.575E-01 -.365E-06 0.424E-01
   0.438E+03 -.778E-03 0.413E+04   -.442E+03 0.126E-07 -.414E+04   0.335E+01 0.000E+00 0.440E+01   0.461E-01 0.472E-07 -.739E-01
   0.664E+03 -.812E-03 0.344E+03   -.668E+03 0.192E-07 -.343E+03   0.343E+01 0.000E+00 -.657E+00   0.436E-01 0.366E-07 -.552E-01
   0.165E+02 -.808E-03 -.354E+04   -.201E+02 0.384E-08 0.354E+04   0.481E+01 0.000E+00 -.464E+00   0.273E-01 0.528E-07 0.293E-01
   0.414E+03 -.787E-03 0.239E+04   -.419E+03 -.583E-07 -.240E+04   0.402E+01 0.000E+00 0.510E+01   -.777E-01 -.193E-06 -.145E-02
   0.389E+03 -.805E-03 -.242E+04   -.395E+03 -.386E-07 0.242E+04   0.395E+01 0.000E+00 -.527E+01   -.448E-01 -.314E-06 -.115E-01
   -.489E+03 0.264E+03 0.239E+04   0.493E+03 -.267E+03 -.239E+04   -.329E+01 0.324E+01 0.431E+01   -.528E-01 -.637E-02 -.405E-01
   -.253E+02 0.511E+03 -.231E+04   0.262E+02 -.515E+03 0.231E+04   -.180E+01 0.253E+01 -.356E+01   -.378E-01 -.850E-02 -.626E-02
   0.348E+03 0.538E+03 0.382E+04   -.352E+03 -.533E+03 -.382E+04   0.304E+01 -.500E+01 -.181E+01   0.182E-01 0.403E-01 -.585E-01
   -.182E+03 0.380E+03 0.108E+03   0.184E+03 -.383E+03 -.109E+03   -.153E+01 0.341E+01 0.112E+01   0.162E-01 0.154E-01 -.816E-01
   -.147E+03 0.131E+03 -.365E+04   0.150E+03 -.134E+03 0.365E+04   -.312E+01 0.305E+01 0.213E+01   0.213E-01 -.358E-02 -.291E-01
   0.348E+03 -.416E+03 0.298E+04   -.350E+03 0.418E+03 -.298E+04   0.530E+00 -.139E+01 0.678E+01   -.407E-01 -.130E-01 0.690E-02
   -.309E+03 0.196E+03 -.114E+04   0.311E+03 -.199E+03 0.114E+04   -.136E+01 0.314E+01 -.412E+01   -.377E-01 0.871E-02 -.207E-02
   -.311E+03 0.343E+03 0.202E+04   0.313E+03 -.345E+03 -.203E+04   -.185E+01 0.145E+01 0.507E+01   0.488E-01 -.574E-02 -.744E-01
   -.226E+03 0.104E+03 -.275E+04   0.227E+03 -.105E+03 0.276E+04   -.825E+00 0.916E+00 0.922E-01   0.259E-01 -.532E-02 -.141E-02
   -.617E+01 0.670E+03 0.110E+04   0.667E+01 -.675E+03 -.110E+04   -.184E+00 0.400E+01 0.161E+01   0.991E-01 -.399E-01 -.518E-01
   0.529E+02 0.136E+03 -.318E+04   -.516E+02 -.140E+03 0.318E+04   -.143E+01 0.392E+01 0.985E+00   0.894E-01 -.166E-01 -.182E-01
   -.629E+03 0.104E+03 0.260E+04   0.635E+03 -.106E+03 -.261E+04   -.537E+01 0.312E+01 0.622E+01   -.592E-01 -.387E-02 -.915E-02
   -.426E+03 0.504E+03 -.188E+04   0.429E+03 -.509E+03 0.188E+04   -.195E+01 0.405E+01 -.513E+01   -.691E-01 0.871E-02 -.167E-02
   -.489E+03 -.264E+03 0.239E+04   0.493E+03 0.267E+03 -.239E+04   -.329E+01 -.324E+01 0.431E+01   -.528E-01 0.637E-02 -.405E-01
   -.253E+02 -.511E+03 -.231E+04   0.262E+02 0.515E+03 0.231E+04   -.180E+01 -.253E+01 -.356E+01   -.378E-01 0.850E-02 -.626E-02
   0.348E+03 -.538E+03 0.382E+04   -.352E+03 0.533E+03 -.382E+04   0.304E+01 0.500E+01 -.181E+01   0.182E-01 -.403E-01 -.585E-01
   -.182E+03 -.380E+03 0.108E+03   0.184E+03 0.383E+03 -.109E+03   -.153E+01 -.341E+01 0.112E+01   0.162E-01 -.154E-01 -.816E-01
   -.147E+03 -.131E+03 -.365E+04   0.150E+03 0.134E+03 0.365E+04   -.312E+01 -.305E+01 0.213E+01   0.213E-01 0.358E-02 -.291E-01
   0.348E+03 0.416E+03 0.298E+04   -.350E+03 -.418E+03 -.298E+04   0.530E+00 0.139E+01 0.678E+01   -.407E-01 0.130E-01 0.690E-02
   -.309E+03 -.196E+03 -.114E+04   0.311E+03 0.199E+03 0.114E+04   -.136E+01 -.314E+01 -.412E+01   -.377E-01 -.871E-02 -.207E-02
   -.311E+03 -.343E+03 0.202E+04   0.313E+03 0.345E+03 -.203E+04   -.185E+01 -.145E+01 0.507E+01   0.488E-01 0.574E-02 -.744E-01
   -.226E+03 -.104E+03 -.275E+04   0.227E+03 0.105E+03 0.276E+04   -.825E+00 -.916E+00 0.922E-01   0.259E-01 0.532E-02 -.141E-02
   -.617E+01 -.670E+03 0.110E+04   0.667E+01 0.675E+03 -.110E+04   -.184E+00 -.400E+01 0.161E+01   0.991E-01 0.399E-01 -.518E-01
   0.529E+02 -.136E+03 -.318E+04   -.516E+02 0.140E+03 0.318E+04   -.143E+01 -.392E+01 0.985E+00   0.894E-01 0.166E-01 -.182E-01
   -.629E+03 -.104E+03 0.260E+04   0.635E+03 0.106E+03 -.261E+04   -.537E+01 -.312E+01 0.622E+01   -.592E-01 0.387E-02 -.915E-02
   -.426E+03 -.504E+03 -.188E+04   0.429E+03 0.509E+03 0.188E+04   -.195E+01 -.405E+01 -.513E+01   -.691E-01 -.871E-02 -.167E-02
   0.852E+02 -.112E-04 -.162E+04   -.845E+02 -.135E-07 0.163E+04   -.784E+00 0.000E+00 -.139E+01   -.118E-01 0.584E-07 0.185E-01
   -.230E+03 -.102E-04 0.334E+03   0.232E+03 0.153E-07 -.337E+03   -.839E-01 0.000E+00 0.565E+00   -.799E-02 0.591E-07 -.173E-01
   -.240E+03 0.271E-04 0.103E+04   0.241E+03 -.126E-06 -.104E+04   0.780E+00 0.000E+00 0.175E+01   -.369E-01 -.506E-07 -.265E-01
   -.192E+03 -.240E-04 -.785E+03   0.195E+03 -.148E-07 0.787E+03   -.311E+00 0.000E+00 -.220E+01   -.580E-03 -.800E-07 -.995E-02
   -.512E+02 0.231E-04 0.864E+03   0.527E+02 0.191E-07 -.869E+03   -.784E+00 0.000E+00 0.296E+01   -.159E-01 0.354E-07 0.329E-02
   -.104E+03 -.835E-05 -.114E+04   0.105E+03 0.202E-07 0.115E+04   -.443E+00 0.000E+00 -.286E+01   -.310E-01 0.563E-07 -.791E-02
   -.160E+03 0.163E-04 0.162E+04   0.162E+03 -.154E-07 -.162E+04   -.124E+00 0.000E+00 0.878E+00   0.202E-01 -.578E-07 -.165E-01
   -.224E+03 0.440E-05 -.478E+02   0.226E+03 -.179E-07 0.489E+02   0.647E+00 0.000E+00 -.183E+01   0.363E-01 -.824E-07 -.329E-01
   -.186E+03 -.127E-04 0.155E+04   0.188E+03 0.765E-07 -.155E+04   -.662E+00 0.000E+00 0.225E+01   0.253E-01 0.404E-07 -.120E-01
   -.821E+02 -.273E-04 -.655E+03   0.824E+02 0.217E-07 0.660E+03   0.603E+00 0.000E+00 -.450E+01   0.312E-01 0.626E-07 -.925E-02
   -.295E+03 -.160E-05 0.505E+03   0.296E+03 -.261E-07 -.509E+03   -.364E+00 0.000E+00 0.214E+01   -.326E-01 -.385E-07 -.803E-02
   -.916E+02 0.393E-06 -.134E+04   0.934E+02 0.301E-08 0.134E+04   -.833E+00 0.000E+00 -.296E+01   -.175E-01 -.819E-07 0.656E-02
   -.802E+02 -.391E+02 0.152E+04   0.800E+02 0.391E+02 -.152E+04   0.512E+00 0.449E+00 0.323E+01   -.206E-01 0.451E-04 -.448E-02
   0.891E+02 -.195E+03 -.310E+03   -.906E+02 0.197E+03 0.313E+03   0.750E+00 -.875E+00 -.750E+00   -.281E-01 0.392E-02 -.118E-01
   0.327E+03 -.332E+02 0.695E+03   -.329E+03 0.325E+02 -.699E+03   0.865E+00 0.112E+01 0.258E+01   0.419E-01 -.135E-01 -.393E-01
   0.220E+03 0.741E+02 -.122E+04   -.222E+03 -.732E+02 0.122E+04   0.630E-02 -.176E+00 -.339E+01   0.254E-01 -.119E-02 -.120E-01
   0.461E+02 -.236E+02 0.612E+03   -.482E+02 0.253E+02 -.614E+03   0.170E+01 -.110E+01 0.123E+01   -.949E-03 0.908E-02 -.583E-02
   -.137E+03 0.591E+02 -.146E+04   0.137E+03 -.576E+02 0.146E+04   -.370E+00 -.115E+01 -.209E+01   -.114E-02 -.192E-02 -.130E-01
   0.973E+02 -.157E+03 -.493E+03   -.978E+02 0.159E+03 0.495E+03   -.389E+00 -.787E+00 -.141E+01   -.139E-01 -.585E-03 -.255E-02
   0.316E+02 -.600E+02 0.130E+04   -.338E+02 0.598E+02 -.130E+04   0.155E+01 0.103E+01 0.382E+01   -.143E-02 0.819E-02 -.216E-01
   0.178E+03 -.274E+03 0.102E+04   -.179E+03 0.274E+03 -.103E+04   0.157E+00 0.558E+00 0.154E+01   0.202E-01 0.118E-01 -.234E-01
   0.659E+02 -.152E+03 -.871E+03   -.663E+02 0.154E+03 0.874E+03   -.349E+00 -.142E+01 -.168E+01   0.325E-01 0.231E-02 -.730E-02
[...]
   -.719E+01 -.255E+03 -.160E+04   0.610E+01 0.259E+03 0.161E+04   0.652E+00 -.227E+01 -.565E+00   -.200E-01 -.312E-02 -.416E-02
   0.327E+03 0.332E+02 0.695E+03   -.329E+03 -.325E+02 -.699E+03   0.865E+00 -.112E+01 0.258E+01   0.419E-01 0.135E-01 -.393E-01
   0.220E+03 -.741E+02 -.122E+04   -.222E+03 0.732E+02 0.122E+04   0.630E-02 0.176E+00 -.339E+01   0.254E-01 0.119E-02 -.120E-01
   -.802E+02 0.391E+02 0.152E+04   0.800E+02 -.391E+02 -.152E+04   0.512E+00 -.449E+00 0.323E+01   -.206E-01 -.450E-04 -.448E-02
   0.891E+02 0.195E+03 -.310E+03   -.906E+02 -.197E+03 0.313E+03   0.750E+00 0.875E+00 -.750E+00   -.281E-01 -.392E-02 -.118E-01
   0.973E+02 0.157E+03 -.493E+03   -.978E+02 -.159E+03 0.495E+03   -.389E+00 0.787E+00 -.141E+01   -.139E-01 0.585E-03 -.255E-02
   0.316E+02 0.600E+02 0.130E+04   -.338E+02 -.598E+02 -.130E+04   0.155E+01 -.103E+01 0.382E+01   -.143E-02 -.819E-02 -.216E-01
   0.461E+02 0.236E+02 0.612E+03   -.482E+02 -.253E+02 -.614E+03   0.170E+01 0.110E+01 0.123E+01   -.949E-03 -.908E-02 -.583E-02
   -.137E+03 -.591E+02 -.146E+04   0.137E+03 0.576E+02 0.146E+04   -.370E+00 0.115E+01 -.209E+01   -.114E-02 0.192E-02 -.130E-01
   -.189E+02 0.668E+02 0.174E+04   0.194E+02 -.680E+02 -.175E+04   -.595E+00 0.531E+00 0.277E+01   -.185E-01 0.150E-02 0.452E-02
   0.593E+02 0.700E+02 -.103E+03   -.605E+02 -.703E+02 0.106E+03   -.916E-01 -.652E-02 -.127E+01   -.208E-01 0.325E-03 -.466E-02
   -.719E+01 0.255E+03 -.160E+04   0.610E+01 -.259E+03 0.161E+04   0.652E+00 0.227E+01 -.565E+00   -.200E-01 0.312E-02 -.416E-02
   0.178E+03 0.274E+03 0.102E+04   -.179E+03 -.274E+03 -.103E+04   0.157E+00 -.558E+00 0.154E+01   0.202E-01 -.118E-01 -.234E-01
   0.659E+02 0.152E+03 -.871E+03   -.663E+02 -.154E+03 0.874E+03   -.349E+00 0.142E+01 -.168E+01   0.325E-01 -.231E-02 -.730E-02
   -.422E+01 -.819E-02 -.444E+02   -.144E-11 0.455E-12 0.739E-11   0.429E+01 -.444E-14 0.458E+02   -.870E-01 -.466E-06 -.139E+01

 POSITION                                       TOTAL-FORCE (eV/Angst)
     13.17084      1.39171      2.08012        -0.135991      0.000000      1.896097
     13.52894      1.39171      4.74305        -0.098559      0.000000      1.144585
      5.02033      6.18092      3.62239        -0.753607      0.000000     -0.010897
      6.66888      1.39171      2.19821         0.680118      0.000000     -0.450547
      7.93172      1.39171      4.13648         0.055694      0.000000     -0.777926
     16.08224      6.18092      2.59421        -0.570566      0.000000      1.860650
     16.36389      6.18092      5.21655         0.303234      0.000000      0.713636
      2.95873      1.39171      0.83054        -0.746912      0.000000     -1.913186
      2.10894      1.39171      3.10830        -0.864742      0.000000      0.609240
      1.82944      1.39171      5.45273         1.199139      0.000000      0.819521
     10.25945      6.18092      1.56603        -0.394369      0.000000      0.860557
     10.84312      6.18092      4.65057        -2.082109      0.000000     -2.112732
     15.34335      0.06385      2.02763         0.761212      0.549644     -0.650133
     15.91619      0.11886      4.51246        -0.882359     -0.706019      0.148518
      6.54749      4.96064      0.85707        -0.146780     -0.349781     -1.271013
      7.17375      4.91558      3.21491         0.817849     -0.255047      0.148778
      7.89692      4.48504      5.53253         0.075102      0.248867      0.921003
     10.21872      8.95174      1.51628        -1.252063      0.674304      0.182878
     10.08514      0.12638      3.72900         0.289954      0.126345     -0.896103
      1.35096      4.91558      2.18673         0.289663     -0.896499      2.144723
      1.90695      4.82365      4.83097         0.230077      0.124366      1.214092
      4.26235      0.12638      2.70082         0.409075     -0.330723      0.862879
      4.94729      9.28702      5.03951        -0.098373      0.319955      0.959953
     12.58354      4.69018      1.64132         0.526158      0.805489      0.044454
     12.99653      4.91558      4.24309         1.045556     -0.396865     -2.419791
     15.34335      2.71958      2.02763         0.761212     -0.549644     -0.650133
     15.91619      2.66457      4.51246        -0.882359      0.706019      0.148518
      6.54749      7.40120      0.85707        -0.146780      0.349781     -1.271013
      7.17375      7.44626      3.21491         0.817849      0.255047      0.148778
      7.89692      7.87680      5.53253         0.075102     -0.248867      0.921003
     10.21872      3.41010      1.51628        -1.252063     -0.674304      0.182878
     10.08514      2.65705      3.72900         0.289954     -0.126345     -0.896103
      1.35096      7.44626      2.18673         0.289663      0.896499      2.144723
      1.90695      7.53819      4.83097         0.230077     -0.124366      1.214092
      4.26235      2.65705      2.70082         0.409075      0.330723      0.862879
      4.94729      3.07482      5.03951        -0.098373     -0.319955      0.959953
     12.58354      7.67165      1.64132         0.526158     -0.805489      0.044454
     12.99653      7.44626      4.24309         1.045556      0.396865     -2.419791
     16.74478      1.39171      5.91197        -0.066500      0.000000      3.248517
     16.74052      1.39171      3.07977         1.640035      0.000000     -2.244473
      8.00634      6.18092      1.53750         2.215242      0.000000     -0.892846
      8.59001      6.18092      4.62204         1.873266      0.000000      0.229076
     10.91773      1.39171      2.05159         0.702644      0.000000     -2.125971
     11.45868      1.39171      4.71983         1.106350      0.000000      2.613622
      1.69644      6.18092      0.67862         1.394861      0.000000     -4.096030
      2.76722      6.18092      3.59386         2.055807      0.000000     -0.786123
      4.95928      1.39171      1.10877         1.559068      0.000000     -3.067305
      5.67861      1.39171      4.10795         0.889599      0.000000      1.087038
     13.82913      6.18092      2.56568         1.366767      0.000000     -0.949713
     14.30818      6.18092      5.28229         0.874018      0.000000      2.592653
     13.61916      3.02803      0.90061         0.287299      0.467669     -2.924508
     13.99844      3.00295      3.59863        -0.717366      1.518945      1.500466
      5.24854      7.85456      2.32618        -1.266181      0.363932     -1.692063
      5.95622      7.53007      5.00484        -1.267463      0.664017      1.964727
      8.17565      3.00295      2.57045        -0.327505      0.612448     -1.102130
      8.88616      2.74826      5.41303         0.098571      0.378212      2.877739
      0.02514      7.79215      4.11272        -0.884127      1.665527      0.497675
     16.33323      7.89133      1.44175        -0.682894      0.827428     -2.899825
      2.36016      3.08280      1.81701        -0.855626      0.949757     -1.452822
      2.93654      3.00295      4.62682        -0.645016     -0.274326      1.060505
     11.03654      7.59183      0.27229        -0.099538      0.749476     -3.843338
     11.08705      7.79215      3.08454        -1.346420      0.301235      1.923156
     11.74190      7.56508      5.81633        -0.460048      1.439327      3.576460
      5.24854      4.50727      2.32618        -1.266181     -0.363932     -1.692063
      5.95622      4.83176      5.00484        -1.267463     -0.664017      1.964727
     13.61916      9.33381      0.90061         0.287299     -0.467669     -2.924508
     13.99844      9.35889      3.59863        -0.717366     -1.518945      1.500466
      0.02514      4.56969      4.11272        -0.884127     -1.665527      0.497675
     16.33323      4.47051      1.44175        -0.682894     -0.827428     -2.899825
      8.17565      9.35889      2.57045        -0.327505     -0.612448     -1.102130
      8.88616      0.03517      5.41303         0.098571     -0.378212      2.877739
     11.03654      4.77001      0.27229        -0.099538     -0.749476     -3.843338
     11.08705      4.56969      3.08454        -1.346420     -0.301235      1.923156
     11.74190      4.79675      5.81633        -0.460048     -1.439327      3.576460
      2.36016      9.27904      1.81701        -0.855626     -0.949757     -1.452822
      2.93654      9.35889      4.62682        -0.645016      0.274326      1.060505
    total drift:                               -0.008667     -0.008188      0.005901

  FREE ENERGIE OF THE ION-ELECTRON SYSTEM (eV)
  free  energy   TOTEN  =      -361.78917996 eV

  energy  without entropy=     -360.64702682  energy(sigma->0) =     -361.21810339