 vasp.5.4.4.18Apr17-6-g9f103f2a35 (build Aug 13 2019 17:33:20) gamma-only

 executed on             LinuxIFC date 2020.05.11  17:47:03

 INCAR:
 POTCAR:    PAW_PBE Ni_pv 06Sep2000
 POTCAR:    PAW_PBE S 06Sep2000
 POTCAR:    PAW_PBE Ni_pv 06Sep2000
   VRHFIN =Ni:

   TITEL  = PAW_PBE Ni_pv 06Sep2000
   POMASS =   58.690; ZVAL   =   16.000    mass and valenz
   ENMAX  =  367.986; ENMIN  =  275.989 eV

 POTCAR:    PAW_PBE S 06Sep2000
   VRHFIN =S : s2p4

   TITEL  = PAW_PBE S 06Sep2000
   POMASS =   32.066; ZVAL   =    6.000    mass and valenz
   ENMAX  =  258.689; ENMIN  =  194.016 eV

 Optimization of the real space projectors (new method)

 maximal supplied QI-value         = 18.90
 optimisation between [QCUT,QGAM] = [ 10.77, 21.73] = [ 32.49,132.25] Ry
 Optimized for a Real-space Cutoff    1.38 Angstroem

   l    n(q)    QCUT    max X(q) W(low)/X(q) W(high)/X(q)  e(spline)
   1      8    10.771     2.836    0.40E-04    0.29E-04    0.12E-06
   1      8    10.771     4.023    0.10E-03    0.48E-04    0.29E-06
   2      8    10.771    73.368    0.42E-03    0.97E-04    0.44E-06
   2      8    10.771    69.010    0.42E-03    0.99E-04    0.45E-06
   0      9    10.771    54.797    0.10E-03    0.56E-04    0.74E-07
   0      9    10.771    24.266    0.89E-04    0.49E-04    0.67E-07
 Optimization of the real space projectors (new method)

 maximal supplied QI-value         = 19.84
 optimisation between [QCUT,QGAM] = [ 10.71, 21.63] = [ 32.15,130.99] Ry
 Optimized for a Real-space Cutoff    1.19 Angstroem

   l    n(q)    QCUT    max X(q) W(low)/X(q) W(high)/X(q)  e(spline)
   0      8    10.715   187.594    0.41E-03    0.53E-04    0.66E-07
   0      8    10.715   164.243    0.41E-03    0.53E-04    0.65E-07
   1      7    10.715    67.533    0.19E-03    0.59E-03    0.68E-07
   1      7    10.715    50.729    0.19E-03    0.58E-03    0.67E-07
  PAW_PBE Ni_pv 06Sep2000               :
  PAW_PBE S 06Sep2000                   :

 POSCAR: Type_036 Type_136
  positions in cartesian coordinates
 exchange correlation table for  LEXCH =        8
   RHO(1)=    0.500       N(1)  =     2000
   RHO(2)=  100.500       N(2)  =     4000

 ion  position               nearest neighbor table
   1  0.780  0.145  0.121-  63 2.07  49 2.07  41 2.15  50 2.36  64 2.36
   2  0.802  0.145  0.290-  37 2.05  64 2.07  50 2.07  42 2.10
   3  0.215  0.621  0.096-  43 2.03  44 2.11  61 2.17   4 2.40  51 2.50  14 2.51
   4  0.297  0.645  0.216-  52 2.13  62 2.15  44 2.25  51 2.26  61 2.26   3 2.40  28 2.53  15 2.53

   5  0.388  0.124  0.126-  45 2.04  46 2.14  67 2.19   6 2.42  53 2.46  17 2.53
   6  0.470  0.145  0.248-  68 2.12  54 2.12  53 2.13  46 2.25  67 2.26   5 2.42  30 2.53  18 2.53

[...]

  25  0.910  0.285  0.116-  49 2.06  66 2.10  50 2.11  38 2.19  26 2.52
  26  0.941  0.281  0.269-  37 2.05  38 2.09  50 2.11  65 2.16  25 2.52
  27  0.415  0.884  0.060-  67 2.09  51 2.10  28 2.36  14 2.49  39 2.54
  28  0.425  0.777  0.191-  52 2.17  67 2.25  39 2.26  51 2.26  27 2.36  40 2.36  29 2.46  15 2.53
                             4 2.53
  29  0.465  0.823  0.335-  68 2.00  52 2.04  40 2.07  28 2.46
  30  0.597  0.277  0.223-  54 2.07  42 2.14  41 2.18  53 2.25  69 2.25  17 2.52   6 2.53  18 2.53

[...]

  37  0.904  0.145  0.359-  13 2.05  26 2.05   2 2.05
  38  0.991  0.145  0.182-  26 2.09  13 2.09  12 2.19  25 2.19   9 2.25
  39  0.474  0.645  0.087-  10 2.01  14 2.01  28 2.26  15 2.26  27 2.54
  40  0.509  0.645  0.278-  29 2.07  16 2.09  10 2.16  11 2.25  28 2.36  15 2.36
  41  0.653  0.146  0.129-  17 2.05   1 2.15  30 2.18  18 2.19  42 2.60
  42  0.678  0.144  0.288-   2 2.10  18 2.13  30 2.14  41 2.60
  43  0.112  0.646  0.032-   3 2.03  31 2.06  19 2.07
  44  0.164  0.645  0.214-  32 2.06  20 2.07   3 2.11   4 2.25  31 2.36  19 2.36
  45  0.283  0.145  0.063-   5 2.04  21 2.07  33 2.07
  46  0.336  0.145  0.246-  22 2.04  34 2.05   5 2.14   6 2.25  33 2.36  21 2.36
  47  0.819  0.645  0.151-  35 2.21  23 2.23   7 2.25  36 2.26  24 2.26
  48  0.837  0.645  0.329-   8 2.01  24 2.08  36 2.08
  49  0.816  0.294  0.035-  23 2.02  25 2.06   1 2.07
  50  0.829  0.314  0.214-   2 2.07  26 2.11  25 2.11  23 2.14  24 2.25   1 2.36
  51  0.312  0.814  0.119-  14 2.05  27 2.10  21 2.25   4 2.26  28 2.26   3 2.50
  52  0.351  0.787  0.300-  22 2.02  29 2.04   4 2.13  28 2.17  62 2.71
  53  0.479  0.315  0.163-  17 2.07   6 2.13  15 2.15  30 2.25   5 2.46
  54  0.532  0.276  0.331-  16 1.99  30 2.07   6 2.12  68 2.65
  55  0.001  0.814  0.246-   8 2.04  32 2.05  13 2.17   7 2.36  31 2.36  56 2.76
  56  0.967  0.822  0.079-   7 2.08  12 2.10  31 2.10  55 2.76
  57  0.140  0.326  0.112-  19 2.08  33 2.09   9 2.10  58 2.73
  58  0.182  0.280  0.273-  20 2.01  34 2.04   9 2.16  33 2.19  72 2.62  57 2.73
  59  0.657  0.814  0.183-  10 2.20  18 2.25  36 2.26  11 2.26  35 2.31  60 2.77
  60  0.692  0.797  0.350-  11 2.03  36 2.03  59 2.77
  61  0.312  0.477  0.119-  14 2.04   3 2.17  33 2.25   4 2.26  15 2.26
  62  0.355  0.505  0.301-  34 2.02  16 2.06  15 2.13   4 2.15  52 2.71
  63  0.816  0.997  0.035-  35 2.02  12 2.06   1 2.07
  64  0.829  0.977  0.214-   2 2.07  13 2.11  12 2.11  35 2.14  36 2.25   1 2.36
  65  0.001  0.477  0.246-   8 2.04  20 2.07  26 2.16   7 2.36  19 2.36  66 2.77
  66  0.967  0.469  0.079-   7 2.08  25 2.10  19 2.10  65 2.77
  67  0.484  0.977  0.151-  17 2.06  27 2.09   5 2.19  28 2.25  18 2.26   6 2.26
  68  0.527  0.000  0.327-  29 2.00  18 2.07   6 2.12  54 2.65
  69  0.657  0.477  0.183-  10 2.21  30 2.25  24 2.26  11 2.26  23 2.29  70 2.77
  70  0.692  0.494  0.350-  11 2.03  24 2.03  69 2.77
  71  0.139  0.967  0.112-  31 2.08   9 2.09  21 2.11  72 2.71
  72  0.181  0.006  0.272-  32 2.01  22 2.04   9 2.16  21 2.19  58 2.62  71 2.71

  LATTYP: Found a simple orthorhombic cell.
 ALAT       =     9.5784100000
 B/A-ratio  =     1.6880763216
 C/A-ratio  =     1.7627867312

  Lattice vectors:

 A1 = (   0.0000000000,   9.5784100000,   0.0000000000)
 A2 = (   0.0000000000,   0.0000000000, -16.1690871197)
 A3 = ( -16.8846940542,   0.0000000000,   0.0000000000)

Analysis of symmetry for initial positions (statically):
 Subroutine PRICEL returns:
 Original cell was already a primitive cell.

 Routine SETGRP: Setting up the symmetry group for a
 simple orthorhombic supercell.

 Subroutine GETGRP returns: Found  1 space group operations
 (whereof  1 operations were pure point group operations)
 out of a pool of  8 trial point group operations.

The static configuration has the point symmetry C_1 .

Analysis of symmetry for dynamics (positions and initial velocities):
 Subroutine PRICEL returns:
 Original cell was already a primitive cell.

 Routine SETGRP: Setting up the symmetry group for a
 simple orthorhombic supercell.

 Subroutine GETGRP returns: Found  1 space group operations
 (whereof  1 operations were pure point group operations)
 out of a pool of  8 trial point group operations.

The dynamic configuration has the point symmetry C_1 .

 Subroutine INISYM returns: Found  1 space group operations
 (whereof  1 operations are pure point group operations),
 and found     1 'primitive' translations

 KPOINTS: gamma-point-only calculation. no periodi

Automatic generation of k-mesh.
Space group operators:
 irot       det(A)        alpha          n_x          n_y          n_z        tau_x        tau_y        tau_z
    1     1.000000     0.000000     1.000000     0.000000     0.000000     0.000000     0.000000     0.000000

 Subroutine IBZKPT returns following result:

 Found      1 irreducible k-points:

 Following reciprocal coordinates:
            Coordinates               Weight
  0.000000  0.000000  0.000000      1.000000

 Following cartesian coordinates:
            Coordinates               Weight
  0.000000  0.000000  0.000000      1.000000

 SYSTEM =  "Millerite NiS"
 POSCAR =  Type_036 Type_136

 Startparameter for this run:
   NWRITE =      2    write-flag & timer
   PREC   = normal    normal or accurate (medium, high low for compatibility)
   ISTART =      0    job   : 0-new  1-cont  2-samecut
   ICHARG =      2    charge: 1-file 2-atom 10-const
   ISPIN  =      1    spin polarized calculation?
   LNONCOLLINEAR =      F non collinear calculations
   LSORBIT =      F    spin-orbit coupling
   INIWAV =      1    electr: 0-lowe 1-rand  2-diag
   LASPH  =      F    aspherical Exc in radial PAW
   METAGGA=      F    non-selfconsistent MetaGGA calc.

 Electronic Relaxation 1
   ENCUT  =  450.0 eV  33.07 Ry    5.75 a.u.  29.20 16.57 27.97*2*pi/ulx,y,z
   ENINI  =  450.0     initial cutoff
   ENAUG  =  703.4 eV  augmentation charge cutoff
   NELM   =    100;   NELMIN=  2; NELMDL= -5     # of ELM steps
   EDIFF  = 0.1E-03   stopping-criterion for ELM
   LREAL  =      T    real-space projection
   NLSPLINE    = F    spline interpolate recip. space projectors
   LCOMPAT=      F    compatible to vasp.4.4
   GGA_COMPAT  = T    GGA compatible to vasp.4.4-vasp.4.6
   LMAXPAW     = -100 max onsite density
   LMAXMIX     =    2 max onsite mixed and CHGCAR
   VOSKOWN=      0    Vosko Wilk Nusair interpolation
   ROPT   =   -0.00050  -0.00050
 Ionic relaxation
   EDIFFG = 0.1E-02   stopping-criterion for IOM
   NSW    =      0    number of steps for IOM
   NBLOCK =      1;   KBLOCK =      1    inner block; outer block
   IBRION =     -1    ionic relax: 0-MD 1-quasi-New 2-CG
   NFREE  =      0    steps in history (QN), initial steepest desc. (CG)
   ISIF   =      2    stress and relaxation
   IWAVPR =     10    prediction:  0-non 1-charg 2-wave 3-comb
   ISYM   =      2    0-nonsym 1-usesym 2-fastsym
   LCORR  =      T    Harris-Foulkes like correction to forces

   POTIM  = 0.5000    time-step for ionic-motion
   TEIN   =    0.0    initial temperature
   TEBEG  =    0.0;   TEEND  =   0.0 temperature during run
   SMASS  =  -3.00    Nose mass-parameter (am)
   estimated Nose-frequenzy (Omega)   =  0.10E-29 period in steps =****** mass=  -0.652E-26a.u.
   SCALEE = 1.0000    scale energy and forces
   NPACO  =    256;   APACO  = 16.0  distance and # of slots for P.C.
   PSTRESS=    0.0 pullay stress

  Mass of Ions in am
   POMASS =  58.69 32.07
  Ionic Valenz
   ZVAL   =  16.00  6.00
  Atomic Wigner-Seitz radii
  virtual crystal weights
   VCA    =   1.00  1.00
   NELECT =     792.0000    total number of electrons
   NUPDOWN=      -1.0000    fix difference up-down

 DOS related values:
   EMIN   =  10.00;   EMAX   =-10.00  energy-range for DOS
   EFERMI =   0.00
   ISMEAR =     0;   SIGMA  =   0.20  broadening in eV -4-tet -1-fermi 0-gaus

 Electronic relaxation 2 (details)
   IALGO  =     38    algorithm
   LDIAG  =      T    sub-space diagonalisation (order eigenvalues)
   LSUBROT=      F    optimize rotation matrix (better conditioning)
   TURBO    =      0    0=normal 1=particle mesh
   IRESTART =      0    0=no restart 2=restart with 2 vectors
   NREBOOT  =      0    no. of reboots
   NMIN     =      0    reboot dimension
   EREF     =   0.00    reference energy to select bands
   IMIX   =      4    mixing-type and parameters
     AMIX     =   0.40;   BMIX     =  1.00
     AMIX_MAG =   1.60;   BMIX_MAG =  1.00
     AMIN     =   0.10
     WC   =   100.;   INIMIX=   1;  MIXPRE=   1;  MAXMIX= -45

[...]
  Fock        0.00000     0.00000     0.00000     0.00000     0.00000     0.00000
  Total     122.85635   130.55451   144.93576    -0.39904    -1.09461    -1.25322
  in kB      75.27246    79.98901    88.80021    -0.24449    -0.67065    -0.76783

 VOLUME and BASIS-vectors are now :
  energy-cutoff  :      450.00
  volume of cell :     2615.00
      direct lattice vectors                 reciprocal lattice vectors
    16.884694054  0.000000000  0.000000000     0.059225237  0.000000000  0.000000000
     0.000000000  9.578410000  0.000000000     0.000000000  0.104401461  0.000000000
     0.000000000  0.000000000 16.169087120     0.000000000  0.000000000  0.061846411

  length of vectors
    16.884694054  9.578410000 16.169087120     0.059225237  0.104401461  0.061846411

 FORCES acting on ions
    electron-ion (+dipol)            ewald-force                    non-local-force                 convergence-correction
   0.681E+03 -.233E+01 0.210E+04   -.684E+03 0.236E+01 -.210E+04   0.361E+01 -.394E-01 0.534E+01   0.272E-02 0.517E-02 0.373E-02
   0.456E+03 -.249E+01 -.282E+04   -.461E+03 0.264E+01 0.283E+04   0.253E+01 -.149E+00 -.551E+01   0.123E-02 0.560E-02 -.244E-02
   0.187E+03 0.966E+02 0.285E+04   -.187E+03 -.971E+02 -.286E+04   0.116E+01 0.953E+00 0.678E+01   0.185E-01 0.520E-02 0.843E-03
   0.621E+03 0.492E+02 -.122E+04   -.624E+03 -.497E+02 0.122E+04   0.264E+01 0.291E+00 -.339E+01   0.342E-02 0.124E-01 -.557E-02
   0.871E+01 -.422E+03 0.235E+04   -.930E+01 0.422E+03 -.236E+04   0.143E+01 -.559E-01 0.803E+01   0.916E-03 -.708E-02 -.703E-02
   0.193E+03 -.611E+02 -.180E+04   -.196E+03 0.607E+02 0.181E+04   0.283E+01 0.301E+00 -.633E+01   -.350E-02 0.832E-02 -.897E-02
   0.535E+03 -.588E+00 0.132E+04   -.540E+03 0.579E+00 -.132E+04   0.508E+01 0.357E-02 0.347E+01   -.530E-02 -.842E-02 0.161E-01
   -.122E+03 0.522E+01 -.322E+04   0.119E+03 -.530E+01 0.322E+04   0.334E+01 0.864E-01 0.126E+01   0.360E-02 -.385E-02 0.125E-01
   0.750E+03 0.203E+01 0.269E+03   -.757E+03 -.199E+01 -.271E+03   0.575E+01 0.266E-02 0.347E+01   -.221E-02 -.401E-02 0.482E-02
   -.559E+03 0.964E+02 0.190E+04   0.562E+03 -.962E+02 -.190E+04   -.293E+01 -.148E+00 0.323E+01   -.764E-02 -.873E-02 -.130E-01
   0.824E+02 0.848E+01 -.220E+04   -.852E+02 -.838E+01 0.220E+04   0.212E+01 -.680E-01 -.641E+01   -.137E-02 -.222E-01 -.200E-02
   -.561E+03 0.186E+03 0.242E+04   0.567E+03 -.188E+03 -.243E+04   -.502E+01 0.282E+01 0.560E+01   -.925E-02 0.126E-01 0.301E-02
   -.511E+03 0.376E+03 -.234E+04   0.515E+03 -.380E+03 0.235E+04   -.268E+01 0.269E+01 -.399E+01   -.483E-02 0.180E-02 0.347E-02
   -.129E+03 0.463E+03 0.397E+04   0.127E+03 -.464E+03 -.398E+04   0.102E+01 0.745E+00 0.489E+01   0.122E-01 0.781E-02 -.281E-02
   -.301E+03 0.595E+03 0.556E+03   0.300E+03 -.598E+03 -.558E+03   0.762E+00 0.325E+01 0.272E+00   0.225E-02 0.526E-02 -.210E-01
   -.187E+03 0.129E+03 -.347E+04   0.190E+03 -.133E+03 0.347E+04   -.314E+01 0.417E+01 -.300E-01   0.698E-02 -.206E-02 0.330E-02
   -.507E+03 -.269E+03 0.345E+04   0.508E+03 0.270E+03 -.345E+04   -.102E+01 -.943E+00 0.433E+01   0.357E-03 0.452E-02 -.891E-02
   -.643E+03 0.505E+03 -.600E+03   0.647E+03 -.511E+03 0.602E+03   -.322E+01 0.547E+01 -.308E+01   0.328E-02 0.104E-01 -.151E-01
   0.236E+03 0.585E+03 0.197E+04   -.238E+03 -.589E+03 -.198E+04   0.141E+01 0.345E+01 0.404E+01   0.171E-03 -.106E-01 0.111E-01
   0.915E+02 0.151E+03 -.258E+04   -.900E+02 -.153E+03 0.258E+04   -.190E+01 0.225E+01 -.714E+00   -.643E-02 0.452E-02 0.831E-02
   0.383E+03 0.292E+03 0.122E+04   -.384E+03 -.295E+03 -.122E+04   0.854E+00 0.277E+01 0.448E+01   0.863E-02 -.185E-01 0.417E-03
   0.313E+03 0.262E+02 -.334E+04   -.311E+03 -.301E+02 0.334E+04   -.214E+01 0.424E+01 0.165E+01   -.674E-02 -.276E-02 -.351E-02
   0.487E+03 -.409E+03 0.260E+04   -.489E+03 0.411E+03 -.261E+04   0.146E+01 -.170E+01 0.734E+01   -.159E-02 -.970E-02 -.121E-02
   -.215E+03 0.347E+03 -.161E+04   0.216E+03 -.350E+03 0.161E+04   -.135E+01 0.245E+01 -.452E+01   -.449E-02 -.124E-01 0.455E-02
   -.554E+03 -.191E+03 0.242E+04   0.560E+03 0.193E+03 -.243E+04   -.487E+01 -.288E+01 0.551E+01   -.637E-02 -.357E-02 0.205E-02
   -.509E+03 -.378E+03 -.234E+04   0.513E+03 0.382E+03 0.235E+04   -.271E+01 -.285E+01 -.410E+01   -.407E-02 0.329E-02 -.189E-02
   -.427E+03 -.294E+03 0.390E+04   0.425E+03 0.295E+03 -.390E+04   0.251E+01 -.695E+00 -.202E+01   -.539E-02 -.140E-01 -.577E-02
   -.364E+03 -.261E+03 0.393E+02   0.364E+03 0.263E+03 -.376E+02   0.307E+00 -.246E+01 -.156E+01   -.126E-01 -.345E-02 -.253E-01
   -.176E+03 -.105E+03 -.366E+04   0.178E+03 0.109E+03 0.366E+04   -.250E+01 -.413E+01 0.200E+01   -.110E-01 -.636E-02 0.209E-02
   -.613E+03 -.554E+03 -.549E+03   0.616E+03 0.560E+03 0.549E+03   -.259E+01 -.561E+01 -.151E+01   0.653E-02 0.116E-01 -.566E-02
   0.134E+03 -.599E+03 0.198E+04   -.134E+03 0.603E+03 -.198E+04   0.928E+00 -.377E+01 0.422E+01   0.810E-02 0.319E-02 0.582E-02
   0.761E+02 -.139E+03 -.262E+04   -.747E+02 0.141E+03 0.262E+04   -.176E+01 -.255E+01 0.706E-01   0.728E-02 -.151E-02 0.991E-02
   0.130E+03 -.355E+03 0.131E+04   -.129E+03 0.359E+03 -.132E+04   0.538E+00 -.310E+01 0.468E+01   0.257E-02 -.217E-02 -.620E-02
   0.269E+03 -.623E+02 -.324E+04   -.266E+03 0.669E+02 0.324E+04   -.277E+01 -.493E+01 0.120E+01   -.229E-02 -.278E-02 0.564E-02
   0.472E+03 0.412E+03 0.260E+04   -.474E+03 -.415E+03 -.261E+04   0.141E+01 0.176E+01 0.742E+01   -.118E-02 0.571E-02 -.537E-02
   -.216E+03 -.344E+03 -.161E+04   0.218E+03 0.347E+03 0.161E+04   -.134E+01 -.249E+01 -.455E+01   0.102E-01 0.997E-03 -.780E-02
   -.122E+03 -.792E+00 -.169E+04   0.123E+03 0.827E+00 0.169E+04   0.483E-01 -.829E-02 -.719E+00   -.265E-02 0.262E-03 -.215E-02
   -.335E+03 0.419E+00 0.240E+03   0.337E+03 -.586E+00 -.241E+03   0.151E+00 0.199E+00 -.103E+01   -.558E-02 0.228E-02 -.468E-03
   -.424E+03 0.172E+03 0.137E+04   0.428E+03 -.174E+03 -.138E+04   -.282E+01 0.269E+01 0.270E+01   -.624E-02 0.752E-03 -.263E-02
   -.168E+03 0.123E+02 -.869E+03   0.168E+03 -.125E+02 0.874E+03   0.102E+01 0.880E-01 -.410E+01   0.116E-02 -.453E-02 -.446E-02
   -.168E+03 -.609E+01 0.946E+03   0.168E+03 0.575E+01 -.950E+03   0.262E+00 0.238E+00 0.262E+01   0.231E-02 0.419E-02 -.188E-02
   -.105E+03 -.425E+00 -.107E+04   0.107E+03 0.271E+00 0.107E+04   -.903E+00 0.154E+00 -.257E+01   0.625E-02 0.690E-02 -.149E-02
   0.119E+03 -.290E+02 0.172E+04   -.120E+03 0.291E+02 -.173E+04   0.240E+00 -.454E-01 0.196E+01   0.127E-02 -.168E-02 -.518E-02
   -.125E+02 -.246E+02 -.478E+03   0.131E+02 0.246E+02 0.484E+03   0.602E+00 0.137E+00 -.382E+01   0.885E-03 -.196E-02 0.699E-02
   0.147E+03 -.917E+02 0.163E+04   -.148E+03 0.920E+02 -.163E+04   0.143E+01 -.139E+00 0.167E+01   0.154E-02 -.551E-02 -.468E-02
   -.123E+02 -.459E+02 -.653E+03   0.131E+02 0.460E+02 0.658E+03   0.824E+00 -.192E+00 -.446E+01   -.760E-03 -.775E-02 0.176E-02
   -.660E+01 0.523E+01 0.721E+03   0.786E+01 -.535E+01 -.724E+03   -.607E+00 0.591E-01 0.224E+01   -.195E-02 -.843E-03 -.189E-02
   -.927E+02 0.841E+00 -.141E+04   0.955E+02 -.769E+00 0.142E+04   -.172E+01 -.544E-01 -.242E+01   0.970E-02 -.219E-02 0.176E-02
   0.990E+02 -.941E+02 0.169E+04   -.989E+02 0.954E+02 -.170E+04   -.466E+00 -.471E+00 0.255E+01   0.605E-03 -.850E-03 0.448E-02
   0.940E+02 -.135E+03 -.321E+03   -.942E+02 0.137E+03 0.324E+03   -.880E+00 0.502E-02 -.175E+01   -.800E-04 -.385E-02 -.168E-02
   0.312E+03 -.199E+03 0.790E+03   -.315E+03 0.201E+03 -.790E+03   0.152E+01 -.133E+01 0.139E+00   0.487E-02 -.790E-03 -.225E-02
   0.244E+03 0.733E+02 -.124E+04   -.246E+03 -.724E+02 0.125E+04   0.305E+00 -.468E+00 -.275E+01   -.805E-02 0.225E-02 -.382E-02
   -.270E+02 -.269E+03 0.615E+03   0.260E+02 0.271E+03 -.617E+03   0.180E+00 -.823E+00 0.940E+00   0.269E-02 0.244E-02 -.318E-02
   -.178E+03 0.581E+02 -.147E+04   0.179E+03 -.566E+02 0.147E+04   -.104E+01 -.128E+01 -.232E+01   0.314E-02 0.301E-02 -.149E-02
   0.415E+02 -.146E+03 -.624E+03   -.419E+02 0.148E+03 0.626E+03   -.604E-01 -.921E+00 -.113E+01   -.295E-02 -.308E-02 0.893E-02
   0.773E+02 -.713E+02 0.132E+04   -.786E+02 0.711E+02 -.133E+04   0.874E+00 0.901E+00 0.397E+01   -.405E-02 0.349E-02 -.199E-02
   0.158E+03 0.105E+03 0.108E+04   -.159E+03 -.107E+03 -.109E+04   0.216E+00 0.147E+01 0.530E+01   -.341E-02 0.235E-02 -.163E-02
   0.254E+03 0.907E+02 -.106E+04   -.255E+03 -.894E+02 0.106E+04   0.174E+00 -.666E+00 -.302E+01   -.546E-02 0.343E-02 0.502E-02
   0.165E+02 -.961E+02 0.440E+03   -.185E+02 0.983E+02 -.443E+03   0.163E+01 -.130E+01 0.172E+01   0.111E-02 -.216E-02 -.569E-02
   -.632E+01 -.252E+03 -.151E+04   0.527E+01 0.255E+03 0.152E+04   0.688E+00 -.155E+01 -.128E+01   0.127E-02 -.239E-02 0.136E-02
   0.769E+01 0.374E+03 0.896E+03   -.786E+01 -.377E+03 -.898E+03   -.591E+00 0.149E+01 0.238E+01   0.723E-02 0.710E-02 -.515E-02
   0.224E+03 -.595E+02 -.124E+04   -.225E+03 0.586E+02 0.125E+04   -.896E-01 0.393E+00 -.294E+01   -.112E-02 0.351E-02 -.328E-03
   0.972E+02 0.897E+02 0.169E+04   -.970E+02 -.910E+02 -.170E+04   -.435E+00 0.448E+00 0.252E+01   -.170E-02 0.156E-02 0.274E-02
   0.941E+02 0.133E+03 -.322E+03   -.944E+02 -.135E+03 0.325E+03   -.816E+00 -.834E-01 -.169E+01   0.242E-03 0.509E-02 -.654E-03
   0.390E+02 0.143E+03 -.634E+03   -.394E+02 -.144E+03 0.636E+03   0.104E+00 0.857E+00 -.118E+01   0.453E-03 0.226E-02 0.671E-02
   0.823E+02 0.707E+02 0.132E+04   -.838E+02 -.704E+02 -.133E+04   0.103E+01 -.899E+00 0.397E+01   -.286E-02 -.644E-02 0.383E-03
   -.257E+03 0.170E+03 0.533E+03   0.258E+03 -.173E+03 -.534E+03   -.174E+01 0.144E+01 0.323E+00   -.362E-02 -.297E-02 -.681E-02
   -.174E+03 -.479E+02 -.142E+04   0.175E+03 0.468E+02 0.143E+04   -.100E+01 0.839E+00 -.201E+01   -.113E-02 0.452E-02 0.120E-02
   0.413E+02 0.101E+03 0.453E+03   -.435E+02 -.103E+03 -.455E+03   0.179E+01 0.152E+01 0.169E+01   -.157E-02 -.368E-02 -.346E-03
   -.651E+01 0.252E+03 -.151E+04   0.553E+01 -.255E+03 0.152E+04   0.662E+00 0.151E+01 -.123E+01   -.137E-02 -.451E-02 0.105E-02
   0.167E+03 -.768E+02 0.108E+04   -.168E+03 0.782E+02 -.108E+04   0.430E+00 -.134E+01 0.494E+01   0.629E-02 0.773E-03 -.382E-03
   0.266E+03 -.855E+02 -.103E+04   -.267E+03 0.840E+02 0.104E+04   0.467E+00 0.914E+00 -.307E+01   0.543E-02 -.402E-02 0.215E-02
   -.109E+01 -.287E+01 -.396E+02   0.455E-12 -.256E-12 -.455E-12   0.125E+01 0.292E+01 0.397E+02   0.460E-02 -.387E-01 -.676E-01

 POSITION                                       TOTAL-FORCE (eV/Angst)
     13.17084      1.39171      1.94975         0.345889      0.004900      1.004629
     13.54678      1.39159      4.69184        -1.932632      0.008160      0.542640
      3.62638      5.94440      1.54977         1.043697      0.476775     -0.373559
      5.02033      6.18092      3.49202        -0.134692     -0.237425     -0.199982
      6.54474      1.19135      2.03304         0.836035      0.278352     -0.401349
      7.93172      1.39171      4.00611        -0.599778     -0.063397      0.165607
     16.08224      6.18092      2.46384        -0.396169     -0.013531      1.636526
     16.10290      6.18122      4.94743         0.065434      0.007107      1.132416
      2.10894      1.39171      2.97793        -1.198531      0.040674      0.798784
      9.62591      6.18723      2.59579         0.395626      0.049304     -0.622237
     10.84312      6.18092      4.52020        -0.636823      0.014579     -0.821608
     15.37189      0.05635      1.88400         0.916471      0.741209     -0.148858
     15.89151      0.08919      4.35214         0.800657     -1.252320      0.322455
      6.04944      6.17144      0.93739        -0.454680     -0.040958     -1.624678
      7.17375      4.91558      3.08454         0.479282      0.189404     -1.345336
      7.95867      4.35343      5.27315        -0.228774      0.760374      0.980002
      9.02463      1.47914      1.63761        -0.125529      0.098680     -1.901303
     10.08514      0.12638      3.59863         1.335967     -0.779545     -1.162673
      1.35096      4.91558      2.05636        -0.258929     -0.125920      0.596156
      2.06585      4.41739      4.28334        -0.411953      0.558820      1.108557
      4.26235      0.12638      2.57045         0.354843     -0.890914      0.613952
      4.98385      9.32218      4.96919        -0.033110      0.356909      0.758048
     13.08507      4.14951      1.90872        -1.009776      0.830712      0.295710
     12.99653      4.91558      4.11272         0.401537     -0.248151     -1.445926
     15.36965      2.72726      1.88366         1.021185     -0.764294     -0.146913
     15.89225      2.69506      4.35146         0.800314      1.229602      0.280882
      7.00090      8.47115      0.96315         0.253825      0.162604     -0.732309
      7.17375      7.44626      3.08454         0.706029     -0.434412      0.119070
      7.85702      7.87961      5.41103        -0.068307     -0.528627      0.687940
     10.08514      2.65705      3.59863         1.057206      0.834040     -1.076022
      1.35096      7.44626      2.05636         0.138641      0.189802      0.951351
      2.04135      7.89823      4.34086        -0.282250     -0.577953      0.979112
      4.26235      2.65705      2.57045         0.861785      0.628659      0.598851
      5.01159      3.07769      4.93466        -0.025749     -0.357813      0.673735
     13.10718      8.20339      1.90464        -1.032899     -0.837767      0.288424
     12.99653      7.44626      4.11272         0.350957      0.272795     -1.482066
     15.27074      1.39258      5.80307         0.587490      0.027591      4.532063
     16.74052      1.39171      2.94940         2.054429      0.033782     -1.622085
      8.00634      6.18092      1.40713         1.183014      0.422504     -2.639751
      8.59001      6.18092      4.49167         1.543209     -0.068633      1.199871
     11.02227      1.39798      2.08444         0.523932     -0.097644     -1.681302
     11.44624      1.38059      4.65115         0.675879      0.006249      2.229810
      1.89649      6.18364      0.51738         0.060845      0.068443     -3.746387
      2.76722      6.18092      3.46349         1.166494      0.041785      1.760135
      4.78300      1.39025      1.01696         0.335775      0.167940     -4.081252
      5.67861      1.39171      3.97758         1.656864     -0.046265      1.096031
     13.82913      6.18092      2.43531         0.649384     -0.065992     -1.512219
     14.12420      6.18076      5.32464         1.090359      0.016152      2.724835
     13.78126      2.81421      0.56856        -0.297679      0.817016     -3.955478
     13.99844      3.00295      3.46826        -1.122917      1.613590      0.810036
      5.26426      7.79215      1.92599        -1.681397      1.041979     -0.525221
      5.92301      7.54068      4.85494        -1.156283      0.466956      1.857374
      8.07963      3.01617      2.64218        -0.729252      0.906627     -1.253022
      8.98468      2.64699      5.35656         0.125342      0.154407      2.784988
      0.02514      7.79215      3.98236        -0.458605      0.668782      1.001774
     16.33213      7.87173      1.27971        -0.447525      0.671847     -2.853839
      2.36532      3.12063      1.81368        -0.747555     -0.330511     -2.842964
      3.07977      2.68328      4.40764        -0.967329      0.690354      2.160552
     11.08705      7.79215      2.95417        -0.318168      0.890182     -1.021675
     11.68979      7.63177      5.65411        -0.356855      1.643195      3.541422
      5.26426      4.56969      1.92599        -0.754780     -1.650075     -0.187834
      5.99576      4.83489      4.86126        -1.344746     -0.455373      2.126478
     13.78492      9.55086      0.56703        -0.314674     -0.825764     -3.968226
     13.99844      9.35889      3.46826        -1.145370     -1.600360      0.809067
      0.02514      4.56969      3.98236        -0.311280     -0.613743      1.093586
     16.32797      4.49055      1.27869        -0.440175     -0.617669     -2.842736
      8.17565      9.35889      2.44008        -0.237019     -1.196439     -0.394195
      8.89697      0.00230      5.28507        -0.057035     -0.287849      2.690835
     11.08705      4.56969      2.95417        -0.416058     -0.856893     -1.005053
     11.68800      4.72799      5.65338        -0.330694     -1.678460      3.565172
      2.34815      9.25843      1.80606        -0.592503      0.092286     -2.933918
      3.05402      0.06106      4.39037        -0.759919     -0.630431      2.033099
    total drift:                                0.163527      0.011308     -0.008650

  FREE ENERGIE OF THE ION-ELECTRON SYSTEM (eV)
  free  energy   TOTEN  =      -342.08485025 eV

  energy  without entropy=     -341.02914634  energy(sigma->0) =     -341.55699830