 vasp.5.4.4.18Apr17-6-g9f103f2a35 (build Aug 13 2019 17:33:20) gamma-only

 executed on             LinuxIFC date 2020.05.10  18:22:30

 INCAR:
 POTCAR:    PAW_PBE Ni_pv 06Sep2000
 POTCAR:    PAW_PBE S 06Sep2000
 POTCAR:    PAW_PBE Ni_pv 06Sep2000
   VRHFIN =Ni:

   TITEL  = PAW_PBE Ni_pv 06Sep2000
   POMASS =   58.690; ZVAL   =   16.000    mass and valenz
   ENMAX  =  367.986; ENMIN  =  275.989 eV

 POTCAR:    PAW_PBE S 06Sep2000
   VRHFIN =S : s2p4

   TITEL  = PAW_PBE S 06Sep2000
   POMASS =   32.066; ZVAL   =    6.000    mass and valenz
   ENMAX  =  258.689; ENMIN  =  194.016 eV

 Optimization of the real space projectors (new method)

 maximal supplied QI-value         = 18.90
 optimisation between [QCUT,QGAM] = [ 10.77, 21.73] = [ 32.49,132.25] Ry
 Optimized for a Real-space Cutoff    1.38 Angstroem

   l    n(q)    QCUT    max X(q) W(low)/X(q) W(high)/X(q)  e(spline)
   1      8    10.771     2.836    0.40E-04    0.29E-04    0.12E-06
   1      8    10.771     4.023    0.10E-03    0.48E-04    0.29E-06
   2      8    10.771    73.368    0.42E-03    0.97E-04    0.44E-06
   2      8    10.771    69.010    0.42E-03    0.99E-04    0.45E-06
   0      9    10.771    54.797    0.10E-03    0.56E-04    0.74E-07
   0      9    10.771    24.266    0.89E-04    0.49E-04    0.67E-07
 Optimization of the real space projectors (new method)

 maximal supplied QI-value         = 19.84
 optimisation between [QCUT,QGAM] = [ 10.71, 21.63] = [ 32.15,130.99] Ry
 Optimized for a Real-space Cutoff    1.19 Angstroem

   l    n(q)    QCUT    max X(q) W(low)/X(q) W(high)/X(q)  e(spline)
   0      8    10.715   187.594    0.41E-03    0.53E-04    0.66E-07
   0      8    10.715   164.243    0.41E-03    0.53E-04    0.65E-07
   1      7    10.715    67.533    0.19E-03    0.59E-03    0.68E-07
   1      7    10.715    50.729    0.19E-03    0.58E-03    0.67E-07
  PAW_PBE Ni_pv 06Sep2000               :
  PAW_PBE S 06Sep2000                   :

 POSCAR: Type_048 Type_148
  positions in cartesian coordinates
 exchange correlation table for  LEXCH =        8
   RHO(1)=    0.500       N(1)  =     2000
   RHO(2)=  100.500       N(2)  =     4000

 ion  position               nearest neighbor table
   1  0.261  0.479  0.253-  72 2.25  57 2.26  79 2.26  55 2.36  58 2.36  28 2.52   7 2.53  21 2.53

   2  0.355  0.385  0.388-  73 2.25  55 2.26  58 2.26  59 2.36  65 2.36   3 2.38   8 2.53  22 2.53

[...]

  15  0.875  0.365  0.497-  64 2.04  54 2.08  71 2.08  14 2.38
  16  0.667  0.073  0.118-  67 2.07  93 2.07  52 2.25  68 2.36  94 2.36  48 2.53  42 2.53
  17  0.549  0.055  0.472-  61 2.05  88 2.08  59 2.10  89 2.15
  18  0.839  0.198  0.107-  62 2.05  67 2.05  63 2.09  68 2.18  80 2.20  48 2.43  19 2.50
  19  0.868  0.239  0.218-  68 2.25  69 2.26  63 2.26  70 2.36  49 2.36   4 2.37  18 2.50  13 2.53
                             9 2.53
  20  0.962  0.145  0.353-  90 2.25  70 2.26  49 2.26  71 2.36  50 2.36  14 2.53  10 2.53
  21  0.500  0.372  0.218-  69 2.25  52 2.26  79 2.26  60 2.36  55 2.36   1 2.53   7 2.53
  22  0.594  0.278  0.353-  70 2.25  60 2.26  55 2.26  65 2.36  61 2.36   8 2.53   2 2.53
  23  0.685  0.191  0.472-  61 2.05  88 2.08  65 2.10  71 2.15
  24  0.803  0.436  0.128-  62 2.01  69 2.04  92 2.06  63 2.08
  25  0.261  0.979  0.253-  49 2.25  81 2.26  56 2.26  78 2.36  82 2.36   4 2.48  31 2.53  45 2.53

[...]

  43  0.868  0.739  0.218-  92 2.25  94 2.26  87 2.26  95 2.36  72 2.36  37 2.53  33 2.53
  44  0.962  0.645  0.353-  66 2.25  95 2.26  72 2.26  96 2.36  73 2.36  38 2.53  34 2.53
  45  0.500  0.872  0.218-  94 2.25  75 2.26  56 2.26  84 2.36  78 2.36  40 2.37  36 2.50  25 2.53
                            31 2.53
  46  0.594  0.778  0.353-  95 2.25  84 2.26  78 2.26  89 2.36  85 2.36  32 2.53  26 2.53
  47  0.685  0.691  0.472-  85 2.05  64 2.08  89 2.10  96 2.15
  48  0.906  0.965  0.083-  86 2.02  80 2.04  67 2.06  87 2.36  68 2.36  18 2.43  16 2.53  42 2.53

  49  0.073  0.167  0.270-   4 2.16  25 2.25  10 2.26  20 2.26   9 2.36  19 2.36
  50  0.167  0.073  0.405-  11 2.05   5 2.05  26 2.25  10 2.36  20 2.36  76 2.69
  51  0.227  0.512  0.065-  12 2.03   6 2.03  28 2.06
  52  0.479  0.261  0.135-  12 2.07   6 2.07  16 2.25   7 2.26  21 2.26
  53  0.211  0.529  0.527-   3 2.04  35 2.08  29 2.08  73 2.69
  54  0.030  0.378  0.451-  15 2.08  11 2.10  29 2.15  10 2.36  14 2.36
  55  0.436  0.472  0.315-  32 2.25   2 2.26  22 2.26   1 2.36  21 2.36
  56  0.342  0.066  0.180-  30 2.04   7 2.25  25 2.26  45 2.26
  57  0.174  0.397  0.180-   6 2.02  28 2.10   9 2.25   7 2.26   1 2.26
  58  0.268  0.303  0.315-  10 2.25   2 2.26   8 2.26   7 2.36   1 2.36
  59  0.362  0.209  0.451-   3 2.08  17 2.10  11 2.15   8 2.36   2 2.36
  60  0.573  0.167  0.270-  37 2.25  22 2.26   8 2.26  21 2.36   7 2.36
  61  0.667  0.073  0.405-  23 2.05  17 2.05  38 2.25  22 2.36   8 2.36  88 2.69
  62  0.766  0.361  0.050-  24 2.01  18 2.05  67 2.72
  63  0.979  0.261  0.135-   4 1.96  24 2.08  18 2.09  19 2.26   9 2.26  80 2.51
  64  0.711  0.529  0.527-  15 2.04  47 2.08  41 2.08  85 2.69
  65  0.530  0.378  0.451-   3 2.08  23 2.10  41 2.15  22 2.36   2 2.36
  66  0.936  0.472  0.315-  44 2.25  14 2.26  10 2.26  13 2.36   9 2.36
  67  0.749  0.127  0.045-  18 2.05  48 2.06  16 2.07  93 2.62  62 2.72
  68  0.842  0.066  0.180-  18 2.18  19 2.25  37 2.26  33 2.26  16 2.36  48 2.36
  69  0.674  0.397  0.180-  24 2.04  21 2.25  19 2.26  13 2.26
  70  0.768  0.303  0.315-  22 2.25  14 2.26  20 2.26  19 2.36  13 2.36
  71  0.862  0.209  0.451-  15 2.08   5 2.10  23 2.15  20 2.36  14 2.36
  72  0.073  0.667  0.270-   1 2.25  34 2.26  44 2.26  33 2.36  43 2.36
  73  0.167  0.573  0.405-  35 2.05  29 2.05   2 2.25  34 2.36  44 2.36  53 2.69
  74  0.379  0.974  0.050-  30 2.01  36 2.05  93 2.72
  75  0.479  0.761  0.135-  40 1.96  30 2.08  36 2.09  31 2.26  45 2.26  91 2.51
  76  0.211  0.029  0.527-  27 2.04   5 2.08  11 2.08  50 2.69
  77  0.030  0.878  0.451-  39 2.08  35 2.10   5 2.15  34 2.36  38 2.36
  78  0.436  0.972  0.315-   8 2.25  26 2.26  46 2.26  25 2.36  45 2.36
  79  0.342  0.566  0.180-  12 2.02  28 2.10  31 2.25   1 2.26  21 2.26
  80  0.039  0.043  0.082-  48 2.04  18 2.20   4 2.25  63 2.51  81 2.70
  81  0.174  0.897  0.180-   4 1.96  30 2.06  33 2.25  31 2.26  25 2.26  80 2.70
  82  0.268  0.803  0.315-  34 2.25  26 2.26  32 2.26  31 2.36  25 2.36
  83  0.362  0.709  0.451-  27 2.08  41 2.10  35 2.15  32 2.36  26 2.36
  84  0.573  0.667  0.270-  40 2.16  13 2.25  46 2.26  32 2.26  45 2.36  31 2.36
  85  0.667  0.573  0.405-  41 2.05  47 2.05  14 2.25  46 2.36  32 2.36  64 2.69
  86  0.893  0.846  0.016-  48 2.02  42 2.02  87 2.77
  87  0.979  0.761  0.135-  28 2.14  43 2.26  33 2.26  42 2.36  48 2.36  86 2.77
  88  0.711  0.029  0.527-  39 2.04  23 2.08  17 2.08  61 2.69
  89  0.530  0.878  0.451-  27 2.08  47 2.10  17 2.15  46 2.36  26 2.36
  90  0.936  0.972  0.315-  20 2.25  38 2.26  34 2.26  37 2.36  33 2.36
  91  0.697  0.701  0.082-  42 2.04  36 2.20  40 2.25  75 2.51  92 2.70
  92  0.842  0.566  0.180-  40 1.96  24 2.06  43 2.25  13 2.26   9 2.26  91 2.70
  93  0.613  0.991  0.045-  36 2.05  42 2.06  16 2.07  67 2.62  74 2.72
  94  0.674  0.897  0.180-  36 2.18  45 2.25  43 2.26  37 2.26  42 2.36  16 2.36
  95  0.768  0.803  0.315-  46 2.25  38 2.26  44 2.26  43 2.36  37 2.36
  96  0.862  0.709  0.451-  39 2.08  29 2.10  47 2.15  44 2.36  38 2.36

  LATTYP: Found a base centered orthorhombic cell.
 ALAT       =    11.8257374459
 B/A-ratio  =     1.6199260857
 C/A-ratio  =     1.8387210052

  Lattice vectors:

 A1 = (  11.2564630382,   0.0000000000,   0.0000000000)
 A2 = (  -5.0445621212, -10.0628203371,   0.0000000000)
 A3 = (   0.0000000000,   0.0000000000, -21.7442318436)

Analysis of symmetry for initial positions (statically):
 Subroutine PRICEL returns:
 Original cell was already a primitive cell.

 Routine SETGRP: Setting up the symmetry group for a
 base centered orthorhombic supercell.

 Subroutine GETGRP returns: Found  2 space group operations
 (whereof  1 operations were pure point group operations)
 out of a pool of  8 trial point group operations.

The static configuration has the point symmetry C_1 .
 The point group associated with its full space group is C_1h.

Analysis of symmetry for dynamics (positions and initial velocities):
 Subroutine PRICEL returns:
 Original cell was already a primitive cell.

 Routine SETGRP: Setting up the symmetry group for a
 base centered orthorhombic supercell.

 Subroutine GETGRP returns: Found  2 space group operations
 (whereof  1 operations were pure point group operations)
 out of a pool of  8 trial point group operations.

The dynamic configuration has the point symmetry C_1 .
 The point group associated with its full space group is C_1h.

 Subroutine INISYM returns: Found  2 space group operations
 (whereof  1 operations are pure point group operations),
 and found     1 'primitive' translations

 KPOINTS: gamma-point-only calculation. no periodi

Automatic generation of k-mesh.
Space group operators:
 irot       det(A)        alpha          n_x          n_y          n_z        tau_x        tau_y        tau_z
    1     1.000000     0.000000     1.000000     0.000000     0.000000     0.000000     0.000000     0.000000
    2    -1.000000   180.000000     0.850925     0.525287     0.000000     0.739701    -0.260299     0.000000

 Subroutine IBZKPT returns following result:

 Found      1 irreducible k-points:

 Following reciprocal coordinates:
            Coordinates               Weight
  0.000000  0.000000  0.000000      1.000000

 Following cartesian coordinates:
            Coordinates               Weight
  0.000000  0.000000  0.000000      1.000000

 SYSTEM =  "Millerite NiS"
 POSCAR =  Type_048 Type_148

 Startparameter for this run:
   NWRITE =      2    write-flag & timer
   PREC   = normal    normal or accurate (medium, high low for compatibility)
   ISTART =      0    job   : 0-new  1-cont  2-samecut
   ICHARG =      2    charge: 1-file 2-atom 10-const
   ISPIN  =      1    spin polarized calculation?
   LNONCOLLINEAR =      F non collinear calculations
   LSORBIT =      F    spin-orbit coupling
   INIWAV =      1    electr: 0-lowe 1-rand  2-diag
   LASPH  =      F    aspherical Exc in radial PAW
   METAGGA=      F    non-selfconsistent MetaGGA calc.

 Electronic Relaxation 1
   ENCUT  =  450.0 eV  33.07 Ry    5.75 a.u.  19.47 19.47 37.61*2*pi/ulx,y,z
   ENINI  =  450.0     initial cutoff
   ENAUG  =  703.4 eV  augmentation charge cutoff
   NELM   =    100;   NELMIN=  2; NELMDL= -5     # of ELM steps
   EDIFF  = 0.1E-03   stopping-criterion for ELM
   LREAL  =      T    real-space projection
   NLSPLINE    = F    spline interpolate recip. space projectors
   LCOMPAT=      F    compatible to vasp.4.4
   GGA_COMPAT  = T    GGA compatible to vasp.4.4-vasp.4.6
   LMAXPAW     = -100 max onsite density
   LMAXMIX     =    2 max onsite mixed and CHGCAR
   VOSKOWN=      0    Vosko Wilk Nusair interpolation
   ROPT   =   -0.00050  -0.00050
 Ionic relaxation
   EDIFFG = 0.1E-02   stopping-criterion for IOM
   NSW    =      0    number of steps for IOM
   NBLOCK =      1;   KBLOCK =      1    inner block; outer block
[...]
     0.000000000  0.000000000 21.744231844     0.000000000  0.000000000  0.045989208

  length of vectors
    11.256463038 11.256463038 21.744231844     0.099375718  0.099375718  0.045989208

 FORCES acting on ions
    electron-ion (+dipol)            ewald-force                    non-local-force                 convergence-correction
   0.203E+03 -.329E+03 0.681E+03   -.203E+03 0.329E+03 -.678E+03   0.590E-01 -.956E-01 -.213E+01   0.434E-01 -.704E-01 0.148E+00
   0.234E+03 -.380E+03 -.235E+04   -.235E+03 0.381E+03 0.235E+04   0.658E+00 -.107E+01 0.944E-01   0.714E-03 -.117E-02 0.187E+00
   -.121E+02 0.196E+02 -.563E+04   0.948E+01 -.154E+02 0.563E+04   0.307E+01 -.498E+01 0.822E+00   -.170E-01 0.276E-01 0.111E+00
   -.357E+03 0.178E+02 0.329E+04   0.358E+03 -.188E+02 -.329E+04   -.858E-01 0.102E+01 -.735E+00   0.216E-01 0.116E-01 0.481E-01
   0.302E+03 0.231E+03 -.491E+04   -.306E+03 -.235E+03 0.492E+04   0.348E+01 0.334E+01 -.214E+01   0.620E-01 0.635E-01 0.115E+00
   0.720E+03 0.422E+03 0.541E+04   -.722E+03 -.422E+03 -.541E+04   0.988E+00 -.204E+01 0.227E+01   0.661E-01 -.200E-01 0.802E-02
   0.289E+03 0.425E+03 0.194E+04   -.289E+03 -.425E+03 -.194E+04   -.172E+00 0.233E+00 -.174E+01   0.311E-01 0.698E-01 0.851E-01
   0.254E+03 0.398E+03 -.137E+04   -.255E+03 -.399E+03 0.137E+04   0.940E+00 0.214E+00 0.178E+01   -.639E-01 0.771E-01 0.156E+00
   -.794E+03 -.190E+03 0.212E+04   0.797E+03 0.192E+03 -.212E+04   -.273E+01 -.139E+01 -.946E+00   0.178E-01 -.466E-02 0.142E+00
   -.549E+03 -.695E+02 -.140E+04   0.550E+03 0.711E+02 0.140E+04   -.108E+01 -.151E+01 0.640E+00   -.890E-02 -.162E-01 0.206E+00
   -.348E+03 -.174E+03 -.491E+04   0.353E+03 0.176E+03 0.491E+04   -.453E+01 -.159E+01 -.220E+01   -.225E-01 0.191E-01 0.746E-01
   -.700E+03 -.454E+03 0.541E+04   0.701E+03 0.456E+03 -.541E+04   0.138E+01 -.180E+01 0.227E+01   -.118E-01 -.681E-01 0.803E-02
   0.231E+03 -.206E+03 0.538E+03   -.232E+03 0.204E+03 -.535E+03   0.641E+00 0.676E+00 -.324E+01   -.936E-02 -.491E-01 0.187E+00
   0.226E+03 -.380E+03 -.240E+04   -.227E+03 0.381E+03 0.240E+04   0.507E+00 -.100E+01 0.838E-01   0.653E-01 -.740E-01 0.201E+00
   -.149E+02 0.205E+02 -.564E+04   0.125E+02 -.163E+02 0.564E+04   0.288E+01 -.487E+01 0.598E+00   -.231E-02 -.112E-01 0.130E+00
   0.419E+03 -.679E+03 0.411E+04   -.421E+03 0.682E+03 -.411E+04   0.190E+01 -.307E+01 -.112E+01   -.489E-03 0.745E-03 -.328E-01
   0.303E+03 0.222E+03 -.490E+04   -.307E+03 -.225E+03 0.491E+04   0.346E+01 0.334E+01 -.227E+01   -.105E+00 0.385E-01 0.134E+00
   0.106E+02 -.410E+03 0.506E+04   -.130E+02 0.412E+03 -.506E+04   0.201E+01 -.231E+01 0.476E+01   -.556E-01 -.282E-01 -.272E-01
   0.438E+03 0.131E+03 0.152E+04   -.441E+03 -.130E+03 -.152E+04   0.251E+01 0.343E+00 -.346E+01   -.365E-01 0.518E-01 0.117E+00
   0.270E+03 0.424E+03 -.147E+04   -.271E+03 -.425E+03 0.147E+04   0.149E+01 0.538E+00 0.146E+01   0.108E+00 0.913E-01 0.206E+00
   -.509E+03 -.683E+02 0.194E+04   0.510E+03 0.682E+02 -.194E+04   -.131E+00 0.258E+00 -.174E+01   -.764E-01 0.343E-02 0.851E-01
   -.470E+03 -.486E+02 -.137E+04   0.471E+03 0.491E+02 0.137E+04   -.613E+00 -.744E+00 0.178E+01   -.402E-01 0.917E-01 0.156E+00
   -.334E+03 -.171E+03 -.490E+04   0.339E+03 0.173E+03 0.491E+04   -.454E+01 -.160E+01 -.227E+01   0.128E-01 0.111E+00 0.134E+00
   -.203E+03 -.429E+03 0.508E+04   0.204E+03 0.434E+03 -.509E+04   0.207E+00 -.375E+01 0.843E+01   0.238E-01 -.395E-01 0.266E-03
   0.800E+02 -.299E+03 0.538E+03   -.787E+02 0.299E+03 -.535E+03   -.892E+00 -.270E+00 -.324E+01   0.481E-01 -.136E-01 0.187E+00
   0.238E+03 -.372E+03 -.240E+04   -.239E+03 0.373E+03 0.240E+04   0.671E+00 -.903E+00 0.838E-01   0.369E-01 -.916E-01 0.201E+00
   -.116E+02 0.225E+02 -.564E+04   0.902E+01 -.185E+02 0.564E+04   0.306E+01 -.475E+01 0.598E+00   0.110E-01 -.293E-02 0.130E+00
   0.257E+03 -.417E+03 0.405E+04   -.261E+03 0.423E+03 -.406E+04   0.252E+01 -.408E+01 0.330E+01   0.466E-01 -.756E-01 0.403E-01
   0.295E+03 0.232E+03 -.490E+04   -.299E+03 -.235E+03 0.490E+04   0.364E+01 0.331E+01 -.235E+01   0.139E-01 -.827E-01 0.109E+00
   0.475E+03 -.104E+02 0.508E+04   -.479E+03 0.122E+02 -.509E+04   0.326E+01 -.186E+01 0.843E+01   0.247E-01 -.389E-01 0.266E-03
   0.526E+03 0.625E+03 0.212E+04   -.529E+03 -.626E+03 -.212E+04   0.246E+01 0.182E+01 -.946E+00   -.380E-02 -.179E-01 0.142E+00
   0.308E+03 0.459E+03 -.140E+04   -.310E+03 -.460E+03 0.140E+04   0.183E+01 0.294E+00 0.640E+00   0.185E-01 0.707E-03 0.206E+00
   -.490E+03 0.229E+03 0.194E+04   0.490E+03 -.229E+03 -.194E+04   0.519E+00 0.457E+00 0.142E+00   0.268E-01 -.985E-02 0.826E-01
   -.502E+03 0.455E+01 -.138E+04   0.503E+03 -.356E+01 0.137E+04   -.736E+00 -.921E+00 0.189E+01   0.108E+00 -.769E-01 0.168E+00
   -.340E+03 -.160E+03 -.490E+04   0.344E+03 0.162E+03 0.490E+04   -.459E+01 -.177E+01 -.235E+01   0.677E-01 -.495E-01 0.109E+00
   0.362E+03 -.193E+03 0.506E+04   -.363E+03 0.196E+03 -.506E+04   0.117E+01 -.283E+01 0.476E+01   0.502E-01 0.371E-01 -.272E-01
   0.247E+03 -.400E+03 0.666E+03   -.248E+03 0.401E+03 -.664E+03   0.459E+00 -.744E+00 -.214E+01   -.502E-01 0.813E-01 0.719E-01
   0.227E+03 -.368E+03 -.239E+04   -.228E+03 0.369E+03 0.239E+04   0.597E+00 -.967E+00 0.135E+00   0.268E-01 -.433E-01 0.171E+00
   -.149E+02 0.241E+02 -.564E+04   0.124E+02 -.201E+02 0.564E+04   0.293E+01 -.475E+01 0.649E+00   0.114E-01 -.185E-01 0.233E+00
   0.144E+03 0.327E+03 0.329E+04   -.144E+03 -.329E+03 -.329E+04   -.878E+00 0.536E+00 -.735E+00   -.200E-01 -.141E-01 0.481E-01
   0.311E+03 0.233E+03 -.491E+04   -.315E+03 -.236E+03 0.491E+04   0.345E+01 0.334E+01 -.220E+01   -.703E-02 0.287E-01 0.746E-01
   -.156E+03 0.898E+03 0.528E+04   0.159E+03 -.905E+03 -.528E+04   -.204E+01 0.547E+01 0.407E+01   0.390E-01 0.640E-01 -.127E+00
   0.151E+02 0.541E+03 0.194E+04   -.144E+02 -.541E+03 -.194E+04   -.641E+00 -.259E+00 0.142E+00   -.322E-02 -.284E-01 0.826E-01
   0.221E+03 0.451E+03 -.138E+04   -.222E+03 -.451E+03 0.137E+04   0.115E+01 0.245E+00 0.189E+01   0.204E-01 -.131E+00 0.168E+00
   -.313E+03 -.333E+03 0.152E+04   0.314E+03 0.336E+03 -.152E+04   -.143E+01 -.209E+01 -.346E+01   -.299E-01 0.559E-01 0.117E+00
   -.500E+03 -.510E+02 -.147E+04   0.501E+03 0.521E+02 0.147E+04   -.115E+01 -.109E+01 0.146E+01   -.130E+00 -.555E-01 0.206E+00
   -.342E+03 -.167E+03 -.491E+04   0.347E+03 0.169E+03 0.492E+04   -.454E+01 -.161E+01 -.214E+01   -.845E-01 -.270E-01 0.115E+00
   -.733E+03 0.542E+03 0.528E+04   0.737E+03 -.548E+03 -.528E+04   -.397E+01 0.428E+01 0.407E+01   -.747E-01 -.613E-02 -.127E+00
   -.143E+03 0.351E+02 0.138E+03   0.145E+03 -.358E+02 -.137E+03   -.200E+01 0.827E+00 -.104E+00   0.113E-01 0.246E-01 0.115E+00
   -.819E+02 0.124E+03 -.917E+03   0.831E+02 -.126E+03 0.913E+03   -.744E+00 0.109E+01 0.124E+01   0.228E-02 0.340E-01 0.548E-01
   0.145E+03 -.234E+03 0.239E+04   -.146E+03 0.236E+03 -.240E+04   0.432E+00 -.699E+00 0.198E+01   0.219E-01 -.355E-01 -.342E-01
   -.869E+02 0.141E+03 0.166E+04   0.883E+02 -.143E+03 -.166E+04   -.180E+00 0.292E+00 0.239E+01   -.151E-01 0.244E-01 0.678E-02
   -.503E+01 0.816E+01 -.235E+04   0.549E+01 -.890E+01 0.236E+04   -.301E+00 0.487E+00 -.215E+01   0.238E-01 -.386E-01 0.355E-01
   -.130E+03 -.112E+03 -.158E+04   0.131E+03 0.114E+03 0.158E+04   -.151E+01 -.516E+00 -.166E+01   -.224E-01 -.289E-01 0.426E-01
   -.619E+02 -.150E+03 -.182E+03   0.634E+02 0.152E+03 0.183E+03   -.169E+01 -.282E+01 -.632E+00   -.219E-02 0.998E-02 0.678E-01
   -.652E+02 -.342E+03 0.119E+04   0.666E+02 0.346E+03 -.119E+04   -.200E+00 -.189E+01 0.319E+01   0.147E-01 0.261E-02 0.188E-01
   0.300E+03 0.279E+02 0.116E+04   -.303E+03 -.275E+02 -.116E+04   0.685E+00 -.129E+01 0.275E+01   0.335E-01 -.270E-01 0.207E-01
   0.162E+03 -.118E+02 -.182E+03   -.165E+03 0.116E+02 0.183E+03   0.328E+01 0.245E+00 -.632E+00   -.795E-02 0.642E-02 0.678E-01
   0.154E+03 0.588E+02 -.157E+04   -.156E+03 -.595E+02 0.158E+04   0.110E+01 0.102E+01 -.165E+01   -.114E-01 0.374E-01 0.524E-01
   -.580E+02 0.939E+02 0.300E+03   0.592E+02 -.960E+02 -.302E+03   -.120E+01 0.194E+01 0.193E+01   -.214E-01 0.347E-01 0.342E-01
[...]
   0.159E+03 0.657E+02 -.158E+04   -.161E+03 -.664E+02 0.158E+04   0.114E+01 0.112E+01 -.166E+01   0.359E-01 0.709E-02 0.426E-01
   0.328E+02 0.144E+03 0.138E+03   -.331E+02 -.146E+03 -.137E+03   0.159E+00 0.216E+01 -.104E+00   -.271E-01 0.939E-03 0.115E+00
   -.741E+02 0.129E+03 -.917E+03   0.752E+02 -.131E+03 0.913E+03   -.641E+00 0.115E+01 0.124E+01   -.314E-01 0.132E-01 0.548E-01
   -.189E+03 0.307E+03 0.235E+04   0.191E+03 -.309E+03 -.235E+04   -.589E+00 0.955E+00 0.151E+01   -.408E-02 0.661E-02 -.452E-01
   -.151E+03 0.245E+03 0.171E+04   0.152E+03 -.247E+03 -.172E+04   -.722E+00 0.117E+01 0.234E+01   -.991E-02 0.161E-01 -.472E-01
   -.410E+01 0.664E+01 -.235E+04   0.465E+01 -.753E+01 0.236E+04   -.356E+00 0.577E+00 -.208E+01   0.950E-03 -.154E-02 0.659E-01
   -.126E+03 -.113E+03 -.158E+04   0.127E+03 0.115E+03 0.158E+04   -.150E+01 -.573E+00 -.167E+01   -.551E-01 -.217E-01 0.543E-01
   -.578E+02 -.131E+03 -.225E+03   0.588E+02 0.133E+03 0.225E+03   -.107E+01 -.260E+01 0.275E+00   0.437E-01 0.304E-01 0.551E-01
   0.771E+02 0.402E+03 0.222E+04   -.770E+02 -.407E+03 -.223E+04   -.818E+00 0.222E+01 0.335E+01   0.207E-01 0.175E-01 -.576E-01
   -.373E+03 -.269E+02 0.126E+04   0.377E+03 0.286E+02 -.126E+04   0.834E+00 -.192E+01 0.427E+01   0.115E-01 -.399E-01 0.978E-02
   0.222E+03 -.239E+03 0.243E+04   -.223E+03 0.241E+03 -.244E+04   0.975E+00 -.491E+00 0.232E+01   0.240E-01 -.510E-02 -.278E-01
   0.276E+01 -.730E+02 0.918E+03   -.198E+01 0.734E+02 -.917E+03   0.226E+00 0.412E+00 0.418E-01   -.119E-01 0.315E-01 -.152E-01
   0.143E+03 -.697E+01 -.225E+03   -.146E+03 0.717E+01 0.225E+03   0.280E+01 -.202E+00 0.275E+00   -.468E-01 -.255E-01 0.551E-01
   0.152E+03 0.638E+02 -.158E+04   -.154E+03 -.645E+02 0.158E+04   0.115E+01 0.114E+01 -.163E+01   -.185E-01 -.354E-01 0.682E-01
   -.150E+02 0.243E+02 -.569E+02   -.131E-11 -.354E-11 0.500E-11   0.147E+02 -.238E+02 0.507E+02   0.175E+00 -.284E+00 0.632E+01

 POSITION                                       TOTAL-FORCE (eV/Angst)
      5.35228      4.81788      5.50842         0.113227     -0.183420      0.550807
      5.93595      3.87238      8.44448        -0.089394      0.144811     -0.864199
      6.05829      3.67420     10.81275         0.436190     -0.706596      0.804065
      1.35774      0.92156      3.86904         0.908788     -0.008747      0.434330
      0.82609      0.54856     10.27304        -0.542466     -0.028403      0.494452
      4.88183      3.32812      2.25775        -0.906508     -1.819862     -1.189369
      5.35228      2.40903      4.73270        -0.307229     -0.060300      0.016903
      5.93595      1.46353      7.66876         0.079076     -0.052284     -0.044691
      1.87746      3.73836      4.73270         0.220078      0.161955      0.449841
      2.46113      2.79286      7.66876         0.112561      0.084099      0.105434
      3.04689      1.91954     10.27277         0.241761      0.473235      0.497482
      6.89489      4.57081      2.25775         2.033133     -0.005186     -1.189369
     10.98051      4.81788      5.50842        -0.240397     -0.424543      0.516844
     11.56418      3.87238      8.44448        -0.020831      0.104764     -0.948113
     11.68675      3.67383     10.81314         0.439172     -0.727326      0.785750
      7.87456      0.73197      2.57236        -0.369854      0.599136      1.693745
      6.45413      0.54866     10.27181        -0.572427     -0.015078      0.473054
     10.44572      1.98891      2.32200        -0.454754     -0.101585     -0.190349
     10.98051      2.40903      4.73270        -0.931663      0.604475      1.114458
     11.56418      1.46353      7.66876         0.024530     -0.187328     -0.069951
      7.50570      3.73836      4.73270         0.191589      0.247627      0.016903
      8.08937      2.79286      7.66876         0.011302     -0.094122     -0.044691
      8.67500      1.91963     10.27181         0.270011      0.504969      0.473054
     11.23511      4.38784      2.77705         0.530546      0.926337     -0.599083
      7.87456      9.84929      5.50842         0.487258      0.024647      0.516844
      8.45823      8.90379      8.44448        -0.084319      0.065572     -0.948113
      8.58080      8.70524     10.81314         0.453386     -0.718552      0.785750
      4.70995      5.85840      3.30097        -0.823542      1.334077      0.180910
      3.34818      5.57999     10.27208        -0.523089      0.006932      0.478499
      8.14491      9.42897      2.77705        -1.065870     -0.059150     -0.599083
      7.87456      7.44044      4.73270        -0.243409     -0.124161      0.449841
      8.45823      6.49494      7.66876        -0.125625     -0.062937      0.105434
      4.39975      8.76977      4.73270        -0.066986     -0.090066      0.370743
      4.98341      7.82427      7.66876         0.045344     -0.014491     -0.035736
      5.56912      6.95100     10.27208         0.228224      0.470727      0.478499
     10.64322      9.05957      2.32200         0.294610      0.361006     -0.190349
     13.50279      9.84929      5.50842        -0.178050      0.288429      0.239721
     14.08646      8.90379      8.44448        -0.057361      0.092920     -0.962670
     14.20881      8.70559     10.81280         0.459903     -0.745010      0.772959
     10.62558      6.64271      3.86904        -0.399453     -0.816340      0.434330
      8.97644      5.57992     10.27277        -0.531398     -0.004046      0.497482
     12.91912      8.38594      1.79664         1.170187     -0.708300      1.425833
     13.50279      7.44044      4.73270         0.110535      0.019520      0.370743
     14.08646      6.49494      7.66876        -0.007367     -0.047030     -0.035736
     10.02798      8.76977      4.73270        -0.122853      1.103763      1.114458
     10.61165      7.82427      7.66876         0.156471     -0.105879     -0.069951
     11.19728      6.95082     10.27304         0.268496      0.472213      0.494452
     15.07254      9.71527      1.79664         0.108774     -1.363523      1.425833
      1.66190      1.67871      5.87212         0.172274      0.105961      0.983483
      2.24556      0.73321      8.80817         0.463124     -0.702995     -3.104475
      5.14307      5.15678      1.40831        -0.706558      1.144572     -3.579176
      6.70646      2.62422      2.93606         1.267349     -2.053012      0.626070
      5.04035      5.32318     11.44922         0.184514     -0.298899      2.787339
      2.24556      3.80055      9.79595         0.108475      1.048205     -0.099058
      7.29013      4.74605      6.85989        -0.152854     -0.019344     -0.091507
      4.18418      0.66015      3.92384         1.156764      1.810862      1.932559
      3.96438      3.99884      3.92384        -2.509074     -0.887745      2.151677
      4.54805      3.05334      6.85989         0.085794      0.127976     -0.091507
      5.13172      2.10784      9.79595        -0.998709      0.327462     -0.151110
      7.29013      1.67871      5.87212         0.064309     -0.104175      0.022222
[...]
      7.07033      8.08475      6.85989        -0.011657      0.055031      0.063346
      7.65400      7.13925      9.79595        -0.985665      0.372779     -0.099058
      9.81241      6.71012      5.87212        -0.171930     -0.106520      0.983483
     10.39608      5.76462      8.80817         0.420901     -0.729060     -3.104475
     14.32612      8.51556      0.35794         0.794987     -1.287820     -3.499926
     14.85697      7.65563      2.93606         0.033384     -0.054079      0.173926
      8.14629      0.29179     11.44911         0.192527     -0.311879      2.697804
     10.39608      8.83196      9.79595         0.111191      1.024674     -0.138917
     15.44064      9.77746      6.85989         0.031139     -0.013821      0.049904
     11.37999      7.05080      1.78968        -0.689066     -2.433619     -1.380937
     12.33469      5.69156      3.92384         5.249413     -0.266992      1.513844
     11.89251      9.96849      0.97161        -0.891603      1.356272     -2.986553
     12.11489      9.03025      3.92384         0.993819      0.808871      1.741547
     12.69856      8.08475      6.85989        -0.001599     -0.034031      0.049904
     13.28223      7.13925      9.79595        -1.003798      0.379607     -0.065067
    total drift:                               -0.089714      0.158530      0.099433

  FREE ENERGIE OF THE ION-ELECTRON SYSTEM (eV)
  free  energy   TOTEN  =      -467.18274996 eV

  energy  without entropy=     -465.79669106  energy(sigma->0) =     -466.48972051