 vasp.5.4.4.18Apr17-6-g9f103f2a35 (build Aug 13 2019 17:33:20) gamma-only

 executed on             LinuxIFC date 2020.05.12  03:47:22

 INCAR:
 POTCAR:    PAW_PBE Ni_pv 06Sep2000
 POTCAR:    PAW_PBE S 06Sep2000
 POTCAR:    PAW_PBE Ni_pv 06Sep2000
   VRHFIN =Ni:

   TITEL  = PAW_PBE Ni_pv 06Sep2000
   POMASS =   58.690; ZVAL   =   16.000    mass and valenz
   ENMAX  =  367.986; ENMIN  =  275.989 eV

 POTCAR:    PAW_PBE S 06Sep2000
   VRHFIN =S : s2p4

   TITEL  = PAW_PBE S 06Sep2000
   POMASS =   32.066; ZVAL   =    6.000    mass and valenz
   ENMAX  =  258.689; ENMIN  =  194.016 eV

 Optimization of the real space projectors (new method)

 maximal supplied QI-value         = 18.90
 optimisation between [QCUT,QGAM] = [ 10.77, 21.73] = [ 32.49,132.25] Ry
 Optimized for a Real-space Cutoff    1.38 Angstroem

   l    n(q)    QCUT    max X(q) W(low)/X(q) W(high)/X(q)  e(spline)
   1      8    10.771     2.836    0.40E-04    0.29E-04    0.12E-06
   1      8    10.771     4.023    0.10E-03    0.48E-04    0.29E-06
   2      8    10.771    73.368    0.42E-03    0.97E-04    0.44E-06
   2      8    10.771    69.010    0.42E-03    0.99E-04    0.45E-06
   0      9    10.771    54.797    0.10E-03    0.56E-04    0.74E-07
   0      9    10.771    24.266    0.89E-04    0.49E-04    0.67E-07
 Optimization of the real space projectors (new method)

 maximal supplied QI-value         = 19.84
 optimisation between [QCUT,QGAM] = [ 10.71, 21.63] = [ 32.15,130.99] Ry
 Optimized for a Real-space Cutoff    1.19 Angstroem

   l    n(q)    QCUT    max X(q) W(low)/X(q) W(high)/X(q)  e(spline)
   0      8    10.715   187.594    0.41E-03    0.53E-04    0.66E-07
   0      8    10.715   164.243    0.41E-03    0.53E-04    0.65E-07
   1      7    10.715    67.533    0.19E-03    0.59E-03    0.68E-07
   1      7    10.715    50.729    0.19E-03    0.58E-03    0.67E-07
  PAW_PBE Ni_pv 06Sep2000               :
  PAW_PBE S 06Sep2000                   :

 POSCAR: Type_037 Type_137
  positions in cartesian coordinates
 exchange correlation table for  LEXCH =        8
   RHO(1)=    0.500       N(1)  =     2000
   RHO(2)=  100.500       N(2)  =     4000

 ion  position               nearest neighbor table
   1  0.762  0.145  0.176-  65 2.09  51 2.09  43 2.13  42 2.15  52 2.21  66 2.21
   2  0.822  0.145  0.317-  66 2.04  52 2.04  38 2.16  43 2.39
   3  0.227  0.645  0.096-  44 2.01  63 2.20  53 2.20  45 2.24   4 2.33
   4  0.297  0.645  0.216-  64 2.13  54 2.13  45 2.25  53 2.26  63 2.26   3 2.33  28 2.53  16 2.53

   5  0.416  0.145  0.112-  47 2.06  69 2.09  55 2.09   6 2.43  48 2.60
   6  0.470  0.145  0.247-  56 2.10  70 2.10  48 2.25  55 2.26  69 2.26   5 2.43  31 2.53  19 2.53

   7  0.952  0.645  0.154-  58 2.01  68 2.01  49 2.25  57 2.36  67 2.36  32 2.53  20 2.53
   8  0.974  0.645  0.317-  46 2.05  67 2.05  57 2.05  50 2.10
   9  0.182  0.145  0.049-  47 2.04  73 2.05  59 2.05  10 2.46
  10  0.125  0.145  0.185-  39 2.07  73 2.14  59 2.14  60 2.36  74 2.36  11 2.40   9 2.46  34 2.53
                            22 2.53
  11  0.056  0.145  0.311-  39 2.08  38 2.10  10 2.40  14 2.46  26 2.46  74 2.63  60 2.63
  12  0.573  0.645  0.160-  40 2.02  71 2.18  61 2.18  41 2.22  13 2.29
  13  0.642  0.645  0.278-  62 2.03  72 2.03  41 2.25  61 2.26  71 2.26  12 2.29  37 2.53  25 2.53

[...]

  43  0.686  0.145  0.278-   1 2.13  19 2.17  31 2.17   2 2.39  42 2.69
  44  0.121  0.645  0.041-   3 2.01  20 2.07  32 2.07
  45  0.164  0.645  0.214-  21 2.08  33 2.08   3 2.24   4 2.25  32 2.36  20 2.36
  46  0.078  0.645  0.380-  21 2.05  33 2.05   8 2.05
  47  0.301  0.145  0.071-   9 2.04   5 2.06  34 2.12  22 2.12
  48  0.336  0.145  0.245-  23 2.04  35 2.04   6 2.25  34 2.36  22 2.36   5 2.60
  49  0.819  0.645  0.153-  36 2.04  24 2.04   7 2.25  25 2.26  37 2.26  50 2.74
  50  0.850  0.645  0.314-   8 2.10  25 2.11  37 2.11  49 2.74
  51  0.782  0.298  0.089-  24 2.00   1 2.09  52 2.65  42 2.77
  52  0.821  0.315  0.243-   2 2.04  26 2.08  25 2.10   1 2.21  51 2.65
  53  0.312  0.814  0.122-  27 1.99   3 2.20  22 2.25   4 2.26  28 2.26
  54  0.350  0.793  0.295-  23 2.04  29 2.05   4 2.13  28 2.14
  55  0.484  0.314  0.153-  30 2.00   5 2.09  16 2.25   6 2.26  31 2.26
  56  0.528  0.286  0.324-  17 2.00  31 2.06   6 2.10  70 2.70
  57  0.001  0.814  0.246-   8 2.05  33 2.06  14 2.13  32 2.36   7 2.36
  58  0.976  0.794  0.072-   7 2.01  32 2.01
  59  0.140  0.320  0.107-   9 2.05  34 2.14  10 2.14  20 2.15
  60  0.174  0.314  0.276-  35 2.04  21 2.12  10 2.36  34 2.36  11 2.63
  61  0.657  0.814  0.184-  36 2.04  12 2.18  19 2.25  37 2.26  13 2.26
  62  0.696  0.790  0.348-  37 2.02  13 2.03  72 2.77
  63  0.312  0.477  0.122-  15 1.99   3 2.20  34 2.25   4 2.26  16 2.26
  64  0.350  0.497  0.295-  35 2.04  17 2.05   4 2.13  16 2.14
  65  0.782  0.993  0.089-  36 2.00   1 2.09  66 2.65  42 2.77
  66  0.821  0.976  0.243-   2 2.04  14 2.08  37 2.10   1 2.21  65 2.65
  67  0.001  0.477  0.246-   8 2.05  21 2.06  26 2.13  20 2.36   7 2.36
  68  0.976  0.497  0.072-   7 2.01  20 2.01
  69  0.484  0.977  0.153-  18 2.00   5 2.09  28 2.25   6 2.26  19 2.26
  70  0.528  0.005  0.324-  29 2.00  19 2.06   6 2.10  56 2.70
  71  0.657  0.477  0.184-  24 2.04  12 2.18  31 2.25  25 2.26  13 2.26
  72  0.696  0.501  0.348-  25 2.02  13 2.03  62 2.77
  73  0.140  0.971  0.107-   9 2.05  22 2.14  10 2.14  32 2.15
  74  0.174  0.977  0.276-  23 2.04  33 2.12  10 2.36  22 2.36  11 2.63

  LATTYP: Found a simple orthorhombic cell.
 ALAT       =     9.5784100000
 B/A-ratio  =     1.7387693453
 C/A-ratio  =     1.7627867312

  Lattice vectors:

 A1 = (   0.0000000000,   9.5784100000,   0.0000000000)
 A2 = (   0.0000000000,   0.0000000000, -16.6546456851)
 A3 = ( -16.8846940542,   0.0000000000,   0.0000000000)

Analysis of symmetry for initial positions (statically):
 Subroutine PRICEL returns:
 Original cell was already a primitive cell.

 Routine SETGRP: Setting up the symmetry group for a
 simple orthorhombic supercell.

 Subroutine GETGRP returns: Found  2 space group operations
 (whereof  1 operations were pure point group operations)
 out of a pool of  8 trial point group operations.

The static configuration has the point symmetry C_1 .
 The point group associated with its full space group is C_1h.

Analysis of symmetry for dynamics (positions and initial velocities):
 Subroutine PRICEL returns:
 Original cell was already a primitive cell.

 Routine SETGRP: Setting up the symmetry group for a
 simple orthorhombic supercell.

 Subroutine GETGRP returns: Found  2 space group operations
 (whereof  1 operations were pure point group operations)
 out of a pool of  8 trial point group operations.

The dynamic configuration has the point symmetry C_1 .
 The point group associated with its full space group is C_1h.

 Subroutine INISYM returns: Found  2 space group operations
 (whereof  1 operations are pure point group operations),
 and found     1 'primitive' translations

 KPOINTS: gamma-point-only calculation. no periodi

Automatic generation of k-mesh.
Space group operators:
 irot       det(A)        alpha          n_x          n_y          n_z        tau_x        tau_y        tau_z
    1     1.000000     0.000000     1.000000     0.000000     0.000000     0.000000     0.000000     0.000000
    2    -1.000000   180.000000     0.000000     1.000000     0.000000     0.000000     0.290594     0.000000

 Subroutine IBZKPT returns following result:

 Found      1 irreducible k-points:

 Following reciprocal coordinates:
            Coordinates               Weight
  0.000000  0.000000  0.000000      1.000000

 Following cartesian coordinates:
            Coordinates               Weight
  0.000000  0.000000  0.000000      1.000000

 SYSTEM =  "Millerite NiS"
 POSCAR =  Type_037 Type_137

 Startparameter for this run:
   NWRITE =      2    write-flag & timer
   PREC   = normal    normal or accurate (medium, high low for compatibility)
   ISTART =      0    job   : 0-new  1-cont  2-samecut
   ICHARG =      2    charge: 1-file 2-atom 10-const
   ISPIN  =      1    spin polarized calculation?
   LNONCOLLINEAR =      F non collinear calculations
   LSORBIT =      F    spin-orbit coupling
   INIWAV =      1    electr: 0-lowe 1-rand  2-diag
   LASPH  =      F    aspherical Exc in radial PAW
   METAGGA=      F    non-selfconsistent MetaGGA calc.

 Electronic Relaxation 1
   ENCUT  =  450.0 eV  33.07 Ry    5.75 a.u.  29.20 16.57 28.81*2*pi/ulx,y,z
   ENINI  =  450.0     initial cutoff
   ENAUG  =  703.4 eV  augmentation charge cutoff
   NELM   =    100;   NELMIN=  2; NELMDL= -5     # of ELM steps
   EDIFF  = 0.1E-03   stopping-criterion for ELM
   LREAL  =      T    real-space projection
   NLSPLINE    = F    spline interpolate recip. space projectors
   LCOMPAT=      F    compatible to vasp.4.4
   GGA_COMPAT  = T    GGA compatible to vasp.4.4-vasp.4.6
   LMAXPAW     = -100 max onsite density
   LMAXMIX     =    2 max onsite mixed and CHGCAR
   VOSKOWN=      0    Vosko Wilk Nusair interpolation
   ROPT   =   -0.00050  -0.00050
 Ionic relaxation
   EDIFFG = 0.1E-02   stopping-criterion for IOM
   NSW    =      0    number of steps for IOM
   NBLOCK =      1;   KBLOCK =      1    inner block; outer block
   IBRION =     -1    ionic relax: 0-MD 1-quasi-New 2-CG
   NFREE  =      0    steps in history (QN), initial steepest desc. (CG)
   ISIF   =      2    stress and relaxation
   IWAVPR =     10    prediction:  0-non 1-charg 2-wave 3-comb
   ISYM   =      2    0-nonsym 1-usesym 2-fastsym
   LCORR  =      T    Harris-Foulkes like correction to forces

   POTIM  = 0.5000    time-step for ionic-motion
   TEIN   =    0.0    initial temperature
   TEBEG  =    0.0;   TEEND  =   0.0 temperature during run
   SMASS  =  -3.00    Nose mass-parameter (am)
   estimated Nose-frequenzy (Omega)   =  0.10E-29 period in steps =****** mass=  -0.652E-26a.u.
   SCALEE = 1.0000    scale energy and forces
   NPACO  =    256;   APACO  = 16.0  distance and # of slots for P.C.
   PSTRESS=    0.0 pullay stress

  Mass of Ions in am
   POMASS =  58.69 32.07
  Ionic Valenz
   ZVAL   =  16.00  6.00
  Atomic Wigner-Seitz radii
  virtual crystal weights
   VCA    =   1.00  1.00
   NELECT =     814.0000    total number of electrons
   NUPDOWN=      -1.0000    fix difference up-down

 DOS related values:
   EMIN   =  10.00;   EMAX   =-10.00  energy-range for DOS
   EFERMI =   0.00
   ISMEAR =     0;   SIGMA  =   0.20  broadening in eV -4-tet -1-fermi 0-gaus

 Electronic relaxation 2 (details)
   IALGO  =     38    algorithm
   LDIAG  =      T    sub-space diagonalisation (order eigenvalues)
   LSUBROT=      F    optimize rotation matrix (better conditioning)
   TURBO    =      0    0=normal 1=particle mesh
   IRESTART =      0    0=no restart 2=restart with 2 vectors
   NREBOOT  =      0    no. of reboots
   NMIN     =      0    reboot dimension
   EREF     =   0.00    reference energy to select bands
   IMIX   =      4    mixing-type and parameters
     AMIX     =   0.40;   BMIX     =  1.00
     AMIX_MAG =   1.60;   BMIX_MAG =  1.00
     AMIN     =   0.10
     WC   =   100.;   INIMIX=   1;  MIXPRE=   1;  MAXMIX= -45

 Intra band minimization:
   WEIMIN = 0.0000     energy-eigenvalue tresh-hold
[...]
     0.000000000  9.578410000  0.000000000     0.000000000  0.104401461  0.000000000
     0.000000000  0.000000000 16.654645685     0.000000000  0.000000000  0.060043307

  length of vectors
    16.884694054  9.578410000 16.654645685     0.059225237  0.104401461  0.060043307

 FORCES acting on ions
    electron-ion (+dipol)            ewald-force                    non-local-force                 convergence-correction
   -.608E+03 -.912E-03 0.115E+04   0.609E+03 -.604E-05 -.115E+04   0.162E+00 0.000E+00 0.206E+01   -.556E-02 -.758E-07 -.107E-01
   0.428E+03 -.105E-02 -.309E+04   -.429E+03 -.765E-06 0.309E+04   0.708E+00 0.000E+00 -.367E+01   0.830E-02 -.218E-06 0.267E-01
   0.392E+03 -.818E-03 0.294E+04   -.393E+03 0.136E-05 -.295E+04   0.184E+01 0.000E+00 0.557E+01   0.598E-02 0.380E-07 -.234E-01
   0.570E+03 -.874E-03 -.111E+04   -.571E+03 -.852E-06 0.112E+04   0.159E+01 0.000E+00 -.259E+01   -.367E-01 -.505E-07 -.486E-01
   0.181E+03 -.105E-02 0.260E+04   -.183E+03 0.161E-04 -.260E+04   0.156E+01 0.000E+00 0.373E+01   -.772E-01 -.197E-06 -.366E-01
   0.218E+03 -.721E-03 -.184E+04   -.221E+03 -.850E-06 0.184E+04   0.258E+01 0.000E+00 -.485E+01   -.523E-01 0.430E-07 -.344E-01
   0.867E+03 -.869E-03 0.149E+04   -.872E+03 0.311E-06 -.149E+04   0.387E+01 0.000E+00 0.404E+01   0.452E-01 -.562E-07 -.217E-02
   0.684E+03 -.864E-03 -.299E+04   -.690E+03 0.931E-07 0.299E+04   0.360E+01 0.000E+00 -.377E+01   0.405E-01 -.477E-07 0.140E-01
   0.791E+03 -.941E-03 0.415E+04   -.794E+03 0.604E-06 -.415E+04   0.247E+01 0.000E+00 0.477E+01   0.915E-02 -.477E-06 -.580E-01
   0.962E+03 -.782E-03 0.442E+03   -.963E+03 0.227E-06 -.441E+03   0.213E+01 0.000E+00 -.256E+00   0.564E-01 -.180E-06 -.130E+00
   -.265E+03 -.114E-02 -.304E+04   0.266E+03 -.865E-08 0.304E+04   0.863E+00 0.000E+00 0.202E+01   0.450E-01 -.893E-07 -.181E-01
   -.524E+03 -.981E-03 0.167E+04   0.526E+03 0.135E-04 -.167E+04   -.199E+01 0.000E+00 0.338E+01   -.486E-01 -.239E-06 -.228E-01
   -.122E+02 -.935E-03 -.238E+04   0.915E+01 0.469E-05 0.239E+04   0.213E+01 0.000E+00 -.573E+01   -.265E-01 -.207E-06 0.143E-01
   0.247E+03 0.523E+03 -.111E+04   -.245E+03 -.530E+03 0.111E+04   -.117E+01 0.540E+01 0.724E+00   0.501E-01 -.169E-01 -.874E-02
   -.118E+03 0.572E+03 0.399E+04   0.116E+03 -.568E+03 -.399E+04   0.259E+01 -.419E+01 -.212E+01   -.490E-01 -.122E-01 -.104E-01
   -.240E+03 0.468E+03 0.142E+03   0.240E+03 -.472E+03 -.142E+03   0.531E+00 0.339E+01 -.346E+00   -.474E-01 -.968E-02 -.361E-01
   -.214E+03 0.148E+03 -.370E+04   0.217E+03 -.152E+03 0.370E+04   -.311E+01 0.470E+01 0.158E+01   -.247E-01 -.114E-01 -.384E-02
   -.578E+03 0.577E+03 0.363E+04   0.575E+03 -.573E+03 -.363E+04   0.315E+01 -.419E+01 -.149E+01   -.603E-01 0.966E-02 -.227E-01
   -.703E+03 0.416E+03 -.912E+03   0.704E+03 -.420E+03 0.915E+03   -.997E+00 0.367E+01 -.384E+01   -.484E-01 0.306E-02 -.725E-02
   0.480E+03 0.702E+03 0.204E+04   -.480E+03 -.706E+03 -.204E+04   0.119E+01 0.355E+01 0.373E+01   0.816E-01 -.355E-01 -.312E-01
   -.123E+03 0.448E+03 -.259E+04   0.127E+03 -.454E+03 0.260E+04   -.281E+01 0.479E+01 -.390E+01   0.238E-01 0.765E-02 -.152E-01
   0.586E+02 0.496E+03 0.969E+03   -.572E+02 -.501E+03 -.969E+03   -.877E+00 0.343E+01 0.127E+01   -.324E-01 0.366E-01 -.115E+00
   0.122E+03 0.357E+02 -.327E+04   -.122E+03 -.383E+02 0.327E+04   0.525E+00 0.247E+01 0.163E+01   -.982E-02 0.378E-02 -.248E-01
   -.420E+03 0.195E+03 0.308E+04   0.420E+03 -.197E+03 -.308E+04   -.863E+00 0.305E+01 0.245E+00   -.720E-02 0.878E-03 -.244E-01
   -.541E+03 0.501E+03 -.141E+04   0.543E+03 -.504E+03 0.141E+04   -.197E+01 0.280E+01 -.440E+01   0.916E-02 -.785E-03 0.199E-01
   0.247E+03 -.523E+03 -.111E+04   -.245E+03 0.530E+03 0.111E+04   -.117E+01 -.540E+01 0.724E+00   0.501E-01 0.169E-01 -.874E-02
   -.118E+03 -.572E+03 0.399E+04   0.116E+03 0.568E+03 -.399E+04   0.259E+01 0.419E+01 -.212E+01   -.490E-01 0.122E-01 -.104E-01
   -.240E+03 -.468E+03 0.142E+03   0.240E+03 0.472E+03 -.142E+03   0.531E+00 -.339E+01 -.346E+00   -.474E-01 0.968E-02 -.361E-01
   -.214E+03 -.148E+03 -.370E+04   0.217E+03 0.152E+03 0.370E+04   -.311E+01 -.470E+01 0.158E+01   -.247E-01 0.114E-01 -.384E-02
   -.578E+03 -.577E+03 0.363E+04   0.575E+03 0.573E+03 -.363E+04   0.315E+01 0.419E+01 -.149E+01   -.603E-01 -.966E-02 -.227E-01
   -.703E+03 -.416E+03 -.912E+03   0.704E+03 0.420E+03 0.915E+03   -.997E+00 -.367E+01 -.384E+01   -.484E-01 -.306E-02 -.725E-02
   0.480E+03 -.702E+03 0.204E+04   -.480E+03 0.706E+03 -.204E+04   0.119E+01 -.355E+01 0.373E+01   0.816E-01 0.355E-01 -.312E-01
   -.123E+03 -.448E+03 -.259E+04   0.127E+03 0.454E+03 0.260E+04   -.281E+01 -.479E+01 -.390E+01   0.238E-01 -.766E-02 -.152E-01
   0.586E+02 -.496E+03 0.969E+03   -.572E+02 0.501E+03 -.969E+03   -.877E+00 -.343E+01 0.127E+01   -.324E-01 -.366E-01 -.115E+00
   0.122E+03 -.357E+02 -.327E+04   -.122E+03 0.383E+02 0.327E+04   0.525E+00 -.247E+01 0.163E+01   -.982E-02 -.378E-02 -.248E-01
   -.420E+03 -.195E+03 0.308E+04   0.420E+03 0.197E+03 -.308E+04   -.863E+00 -.305E+01 0.245E+00   -.720E-02 -.878E-03 -.244E-01
   -.541E+03 -.501E+03 -.141E+04   0.543E+03 0.504E+03 0.141E+04   -.197E+01 -.280E+01 -.440E+01   0.916E-02 0.785E-03 0.199E-01
   0.568E+02 -.189E-04 -.165E+04   -.561E+02 -.877E-07 0.165E+04   -.440E+00 0.000E+00 -.283E+01   0.140E-01 -.491E-07 0.924E-02
   0.271E+03 -.147E-04 0.649E+03   -.274E+03 -.357E-08 -.654E+03   0.239E+01 0.000E+00 0.307E+01   0.280E-01 -.339E-07 -.201E-01
   -.435E+03 0.128E-04 0.118E+04   0.439E+03 -.476E-05 -.118E+04   -.178E+01 0.000E+00 0.198E+01   -.205E-01 0.561E-08 -.105E-01
   -.187E+03 -.453E-05 -.912E+03   0.187E+03 0.110E-05 0.917E+03   0.117E+01 0.000E+00 -.425E+01   -.120E-01 -.625E-07 -.373E-02
   -.475E+03 0.232E-04 0.903E+03   0.473E+03 -.167E-04 -.905E+03   0.145E+01 0.000E+00 0.167E+01   -.224E-01 0.437E-07 -.124E-01
   -.134E+03 0.452E-05 -.106E+04   0.132E+03 -.167E-05 0.106E+04   0.139E+01 0.000E+00 -.217E+01   -.134E-01 0.589E-08 0.867E-02
   0.208E+03 -.983E-05 0.170E+04   -.207E+03 0.295E-06 -.170E+04   -.773E+00 0.000E+00 0.271E+01   0.272E-01 0.166E-07 -.363E-02
   -.405E+02 0.659E-05 -.219E+03   0.410E+02 0.103E-06 0.221E+03   0.115E+01 0.000E+00 -.265E+01   0.146E-01 -.204E-07 -.126E-01
   -.468E+02 -.205E-04 -.173E+04   0.474E+02 -.196E-07 0.173E+04   0.150E+00 0.000E+00 -.922E+00   0.454E-02 -.262E-07 -.553E-02
   -.132E+03 -.213E-04 0.145E+04   0.134E+03 0.228E-05 -.145E+04   -.504E+00 0.000E+00 0.216E+01   -.457E-01 -.735E-07 -.219E-01
   -.991E+02 -.183E-04 -.574E+03   0.995E+02 0.607E-06 0.577E+03   0.562E+00 0.000E+00 -.344E+01   -.269E-02 -.164E-07 -.189E-01
   -.314E+03 0.522E-05 0.662E+03   0.317E+03 0.376E-06 -.664E+03   -.434E+00 0.000E+00 0.110E+01   0.115E-01 0.642E-08 -.277E-02
   -.700E+02 0.554E-05 -.118E+04   0.714E+02 0.226E-06 0.118E+04   -.656E+00 0.000E+00 -.209E+01   0.171E-01 0.394E-07 0.100E-01
   -.343E+03 0.111E+03 0.124E+04   0.344E+03 -.110E+03 -.125E+04   -.733E+00 -.125E+01 0.239E+01   0.492E-02 -.176E-03 -.136E-01
   -.517E+02 -.125E+03 -.211E+03   0.528E+02 0.127E+03 0.211E+03   -.909E+00 -.110E+01 -.112E+01   0.812E-02 0.732E-02 0.122E-02
   0.193E+03 -.226E+03 0.764E+03   -.194E+03 0.229E+03 -.767E+03   -.502E+00 -.121E+01 0.286E+01   -.168E-01 0.522E-04 -.151E-01
   0.202E+03 0.387E+02 -.121E+04   -.203E+03 -.376E+02 0.121E+04   0.107E+00 -.534E+00 -.253E+01   -.155E-01 -.304E-03 -.104E-01
   -.296E+01 -.196E+03 0.458E+03   0.163E+01 0.197E+03 -.460E+03   0.167E+00 -.351E+00 0.195E+01   -.246E-01 -.118E-01 -.139E-01
   -.191E+03 0.568E+02 -.147E+04   0.192E+03 -.556E+02 0.147E+04   -.109E+01 -.964E+00 -.197E+01   -.113E-01 -.626E-02 0.122E-02
   0.248E+03 -.229E+03 -.286E+03   -.249E+03 0.231E+03 0.285E+03   -.496E-01 -.665E+00 -.604E+00   0.196E-01 -.408E-02 0.314E-02
   0.359E+03 -.346E+03 0.139E+04   -.362E+03 0.349E+03 -.139E+04   0.800E+00 -.154E+01 0.802E+00   0.213E-01 0.847E-02 -.120E-01
   0.398E+03 -.160E+03 0.104E+04   -.399E+03 0.161E+03 -.105E+04   -.111E+00 0.161E-01 0.160E+01   0.276E-01 -.419E-01 -.401E-01
   0.167E+03 -.248E+01 -.902E+03   -.167E+03 0.348E+01 0.904E+03   -.108E+01 -.175E+01 -.125E+01   0.370E-02 0.321E-02 -.142E-01
   -.592E+02 -.161E+03 0.272E+03   0.576E+02 0.163E+03 -.273E+03   -.121E-01 -.146E+01 0.124E+01   -.146E-01 0.299E-02 -.256E-02
   -.397E+02 -.246E+03 -.155E+04   0.387E+02 0.249E+03 0.155E+04   0.349E+00 -.276E+01 -.678E+00   -.418E-02 0.166E-02 0.115E-01
   0.193E+03 0.226E+03 0.764E+03   -.194E+03 -.229E+03 -.767E+03   -.502E+00 0.121E+01 0.286E+01   -.168E-01 -.522E-04 -.151E-01
   0.202E+03 -.387E+02 -.121E+04   -.203E+03 0.376E+02 0.121E+04   0.107E+00 0.534E+00 -.253E+01   -.155E-01 0.304E-03 -.104E-01
   -.343E+03 -.111E+03 0.124E+04   0.344E+03 0.110E+03 -.125E+04   -.733E+00 0.125E+01 0.239E+01   0.492E-02 0.176E-03 -.136E-01
   -.517E+02 0.125E+03 -.211E+03   0.528E+02 -.127E+03 0.211E+03   -.909E+00 0.110E+01 -.112E+01   0.812E-02 -.732E-02 0.122E-02
   0.248E+03 0.229E+03 -.286E+03   -.249E+03 -.231E+03 0.285E+03   -.496E-01 0.665E+00 -.604E+00   0.196E-01 0.408E-02 0.314E-02
   0.359E+03 0.346E+03 0.139E+04   -.362E+03 -.349E+03 -.139E+04   0.800E+00 0.154E+01 0.802E+00   0.213E-01 -.847E-02 -.120E-01
   -.296E+01 0.196E+03 0.458E+03   0.163E+01 -.197E+03 -.460E+03   0.167E+00 0.351E+00 0.195E+01   -.246E-01 0.118E-01 -.139E-01
   -.191E+03 -.568E+02 -.147E+04   0.192E+03 0.556E+02 0.147E+04   -.109E+01 0.964E+00 -.197E+01   -.113E-01 0.626E-02 0.122E-02
   -.592E+02 0.161E+03 0.272E+03   0.576E+02 -.163E+03 -.273E+03   -.121E-01 0.146E+01 0.124E+01   -.146E-01 -.299E-02 -.256E-02
   -.397E+02 0.246E+03 -.155E+04   0.387E+02 -.249E+03 0.155E+04   0.349E+00 0.276E+01 -.678E+00   -.418E-02 -.166E-02 0.115E-01
   0.398E+03 0.160E+03 0.104E+04   -.399E+03 -.161E+03 -.105E+04   -.111E+00 -.161E-01 0.160E+01   0.276E-01 0.419E-01 -.401E-01
   0.167E+03 0.248E+01 -.902E+03   -.167E+03 -.348E+01 0.904E+03   -.108E+01 0.175E+01 -.125E+01   0.370E-02 -.321E-02 -.142E-01
   -.112E+02 -.163E-01 0.106E+02   0.159E-11 -.626E-12 0.136E-11   0.114E+02 -.178E-14 -.943E+01   -.269E+00 -.835E-06 -.118E+01

 POSITION                                       TOTAL-FORCE (eV/Angst)
     12.86884      1.39171      2.93714         0.875404      0.000000      0.630669
     13.88597      1.39171      5.28280        -0.654732      0.000000      1.552047
      3.82733      6.18092      1.59915         0.790485      0.000000     -0.067638
      5.02033      6.18092      3.59863         0.223254      0.000000      0.061280
      7.02872      1.39171      1.86035         0.171121      0.000000     -1.063123
      7.93172      1.39171      4.11272        -0.525145      0.000000     -0.892334
     16.08224      6.18092      2.57045        -0.573643      0.000000      2.921537
     16.44721      6.18092      5.27366        -1.563005      0.000000      0.625879
      3.07305      1.39171      0.82065        -0.484378      0.000000     -1.963261
      2.10894      1.39171      3.08454         0.439520      0.000000      1.134262
      0.93907      1.39171      5.18081         1.643013      0.000000      0.629815
      9.67072      6.18092      2.66287         0.088729      0.000000     -0.516622
     10.84312      6.18092      4.62682        -0.978705      0.000000     -0.854465
     15.88934      0.04247      4.47505         0.194415     -1.650343     -0.528932
      6.65286      4.95920      0.65490         0.275892     -0.512495     -1.053656
      7.17375      4.91558      3.19116         0.291444     -0.166987     -1.106802
      7.86452      4.44721      5.47460        -0.189581      0.727376      0.808585
      9.53793      0.18762      1.14566         0.218474     -0.514853     -1.276846
     10.08514      0.12638      3.70525         0.734950     -0.523120     -1.549012
      1.35096      4.91558      2.16298         1.128217     -0.468387      1.873679
      1.89681      4.83172      4.89688         1.011346     -1.147846      0.407628
      4.26235      0.12638      2.67707         0.511512     -0.945385      1.070498
      4.91593      9.36408      5.08080         0.104532     -0.138595      0.986800
     12.62329      4.74473      1.72679        -0.320310      0.776016     -1.098261
     12.99653      4.91558      4.21934         0.585327      0.156980     -1.504382
     15.88934      2.74096      4.47505         0.194415      1.650343     -0.528932
      6.65286      7.40263      0.65490         0.275892      0.512495     -1.053656
      7.17375      7.44626      3.19116         0.291444      0.166987     -1.106802
      7.86452      7.91463      5.47460        -0.189581     -0.727376      0.808585
      9.53793      2.59581      1.14566         0.218474      0.514853     -1.276846
     10.08514      2.65705      3.70525         0.734950      0.523120     -1.549012
      1.35096      7.44626      2.16298         1.128217      0.468387      1.873679
      1.89681      7.53012      4.89688         1.011346      1.147846      0.407628
      4.26235      2.65705      2.67707         0.511512      0.945385      1.070498
      4.91593      2.99776      5.08080         0.104532      0.138595      0.986800
     12.62329      7.61711      1.72679        -0.320310     -0.776016     -1.098261
     12.99653      7.44626      4.21934         0.585327     -0.156980     -1.504382
     15.90751      1.39171      6.03470         0.326586      0.000000      4.513510
      0.05057      1.39171      3.29832        -0.042774      0.000000     -2.483529
      8.00634      6.18092      1.51374         1.613329      0.000000     -1.741738
      8.59001      6.18092      4.59828         1.177382      0.000000      0.970022
     10.91773      1.39171      2.02783         0.183193      0.000000     -1.069009
     11.58652      1.39171      4.63193         0.062616      0.000000      2.852737
      2.03655      6.18092      0.67674        -0.057861      0.000000     -3.976520
      2.76722      6.18092      3.57010         1.632207      0.000000     -1.124072
      1.32141      6.18092      6.32796         0.738697      0.000000      4.212689
      5.07868      1.39171      1.18096         1.613383      0.000000     -2.653172
      5.67861      1.39171      4.08419         0.982417      0.000000      0.206904
     13.82913      6.18092      2.54192         2.046830      0.000000     -0.772575
     14.35238      6.18092      5.22856         0.757979      0.000000      2.643817
     13.21213      2.85164      1.48539         0.927951     -0.166603     -2.387535
     13.86998      3.01340      4.04890         0.114724      1.271657     -0.422744
      5.26426      7.79215      2.03261        -1.622521      1.201982     -0.075370
      5.91748      7.59753      4.91831        -1.097883      0.576034      1.875536
      8.17565      3.00295      2.54670        -1.191083      1.557496      0.456388
      8.90827      2.74002      5.39324         0.299001      0.218978      2.912718
      0.02514      7.79215      4.08897        -1.323064      1.558132     -1.493875
     16.47214      7.60349      1.20744        -1.687468      1.919755     -3.093925
      2.36642      3.06484      1.77639        -0.941550      0.866493     -1.483427
      2.93654      3.00295      4.60306        -1.014551     -0.740332      1.049756
     11.08705      7.79215      3.06079        -1.601978      0.883894      0.014695
     11.74435      7.56554      5.80355        -0.650747      1.057691      3.729929
      5.26426      4.56969      2.03261        -1.622521     -1.201982     -0.075370
      5.91748      4.76431      4.91831        -1.097883     -0.576034      1.875536
     13.21213      9.51020      1.48539         0.927951      0.166603     -2.387535
     13.86998      9.34844      4.04890         0.114724     -1.271657     -0.422744
      0.02514      4.56969      4.08897        -1.323064     -1.558132     -1.493875
     16.47214      4.75835      1.20744        -1.687468     -1.919755     -3.093925
      8.17565      9.35889      2.54670        -1.191083     -1.557496      0.456388
      8.90827      0.04341      5.39324         0.299001     -0.218978      2.912718
     11.08705      4.56969      3.06079        -1.601978     -0.883894      0.014695
     11.74435      4.79629      5.80355        -0.650747     -1.057691      3.729929
      2.36642      9.29700      1.77639        -0.941550     -0.866493     -1.483427
      2.93654      9.35889      4.60306        -1.014551      0.740332      1.049756
    total drift:                               -0.041027     -0.016336     -0.035152

  FREE ENERGIE OF THE ION-ELECTRON SYSTEM (eV)
  free  energy   TOTEN  =      -347.83932775 eV

  energy  without entropy=     -346.63749868  energy(sigma->0) =     -347.23841322