 vasp.5.4.4.18Apr17-6-g9f103f2a35 (build Aug 13 2019 17:33:20) gamma-only

 executed on             LinuxIFC date 2020.05.10  13:34:34

 INCAR:
 POTCAR:    PAW_PBE Ni_pv 06Sep2000
 POTCAR:    PAW_PBE S 06Sep2000
 POTCAR:    PAW_PBE Ni_pv 06Sep2000
   VRHFIN =Ni:

   TITEL  = PAW_PBE Ni_pv 06Sep2000
   POMASS =   58.690; ZVAL   =   16.000    mass and valenz
   ENMAX  =  367.986; ENMIN  =  275.989 eV

 POTCAR:    PAW_PBE S 06Sep2000
   VRHFIN =S : s2p4

   TITEL  = PAW_PBE S 06Sep2000
   POMASS =   32.066; ZVAL   =    6.000    mass and valenz
   ENMAX  =  258.689; ENMIN  =  194.016 eV

 Optimization of the real space projectors (new method)

 maximal supplied QI-value         = 18.90
 optimisation between [QCUT,QGAM] = [ 10.77, 21.73] = [ 32.49,132.25] Ry
 Optimized for a Real-space Cutoff    1.38 Angstroem

   l    n(q)    QCUT    max X(q) W(low)/X(q) W(high)/X(q)  e(spline)
   1      8    10.771     2.836    0.40E-04    0.29E-04    0.12E-06
   1      8    10.771     4.023    0.10E-03    0.48E-04    0.29E-06
   2      8    10.771    73.368    0.42E-03    0.97E-04    0.44E-06
   2      8    10.771    69.010    0.42E-03    0.99E-04    0.45E-06
   0      9    10.771    54.797    0.10E-03    0.56E-04    0.74E-07
   0      9    10.771    24.266    0.89E-04    0.49E-04    0.67E-07
 Optimization of the real space projectors (new method)

 maximal supplied QI-value         = 19.84
 optimisation between [QCUT,QGAM] = [ 10.71, 21.63] = [ 32.15,130.99] Ry
 Optimized for a Real-space Cutoff    1.19 Angstroem

   l    n(q)    QCUT    max X(q) W(low)/X(q) W(high)/X(q)  e(spline)
   0      8    10.715   187.594    0.41E-03    0.53E-04    0.66E-07
   0      8    10.715   164.243    0.41E-03    0.53E-04    0.65E-07
   1      7    10.715    67.533    0.19E-03    0.59E-03    0.68E-07
   1      7    10.715    50.729    0.19E-03    0.58E-03    0.67E-07
  PAW_PBE Ni_pv 06Sep2000               :
  PAW_PBE S 06Sep2000                   :

 POSCAR: Type_048 Type_148
  positions in cartesian coordinates
 exchange correlation table for  LEXCH =        8
   RHO(1)=    0.500       N(1)  =     2000
   RHO(2)=  100.500       N(2)  =     4000

 ion  position               nearest neighbor table
   1  0.261  0.479  0.253-  75 2.25  59 2.26  81 2.26  55 2.36  60 2.36   7 2.53  21 2.53
   2  0.355  0.385  0.388-  76 2.25  55 2.26  60 2.26  61 2.36  67 2.36   3 2.38   8 2.53  22 2.53

   3  0.374  0.365  0.497-  53 2.04  61 2.09  67 2.09   2 2.38
   4  0.144  0.137  0.176-  65 1.96  57 2.01  49 2.18  56 2.26  25 2.38  36 2.44  82 2.57
   5  0.049  0.055  0.472-  50 2.05  78 2.08  74 2.10  79 2.15
   6  0.274  0.333  0.083-  56 2.06  58 2.07  51 2.15  52 2.36  59 2.36  28 2.46
   7  0.368  0.239  0.218-  57 2.25  59 2.26  52 2.26  60 2.36  62 2.36   1 2.53  21 2.53
   8  0.462  0.145  0.353-  80 2.25  60 2.26  62 2.26  61 2.36  63 2.36   2 2.53  22 2.53
   9  0.000  0.372  0.218-  59 2.25  65 2.26  93 2.26  49 2.36  68 2.36  13 2.53  19 2.53
  10  0.094  0.278  0.353-  60 2.25  49 2.26  68 2.26  54 2.36  50 2.36  20 2.53  14 2.53
  11  0.185  0.191  0.472-  50 2.05  78 2.08  54 2.10  61 2.15
  12  0.545  0.390  0.107-  52 2.01  71 2.03  69 2.17  72 2.19  51 2.25  30 2.39  18 2.42  21 2.50

[...]

  19  0.868  0.239  0.218-  70 2.25  72 2.26  65 2.26  73 2.36  49 2.36  13 2.53   9 2.53
  20  0.962  0.145  0.353-  91 2.25  73 2.26  49 2.26  74 2.36  50 2.36  14 2.53  10 2.53
  21  0.500  0.372  0.218-  72 2.25  52 2.26  81 2.26  62 2.36  55 2.36  16 2.42  12 2.50   1 2.53
                             7 2.53
  22  0.594  0.278  0.353-  73 2.25  62 2.26  55 2.26  67 2.36  63 2.36   8 2.53   2 2.53
  23  0.685  0.191  0.472-  63 2.05  89 2.08  67 2.10  74 2.15
  24  0.906  0.465  0.083-  64 2.02  92 2.05  58 2.12  65 2.36  93 2.36  40 2.53  18 2.53
  25  0.261  0.979  0.253-  49 2.25  82 2.26  57 2.26  80 2.36  83 2.36   4 2.38  31 2.53  45 2.53

[...]

  44  0.962  0.645  0.353-  68 2.25  95 2.26  75 2.26  96 2.36  76 2.36  38 2.53  34 2.53
  45  0.500  0.872  0.218-  94 2.25  77 2.26  57 2.26  85 2.36  80 2.36  25 2.53  31 2.53
  46  0.594  0.778  0.353-  95 2.25  85 2.26  80 2.26  90 2.36  86 2.36  32 2.53  26 2.53
  47  0.685  0.691  0.472-  86 2.05  66 2.08  90 2.10  96 2.15
  48  0.806  0.935  0.128-  87 2.01  70 2.03  88 2.06  94 2.06  42 2.45
  49  0.073  0.167  0.270-   4 2.18  25 2.25  10 2.26  20 2.26   9 2.36  19 2.36
  50  0.167  0.073  0.405-   5 2.05  11 2.05  26 2.25  10 2.36  20 2.36  78 2.69
  51  0.339  0.485  0.067-  28 2.11   6 2.15  30 2.21  12 2.25  81 2.64  52 2.73
  52  0.479  0.261  0.135-  16 1.96  12 2.01   7 2.26  21 2.26   6 2.36  69 2.56  51 2.73
  53  0.211  0.529  0.527-   3 2.04  29 2.08  35 2.08  76 2.69
  54  0.030  0.378  0.451-  15 2.09  11 2.10  29 2.15  10 2.36  14 2.36
  55  0.436  0.472  0.315-  32 2.25   2 2.26  22 2.26   1 2.36  21 2.36
  56  0.228  0.176  0.088-   6 2.06   4 2.26  57 2.41  36 2.64  65 2.73
  57  0.342  0.066  0.180-   4 2.01  36 2.04   7 2.25  25 2.26  45 2.26  56 2.41
  58  0.084  0.482  0.068-   6 2.07  24 2.12  28 2.12  59 2.66
  59  0.174  0.397  0.180-  28 2.11   9 2.25   7 2.26   1 2.26   6 2.36  58 2.66
  60  0.268  0.303  0.315-  10 2.25   2 2.26   8 2.26   7 2.36   1 2.36
  61  0.362  0.209  0.451-   3 2.09  17 2.10  11 2.15   8 2.36   2 2.36
  62  0.573  0.167  0.270-  16 2.17  37 2.25  22 2.26   8 2.26  21 2.36   7 2.36
  63  0.667  0.073  0.405-  17 2.05  23 2.05  38 2.25  22 2.36   8 2.36  89 2.69
  64  0.884  0.354  0.015-  18 2.00  24 2.02
  65  0.979  0.261  0.135-   4 1.96  19 2.26   9 2.26  18 2.36  24 2.36  56 2.73
  66  0.711  0.529  0.527-  15 2.04  41 2.08  47 2.08  86 2.69
  67  0.530  0.378  0.451-   3 2.09  23 2.10  41 2.15  22 2.36   2 2.36
  68  0.936  0.472  0.315-  44 2.25  14 2.26  10 2.26  13 2.36   9 2.36
  69  0.701  0.197  0.081-  18 2.04  12 2.17  16 2.29  52 2.56  70 2.70
  70  0.842  0.066  0.180-  16 1.96  48 2.03  19 2.25  37 2.26  33 2.26  69 2.70
  71  0.585  0.509  0.048-  12 2.03  40 2.07  30 2.16  18 2.29  92 2.75
  72  0.674  0.397  0.180-  12 2.19  21 2.25  19 2.26  13 2.26  18 2.36  40 2.36
  73  0.768  0.303  0.315-  22 2.25  14 2.26  20 2.26  19 2.36  13 2.36
  74  0.862  0.209  0.451-  15 2.09   5 2.10  23 2.15  20 2.36  14 2.36
  75  0.073  0.667  0.270-   1 2.25  34 2.26  44 2.26  33 2.36  43 2.36
  76  0.167  0.573  0.405-  35 2.05  29 2.05   2 2.25  34 2.36  44 2.36  53 2.69
  77  0.479  0.761  0.135-  36 2.03  30 2.12  40 2.25  31 2.26  45 2.26
  78  0.211  0.029  0.527-  27 2.04  11 2.08   5 2.08  50 2.69
  79  0.030  0.878  0.451-  39 2.09  35 2.10   5 2.15  34 2.36  38 2.36
  80  0.436  0.972  0.315-   8 2.25  26 2.26  46 2.26  25 2.36  45 2.36
  81  0.342  0.566  0.180-  30 2.09  28 2.17  31 2.25   1 2.26  21 2.26  51 2.64
  82  0.174  0.897  0.180-  36 2.04  33 2.25  31 2.26  25 2.26   4 2.57
  83  0.268  0.803  0.315-  34 2.25  26 2.26  32 2.26  31 2.36  25 2.36
  84  0.362  0.709  0.451-  27 2.09  41 2.10  35 2.15  32 2.36  26 2.36
  85  0.573  0.667  0.270-  13 2.25  46 2.26  32 2.26  45 2.36  31 2.36
  86  0.667  0.573  0.405-  47 2.05  41 2.05  14 2.25  46 2.36  32 2.36  66 2.69
  87  0.766  0.866  0.050-  48 2.01  42 2.03  92 2.75
  88  0.979  0.761  0.135-  48 2.06  42 2.19  43 2.26  33 2.26  28 2.41
  89  0.711  0.029  0.527-  39 2.04  23 2.08  17 2.08  63 2.69
  90  0.530  0.878  0.451-  27 2.09  47 2.10  17 2.15  46 2.36  26 2.36
  91  0.936  0.972  0.315-  20 2.25  38 2.26  34 2.26  37 2.36  33 2.36
  92  0.751  0.629  0.046-  42 2.05  24 2.05  40 2.08  87 2.75  71 2.75
  93  0.842  0.566  0.180-  42 2.16  43 2.25  13 2.26   9 2.26  40 2.36  24 2.36
  94  0.674  0.897  0.180-  48 2.06  45 2.25  43 2.26  37 2.26  42 2.43
  95  0.768  0.803  0.315-  46 2.25  38 2.26  44 2.26  43 2.36  37 2.36
  96  0.862  0.709  0.451-  39 2.09  29 2.10  47 2.15  44 2.36  38 2.36

  LATTYP: Found a base centered orthorhombic cell.
 ALAT       =    11.8257374459
 B/A-ratio  =     1.6199260857
 C/A-ratio  =     1.8387210052

  Lattice vectors:

 A1 = (  11.2564630382,   0.0000000000,   0.0000000000)
 A2 = (  -5.0445621212, -10.0628203371,   0.0000000000)
 A3 = (   0.0000000000,   0.0000000000, -21.7442318436)

Analysis of symmetry for initial positions (statically):
 Subroutine PRICEL returns:
 Original cell was already a primitive cell.

 Routine SETGRP: Setting up the symmetry group for a
 base centered orthorhombic supercell.

 Subroutine GETGRP returns: Found  1 space group operations
 (whereof  1 operations were pure point group operations)
 out of a pool of  8 trial point group operations.

The static configuration has the point symmetry C_1 .

Analysis of symmetry for dynamics (positions and initial velocities):
 Subroutine PRICEL returns:
 Original cell was already a primitive cell.

 Routine SETGRP: Setting up the symmetry group for a
 base centered orthorhombic supercell.

 Subroutine GETGRP returns: Found  1 space group operations
 (whereof  1 operations were pure point group operations)
 out of a pool of  8 trial point group operations.

The dynamic configuration has the point symmetry C_1 .

 Subroutine INISYM returns: Found  1 space group operations
 (whereof  1 operations are pure point group operations),
 and found     1 'primitive' translations

 KPOINTS: gamma-point-only calculation. no periodi

Automatic generation of k-mesh.
Space group operators:
 irot       det(A)        alpha          n_x          n_y          n_z        tau_x        tau_y        tau_z
    1     1.000000     0.000000     1.000000     0.000000     0.000000     0.000000     0.000000     0.000000

 Subroutine IBZKPT returns following result:

 Found      1 irreducible k-points:

 Following reciprocal coordinates:
            Coordinates               Weight
  0.000000  0.000000  0.000000      1.000000

 Following cartesian coordinates:
            Coordinates               Weight
  0.000000  0.000000  0.000000      1.000000

 SYSTEM =  "Millerite NiS"
 POSCAR =  Type_048 Type_148

 Startparameter for this run:
   NWRITE =      2    write-flag & timer
   PREC   = normal    normal or accurate (medium, high low for compatibility)
   ISTART =      0    job   : 0-new  1-cont  2-samecut
   ICHARG =      2    charge: 1-file 2-atom 10-const
   ISPIN  =      1    spin polarized calculation?
   LNONCOLLINEAR =      F non collinear calculations
   LSORBIT =      F    spin-orbit coupling
   INIWAV =      1    electr: 0-lowe 1-rand  2-diag
   LASPH  =      F    aspherical Exc in radial PAW
   METAGGA=      F    non-selfconsistent MetaGGA calc.

 Electronic Relaxation 1
   ENCUT  =  450.0 eV  33.07 Ry    5.75 a.u.  19.47 19.47 37.61*2*pi/ulx,y,z
   ENINI  =  450.0     initial cutoff
   ENAUG  =  703.4 eV  augmentation charge cutoff
   NELM   =    100;   NELMIN=  2; NELMDL= -5     # of ELM steps
   EDIFF  = 0.1E-03   stopping-criterion for ELM
   LREAL  =      T    real-space projection
   NLSPLINE    = F    spline interpolate recip. space projectors
   LCOMPAT=      F    compatible to vasp.4.4
   GGA_COMPAT  = T    GGA compatible to vasp.4.4-vasp.4.6
   LMAXPAW     = -100 max onsite density
   LMAXMIX     =    2 max onsite mixed and CHGCAR
   VOSKOWN=      0    Vosko Wilk Nusair interpolation
   ROPT   =   -0.00050  -0.00050
 Ionic relaxation
[...]
     0.000000000  0.000000000 21.744231844     0.000000000  0.000000000  0.045989208

  length of vectors
    11.256463038 11.256463038 21.744231844     0.099375718  0.099375718  0.045989208

 FORCES acting on ions
    electron-ion (+dipol)            ewald-force                    non-local-force                 convergence-correction
   0.293E+03 -.472E+03 0.684E+03   -.295E+03 0.472E+03 -.680E+03   0.164E+01 -.282E-01 -.279E+01   0.125E+00 0.336E-01 -.276E+00
   0.248E+03 -.394E+03 -.239E+04   -.249E+03 0.395E+03 0.239E+04   0.574E+00 -.923E+00 0.126E+00   0.995E-02 0.473E-01 -.583E+00
   -.104E+02 0.183E+02 -.563E+04   0.776E+01 -.144E+02 0.563E+04   0.310E+01 -.466E+01 0.673E+00   0.313E-01 0.867E-02 0.296E-01
   0.179E+03 0.127E+03 0.355E+04   -.181E+03 -.127E+03 -.355E+04   0.140E+01 0.145E+00 0.557E-01   0.109E+00 -.347E+00 -.132E+00
   0.300E+03 0.238E+03 -.489E+04   -.304E+03 -.241E+03 0.490E+04   0.350E+01 0.332E+01 -.214E+01   0.876E-01 -.550E-01 -.901E-01
   0.222E+02 0.661E+03 0.552E+04   -.238E+02 -.666E+03 -.552E+04   0.177E+01 0.396E+01 0.322E+01   0.163E+00 0.516E-01 -.132E+00
   0.366E+03 0.533E+03 0.200E+04   -.368E+03 -.531E+03 -.200E+04   0.163E+01 -.153E+01 0.272E+00   0.233E+00 0.435E-01 -.170E+00
   0.289E+03 0.459E+03 -.140E+04   -.291E+03 -.459E+03 0.140E+04   0.185E+01 0.200E+00 0.751E+00   -.222E-01 -.972E-01 -.429E+00
   -.501E+03 -.202E+03 0.181E+04   0.501E+03 0.204E+03 -.181E+04   -.657E+00 -.130E+01 -.474E-01   0.689E-01 0.246E+00 -.640E-01
   -.511E+03 -.468E+02 -.142E+04   0.513E+03 0.481E+02 0.142E+04   -.124E+01 -.125E+01 0.134E+01   -.447E-01 -.798E-01 -.155E+00
   -.340E+03 -.164E+03 -.490E+04   0.345E+03 0.167E+03 0.490E+04   -.461E+01 -.181E+01 -.228E+01   -.138E+00 -.182E+00 -.767E-01
   0.376E+03 0.262E+03 0.500E+04   -.377E+03 -.261E+03 -.501E+04   0.117E+01 -.641E+00 0.413E+01   -.191E-01 -.748E-01 -.107E+00
   0.188E+03 -.448E+03 0.630E+03   -.189E+03 0.448E+03 -.627E+03   0.649E+00 -.740E+00 -.216E+01   -.153E+00 0.116E+00 -.119E+00
   0.222E+03 -.387E+03 -.239E+04   -.222E+03 0.388E+03 0.239E+04   0.526E+00 -.103E+01 0.215E+00   0.146E-01 -.507E-01 -.236E+00
   -.168E+02 0.204E+02 -.563E+04   0.142E+02 -.165E+02 0.563E+04   0.307E+01 -.466E+01 0.670E+00   -.146E-01 -.107E-01 -.549E-02
   0.162E+03 0.379E+03 0.328E+04   -.163E+03 -.381E+03 -.328E+04   0.629E+00 0.805E+00 -.131E+00   -.428E-01 -.130E+00 -.260E+00
   0.306E+03 0.236E+03 -.490E+04   -.310E+03 -.239E+03 0.490E+04   0.358E+01 0.329E+01 -.225E+01   -.881E-01 -.223E+00 -.878E-01
   -.193E+03 0.939E+03 0.530E+04   0.196E+03 -.943E+03 -.531E+04   -.206E+01 0.485E+01 0.523E+01   -.162E+00 -.473E-01 -.275E+00
   0.138E+03 0.572E+03 0.192E+04   -.138E+03 -.570E+03 -.192E+04   0.696E+00 -.894E+00 0.203E+00   -.332E+00 -.141E+00 -.154E+00
   0.249E+03 0.469E+03 -.140E+04   -.251E+03 -.469E+03 0.140E+04   0.184E+01 0.175E+00 0.750E+00   0.231E-01 -.824E-01 -.179E+00
   -.207E+03 -.290E+03 0.148E+04   0.207E+03 0.293E+03 -.147E+04   -.200E+00 -.216E+01 -.250E+01   -.104E+00 0.743E-02 -.256E+00
   -.493E+03 -.476E+02 -.147E+04   0.494E+03 0.486E+02 0.147E+04   -.119E+01 -.109E+01 0.150E+01   0.504E-01 -.175E-01 -.418E+00
   -.341E+03 -.163E+03 -.491E+04   0.345E+03 0.166E+03 0.491E+04   -.451E+01 -.174E+01 -.234E+01   0.165E+00 -.468E-01 -.978E-01
   -.668E+03 0.229E+03 0.516E+04   0.674E+03 -.232E+03 -.516E+04   -.457E+01 0.187E+01 0.350E+01   -.723E-01 0.109E+00 -.346E+00
   0.224E+03 -.130E+03 0.603E+03   -.225E+03 0.128E+03 -.599E+03   0.791E+00 0.957E+00 -.346E+01   0.562E-01 -.368E+00 0.412E-02
   0.236E+03 -.365E+03 -.236E+04   -.237E+03 0.366E+03 0.235E+04   0.816E+00 -.108E+01 0.433E-02   -.998E-02 -.660E-01 -.197E+00
   -.117E+02 0.238E+02 -.562E+04   0.929E+01 -.194E+02 0.562E+04   0.290E+01 -.506E+01 0.822E+00   -.204E-01 -.170E-01 0.121E-01
   0.128E+03 -.804E+03 0.422E+04   -.130E+03 0.809E+03 -.422E+04   0.163E+01 -.328E+01 -.191E+00   0.742E-01 0.109E+00 -.112E+00
   0.300E+03 0.223E+03 -.489E+04   -.304E+03 -.226E+03 0.489E+04   0.349E+01 0.338E+01 -.230E+01   -.143E+00 0.742E-01 -.135E+00
   0.471E+03 -.951E+03 0.516E+04   -.468E+03 0.952E+03 -.516E+04   -.341E+01 -.946E+00 0.203E+01   -.394E-01 -.295E-01 -.541E-01
   0.374E+03 0.268E+03 0.185E+04   -.376E+03 -.269E+03 -.185E+04   0.139E+01 0.680E+00 -.164E+01   -.879E-01 0.961E-01 -.149E+00
   0.267E+03 0.396E+03 -.138E+04   -.268E+03 -.397E+03 0.137E+04   0.106E+01 0.416E+00 0.206E+01   -.299E-02 0.143E+00 -.248E+00
   -.764E+03 0.746E+01 0.220E+04   0.767E+03 -.822E+01 -.220E+04   -.194E+01 0.737E+00 -.588E+00   -.118E+00 -.558E-01 -.245E+00
   -.511E+03 -.344E+02 -.133E+04   0.511E+03 0.349E+02 0.132E+04   -.636E+00 -.571E+00 0.192E+01   0.249E-01 0.644E-01 -.376E+00
   -.339E+03 -.172E+03 -.488E+04   0.344E+03 0.174E+03 0.489E+04   -.458E+01 -.159E+01 -.230E+01   0.136E+00 0.227E+00 -.141E+00
   0.143E+03 -.633E+02 0.537E+04   -.145E+03 0.622E+02 -.538E+04   0.190E+01 0.188E+01 0.522E+01   0.890E-01 -.315E+00 -.127E+00
   0.199E+03 -.121E+03 0.547E+03   -.200E+03 0.120E+03 -.543E+03   0.495E+00 0.552E+00 -.351E+01   0.394E-01 -.101E+00 -.377E+00
   0.219E+03 -.353E+03 -.236E+04   -.220E+03 0.355E+03 0.236E+04   0.655E+00 -.109E+01 -.129E+00   0.558E-01 -.460E-01 -.409E+00
   -.164E+02 0.266E+02 -.563E+04   0.138E+02 -.226E+02 0.563E+04   0.300E+01 -.475E+01 0.790E+00   0.144E-01 0.278E-02 -.470E-02
   0.954E+02 -.709E+03 0.408E+04   -.946E+02 0.710E+03 -.408E+04   -.844E-01 -.148E+01 -.669E-01   -.737E-01 0.499E-01 -.251E+00
   0.304E+03 0.219E+03 -.489E+04   -.308E+03 -.223E+03 0.490E+04   0.354E+01 0.334E+01 -.231E+01   0.770E-01 0.217E+00 -.840E-01
   -.424E+01 -.323E+03 0.483E+04   0.345E+01 0.322E+03 -.483E+04   0.289E+00 -.213E-01 0.385E+01   0.141E+00 0.448E+00 -.283E+00
   0.830E+02 0.415E+03 0.163E+04   -.832E+02 -.417E+03 -.163E+04   0.193E+00 0.175E+01 -.241E+01   0.113E+00 0.265E+00 -.299E+00
   0.238E+03 0.420E+03 -.136E+04   -.239E+03 -.421E+03 0.136E+04   0.103E+01 0.571E+00 0.212E+01   0.267E-01 0.110E+00 -.335E+00
   -.590E+03 -.107E+03 0.211E+04   0.592E+03 0.107E+03 -.211E+04   -.179E+01 0.632E+00 -.230E+01   -.618E-01 0.317E-01 -.197E+00
   -.497E+03 -.439E+02 -.136E+04   0.497E+03 0.444E+02 0.136E+04   -.423E+00 -.619E+00 0.181E+01   -.879E-01 0.291E-01 -.213E+00
   -.340E+03 -.172E+03 -.489E+04   0.345E+03 0.174E+03 0.489E+04   -.456E+01 -.169E+01 -.228E+01   -.137E+00 0.590E-01 -.848E-01
   -.297E+03 -.330E+03 0.505E+04   0.298E+03 0.335E+03 -.506E+04   -.503E+00 -.318E+01 0.904E+01   -.101E+00 -.120E+00 -.315E+00
   -.152E+02 0.127E+03 0.164E+03   0.154E+02 -.129E+03 -.163E+03   -.354E+00 0.178E+01 -.577E+00   -.203E-01 -.988E-01 0.127E+00
   -.771E+02 0.132E+03 -.907E+03   0.782E+02 -.134E+03 0.902E+03   -.663E+00 0.111E+01 0.143E+01   -.101E-01 -.413E-01 -.100E+00
   0.756E+02 -.119E+03 0.232E+04   -.761E+02 0.120E+03 -.233E+04   0.890E+00 0.226E+00 0.460E+01   0.119E-01 -.117E-01 -.232E-01
   0.284E+03 0.309E+03 0.181E+04   -.286E+03 -.313E+03 -.182E+04   -.248E+01 0.325E+01 0.252E+01   0.277E-01 0.105E-01 -.345E-01
   -.422E+01 0.555E+01 -.235E+04   0.475E+01 -.653E+01 0.235E+04   -.320E+00 0.563E+00 -.213E+01   -.347E-01 0.992E-01 0.124E+00
   -.127E+03 -.112E+03 -.158E+04   0.128E+03 0.114E+03 0.158E+04   -.154E+01 -.576E+00 -.164E+01   -.410E-01 -.304E-01 -.930E-01
   -.587E+02 -.180E+03 -.224E+03   0.597E+02 0.183E+03 0.224E+03   -.100E+01 -.291E+01 0.592E-01   -.690E-03 0.290E-01 -.155E+00
   0.293E+02 0.250E+03 0.214E+04   -.298E+02 -.251E+03 -.215E+04   0.101E+00 -.939E+00 0.468E+01   0.101E+00 -.170E-01 -.170E+00
   -.319E+03 -.676E+02 0.128E+04   0.324E+03 0.690E+02 -.128E+04   -.845E+00 -.591E+00 0.268E+00   0.158E+00 -.120E+00 -.346E-01
   -.100E+02 -.114E+03 0.219E+04   0.959E+01 0.117E+03 -.219E+04   -.288E+00 -.160E+01 0.275E+01   0.386E-01 0.552E-01 -.709E-01
   0.154E+03 0.139E+02 0.105E+04   -.156E+03 -.161E+02 -.105E+04   0.191E+01 0.147E+01 0.557E+00   0.147E+00 0.633E-01 -.593E-01
   0.170E+03 -.101E+02 -.209E+03   -.173E+03 0.944E+01 0.209E+03   0.271E+01 0.681E+00 0.317E+00   0.173E-01 -.896E-02 -.129E+00
[...]
   0.182E+03 -.143E+01 -.179E+03   -.185E+03 0.139E+01 0.179E+03   0.312E+01 0.307E-01 0.814E-01   0.131E-01 0.238E-01 -.115E+00
   0.157E+03 0.598E+02 -.157E+04   -.159E+03 -.606E+02 0.157E+04   0.110E+01 0.999E+00 -.174E+01   0.717E-01 0.829E-01 -.552E-01
   -.762E+02 0.827E+02 0.284E+03   0.775E+02 -.843E+02 -.286E+03   -.129E+01 0.139E+01 0.254E+01   -.571E-01 0.574E-01 -.526E-01
   -.783E+02 0.119E+03 -.905E+03   0.796E+02 -.120E+03 0.901E+03   -.722E+00 0.107E+01 0.909E+00   -.182E-01 0.397E-01 -.807E-01
   0.553E+02 -.224E+03 0.238E+04   -.557E+02 0.226E+03 -.238E+04   -.318E+00 -.135E+01 0.135E+01   0.387E-01 0.470E-01 0.217E-01
   -.410E+03 0.256E+02 0.180E+04   0.414E+03 -.271E+02 -.180E+04   -.191E+01 -.558E+00 0.417E+01   -.487E-01 0.113E+00 -.619E-01
   -.469E+01 0.912E+01 -.235E+04   0.510E+01 -.100E+02 0.236E+04   -.274E+00 0.598E+00 -.213E+01   0.794E-02 -.194E-01 0.100E+00
   -.124E+03 -.109E+03 -.157E+04   0.126E+03 0.111E+03 0.157E+04   -.141E+01 -.546E+00 -.179E+01   -.876E-01 -.513E-01 -.498E-01
   -.948E+02 -.125E+03 -.188E+03   0.961E+02 0.128E+03 0.188E+03   -.147E+01 -.240E+01 -.278E+00   0.107E-01 -.367E-01 -.115E+00
   0.655E+02 -.339E+03 0.242E+04   -.667E+02 0.341E+03 -.243E+04   0.624E+00 -.729E+00 0.293E+01   0.225E-01 0.754E-01 -.681E-01
   -.623E+02 -.702E+02 0.913E+03   0.624E+02 0.699E+02 -.911E+03   -.241E+00 -.179E+00 -.105E+01   0.205E-01 0.122E+00 -.990E-01
   0.357E+03 -.104E+03 0.120E+04   -.361E+03 0.105E+03 -.120E+04   0.224E+01 -.219E+01 0.264E+01   0.103E+00 0.273E-01 -.140E+00
   0.171E+03 0.332E+01 -.200E+03   -.174E+03 -.332E+01 0.201E+03   0.334E+01 -.325E-01 -.424E+00   0.159E-01 0.158E-01 -.110E+00
   0.154E+03 0.618E+02 -.157E+04   -.156E+03 -.626E+02 0.157E+04   0.114E+01 0.118E+01 -.175E+01   -.437E-01 0.436E-02 -.973E-01
   -.108E+02 0.112E+02 -.311E+02   -.227E-12 0.118E-11 0.241E-10   0.106E+02 -.112E+02 0.436E+02   -.690E-01 0.501E-01 -.125E+02

 POSITION                                       TOTAL-FORCE (eV/Angst)
      5.35228      4.81788      5.50842        -0.393981      0.122904      0.053888
      5.93595      3.87238      8.44448        -0.097909      0.063184     -0.994679
      6.05705      3.67617     10.81225         0.469267     -0.713616      0.794661
      2.31440      1.38342      3.81761        -0.216262     -0.866351     -0.231218
      0.82568      0.54844     10.27283        -0.468823     -0.000417      0.524098
      4.76861      3.35453      1.79664         0.401858     -0.623212      0.729190
      5.35228      2.40903      4.73270         0.163265      0.220819      0.482913
      5.93595      1.46353      7.66876        -0.103240     -0.094576      0.068084
      1.87746      3.73836      4.73270         0.119680      0.325667      0.275622
      2.46113      2.79286      7.66876         0.129842      0.019976     -0.050491
      3.04706      1.91970     10.27289         0.248719      0.466552      0.479848
      8.10694      3.92521      2.31745        -0.550367      0.516508     -0.971180
     10.98051      4.81788      5.50842        -0.243710      0.200356      0.328255
     11.56418      3.87238      8.44448        -0.096312     -0.009502     -0.984529
     11.68527      3.67622     10.81221         0.432321     -0.718193      0.790111
      8.06841      1.55374      3.85552        -0.380631     -1.260866     -0.063282
      6.45388      0.54842     10.27282        -0.513768     -0.013803      0.471359
     10.39684      3.35453      1.79664         0.147010      0.499462      1.402622
     10.98051      2.40903      4.73270        -0.052357      0.100845      0.281195
     11.56418      1.46353      7.66876        -0.167420     -0.149795      0.036890
      7.50570      3.73836      4.73270        -0.307825      0.768276      0.750413
      8.08937      2.79286      7.66876         0.133421     -0.079098     -0.041169
      8.67526      1.91964     10.27303         0.294950      0.494788      0.479393
     12.55026      4.68386      1.79664         1.213897     -0.425571      2.019470
      7.87456      9.84929      5.50842        -0.128337     -0.644566      1.100683
      8.45823      8.90379      8.44448        -0.107272      0.069867     -0.901009
      8.57958      8.70725     10.81231         0.417576     -0.728416      0.814955
      4.82594      5.58574      2.84062        -0.143360      1.732919      0.452541
      3.34782      5.57987     10.27180        -0.524028     -0.014406      0.445066
      7.77033      6.29181      2.22385        -0.237233      0.602263     -0.517739
      7.87456      7.44044      4.73270        -0.422537     -0.125365      0.312636
      8.45823      6.49494      7.66876         0.064245     -0.061714     -0.012113
      4.39975      8.76977      4.73270         0.287138     -0.080077      0.195238
      4.98341      7.82427      7.66876        -0.033479     -0.071176     -0.105643
      5.56936      6.95127     10.27179         0.251244      0.522106      0.479522
      8.16088      9.37510      2.81934        -0.150974      0.413931     -1.860724
     13.50279      9.84929      5.50842        -0.188503     -0.572947      0.603734
     14.08646      8.90379      8.44448        -0.091455      0.100901     -0.956177
     14.20779      8.70728     10.81230         0.442068     -0.692938      0.822436
     10.39684      5.76338      2.57236         0.587356      0.155929      1.776979
      8.97609      5.57991     10.27183        -0.515660      0.001698      0.447238
     12.76880      7.21054      2.44626        -0.352863     -0.551450      0.430327
     13.50279      7.44044      4.73270         0.042766     -0.042814      0.928074
     14.08646      6.49494      7.66876         0.120931     -0.082526      0.000587
     10.02798      8.76977      4.73270         0.446691      0.036156      0.420447
     10.61165      7.82427      7.66876        -0.030710     -0.086543     -0.093248
     11.19761      6.95126     10.27177         0.249459      0.501757      0.480589
     13.79350      9.41174      2.79117         0.733025      1.231356     -0.474919
      1.66190      1.67871      5.87212        -0.155426      0.192650      0.736294
      2.24556      0.73321      8.80817         0.494788     -0.767892     -3.128249
      6.25601      4.87628      1.45748         0.381630      0.549305     -3.140689
      6.70646      2.62422      2.93606        -5.022072     -1.106305     -0.902739
      5.03934      5.32480     11.44981         0.174413     -0.313856      2.746590
      2.24556      3.80055      9.79595         0.093736      1.031337     -0.066505
      7.29013      4.74605      6.85989        -0.001333      0.048424      0.037320
      3.45607      1.77321      1.91189        -0.271520     -2.001892     -1.369038
      4.18418      0.66015      3.92384         3.921581      0.770369      1.303757
      3.37946      4.85129      1.47084        -0.661652      0.698856     -2.047655
      3.96438      3.99884      3.92384        -0.205980     -0.703228      2.097010
      4.54805      3.05334      6.85989        -0.045729     -0.042755      0.077256
[...]
      6.48666      9.03025      3.92384        -1.994316     -0.103651      0.722210
      7.07033      8.08475      6.85989         0.176083      0.013030      0.020889
      7.65400      7.13925      9.79595        -0.995498      0.330970     -0.170956
      9.81241      6.71012      5.87212         0.015571     -0.184051      0.193118
     10.39608      5.76462      8.80817         0.471090     -0.728420     -3.125156
     12.98874      8.71118      1.09065        -0.710058      0.998390     -3.919837
     14.85697      7.65563      2.93606         2.619365     -1.960511      0.280975
      8.14544      0.29293     11.45032         0.147920     -0.307283      2.733364
     10.39608      8.83196      9.79595         0.187022      1.037249     -0.142846
     15.44064      9.77746      6.85989        -0.085093      0.049404      0.015775
     11.62777      6.32575      0.99636        -0.588101      1.298774     -2.760484
     12.33469      5.69156      3.92384        -0.124660     -0.405139      1.146800
     12.11489      9.03025      3.92384        -2.371567     -0.412794      1.667115
     12.69856      8.08475      6.85989         0.163794     -0.019042     -0.024552
     13.28223      7.13925      9.79595        -0.998424      0.360121     -0.132290
    total drift:                               -0.225705      0.057110      0.089668

  FREE ENERGIE OF THE ION-ELECTRON SYSTEM (eV)
  free  energy   TOTEN  =      -469.88458555 eV

  energy  without entropy=     -468.64813879  energy(sigma->0) =     -469.26636217