 vasp.5.4.4.18Apr17-6-g9f103f2a35 (build Aug 13 2019 17:33:20) gamma-only

 executed on             LinuxIFC date 2020.05.10  15:30:07

 INCAR:
 POTCAR:    PAW_PBE Ni_pv 06Sep2000
 POTCAR:    PAW_PBE S 06Sep2000
 POTCAR:    PAW_PBE Ni_pv 06Sep2000
   VRHFIN =Ni:

   TITEL  = PAW_PBE Ni_pv 06Sep2000
   POMASS =   58.690; ZVAL   =   16.000    mass and valenz
   ENMAX  =  367.986; ENMIN  =  275.989 eV

 POTCAR:    PAW_PBE S 06Sep2000
   VRHFIN =S : s2p4

   TITEL  = PAW_PBE S 06Sep2000
   POMASS =   32.066; ZVAL   =    6.000    mass and valenz
   ENMAX  =  258.689; ENMIN  =  194.016 eV

 Optimization of the real space projectors (new method)

 maximal supplied QI-value         = 18.90
 optimisation between [QCUT,QGAM] = [ 10.77, 21.73] = [ 32.49,132.25] Ry
 Optimized for a Real-space Cutoff    1.38 Angstroem

   l    n(q)    QCUT    max X(q) W(low)/X(q) W(high)/X(q)  e(spline)
   1      8    10.771     2.836    0.40E-04    0.29E-04    0.12E-06
   1      8    10.771     4.023    0.10E-03    0.48E-04    0.29E-06
   2      8    10.771    73.368    0.42E-03    0.97E-04    0.44E-06
   2      8    10.771    69.010    0.42E-03    0.99E-04    0.45E-06
   0      9    10.771    54.797    0.10E-03    0.56E-04    0.74E-07
   0      9    10.771    24.266    0.89E-04    0.49E-04    0.67E-07
 Optimization of the real space projectors (new method)

 maximal supplied QI-value         = 19.84
 optimisation between [QCUT,QGAM] = [ 10.71, 21.63] = [ 32.15,130.99] Ry
 Optimized for a Real-space Cutoff    1.19 Angstroem

   l    n(q)    QCUT    max X(q) W(low)/X(q) W(high)/X(q)  e(spline)
   0      8    10.715   187.594    0.41E-03    0.53E-04    0.66E-07
   0      8    10.715   164.243    0.41E-03    0.53E-04    0.65E-07
   1      7    10.715    67.533    0.19E-03    0.59E-03    0.68E-07
   1      7    10.715    50.729    0.19E-03    0.58E-03    0.67E-07
  PAW_PBE Ni_pv 06Sep2000               :
  PAW_PBE S 06Sep2000                   :

 POSCAR: Type_048 Type_148
  positions in cartesian coordinates
 exchange correlation table for  LEXCH =        8
   RHO(1)=    0.500       N(1)  =     2000
   RHO(2)=  100.500       N(2)  =     4000

 ion  position               nearest neighbor table
   1  0.261  0.479  0.253-  73 2.25  59 2.26  81 2.26  55 2.36  60 2.36   7 2.53  21 2.53
   2  0.355  0.385  0.388-  74 2.25  55 2.26  60 2.26  61 2.36  65 2.36   3 2.38   8 2.53  22 2.53

   3  0.376  0.364  0.497-  53 2.04  65 2.08  61 2.08   2 2.38
   4  0.167  0.073  0.118-  56 2.07  82 2.07  64 2.25  57 2.36  83 2.36  36 2.44  30 2.53
   5  0.051  0.051  0.473-  50 2.05  77 2.08  78 2.12  72 2.13  15 2.48
   6  0.274  0.333  0.083-  51 1.99  58 2.08  56 2.10  52 2.36  59 2.36  12 2.53  28 2.53
   7  0.368  0.239  0.218-  57 2.25  59 2.26  52 2.26  60 2.36  62 2.36   1 2.53  21 2.53
   8  0.462  0.145  0.353-  79 2.25  60 2.26  62 2.26  61 2.36  63 2.36   2 2.53  22 2.53
   9  0.000  0.372  0.218-  59 2.25  64 2.26  93 2.26  49 2.36  66 2.36  13 2.53  19 2.53
  10  0.094  0.278  0.353-  60 2.25  49 2.26  66 2.26  54 2.36  50 2.36  20 2.53  14 2.53
  11  0.189  0.189  0.473-  50 2.05  77 2.08  61 2.12  54 2.13  15 2.48
  12  0.406  0.465  0.083-  51 1.99  80 2.07  69 2.15  52 2.36  81 2.36  28 2.53   6 2.53
  13  0.761  0.479  0.253-  86 2.25  70 2.26  93 2.26  66 2.36  71 2.36  19 2.53   9 2.53
  14  0.855  0.385  0.388-  87 2.25  66 2.26  71 2.26  72 2.36  54 2.36  20 2.53  10 2.53
  15  0.952  0.287  0.505-  72 2.00  54 2.00   5 2.48  11 2.48
  16  0.663  0.088  0.147-  68 2.06  67 2.12  52 2.13  94 2.22
  17  0.549  0.054  0.473-  63 2.05  89 2.08  61 2.11  90 2.14
  18  0.779  0.303  0.104-  70 2.04  67 2.11  69 2.13  64 2.19
  19  0.868  0.239  0.218-  68 2.25  70 2.26  64 2.26  71 2.36  49 2.36  13 2.53   9 2.53
  20  0.962  0.145  0.353-  91 2.25  71 2.26  49 2.26  72 2.36  50 2.36  14 2.53  10 2.53
  21  0.500  0.372  0.218-  70 2.25  52 2.26  81 2.26  62 2.36  55 2.36   1 2.53   7 2.53
  22  0.594  0.278  0.353-  71 2.25  62 2.26  55 2.26  65 2.36  63 2.36   8 2.53   2 2.53
  23  0.685  0.190  0.473-  63 2.05  89 2.08  65 2.11  72 2.15
  24  0.925  0.455  0.102-  93 2.07  92 2.07  58 2.10  64 2.12
  25  0.261  0.979  0.253-  49 2.25  83 2.26  57 2.26  79 2.36  84 2.36  31 2.53  45 2.53
  26  0.355  0.885  0.388-  50 2.25  79 2.26  84 2.26  85 2.36  90 2.36  27 2.39  32 2.53  46 2.53

[...]

  44  0.962  0.645  0.353-  66 2.25  95 2.26  73 2.26  96 2.36  74 2.36  38 2.53  34 2.53
  45  0.500  0.872  0.218-  94 2.25  76 2.26  57 2.26  86 2.36  79 2.36  25 2.53  31 2.53
  46  0.594  0.778  0.353-  95 2.25  86 2.26  79 2.26  90 2.36  87 2.36  32 2.53  26 2.53
  47  0.685  0.698  0.467-  87 2.02  90 2.02  96 2.08
  48  0.918  0.958  0.102-  68 2.04  82 2.09  67 2.10  88 2.13
  49  0.073  0.167  0.270-  25 2.25  10 2.26  20 2.26   9 2.36  19 2.36
  50  0.167  0.073  0.405-  11 2.05   5 2.05  26 2.25  10 2.36  20 2.36  77 2.72
  51  0.355  0.385  0.012-  12 1.99   6 1.99
  52  0.479  0.261  0.135-  16 2.13   7 2.26  21 2.26   6 2.36  12 2.36
  53  0.212  0.528  0.527-   3 2.04  29 2.08  35 2.08  74 2.70
  54  0.030  0.378  0.451-  15 2.00  11 2.13  29 2.15  10 2.36  14 2.36
  55  0.436  0.472  0.315-  32 2.25   2 2.26  22 2.26   1 2.36  21 2.36
  56  0.272  0.150  0.067-   4 2.07   6 2.10  36 2.14  57 2.63  75 2.74
  57  0.342  0.066  0.180-  36 2.06   7 2.25  25 2.26  45 2.26   4 2.36  56 2.63
  58  0.084  0.480  0.064-  28 2.06   6 2.08  24 2.10  59 2.74
  59  0.174  0.397  0.180-   9 2.25   7 2.26   1 2.26   6 2.36  28 2.36  58 2.74
  60  0.268  0.303  0.315-  10 2.25   2 2.26   8 2.26   7 2.36   1 2.36
  61  0.362  0.209  0.451-   3 2.08  17 2.11  11 2.12   8 2.36   2 2.36
  62  0.573  0.167  0.270-  37 2.25  22 2.26   8 2.26  21 2.36   7 2.36
  63  0.667  0.073  0.405-  23 2.05  17 2.05  38 2.25  22 2.36   8 2.36  89 2.70
  64  0.979  0.261  0.135-  24 2.12  18 2.19   4 2.25  19 2.26   9 2.26
  65  0.530  0.378  0.451-   3 2.08  41 2.08  23 2.11  22 2.36   2 2.36
  66  0.936  0.472  0.315-  44 2.25  14 2.26  10 2.26  13 2.36   9 2.36
  67  0.758  0.136  0.073-  48 2.10  18 2.11  16 2.12  68 2.50
  68  0.842  0.066  0.180-  48 2.04  16 2.06  19 2.25  37 2.26  33 2.26  67 2.50
  69  0.599  0.456  0.068-  40 2.10  18 2.13  12 2.15  70 2.57
  70  0.674  0.397  0.180-  18 2.04  21 2.25  19 2.26  13 2.26  40 2.36  69 2.57
  71  0.768  0.303  0.315-  22 2.25  14 2.26  20 2.26  19 2.36  13 2.36
  72  0.862  0.209  0.451-  15 2.00   5 2.13  23 2.15  20 2.36  14 2.36
  73  0.073  0.667  0.270-   1 2.25  34 2.26  44 2.26  33 2.36  43 2.36
  74  0.167  0.573  0.405-  29 2.05  35 2.05   2 2.25  34 2.36  44 2.36  53 2.70
  75  0.359  0.900  0.020-  30 1.99  36 2.02  56 2.74
  76  0.479  0.761  0.135-  36 2.13  40 2.25  31 2.26  45 2.26  30 2.36
  77  0.211  0.029  0.528-  27 2.05   5 2.08  11 2.08  50 2.72
  78  0.030  0.878  0.451-  39 2.08  35 2.11   5 2.12  34 2.36  38 2.36
  79  0.436  0.972  0.315-   8 2.25  26 2.26  46 2.26  25 2.36  45 2.36
  80  0.261  0.656  0.064-  28 2.07  12 2.07  30 2.10  81 2.73
  81  0.342  0.566  0.180-  31 2.25   1 2.26  21 2.26  28 2.36  12 2.36  80 2.73
  82  0.080  0.977  0.067-   4 2.07  30 2.08  48 2.09  83 2.68
  83  0.174  0.897  0.180-  33 2.25  31 2.26  25 2.26  30 2.36   4 2.36  82 2.68
  84  0.268  0.803  0.315-  34 2.25  26 2.26  32 2.26  31 2.36  25 2.36
  85  0.362  0.709  0.451-  41 2.02  27 2.08  35 2.14  32 2.36  26 2.36
  86  0.573  0.667  0.270-  13 2.25  46 2.26  32 2.26  45 2.36  31 2.36
  87  0.667  0.573  0.405-  41 2.02  47 2.02  14 2.25  46 2.36  32 2.36
  88  0.979  0.761  0.135-  48 2.13  42 2.24  28 2.25  43 2.26  33 2.26
  89  0.711  0.028  0.527-  39 2.04  23 2.08  17 2.08  63 2.70
  90  0.530  0.878  0.451-  47 2.02  27 2.08  17 2.14  46 2.36  26 2.36
  91  0.936  0.972  0.315-  20 2.25  38 2.26  34 2.26  37 2.36  33 2.36
  92  0.777  0.607  0.053-  42 2.03  40 2.03  24 2.07
  93  0.842  0.566  0.180-  24 2.07  42 2.15  43 2.25  13 2.26   9 2.26  40 2.36
  94  0.674  0.897  0.180-  16 2.22  45 2.25  43 2.26  37 2.26  42 2.27
  95  0.768  0.803  0.315-  46 2.25  38 2.26  44 2.26  43 2.36  37 2.36
  96  0.862  0.709  0.451-  39 2.08  47 2.08  29 2.11  44 2.36  38 2.36

  LATTYP: Found a base centered orthorhombic cell.
 ALAT       =    11.8257374459
 B/A-ratio  =     1.6199260857
 C/A-ratio  =     1.8387210052

  Lattice vectors:

 A1 = (  11.2564630382,   0.0000000000,   0.0000000000)
 A2 = (  -5.0445621212, -10.0628203371,   0.0000000000)
 A3 = (   0.0000000000,   0.0000000000, -21.7442318436)

Analysis of symmetry for initial positions (statically):
 Subroutine PRICEL returns:
 Original cell was already a primitive cell.

 Routine SETGRP: Setting up the symmetry group for a
 base centered orthorhombic supercell.

 Subroutine GETGRP returns: Found  1 space group operations
 (whereof  1 operations were pure point group operations)
 out of a pool of  8 trial point group operations.

The static configuration has the point symmetry C_1 .

Analysis of symmetry for dynamics (positions and initial velocities):
 Subroutine PRICEL returns:
 Original cell was already a primitive cell.

 Routine SETGRP: Setting up the symmetry group for a
 base centered orthorhombic supercell.

 Subroutine GETGRP returns: Found  1 space group operations
 (whereof  1 operations were pure point group operations)
 out of a pool of  8 trial point group operations.

The dynamic configuration has the point symmetry C_1 .

 Subroutine INISYM returns: Found  1 space group operations
 (whereof  1 operations are pure point group operations),
 and found     1 'primitive' translations

 KPOINTS: gamma-point-only calculation. no periodi

Automatic generation of k-mesh.
Space group operators:
 irot       det(A)        alpha          n_x          n_y          n_z        tau_x        tau_y        tau_z
    1     1.000000     0.000000     1.000000     0.000000     0.000000     0.000000     0.000000     0.000000

 Subroutine IBZKPT returns following result:

 Found      1 irreducible k-points:

 Following reciprocal coordinates:
            Coordinates               Weight
  0.000000  0.000000  0.000000      1.000000

 Following cartesian coordinates:
            Coordinates               Weight
  0.000000  0.000000  0.000000      1.000000

 SYSTEM =  "Millerite NiS"
 POSCAR =  Type_048 Type_148

 Startparameter for this run:
   NWRITE =      2    write-flag & timer
   PREC   = normal    normal or accurate (medium, high low for compatibility)
   ISTART =      0    job   : 0-new  1-cont  2-samecut
   ICHARG =      2    charge: 1-file 2-atom 10-const
   ISPIN  =      1    spin polarized calculation?
   LNONCOLLINEAR =      F non collinear calculations
   LSORBIT =      F    spin-orbit coupling
   INIWAV =      1    electr: 0-lowe 1-rand  2-diag
   LASPH  =      F    aspherical Exc in radial PAW
   METAGGA=      F    non-selfconsistent MetaGGA calc.

 Electronic Relaxation 1
   ENCUT  =  450.0 eV  33.07 Ry    5.75 a.u.  19.47 19.47 37.61*2*pi/ulx,y,z
   ENINI  =  450.0     initial cutoff
   ENAUG  =  703.4 eV  augmentation charge cutoff
   NELM   =    100;   NELMIN=  2; NELMDL= -5     # of ELM steps
   EDIFF  = 0.1E-03   stopping-criterion for ELM
   LREAL  =      T    real-space projection
[...]
     0.000000000  0.000000000 21.744231844     0.000000000  0.000000000  0.045989208

  length of vectors
    11.256463038 11.256463038 21.744231844     0.099375718  0.099375718  0.045989208

 FORCES acting on ions
    electron-ion (+dipol)            ewald-force                    non-local-force                 convergence-correction
   0.225E+03 -.398E+03 0.663E+03   -.225E+03 0.399E+03 -.662E+03   0.568E+00 -.887E+00 -.263E+00   0.553E-01 -.577E-01 -.415E+00
   0.214E+03 -.386E+03 -.236E+04   -.215E+03 0.387E+03 0.236E+04   0.645E+00 -.883E+00 0.532E-01   -.242E-01 0.521E-01 0.401E+00
   -.753E+02 -.637E+01 -.559E+04   0.724E+02 0.106E+02 0.559E+04   0.326E+01 -.489E+01 0.551E+00   0.738E-03 -.259E-01 0.266E+00
   0.307E+03 -.502E+03 0.409E+04   -.310E+03 0.507E+03 -.409E+04   0.269E+01 -.408E+01 0.263E+01   -.189E+00 0.114E+00 -.106E+00
   0.358E+03 0.407E+03 -.475E+04   -.361E+03 -.411E+03 0.475E+04   0.273E+01 0.350E+01 -.241E+01   0.730E-03 0.125E+00 0.167E+00
   0.189E+03 0.556E+03 0.493E+04   -.191E+03 -.560E+03 -.493E+04   0.159E+01 0.287E+01 0.467E+01   0.164E+00 0.279E+00 -.165E+00
   0.258E+03 0.450E+03 0.181E+04   -.258E+03 -.450E+03 -.181E+04   0.339E+00 0.121E+00 0.131E+01   -.211E-01 0.180E+00 -.326E+00
   0.249E+03 0.430E+03 -.138E+04   -.250E+03 -.430E+03 0.137E+04   0.115E+01 0.217E+00 0.196E+01   -.138E+00 0.576E-02 0.448E-02
   -.549E+03 0.689E+02 0.163E+04   0.551E+03 -.698E+02 -.163E+04   -.142E+01 0.788E+00 -.128E+01   -.281E-01 0.619E-02 -.377E+00
   -.483E+03 -.776E+02 -.137E+04   0.484E+03 0.782E+02 0.137E+04   -.622E+00 -.726E+00 0.257E+01   0.256E-02 -.460E-01 -.395E-01
   -.525E+03 -.138E+03 -.475E+04   0.530E+03 0.140E+03 0.475E+04   -.432E+01 -.950E+00 -.243E+01   0.107E+00 0.141E+00 0.173E+00
   -.574E+03 0.117E+02 0.491E+04   0.579E+03 -.119E+02 -.492E+04   -.396E+01 0.455E-01 0.465E+01   -.651E-01 -.477E-01 -.174E+00
   0.287E+03 -.408E+03 0.567E+03   -.288E+03 0.408E+03 -.565E+03   0.117E+01 -.425E+00 -.139E+01   -.527E-01 -.483E-01 -.384E+00
   0.315E+03 -.509E+03 -.269E+04   -.315E+03 0.511E+03 0.269E+04   0.760E+00 -.133E+01 0.129E+01   -.867E-02 -.737E-01 0.326E-01
   0.376E+03 -.609E+03 -.578E+04   -.374E+03 0.606E+03 0.577E+04   -.172E+01 0.255E+01 0.599E+01   0.233E-01 0.146E-01 0.192E+00
   0.446E+03 0.866E+01 0.397E+04   -.452E+03 -.822E+01 -.398E+04   0.489E+01 -.112E+01 0.252E+01   0.189E+00 0.130E+00 -.253E+00
   0.280E+03 0.245E+03 -.486E+04   -.284E+03 -.248E+03 0.487E+04   0.342E+01 0.331E+01 -.176E+01   -.566E-01 0.213E+00 0.315E+00
   0.956E+02 0.289E+03 0.502E+04   -.961E+02 -.295E+03 -.502E+04   0.152E+01 0.570E+01 0.412E+01   0.218E-01 0.172E+00 -.180E+00
   0.179E+03 0.473E+03 0.164E+04   -.179E+03 -.473E+03 -.164E+04   0.273E+00 0.536E-01 -.766E+00   -.128E-01 0.721E-01 -.377E+00
   0.279E+03 0.392E+03 -.138E+04   -.280E+03 -.392E+03 0.137E+04   0.807E+00 0.264E+00 0.254E+01   0.617E-01 0.732E-01 -.707E-01
   -.464E+03 -.803E+02 0.177E+04   0.464E+03 0.808E+02 -.177E+04   -.562E+00 -.491E+00 0.719E+00   -.238E-01 0.110E+00 -.411E+00
   -.531E+03 -.640E+02 -.142E+04   0.532E+03 0.647E+02 0.142E+04   -.843E+00 -.939E+00 0.188E+01   0.921E-01 0.128E+00 -.162E-01
   -.393E+03 -.288E+03 -.488E+04   0.397E+03 0.290E+03 0.488E+04   -.430E+01 -.754E+00 -.173E+01   -.962E-01 0.151E+00 0.344E+00
   -.241E+03 0.238E+03 0.498E+04   0.246E+03 -.241E+03 -.499E+04   -.412E+01 0.213E+01 0.486E+01   -.138E+00 -.110E+00 -.178E+00
   0.242E+03 -.390E+03 0.654E+03   -.243E+03 0.391E+03 -.654E+03   0.414E+00 -.680E+00 -.320E+00   -.523E-01 -.230E-02 -.145E+00
   0.209E+03 -.335E+03 -.236E+04   -.210E+03 0.336E+03 0.236E+04   0.482E+00 -.922E+00 0.195E+00   0.254E-01 -.239E-01 -.588E-01
   -.917E+02 0.149E+03 -.560E+04   0.894E+02 -.145E+03 0.560E+04   0.274E+01 -.436E+01 0.388E+00   0.291E-01 0.722E-02 0.118E-02
   0.233E+03 -.506E+03 0.401E+04   -.236E+03 0.511E+03 -.401E+04   0.254E+01 -.383E+01 0.215E+01   0.119E+00 -.144E+00 -.250E+00
   0.432E+03 0.224E+03 -.488E+04   -.435E+03 -.227E+03 0.488E+04   0.247E+01 0.358E+01 -.174E+01   0.117E+00 -.263E+00 0.440E+00
   0.249E+03 0.449E+03 0.500E+04   -.252E+03 -.454E+03 -.501E+04   0.175E+01 0.338E+01 0.476E+01   -.258E+00 -.222E+00 -.212E-02
   0.244E+03 0.474E+03 0.177E+04   -.245E+03 -.474E+03 -.178E+04   0.641E+00 0.416E+00 0.769E+00   -.472E-01 -.186E+00 -.243E+00
   0.221E+03 0.448E+03 -.138E+04   -.223E+03 -.448E+03 0.138E+04   0.109E+01 0.389E+00 0.195E+01   0.265E-01 0.244E-01 -.916E-01
   -.536E+03 0.385E+02 0.173E+04   0.537E+03 -.390E+02 -.173E+04   -.110E+01 0.403E+00 -.521E+00   0.235E-01 0.653E-01 -.456E+00
   -.503E+03 -.159E+02 -.137E+04   0.504E+03 0.164E+02 0.137E+04   -.870E+00 -.764E+00 0.211E+01   0.277E+00 0.622E-01 -.141E+00
   -.345E+03 -.139E+03 -.486E+04   0.350E+03 0.141E+03 0.486E+04   -.450E+01 -.150E+01 -.174E+01   0.854E-01 -.229E+00 0.340E+00
   -.948E+03 -.484E+02 0.481E+04   0.951E+03 0.472E+02 -.481E+04   -.218E+01 0.110E+01 0.426E+01   -.261E-03 0.207E-01 -.253E-01
   0.247E+03 -.319E+03 0.583E+03   -.248E+03 0.319E+03 -.581E+03   0.347E+00 -.176E+00 -.148E+01   0.655E-01 0.717E-01 -.279E+00
   0.245E+03 -.360E+03 -.238E+04   -.246E+03 0.361E+03 0.237E+04   0.524E+00 -.107E+01 0.121E+00   -.896E-01 0.247E+00 0.951E-01
   0.387E+02 0.652E+02 -.559E+04   -.413E+02 -.607E+02 0.559E+04   0.304E+01 -.522E+01 0.609E+00   -.100E-01 0.371E-01 0.280E+00
   0.412E+03 -.362E+03 0.424E+04   -.416E+03 0.366E+03 -.425E+04   0.325E+01 -.350E+01 0.432E+01   -.780E-01 -.319E+00 -.207E+00
   -.140E+03 0.332E+03 -.499E+04   0.140E+03 -.334E+03 0.499E+04   0.108E+01 0.131E+01 0.101E+01   -.118E+00 -.109E+00 0.999E-01
   0.579E+02 -.555E+03 0.483E+04   -.583E+02 0.558E+03 -.483E+04   0.650E+00 -.237E+01 0.491E+01   0.436E-01 -.218E+00 -.215E+00
   0.128E+03 0.334E+03 0.156E+04   -.127E+03 -.333E+03 -.156E+04   -.600E+00 -.274E+00 -.119E+01   0.863E-01 -.190E-01 -.243E+00
   0.280E+03 0.459E+03 -.143E+04   -.281E+03 -.460E+03 0.142E+04   0.116E+01 0.516E+00 0.221E+01   -.913E-01 -.180E+00 -.119E+00
   -.536E+03 -.148E+02 0.177E+04   0.539E+03 0.147E+02 -.176E+04   -.235E+01 0.153E+00 -.490E+00   -.644E-01 -.997E-01 -.141E+00
   -.489E+03 0.596E+01 -.139E+04   0.490E+03 -.506E+01 0.139E+04   -.835E+00 -.796E+00 0.190E+01   -.183E+00 -.252E-01 -.672E-01
   -.233E+03 0.276E+03 -.499E+04   0.235E+03 -.276E+03 0.499E+04   -.163E+01 -.321E+00 0.109E+01   -.893E-01 -.160E-01 0.122E+00
   0.828E+02 0.141E+03 0.513E+04   -.780E+02 -.144E+03 -.513E+04   -.504E+01 0.166E+01 0.430E+01   0.731E-01 0.237E-01 -.225E+00
   -.796E+02 0.122E+03 0.274E+03   0.808E+02 -.124E+03 -.276E+03   -.121E+01 0.207E+01 0.271E+01   -.105E-01 0.351E-01 -.771E-01
   -.829E+02 0.133E+03 -.868E+03   0.839E+02 -.135E+03 0.865E+03   -.556E+00 0.126E+01 0.672E+00   0.257E-01 0.167E-01 -.219E-02
   -.709E+02 0.123E+03 0.235E+04   0.712E+02 -.124E+03 -.235E+04   -.185E+00 0.289E+00 0.727E+00   0.276E-01 0.479E-01 0.451E-01
   -.524E+02 0.170E+03 0.160E+04   0.531E+02 -.172E+03 -.160E+04   -.121E+01 0.206E+01 0.194E+01   -.193E-01 0.133E+00 -.109E+00
   -.698E+01 0.508E+01 -.233E+04   0.747E+01 -.568E+01 0.233E+04   -.274E+00 0.408E+00 -.204E+01   0.684E-01 -.170E+00 0.100E+00
   -.536E+02 -.248E+03 -.153E+04   0.544E+02 0.251E+03 0.154E+04   -.301E+00 -.862E+00 -.147E+01   0.236E-01 -.443E-01 0.853E-01
   -.793E+02 -.156E+03 -.207E+03   0.806E+02 0.158E+03 0.208E+03   -.135E+01 -.252E+01 -.412E+00   0.874E-02 0.595E-01 -.940E-01
   -.590E+02 -.874E+02 0.211E+04   0.579E+02 0.884E+02 -.212E+04   0.157E+01 -.745E+00 0.321E+01   0.133E-01 0.131E+00 -.401E-01
   -.951E+02 -.197E+03 0.948E+03   0.964E+02 0.200E+03 -.948E+03   -.125E+01 -.145E+01 0.174E+01   -.560E-02 0.830E-01 -.525E-01
   0.147E+03 -.912E+02 0.219E+04   -.149E+03 0.937E+02 -.219E+04   0.388E+00 -.226E+01 0.333E+01   0.249E-01 -.204E-01 -.102E-01
   0.129E+03 0.156E+02 0.967E+03   -.131E+03 -.160E+02 -.967E+03   0.270E+01 0.105E+00 0.120E+01   0.328E-01 0.200E-01 -.137E+00
   0.169E+03 -.459E+01 -.202E+03   -.171E+03 0.468E+01 0.203E+03   0.293E+01 -.108E+00 -.353E-01   -.463E-01 0.252E-01 -.933E-01
[...]
   0.160E+03 0.870E+01 0.975E+03   -.162E+03 -.886E+01 -.975E+03   0.254E+01 -.132E+00 0.957E+00   -.358E-01 -.311E-01 -.107E+00
   0.166E+03 0.478E+01 -.200E+03   -.169E+03 -.481E+01 0.201E+03   0.291E+01 0.408E-01 -.613E+00   0.936E-01 -.158E-01 -.634E-01
   0.132E+03 0.646E+02 -.158E+04   -.134E+03 -.652E+02 0.159E+04   0.314E+00 0.145E+01 -.130E+01   0.167E-01 -.399E-01 0.520E-02
   -.640E+02 0.121E+03 0.270E+03   0.654E+02 -.123E+03 -.271E+03   -.125E+01 0.193E+01 0.164E+01   -.468E-01 -.349E-01 -.764E-01
   -.115E+03 0.188E+03 -.102E+04   0.116E+03 -.190E+03 0.102E+04   -.193E+00 0.449E+00 -.128E+01   -.463E-01 -.118E-01 -.820E-02
   -.809E+02 0.643E+02 0.163E+04   0.819E+02 -.650E+02 -.163E+04   -.109E+01 -.125E+00 0.231E+01   0.115E+00 0.264E-01 -.120E+00
   -.137E+01 0.838E+01 -.233E+04   0.177E+01 -.925E+01 0.233E+04   -.228E+00 0.371E+00 -.212E+01   -.201E-01 0.644E-01 0.122E+00
   -.116E+03 -.895E+02 -.159E+04   0.117E+03 0.904E+02 0.159E+04   -.150E+01 0.402E+00 -.140E+01   -.147E-01 0.340E-01 0.148E-01
   -.768E+02 -.150E+03 -.211E+03   0.783E+02 0.153E+03 0.211E+03   -.157E+01 -.256E+01 -.412E+00   0.130E-01 0.913E-01 -.105E+00
   0.307E+02 -.158E+03 0.241E+04   -.308E+02 0.160E+03 -.242E+04   0.304E+00 -.457E+00 0.193E+01   -.758E-01 -.172E+00 -.387E-01
   -.583E+01 -.998E+02 0.846E+03   0.689E+01 0.100E+03 -.842E+03   -.122E+01 0.600E+00 -.131E+01   -.534E-01 -.135E+00 -.144E+00
   0.178E+03 -.709E+02 0.115E+04   -.181E+03 0.712E+02 -.115E+04   0.225E+01 -.466E+00 0.189E+01   0.287E-01 0.277E-01 -.350E-01
   0.175E+03 0.239E+01 -.219E+03   -.177E+03 -.248E+01 0.219E+03   0.297E+01 0.433E-02 -.125E-01   -.865E-01 0.521E-01 -.109E+00
   0.177E+03 0.112E+03 -.159E+04   -.180E+03 -.113E+03 0.160E+04   0.209E+01 0.698E+00 -.191E+01   -.252E-01 -.532E-02 0.154E+00
   -.118E+02 0.143E+02 -.844E+02   -.796E-12 -.180E-11 0.909E-11   0.118E+02 -.142E+02 0.889E+02   -.294E+00 -.163E-01 -.452E+01

 POSITION                                       TOTAL-FORCE (eV/Angst)
      5.35228      4.81788      5.50842         0.022368     -0.105007     -0.103825
      5.93595      3.87238      8.44448        -0.159951      0.057720     -0.988381
      6.06753      3.66651     10.81549         0.417125     -0.725647      0.817643
      2.24633      0.73197      2.57236        -0.965157      0.654533      2.005206
      0.83035      0.51397     10.28127        -0.785534      0.139902      0.502269
      4.76861      3.35453      1.79664        -0.299854     -0.993133      2.616746
      5.35228      2.40903      4.73270        -0.025003      0.269925      0.255574
      5.93595      1.46353      7.66876         0.043200     -0.077141     -0.024621
      1.87746      3.73836      4.73270         0.171150     -0.099478      0.063848
      2.46113      2.79286      7.66876         0.013341     -0.176197     -0.047069
      3.07580      1.90014     10.28122         0.275240      0.789816      0.492582
      6.92203      4.68386      1.79664         1.796154     -0.212572      2.653712
     10.98051      4.81788      5.50842        -0.135332      0.094895      0.068162
     11.56418      3.87238      8.44448         0.030670     -0.054764      0.019193
     12.16945      2.89189     10.98086         0.033806     -0.065465      1.345575
      7.90575      0.88732      3.19011        -0.703474     -0.543211     -0.856568
      6.45708      0.54318     10.27606        -0.602485      0.112218      0.542079
     10.29800      3.05190      2.25827         1.007361      0.329616     -1.130841
     10.98051      2.40903      4.73270         0.097556      0.049202      0.245442
     11.56418      1.46353      7.66876         0.085290     -0.051380     -0.053750
      7.50570      3.73836      4.73270        -0.094994      0.098222      0.205715
      8.08937      2.79286      7.66876        -0.065588     -0.153150     -0.022066
      8.67167      1.91263     10.27772         0.349022      0.770692      0.527500
     12.71293      4.58165      2.21956        -0.018628     -0.881672     -0.591356
      7.87456      9.84929      5.50842         0.014233     -0.214330     -0.102062
      8.45823      8.90379      8.44448        -0.118927      0.181496     -1.013217
      8.58392      8.70019     10.81759         0.477650     -0.796976      1.017848
      4.76861      5.76338      2.57236        -0.016699      0.526605      2.062902
      3.35591      5.57990     10.27749        -0.859882      0.026927      0.549430
      7.29089      8.38594      1.79664        -0.791812     -1.569723      2.407783
      7.87456      7.44044      4.73270         0.091235      0.145514      0.134010
      8.45823      6.49494      7.66876        -0.032643     -0.009238     -0.289211
      4.39975      8.76977      4.73270         0.081713     -0.039195      0.274519
      4.98341      7.82427      7.66876        -0.019790     -0.180034     -0.064233
      5.57268      6.94598     10.27577         0.179104      0.676892      0.547383
      9.40406      9.63652      2.18404         1.627320      0.004248      0.181308
     13.50279      9.84929      5.50842        -0.011248     -0.085736      0.193283
     14.08646      8.90379      8.44448        -0.087075      0.152544     -0.949309
     14.21165      8.69372     10.81559         0.474436     -0.678027      0.840207
     10.39684      5.76338      2.57236        -0.734410     -0.173074      1.491188
      8.89393      5.58066     10.14705         0.401417     -0.435614      0.986647
     12.67552      7.31246      2.55003         0.264143      0.849253     -0.072215
     13.50279      7.44044      4.73270         0.447314      0.185051      1.191403
     14.08646      6.49494      7.66876         0.163485     -0.007100      0.010082
     10.02798      8.76977      4.73270         0.031758     -0.034098      0.109413
     10.61165      7.82427      7.66876        -0.045738      0.074681     -0.293168
     11.23364      7.02499     10.14717         0.223235     -0.544845      0.981159
     15.16573      9.64311      2.22511        -0.158834     -0.665527     -0.973648
      1.66190      1.67871      5.87212         0.018369      0.010881      0.154404
      2.24556      0.73321      8.80817         0.501854     -0.809090     -2.964939
      5.94115      3.87063      0.26948         0.228139     -0.607762     -4.404421
      6.70646      2.62422      2.93606        -0.557239      0.176440      0.144728
      5.04649      5.31746     11.45389         0.285962     -0.359720      2.692635
      2.24556      3.80055      9.79595         0.546127      1.695689     -0.624726
      7.29013      4.74605      6.85989         0.004693      0.043489     -0.117537
      3.81556      1.51438      1.46490         0.460138      0.352533     -2.354806
      4.18418      0.66015      3.92384         0.070455      0.922139      2.211769
      3.36434      4.82673      1.38700        -1.129425      0.240122     -2.659475
      3.96438      3.99884      3.92384         0.219621     -0.284130      0.893479
      4.54805      3.05334      6.85989         0.006516      0.014076     -0.030624
[...]
      5.83546      9.83583      1.44822        -1.107594      0.485486     -2.597768
      6.48666      9.03025      3.92384         0.087160     -0.313395      1.005618
      7.07033      8.08475      6.85989         0.002107     -0.003054     -0.000040
      7.65400      7.13925      9.79595        -1.158483      0.749896     -0.073327
      9.81241      6.71012      5.87212         0.021713     -0.136331      0.164331
     10.39608      5.76462      8.80817         0.862423     -1.370814     -1.492871
     14.85697      7.65563      2.93606         0.063070     -0.848437     -0.242948
      8.14879      0.28358     11.45394         0.155054     -0.431198      2.737703
     10.39608      8.83196      9.79595        -0.122585      1.351596     -0.108211
     15.44064      9.77746      6.85989        -0.049229      0.071925     -0.041026
     11.81153      6.11266      1.15327         0.185341      1.261407     -3.730590
     12.33469      5.69156      3.92384        -0.208601      0.668937      2.457654
     12.11489      9.03025      3.92384        -0.926565     -0.067892     -0.168719
     12.69856      8.08475      6.85989         0.058302     -0.037752     -0.030760
     13.28223      7.13925      9.79595        -0.803351      0.123854     -0.236615
    total drift:                               -0.309229      0.054711      0.071169

  FREE ENERGIE OF THE ION-ELECTRON SYSTEM (eV)
  free  energy   TOTEN  =      -476.27719486 eV

  energy  without entropy=     -475.16162432  energy(sigma->0) =     -475.71940959