 vasp.5.4.4.18Apr17-6-g9f103f2a35 (build Aug 13 2019 17:33:20) gamma-only

 executed on             LinuxIFC date 2020.05.12  22:05:55

 INCAR:
 POTCAR:    PAW_PBE Ni_pv 06Sep2000
 POTCAR:    PAW_PBE S 06Sep2000
 POTCAR:    PAW_PBE Ni_pv 06Sep2000
   VRHFIN =Ni:

   TITEL  = PAW_PBE Ni_pv 06Sep2000
   POMASS =   58.690; ZVAL   =   16.000    mass and valenz
   ENMAX  =  367.986; ENMIN  =  275.989 eV

 POTCAR:    PAW_PBE S 06Sep2000
   VRHFIN =S : s2p4

   TITEL  = PAW_PBE S 06Sep2000
   POMASS =   32.066; ZVAL   =    6.000    mass and valenz
   ENMAX  =  258.689; ENMIN  =  194.016 eV

 Optimization of the real space projectors (new method)

 maximal supplied QI-value         = 18.90
 optimisation between [QCUT,QGAM] = [ 10.77, 21.73] = [ 32.49,132.25] Ry
 Optimized for a Real-space Cutoff    1.38 Angstroem

   l    n(q)    QCUT    max X(q) W(low)/X(q) W(high)/X(q)  e(spline)
   1      8    10.771     2.836    0.40E-04    0.29E-04    0.12E-06
   1      8    10.771     4.023    0.10E-03    0.48E-04    0.29E-06
   2      8    10.771    73.368    0.42E-03    0.97E-04    0.44E-06
   2      8    10.771    69.010    0.42E-03    0.99E-04    0.45E-06
   0      9    10.771    54.797    0.10E-03    0.56E-04    0.74E-07
   0      9    10.771    24.266    0.89E-04    0.49E-04    0.67E-07
 Optimization of the real space projectors (new method)

 maximal supplied QI-value         = 19.84
 optimisation between [QCUT,QGAM] = [ 10.71, 21.63] = [ 32.15,130.99] Ry
 Optimized for a Real-space Cutoff    1.19 Angstroem

   l    n(q)    QCUT    max X(q) W(low)/X(q) W(high)/X(q)  e(spline)
   0      8    10.715   187.594    0.41E-03    0.53E-04    0.66E-07
   0      8    10.715   164.243    0.41E-03    0.53E-04    0.65E-07
   1      7    10.715    67.533    0.19E-03    0.59E-03    0.68E-07
   1      7    10.715    50.729    0.19E-03    0.58E-03    0.67E-07
  PAW_PBE Ni_pv 06Sep2000               :
  PAW_PBE S 06Sep2000                   :

 POSCAR: Type_036 Type_136
  positions in cartesian coordinates
 exchange correlation table for  LEXCH =        8
   RHO(1)=    0.500       N(1)  =     2000
   RHO(2)=  100.500       N(2)  =     4000

 ion  position               nearest neighbor table
   1  0.397  0.795  0.118-  49 2.05  61 2.11  42 2.25  50 2.36  62 2.36  21 2.40  25 2.42
   2  0.547  0.645  0.245-  43 2.25  62 2.26  50 2.26  63 2.36  51 2.36  26 2.53  12 2.53
   3  0.698  0.494  0.372-  64 2.16  52 2.20  44 2.25  51 2.26  63 2.26  13 2.53  27 2.53
   4  0.114  0.412  0.160-  53 2.12  45 2.25  68 2.26   7 2.28  54 2.36  65 2.36  28 2.53  15 2.53

   5  0.264  0.261  0.287-  46 2.25  65 2.26  54 2.26  55 2.36  66 2.36  16 2.53  29 2.53
   6  0.414  0.111  0.414-  56 2.11  47 2.16  67 2.17  55 2.26  66 2.26  30 2.53  17 2.53
   7  0.986  0.594  0.095-  48 1.99  45 2.14  53 2.22  68 2.24   4 2.28  19 2.47
   8  0.108  0.768  0.444-  58 2.03  72 2.11  37 2.12  59 2.14
   9  0.831  0.028  0.203-  70 2.08  60 2.12  39 2.25  57 2.36  71 2.36  36 2.51  22 2.53  32 2.53

[...]

  31  0.734  0.817  0.444-  56 2.03  44 2.05  72 2.05  30 2.44
  32  0.015  0.843  0.136-  60 2.10  61 2.12  48 2.26  45 2.36  57 2.36  22 2.53   9 2.53
  33  0.166  0.693  0.263-  62 2.25  57 2.26  45 2.26  46 2.36  58 2.36  10 2.53  23 2.53
  34  0.316  0.543  0.390-  59 2.09  47 2.15  63 2.25  58 2.26  46 2.26  35 2.34
  35  0.490  0.448  0.468-  64 2.05  47 2.06  59 2.11  34 2.34
  36  0.763  0.001  0.088-  48 2.07  70 2.09  60 2.11  21 2.47  69 2.49   9 2.51
  37  0.015  0.986  0.467-  14 2.09  24 2.12   8 2.12  40 2.59
  38  0.576  0.424  0.118-  25 2.04  12 2.06  26 2.13  11 2.14
  39  0.736  0.256  0.235-   9 2.25  27 2.26  13 2.26  12 2.36  26 2.36
  40  0.886  0.105  0.362-  14 2.02  24 2.02  10 2.25  13 2.36  27 2.36  37 2.59
  41  0.170  0.151  0.038-  19 2.00  15 2.05  28 2.06  42 2.77
  42  0.303  0.023  0.151-   1 2.25  29 2.26  16 2.26  15 2.36  28 2.36  41 2.77
  43  0.453  0.872  0.278-   2 2.25  30 2.26  17 2.26  29 2.36  16 2.36
  44  0.603  0.722  0.405-  31 2.05  18 2.10   3 2.25  30 2.36  17 2.36  67 2.76
  45  0.019  0.639  0.193-   7 2.14   4 2.25  23 2.26  33 2.26  22 2.36  32 2.36
  46  0.170  0.489  0.320-  20 2.02   5 2.25  34 2.26  33 2.36  23 2.36
  47  0.375  0.333  0.430-  35 2.06  34 2.15   6 2.16
  48  0.869  0.789  0.066-   7 1.99  36 2.07  32 2.26  22 2.26
  49  0.495  0.795  0.031-  25 2.04   1 2.05  21 2.07
  50  0.636  0.692  0.151-  25 2.06  22 2.25  21 2.26  26 2.26   2 2.26   1 2.36
  51  0.787  0.542  0.278-  23 2.25   3 2.26  27 2.26  26 2.36   2 2.36
  52  0.924  0.384  0.394-  27 2.08  20 2.08  24 2.14   3 2.20
  53  0.209  0.456  0.076-  19 2.07   4 2.12  11 2.15  28 2.19   7 2.22
  54  0.353  0.308  0.193-  12 2.25   5 2.26  29 2.26  28 2.36   4 2.36
  55  0.503  0.158  0.320-  13 2.25   6 2.26  30 2.26   5 2.36  29 2.36  56 2.77
  56  0.634  0.030  0.433-  31 2.03  14 2.11   6 2.11  30 2.15  55 2.77
  57  0.070  0.925  0.236-  16 2.25  33 2.26  10 2.26   9 2.36  32 2.36
  58  0.220  0.775  0.363-   8 2.03  17 2.25  34 2.26  33 2.36  10 2.36
  59  0.296  0.616  0.485-  18 2.05  34 2.09  35 2.11   8 2.14
  60  0.932  0.063  0.118-  32 2.10  36 2.11   9 2.12  15 2.21
  61  0.213  0.761  0.087-   1 2.11  11 2.11  32 2.12  62 2.66
  62  0.350  0.641  0.194-  11 2.04  33 2.25  12 2.26   2 2.26   1 2.36  61 2.66
  63  0.501  0.491  0.321-  34 2.25   3 2.26  13 2.26   2 2.36  12 2.36
  64  0.685  0.327  0.434-  35 2.05  13 2.09  14 2.14   3 2.16
  65  0.067  0.258  0.236-  27 2.25   5 2.26  16 2.26   4 2.36  15 2.36
  66  0.218  0.108  0.363-  24 2.11  17 2.26   6 2.26  16 2.36   5 2.36
  67  0.403  0.937  0.473-  17 2.01  18 2.14   6 2.17  44 2.76
  68  0.917  0.408  0.109-  19 2.05   7 2.24  26 2.25  15 2.26   4 2.26
  69  0.505  0.103  0.061-  21 2.05  28 2.12  36 2.49  70 2.63
  70  0.640  0.015  0.171-  29 2.07   9 2.08  36 2.09  21 2.13  22 2.13  69 2.63  71 2.76
  71  0.784  0.874  0.279-  30 2.25  23 2.26  10 2.26  22 2.36   9 2.36  70 2.76
  72  0.934  0.724  0.405-  20 2.04  31 2.05   8 2.11  10 2.36  23 2.36

  LATTYP: Found a base centered orthorhombic cell.
 ALAT       =    11.4527836704
 B/A-ratio  =     1.4485816945
 C/A-ratio  =     1.8059804630

  Lattice vectors:

 A1 = (  10.0797329849,   0.0000000000,   0.0000000000)
 A2 = (  -3.5732980427,  -9.4251025535,   0.0000000000)
 A3 = (   0.0000000000,   0.0000000000, -20.6835035552)

Analysis of symmetry for initial positions (statically):
 Subroutine PRICEL returns:
 Original cell was already a primitive cell.

 Routine SETGRP: Setting up the symmetry group for a
 base centered orthorhombic supercell.

 Subroutine GETGRP returns: Found  1 space group operations
 (whereof  1 operations were pure point group operations)
 out of a pool of  8 trial point group operations.

The static configuration has the point symmetry C_1 .

Analysis of symmetry for dynamics (positions and initial velocities):
 Subroutine PRICEL returns:
 Original cell was already a primitive cell.

 Routine SETGRP: Setting up the symmetry group for a
 base centered orthorhombic supercell.

 Subroutine GETGRP returns: Found  1 space group operations
 (whereof  1 operations were pure point group operations)
 out of a pool of  8 trial point group operations.

The dynamic configuration has the point symmetry C_1 .

 Subroutine INISYM returns: Found  1 space group operations
 (whereof  1 operations are pure point group operations),
 and found     1 'primitive' translations

 KPOINTS: gamma-point-only calculation. no periodi

Automatic generation of k-mesh.
Space group operators:
 irot       det(A)        alpha          n_x          n_y          n_z        tau_x        tau_y        tau_z
    1     1.000000     0.000000     1.000000     0.000000     0.000000     0.000000     0.000000     0.000000

 Subroutine IBZKPT returns following result:

 Found      1 irreducible k-points:

 Following reciprocal coordinates:
            Coordinates               Weight
  0.000000  0.000000  0.000000      1.000000

 Following cartesian coordinates:
            Coordinates               Weight
  0.000000  0.000000  0.000000      1.000000

 SYSTEM =  "Millerite NiS"
 POSCAR =  Type_036 Type_136

 Startparameter for this run:
   NWRITE =      2    write-flag & timer
   PREC   = normal    normal or accurate (medium, high low for compatibility)
   ISTART =      0    job   : 0-new  1-cont  2-samecut
   ICHARG =      2    charge: 1-file 2-atom 10-const
   ISPIN  =      1    spin polarized calculation?
   LNONCOLLINEAR =      F non collinear calculations
   LSORBIT =      F    spin-orbit coupling
   INIWAV =      1    electr: 0-lowe 1-rand  2-diag
   LASPH  =      F    aspherical Exc in radial PAW
   METAGGA=      F    non-selfconsistent MetaGGA calc.

 Electronic Relaxation 1
   ENCUT  =  450.0 eV  33.07 Ry    5.75 a.u.  17.43 17.43 35.78*2*pi/ulx,y,z
   ENINI  =  450.0     initial cutoff
   ENAUG  =  703.4 eV  augmentation charge cutoff
   NELM   =    100;   NELMIN=  2; NELMDL= -5     # of ELM steps
   EDIFF  = 0.1E-03   stopping-criterion for ELM
   LREAL  =      T    real-space projection
   NLSPLINE    = F    spline interpolate recip. space projectors
   LCOMPAT=      F    compatible to vasp.4.4
   GGA_COMPAT  = T    GGA compatible to vasp.4.4-vasp.4.6
   LMAXPAW     = -100 max onsite density
   LMAXMIX     =    2 max onsite mixed and CHGCAR
   VOSKOWN=      0    Vosko Wilk Nusair interpolation
   ROPT   =   -0.00050  -0.00050
 Ionic relaxation
   EDIFFG = 0.1E-02   stopping-criterion for IOM
   NSW    =      0    number of steps for IOM
   NBLOCK =      1;   KBLOCK =      1    inner block; outer block
   IBRION =     -1    ionic relax: 0-MD 1-quasi-New 2-CG
   NFREE  =      0    steps in history (QN), initial steepest desc. (CG)
   ISIF   =      2    stress and relaxation
   IWAVPR =     10    prediction:  0-non 1-charg 2-wave 3-comb
   ISYM   =      2    0-nonsym 1-usesym 2-fastsym
   LCORR  =      T    Harris-Foulkes like correction to forces

   POTIM  = 0.5000    time-step for ionic-motion
   TEIN   =    0.0    initial temperature
   TEBEG  =    0.0;   TEEND  =   0.0 temperature during run
   SMASS  =  -3.00    Nose mass-parameter (am)
   estimated Nose-frequenzy (Omega)   =  0.10E-29 period in steps =****** mass=  -0.232E-26a.u.
   SCALEE = 1.0000    scale energy and forces
   NPACO  =    256;   APACO  = 16.0  distance and # of slots for P.C.
   PSTRESS=    0.0 pullay stress

  Mass of Ions in am
   POMASS =  58.69 32.07
  Ionic Valenz
   ZVAL   =  16.00  6.00
  Atomic Wigner-Seitz radii
  virtual crystal weights
   VCA    =   1.00  1.00
   NELECT =     792.0000    total number of electrons
   NUPDOWN=      -1.0000    fix difference up-down

 DOS related values:
   EMIN   =  10.00;   EMAX   =-10.00  energy-range for DOS
   EFERMI =   0.00
   ISMEAR =     0;   SIGMA  =   0.20  broadening in eV -4-tet -1-fermi 0-gaus

 Electronic relaxation 2 (details)
   IALGO  =     38    algorithm
   LDIAG  =      T    sub-space diagonalisation (order eigenvalues)
   LSUBROT=      F    optimize rotation matrix (better conditioning)
   TURBO    =      0    0=normal 1=particle mesh
   IRESTART =      0    0=no restart 2=restart with 2 vectors
   NREBOOT  =      0    no. of reboots
[...]
  Fock        0.00000     0.00000     0.00000     0.00000     0.00000     0.00000
  Total      80.70686    82.26526   105.30124    -2.78244    -0.10515    -1.31408
  in kB      65.80545    67.07611    85.85881    -2.26870    -0.08574    -1.07145

 VOLUME and BASIS-vectors are now :
  energy-cutoff  :      450.00
  volume of cell :     1964.98
      direct lattice vectors                 reciprocal lattice vectors
    10.079732985  0.000000000  0.000000000     0.099208977 -0.037612667  0.000000000
     3.573298043  9.425102554  0.000000000     0.000000000  0.106099641  0.000000000
     0.000000000  0.000000000 20.683503555     0.000000000  0.000000000  0.048347708

  length of vectors
    10.079732985 10.079732985 20.683503555     0.106099641  0.106099641  0.048347708

 FORCES acting on ions
    electron-ion (+dipol)            ewald-force                    non-local-force                 convergence-correction
   0.540E+03 -.427E+03 0.350E+04   -.544E+03 0.431E+03 -.351E+04   0.275E+01 -.333E+01 0.295E+01   0.115E-02 0.109E-01 -.911E-02
   0.648E+01 -.347E+03 0.361E+02   -.702E+01 0.349E+03 -.354E+02   0.483E+00 -.140E+01 -.652E+00   0.779E-02 0.118E-01 -.254E-02
   -.295E+03 -.366E+03 -.320E+04   0.296E+03 0.369E+03 0.320E+04   -.709E+00 -.338E+01 -.154E+00   0.213E-01 0.832E-02 -.192E-01
   -.752E+02 -.738E+02 0.178E+04   0.755E+02 0.722E+02 -.178E+04   0.891E-01 0.540E+00 -.336E+01   -.353E-02 -.111E-01 -.328E-01
   0.487E+01 -.412E+03 -.106E+04   -.536E+01 0.414E+03 0.106E+04   0.611E+00 -.161E+01 0.274E-01   -.142E-01 -.368E-02 -.267E-01
   0.235E+03 -.622E+03 -.436E+04   -.237E+03 0.624E+03 0.436E+04   0.192E+01 -.117E+01 -.292E+01   -.111E-01 -.201E-01 -.137E-01
   0.163E+03 -.311E+03 0.457E+04   -.166E+03 0.310E+03 -.458E+04   0.211E+01 0.591E+00 0.433E+01   0.230E-02 -.445E-01 -.238E-01
   0.237E+03 -.137E+03 -.496E+04   -.238E+03 0.140E+03 0.496E+04   0.106E+01 -.315E+01 -.125E+01   -.117E-01 0.123E-01 0.148E-02
   -.177E+03 -.737E+03 0.112E+04   0.182E+03 0.741E+03 -.112E+04   -.293E+01 -.351E+01 -.172E+01   -.843E-02 -.587E-03 -.188E-01
   -.323E+02 -.476E+03 -.187E+04   0.321E+02 0.477E+03 0.187E+04   0.299E+00 -.140E+01 0.171E+01   -.762E-03 -.251E-02 0.646E-02
   0.230E+03 0.328E+03 0.435E+04   -.232E+03 -.329E+03 -.435E+04   0.140E+01 0.111E+01 0.268E+01   -.205E-01 -.875E-02 -.182E-01
   0.320E+03 0.530E+03 0.119E+04   -.322E+03 -.531E+03 -.119E+04   0.970E+00 0.873E+00 -.177E+01   -.840E-02 -.127E-02 -.137E-01
   0.363E+03 0.313E+03 -.182E+04   -.366E+03 -.313E+03 0.182E+04   0.288E+01 -.146E+00 0.125E+01   0.195E-01 -.659E-02 -.117E-01
   0.946E+02 -.243E+02 -.508E+04   -.967E+02 0.213E+02 0.508E+04   0.139E+01 0.354E+01 -.240E+01   0.170E-01 -.154E-01 0.516E-02
   0.782E+03 0.543E+03 0.327E+04   -.785E+03 -.545E+03 -.326E+04   0.263E+01 0.870E+00 0.115E+00   0.158E-01 0.280E-01 -.372E-01
   0.453E+03 0.251E+03 0.115E+03   -.454E+03 -.251E+03 -.116E+03   0.125E+01 0.482E-01 0.745E+00   0.545E-02 0.551E-02 -.881E-02
   0.398E+03 -.688E+02 -.281E+04   -.402E+03 0.686E+02 0.281E+04   0.258E+01 0.311E+00 0.594E+00   -.694E-02 0.217E-02 -.183E-01
   -.270E+03 -.450E+02 -.519E+04   0.268E+03 0.427E+02 0.519E+04   0.264E+01 0.215E+01 -.319E+01   -.172E-02 0.320E-01 -.550E-02
   0.456E+03 -.461E+02 0.586E+04   -.457E+03 0.440E+02 -.587E+04   0.129E+01 0.312E+01 0.644E+01   0.207E-02 -.373E-02 -.277E-01
   0.204E+03 0.537E+03 -.418E+04   -.207E+03 -.539E+03 0.418E+04   0.338E+01 0.147E+01 0.277E+01   -.751E-02 0.136E-01 -.114E-01
   0.907E+02 -.237E+03 0.439E+04   -.936E+02 0.238E+03 -.439E+04   0.341E+01 -.221E+01 0.679E+01   0.108E-01 0.115E-01 -.106E-01
   0.263E+03 0.373E+03 0.197E+04   -.263E+03 -.377E+03 -.197E+04   0.288E+00 0.234E+01 -.147E+01   -.473E-02 0.453E-02 -.107E-01
   0.422E+03 0.309E+03 -.920E+03   -.424E+03 -.309E+03 0.920E+03   0.165E+01 0.304E+00 0.652E-01   -.602E-02 -.260E-02 -.881E-02
   -.536E+03 -.241E+03 -.432E+04   0.542E+03 0.241E+03 0.432E+04   -.475E+01 0.574E+00 -.327E+00   -.827E-02 -.950E-02 -.264E-02
   -.296E+03 0.645E+03 0.531E+04   0.293E+03 -.643E+03 -.531E+04   0.239E+01 -.312E+01 0.202E+01   0.737E-02 0.203E-02 -.156E-01
   -.387E+03 0.516E+03 0.233E+04   0.389E+03 -.518E+03 -.233E+04   -.158E+01 0.188E+01 -.112E+01   0.201E-01 0.132E-03 -.142E-01
   -.410E+03 0.194E+03 -.849E+03   0.411E+03 -.194E+03 0.844E+03   -.214E+01 -.269E+00 0.281E+01   0.124E-01 0.309E-02 -.774E-02
   -.788E+03 0.264E+03 0.435E+04   0.794E+03 -.267E+03 -.435E+04   -.438E+01 0.188E+01 0.288E+01   -.293E-01 0.216E-01 -.274E-01
   -.349E+03 -.377E+02 0.107E+04   0.348E+03 0.391E+02 -.107E+04   0.670E+00 -.120E+01 -.677E+00   -.737E-02 -.208E-02 -.159E-01
   -.299E+03 0.895E+02 -.184E+04   0.301E+03 -.905E+02 0.183E+04   -.187E+01 0.125E+01 0.255E+01   -.445E-02 -.861E-02 -.193E-01
   -.216E+03 0.372E+03 -.503E+04   0.216E+03 -.374E+03 0.503E+04   -.328E+00 0.148E+01 0.242E+01   0.138E-01 -.877E-03 -.252E-02
   -.721E+03 -.121E+03 0.351E+04   0.726E+03 0.120E+03 -.351E+04   -.504E+01 0.314E+00 0.234E+01   -.826E-02 0.439E-02 -.168E-01
   -.471E+03 0.159E+03 0.110E+03   0.472E+03 -.159E+03 -.110E+03   -.113E+01 -.372E+00 -.451E-01   -.760E-02 -.114E-02 -.644E-02
   0.203E+03 0.284E+03 -.289E+04   -.203E+03 -.285E+03 0.288E+04   -.993E+00 0.135E+01 0.219E+01   -.259E-01 0.305E-01 -.271E-01
   -.198E+03 0.477E+03 -.533E+04   0.200E+03 -.481E+03 0.533E+04   -.133E+01 0.305E+01 0.100E+00   0.911E-02 0.523E-02 0.493E-02
   -.228E+03 -.926E+03 0.513E+04   0.229E+03 0.930E+03 -.514E+04   -.206E+01 -.318E+01 0.582E+01   -.536E-02 0.840E-02 -.197E-01
   -.127E+03 -.712E+01 -.205E+04   0.128E+03 0.658E+01 0.205E+04   -.442E+00 0.268E+00 -.186E+01   -.391E-02 -.322E-02 -.182E-02
   -.204E+02 0.484E+03 0.165E+04   0.209E+02 -.490E+03 -.165E+04   -.762E+00 0.282E+01 0.198E+01   -.843E-03 -.287E-02 -.930E-02
   0.101E+02 0.126E+03 0.422E+03   -.105E+02 -.128E+03 -.424E+03   0.321E+00 0.122E+01 0.160E+01   0.432E-02 -.381E-02 -.557E-02
   -.923E+01 0.815E+02 -.788E+03   0.816E+01 -.839E+02 0.783E+03   0.449E+00 0.147E+01 0.122E+01   0.291E-02 -.300E-02 0.427E-02
   0.134E+03 0.431E+03 0.220E+04   -.135E+03 -.434E+03 -.221E+04   0.634E+00 0.125E+01 0.102E+01   -.105E-02 0.221E-01 -.741E-02
   0.126E+03 0.106E+03 0.114E+04   -.127E+03 -.106E+03 -.114E+04   0.144E+00 0.152E+00 0.123E+01   0.109E-02 0.471E-02 -.366E-02
   0.375E+02 0.106E+03 -.680E+02   -.375E+02 -.108E+03 0.673E+02   -.884E-01 0.240E+01 0.564E+00   -.138E-03 0.226E-02 -.187E-02
   -.125E+03 0.183E+03 -.133E+04   0.126E+03 -.186E+03 0.134E+04   -.127E+01 0.704E+00 -.122E+01   0.101E-02 -.400E-03 -.949E-02
   -.399E+02 0.893E+02 0.545E+03   0.411E+02 -.904E+02 -.543E+03   -.982E+00 0.121E+01 -.103E+01   -.361E-02 -.860E-02 -.251E-02
   -.467E+02 0.184E+03 -.475E+03   0.468E+02 -.185E+03 0.474E+03   0.924E+00 0.158E+01 -.447E+00   -.634E-02 0.166E-03 -.768E-02
   0.247E+03 0.164E+03 -.167E+04   -.251E+03 -.164E+03 0.167E+04   0.226E+01 -.898E+00 -.579E+00   -.129E-01 -.607E-02 -.614E-02
   -.708E+01 0.231E+01 0.221E+04   0.668E+01 -.381E+01 -.222E+04   -.946E-02 0.214E+01 0.421E+01   -.355E-02 0.531E-02 -.570E-02
   0.680E+02 -.107E+03 0.235E+04   -.692E+02 0.108E+03 -.235E+04   0.125E+01 -.113E-01 0.140E+01   0.121E-02 0.286E-02 -.509E-02
   -.123E+03 0.259E+02 0.949E+03   0.125E+03 -.265E+02 -.947E+03   -.161E+01 0.131E+01 -.625E+00   0.353E-02 0.324E-02 -.290E-02
   -.107E+03 -.737E+02 -.150E+03   0.109E+03 0.757E+02 0.150E+03   -.245E+01 -.170E+01 0.112E+00   0.385E-02 0.166E-02 0.349E-03
   -.132E+03 -.613E+02 -.156E+04   0.135E+03 0.623E+02 0.157E+04   -.139E+01 -.282E+00 -.665E+00   -.217E-02 -.244E-03 -.521E-02
   -.348E+03 -.140E+03 0.192E+04   0.350E+03 0.141E+03 -.192E+04   -.949E+00 -.790E+00 0.107E+01   -.178E-01 -.124E-01 -.883E-02
   -.174E+03 -.747E+02 0.646E+03   0.176E+03 0.761E+02 -.647E+03   -.221E+01 -.173E+01 0.137E+01   -.101E-01 -.163E-02 -.863E-02
   -.925E+02 -.134E+03 -.517E+03   0.943E+02 0.136E+03 0.516E+03   -.206E+01 -.147E+01 0.740E-01   -.363E-02 -.679E-02 -.931E-02
   -.418E+02 -.160E+03 -.180E+04   0.435E+02 0.159E+03 0.180E+04   -.950E+00 0.282E+00 -.386E+00   0.836E-02 -.189E-02 -.133E-02
   -.142E+03 -.148E+03 0.276E+03   0.143E+03 0.150E+03 -.276E+03   -.141E+01 -.199E+01 0.785E+00   0.256E-02 0.392E-02 -.903E-03
   -.117E+03 -.113E+03 -.823E+03   0.119E+03 0.115E+03 0.822E+03   -.828E+00 -.206E+01 -.718E+00   -.339E-02 0.633E-02 0.386E-02
   0.255E+03 0.493E+02 -.223E+04   -.257E+03 -.494E+02 0.224E+04   0.651E+00 0.465E+00 -.207E+01   -.167E-01 0.188E-01 0.306E-02
   -.136E+03 -.291E+03 0.159E+04   0.136E+03 0.294E+03 -.160E+04   0.852E+00 -.720E+00 0.143E+01   -.460E-02 0.371E-02 -.924E-02
   0.987E+02 -.170E+03 0.187E+04   -.101E+03 0.171E+03 -.187E+04   0.103E+01 0.220E+00 0.330E+01   0.291E-03 -.110E-02 -.641E-02
   0.133E+03 -.109E+03 0.499E+03   -.134E+03 0.111E+03 -.497E+03   0.197E+01 -.149E+01 0.107E+01   -.113E-02 0.191E-02 -.465E-02
   0.141E+03 -.400E+02 -.534E+03   -.142E+03 0.410E+02 0.535E+03   0.173E+01 -.732E+00 -.189E+01   0.507E-02 0.575E-02 -.654E-02
   -.140E+03 0.138E+02 -.187E+04   0.142E+03 -.127E+02 0.188E+04   -.171E+01 -.389E+00 -.757E+00   0.189E-01 -.114E-01 -.503E-02
   0.170E+03 -.415E+02 0.166E+03   -.172E+03 0.426E+02 -.165E+03   0.258E+01 -.105E+01 -.382E+00   0.413E-02 0.294E-02 -.608E-02
   0.109E+03 -.126E+03 -.108E+04   -.111E+03 0.128E+03 0.108E+04   0.357E+01 -.982E+00 -.983E+00   -.423E-02 -.374E-02 -.609E-02
   0.354E+02 -.215E+03 -.222E+04   -.363E+02 0.217E+03 0.223E+04   0.134E+00 -.651E+00 -.204E+01   -.431E-02 -.710E-03 -.122E-02
   0.451E+03 0.548E+02 0.147E+04   -.455E+03 -.545E+02 -.147E+04   0.212E+01 0.191E+00 0.189E+01   0.182E-01 -.573E-02 -.180E-01
   -.168E+03 -.242E+03 0.200E+04   0.169E+03 0.244E+03 -.201E+04   0.120E+01 -.681E+00 0.338E+01   0.596E-03 0.588E-03 -.294E-02
   0.733E+02 -.329E+03 0.740E+03   -.747E+02 0.332E+03 -.737E+03   0.320E+00 -.165E+01 -.212E+01   0.613E-03 -.723E-03 -.870E-02
   0.130E+03 -.820E+02 -.233E+03   -.132E+03 0.825E+02 0.235E+03   0.255E+01 -.869E+00 -.142E+01   -.165E-02 -.310E-02 -.307E-02
   0.143E+03 0.389E+02 -.153E+04   -.145E+03 -.383E+02 0.154E+04   0.971E+00 0.422E-01 -.256E+01   0.834E-02 0.182E-02 -.161E-02
   -.154E+02 0.285E+01 -.378E+02   -.205E-11 -.259E-11 -.182E-11   0.154E+02 -.282E+01 0.385E+02   -.530E-01 0.833E-01 -.658E+00

 POSITION                                       TOTAL-FORCE (eV/Angst)
      6.84285      7.49250      2.44401        -1.469855      0.617182      2.030402
      7.82056      6.07621      5.06951        -0.042419     -0.137967      0.057049
      8.79827      4.65991      7.69501         0.123366      0.385408     -0.321528
      2.61774      3.87870      3.31918         0.362412     -1.159614      2.410618
      3.59545      2.46241      5.94468         0.101940     -0.216452     -0.071031
      4.57317      1.04611      8.57018        -0.286493      0.421300     -0.605983
     12.06389      5.60002      1.96003        -0.423798     -0.254741     -0.758147
      3.83436      7.23414      9.17401        -0.464866     -0.211322      0.899045
      8.47237      0.26490      4.19434         1.078238      0.133122      1.873556
     13.02338      8.27371      6.81985         0.092866     -0.281782     -0.356002
      5.58860      5.22438      2.15619        -0.125927     -0.309723     -1.196333
      6.61816      3.96023      4.37584        -0.391942      0.340625      1.524360
      7.59587      2.54394      7.00134         0.389562     -0.335451     -1.415792
      8.44839      0.99756      9.31910        -0.721809      0.579156      1.346233
      1.41534      1.76273      2.62550        -0.896559     -0.730284      2.042759
      2.39305      0.34643      5.25100         0.156621     -0.097648     -0.115534
      6.94406      8.35524      7.87651        -0.644465      0.100717     -2.886401
      6.94331      6.74388      9.58015         0.857661     -0.077294      0.574056
      2.01780      3.41612      0.81505        -0.518117      1.039883     -1.663660
      2.30450      4.82319      8.25914        -0.005975     -0.584740      1.163610
      8.98748      8.49719      2.04452         0.511024     -0.964298      0.203813
     10.84326      7.57403      3.50067         0.231898     -1.346802      0.774582
     11.82097      6.15773      6.12617        -0.217649      0.061102     -0.067281
      0.84582      1.54178      8.58651         0.427615      0.267845      1.090551
      8.04811      5.63833      1.47088         0.258272     -1.024711     -1.084439
      9.02296      4.33443      3.68216         0.556038     -0.016561      0.546547
     10.00068      2.91813      6.30767        -0.468870     -0.366108     -1.482901
      3.82015      2.13692      1.93183         1.545707     -0.546071      1.411690
      4.79786      0.72063      4.55733        -1.001873      0.164765      1.117823
      9.34887      8.72943      7.18283        -0.476140      0.185933     -1.415798
     10.31969      7.69733      9.17367         0.375741     -0.609395      1.143504
      3.16834      7.94822      2.80700         0.402213     -0.712123      0.708087
      4.14605      6.53193      5.43250         0.219790      0.130513     -0.081751
      5.12376      5.11563      8.05800        -1.086909      0.359569     -2.747571
      6.54036      4.22182      9.69020         0.426748     -0.275397      0.912140
      7.69005      0.01048      1.82557        -0.600003      1.103216     -1.126088
      3.67106      9.29473      9.65763         0.843225     -0.276701      2.272983
      7.32208      3.99793      2.44536        -0.280513     -2.791720     -2.571648
      8.33317      2.41029      4.86908        -0.010357     -0.165348     -0.120799
      9.31088      0.99399      7.49458        -0.625894     -0.912673     -3.760040
      2.25951      1.42711      0.78404        -0.420805     -2.139943     -3.513052
      3.13035      0.21279      3.11874        -0.477547     -0.150845      0.943691
      7.68136      8.22159      5.74425        -0.073896     -0.180005     -0.074791
      8.65907      6.80530      8.36975         0.286023     -1.624863     -0.310356
      2.47854      6.02409      3.99391         0.207529      0.139700      1.191733
      3.45626      4.60779      6.61941         0.977074     -0.301603     -1.651421
      4.97305      3.14020      8.89938        -1.330063     -0.326969      1.639710
     11.58056      7.44039      1.36841        -0.413796      0.647911     -2.243335
      7.82868      7.49336      0.64893         0.079027      0.630873     -3.987374
      8.88655      6.52099      3.12687         0.710874      0.730518      1.765831
      9.86427      5.10469      5.75238         0.052605      0.318856     -0.307024
     10.68900      3.61934      8.14039         1.461466      0.680667      2.010672
      3.73785      4.29446      1.56629         1.549813      0.996424     -1.800671
      4.66145      2.90719      4.00204        -0.135796     -0.346537      0.530751
      5.63916      1.49089      6.62754        -0.329162      0.264859     -1.023531
      6.50046      0.27909      8.96210         0.791164     -0.097180      1.817327
      4.00964      8.71849      4.87721         0.288591     -0.296808      0.652793
      4.98735      7.30220      7.50271         0.983625     -0.029902     -2.064574
      5.18394      5.80208     10.02703        -0.588271      0.414905      3.645695
      9.62254      0.59314      2.44927         0.946380      1.891017     -1.583769
      4.86360      7.17570      1.80057        -0.784773      0.780790     -2.037957
      5.82436      6.04450      4.01017         0.305962      0.639320      2.959507
      6.80207      4.62821      6.63567        -0.098583      0.340936     -0.840251
      8.07447      3.07771      8.96840        -0.261179      0.665507      2.410561
      1.59925      2.43070      4.88534         0.162584     -0.004239     -0.164772
      2.57697      1.01441      7.51084         0.739296      0.345490     -0.609479
      7.40782      8.82757      9.77630        -0.748178      0.854560      3.649910
     10.70128      3.84700      2.25984        -1.865852      0.517326      0.396779
      5.46032      0.97026      1.26791         1.454476      1.438231     -2.084116
      6.49875      0.13678      3.53621        -1.013622      1.499689      0.328050
     11.02718      8.24201      5.76051         0.131755     -0.424284      0.201496
     12.00489      6.82571      8.38601        -0.787228      0.640189     -0.102715
    total drift:                                0.027471      0.112613      0.003578

  FREE ENERGIE OF THE ION-ELECTRON SYSTEM (eV)
  free  energy   TOTEN  =      -351.77574563 eV

  energy  without entropy=     -350.79057475  energy(sigma->0) =     -351.28316019