 vasp.6.1.0 28Jan20 (build Mar 31 2020 17:42:31) gamma-only

 executed on             LinuxIFC date 2020.04.12  13:19:30

 INCAR:
 POTCAR:    PAW_PBE Ni_pv 06Sep2000
 POTCAR:    PAW_PBE S 06Sep2000
 POTCAR:    PAW_PBE Ni_pv 06Sep2000
   VRHFIN =Ni:

   TITEL  = PAW_PBE Ni_pv 06Sep2000
   POMASS =   58.690; ZVAL   =   16.000    mass and valenz
   ENMAX  =  367.986; ENMIN  =  275.989 eV

 POTCAR:    PAW_PBE S 06Sep2000
   VRHFIN =S : s2p4

   TITEL  = PAW_PBE S 06Sep2000
   POMASS =   32.066; ZVAL   =    6.000    mass and valenz
   ENMAX  =  258.689; ENMIN  =  194.016 eV

 Optimization of the real space projectors (new method)

 maximal supplied QI-value         = 18.90
 optimisation between [QCUT,QGAM] = [ 10.77, 21.73] = [ 32.49,132.25] Ry
 Optimized for a Real-space Cutoff    1.38 Angstroem

   l    n(q)    QCUT    max X(q) W(low)/X(q) W(high)/X(q)  e(spline)
   1      8    10.771     2.836    0.40E-04    0.29E-04    0.12E-06
   1      8    10.771     4.023    0.10E-03    0.48E-04    0.29E-06
   2      8    10.771    73.368    0.42E-03    0.97E-04    0.44E-06
   2      8    10.771    69.010    0.42E-03    0.99E-04    0.45E-06
   0      9    10.771    54.797    0.10E-03    0.56E-04    0.74E-07
   0      9    10.771    24.266    0.89E-04    0.49E-04    0.67E-07
 Optimization of the real space projectors (new method)

 maximal supplied QI-value         = 19.84
 optimisation between [QCUT,QGAM] = [ 10.71, 21.63] = [ 32.15,130.99] Ry
 Optimized for a Real-space Cutoff    1.19 Angstroem

   l    n(q)    QCUT    max X(q) W(low)/X(q) W(high)/X(q)  e(spline)
   0      8    10.715   187.594    0.41E-03    0.53E-04    0.66E-07
   0      8    10.715   164.243    0.41E-03    0.53E-04    0.65E-07
   1      7    10.715    67.533    0.19E-03    0.59E-03    0.68E-07
   1      7    10.715    50.729    0.19E-03    0.58E-03    0.67E-07
  PAW_PBE Ni_pv 06Sep2000               :
  PAW_PBE S 06Sep2000                   :

 POSCAR: Structure 1 made from -120-1.xsd file
  positions in direct lattice
 exchange correlation table for  LEXCH =        8
   RHO(1)=    0.500       N(1)  =     2000
   RHO(2)=  100.500       N(2)  =     4000

 ion  position               nearest neighbor table
   1  0.256  0.016  0.000-  75 2.25  65 2.26  53 2.36
   2  0.256  0.016  0.343-  76 2.25  66 2.26  81 2.26  54 2.36  93 2.36   5 2.53   9 2.53
   3  0.006  0.266  0.172-  61 2.25  67 2.26  71 2.26  55 2.36  59 2.36   7 2.53  23 2.53
   4  0.006  0.266  0.515-  62 2.25  72 2.26  68 2.26  60 2.36  56 2.36  24 2.53   8 2.53
   5  0.256  0.016  0.253-  79 2.25  61 2.26  81 2.26  49 2.36  93 2.36   2 2.53   9 2.53
   6  0.256  0.016  0.596-  80 2.25  62 2.26  82 2.26  50 2.36  94 2.36  10 2.53
   7  0.006  0.266  0.081-  65 2.25  71 2.26  63 2.26  59 2.36  51 2.36  23 2.53   3 2.53
   8  0.006  0.266  0.424-  66 2.25  64 2.26  72 2.26  52 2.36  60 2.36   4 2.53  24 2.53
   9  0.190  0.215  0.298-  57 2.25  66 2.26  61 2.26  54 2.36  49 2.36   5 2.53   2 2.53
  10  0.190  0.215  0.641-  58 2.25  62 2.26  50 2.36   6 2.53
  11  0.440  0.465  0.126-  83 2.25  51 2.26  55 2.26  63 2.36  67 2.36  19 2.53  15 2.53
  12  0.440  0.465  0.470-  84 2.25  56 2.26  52 2.26  68 2.36  64 2.36  16 2.53  20 2.53
  13  0.756  0.016  0.000-  87 2.25  53 2.26  65 2.36
  14  0.756  0.016  0.343-  88 2.25  54 2.26  93 2.26  66 2.36  81 2.36  17 2.53  21 2.53
  15  0.506  0.266  0.172-  49 2.25  55 2.26  59 2.26  67 2.36  71 2.36  19 2.53  11 2.53
  16  0.506  0.266  0.515-  50 2.25  60 2.26  56 2.26  72 2.36  68 2.36  12 2.53  20 2.53
  17  0.756  0.016  0.253-  91 2.25  49 2.26  93 2.26  61 2.36  81 2.36  14 2.53  21 2.53
  18  0.756  0.016  0.596-  92 2.25  50 2.26  94 2.26  62 2.36  82 2.36  22 2.53
  19  0.506  0.266  0.081-  53 2.25  59 2.26  51 2.26  71 2.36  63 2.36  11 2.53  15 2.53
  20  0.506  0.266  0.424-  54 2.25  52 2.26  60 2.26  64 2.36  72 2.36  16 2.53  12 2.53
  21  0.690  0.215  0.298-  69 2.25  54 2.26  49 2.26  66 2.36  61 2.36  17 2.53  14 2.53
  22  0.690  0.215  0.641-  70 2.25  50 2.26  62 2.36  18 2.53
  23  0.940  0.465  0.126-  95 2.25  63 2.26  67 2.26  51 2.36  55 2.36   7 2.53   3 2.53
  24  0.940  0.465  0.470-  96 2.25  68 2.26  64 2.26  56 2.36  52 2.36   4 2.53   8 2.53
  25  0.256  0.516  0.000-  51 2.25  89 2.26  77 2.36
  26  0.256  0.516  0.343-  52 2.25  90 2.26  57 2.26  78 2.36  69 2.36  29 2.53  33 2.53
  27  0.006  0.766  0.172-  85 2.25  91 2.26  95 2.26  79 2.36  83 2.36  31 2.53  47 2.53
  28  0.006  0.766  0.515-  86 2.25  96 2.26  92 2.26  84 2.36  80 2.36  48 2.53  32 2.53
  29  0.256  0.516  0.253-  55 2.25  85 2.26  57 2.26  73 2.36  69 2.36  26 2.53  33 2.53
  30  0.256  0.516  0.596-  56 2.25  86 2.26  58 2.26  74 2.36  70 2.36  34 2.53
  31  0.006  0.766  0.081-  89 2.25  95 2.26  87 2.26  83 2.36  75 2.36  47 2.53  27 2.53
  32  0.006  0.766  0.424-  90 2.25  88 2.26  96 2.26  76 2.36  84 2.36  28 2.53  48 2.53
  33  0.190  0.715  0.298-  81 2.25  90 2.26  85 2.26  78 2.36  73 2.36  29 2.53  26 2.53
  34  0.190  0.715  0.641-  82 2.25  86 2.26  74 2.36  30 2.53
  35  0.440  0.965  0.126-  59 2.25  75 2.26  79 2.26  87 2.36  91 2.36  43 2.53  39 2.53
  36  0.440  0.965  0.470-  60 2.25  80 2.26  76 2.26  92 2.36  88 2.36  40 2.53  44 2.53
  37  0.756  0.516  0.000-  63 2.25  77 2.26  89 2.36
  38  0.756  0.516  0.343-  64 2.25  78 2.26  69 2.26  90 2.36  57 2.36  41 2.53  45 2.53
  39  0.506  0.766  0.172-  73 2.25  79 2.26  83 2.26  91 2.36  95 2.36  43 2.53  35 2.53
  40  0.506  0.766  0.515-  74 2.25  84 2.26  80 2.26  96 2.36  92 2.36  36 2.53  44 2.53
  41  0.756  0.516  0.253-  67 2.25  73 2.26  69 2.26  85 2.36  57 2.36  38 2.53  45 2.53
  42  0.756  0.516  0.596-  68 2.25  74 2.26  70 2.26  86 2.36  58 2.36  46 2.53
  43  0.506  0.766  0.081-  77 2.25  83 2.26  75 2.26  95 2.36  87 2.36  35 2.53  39 2.53
  44  0.506  0.766  0.424-  78 2.25  76 2.26  84 2.26  88 2.36  96 2.36  40 2.53  36 2.53
  45  0.690  0.715  0.298-  93 2.25  78 2.26  73 2.26  90 2.36  85 2.36  41 2.53  38 2.53
  46  0.690  0.715  0.641-  94 2.25  74 2.26  86 2.36  42 2.53
  47  0.940  0.965  0.126-  71 2.25  87 2.26  91 2.26  75 2.36  79 2.36  31 2.53  27 2.53
  48  0.940  0.965  0.470-  72 2.25  92 2.26  88 2.26  80 2.36  76 2.36  28 2.53  32 2.53
  49  0.468  0.167  0.240-  15 2.25  17 2.26  21 2.26   5 2.36   9 2.36
  50  0.468  0.167  0.584-  16 2.25  22 2.26  18 2.26  10 2.36   6 2.36
  51  0.218  0.417  0.069-  25 2.25  11 2.26  19 2.26  23 2.36   7 2.36
  52  0.218  0.417  0.412-  26 2.25  20 2.26  12 2.26   8 2.36  24 2.36
  53  0.468  0.167  0.012-  19 2.25  13 2.26   1 2.36
  54  0.468  0.167  0.356-  20 2.25  21 2.26  14 2.26   9 2.36   2 2.36
  55  0.218  0.417  0.184-  29 2.25  15 2.26  11 2.26   3 2.36  23 2.36
  56  0.218  0.417  0.528-  30 2.25  12 2.26  16 2.26  24 2.36   4 2.36
  57  0.053  0.414  0.298-   9 2.25  26 2.26  29 2.26  38 2.36  41 2.36
  58  0.053  0.414  0.641-  10 2.25  30 2.26  42 2.36
  59  0.303  0.164  0.126-  35 2.25  19 2.26  15 2.26   7 2.36   3 2.36
  60  0.303  0.164  0.470-  36 2.25  16 2.26  20 2.26   4 2.36   8 2.36
[...]
  82  0.053  0.914  0.641-  34 2.25   6 2.26  18 2.36
  83  0.303  0.664  0.126-  11 2.25  43 2.26  39 2.26  31 2.36  27 2.36
  84  0.303  0.664  0.470-  12 2.25  40 2.26  44 2.26  28 2.36  32 2.36
  85  0.968  0.667  0.240-  27 2.25  29 2.26  33 2.26  41 2.36  45 2.36
  86  0.968  0.667  0.584-  28 2.25  34 2.26  30 2.26  46 2.36  42 2.36
  87  0.718  0.917  0.069-  13 2.25  47 2.26  31 2.26  35 2.36  43 2.36
  88  0.718  0.917  0.412-  14 2.25  32 2.26  48 2.26  44 2.36  36 2.36
  89  0.968  0.667  0.012-  31 2.25  25 2.26  37 2.36
  90  0.968  0.667  0.356-  32 2.25  33 2.26  26 2.26  45 2.36  38 2.36
  91  0.718  0.917  0.184-  17 2.25  27 2.26  47 2.26  39 2.36  35 2.36
  92  0.718  0.917  0.528-  18 2.25  48 2.26  28 2.26  36 2.36  40 2.36
  93  0.553  0.914  0.298-  45 2.25  17 2.26  14 2.26   5 2.36   2 2.36
  94  0.553  0.914  0.641-  46 2.25  18 2.26   6 2.36
  95  0.803  0.664  0.126-  23 2.25  31 2.26  27 2.26  43 2.36  39 2.36
  96  0.803  0.664  0.470-  24 2.25  28 2.26  32 2.26  40 2.36  44 2.36

  LATTYP: Found a simple monoclinic cell.
 ALAT       =    13.8711386352
 B/A-ratio  =     2.0107565815
 C/A-ratio  =     1.3233367991
 COS(beta)  =    -0.9620914447

  Lattice vectors:

 A1 = (  -6.1690871197, -12.4238017992,   0.0000000000)
 A2 = (   0.0000000000,   0.0000000000, -27.8914833038)
 A3 = (  12.3381742394,  13.5911405602,   0.0000000000)

Analysis of symmetry for initial positions (statically):
 Subroutine PRICEL returns following result:

[...]

   4 primitive cells build up your supercell.

 Routine SETGRP: Setting up the symmetry group for a
 simple monoclinic supercell.

 Subroutine GETGRP returns: Found  1 space group operations
 (whereof  1 operations were pure point group operations)
 out of a pool of  4 trial point group operations.

The static configuration has the point symmetry C_1 .

Analysis of symmetry for dynamics (positions and initial velocities):
 Subroutine PRICEL returns following result:

  LATTYP: Found a simple monoclinic cell.
 ALAT       =     6.9355693176
 B/A-ratio  =     4.0215131630
 C/A-ratio  =     1.3233367991
 COS(beta)  =    -0.9620914447

  Lattice vectors:

 A1 = (  -3.0845435599,  -6.2119008996,   0.0000000000)
 A2 = (   0.0000000000,   0.0000000000, -27.8914833038)
 A3 = (   6.1690871197,   6.7955702801,   0.0000000000)

   4 primitive cells build up your supercell.

 Routine SETGRP: Setting up the symmetry group for a
 simple monoclinic supercell.

 Subroutine GETGRP returns: Found  1 space group operations
 (whereof  1 operations were pure point group operations)
 out of a pool of  4 trial point group operations.

The dynamic configuration has the point symmetry C_1 .

 Subroutine INISYM returns: Found  1 space group operations
 (whereof  1 operations are pure point group operations),
 and found     4 'primitive' translations

                                     Primitive cell

  volume of cell :     484.2108

  direct lattice vectors                    reciprocal lattice vectors
    -3.084543560 -6.211900900  0.000000000     0.391438057 -0.355351409  0.000000000
     0.000000000  0.000000000-27.891483304     0.000000000  0.000000000 -0.035853238
     6.169087120  6.795570280  0.000000000     0.357817566 -0.177675704  0.000000000

  length of vectors
     6.935569318 27.891483304  9.178094101     0.528676060  0.035853238  0.399502273

  position of ions in fractional coordinates (direct lattice)
     0.446784512  0.000000000  0.479701694
     0.446784512  0.656582983  0.479701694
     0.946784544  0.828291491  0.479701710
     0.946784544  0.484874474  0.479701710
     0.446784512  0.747315819  0.479701694
     0.446784512  0.403898802  0.479701694
     0.946784544  0.919024328  0.479701710
     0.946784544  0.575607311  0.479701710
     0.522063536  0.701949401  0.951289706
     0.522063536  0.358532384  0.951289706
     0.022063564  0.873657910  0.951289720
     0.022063564  0.530240892  0.951289720
     0.947842866  0.873657910  0.276433038
     0.947842866  0.530240892  0.276433038
     0.270337866  0.759717295  0.603573038
     0.270337866  0.416300277  0.603573038
[...]
     0.000000000  0.000000000 27.891483304     0.000000000  0.000000000  0.035853238

  length of vectors
     6.278560000 11.256463038 27.891483304     0.162098538  0.090414315  0.035853238

 FORCES acting on ions
    electron-ion (+dipol)            ewald-force                    non-local-force                 convergence-correction
   -.527E+02 0.121E+03 0.580E+04   0.484E+02 -.115E+03 -.579E+04   0.395E+01 -.504E+01 -.811E+01   -.102E-01 0.406E-01 -.282E+00
   -.885E+02 0.246E+03 -.783E+03   0.877E+02 -.246E+03 0.783E+03   0.876E+00 0.742E+00 -.103E+01   -.449E-02 0.784E-02 0.274E+00
   -.885E+02 0.246E+03 0.266E+04   0.879E+02 -.247E+03 -.267E+04   0.708E+00 0.104E+01 -.174E+00   0.705E-02 -.399E-01 -.600E-01
   -.887E+02 0.248E+03 -.422E+04   0.881E+02 -.248E+03 0.422E+04   0.761E+00 0.906E+00 -.207E+01   0.541E-03 -.141E-01 0.574E+00
   -.885E+02 0.245E+03 0.193E+04   0.877E+02 -.246E+03 -.193E+04   0.873E+00 0.785E+00 0.114E+01   -.485E-02 0.255E-01 0.224E+00
   -.834E+02 0.218E+03 -.513E+04   0.823E+02 -.219E+03 0.513E+04   0.135E+01 0.139E+01 -.215E+01   0.237E-02 -.196E-01 0.124E+00
   -.947E+02 0.258E+03 0.540E+04   0.939E+02 -.260E+03 -.540E+04   0.713E+00 0.268E+01 0.395E+01   0.251E-02 -.192E-01 -.372E+00
   -.885E+02 0.246E+03 -.151E+04   0.877E+02 -.246E+03 0.151E+04   0.816E+00 0.811E+00 0.620E+00   0.425E-02 -.237E-01 0.418E+00
   0.554E+02 -.514E+03 0.574E+03   -.563E+02 0.515E+03 -.575E+03   0.107E+01 -.970E+00 -.203E-01   0.196E-02 0.699E-02 0.246E+00
   -.321E+01 -.164E+03 -.596E+04   -.133E+01 0.169E+03 0.595E+04   0.396E+01 -.443E+01 0.647E+01   0.819E-02 -.139E-02 -.698E-01
   0.553E+02 -.514E+03 0.401E+04   -.561E+02 0.514E+03 -.402E+04   0.102E+01 -.950E+00 0.747E+00   -.108E-01 0.392E-01 -.275E+00
   0.558E+02 -.516E+03 -.287E+04   -.566E+02 0.517E+03 0.287E+04   0.108E+01 -.756E+00 -.624E+00   -.171E-01 0.471E-01 0.568E+00
   -.527E+02 0.121E+03 0.580E+04   0.484E+02 -.115E+03 -.579E+04   0.395E+01 -.504E+01 -.811E+01   -.864E-02 0.445E-01 -.282E+00
   -.885E+02 0.246E+03 -.783E+03   0.877E+02 -.246E+03 0.783E+03   0.876E+00 0.742E+00 -.103E+01   -.458E-02 0.791E-02 0.273E+00
   -.885E+02 0.246E+03 0.266E+04   0.879E+02 -.247E+03 -.267E+04   0.708E+00 0.104E+01 -.174E+00   0.683E-02 -.393E-01 -.599E-01
   -.887E+02 0.248E+03 -.422E+04   0.881E+02 -.248E+03 0.422E+04   0.761E+00 0.906E+00 -.207E+01   0.804E-03 -.142E-01 0.574E+00
   -.885E+02 0.245E+03 0.193E+04   0.877E+02 -.246E+03 -.193E+04   0.873E+00 0.785E+00 0.114E+01   -.581E-02 0.254E-01 0.224E+00
   -.834E+02 0.218E+03 -.513E+04   0.823E+02 -.219E+03 0.513E+04   0.135E+01 0.139E+01 -.215E+01   0.256E-02 -.199E-01 0.123E+00
   -.947E+02 0.258E+03 0.540E+04   0.939E+02 -.260E+03 -.540E+04   0.713E+00 0.268E+01 0.395E+01   0.108E-02 -.182E-01 -.373E+00
   -.885E+02 0.246E+03 -.151E+04   0.877E+02 -.246E+03 0.151E+04   0.816E+00 0.811E+00 0.620E+00   0.358E-02 -.245E-01 0.418E+00
   0.554E+02 -.514E+03 0.574E+03   -.563E+02 0.515E+03 -.575E+03   0.107E+01 -.970E+00 -.203E-01   0.185E-02 0.675E-02 0.246E+00
   -.321E+01 -.164E+03 -.596E+04   -.133E+01 0.169E+03 0.595E+04   0.396E+01 -.443E+01 0.647E+01   0.840E-02 -.103E-02 -.702E-01
   0.553E+02 -.514E+03 0.401E+04   -.561E+02 0.514E+03 -.402E+04   0.102E+01 -.950E+00 0.747E+00   -.121E-01 0.395E-01 -.276E+00
   0.558E+02 -.516E+03 -.287E+04   -.566E+02 0.517E+03 0.287E+04   0.108E+01 -.756E+00 -.624E+00   -.165E-01 0.469E-01 0.569E+00
   -.527E+02 0.121E+03 0.580E+04   0.484E+02 -.115E+03 -.579E+04   0.395E+01 -.504E+01 -.811E+01   -.873E-02 0.410E-01 -.282E+00
   -.885E+02 0.246E+03 -.783E+03   0.877E+02 -.246E+03 0.783E+03   0.876E+00 0.742E+00 -.103E+01   -.422E-02 0.755E-02 0.274E+00
   -.885E+02 0.246E+03 0.266E+04   0.879E+02 -.247E+03 -.267E+04   0.708E+00 0.104E+01 -.174E+00   0.632E-02 -.391E-01 -.597E-01
   -.887E+02 0.248E+03 -.422E+04   0.881E+02 -.248E+03 0.422E+04   0.761E+00 0.906E+00 -.207E+01   0.680E-03 -.140E-01 0.572E+00
   -.885E+02 0.245E+03 0.193E+04   0.877E+02 -.246E+03 -.193E+04   0.873E+00 0.785E+00 0.114E+01   -.499E-02 0.241E-01 0.225E+00
   -.834E+02 0.218E+03 -.513E+04   0.823E+02 -.219E+03 0.513E+04   0.135E+01 0.139E+01 -.215E+01   0.321E-02 -.245E-01 0.124E+00
   -.947E+02 0.258E+03 0.540E+04   0.939E+02 -.260E+03 -.540E+04   0.713E+00 0.268E+01 0.395E+01   0.438E-03 -.185E-01 -.372E+00
   -.885E+02 0.246E+03 -.151E+04   0.877E+02 -.246E+03 0.151E+04   0.816E+00 0.811E+00 0.620E+00   0.437E-02 -.242E-01 0.417E+00
   0.554E+02 -.514E+03 0.574E+03   -.563E+02 0.515E+03 -.575E+03   0.107E+01 -.970E+00 -.203E-01   0.222E-02 0.618E-02 0.246E+00
   -.321E+01 -.164E+03 -.596E+04   -.133E+01 0.169E+03 0.595E+04   0.396E+01 -.443E+01 0.647E+01   0.773E-02 -.409E-02 -.717E-01
   0.553E+02 -.514E+03 0.401E+04   -.561E+02 0.514E+03 -.402E+04   0.102E+01 -.950E+00 0.747E+00   -.120E-01 0.396E-01 -.274E+00
   0.558E+02 -.516E+03 -.287E+04   -.566E+02 0.517E+03 0.287E+04   0.108E+01 -.756E+00 -.624E+00   -.171E-01 0.480E-01 0.568E+00
   -.527E+02 0.121E+03 0.580E+04   0.484E+02 -.115E+03 -.579E+04   0.395E+01 -.504E+01 -.811E+01   -.987E-02 0.421E-01 -.278E+00
   -.885E+02 0.246E+03 -.783E+03   0.877E+02 -.246E+03 0.783E+03   0.876E+00 0.742E+00 -.103E+01   -.413E-02 0.819E-02 0.274E+00
   -.885E+02 0.246E+03 0.266E+04   0.879E+02 -.247E+03 -.267E+04   0.708E+00 0.104E+01 -.174E+00   0.717E-02 -.395E-01 -.600E-01
   -.887E+02 0.248E+03 -.422E+04   0.881E+02 -.248E+03 0.422E+04   0.761E+00 0.906E+00 -.207E+01   0.227E-03 -.143E-01 0.573E+00
   -.885E+02 0.245E+03 0.193E+04   0.877E+02 -.246E+03 -.193E+04   0.873E+00 0.785E+00 0.114E+01   -.486E-02 0.247E-01 0.224E+00
   -.834E+02 0.218E+03 -.513E+04   0.823E+02 -.219E+03 0.513E+04   0.135E+01 0.139E+01 -.215E+01   0.303E-02 -.243E-01 0.124E+00
   -.947E+02 0.258E+03 0.540E+04   0.939E+02 -.260E+03 -.540E+04   0.713E+00 0.268E+01 0.395E+01   0.291E-02 -.192E-01 -.373E+00
   -.885E+02 0.246E+03 -.151E+04   0.877E+02 -.246E+03 0.151E+04   0.816E+00 0.811E+00 0.620E+00   0.371E-02 -.242E-01 0.417E+00
   0.554E+02 -.514E+03 0.574E+03   -.563E+02 0.515E+03 -.575E+03   0.107E+01 -.970E+00 -.203E-01   0.238E-02 0.605E-02 0.246E+00
   -.321E+01 -.164E+03 -.596E+04   -.133E+01 0.169E+03 0.595E+04   0.396E+01 -.443E+01 0.647E+01   0.749E-02 -.463E-02 -.718E-01
   0.553E+02 -.514E+03 0.401E+04   -.561E+02 0.514E+03 -.402E+04   0.102E+01 -.950E+00 0.747E+00   -.111E-01 0.394E-01 -.275E+00
   0.558E+02 -.516E+03 -.287E+04   -.566E+02 0.517E+03 0.287E+04   0.108E+01 -.756E+00 -.624E+00   -.168E-01 0.478E-01 0.568E+00
   0.546E+02 -.746E+02 0.794E+03   -.554E+02 0.755E+02 -.797E+03   0.794E+00 -.117E+01 0.276E+01   -.442E-02 0.870E-02 0.915E-01
   0.477E+02 -.426E+02 -.178E+04   -.493E+02 0.445E+02 0.178E+04   0.184E+01 -.216E+01 0.206E+01   0.663E-02 -.396E-01 0.552E-01
   0.538E+02 -.649E+02 0.208E+04   -.550E+02 0.661E+02 -.208E+04   0.960E+00 -.130E+01 0.238E+01   -.995E-03 -.725E-03 -.140E+00
   0.545E+02 -.748E+02 -.498E+03   -.554E+02 0.756E+02 0.496E+03   0.916E+00 -.121E+01 0.270E+01   -.784E-02 0.441E-01 0.112E+00
   0.549E+02 -.137E+03 0.222E+04   -.550E+02 0.138E+03 -.222E+04   0.856E+00 -.297E+01 0.181E+01   -.306E-03 -.136E-02 -.123E+00
   0.545E+02 -.745E+02 -.364E+03   -.554E+02 0.755E+02 0.366E+03   0.859E+00 -.121E+01 -.273E+01   0.987E-03 -.194E-01 0.619E-01
   0.542E+02 -.740E+02 0.929E+03   -.554E+02 0.752E+02 -.927E+03   0.112E+01 -.153E+01 -.274E+01   -.635E-02 0.195E-01 0.613E-02
   0.553E+02 -.800E+02 -.166E+04   -.564E+02 0.811E+02 0.166E+04   0.908E+00 -.137E+01 -.382E+01   0.106E-02 0.844E-02 0.209E+00
   0.774E+01 0.171E+03 0.215E+03   -.829E+01 -.174E+03 -.215E+03   0.302E+00 0.285E+01 -.649E-01   0.581E-02 -.181E-01 0.108E+00
   0.297E+02 -.652E+00 -.227E+04   -.310E+02 0.126E+01 0.227E+04   0.139E+01 -.585E+00 -.398E+01   -.902E-02 0.371E-01 -.319E-01
   0.825E+01 0.170E+03 0.151E+04   -.868E+01 -.172E+03 -.151E+04   0.182E+00 0.288E+01 0.952E+00   -.107E-02 -.111E-01 -.109E+00
   0.774E+01 0.172E+03 -.108E+04   -.812E+01 -.174E+03 0.108E+04   0.879E-01 0.311E+01 0.187E+00   0.111E-02 -.181E-01 0.228E+00
[...]
   0.825E+01 0.170E+03 0.151E+04   -.868E+01 -.172E+03 -.151E+04   0.182E+00 0.288E+01 0.952E+00   -.683E-03 -.113E-01 -.109E+00
   0.774E+01 0.172E+03 -.108E+04   -.812E+01 -.174E+03 0.108E+04   0.879E-01 0.311E+01 0.187E+00   0.111E-02 -.183E-01 0.228E+00
   0.546E+02 -.746E+02 0.794E+03   -.554E+02 0.755E+02 -.797E+03   0.794E+00 -.117E+01 0.276E+01   -.453E-02 0.855E-02 0.915E-01
   0.477E+02 -.426E+02 -.178E+04   -.493E+02 0.445E+02 0.178E+04   0.184E+01 -.216E+01 0.206E+01   0.683E-02 -.406E-01 0.547E-01
   0.538E+02 -.649E+02 0.208E+04   -.550E+02 0.661E+02 -.208E+04   0.960E+00 -.130E+01 0.238E+01   -.894E-03 -.736E-03 -.140E+00
   0.545E+02 -.748E+02 -.498E+03   -.554E+02 0.756E+02 0.496E+03   0.916E+00 -.121E+01 0.270E+01   -.786E-02 0.441E-01 0.112E+00
   0.549E+02 -.137E+03 0.222E+04   -.550E+02 0.138E+03 -.222E+04   0.856E+00 -.297E+01 0.181E+01   -.588E-03 -.162E-02 -.122E+00
   0.545E+02 -.745E+02 -.364E+03   -.554E+02 0.755E+02 0.366E+03   0.859E+00 -.121E+01 -.273E+01   0.971E-03 -.195E-01 0.618E-01
   0.542E+02 -.740E+02 0.929E+03   -.554E+02 0.752E+02 -.927E+03   0.112E+01 -.153E+01 -.274E+01   -.639E-02 0.196E-01 0.617E-02
   0.553E+02 -.800E+02 -.166E+04   -.564E+02 0.811E+02 0.166E+04   0.908E+00 -.137E+01 -.382E+01   0.104E-02 0.900E-02 0.209E+00
   0.774E+01 0.171E+03 0.215E+03   -.829E+01 -.174E+03 -.215E+03   0.302E+00 0.285E+01 -.649E-01   0.580E-02 -.181E-01 0.108E+00
   0.297E+02 -.653E+00 -.227E+04   -.310E+02 0.126E+01 0.227E+04   0.139E+01 -.585E+00 -.398E+01   -.921E-02 0.383E-01 -.319E-01
   0.825E+01 0.170E+03 0.151E+04   -.868E+01 -.172E+03 -.151E+04   0.182E+00 0.288E+01 0.952E+00   -.985E-03 -.112E-01 -.109E+00
   0.774E+01 0.172E+03 -.108E+04   -.812E+01 -.174E+03 0.108E+04   0.879E-01 0.311E+01 0.187E+00   0.111E-02 -.183E-01 0.228E+00
   -.110E+03 0.338E+02 -.442E+00   -.203E-11 -.227E-11 0.111E-10   0.110E+03 -.339E+02 -.702E+01   -.142E+00 0.226E+00 0.734E+01

 POSITION                                       TOTAL-FORCE (eV/Angst)
      1.58120      0.48447      0.00000        -0.413298      1.720199      1.741893
      1.58120      0.48447      9.57841         0.062338      0.170862     -0.340773
      0.03892      3.00675      4.78921         0.064324      0.179843     -0.325687
      0.03892      3.00675     14.36762         0.117769      0.163052     -0.530913
      1.58120      0.48447      7.04774         0.088112      0.157906      0.385390
      1.58120      0.48447     16.62615         0.223807     -0.437045      0.449472
      0.03892      3.00675      2.25853        -0.069926      0.144546      0.645537
      0.03892      3.00675     11.83694         0.026572      0.242113      0.285508
      1.17372      2.63788      8.31307         0.213583     -0.307994     -0.014813
      1.17372      2.63788     17.89148        -0.568316      0.684998     -1.942730
      2.71599      5.74383      3.52387         0.230002     -0.431601      0.106019
      2.71599      5.74383     13.10228         0.249917     -0.425145     -0.128143
      4.66574      1.06813      0.00000        -0.413298      1.720199      1.741893
      4.66574      1.06813      9.57841         0.062338      0.170862     -0.340773
      3.12347      3.59042      4.78921         0.064324      0.179843     -0.325687
      3.12347      3.59042     14.36762         0.117769      0.163052     -0.530913
      4.66574      1.06813      7.04774         0.088112      0.157906      0.385390
      4.66574      1.06813     16.62615         0.223807     -0.437045      0.449472
      3.12347      3.59042      2.25853        -0.069926      0.144546      0.645537
      3.12347      3.59042     11.83694         0.026572      0.242113      0.285508
      4.25826      3.22155      8.31307         0.213583     -0.307994     -0.014813
      4.25826      3.22155     17.89148        -0.568316      0.684998     -1.942730
      5.80053      6.32750      3.52387         0.230002     -0.431601      0.106019
      5.80053      6.32750     13.10228         0.249917     -0.425145     -0.128143
      1.58120      6.11270      0.00000        -0.413298      1.720199      1.741893
      1.58120      6.11270      9.57841         0.062338      0.170862     -0.340773
      0.03892      8.63498      4.78921         0.064324      0.179843     -0.325687
      0.03892      8.63498     14.36762         0.117769      0.163052     -0.530913
      1.58120      6.11270      7.04774         0.088112      0.157906      0.385390
      1.58120      6.11270     16.62615         0.223807     -0.437045      0.449472
      0.03892      8.63498      2.25853        -0.069926      0.144546      0.645537
      0.03892      8.63498     11.83694         0.026572      0.242113      0.285508
      1.17372      8.26611      8.31307         0.213583     -0.307994     -0.014813
      1.17372      8.26611     17.89148        -0.568316      0.684998     -1.942730
      2.71599     11.37206      3.52387         0.230002     -0.431601      0.106019
      2.71599     11.37206     13.10228         0.249917     -0.425145     -0.128143
      4.66574      6.69637      0.00000        -0.413298      1.720199      1.741893
      4.66574      6.69637      9.57841         0.062338      0.170862     -0.340773
      3.12347      9.21865      4.78921         0.064324      0.179843     -0.325687
      3.12347      9.21865     14.36762         0.117769      0.163052     -0.530913
      4.66574      6.69637      7.04774         0.088112      0.157906      0.385390
      4.66574      6.69637     16.62615         0.223807     -0.437045      0.449472
      3.12347      9.21865      2.25853        -0.069926      0.144546      0.645537
      3.12347      9.21865     11.83694         0.026572      0.242113      0.285508
      4.25826      8.84978      8.31307         0.213583     -0.307994     -0.014813
      4.25826      8.84978     17.89148        -0.568316      0.684998     -1.942730
      5.80053     11.95573      3.52387         0.230002     -0.431601      0.106019
      5.80053     11.95573     13.10228         0.249917     -0.425145     -0.128143
      2.88963      2.42231      6.70184        -0.047876     -0.248856      0.393980
      2.88963      2.42231     16.28025         0.291122     -0.279609      1.997558
      1.34735      4.94459      1.91264        -0.251762     -0.084849     -0.711113
      1.34735      4.94459     11.49105        -0.072417     -0.292850      0.447697
      2.88963      2.42231      0.34590         0.709305     -1.777419     -1.174461
      2.88963      2.42231      9.92431        -0.021185     -0.264989     -0.424423
      1.34735      4.94459      5.13510        -0.057125     -0.289435     -0.454799
      1.34735      4.94459     14.71351        -0.163843     -0.250363     -0.267999
      0.32395      4.72480      8.31307        -0.233544      0.508111     -0.002758
      0.32395      4.72480     17.89148         0.164580      0.059564     -0.151537
      1.86622      2.20252      3.52387        -0.255434      0.534434     -0.104382
      1.86622      2.20252     13.10228        -0.286703      0.524527      0.121476
[...]
      0.32395     10.35303     17.89148         0.164580      0.059564     -0.151537
      1.86622      7.83075      3.52387        -0.255434      0.534434     -0.104382
      1.86622      7.83075     13.10228        -0.286703      0.524527      0.121476
      5.97417      8.63421      6.70184        -0.047876     -0.248856      0.393980
      5.97417      8.63421     16.28025         0.291122     -0.279609      1.997558
      4.43190     11.15649      1.91264        -0.251762     -0.084849     -0.711113
      4.43190     11.15649     11.49105        -0.072417     -0.292850      0.447697
      5.97417      8.63421      0.34590         0.709305     -1.777419     -1.174461
      5.97417      8.63421      9.92431        -0.021185     -0.264989     -0.424423
      4.43190     11.15649      5.13510        -0.057125     -0.289435     -0.454799
      4.43190     11.15649     14.71351        -0.163843     -0.250363     -0.267999
      3.40849     10.93670      8.31307        -0.233544      0.508111     -0.002758
      3.40849     10.93670     17.89148         0.164580      0.059564     -0.151537
      4.95076      8.41442      3.52387        -0.255434      0.534434     -0.104382
      4.95076      8.41442     13.10228        -0.286703      0.524527      0.121476
    total drift:                               -0.092503      0.118175     -0.123886

  FREE ENERGIE OF THE ION-ELECTRON SYSTEM (eV)
  free  energy   TOTEN  =      -479.85781068 eV

  energy  without entropy=     -478.53663421  energy(sigma->0) =     -479.19722245