 vasp.5.4.4.18Apr17-6-g9f103f2a35 (build Aug 13 2019 17:33:20) gamma-only

 executed on             LinuxIFC date 2020.05.12  10:45:22

 INCAR:
 POTCAR:    PAW_PBE Ni_pv 06Sep2000
 POTCAR:    PAW_PBE S 06Sep2000
 POTCAR:    PAW_PBE Ni_pv 06Sep2000
   VRHFIN =Ni:

   TITEL  = PAW_PBE Ni_pv 06Sep2000
   POMASS =   58.690; ZVAL   =   16.000    mass and valenz
   ENMAX  =  367.986; ENMIN  =  275.989 eV

 POTCAR:    PAW_PBE S 06Sep2000
   VRHFIN =S : s2p4

   TITEL  = PAW_PBE S 06Sep2000
   POMASS =   32.066; ZVAL   =    6.000    mass and valenz
   ENMAX  =  258.689; ENMIN  =  194.016 eV

 Optimization of the real space projectors (new method)

 maximal supplied QI-value         = 18.90
 optimisation between [QCUT,QGAM] = [ 10.77, 21.73] = [ 32.49,132.25] Ry
 Optimized for a Real-space Cutoff    1.38 Angstroem

   l    n(q)    QCUT    max X(q) W(low)/X(q) W(high)/X(q)  e(spline)
   1      8    10.771     2.836    0.40E-04    0.29E-04    0.12E-06
   1      8    10.771     4.023    0.10E-03    0.48E-04    0.29E-06
   2      8    10.771    73.368    0.42E-03    0.97E-04    0.44E-06
   2      8    10.771    69.010    0.42E-03    0.99E-04    0.45E-06
   0      9    10.771    54.797    0.10E-03    0.56E-04    0.74E-07
   0      9    10.771    24.266    0.89E-04    0.49E-04    0.67E-07
 Optimization of the real space projectors (new method)

 maximal supplied QI-value         = 19.84
 optimisation between [QCUT,QGAM] = [ 10.71, 21.63] = [ 32.15,130.99] Ry
 Optimized for a Real-space Cutoff    1.19 Angstroem

   l    n(q)    QCUT    max X(q) W(low)/X(q) W(high)/X(q)  e(spline)
   0      8    10.715   187.594    0.41E-03    0.53E-04    0.66E-07
   0      8    10.715   164.243    0.41E-03    0.53E-04    0.65E-07
   1      7    10.715    67.533    0.19E-03    0.59E-03    0.68E-07
   1      7    10.715    50.729    0.19E-03    0.58E-03    0.67E-07
  PAW_PBE Ni_pv 06Sep2000               :
  PAW_PBE S 06Sep2000                   :

 POSCAR: Type_048 Type_148
  positions in cartesian coordinates
 exchange correlation table for  LEXCH =        8
   RHO(1)=    0.500       N(1)  =     2000
   RHO(2)=  100.500       N(2)  =     4000

 ion  position               nearest neighbor table
   1  0.256  0.016  0.152-  73 2.25  63 2.26  80 2.26  52 2.36  93 2.36
   2  0.256  0.016  0.481-  74 2.25  64 2.26  81 2.26  53 2.36  94 2.36  10 2.53   6 2.53
   3  0.006  0.266  0.317-  60 2.25  65 2.26  69 2.26  54 2.36  58 2.36   7 2.53  23 2.53
   4  0.014  0.262  0.638-  55 2.11  66 2.14  70 2.15  59 2.20   8 2.33  24 2.48
   5  0.292  0.944  0.064-  90 2.01  77 2.02  80 2.08  93 2.08
   6  0.256  0.016  0.394-  78 2.25  60 2.26  81 2.26  49 2.36  94 2.36   2 2.53  10 2.53
   7  0.006  0.266  0.230-  63 2.25  69 2.26  61 2.26  58 2.36  50 2.36   9 2.38   3 2.53  23 2.53

   8  0.006  0.266  0.558-  64 2.25  70 2.26  62 2.26   4 2.33  59 2.36  51 2.36  24 2.53
   9  0.191  0.298  0.161-  52 2.07  56 2.08  50 2.17  63 2.21   7 2.38
  10  0.190  0.215  0.438-  57 2.25  64 2.26  60 2.26  53 2.36  49 2.36   2 2.53   6 2.53
  11  0.440  0.465  0.273-  82 2.25  50 2.26  54 2.26  61 2.36  65 2.36  19 2.53  15 2.53
  12  0.440  0.465  0.602-  55 2.11  66 2.14  83 2.25  51 2.26  62 2.36  16 2.48  20 2.53
  13  0.756  0.016  0.152-  86 2.25  52 2.26  93 2.26  63 2.36  80 2.36
  14  0.756  0.016  0.481-  87 2.25  53 2.26  94 2.26  64 2.36  81 2.36  22 2.53  18 2.53
  15  0.506  0.266  0.317-  49 2.25  54 2.26  58 2.26  65 2.36  69 2.36  19 2.53  11 2.53
  16  0.514  0.262  0.638-  66 2.11  55 2.14  59 2.15  70 2.20  20 2.33  12 2.48
  17  0.792  0.944  0.064-  77 2.01  90 2.02  93 2.08  80 2.08
  18  0.756  0.016  0.394-  91 2.25  49 2.26  94 2.26  60 2.36  81 2.36  14 2.53  22 2.53
  19  0.506  0.266  0.230-  52 2.25  58 2.26  50 2.26  69 2.36  61 2.36  21 2.38  15 2.53  11 2.53

  20  0.506  0.266  0.558-  53 2.25  59 2.26  51 2.26  16 2.33  70 2.36  62 2.36  12 2.53
  21  0.691  0.298  0.161-  63 2.07  67 2.08  61 2.17  52 2.21  19 2.38
  22  0.690  0.215  0.438-  68 2.25  53 2.26  49 2.26  64 2.36  60 2.36  14 2.53  18 2.53
  23  0.940  0.465  0.273-  95 2.25  61 2.26  65 2.26  50 2.36  54 2.36   7 2.53   3 2.53
  24  0.940  0.465  0.602-  66 2.11  55 2.14  96 2.25  62 2.26  51 2.36   4 2.48   8 2.53
  25  0.256  0.516  0.152-  50 2.25  88 2.26  56 2.26  29 2.34  75 2.36  67 2.36  33 2.53
  26  0.256  0.516  0.481-  51 2.25  89 2.26  57 2.26  76 2.36  68 2.36  34 2.53  30 2.53
  27  0.006  0.766  0.317-  85 2.25  91 2.26  95 2.26  78 2.36  82 2.36  31 2.53  47 2.53
  28  0.014  0.762  0.638-  79 2.11  92 2.14  96 2.15  83 2.20  32 2.33  48 2.48
  29  0.264  0.513  0.072-  71 2.11  84 2.14  56 2.16  67 2.21  25 2.34  33 2.48
  30  0.256  0.516  0.394-  54 2.25  85 2.26  57 2.26  72 2.36  68 2.36  26 2.53  34 2.53
  31  0.006  0.766  0.230-  88 2.25  95 2.26  86 2.26  82 2.36  73 2.36  27 2.53  47 2.53
  32  0.006  0.766  0.558-  89 2.25  96 2.26  87 2.26  28 2.33  83 2.36  74 2.36  48 2.53
  33  0.190  0.715  0.109-  84 2.12  71 2.15  80 2.25  88 2.26  75 2.36  29 2.48  25 2.53
  34  0.190  0.715  0.438-  81 2.25  89 2.26  85 2.26  76 2.36  72 2.36  26 2.53  30 2.53
  35  0.440  0.965  0.273-  58 2.25  73 2.26  78 2.26  86 2.36  91 2.36  43 2.53  39 2.53
  36  0.440  0.965  0.602-  79 2.11  92 2.14  59 2.25  74 2.26  87 2.36  40 2.48  44 2.53
  37  0.756  0.516  0.152-  61 2.25  75 2.26  67 2.26  41 2.34  88 2.36  56 2.36  45 2.53
  38  0.756  0.516  0.481-  62 2.25  76 2.26  68 2.26  89 2.36  57 2.36  46 2.53  42 2.53
  39  0.506  0.766  0.317-  72 2.25  78 2.26  82 2.26  91 2.36  95 2.36  43 2.53  35 2.53
  40  0.514  0.762  0.638-  92 2.11  79 2.14  83 2.15  96 2.20  44 2.33  36 2.48
  41  0.764  0.513  0.072-  84 2.11  71 2.14  67 2.16  56 2.21  37 2.34  45 2.48
  42  0.756  0.516  0.394-  65 2.25  72 2.26  68 2.26  85 2.36  57 2.36  38 2.53  46 2.53
  43  0.506  0.766  0.230-  75 2.25  82 2.26  73 2.26  95 2.36  86 2.36  39 2.53  35 2.53
  44  0.506  0.766  0.558-  76 2.25  83 2.26  74 2.26  40 2.33  96 2.36  87 2.36  36 2.53
  45  0.690  0.715  0.109-  71 2.12  84 2.15  93 2.25  75 2.26  88 2.36  41 2.48  37 2.53
  46  0.690  0.715  0.438-  94 2.25  76 2.26  72 2.26  89 2.36  85 2.36  38 2.53  42 2.53
  47  0.940  0.965  0.273-  69 2.25  86 2.26  91 2.26  73 2.36  78 2.36  31 2.53  27 2.53
  48  0.940  0.965  0.602-  92 2.11  79 2.14  70 2.25  87 2.26  74 2.36  28 2.48  32 2.53
  49  0.468  0.167  0.382-  15 2.25  18 2.26  22 2.26   6 2.36  10 2.36
  50  0.218  0.417  0.218-   9 2.17  25 2.25  11 2.26  19 2.26  23 2.36   7 2.36
  51  0.218  0.417  0.547-  26 2.25  12 2.26  20 2.26  24 2.36   8 2.36
  52  0.468  0.167  0.164-   9 2.07  21 2.21  19 2.25  13 2.26   1 2.36
  53  0.468  0.167  0.493-  20 2.25  22 2.26  14 2.26  10 2.36   2 2.36
  54  0.218  0.417  0.329-  30 2.25  15 2.26  11 2.26   3 2.36  23 2.36
  55  0.218  0.391  0.642-   4 2.11  12 2.11  24 2.14  16 2.14  59 2.77
  56  0.053  0.414  0.109-   9 2.08  29 2.16  41 2.21  25 2.26  37 2.36  84 2.78
  57  0.053  0.414  0.438-  10 2.25  26 2.26  30 2.26  38 2.36  42 2.36
  58  0.303  0.164  0.273-  35 2.25  19 2.26  15 2.26   7 2.36   3 2.36
  59  0.303  0.164  0.602-  16 2.15   4 2.20  36 2.25  20 2.26   8 2.36  55 2.77
  60  0.968  0.167  0.382-   3 2.25   6 2.26  10 2.26  18 2.36  22 2.36
  61  0.718  0.417  0.218-  21 2.17  37 2.25  23 2.26   7 2.26  11 2.36  19 2.36
  62  0.718  0.417  0.547-  38 2.25  24 2.26   8 2.26  12 2.36  20 2.36
  63  0.968  0.167  0.164-  21 2.07   9 2.21   7 2.25   1 2.26  13 2.36
  64  0.968  0.167  0.493-   8 2.25  10 2.26   2 2.26  22 2.36  14 2.36
  65  0.718  0.417  0.329-  42 2.25   3 2.26  23 2.26  15 2.36  11 2.36
  66  0.718  0.391  0.642-  16 2.11  24 2.11  12 2.14   4 2.14  70 2.77
  67  0.553  0.414  0.109-  21 2.08  41 2.16  29 2.21  37 2.26  25 2.36  71 2.78
  68  0.553  0.414  0.438-  22 2.25  38 2.26  42 2.26  26 2.36  30 2.36
  69  0.803  0.164  0.273-  47 2.25   7 2.26   3 2.26  19 2.36  15 2.36
  70  0.803  0.164  0.602-   4 2.15  16 2.20  48 2.25   8 2.26  20 2.36  66 2.77
  71  0.468  0.641  0.068-  29 2.11  45 2.12  41 2.14  33 2.15  67 2.78
  72  0.468  0.667  0.382-  39 2.25  42 2.26  46 2.26  30 2.36  34 2.36
  73  0.218  0.917  0.218-   1 2.25  35 2.26  43 2.26  47 2.36  31 2.36
  74  0.218  0.917  0.547-   2 2.25  36 2.26  44 2.26  48 2.36  32 2.36
  75  0.468  0.667  0.164-  43 2.25  37 2.26  45 2.26  25 2.36  33 2.36
  76  0.468  0.667  0.493-  44 2.25  46 2.26  38 2.26  34 2.36  26 2.36
  77  0.035  0.962  0.021-  17 2.01   5 2.02  80 2.63
  78  0.218  0.917  0.329-   6 2.25  39 2.26  35 2.26  27 2.36  47 2.36
  79  0.218  0.891  0.642-  28 2.11  36 2.11  48 2.14  40 2.14  83 2.77
[...]
  82  0.303  0.664  0.273-  11 2.25  43 2.26  39 2.26  31 2.36  27 2.36
  83  0.303  0.664  0.602-  40 2.15  28 2.20  12 2.25  44 2.26  32 2.36  79 2.77
  84  0.968  0.641  0.068-  41 2.11  33 2.12  29 2.14  45 2.15  56 2.78
  85  0.968  0.667  0.382-  27 2.25  30 2.26  34 2.26  42 2.36  46 2.36
  86  0.718  0.917  0.218-  13 2.25  47 2.26  31 2.26  35 2.36  43 2.36
  87  0.718  0.917  0.547-  14 2.25  48 2.26  32 2.26  36 2.36  44 2.36
  88  0.968  0.667  0.164-  31 2.25  25 2.26  33 2.26  37 2.36  45 2.36
  89  0.968  0.667  0.493-  32 2.25  34 2.26  26 2.26  46 2.36  38 2.36
  90  0.535  0.962  0.021-   5 2.01  17 2.02  93 2.63
  91  0.718  0.917  0.329-  18 2.25  27 2.26  47 2.26  39 2.36  35 2.36
  92  0.718  0.891  0.642-  40 2.11  48 2.11  36 2.14  28 2.14  96 2.77
  93  0.553  0.914  0.109-  17 2.08   5 2.08  45 2.25  13 2.26   1 2.36  90 2.63
  94  0.553  0.914  0.438-  46 2.25  14 2.26  18 2.26   2 2.36   6 2.36
  95  0.803  0.664  0.273-  23 2.25  31 2.26  27 2.26  43 2.36  39 2.36
  96  0.803  0.664  0.602-  28 2.15  40 2.20  24 2.25  32 2.26  44 2.36  92 2.77

  LATTYP: Found a simple monoclinic cell.
 ALAT       =    13.8711386352
 B/A-ratio  =     2.1019774055
 C/A-ratio  =     1.3233367991
 COS(beta)  =    -0.9620914447

  Lattice vectors:

 A1 = (  -8.3714133957, -11.0601955134,   0.0000000000)
 A2 = (   0.0000000000,   0.0000000000, -29.1568200000)
 A3 = (  14.6499733957,  11.0601955134,   0.0000000000)

Analysis of symmetry for initial positions (statically):
 Subroutine PRICEL returns following result:

[...]

   2 primitive cells build up your supercell.

 Routine SETGRP: Setting up the symmetry group for a
 simple monoclinic supercell.

 Subroutine GETGRP returns: Found  1 space group operations
 (whereof  1 operations were pure point group operations)
 out of a pool of  4 trial point group operations.

The static configuration has the point symmetry C_1 .

Analysis of symmetry for dynamics (positions and initial velocities):
 Subroutine PRICEL returns following result:

  LATTYP: Found a simple monoclinic cell.
 ALAT       =    11.2564630382
 B/A-ratio  =     2.5902292666
 C/A-ratio  =     1.0869598738
 COS(beta)  =    -0.9677007951

  Lattice vectors:

 A1 = (  -2.0928533957, -11.0601955134,   0.0000000000)
 A2 = (   0.0000000000,   0.0000000000, -29.1568200000)
 A3 = (   5.2321333957,  11.0601955134,   0.0000000000)

   2 primitive cells build up your supercell.

 Routine SETGRP: Setting up the symmetry group for a
 simple monoclinic supercell.

[...]
     0.000000000  0.000000000 29.156820000     0.000000000  0.000000000  0.034297293

  length of vectors
     6.278560000 11.256463038 29.156820000     0.162098538  0.090414315  0.034297293

 FORCES acting on ions
    electron-ion (+dipol)            ewald-force                    non-local-force                 convergence-correction
   -.355E+02 -.211E+03 0.497E+04   0.336E+02 0.211E+03 -.497E+04   0.186E+01 0.148E+01 -.201E+01   0.389E-02 -.265E+00 0.707E-01
   -.413E+02 0.259E+03 -.337E+04   0.405E+02 -.259E+03 0.337E+04   0.989E+00 0.464E+00 -.790E+00   0.205E-02 -.215E+00 0.775E+00
   -.410E+02 0.303E+03 0.362E+03   0.401E+02 -.303E+03 -.361E+03   0.981E+00 0.685E+00 -.769E+00   0.532E-03 -.459E-01 0.443E-01
   -.127E+02 0.455E+03 -.731E+04   0.128E+02 -.456E+03 0.731E+04   -.136E+00 0.103E+01 0.539E+00   -.308E-02 -.698E-01 0.242E-01
   -.127E+02 -.601E+03 0.665E+04   0.127E+02 0.603E+03 -.665E+04   -.920E-01 -.195E+01 0.648E+01   -.573E-03 -.446E-01 0.514E-01
   -.413E+02 0.270E+03 -.465E+03   0.404E+02 -.270E+03 0.464E+03   0.965E+00 0.454E+00 0.114E+01   -.515E-02 -.174E+00 0.427E+00
   0.150E+02 0.527E+03 0.304E+04   -.154E+02 -.529E+03 -.304E+04   0.717E-01 0.224E+01 0.259E+00   -.319E-01 -.111E+00 0.227E+00
   -.371E+02 0.275E+03 -.418E+04   0.360E+02 -.275E+03 0.417E+04   0.118E+01 0.832E+00 0.213E+01   0.697E-02 -.751E-01 0.591E+00
   -.141E+02 0.520E+03 0.558E+04   0.125E+02 -.520E+03 -.558E+04   0.120E+01 0.729E+00 0.230E+01   0.671E-02 -.503E-01 -.108E+00
   -.411E+02 -.507E+03 -.192E+04   0.404E+02 0.508E+03 0.192E+04   0.892E+00 -.124E+01 0.101E+00   0.212E-02 -.178E+00 0.616E+00
   -.394E+02 -.600E+03 0.176E+04   0.390E+02 0.601E+03 -.176E+04   0.497E+00 -.132E+01 -.640E+00   -.358E-02 0.227E+00 -.630E-01
   -.283E+02 -.672E+03 -.589E+04   0.282E+02 0.676E+03 0.589E+04   0.220E+00 -.413E+01 -.345E+00   0.519E-02 0.582E-01 0.259E+00
   -.355E+02 -.211E+03 0.497E+04   0.336E+02 0.211E+03 -.497E+04   0.186E+01 0.148E+01 -.201E+01   0.492E-02 -.266E+00 0.714E-01
   -.413E+02 0.259E+03 -.337E+04   0.405E+02 -.259E+03 0.337E+04   0.989E+00 0.464E+00 -.790E+00   0.196E-02 -.215E+00 0.775E+00
   -.410E+02 0.303E+03 0.362E+03   0.401E+02 -.303E+03 -.361E+03   0.981E+00 0.685E+00 -.769E+00   -.251E-04 -.452E-01 0.452E-01
   -.127E+02 0.455E+03 -.731E+04   0.128E+02 -.456E+03 0.731E+04   -.136E+00 0.103E+01 0.539E+00   -.324E-02 -.702E-01 0.239E-01
   -.127E+02 -.601E+03 0.665E+04   0.127E+02 0.603E+03 -.665E+04   -.920E-01 -.195E+01 0.648E+01   -.920E-03 -.450E-01 0.512E-01
   -.413E+02 0.270E+03 -.465E+03   0.404E+02 -.270E+03 0.464E+03   0.965E+00 0.454E+00 0.114E+01   -.440E-02 -.174E+00 0.426E+00
   0.150E+02 0.527E+03 0.304E+04   -.154E+02 -.529E+03 -.304E+04   0.717E-01 0.224E+01 0.259E+00   -.323E-01 -.110E+00 0.228E+00
   -.371E+02 0.275E+03 -.418E+04   0.360E+02 -.275E+03 0.417E+04   0.118E+01 0.832E+00 0.213E+01   0.714E-02 -.753E-01 0.590E+00
   -.141E+02 0.520E+03 0.558E+04   0.125E+02 -.520E+03 -.558E+04   0.120E+01 0.729E+00 0.230E+01   0.631E-02 -.495E-01 -.108E+00
   -.411E+02 -.507E+03 -.192E+04   0.404E+02 0.508E+03 0.192E+04   0.892E+00 -.124E+01 0.101E+00   0.304E-03 -.179E+00 0.616E+00
   -.394E+02 -.600E+03 0.176E+04   0.390E+02 0.601E+03 -.176E+04   0.497E+00 -.132E+01 -.640E+00   -.335E-02 0.227E+00 -.631E-01
   -.283E+02 -.672E+03 -.589E+04   0.282E+02 0.676E+03 0.589E+04   0.220E+00 -.413E+01 -.345E+00   0.492E-02 0.577E-01 0.259E+00
   -.725E+02 0.422E+02 0.448E+04   0.726E+02 -.410E+02 -.447E+04   0.194E+00 -.942E+00 -.111E+01   0.221E-01 0.465E+00 -.436E-01
   -.413E+02 0.253E+03 -.337E+04   0.405E+02 -.254E+03 0.337E+04   0.974E+00 0.507E+00 -.739E+00   0.190E-02 0.225E+00 0.840E+00
   -.413E+02 0.221E+03 0.449E+03   0.404E+02 -.221E+03 -.449E+03   0.970E+00 0.511E+00 -.121E+01   -.122E-02 0.773E-02 -.374E-01
   -.127E+02 0.455E+03 -.731E+04   0.128E+02 -.457E+03 0.731E+04   -.142E+00 0.103E+01 0.536E+00   -.239E-02 -.381E-03 -.111E+00
   -.139E+02 0.855E+03 0.746E+04   0.132E+02 -.856E+03 -.746E+04   0.677E+00 -.603E-01 -.106E+01   -.298E-02 0.134E+00 -.198E+00
   -.413E+02 0.245E+03 -.488E+03   0.404E+02 -.246E+03 0.486E+03   0.963E+00 0.634E+00 0.133E+01   -.487E-02 0.203E+00 0.274E+00
   -.413E+02 0.139E+03 0.340E+04   0.405E+02 -.139E+03 -.340E+04   0.999E+00 0.508E+00 0.948E+00   0.156E-02 0.278E-01 -.213E+00
   -.371E+02 0.273E+03 -.417E+04   0.360E+02 -.274E+03 0.417E+04   0.118E+01 0.827E+00 0.212E+01   0.691E-02 0.114E+00 0.570E+00
   -.207E+02 -.627E+03 0.578E+04   0.202E+02 0.632E+03 -.578E+04   0.477E+00 -.455E+01 0.549E+00   -.246E-02 -.147E-01 0.812E-01
   -.411E+02 -.522E+03 -.192E+04   0.404E+02 0.522E+03 0.192E+04   0.884E+00 -.124E+01 0.663E-01   0.820E-03 0.315E+00 0.640E+00
   -.413E+02 -.486E+03 0.197E+04   0.405E+02 0.487E+03 -.197E+04   0.867E+00 -.135E+01 -.494E-01   0.718E-03 -.122E+00 -.191E+00
   -.283E+02 -.673E+03 -.589E+04   0.282E+02 0.677E+03 0.589E+04   0.224E+00 -.414E+01 -.347E+00   0.526E-02 -.210E+00 0.134E+00
   -.725E+02 0.422E+02 0.448E+04   0.726E+02 -.410E+02 -.447E+04   0.194E+00 -.942E+00 -.111E+01   0.208E-01 0.464E+00 -.437E-01
   -.413E+02 0.253E+03 -.337E+04   0.405E+02 -.254E+03 0.337E+04   0.974E+00 0.507E+00 -.739E+00   0.179E-02 0.225E+00 0.839E+00
   -.413E+02 0.221E+03 0.449E+03   0.404E+02 -.221E+03 -.449E+03   0.970E+00 0.511E+00 -.121E+01   -.162E-02 0.728E-02 -.387E-01
   -.127E+02 0.455E+03 -.731E+04   0.128E+02 -.457E+03 0.731E+04   -.142E+00 0.103E+01 0.536E+00   -.278E-02 -.460E-03 -.112E+00
   -.139E+02 0.855E+03 0.746E+04   0.132E+02 -.856E+03 -.746E+04   0.677E+00 -.603E-01 -.106E+01   -.320E-02 0.134E+00 -.198E+00
   -.413E+02 0.245E+03 -.488E+03   0.404E+02 -.246E+03 0.486E+03   0.963E+00 0.634E+00 0.133E+01   -.473E-02 0.203E+00 0.274E+00
   -.413E+02 0.139E+03 0.340E+04   0.405E+02 -.139E+03 -.340E+04   0.999E+00 0.508E+00 0.948E+00   0.116E-02 0.273E-01 -.212E+00
   -.371E+02 0.273E+03 -.417E+04   0.360E+02 -.274E+03 0.417E+04   0.118E+01 0.827E+00 0.212E+01   0.598E-02 0.114E+00 0.571E+00
   -.207E+02 -.627E+03 0.578E+04   0.202E+02 0.632E+03 -.578E+04   0.477E+00 -.455E+01 0.549E+00   -.210E-02 -.149E-01 0.807E-01
   -.411E+02 -.522E+03 -.192E+04   0.404E+02 0.522E+03 0.192E+04   0.884E+00 -.124E+01 0.663E-01   0.155E-02 0.315E+00 0.639E+00
   -.413E+02 -.486E+03 0.197E+04   0.405E+02 0.487E+03 -.197E+04   0.867E+00 -.135E+01 -.494E-01   0.118E-02 -.121E+00 -.191E+00
   -.283E+02 -.673E+03 -.589E+04   0.282E+02 0.677E+03 0.589E+04   0.224E+00 -.414E+01 -.347E+00   0.576E-02 -.211E+00 0.134E+00
   0.397E+02 -.755E+02 -.101E+03   -.404E+02 0.767E+02 0.987E+02   0.576E+00 -.137E+01 0.271E+01   -.289E-02 -.512E-01 0.111E+00
   0.183E+02 -.205E+03 0.120E+04   -.182E+02 0.208E+03 -.120E+04   -.312E+00 -.288E+01 0.108E+01   0.117E-01 0.168E+00 0.756E-01
   0.391E+02 -.987E+02 -.152E+04   -.399E+02 0.100E+03 0.151E+04   0.757E+00 -.136E+01 0.218E+01   -.238E-02 -.347E-01 0.281E+00
   0.474E+01 0.210E+03 0.199E+04   -.591E+01 -.209E+03 -.200E+04   0.231E+01 -.161E+01 0.222E+01   0.914E-02 -.306E+00 -.282E-01
   0.399E+02 -.794E+02 -.134E+04   -.405E+02 0.806E+02 0.134E+04   0.482E+00 -.131E+01 -.254E+01   0.228E-02 -.624E-01 0.317E+00
   0.394E+02 -.885E+02 0.564E+02   -.404E+02 0.898E+02 -.547E+02   0.955E+00 -.155E+01 -.208E+01   -.510E-02 0.304E-01 -.319E-01
   0.822E-01 -.194E+03 -.281E+04   -.454E+00 0.197E+03 0.282E+04   0.370E+00 -.233E+01 -.436E+01   0.349E-03 -.118E-02 0.532E-02
   0.556E+02 0.439E+03 0.253E+04   -.566E+02 -.444E+03 -.253E+04   0.254E+00 0.446E+01 0.152E+01   -.177E-01 0.147E+00 -.150E+00
   0.396E+02 0.166E+03 -.723E+03   -.404E+02 -.168E+03 0.723E+03   0.704E+00 0.271E+01 0.632E-01   -.534E-02 -.367E-01 0.228E+00
   0.386E+02 0.224E+03 0.693E+03   -.396E+02 -.226E+03 -.692E+03   0.818E+00 0.275E+01 -.669E-01   -.284E-02 -.740E-01 -.837E-02
   0.364E+02 0.238E+03 -.219E+04   -.366E+02 -.241E+03 0.219E+04   0.926E-01 0.204E+01 -.109E+00   0.263E-02 -.165E-01 0.710E-01
   0.397E+02 -.755E+02 -.101E+03   -.404E+02 0.767E+02 0.987E+02   0.576E+00 -.137E+01 0.271E+01   -.337E-02 -.513E-01 0.111E+00
[...]
   0.364E+02 0.238E+03 -.219E+04   -.366E+02 -.241E+03 0.219E+04   0.889E-01 0.204E+01 -.126E+00   0.388E-02 0.111E+00 0.708E-01
   -.922E+00 -.936E+02 0.281E+04   0.633E+00 0.973E+02 -.282E+04   0.322E+00 -.234E+01 0.415E+01   0.631E-03 -.809E-02 -.520E-01
   0.398E+02 -.906E+02 -.982E+02   -.404E+02 0.915E+02 0.959E+02   0.526E+00 -.128E+01 0.261E+01   -.325E-02 0.126E+00 0.152E+00
   0.399E+02 -.109E+03 0.140E+04   -.405E+02 0.110E+03 -.140E+04   0.493E+00 -.138E+01 0.256E+01   0.392E-02 -.425E-01 -.104E+00
   0.391E+02 -.986E+02 -.151E+04   -.399E+02 0.999E+02 0.151E+04   0.760E+00 -.136E+01 0.219E+01   0.200E-02 -.927E-01 0.223E+00
   0.395E+02 -.150E+03 0.153E+04   -.402E+02 0.151E+03 -.153E+04   0.603E+00 -.132E+01 -.259E+01   -.119E-03 0.503E-01 0.221E-01
   0.399E+02 -.820E+02 -.134E+04   -.405E+02 0.829E+02 0.134E+04   0.434E+00 -.130E+01 -.250E+01   0.427E-02 0.166E+00 0.296E+00
   -.116E+01 -.229E+03 0.265E+04   0.102E+01 0.230E+03 -.265E+04   0.148E+00 -.112E+00 0.974E+00   0.133E-03 0.363E-02 -.143E+00
   0.397E+02 -.816E+02 0.927E+02   -.404E+02 0.827E+02 -.905E+02   0.631E+00 -.136E+01 -.262E+01   -.429E-02 -.133E-01 0.337E-01
   0.845E-01 -.194E+03 -.281E+04   -.454E+00 0.198E+03 0.282E+04   0.365E+00 -.234E+01 -.437E+01   -.136E-03 -.654E-01 -.519E-01
   0.293E+02 -.123E+03 0.205E+04   -.295E+02 0.120E+03 -.205E+04   0.457E+00 0.179E+01 0.228E+01   0.709E-03 0.290E-02 0.146E+00
   0.396E+02 0.167E+03 -.717E+03   -.404E+02 -.169E+03 0.717E+03   0.707E+00 0.269E+01 0.959E-01   0.170E-02 -.709E-01 0.255E+00
   0.395E+02 0.132E+03 0.706E+03   -.404E+02 -.134E+03 -.706E+03   0.728E+00 0.255E+01 -.301E+00   -.407E-03 0.257E-01 -.872E-01
   0.364E+02 0.238E+03 -.219E+04   -.366E+02 -.241E+03 0.219E+04   0.889E-01 0.204E+01 -.126E+00   0.422E-02 0.111E+00 0.708E-01
   -.604E+02 0.261E+02 -.373E+02   0.618E-12 0.341E-12 0.819E-11   0.603E+02 -.264E+02 0.248E+02   0.879E-02 0.306E+00 0.126E+02

 POSITION                                       TOTAL-FORCE (eV/Angst)
      1.64370      0.18204      4.44331         0.035177      0.426091      0.255844
      1.64370      0.18204     14.02172         0.109530      0.121575     -0.368973
      0.59727      2.94708      9.23251         0.108410      0.136629     -0.251360
      0.63823      2.89370     18.60508         0.029782     -0.612105     -0.096392
      3.81136     10.44028      1.85510        -0.056733      0.344925      1.141880
      1.64370      0.18204     11.49105         0.098296      0.155498      0.340475
      0.59727      2.94708      6.70184        -0.322027     -0.458340      1.359572
      0.59727      2.94708     16.28025         0.091948      0.241598     -1.032648
      1.82006      3.29170      4.68963        -0.436647     -0.217414     -0.344524
      1.64370      2.37366     12.75638         0.179501     -0.362606      0.002437
      3.73655      5.13871      7.96718         0.149247     -0.327940      0.107134
      3.73655      5.13871     17.54559         0.081125      0.006372     -2.114500
      4.78298      0.18204      4.44331         0.035177      0.426091      0.255844
      4.78298      0.18204     14.02172         0.109530      0.121575     -0.368973
      3.73655      2.94708      9.23251         0.108410      0.136629     -0.251360
      3.77751      2.89370     18.60508         0.029782     -0.612105     -0.096392
      6.95064     10.44028      1.85510        -0.056733      0.344925      1.141880
      4.78298      0.18204     11.49105         0.098296      0.155498      0.340475
      3.73655      2.94708      6.70184        -0.322027     -0.458340      1.359572
      3.73655      2.94708     16.28025         0.091948      0.241598     -1.032648
      4.95934      3.29170      4.68963        -0.436647     -0.217414     -0.344524
      4.78298      2.37366     12.75638         0.179501     -0.362606      0.002437
      6.87583      5.13871      7.96718         0.149247     -0.327940      0.107134
      6.87583      5.13871     17.54559         0.081125      0.006372     -2.114500
      2.69013      5.71213      4.44331         0.297347      0.724515      0.734330
      2.69013      5.71213     14.02172         0.117929      0.119100     -0.353578
      1.64370      8.47718      9.23251         0.076413      0.187933     -0.359263
      1.68465      8.42380     18.60508         0.031420     -0.607882     -0.097278
      2.72957      5.66860      2.10808        -0.021695     -0.628255      0.311651
      2.69013      5.71213     11.49105         0.084172      0.148290      0.332840
      1.64370      8.47718      6.70184         0.121296      0.145590      0.399740
      1.64370      8.47718     16.28025         0.085607      0.241567     -1.031718
      2.69013      7.90376      3.17797         0.007158     -0.149438      2.220213
      2.69013      7.90376     12.75638         0.173676     -0.353353     -0.018532
      4.78298     10.66881      7.96718         0.143100     -0.415594      0.046734
      4.78298     10.66881     17.54559         0.080745      0.007530     -2.114115
      5.82941      5.71213      4.44331         0.297347      0.724515      0.734330
      5.82941      5.71213     14.02172         0.117929      0.119100     -0.353578
      4.78298      8.47718      9.23251         0.076413      0.187933     -0.359263
      4.82393      8.42380     18.60508         0.031420     -0.607882     -0.097278
      5.86885      5.66860      2.10808        -0.021695     -0.628255      0.311651
      5.82941      5.71213     11.49105         0.084172      0.148290      0.332840
      4.78298      8.47718      6.70184         0.121296      0.145590      0.399740
      4.78298      8.47718     16.28025         0.085607      0.241567     -1.031718
      5.82941      7.90376      3.17797         0.007158     -0.149438      2.220213
      5.82941      7.90376     12.75638         0.173676     -0.353353     -0.018532
      7.92226     10.66881      7.96718         0.143100     -0.415594      0.046734
      7.92226     10.66881     17.54559         0.080745      0.007530     -2.114115
      3.28961      1.84282     11.14515        -0.151148     -0.237208      0.381560
      2.24318      4.60787      6.35595        -0.199112      0.508945      0.719595
      2.24318      4.60787     15.93436        -0.083852     -0.079367     -0.261108
      3.28961      1.84282      4.78920         1.150657     -1.575611     -0.241384
      3.28961      1.84282     14.36761        -0.121899     -0.209392     -0.399061
      2.24318      4.60787      9.57841         0.013100     -0.275726     -0.398878
      2.18561      4.32173     18.72374        -0.000914      1.276455      3.817326
      1.19676      4.58218      3.17797        -0.694630     -0.328515     -0.953051
      1.19676      4.58218     12.75638        -0.129712      0.524164      0.012165
      2.24318      1.81714      7.96718        -0.112801      0.578281      0.092377
      2.24318      1.81714     17.54559        -0.117165     -0.814643     -0.011923
      6.42889      1.84282     11.14515        -0.151148     -0.237208      0.381560
[...]
      3.28961      7.34723      7.96718        -0.151459      0.414951     -0.062548
      3.28961      7.34723     17.54559        -0.115215     -0.814590     -0.015197
      7.41728      7.09347      1.97597         0.033285      1.390735     -3.703542
      7.47532      7.37292     11.14515        -0.119634     -0.257634      0.404488
      6.42889     10.13797      6.35595        -0.127319     -0.058164      0.216574
      6.42889     10.13797     15.93436        -0.079895     -0.077646     -0.261888
      7.47532      7.37292      4.78920        -0.058692     -0.159847      0.085931
      7.47532      7.37292     14.36761        -0.119857     -0.207529     -0.397435
      5.37622     10.64512      0.60670         0.006976      0.738852     -3.339708
      6.42889     10.13797      9.57841        -0.114185     -0.256596     -0.428041
      6.37132      9.85183     18.72374        -0.003705      1.273550      3.814817
      5.38246     10.11228      3.17797         0.173053     -0.744124      1.837352
      5.38246     10.11228     12.75638        -0.140658      0.516370      0.021612
      6.42889      7.34723      7.96718        -0.151459      0.414951     -0.062548
      6.42889      7.34723     17.54559        -0.115215     -0.814590     -0.015197
    total drift:                               -0.022164      0.005945      0.078589

  FREE ENERGIE OF THE ION-ELECTRON SYSTEM (eV)
  free  energy   TOTEN  =      -480.51395589 eV

  energy  without entropy=     -479.25032425  energy(sigma->0) =     -479.88214007