 vasp.5.4.4.18Apr17-6-g9f103f2a35 (build Aug 13 2019 17:33:20) gamma-only

 executed on             LinuxIFC date 2020.05.10  23:06:38

 INCAR:
 POTCAR:    PAW_PBE Ni_pv 06Sep2000
 POTCAR:    PAW_PBE S 06Sep2000
 POTCAR:    PAW_PBE Ni_pv 06Sep2000
   VRHFIN =Ni:

   TITEL  = PAW_PBE Ni_pv 06Sep2000
   POMASS =   58.690; ZVAL   =   16.000    mass and valenz
   ENMAX  =  367.986; ENMIN  =  275.989 eV

 POTCAR:    PAW_PBE S 06Sep2000
   VRHFIN =S : s2p4

   TITEL  = PAW_PBE S 06Sep2000
   POMASS =   32.066; ZVAL   =    6.000    mass and valenz
   ENMAX  =  258.689; ENMIN  =  194.016 eV

 Optimization of the real space projectors (new method)

 maximal supplied QI-value         = 18.90
 optimisation between [QCUT,QGAM] = [ 10.77, 21.73] = [ 32.49,132.25] Ry
 Optimized for a Real-space Cutoff    1.38 Angstroem

   l    n(q)    QCUT    max X(q) W(low)/X(q) W(high)/X(q)  e(spline)
   1      8    10.771     2.836    0.40E-04    0.29E-04    0.12E-06
   1      8    10.771     4.023    0.10E-03    0.48E-04    0.29E-06
   2      8    10.771    73.368    0.42E-03    0.97E-04    0.44E-06
   2      8    10.771    69.010    0.42E-03    0.99E-04    0.45E-06
   0      9    10.771    54.797    0.10E-03    0.56E-04    0.74E-07
   0      9    10.771    24.266    0.89E-04    0.49E-04    0.67E-07
 Optimization of the real space projectors (new method)

 maximal supplied QI-value         = 19.84
 optimisation between [QCUT,QGAM] = [ 10.71, 21.63] = [ 32.15,130.99] Ry
 Optimized for a Real-space Cutoff    1.19 Angstroem

   l    n(q)    QCUT    max X(q) W(low)/X(q) W(high)/X(q)  e(spline)
   0      8    10.715   187.594    0.41E-03    0.53E-04    0.66E-07
   0      8    10.715   164.243    0.41E-03    0.53E-04    0.65E-07
   1      7    10.715    67.533    0.19E-03    0.59E-03    0.68E-07
   1      7    10.715    50.729    0.19E-03    0.58E-03    0.67E-07
  PAW_PBE Ni_pv 06Sep2000               :
  PAW_PBE S 06Sep2000                   :

 POSCAR: Type_052 Type_152
  positions in cartesian coordinates
 exchange correlation table for  LEXCH =        8
   RHO(1)=    0.500       N(1)  =     2000
   RHO(2)=  100.500       N(2)  =     4000

 ion  position               nearest neighbor table
   1  0.261  0.479  0.291-  79 2.25  63 2.26  87 2.26  59 2.36  64 2.36   7 2.53  22 2.53
   2  0.355  0.385  0.419-  65 2.09  71 2.16  80 2.25  59 2.26  64 2.26   8 2.53  23 2.53
   3  0.167  0.073  0.162-  60 2.11  69 2.25  88 2.29  61 2.36  89 2.36  13 2.47  38 2.53  32 2.53

   4  0.044  0.057  0.496-  54 2.04  78 2.04  83 2.05  84 2.14
   5  0.195  0.413  0.023-  62 2.00  55 2.04  39 2.40
   6  0.274  0.333  0.128-  55 2.10  60 2.12  62 2.26  56 2.36  63 2.36  12 2.53  29 2.53
   7  0.368  0.239  0.257-  61 2.25  63 2.26  56 2.26  64 2.36  66 2.36   1 2.53  22 2.53
   8  0.462  0.145  0.385-  65 2.09  67 2.10  85 2.25  64 2.26  66 2.26   2 2.53  23 2.53
   9  0.000  0.372  0.257-  63 2.25  69 2.26 100 2.26  53 2.36  72 2.36  14 2.53  20 2.53
  10  0.094  0.278  0.385-  64 2.25  53 2.26  72 2.26  54 2.36  58 2.36  21 2.53  15 2.53
  11  0.187  0.197  0.494-  58 2.04  54 2.04  83 2.06  65 2.11
  12  0.406  0.465  0.128-  55 2.11  75 2.12  86 2.26  56 2.36  87 2.36  29 2.53   6 2.53
  13  0.214  0.031  0.057-  81 2.02  60 2.06  88 2.07   3 2.47  31 2.51
  14  0.761  0.479  0.291-  92 2.25  76 2.26 100 2.26  72 2.36  77 2.36  20 2.53   9 2.53
  15  0.855  0.385  0.419-  93 2.25  72 2.26  77 2.26  78 2.36  58 2.36  21 2.53  10 2.53
  16  0.902  0.338  0.529-  58 2.06  78 2.06  83 2.07  70 2.11
  17  0.667  0.073  0.162-  73 2.12 101 2.12  56 2.25  74 2.36 102 2.36  44 2.41  51 2.53  45 2.53

[...]

  43  0.549  0.536  0.491-  93 2.02  70 2.11  91 2.13  71 2.14
  44  0.707  0.033  0.059-  94 2.03  73 2.05 101 2.06  17 2.41
  45  0.774  0.833  0.128- 101 2.12  94 2.13  99 2.17  95 2.36 102 2.36  51 2.53  17 2.53
  46  0.868  0.739  0.257- 100 2.25 102 2.26  95 2.26 103 2.36  79 2.36  40 2.53  35 2.53
  47  0.962  0.645  0.385- 104 2.12  72 2.25 103 2.26  79 2.26  80 2.36  41 2.53  36 2.53
  48  0.500  0.872  0.257- 102 2.25  82 2.26  61 2.26  92 2.36  85 2.36  26 2.53  33 2.53
  49  0.594  0.778  0.385-  97 2.04 103 2.25  92 2.26  85 2.26  93 2.36  34 2.53  27 2.53
  50  0.693  0.680  0.499-  93 2.01  97 2.09  70 2.10 104 2.13
  51  0.906  0.965  0.128-  73 2.12  94 2.13  88 2.16  95 2.36  74 2.36  17 2.53  45 2.53
  52  0.922  0.537  0.035-  62 2.10  68 2.16  99 2.19  25 2.32  18 2.51
  53  0.073  0.167  0.306-  26 2.25  10 2.26  21 2.26   9 2.36  20 2.36
  54  0.167  0.073  0.435-  11 2.04   4 2.04  27 2.25  10 2.36  21 2.36
  55  0.379  0.360  0.057-  39 2.04   5 2.04   6 2.10  12 2.11
  56  0.479  0.261  0.178-  17 2.25   7 2.26  22 2.26   6 2.36  12 2.36
  57  0.109  0.639  0.551-  30 2.00  37 2.00  80 2.76
  58  0.030  0.378  0.478-  11 2.04  16 2.06  30 2.15  10 2.36  15 2.36
  59  0.436  0.472  0.350-  34 2.25   2 2.26  23 2.26   1 2.36  22 2.36
  60  0.259  0.157  0.107-  13 2.06  38 2.11   3 2.11   6 2.12
  61  0.342  0.066  0.221-   7 2.25  26 2.26  48 2.26   3 2.36  38 2.36
  62  0.080  0.491  0.093-   5 2.00  52 2.10  28 2.16  25 2.25   6 2.26  29 2.26
  63  0.174  0.397  0.221-   9 2.25   7 2.26   1 2.26   6 2.36  29 2.36
  64  0.268  0.303  0.350-  10 2.25   2 2.26   8 2.26   1 2.36   7 2.36  65 2.70
  65  0.348  0.223  0.460-   2 2.09   8 2.09  11 2.11  64 2.70
  66  0.573  0.167  0.306-  40 2.25  23 2.26   8 2.26  22 2.36   7 2.36  67 2.59
  67  0.663  0.071  0.409-  24 2.07   8 2.10  23 2.16  41 2.25  96 2.49  66 2.59
  68  0.890  0.366  0.055-  18 2.02  25 2.07  52 2.16  19 2.25
  69  0.979  0.261  0.178-   3 2.25  20 2.26   9 2.26  19 2.36  25 2.36
  70  0.718  0.505  0.542-  50 2.10  16 2.11  43 2.11  93 2.55
  71  0.529  0.363  0.467-  23 2.09  24 2.13  43 2.14   2 2.16
  72  0.936  0.472  0.350-  47 2.25  15 2.26  10 2.26  14 2.36   9 2.36
  73  0.758  0.158  0.106-  44 2.05  51 2.12  17 2.12  19 2.12
  74  0.842  0.066  0.221-  20 2.25  40 2.26  35 2.26  17 2.36  51 2.36
  75  0.582  0.480  0.107-  18 2.06  19 2.11  42 2.11  12 2.12
  76  0.674  0.397  0.221-  22 2.25  20 2.26  14 2.26  19 2.36  42 2.36
  77  0.768  0.303  0.350-  23 2.25  15 2.26  21 2.26  14 2.36  20 2.36
  78  0.862  0.209  0.478-   4 2.04  16 2.06  24 2.09  15 2.36  21 2.36
  79  0.073  0.667  0.306-   1 2.25  36 2.26  47 2.26  35 2.36  46 2.36
  80  0.167  0.573  0.435-  37 2.05  30 2.06   2 2.25  36 2.36  47 2.36  57 2.76
  81  0.373  0.849  0.055-  13 2.02  32 2.06  31 2.16  38 2.26
  82  0.479  0.761  0.178-  42 2.25  33 2.26  48 2.26  32 2.36  38 2.36
  83  0.070  0.174  0.558-   4 2.05  11 2.06  16 2.07
  84  0.036  0.883  0.463-  36 2.07  37 2.07   4 2.14  41 2.26  96 2.63
  85  0.436  0.972  0.350-   8 2.25  27 2.26  49 2.26  26 2.36  48 2.36
  86  0.248  0.660  0.093-  39 1.99  31 2.09  28 2.16  32 2.25  29 2.26  12 2.26
  87  0.342  0.566  0.221-  33 2.25   1 2.26  22 2.26  29 2.36  12 2.36
  88  0.085  0.972  0.098-  13 2.07  32 2.12  51 2.16  31 2.18   3 2.29
  89  0.174  0.897  0.221-  35 2.25  33 2.26  26 2.26  32 2.36   3 2.36
  90  0.268  0.803  0.350-  36 2.25  27 2.26  34 2.26  26 2.36  33 2.36
  91  0.372  0.706  0.466-  34 2.08  37 2.12  43 2.13  27 2.21
  92  0.573  0.667  0.306-  14 2.25  49 2.26  34 2.26  48 2.36  33 2.36
  93  0.667  0.573  0.435-  50 2.01  43 2.02  15 2.25  49 2.36  34 2.36  70 2.55
  94  0.878  0.862  0.056-  44 2.03  28 2.05  45 2.13  51 2.13
  95  0.979  0.761  0.178-  29 2.25  46 2.26  35 2.26  45 2.36  51 2.36  28 2.39
  96  0.790  0.979  0.501-  24 2.02  41 2.11  67 2.49  84 2.63
  97  0.526  0.845  0.467-  49 2.04  27 2.09  50 2.09
  98  0.936  0.972  0.350-  21 2.25  41 2.26  36 2.26  40 2.36  35 2.36
  99  0.767  0.654  0.097-  18 2.07  25 2.12  45 2.17  52 2.19  42 2.29
 100  0.842  0.566  0.221-  46 2.25  14 2.26   9 2.26  42 2.36  25 2.36
 101  0.582  0.981  0.106-  44 2.06  45 2.12  38 2.12  17 2.12
 102  0.674  0.897  0.221-  48 2.25  46 2.26  40 2.26  45 2.36  17 2.36
 103  0.768  0.803  0.350-  49 2.25  41 2.26  47 2.26  40 2.36  46 2.36 104 2.75
 104  0.847  0.717  0.462-  30 2.07  47 2.12  50 2.13  41 2.17 103 2.75

  LATTYP: Found a base centered orthorhombic cell.
 ALAT       =    11.8257374459
 B/A-ratio  =     1.6199260857
 C/A-ratio  =     1.9350716598

  Lattice vectors:

 A1 = (  11.2564630382,   0.0000000000,   0.0000000000)
 A2 = (  -5.0445621212, -10.0628203371,   0.0000000000)
 A3 = (   0.0000000000,   0.0000000000, -22.8836493875)

Analysis of symmetry for initial positions (statically):
 Subroutine PRICEL returns:
 Original cell was already a primitive cell.

 Routine SETGRP: Setting up the symmetry group for a
 base centered orthorhombic supercell.

 Subroutine GETGRP returns: Found  1 space group operations
 (whereof  1 operations were pure point group operations)
 out of a pool of  8 trial point group operations.

The static configuration has the point symmetry C_1 .

Analysis of symmetry for dynamics (positions and initial velocities):
 Subroutine PRICEL returns:
 Original cell was already a primitive cell.

 Routine SETGRP: Setting up the symmetry group for a
 base centered orthorhombic supercell.

 Subroutine GETGRP returns: Found  1 space group operations
 (whereof  1 operations were pure point group operations)
 out of a pool of  8 trial point group operations.

The dynamic configuration has the point symmetry C_1 .

 Subroutine INISYM returns: Found  1 space group operations
 (whereof  1 operations are pure point group operations),
 and found     1 'primitive' translations

 KPOINTS: gamma-point-only calculation. no periodi

Automatic generation of k-mesh.
Space group operators:
 irot       det(A)        alpha          n_x          n_y          n_z        tau_x        tau_y        tau_z
    1     1.000000     0.000001     1.000000     0.000000     0.000000     0.000000     0.000000     0.000000

 Subroutine IBZKPT returns following result:

 Found      1 irreducible k-points:

 Following reciprocal coordinates:
            Coordinates               Weight
  0.000000  0.000000  0.000000      1.000000

 Following cartesian coordinates:
            Coordinates               Weight
  0.000000  0.000000  0.000000      1.000000

 SYSTEM =  "Millerite NiS"
 POSCAR =  Type_052 Type_152

 Startparameter for this run:
   NWRITE =      2    write-flag & timer
   PREC   = normal    normal or accurate (medium, high low for compatibility)
   ISTART =      0    job   : 0-new  1-cont  2-samecut
   ICHARG =      2    charge: 1-file 2-atom 10-const
   ISPIN  =      1    spin polarized calculation?
   LNONCOLLINEAR =      F non collinear calculations
   LSORBIT =      F    spin-orbit coupling
   INIWAV =      1    electr: 0-lowe 1-rand  2-diag
   LASPH  =      F    aspherical Exc in radial PAW
   METAGGA=      F    non-selfconsistent MetaGGA calc.

 Electronic Relaxation 1
   ENCUT  =  450.0 eV  33.07 Ry    5.75 a.u.  19.47 19.47 39.58*2*pi/ulx,y,z
   ENINI  =  450.0     initial cutoff
   ENAUG  =  703.4 eV  augmentation charge cutoff
   NELM   =    100;   NELMIN=  2; NELMDL= -5     # of ELM steps
   EDIFF  = 0.1E-03   stopping-criterion for ELM
   LREAL  =      T    real-space projection
   NLSPLINE    = F    spline interpolate recip. space projectors
[...]
     0.000000000  0.000000000 22.883649388     0.000000000  0.000000000  0.043699324

  length of vectors
    11.256463038 11.256463038 22.883649388     0.099375718  0.099375718  0.043699324

 FORCES acting on ions
    electron-ion (+dipol)            ewald-force                    non-local-force                 convergence-correction
   0.208E+03 -.336E+03 -.651E+03   -.209E+03 0.337E+03 0.650E+03   0.741E+00 -.140E+01 0.729E+00   -.100E-01 0.344E-01 -.280E+00
   0.213E+03 -.251E+03 -.401E+04   -.214E+03 0.254E+03 0.402E+04   0.605E+00 -.199E+01 -.400E+01   0.262E-01 0.599E-02 0.126E+00
   0.308E+03 -.575E+03 0.240E+04   -.311E+03 0.578E+03 -.240E+04   0.180E+01 -.249E+01 -.128E+01   -.908E-02 -.981E-03 0.393E-01
   0.617E+02 0.757E+03 -.545E+04   -.633E+02 -.761E+03 0.545E+04   0.116E+01 0.191E+01 -.208E+01   0.431E-01 0.880E-01 0.407E+00
   0.250E+03 0.801E+03 0.608E+04   -.247E+03 -.796E+03 -.608E+04   -.363E+01 -.466E+01 -.441E+00   -.157E+00 0.316E+00 0.335E-01
   0.104E+03 0.830E+03 0.345E+04   -.104E+03 -.833E+03 -.345E+04   -.129E+00 0.201E+01 -.138E+01   -.949E-01 0.374E+00 -.146E+00
   0.215E+03 0.505E+03 0.470E+03   -.216E+03 -.506E+03 -.471E+03   0.945E+00 0.219E+00 0.167E+01   0.210E-01 0.199E+00 -.150E+00
   0.282E+03 0.574E+03 -.295E+04   -.287E+03 -.577E+03 0.296E+04   0.318E+01 0.326E+01 -.223E+01   0.692E-01 0.331E-01 0.658E-01
   -.504E+03 0.373E+02 0.480E+03   0.505E+03 -.371E+02 -.481E+03   -.117E+01 -.318E+00 0.122E+01   0.137E+00 0.863E-01 -.330E+00
   -.634E+03 0.281E+02 -.242E+04   0.634E+03 -.270E+02 0.241E+04   -.104E+00 -.113E+01 0.264E+01   0.242E+00 -.616E-01 0.801E-01
   -.104E+04 0.325E+03 -.541E+04   0.105E+04 -.324E+03 0.541E+04   -.355E+01 -.732E+00 -.177E+01   -.858E-01 -.923E-01 0.398E+00
   -.802E+03 0.261E+03 0.349E+04   0.804E+03 -.262E+03 -.349E+04   -.181E+01 0.981E+00 -.147E+01   -.324E+00 0.188E+00 -.768E-01
   -.891E+02 -.803E+03 0.598E+04   0.906E+02 0.807E+03 -.598E+04   -.181E+01 -.202E+01 0.532E+01   -.158E+00 -.265E+00 -.633E-01
   0.277E+03 -.409E+03 -.552E+03   -.278E+03 0.410E+03 0.553E+03   0.619E+00 -.109E+01 0.176E-01   0.496E-01 0.116E-01 -.358E+00
   0.265E+03 -.427E+03 -.334E+04   -.266E+03 0.427E+03 0.334E+04   0.601E+00 -.803E+00 0.995E+00   -.701E-01 0.344E-01 0.434E+00
   0.166E+03 -.217E+03 -.595E+04   -.168E+03 0.221E+03 0.596E+04   0.155E+01 -.360E+01 -.310E+01   -.125E-01 -.921E-01 0.411E+00
   0.381E+03 -.600E+03 0.248E+04   -.383E+03 0.604E+03 -.248E+04   0.179E+01 -.288E+01 -.111E+01   -.172E-01 0.313E-02 0.451E+00
   0.772E+03 -.289E+03 0.598E+04   -.776E+03 0.289E+03 -.599E+04   0.265E+01 0.709E+00 0.524E+01   0.364E+00 0.295E-01 -.790E-01
   0.355E+03 0.760E+03 0.380E+04   -.355E+03 -.764E+03 -.380E+04   0.627E+00 0.265E+01 0.265E+00   0.150E+00 0.805E-01 0.577E-01
   0.260E+03 0.456E+03 0.548E+03   -.260E+03 -.456E+03 -.548E+03   0.686E+00 0.546E+00 0.104E+01   0.653E-02 -.158E-01 -.245E+00
   0.212E+03 0.483E+03 -.238E+04   -.213E+03 -.483E+03 0.237E+04   0.943E+00 -.372E+00 0.263E+01   -.104E+00 -.252E+00 0.157E+00
   -.512E+03 0.274E+02 0.500E+03   0.513E+03 -.265E+02 -.501E+03   -.590E+00 -.933E+00 0.175E+01   -.203E+00 0.659E-01 -.146E+00
   -.260E+03 -.638E+02 -.251E+04   0.264E+03 0.671E+02 0.251E+04   -.375E+01 -.267E+01 0.409E+00   -.948E-01 -.105E+00 0.158E+00
   0.439E+03 0.161E+03 -.546E+04   -.438E+03 -.158E+03 0.547E+04   -.712E+00 -.193E+01 -.277E+01   0.109E-01 0.876E-02 0.321E+00
   -.359E+03 0.336E+03 0.314E+04   0.362E+03 -.338E+03 -.314E+04   -.208E+01 0.136E+01 -.269E+01   0.321E+00 0.129E+00 -.304E+00
   0.175E+03 -.402E+03 -.629E+03   -.176E+03 0.403E+03 0.629E+03   0.651E+00 -.104E+01 0.216E-02   -.239E-01 -.211E-01 -.205E+00
   0.535E+02 -.508E+03 -.399E+04   -.553E+02 0.511E+03 0.399E+04   0.118E+01 -.275E+01 -.136E+01   -.114E+00 0.160E+00 0.309E+00
   0.237E+03 -.368E+03 0.498E+04   -.237E+03 0.368E+03 -.498E+04   0.316E+00 -.468E+00 0.304E+01   0.166E+00 -.341E+00 -.141E+00
   0.815E+02 -.140E+03 0.204E+04   -.811E+02 0.139E+03 -.204E+04   -.195E+00 0.219E+00 -.368E+01   -.608E-01 0.296E-01 -.258E+00
   -.339E+02 0.159E+03 -.543E+04   0.317E+02 -.161E+03 0.544E+04   0.109E+01 0.971E+00 -.381E+01   -.809E-01 -.478E-01 0.371E+00
   0.734E+02 -.197E+03 0.618E+04   -.719E+02 0.196E+03 -.618E+04   -.189E+01 0.634E+00 0.184E+01   -.209E+00 -.293E+00 -.148E+00
   -.154E+03 0.486E+03 0.314E+04   0.155E+03 -.490E+03 -.313E+04   -.447E+00 0.240E+01 -.274E+01   -.244E+00 -.167E+00 -.289E+00
   0.176E+03 0.440E+03 0.447E+03   -.177E+03 -.440E+03 -.448E+03   0.883E+00 0.773E+00 0.118E+01   -.144E+00 -.401E-01 -.255E+00
   0.238E+03 0.340E+03 -.250E+04   -.240E+03 -.343E+03 0.250E+04   0.215E+01 0.207E+01 0.226E+01   -.205E+00 -.390E-01 0.115E+00
   -.510E+03 -.758E+02 0.408E+03   0.512E+03 0.766E+02 -.409E+03   -.118E+01 -.711E+00 0.683E+00   -.199E+00 -.616E-01 -.162E+00
   -.481E+03 0.684E+01 -.246E+04   0.484E+03 -.798E+01 0.245E+04   -.253E+01 0.525E+00 0.273E+01   -.138E-02 0.577E-01 -.367E-01
   -.447E+03 0.243E+02 -.548E+04   0.452E+03 -.243E+02 0.549E+04   -.373E+01 0.847E+00 -.360E+01   0.875E-01 0.218E-01 0.267E+00
   -.840E+03 0.340E+02 0.379E+04   0.843E+03 -.352E+02 -.379E+04   -.258E+01 0.625E+00 0.243E+00   -.119E+00 -.596E-01 0.709E-01
   -.788E+03 0.113E+03 0.610E+04   0.783E+03 -.114E+03 -.610E+04   0.486E+01 0.171E+01 -.420E+00   -.322E+00 0.193E+00 0.650E-01
   0.308E+03 -.413E+03 -.582E+03   -.308E+03 0.414E+03 0.581E+03   0.466E+00 -.658E+00 0.824E+00   0.486E-01 -.566E-01 -.108E+00
   0.405E+03 -.355E+03 -.384E+04   -.405E+03 0.354E+03 0.384E+04   0.244E+00 0.445E+00 -.262E+00   -.774E-01 0.217E+00 0.778E-01
   0.382E+03 -.552E+03 0.241E+04   -.383E+03 0.555E+03 -.241E+04   0.134E+01 -.284E+01 -.120E+01   0.569E-01 0.101E-01 0.219E-01
   0.537E+03 0.857E+02 -.549E+04   -.541E+03 -.904E+02 0.550E+04   0.319E+01 0.459E+01 -.136E+01   0.536E-01 -.163E-01 0.419E+00
   0.371E+03 -.594E+03 0.613E+04   -.373E+03 0.598E+03 -.614E+04   0.176E+01 -.286E+01 0.455E+01   0.717E-01 -.139E+00 -.563E-01
   0.634E+03 0.308E+03 0.362E+04   -.637E+03 -.311E+03 -.362E+04   0.237E+01 0.187E+01 0.391E+00   0.149E+00 -.442E+00 0.138E+00
   0.314E+03 0.407E+03 0.401E+03   -.315E+03 -.408E+03 -.401E+03   0.130E+01 0.690E+00 0.525E+00   0.167E+00 0.168E+00 -.210E+00
   0.201E+03 0.364E+03 -.243E+04   -.202E+03 -.367E+03 0.243E+04   0.790E+00 0.282E+01 0.213E+01   0.607E-01 0.119E+00 -.168E-01
   -.521E+03 -.467E+02 0.473E+03   0.522E+03 0.474E+02 -.474E+03   -.612E+00 -.607E+00 0.141E+01   0.164E-01 0.551E-01 -.233E+00
   -.482E+03 -.243E+03 -.263E+04   0.485E+03 0.244E+03 0.262E+04   -.215E+01 -.185E+01 0.176E+01   0.403E-01 0.146E+00 0.210E+00
   -.185E+03 -.681E+03 -.562E+04   0.187E+03 0.682E+03 0.562E+04   -.202E+01 0.143E+00 -.276E+01   -.182E-01 0.185E-01 0.518E+00
   -.552E+03 -.423E+03 0.362E+04   0.556E+03 0.424E+03 -.362E+04   -.267E+01 -.121E+01 0.352E+00   0.323E+00 -.338E+00 0.147E+00
   0.150E+03 -.178E+03 0.617E+04   -.150E+03 0.176E+03 -.618E+04   0.347E+00 0.217E+01 0.148E+01   0.413E+00 0.268E-02 -.141E+00
   -.923E+02 0.130E+03 -.168E+03   0.933E+02 -.131E+03 0.167E+03   -.115E+01 0.187E+01 0.153E+01   0.408E-01 -.171E-01 -.153E+00
   -.210E+03 0.241E+03 -.133E+04   0.211E+03 -.243E+03 0.133E+04   -.506E+00 0.467E+00 -.755E+00   0.335E-01 -.611E-01 0.192E+00
   -.354E+03 0.538E+03 0.208E+04   0.358E+03 -.543E+03 -.208E+04   -.172E+01 0.274E+01 0.985E+00   -.137E+00 0.137E+00 -.411E-01
   -.965E+02 0.159E+03 0.102E+04   0.974E+02 -.161E+03 -.102E+04   -.827E+00 0.127E+01 0.198E+01   -.550E-01 0.841E-01 0.157E-01
   -.559E+02 0.749E+01 -.240E+04   0.560E+02 -.759E+01 0.240E+04   0.759E-01 0.404E-02 -.126E+01   0.102E-03 -.126E-02 0.782E-01
   -.236E+03 -.158E+03 -.181E+04   0.237E+03 0.162E+03 0.180E+04   -.109E+01 -.144E+01 -.653E+00   0.989E-03 -.447E-01 0.244E+00
   -.527E+02 -.139E+03 -.663E+03   0.544E+02 0.141E+03 0.663E+03   -.166E+01 -.265E+01 -.556E+00   -.106E+00 -.221E-01 -.679E-01
   -.130E+03 -.196E+03 0.169E+04   0.131E+03 0.198E+03 -.169E+04   -.269E+00 -.122E-01 0.471E+00   0.146E-01 0.959E-01 0.486E-01
[...]
   0.616E+02 -.104E+03 -.199E+04   -.631E+02 0.105E+03 0.200E+04   0.368E+00 0.358E+00 -.167E+01   0.681E-02 0.168E-01 0.139E+00
   -.699E+02 0.981E+02 -.183E+03   0.712E+02 -.100E+03 0.181E+03   -.117E+01 0.181E+01 0.145E+01   -.275E-01 -.276E-01 -.159E+00
   -.489E+02 0.433E+02 -.127E+04   0.505E+02 -.458E+02 0.127E+04   -.811E+00 0.905E+00 0.166E+01   -.154E-01 0.412E-01 0.262E+00
   0.352E+02 -.522E+02 0.238E+04   -.348E+02 0.515E+02 -.238E+04   -.156E+00 0.248E+00 0.184E+01   0.181E+00 -.302E+00 -.403E-01
   -.314E+02 0.527E+02 0.794E+03   0.316E+02 -.529E+02 -.793E+03   -.135E+00 0.221E+00 -.324E+00   0.560E-01 -.928E-01 -.348E-01
   0.194E+03 0.116E+03 -.228E+04   -.194E+03 -.117E+03 0.228E+04   0.174E+00 0.461E+00 -.357E+01   -.455E-02 0.672E-01 0.377E-01
   -.769E+02 -.387E+03 -.209E+04   0.790E+02 0.392E+03 0.210E+04   -.138E+01 -.188E+01 -.916E+00   0.320E-02 -.113E-01 0.225E+00
   -.653E+02 -.142E+03 -.636E+03   0.666E+02 0.145E+03 0.635E+03   -.800E+00 -.276E+01 -.134E+00   -.146E+00 -.497E-01 -.879E-01
   0.142E+03 -.407E+03 0.168E+04   -.142E+03 0.410E+03 -.168E+04   -.137E+00 -.118E+01 0.473E+00   0.165E+00 -.786E-01 -.690E-01
   -.403E+02 -.152E+03 0.449E+03   0.415E+02 0.155E+03 -.449E+03   -.112E+01 -.229E+01 0.574E+00   0.572E-01 -.875E-02 -.780E-01
   0.309E+03 -.547E+02 0.177E+04   -.310E+03 0.552E+02 -.177E+04   0.104E+00 -.248E+00 0.112E+01   -.168E+00 -.659E-01 0.901E-01
   0.204E+03 -.232E+02 0.479E+03   -.207E+03 0.231E+02 -.479E+03   0.268E+01 -.123E+00 0.992E+00   0.907E-01 0.401E-02 0.645E-01
   0.201E+03 -.359E+02 -.673E+03   -.204E+03 0.364E+02 0.672E+03   0.308E+01 -.891E+00 -.116E+00   0.123E+00 0.151E+00 -.106E+00
   0.153E+03 -.202E+03 -.187E+04   -.155E+03 0.202E+03 0.187E+04   0.620E+00 0.116E+00 -.107E+01   -.758E-01 0.507E-01 0.180E+00
   0.414E+00 0.660E+01 -.185E+02   -.341E-12 -.182E-11 0.227E-12   -.631E+00 -.638E+01 0.166E+02   -.462E-04 -.155E+00 0.174E+01

 POSITION                                       TOTAL-FORCE (eV/Angst)
      5.35228      4.81788      6.64784         0.149898     -0.209273      0.025992
      5.93595      3.87238      9.58390        -0.339515      0.898168     -1.023191
      2.24633      0.73197      3.71178        -0.664882      0.312329      1.422528
      0.78012      0.57161     11.35944        -0.406776     -2.154788      0.266554
      4.27668      4.15552      0.52124        -0.767220     -0.065517     -1.168336
      4.76861      3.35453      2.93606        -0.298728     -0.040901      1.429406
      5.35228      2.40903      5.87212        -0.054282     -0.021421      0.006891
      5.93595      1.46353      8.80817        -1.001134     -0.168685     -1.701772
      1.87746      3.73836      5.87212        -0.095934     -0.080874      0.060218
      2.46113      2.79286      8.80817        -0.255944     -0.063166     -0.273238
      3.09694      1.98672     11.31286         2.235740     -0.304609      0.230965
      6.92203      4.68386      2.93606         0.105964      0.338188      1.281618
      2.56530      0.30724      1.29532        -0.421527      1.385716     -1.622375
     10.98051      4.81788      6.64784         0.047720     -0.193397     -0.054929
     11.56418      3.87238      9.58390        -0.081934     -0.088618     -0.564465
     11.85786      3.39974     12.10626        -0.702156      0.929470      1.179644
      7.87456      0.73197      3.71178        -0.495623      0.719914      2.365632
     10.62234      5.28142      1.29288        -0.934694      1.016332     -1.637304
     10.39684      3.35453      2.93606         0.221800     -0.949946      1.147253
     10.98051      2.40903      5.87212        -0.014343      0.082178      0.093868
     11.56418      1.46353      8.80817         0.224676     -0.011147     -0.148083
      7.50570      3.73836      5.87212         0.016063     -0.004567      0.015785
      8.08937      2.79286      8.80817         0.246950      0.497061     -2.323882
      8.70309      1.73933     10.92615        -0.127265      1.022074      0.827678
     12.55026      4.68386      2.93606         0.999393     -0.823366      3.630603
      7.87456      9.84929      6.64784         0.118540     -0.093395     -0.121442
      8.45823      8.90379      9.58390        -0.723433      0.066219     -0.676624
      4.01693      6.98678      1.81643         0.137091     -0.279928     -1.054936
      4.76861      5.76338      3.71178         0.139782     -0.186514      1.178133
      3.16399      5.71844     11.23610        -1.169031     -1.177637      0.382081
      6.40276      8.23189      0.79837        -0.633840     -0.295271     -1.300209
      7.29089      8.38594      2.93606         0.324548     -1.290529      3.711311
      7.87456      7.44044      5.87212         0.076980      0.098033      0.004768
      8.45823      6.49494      8.80817         0.211868     -0.362670     -1.454058
      4.39975      8.76977      5.87212        -0.018142      0.066124      0.072083
      4.98341      7.82427      8.80817         0.236049     -0.555643     -1.655801
      5.70555      7.08951     11.19451         1.311990      0.917463      0.374105
      9.44431      9.71527      2.93606         0.735740     -0.641823      1.109792
      6.26572      5.48981      0.50172         0.235178      0.638585     -1.242533
     13.50279      9.84929      6.64784         0.154188     -0.341876     -0.237461
     14.08646      8.90379      9.58390         0.173867     -0.322834     -0.721349
     10.39684      5.76338      3.71178         0.024519      0.687590      1.488213
      8.88928      5.39857     11.24701        -0.781473     -0.058257      0.699284
      8.12436      0.33332      1.34362        -0.591592      0.797933     -1.850002
     12.91912      8.38594      2.93606        -0.186675     -1.003042      1.632592
     13.50279      7.44044      5.87212        -0.086356      0.042249      0.120488
     14.08646      6.49494      8.80817         0.054082     -0.284832     -1.258116
     10.02798      8.76977      5.87212        -0.068090      0.065426      0.140320
     10.61165      7.82427      8.80817         0.121519     -0.600435     -1.706562
     11.22648      6.84229     11.42292         0.510767      0.786579      0.940590
     15.07254      9.71527      2.93606         0.942706     -0.304471      1.706714
     13.08407      5.40001      0.79264         0.500588      0.372596     -1.237457
      1.66190      1.67871      7.01153        -0.021325      0.019372      0.041520
      2.24556      0.73321      9.94759         0.856242     -1.503508     -2.451825
      6.08399      3.62628      1.31573         1.598326     -2.468101     -2.348565
      6.70646      2.62422      4.07548         0.011046     -0.017486      0.314887
      4.44399      6.42635     12.60384         0.207061     -0.098408      3.057265
      2.24556      3.80055     10.93537         0.262271      2.509677     -1.319633
      7.29013      4.74605      7.99931        -0.097941      0.242366     -0.269558
      3.70877      1.58265      2.44352         0.359972      1.528568     -1.275831
[...]
      7.07033      8.08475      7.99931        -0.130441      0.237930     -0.611225
      7.75497      7.10917     10.66810        -1.107256      0.483193      2.090246
      9.81241      6.71012      7.01153         0.133248     -0.259773     -0.117880
     10.39608      5.76462      9.94759         0.714263     -1.533594     -3.276267
     14.23069      8.66968      1.28801         0.406960     -0.681037     -3.260580
     14.85697      7.65563      4.07548         0.094210     -0.067322      0.230076
     13.83551      9.85504     11.45430        -0.424336     -0.651576      2.381824
     10.18660      8.50051     10.68559         0.789131      2.763967      2.453854
     15.44064      9.77746      7.99931         0.311987      0.303114     -0.724401
     11.93489      6.58400      2.22840        -0.355063      2.082354     -0.383866
     12.33469      5.69156      5.06325         0.084440      0.048388      0.146408
     11.49886      9.87576      2.42885        -1.793620      0.158624     -1.315194
     12.11489      9.03025      5.06325         0.034028     -0.220288      0.468079
     12.69856      8.08475      7.99931        -0.183881     -0.182910     -1.122803
     13.14929      7.21292     10.57229        -0.585495     -0.235686      1.542593
    total drift:                               -0.217421      0.066680     -0.164779

  FREE ENERGIE OF THE ION-ELECTRON SYSTEM (eV)
  free  energy   TOTEN  =      -510.88639863 eV

  energy  without entropy=     -509.50964725  energy(sigma->0) =     -510.19802294