 vasp.5.4.4.18Apr17-6-g9f103f2a35 (build Aug 13 2019 17:33:20) gamma-only

 executed on             LinuxIFC date 2020.05.11  17:35:10

 INCAR:
 POTCAR:    PAW_PBE Ni_pv 06Sep2000
 POTCAR:    PAW_PBE S 06Sep2000
 POTCAR:    PAW_PBE Ni_pv 06Sep2000
   VRHFIN =Ni:

   TITEL  = PAW_PBE Ni_pv 06Sep2000
   POMASS =   58.690; ZVAL   =   16.000    mass and valenz
   ENMAX  =  367.986; ENMIN  =  275.989 eV

 POTCAR:    PAW_PBE S 06Sep2000
   VRHFIN =S : s2p4

   TITEL  = PAW_PBE S 06Sep2000
   POMASS =   32.066; ZVAL   =    6.000    mass and valenz
   ENMAX  =  258.689; ENMIN  =  194.016 eV

 Optimization of the real space projectors (new method)

 maximal supplied QI-value         = 18.90
 optimisation between [QCUT,QGAM] = [ 10.77, 21.73] = [ 32.49,132.25] Ry
 Optimized for a Real-space Cutoff    1.38 Angstroem

   l    n(q)    QCUT    max X(q) W(low)/X(q) W(high)/X(q)  e(spline)
   1      8    10.771     2.836    0.40E-04    0.29E-04    0.12E-06
   1      8    10.771     4.023    0.10E-03    0.48E-04    0.29E-06
   2      8    10.771    73.368    0.42E-03    0.97E-04    0.44E-06
   2      8    10.771    69.010    0.42E-03    0.99E-04    0.45E-06
   0      9    10.771    54.797    0.10E-03    0.56E-04    0.74E-07
   0      9    10.771    24.266    0.89E-04    0.49E-04    0.67E-07
 Optimization of the real space projectors (new method)

 maximal supplied QI-value         = 19.84
 optimisation between [QCUT,QGAM] = [ 10.71, 21.63] = [ 32.15,130.99] Ry
 Optimized for a Real-space Cutoff    1.19 Angstroem

   l    n(q)    QCUT    max X(q) W(low)/X(q) W(high)/X(q)  e(spline)
   0      8    10.715   187.594    0.41E-03    0.53E-04    0.66E-07
   0      8    10.715   164.243    0.41E-03    0.53E-04    0.65E-07
   1      7    10.715    67.533    0.19E-03    0.59E-03    0.68E-07
   1      7    10.715    50.729    0.19E-03    0.58E-03    0.67E-07
  PAW_PBE Ni_pv 06Sep2000               :
  PAW_PBE S 06Sep2000                   :

 POSCAR: Type_036 Type_136
  positions in cartesian coordinates
 exchange correlation table for  LEXCH =        8
   RHO(1)=    0.500       N(1)  =     2000
   RHO(2)=  100.500       N(2)  =     4000

 ion  position               nearest neighbor table
   1  0.770  0.168  0.138-  41 2.12  63 2.12  49 2.14  50 2.21  42 2.39  64 2.43   2 2.46
   2  0.825  0.164  0.279-  50 2.07  64 2.07  42 2.13   1 2.46
   3  0.215  0.617  0.096-  43 2.02  44 2.12  61 2.15   4 2.41  15 2.51  51 2.52  20 2.54
   4  0.297  0.645  0.216-  52 2.08  44 2.25  51 2.26  61 2.26   3 2.41  62 2.44  28 2.53  16 2.53

   5  0.386  0.124  0.126-  45 2.04  46 2.12  67 2.20   6 2.43  53 2.49  18 2.50
   6  0.470  0.145  0.248-  68 2.07  54 2.10  46 2.25  53 2.26  67 2.26   5 2.43  30 2.53  19 2.53

[...]

  37  0.977  0.171  0.342-  10 2.03  14 2.05  26 2.06
  38  0.001  0.122  0.153-  26 2.08  14 2.10  13 2.13   9 2.16
  39  0.474  0.645  0.087-  15 2.01  11 2.03  28 2.26  16 2.26  27 2.57
  40  0.513  0.636  0.260-  11 2.10  17 2.12  12 2.20  16 2.21  28 2.31
  41  0.647  0.145  0.119-  18 2.04  29 2.05   1 2.12  30 2.26  19 2.26  42 2.53  49 2.70
  42  0.699  0.152  0.265-   2 2.13  30 2.21  19 2.28   1 2.39  41 2.53
  43  0.113  0.646  0.032-   3 2.02  31 2.06  20 2.07
  44  0.164  0.645  0.214-  21 2.05  32 2.05   3 2.12   4 2.25  31 2.36  20 2.36
  45  0.282  0.145  0.063-   5 2.04  22 2.07  33 2.07
  46  0.336  0.145  0.246-  23 2.07  34 2.10   5 2.12   6 2.25  33 2.36  22 2.36
  47  0.819  0.645  0.151-  24 2.11   7 2.25  36 2.26  25 2.26  35 2.27  48 2.76
  48  0.848  0.646  0.319-   8 2.05  36 2.10  25 2.11  47 2.76
  49  0.752  0.299  0.032-  24 2.00  29 2.06   1 2.14  41 2.70
  50  0.835  0.336  0.203-   2 2.07  24 2.14  26 2.18  25 2.19   1 2.21
  51  0.312  0.814  0.119-  15 2.05  27 2.09  22 2.25   4 2.26  28 2.26   3 2.52
  52  0.353  0.784  0.295-  23 2.01   4 2.08  28 2.08
  53  0.484  0.314  0.151-  18 2.04  16 2.25  30 2.26   6 2.26   5 2.49
  54  0.542  0.245  0.335-  17 2.00  30 2.07   6 2.10  68 2.61
  55  0.001  0.814  0.246-  32 2.03   8 2.03  14 2.12   7 2.36  31 2.36
  56  0.969  0.815  0.075-  13 2.07   7 2.07  31 2.09
  57  0.141  0.324  0.110-  33 2.09  20 2.10   9 2.11  58 2.78
  58  0.174  0.314  0.278-  21 2.07  34 2.09  10 2.20   9 2.36  33 2.36  57 2.78
  59  0.657  0.814  0.183-  11 2.16  35 2.25  19 2.25  36 2.26  12 2.26  60 2.78
  60  0.694  0.795  0.350-  36 2.02  12 2.02  59 2.78
  61  0.312  0.477  0.119-  15 2.04   3 2.15  33 2.25   4 2.26  16 2.26
  62  0.374  0.493  0.307-  34 2.02  16 2.07  17 2.14   4 2.44
  63  0.805  0.022  0.047-  35 2.02  13 2.05   1 2.12  64 2.78
  64  0.829  0.977  0.214-   2 2.07  13 2.10  35 2.14  36 2.25  14 2.26   1 2.43  63 2.78
  65  0.001  0.477  0.246-  21 2.03   8 2.03  26 2.11   7 2.36  20 2.36
  66  0.973  0.490  0.071-   7 2.01  20 2.03
  67  0.484  0.977  0.151-  18 2.06  27 2.08   5 2.20  28 2.25  19 2.26   6 2.26  68 2.67
  68  0.517  0.978  0.312-  19 2.02   6 2.07  54 2.61  67 2.67
  69  0.657  0.477  0.183-  29 2.11  11 2.14  24 2.22  30 2.25  25 2.26  12 2.26
  70  0.695  0.501  0.353-  25 2.03  12 2.03
  71  0.141  0.967  0.109-  22 2.09  31 2.11   9 2.11  72 2.78
  72  0.174  0.977  0.278-  23 2.05  32 2.08  10 2.22   9 2.36  22 2.36  71 2.78

  LATTYP: Found a simple orthorhombic cell.
 ALAT       =     9.5784100000
 B/A-ratio  =     1.6880763216
 C/A-ratio  =     1.7627867312

  Lattice vectors:

 A1 = (   0.0000000000,   9.5784100000,   0.0000000000)
 A2 = (   0.0000000000,   0.0000000000, -16.1690871197)
 A3 = ( -16.8846940542,   0.0000000000,   0.0000000000)

Analysis of symmetry for initial positions (statically):
 Subroutine PRICEL returns:
 Original cell was already a primitive cell.

 Routine SETGRP: Setting up the symmetry group for a
 simple orthorhombic supercell.

 Subroutine GETGRP returns: Found  1 space group operations
 (whereof  1 operations were pure point group operations)
 out of a pool of  8 trial point group operations.

The static configuration has the point symmetry C_1 .

Analysis of symmetry for dynamics (positions and initial velocities):
 Subroutine PRICEL returns:
 Original cell was already a primitive cell.

 Routine SETGRP: Setting up the symmetry group for a
 simple orthorhombic supercell.

 Subroutine GETGRP returns: Found  1 space group operations
 (whereof  1 operations were pure point group operations)
 out of a pool of  8 trial point group operations.

The dynamic configuration has the point symmetry C_1 .

 Subroutine INISYM returns: Found  1 space group operations
 (whereof  1 operations are pure point group operations),
 and found     1 'primitive' translations

 KPOINTS: gamma-point-only calculation. no periodi

Automatic generation of k-mesh.
Space group operators:
 irot       det(A)        alpha          n_x          n_y          n_z        tau_x        tau_y        tau_z
    1     1.000000     0.000000     1.000000     0.000000     0.000000     0.000000     0.000000     0.000000

 Subroutine IBZKPT returns following result:

 Found      1 irreducible k-points:

 Following reciprocal coordinates:
            Coordinates               Weight
  0.000000  0.000000  0.000000      1.000000

 Following cartesian coordinates:
            Coordinates               Weight
  0.000000  0.000000  0.000000      1.000000

 SYSTEM =  "Millerite NiS"
 POSCAR =  Type_036 Type_136

 Startparameter for this run:
   NWRITE =      2    write-flag & timer
   PREC   = normal    normal or accurate (medium, high low for compatibility)
   ISTART =      0    job   : 0-new  1-cont  2-samecut
   ICHARG =      2    charge: 1-file 2-atom 10-const
   ISPIN  =      1    spin polarized calculation?
   LNONCOLLINEAR =      F non collinear calculations
   LSORBIT =      F    spin-orbit coupling
   INIWAV =      1    electr: 0-lowe 1-rand  2-diag
   LASPH  =      F    aspherical Exc in radial PAW
   METAGGA=      F    non-selfconsistent MetaGGA calc.

 Electronic Relaxation 1
   ENCUT  =  450.0 eV  33.07 Ry    5.75 a.u.  29.20 16.57 27.97*2*pi/ulx,y,z
   ENINI  =  450.0     initial cutoff
   ENAUG  =  703.4 eV  augmentation charge cutoff
   NELM   =    100;   NELMIN=  2; NELMDL= -5     # of ELM steps
   EDIFF  = 0.1E-03   stopping-criterion for ELM
   LREAL  =      T    real-space projection
   NLSPLINE    = F    spline interpolate recip. space projectors
   LCOMPAT=      F    compatible to vasp.4.4
   GGA_COMPAT  = T    GGA compatible to vasp.4.4-vasp.4.6
   LMAXPAW     = -100 max onsite density
   LMAXMIX     =    2 max onsite mixed and CHGCAR
   VOSKOWN=      0    Vosko Wilk Nusair interpolation
   ROPT   =   -0.00050  -0.00050
 Ionic relaxation
   EDIFFG = 0.1E-02   stopping-criterion for IOM
   NSW    =      0    number of steps for IOM
   NBLOCK =      1;   KBLOCK =      1    inner block; outer block
   IBRION =     -1    ionic relax: 0-MD 1-quasi-New 2-CG
   NFREE  =      0    steps in history (QN), initial steepest desc. (CG)
   ISIF   =      2    stress and relaxation
   IWAVPR =     10    prediction:  0-non 1-charg 2-wave 3-comb
   ISYM   =      2    0-nonsym 1-usesym 2-fastsym
   LCORR  =      T    Harris-Foulkes like correction to forces

   POTIM  = 0.5000    time-step for ionic-motion
   TEIN   =    0.0    initial temperature
   TEBEG  =    0.0;   TEEND  =   0.0 temperature during run
   SMASS  =  -3.00    Nose mass-parameter (am)
   estimated Nose-frequenzy (Omega)   =  0.10E-29 period in steps =****** mass=  -0.652E-26a.u.
   SCALEE = 1.0000    scale energy and forces
   NPACO  =    256;   APACO  = 16.0  distance and # of slots for P.C.
   PSTRESS=    0.0 pullay stress

  Mass of Ions in am
   POMASS =  58.69 32.07
  Ionic Valenz
   ZVAL   =  16.00  6.00
  Atomic Wigner-Seitz radii
  virtual crystal weights
   VCA    =   1.00  1.00
   NELECT =     792.0000    total number of electrons
   NUPDOWN=      -1.0000    fix difference up-down

 DOS related values:
   EMIN   =  10.00;   EMAX   =-10.00  energy-range for DOS
   EFERMI =   0.00
   ISMEAR =     0;   SIGMA  =   0.20  broadening in eV -4-tet -1-fermi 0-gaus

 Electronic relaxation 2 (details)
   IALGO  =     38    algorithm
   LDIAG  =      T    sub-space diagonalisation (order eigenvalues)
   LSUBROT=      F    optimize rotation matrix (better conditioning)
   TURBO    =      0    0=normal 1=particle mesh
   IRESTART =      0    0=no restart 2=restart with 2 vectors
   NREBOOT  =      0    no. of reboots
   NMIN     =      0    reboot dimension
   EREF     =   0.00    reference energy to select bands
   IMIX   =      4    mixing-type and parameters
     AMIX     =   0.40;   BMIX     =  1.00
     AMIX_MAG =   1.60;   BMIX_MAG =  1.00
     AMIN     =   0.10
     WC   =   100.;   INIMIX=   1;  MIXPRE=   1;  MAXMIX= -45

 Intra band minimization:
   WEIMIN = 0.0000     energy-eigenvalue tresh-hold
   EBREAK =  0.53E-07  absolut break condition
   DEPER  =   0.30     relativ break condition

   TIME   =   0.40     timestep for ELM

  volume/ion in A,a.u.               =      36.32       245.10
  Fermi-wavevector in a.u.,A,eV,Ry     =   1.099409  2.077581 16.445356  1.208700
  Thomas-Fermi vector in A             =   2.235803

 Write flags
   LWAVE        =      F    write WAVECAR
   LDOWNSAMPLE  =      F    k-point downsampling of WAVECAR
[...]
  Fock        0.00000     0.00000     0.00000     0.00000     0.00000     0.00000
  Total     120.26314   121.24666   136.80938    -0.43284     1.14583    -1.69050
  in kB      73.68363    74.28621    83.82129    -0.26519     0.70204    -1.03575

 VOLUME and BASIS-vectors are now :
  energy-cutoff  :      450.00
  volume of cell :     2615.00
      direct lattice vectors                 reciprocal lattice vectors
    16.884694054  0.000000000  0.000000000     0.059225237  0.000000000  0.000000000
     0.000000000  9.578410000  0.000000000     0.000000000  0.104401461  0.000000000
     0.000000000  0.000000000 16.169087120     0.000000000  0.000000000  0.061846411

  length of vectors
    16.884694054  9.578410000 16.169087120     0.059225237  0.104401461  0.061846411

 FORCES acting on ions
    electron-ion (+dipol)            ewald-force                    non-local-force                 convergence-correction
   -.195E+03 0.114E+03 0.162E+04   0.198E+03 -.115E+03 -.162E+04   -.164E+01 0.122E+00 0.306E+01   0.152E-02 -.145E-01 -.270E-02
   0.262E+03 -.398E+02 -.285E+04   -.262E+03 0.409E+02 0.285E+04   0.147E+00 -.123E+01 -.746E+00   -.454E-02 -.194E-02 -.724E-03
   0.186E+03 0.106E+03 0.284E+04   -.186E+03 -.106E+03 -.284E+04   0.887E+00 0.103E+01 0.679E+01   -.392E-02 -.292E-02 -.369E-02
   0.384E+03 0.187E+02 -.136E+04   -.386E+03 -.183E+02 0.136E+04   0.205E+01 -.141E+01 -.466E+01   -.107E-01 0.143E-03 -.659E-02
   0.644E+02 -.336E+03 0.213E+04   -.652E+02 0.336E+03 -.214E+04   0.156E+01 -.335E-01 0.763E+01   -.120E-01 -.136E-02 -.771E-03
   0.260E+03 0.192E+03 -.205E+04   -.264E+03 -.192E+03 0.206E+04   0.313E+01 0.190E+00 -.631E+01   -.179E-03 -.182E-02 0.805E-02
   0.673E+03 0.150E+03 0.132E+04   -.678E+03 -.150E+03 -.133E+04   0.429E+01 0.891E+00 0.437E+01   0.130E-01 0.303E-02 -.129E-01
   0.326E+03 0.439E+02 -.330E+04   -.328E+03 -.436E+02 0.330E+04   0.183E+01 -.266E+00 0.400E+00   0.192E-01 -.351E-02 -.673E-03
   0.498E+03 -.481E+02 0.828E+03   -.501E+03 0.488E+02 -.830E+03   0.276E+01 -.951E+00 0.175E+01   0.137E-01 0.315E-02 0.631E-02
   -.665E+01 -.113E+02 -.346E+04   0.593E+01 0.123E+02 0.346E+04   0.190E+01 -.147E+01 0.584E+00   0.136E-01 0.580E-02 -.106E-01
   -.317E+03 -.287E+03 0.184E+04   0.319E+03 0.288E+03 -.185E+04   -.109E+01 -.107E+01 0.268E+01   -.194E-02 0.302E-02 -.418E-02
   0.302E+03 -.239E+03 -.249E+04   -.305E+03 0.240E+03 0.250E+04   0.182E+01 -.746E+00 -.760E+01   -.129E-01 -.124E-02 -.558E-02
   -.314E+03 -.149E+03 0.260E+04   0.318E+03 0.147E+03 -.261E+04   -.330E+01 0.324E+01 0.601E+01   -.147E-02 -.804E-02 -.125E-01
   0.830E+02 0.405E+03 -.185E+04   -.812E+02 -.408E+03 0.186E+04   -.264E+01 0.243E+01 -.302E+01   0.162E-01 0.485E-02 -.434E-02
   -.864E+02 0.397E+03 0.387E+04   0.850E+02 -.398E+03 -.388E+04   0.947E+00 0.784E+00 0.550E+01   -.103E-01 0.127E-02 -.602E-02
   -.140E+03 0.351E+03 0.284E+03   0.138E+03 -.353E+03 -.287E+03   0.181E+01 0.277E+01 0.243E+00   -.161E-02 0.105E-02 -.478E-02
   -.132E+03 -.157E+03 -.329E+04   0.132E+03 0.156E+03 0.330E+04   -.774E-01 0.150E+01 -.457E+01   0.187E-02 0.296E-03 0.161E-02
   -.195E+03 0.130E+03 0.339E+04   0.193E+03 -.130E+03 -.340E+04   0.210E+01 -.486E+00 0.475E+01   0.625E-02 -.259E-02 -.709E-02
   -.524E+03 0.675E+03 -.101E+04   0.528E+03 -.681E+03 0.101E+04   -.250E+01 0.571E+01 -.543E+01   0.224E-03 -.260E-02 -.358E-02
   0.289E+03 0.727E+03 0.200E+04   -.290E+03 -.733E+03 -.200E+04   0.106E+01 0.564E+01 0.332E+01   0.110E-01 -.494E-02 0.369E-03
   -.116E+03 0.178E+03 -.286E+04   0.117E+03 -.180E+03 0.286E+04   -.193E+00 0.322E+01 -.109E+00   0.524E-02 -.155E-01 -.220E-02
   0.310E+03 0.340E+03 0.119E+04   -.311E+03 -.343E+03 -.119E+04   0.160E+01 0.204E+01 0.314E+01   -.254E-01 0.531E-02 0.418E-02
   -.154E+03 0.142E+03 -.330E+04   0.156E+03 -.146E+03 0.330E+04   -.128E+01 0.450E+01 0.205E+01   -.112E-01 0.324E-02 -.537E-02
   -.542E+03 -.412E+03 0.258E+04   0.543E+03 0.414E+03 -.259E+04   -.177E+01 -.159E+01 0.665E+01   -.140E-03 0.953E-04 -.801E-02
   -.392E+03 0.354E+03 -.182E+04   0.395E+03 -.357E+03 0.183E+04   -.174E+01 0.349E+01 -.661E+01   -.542E-02 -.442E-02 0.505E-02
   0.718E+02 -.516E+03 -.632E+03   -.703E+02 0.519E+03 0.631E+03   -.246E+01 -.256E+01 -.259E+00   0.194E-01 0.106E-02 -.970E-03
   -.356E+03 -.212E+03 0.375E+04   0.353E+03 0.213E+03 -.375E+04   0.308E+01 -.784E+00 -.151E+01   -.241E-02 -.648E-02 -.585E-02
   -.536E+03 -.333E+03 -.587E+03   0.536E+03 0.335E+03 0.591E+03   0.316E+00 -.255E+01 -.377E+01   0.217E-02 0.281E-02 -.205E-02
   0.220E+03 -.400E+03 0.337E+04   -.218E+03 0.400E+03 -.337E+04   -.346E+01 0.470E+00 0.435E+01   -.902E-02 -.152E-02 -.200E-02
   -.496E+03 -.208E+03 -.113E+04   0.497E+03 0.213E+03 0.114E+04   -.129E+01 -.368E+01 -.478E+01   -.288E-03 -.375E-03 0.123E-03
   0.870E+02 -.609E+03 0.200E+04   -.870E+02 0.614E+03 -.201E+04   0.400E+00 -.517E+01 0.381E+01   0.824E-02 0.824E-02 -.288E-02
   -.163E+03 -.154E+03 -.288E+04   0.163E+03 0.156E+03 0.288E+04   0.321E+00 -.284E+01 -.444E+00   0.354E-02 0.791E-02 -.572E-02
   0.126E+03 -.366E+03 0.132E+04   -.127E+03 0.369E+03 -.132E+04   0.141E+01 -.244E+01 0.325E+01   -.250E-01 -.256E-02 0.831E-02
   0.134E+02 -.111E+03 -.310E+04   -.112E+02 0.112E+03 0.310E+04   -.274E+01 -.226E+01 0.761E-01   -.207E-01 -.470E-02 -.555E-02
   0.343E+03 0.294E+03 0.252E+04   -.346E+03 -.295E+03 -.252E+04   0.206E+01 0.686E-01 0.549E+01   0.208E-02 0.516E-02 -.973E-02
   -.226E+03 -.435E+03 -.178E+04   0.228E+03 0.438E+03 0.178E+04   -.165E+01 -.304E+01 -.535E+01   -.280E-02 0.126E-01 -.167E-01
   0.167E+03 -.931E+02 -.156E+04   -.166E+03 0.946E+02 0.157E+04   -.174E+01 -.870E+00 -.185E+01   0.109E-01 0.130E-02 0.733E-03
   -.725E+02 -.118E+03 0.842E+03   0.713E+02 0.120E+03 -.845E+03   0.172E+01 -.133E+01 0.178E+01   0.997E-02 -.444E-03 -.272E-02
   -.348E+03 0.963E+02 0.128E+04   0.351E+03 -.984E+02 -.129E+04   -.222E+01 0.255E+01 0.267E+01   0.164E-02 0.102E-02 0.349E-06
   -.260E+02 -.253E+03 -.940E+03   0.256E+02 0.256E+03 0.947E+03   0.674E+00 -.194E+01 -.442E+01   0.152E-02 0.320E-02 -.357E-02
   -.170E+03 0.324E+03 0.879E+03   0.170E+03 -.330E+03 -.884E+03   -.831E+00 0.350E+01 0.416E+01   -.118E-02 -.186E-02 -.186E-02
   -.528E+02 0.849E+02 -.992E+03   0.526E+02 -.852E+02 0.997E+03   0.121E+00 0.211E+00 -.303E+01   0.110E-02 -.600E-03 -.122E-04
   0.126E+03 -.204E+02 0.172E+04   -.126E+03 0.212E+02 -.173E+04   -.614E+00 -.788E+00 0.216E+01   0.233E-02 0.538E-03 0.284E-02
   -.100E+03 -.240E+02 -.327E+03   0.101E+03 0.244E+02 0.331E+03   0.148E+01 -.199E+00 -.341E+01   -.283E-02 -.177E-02 -.208E-02
   0.159E+03 -.854E+02 0.162E+04   -.160E+03 0.859E+02 -.163E+04   0.160E+01 -.375E+00 0.195E+01   -.107E-01 0.794E-03 0.325E-02
   -.640E+02 -.139E+02 -.748E+03   0.650E+02 0.135E+02 0.753E+03   -.389E+00 0.703E+00 -.403E+01   -.105E-01 0.116E-02 0.302E-02
   -.998E+02 -.242E+02 0.678E+03   0.102E+03 0.245E+02 -.682E+03   -.118E+01 0.745E+00 0.233E+01   0.192E-02 0.797E-02 -.579E-02
   -.605E+02 0.132E+01 -.130E+04   0.621E+02 -.824E+00 0.130E+04   -.738E+00 -.453E+00 -.291E+01   0.269E-02 0.376E-03 0.175E-02
   -.246E+03 0.504E+02 0.165E+04   0.247E+03 -.503E+02 -.165E+04   -.771E+00 0.101E+00 0.248E+01   -.151E-03 -.360E-02 -.316E-02
   -.191E+03 -.116E+03 -.518E+02   0.194E+03 0.117E+03 0.525E+02   -.203E+01 -.216E+00 -.507E+00   0.294E-02 -.468E-02 0.420E-03
   0.292E+03 -.186E+03 0.746E+03   -.295E+03 0.188E+03 -.747E+03   0.124E+01 -.115E+01 0.571E+00   -.560E-02 0.136E-02 -.204E-02
   -.108E+03 0.286E+02 -.136E+04   0.108E+03 -.277E+02 0.136E+04   -.470E+00 -.403E+00 -.217E+01   -.176E-02 0.338E-02 0.119E-02
   0.101E+03 -.247E+03 0.643E+03   -.103E+03 0.250E+03 -.646E+03   0.211E+00 -.114E+01 0.266E+01   0.139E-02 0.952E-03 -.226E-02
   -.161E+03 0.146E+03 -.164E+04   0.164E+03 -.144E+03 0.164E+04   -.185E+01 -.258E+01 -.250E+01   0.921E-03 -.276E-02 0.202E-02
   0.161E+03 -.146E+03 -.512E+03   -.162E+03 0.148E+03 0.513E+03   -.235E+00 -.972E+00 -.103E+01   0.823E-02 -.276E-04 -.352E-02
   0.104E+03 -.762E+02 0.138E+04   -.106E+03 0.763E+02 -.139E+04   0.907E+00 0.275E+00 0.319E+01   0.256E-02 0.201E-02 -.508E-03
   0.193E+03 0.630E+02 0.113E+04   -.194E+03 -.644E+02 -.113E+04   0.558E+00 0.115E+01 0.423E+01   0.334E-02 -.340E-02 0.593E-02
   0.443E+02 -.594E+02 -.911E+03   -.447E+02 0.609E+02 0.915E+03   -.290E+00 -.220E+01 -.187E+01   -.261E-02 -.389E-02 -.358E-02
   0.567E+02 -.141E+03 0.306E+03   -.586E+02 0.142E+03 -.309E+03   0.194E+01 -.484E+00 0.147E+01   -.450E-03 -.535E-03 -.585E-02
   0.581E+02 -.285E+03 -.155E+04   -.592E+02 0.289E+03 0.155E+04   0.583E+00 -.233E+01 -.725E+00   -.275E-02 0.110E-02 0.166E-02
   0.116E+02 0.352E+03 0.868E+03   -.113E+02 -.355E+03 -.870E+03   -.904E+00 0.892E+00 0.283E+01   -.723E-02 -.215E-02 -.173E-02
   0.885E+02 -.144E+03 -.138E+04   -.904E+02 0.144E+03 0.139E+04   0.102E+01 0.165E+00 -.230E+01   -.582E-02 -.185E-02 0.131E-02
   0.270E+02 -.224E+02 0.159E+04   -.269E+02 0.216E+02 -.160E+04   -.387E+00 0.934E+00 0.280E+01   0.853E-03 -.531E-02 0.240E-02
   0.793E+02 0.988E+02 -.382E+03   -.793E+02 -.100E+03 0.386E+03   0.260E+00 -.982E-01 -.222E+01   -.271E-02 -.136E-03 -.685E-02
   0.198E+03 0.189E+03 -.488E+03   -.198E+03 -.191E+03 0.489E+03   -.571E+00 0.370E+00 -.159E+01   0.991E-02 -.163E-02 -.631E-03
   0.254E+03 0.310E+03 0.137E+04   -.257E+03 -.313E+03 -.137E+04   0.147E+01 0.124E+01 0.585E+00   0.443E-02 0.926E-04 -.601E-03
   -.232E+03 0.239E+03 0.372E+03   0.233E+03 -.243E+03 -.373E+03   -.102E+01 0.192E+01 0.131E+01   0.224E-02 -.325E-02 -.136E-02
   0.163E+01 0.279E+03 -.142E+04   -.237E+01 -.282E+03 0.142E+04   -.986E-01 0.230E+01 -.370E+00   -.213E-02 -.111E-02 0.146E-02
   -.840E+01 -.580E+02 0.125E+03   0.670E+01 0.565E+02 -.124E+03   0.162E+01 0.110E+01 -.982E+00   -.724E-02 0.225E-02 -.173E-02
   -.782E+01 0.223E+03 -.159E+04   0.709E+01 -.226E+03 0.159E+04   0.334E+00 0.196E+01 -.944E+00   -.352E-02 -.210E-02 0.409E-02
   0.159E+03 -.427E+02 0.112E+04   -.160E+03 0.429E+02 -.113E+04   0.196E+00 -.220E+00 0.459E+01   0.160E-02 0.262E-02 0.451E-02
   0.501E+02 0.655E+02 -.908E+03   -.507E+02 -.671E+02 0.911E+03   -.180E+00 0.235E+01 -.157E+01   -.223E-02 0.635E-02 -.445E-02
   -.721E+01 -.826E+01 -.239E+02   -.293E-11 0.455E-12 -.227E-12   0.708E+01 0.820E+01 0.241E+02   -.237E-01 -.167E-01 -.137E+00

 POSITION                                       TOTAL-FORCE (eV/Angst)
     12.99927      1.61327      2.22871         0.968214     -0.128803      0.683270
     13.92419      1.56629      4.51002         0.289047     -0.075114      1.283733
      3.62641      5.91440      1.54691         1.113705      0.315562     -0.213884
      5.02033      6.18092      3.49202        -0.315732     -0.974727     -0.164967
      6.52366      1.18511      2.04258         0.734391      0.208666     -0.522766
      7.93172      1.39171      4.00611        -0.837904      0.668911     -0.770956
     16.08224      6.18092      2.46384        -0.489108      0.610841      2.308712
     16.36864      6.18062      5.09047         0.131403      0.010264      0.683035
      2.10894      1.39171      2.97793         0.122672     -0.265989      0.000484
      1.61022      1.40708      5.22514         1.201965     -0.435330      0.749646
      9.76451      6.17352      2.42604         0.663825      0.053678     -0.871570
     10.84312      6.18092      4.52020        -0.958094      0.275964     -1.249886
     15.30817      9.47937      1.83558         0.573293      0.269031     -0.381768
     16.11884      0.17749      4.14987        -0.816239     -0.785735     -0.023924
      6.04607      6.17407      0.94136        -0.508152      0.158251     -1.663947
      7.17375      4.91558      3.08454        -0.115736      0.123843     -2.523505
      8.36138      4.10384      4.90136        -0.282481      0.447795      0.151356
      8.94088      1.40732      1.43384        -0.179930     -0.072665     -1.793769
     10.08514      0.12638      3.59863         1.841877     -0.263521     -1.281156
      1.35096      4.91558      2.05636         0.761916     -0.195432      1.837601
      1.90775      4.79260      4.69806         0.435975      0.680069      1.050237
      4.26235      0.12638      2.57045         0.180932     -0.707318      0.777128
      4.95093      9.24864      4.86666        -0.051270      0.515145      0.761687
     12.99494      4.33989      1.83280         0.012058      0.883960     -0.108630
     12.99653      4.91558      4.11272         0.710146      0.074254     -0.965019
     16.13908      2.62108      3.75953        -0.939994      0.866762     -0.527222
      6.98313      8.49947      0.96806         0.202474      0.175102     -0.970371
      7.17375      7.44626      3.08454         1.046456     -0.623154      0.219606
     10.83715      3.32855      1.26440        -1.382823      0.644821     -0.457052
     10.08514      2.65705      3.59863         0.400181      0.512291     -1.175227
      1.35096      7.44626      2.05636         0.445988      0.465305      1.728911
      1.90583      7.56513      4.70870         0.106991     -0.590816      1.165838
      4.26235      2.65705      2.57045         0.564514      0.543247      0.468983
      4.99281      3.20648      4.77730        -0.599175     -0.355331      0.645725
     13.03130      8.23776      1.92063        -0.593664     -1.136235      0.044537
     12.99653      7.44626      4.11272         0.736458     -0.139615     -1.249731
     16.50288      1.63878      5.53147        -0.701698      0.626714      3.316454
      0.01497      1.16952      2.47562         0.492828      0.748963     -1.513618
      8.00634      6.18092      1.40713         1.249896      0.463745     -2.656923
      8.66685      6.08871      4.21077         0.243528      1.105280      2.147923
     10.91773      1.39171      1.92122        -0.407207     -2.151387     -1.250293
     11.80532      1.45363      4.28743        -0.038021     -0.030924      1.820052
      1.90443      6.19159      0.51818        -0.137568     -0.002211     -3.824742
      2.76722      6.18092      3.46349         1.645075      0.195763      0.631770
      4.76834      1.39125      1.01451         0.305855      0.135668     -3.424852
      5.67861      1.39171      3.97758         0.665553      0.334259      1.640291
     13.82913      6.18092      2.43531         0.778679      1.100333     -1.608931
     14.31478      6.18443      5.15552         0.818351      0.046262      2.617069
     12.69504      2.86269      0.51297         0.873475      0.144316     -3.467316
     14.09400      3.21612      3.27766         1.042752      0.407836      0.263494
      5.26426      7.79215      1.92599        -1.617396      1.064053     -0.501738
      5.96172      7.51418      4.77557         0.050705      0.462215      2.669933
      8.17565      3.00295      2.44008        -1.210305      1.297223      0.059766
      9.15676      2.34266      5.41940         0.547679     -0.658040      3.587135
      0.02514      7.79215      3.98236        -0.701475      1.083791      0.302527
     16.35920      7.80703      1.20689        -0.349490      0.287742     -2.875621
      2.38077      3.10322      1.77118        -0.699931     -0.250815     -2.555766
      2.93654      3.00295      4.49645        -0.677967     -0.693316      1.502920
     11.08705      7.79215      2.95417         0.047706      1.327513     -1.177378
     11.71381      7.61007      5.66008        -0.553558      1.472014      3.816694
      5.26426      4.56969      1.92599        -0.638006     -1.966388      0.113136
      6.31533      4.71983      4.95610        -0.874725     -0.203917      2.433137
     13.59914      0.21302      0.75602        -0.240937      0.172929     -3.773817
     13.99844      9.35889      3.46826         0.191089     -1.279959      1.805497
      0.02514      4.56969      3.98236        -0.744074     -1.145668     -0.195911
     16.43154      4.69554      1.15474        -1.533478     -2.034944     -2.915715
      8.17565      9.35889      2.44008        -0.369490     -1.379776     -0.200989
      8.73019      9.37020      5.05213        -0.842423     -1.423491      3.267984
     11.08705      4.56969      2.95417        -0.086254     -0.421659     -0.284858
     11.74196      4.79891      5.69972        -0.401744     -1.369528      3.808881
      2.38659      9.25776      1.76986        -0.614020     -0.041914     -2.685717
      2.93654      9.35889      4.49645        -0.687581      0.823341      1.464381
    total drift:                               -0.153167     -0.071780      0.027282

  FREE ENERGIE OF THE ION-ELECTRON SYSTEM (eV)
  free  energy   TOTEN  =      -339.90639761 eV

  energy  without entropy=     -338.82568464  energy(sigma->0) =     -339.36604112