 vasp.5.4.4.18Apr17-6-g9f103f2a35 (build Aug 13 2019 17:33:20) gamma-only

 executed on             LinuxIFC date 2020.05.12  14:23:26

 INCAR:
 POTCAR:    PAW_PBE Ni_pv 06Sep2000
 POTCAR:    PAW_PBE S 06Sep2000
 POTCAR:    PAW_PBE Ni_pv 06Sep2000
   VRHFIN =Ni:

   TITEL  = PAW_PBE Ni_pv 06Sep2000
   POMASS =   58.690; ZVAL   =   16.000    mass and valenz
   ENMAX  =  367.986; ENMIN  =  275.989 eV

 POTCAR:    PAW_PBE S 06Sep2000
   VRHFIN =S : s2p4

   TITEL  = PAW_PBE S 06Sep2000
   POMASS =   32.066; ZVAL   =    6.000    mass and valenz
   ENMAX  =  258.689; ENMIN  =  194.016 eV

 Optimization of the real space projectors (new method)

 maximal supplied QI-value         = 18.90
 optimisation between [QCUT,QGAM] = [ 10.77, 21.73] = [ 32.49,132.25] Ry
 Optimized for a Real-space Cutoff    1.38 Angstroem

   l    n(q)    QCUT    max X(q) W(low)/X(q) W(high)/X(q)  e(spline)
   1      8    10.771     2.836    0.40E-04    0.29E-04    0.12E-06
   1      8    10.771     4.023    0.10E-03    0.48E-04    0.29E-06
   2      8    10.771    73.368    0.42E-03    0.97E-04    0.44E-06
   2      8    10.771    69.010    0.42E-03    0.99E-04    0.45E-06
   0      9    10.771    54.797    0.10E-03    0.56E-04    0.74E-07
   0      9    10.771    24.266    0.89E-04    0.49E-04    0.67E-07
 Optimization of the real space projectors (new method)

 maximal supplied QI-value         = 19.84
 optimisation between [QCUT,QGAM] = [ 10.71, 21.63] = [ 32.15,130.99] Ry
 Optimized for a Real-space Cutoff    1.19 Angstroem

   l    n(q)    QCUT    max X(q) W(low)/X(q) W(high)/X(q)  e(spline)
   0      8    10.715   187.594    0.41E-03    0.53E-04    0.66E-07
   0      8    10.715   164.243    0.41E-03    0.53E-04    0.65E-07
   1      7    10.715    67.533    0.19E-03    0.59E-03    0.68E-07
   1      7    10.715    50.729    0.19E-03    0.58E-03    0.67E-07
  PAW_PBE Ni_pv 06Sep2000               :
  PAW_PBE S 06Sep2000                   :

 POSCAR: Type_036 Type_136
  positions in cartesian coordinates
 exchange correlation table for  LEXCH =        8
   RHO(1)=    0.500       N(1)  =     2000
   RHO(2)=  100.500       N(2)  =     4000

 ion  position               nearest neighbor table
   1  0.374  0.751  0.095-  61 2.03  41 2.25  50 2.28  62 2.36  51 2.36  14 2.41
   2  0.525  0.601  0.223-  42 2.25  51 2.26  62 2.26  63 2.36  52 2.36  15 2.39  27 2.53
   3  0.675  0.451  0.351-  43 2.25  63 2.26  52 2.26  64 2.36  53 2.36   4 2.45  28 2.53  16 2.53

   4  0.735  0.354  0.461-  65 2.04  64 2.07  44 2.09  53 2.10   3 2.45
   5  0.550  0.080  0.070-  68 2.02  47 2.11  46 2.16  50 2.18  21 2.30
   6  0.776  0.012  0.145-  45 2.08  69 2.11  54 2.24  68 2.27  47 2.40  20 2.43
   7  0.058  0.734  0.394-  56 2.07  67 2.19  49 2.25  66 2.26  55 2.26  24 2.41  18 2.53  31 2.53

[...]

  31  0.283  0.774  0.360-  56 2.05  72 2.25  55 2.26  42 2.26  43 2.36   7 2.53  18 2.53
  32  0.403  0.617  0.477-  43 2.02  56 2.03  44 2.04  19 2.43
  33  0.259  0.516  0.047-  57 2.03  61 2.05  60 2.17  46 2.25
  34  0.366  0.358  0.147-  46 2.05  62 2.25  57 2.26  47 2.36  58 2.36  21 2.53   9 2.53
  35  0.516  0.207  0.275-  63 2.25  58 2.26  47 2.26  48 2.36  59 2.36  10 2.53  22 2.53
  36  0.660  0.070  0.389-  48 2.05  59 2.14  49 2.15  64 2.15
  37  0.064  0.262  0.341-  25 2.06  10 2.25  13 2.26  16 2.36  28 2.36  38 2.64
  38  0.193  0.141  0.449-  11 2.05  13 2.10  25 2.15  65 2.59  37 2.64
  39  0.763  0.563  0.085-  14 2.05  12 2.14  26 2.17  27 2.26  15 2.38
  40  0.914  0.412  0.213-  15 2.16   9 2.25  16 2.26  28 2.26  27 2.36
  41  0.147  0.846  0.128-  29 2.21   1 2.25  17 2.26  30 2.26  20 2.36  45 2.78
  42  0.297  0.696  0.256-   2 2.25  31 2.26  18 2.26  30 2.36  17 2.36
  43  0.447  0.545  0.384-  32 2.02  19 2.07   3 2.25  31 2.36  18 2.36  44 2.64
  44  0.527  0.411  0.496-  32 2.04   4 2.09  19 2.10  43 2.64
  45  0.910  0.062  0.080-  20 2.06   6 2.08  29 2.09  68 2.75  54 2.76  41 2.78
  46  0.380  0.281  0.053-  34 2.05  21 2.14   5 2.16  33 2.25
  47  0.530  0.129  0.171-   5 2.11  22 2.26  35 2.26  34 2.36  21 2.36   6 2.40
  48  0.680  0.979  0.299-  23 2.04  36 2.05   8 2.25  35 2.36  22 2.36  49 2.77
  49  0.833  0.878  0.412-  24 2.01  36 2.15   7 2.25  23 2.65  48 2.77
  50  0.427  0.942  0.061-  21 2.12  26 2.12   5 2.18   1 2.28  51 2.69
  51  0.528  0.798  0.171-  26 2.05  22 2.25  27 2.26   2 2.26   1 2.36  50 2.69
  52  0.678  0.648  0.299-  23 2.18  28 2.26   3 2.26  27 2.36   2 2.36  24 2.51
  53  0.829  0.497  0.427-  25 2.10   4 2.10  24 2.12  28 2.36   3 2.36  65 2.78
  54  0.911  0.081  0.214-  29 2.20   6 2.24  16 2.25   8 2.26  30 2.26  45 2.76
  55  0.062  0.931  0.342-  13 2.25  31 2.26   7 2.26  30 2.36   8 2.36
  56  0.212  0.763  0.453-  32 2.03  31 2.05   7 2.07
  57  0.145  0.515  0.129-  12 2.02  33 2.03  17 2.25  34 2.26   9 2.26  60 2.45
  58  0.295  0.364  0.257-  18 2.25  10 2.26  35 2.26   9 2.36  34 2.36
  59  0.445  0.214  0.385-  11 2.02  19 2.09  36 2.14  35 2.36  10 2.36
  60  0.039  0.643  0.029-  12 2.12  20 2.14  33 2.17  57 2.45
  61  0.370  0.638  0.014-   1 2.03  33 2.05  14 2.06  62 2.71
  62  0.477  0.512  0.128-  14 2.03  34 2.25   2 2.26   1 2.36  15 2.40  61 2.71
  63  0.628  0.362  0.256-  15 2.17  35 2.25   3 2.26  16 2.26   2 2.36
  64  0.778  0.212  0.384-   4 2.07  36 2.15  13 2.26  16 2.36   3 2.36
  65  0.935  0.240  0.493-   4 2.04  13 2.06  25 2.10  38 2.59  53 2.78
  66  0.011  0.645  0.299-  28 2.25   7 2.26  18 2.26   8 2.36  17 2.36  24 2.37
  67  0.144  0.506  0.412-  19 2.11  18 2.15   7 2.19  25 2.28
  68  0.731  0.917  0.051-   5 2.02  20 2.03  26 2.09   6 2.27  45 2.75
  69  0.861  0.795  0.171-   6 2.11  27 2.25  17 2.26   8 2.26  20 2.36
  70  0.103  0.250  0.091-   9 2.05  29 2.13  21 2.19  12 2.20
  71  0.244  0.079  0.214-  30 2.25  22 2.26  10 2.26  29 2.31   9 2.36  21 2.36
  72  0.395  0.928  0.342-  11 2.02  23 2.06  31 2.25  10 2.36  22 2.36

  LATTYP: Found a base centered orthorhombic cell.
 ALAT       =    11.4527836704
 B/A-ratio  =     1.4485816945
 C/A-ratio  =     1.7908432109

  Lattice vectors:

 A1 = (  10.0797329849,   0.0000000000,   0.0000000000)
 A2 = (  -3.5732980427,  -9.4251025535,   0.0000000000)
 A3 = (   0.0000000000,   0.0000000000, -20.5101398818)

Analysis of symmetry for initial positions (statically):
 Subroutine PRICEL returns:
 Original cell was already a primitive cell.

 Routine SETGRP: Setting up the symmetry group for a
 base centered orthorhombic supercell.

 Subroutine GETGRP returns: Found  1 space group operations
 (whereof  1 operations were pure point group operations)
 out of a pool of  8 trial point group operations.

The static configuration has the point symmetry C_1 .

Analysis of symmetry for dynamics (positions and initial velocities):
 Subroutine PRICEL returns:
 Original cell was already a primitive cell.

 Routine SETGRP: Setting up the symmetry group for a
 base centered orthorhombic supercell.

 Subroutine GETGRP returns: Found  1 space group operations
 (whereof  1 operations were pure point group operations)
 out of a pool of  8 trial point group operations.

The dynamic configuration has the point symmetry C_1 .

 Subroutine INISYM returns: Found  1 space group operations
 (whereof  1 operations are pure point group operations),
 and found     1 'primitive' translations

 KPOINTS: gamma-point-only calculation. no periodi

Automatic generation of k-mesh.
Space group operators:
 irot       det(A)        alpha          n_x          n_y          n_z        tau_x        tau_y        tau_z
    1     1.000000     0.000000     1.000000     0.000000     0.000000     0.000000     0.000000     0.000000

 Subroutine IBZKPT returns following result:

 Found      1 irreducible k-points:

 Following reciprocal coordinates:
            Coordinates               Weight
  0.000000  0.000000  0.000000      1.000000

 Following cartesian coordinates:
            Coordinates               Weight
  0.000000  0.000000  0.000000      1.000000

 SYSTEM =  "Millerite NiS"
 POSCAR =  Type_036 Type_136

 Startparameter for this run:
   NWRITE =      2    write-flag & timer
   PREC   = normal    normal or accurate (medium, high low for compatibility)
   ISTART =      0    job   : 0-new  1-cont  2-samecut
   ICHARG =      2    charge: 1-file 2-atom 10-const
   ISPIN  =      1    spin polarized calculation?
   LNONCOLLINEAR =      F non collinear calculations
   LSORBIT =      F    spin-orbit coupling
   INIWAV =      1    electr: 0-lowe 1-rand  2-diag
   LASPH  =      F    aspherical Exc in radial PAW
   METAGGA=      F    non-selfconsistent MetaGGA calc.

 Electronic Relaxation 1
   ENCUT  =  450.0 eV  33.07 Ry    5.75 a.u.  17.43 17.43 35.48*2*pi/ulx,y,z
   ENINI  =  450.0     initial cutoff
   ENAUG  =  703.4 eV  augmentation charge cutoff
   NELM   =    100;   NELMIN=  2; NELMDL= -5     # of ELM steps
   EDIFF  = 0.1E-03   stopping-criterion for ELM
   LREAL  =      T    real-space projection
   NLSPLINE    = F    spline interpolate recip. space projectors
   LCOMPAT=      F    compatible to vasp.4.4
   GGA_COMPAT  = T    GGA compatible to vasp.4.4-vasp.4.6
   LMAXPAW     = -100 max onsite density
   LMAXMIX     =    2 max onsite mixed and CHGCAR
   VOSKOWN=      0    Vosko Wilk Nusair interpolation
   ROPT   =   -0.00050  -0.00050
 Ionic relaxation
   EDIFFG = 0.1E-02   stopping-criterion for IOM
   NSW    =      0    number of steps for IOM
   NBLOCK =      1;   KBLOCK =      1    inner block; outer block
   IBRION =     -1    ionic relax: 0-MD 1-quasi-New 2-CG
   NFREE  =      0    steps in history (QN), initial steepest desc. (CG)
   ISIF   =      2    stress and relaxation
   IWAVPR =     10    prediction:  0-non 1-charg 2-wave 3-comb
   ISYM   =      2    0-nonsym 1-usesym 2-fastsym
   LCORR  =      T    Harris-Foulkes like correction to forces

   POTIM  = 0.5000    time-step for ionic-motion
   TEIN   =    0.0    initial temperature
   TEBEG  =    0.0;   TEEND  =   0.0 temperature during run
   SMASS  =  -3.00    Nose mass-parameter (am)
   estimated Nose-frequenzy (Omega)   =  0.10E-29 period in steps =****** mass=  -0.232E-26a.u.
   SCALEE = 1.0000    scale energy and forces
   NPACO  =    256;   APACO  = 16.0  distance and # of slots for P.C.
   PSTRESS=    0.0 pullay stress

  Mass of Ions in am
   POMASS =  58.69 32.07
  Ionic Valenz
   ZVAL   =  16.00  6.00
  Atomic Wigner-Seitz radii
  virtual crystal weights
   VCA    =   1.00  1.00
   NELECT =     792.0000    total number of electrons
   NUPDOWN=      -1.0000    fix difference up-down

 DOS related values:
   EMIN   =  10.00;   EMAX   =-10.00  energy-range for DOS
   EFERMI =   0.00
   ISMEAR =     0;   SIGMA  =   0.20  broadening in eV -4-tet -1-fermi 0-gaus

 Electronic relaxation 2 (details)
   IALGO  =     38    algorithm
   LDIAG  =      T    sub-space diagonalisation (order eigenvalues)
   LSUBROT=      F    optimize rotation matrix (better conditioning)
   TURBO    =      0    0=normal 1=particle mesh
   IRESTART =      0    0=no restart 2=restart with 2 vectors
   NREBOOT  =      0    no. of reboots
   NMIN     =      0    reboot dimension
   EREF     =   0.00    reference energy to select bands
[...]
  Fock        0.00000     0.00000     0.00000     0.00000     0.00000     0.00000
  Total      86.57256    77.02284    95.13590    -0.13796     5.74828    -1.53645
  in kB      71.18477    63.33246    78.22603    -0.11344     4.72656    -1.26335

 VOLUME and BASIS-vectors are now :
  energy-cutoff  :      450.00
  volume of cell :     1948.51
      direct lattice vectors                 reciprocal lattice vectors
    10.079732985  0.000000000  0.000000000     0.099208977 -0.037612667  0.000000000
     3.573298043  9.425102554  0.000000000     0.000000000  0.106099641  0.000000000
     0.000000000  0.000000000 20.510139882     0.000000000  0.000000000  0.048756372

  length of vectors
    10.079732985 10.079732985 20.510139882     0.106099641  0.106099641  0.048756372

 FORCES acting on ions
    electron-ion (+dipol)            ewald-force                    non-local-force                 convergence-correction
   0.480E+03 -.454E+03 0.378E+04   -.483E+03 0.457E+03 -.378E+04   0.330E+01 -.225E+01 0.240E+01   -.348E+00 0.272E+00 0.453E-01
   0.522E+03 -.121E+03 0.398E+03   -.523E+03 0.122E+03 -.398E+03   0.130E+01 -.743E+00 0.857E+00   -.938E-01 -.459E-01 0.983E-01
   0.493E+03 -.225E+03 -.253E+04   -.495E+03 0.226E+03 0.253E+04   0.111E+01 -.768E+00 0.435E+00   0.449E-01 -.105E+00 -.141E+00
   0.222E+03 0.628E+02 -.520E+04   -.228E+03 -.627E+02 0.521E+04   0.484E+01 0.635E+00 -.414E+01   0.349E-01 -.626E-01 -.836E-02
   -.493E+03 -.339E+03 0.492E+04   0.496E+03 0.342E+03 -.492E+04   -.176E+01 -.241E+01 0.399E+01   -.613E-02 0.307E-01 0.855E-01
   0.178E+02 -.638E+03 0.259E+04   -.196E+02 0.643E+03 -.258E+04   0.192E+00 -.316E+01 -.185E+01   0.299E+00 -.983E-01 0.166E+00
   0.187E+03 -.386E+03 -.415E+04   -.188E+03 0.386E+03 0.415E+04   0.557E+00 -.225E+00 -.344E+01   0.772E-01 0.144E+00 -.979E-01
   0.288E+03 -.255E+03 -.612E+03   -.289E+03 0.255E+03 0.612E+03   0.960E+00 -.312E+00 0.134E+00   0.217E+00 0.241E-01 -.176E+00
   0.387E+03 -.165E+03 0.148E+04   -.387E+03 0.166E+03 -.148E+04   0.122E+00 -.668E+00 -.150E+01   -.629E-01 -.583E-01 -.162E+00
   0.435E+03 -.131E+03 -.160E+04   -.436E+03 0.132E+03 0.160E+04   0.651E+00 -.140E+01 0.706E+00   -.745E-01 0.208E-01 -.153E+00
   0.451E+02 0.333E+03 -.492E+04   -.455E+02 -.333E+03 0.492E+04   0.943E+00 -.566E+00 0.131E+01   0.401E-01 -.838E-01 0.187E+00
   0.481E+03 0.267E+03 0.462E+04   -.487E+03 -.266E+03 -.463E+04   0.479E+01 -.204E+01 0.254E+01   0.156E+00 -.834E-01 0.570E-02
   0.135E+03 0.776E+03 -.399E+04   -.137E+03 -.783E+03 0.398E+04   0.116E+01 0.513E+01 0.107E+00   -.100E+00 -.148E+00 -.690E-01
   -.265E+03 0.777E+03 0.523E+04   0.265E+03 -.777E+03 -.524E+04   0.753E+00 -.937E+00 0.872E+00   -.712E-01 0.176E-02 -.118E+00
   0.551E+02 0.937E+03 0.267E+04   -.555E+02 -.933E+03 -.267E+04   -.506E+00 -.371E+01 -.337E+01   0.146E+00 -.293E+00 0.139E+00
   0.316E+02 0.580E+03 -.512E+03   -.316E+02 -.581E+03 0.511E+03   0.295E-01 0.188E+00 0.768E+00   -.147E-01 -.161E+00 -.120E+00
   -.735E+02 0.410E+03 0.152E+04   0.736E+02 -.410E+03 -.152E+04   0.160E+00 -.696E+00 0.182E+01   -.782E-01 0.270E+00 0.547E-01
   -.856E+02 0.356E+03 -.148E+04   0.861E+02 -.358E+03 0.148E+04   -.231E+00 0.212E+01 0.212E+01   -.119E+00 0.197E+00 -.908E-01
   0.260E+03 0.494E+03 -.452E+04   -.263E+03 -.497E+03 0.452E+04   0.257E+01 0.275E+01 -.301E+00   -.379E-01 0.428E-01 0.380E-02
   -.315E+03 -.138E+02 0.488E+04   0.320E+03 0.757E+01 -.489E+04   -.250E+01 0.452E+01 0.427E+01   0.917E-01 0.977E-01 0.158E+00
   0.425E+03 0.284E+03 0.380E+04   -.428E+03 -.286E+03 -.380E+04   0.229E+01 0.172E+01 0.139E+01   -.272E+00 0.112E+00 0.464E-01
   0.489E+02 0.413E+03 0.433E+03   -.484E+02 -.413E+03 -.435E+03   -.409E+00 0.152E+00 0.154E+01   0.836E-01 0.198E-01 -.149E+00
   0.251E+03 0.281E+03 -.300E+04   -.252E+03 -.283E+03 0.301E+04   0.989E+00 0.164E+01 -.101E+01   0.872E-01 0.590E-01 -.303E-01
   0.176E+03 -.295E+03 -.398E+04   -.178E+03 0.298E+03 0.399E+04   0.241E+01 -.226E+01 -.357E+01   0.199E+00 0.967E-01 -.806E-01
   -.493E+03 -.224E+03 -.474E+04   0.497E+03 0.230E+03 0.475E+04   -.248E+01 -.410E+01 -.252E+01   -.206E-01 0.813E-02 0.377E-01
   -.262E+03 -.709E+02 0.446E+04   0.266E+03 0.702E+02 -.447E+04   -.349E+01 0.213E+00 0.409E+01   0.171E+00 0.191E+00 -.131E-01
   -.451E+03 -.178E+03 0.146E+04   0.451E+03 0.179E+03 -.146E+04   -.451E+00 -.290E+00 -.749E+00   0.301E+00 0.239E-01 0.882E-01
   -.373E+03 0.631E+02 -.137E+04   0.373E+03 -.650E+02 0.137E+04   -.270E-01 0.834E+00 0.246E+01   0.236E-01 -.825E-01 -.163E+00
   0.172E+03 -.286E+03 0.338E+04   -.174E+03 0.288E+03 -.338E+04   0.184E+01 -.168E+01 0.401E+01   -.766E-01 -.910E-01 0.866E-01
   -.394E+03 -.116E+03 0.270E+03   0.395E+03 0.115E+03 -.267E+03   -.415E+00 0.434E+00 -.167E+01   -.330E+00 0.127E-01 -.140E+00
   -.522E+03 -.418E+03 -.277E+04   0.524E+03 0.420E+03 0.276E+04   -.148E+01 -.203E+01 0.468E+00   -.272E+00 0.511E-01 -.578E-01
   -.370E+03 -.624E+03 -.534E+04   0.367E+03 0.623E+03 0.534E+04   0.332E+01 0.127E+01 -.195E+00   -.962E-01 0.102E+00 0.931E-01
   -.200E+02 0.165E+02 0.509E+04   0.236E+02 -.138E+02 -.509E+04   -.366E+01 -.345E+01 0.564E+01   -.180E+00 -.477E-02 -.999E-02
   -.558E+03 -.206E+03 0.243E+04   0.559E+03 0.206E+03 -.242E+04   -.742E+00 0.266E+00 -.112E+01   -.190E+00 -.626E-01 -.703E-03
   -.479E+03 -.317E+03 -.511E+03   0.479E+03 0.319E+03 0.510E+03   -.248E-01 -.121E+01 0.470E+00   0.223E+00 -.418E-02 -.148E+00
   -.291E+03 -.198E+01 -.403E+04   0.291E+03 0.396E+01 0.404E+04   -.203E+00 -.172E+01 -.165E+01   0.159E+00 -.711E-01 -.428E-01
   -.112E+03 0.107E+03 -.671E+03   0.113E+03 -.107E+03 0.668E+03   -.183E+01 -.160E+00 0.118E+01   -.106E+00 0.871E-02 -.433E-01
   -.117E+03 0.165E+03 -.196E+04   0.119E+03 -.166E+03 0.197E+04   -.938E+00 0.342E+00 -.175E+01   -.317E-01 -.308E-01 0.598E-01
   -.154E+03 0.236E+03 0.174E+04   0.154E+03 -.237E+03 -.175E+04   0.203E+00 0.616E-01 0.273E+01   0.168E+00 -.398E-01 0.135E-01
   -.128E+03 0.857E+02 0.498E+03   0.130E+03 -.855E+02 -.499E+03   -.166E+01 0.286E+00 0.256E+01   0.442E-01 -.626E-01 -.433E-03
   -.817E+02 0.796E+01 0.138E+04   0.839E+02 -.106E+02 -.138E+04   -.128E+01 0.148E+01 0.136E+01   -.781E-01 0.717E-01 0.706E-01
   -.129E+03 0.253E+02 0.621E+02   0.131E+03 -.263E+02 -.636E+02   -.216E+01 0.751E+00 0.149E+01   -.138E+00 0.728E-01 -.216E-01
   -.200E+03 -.523E+02 -.104E+04   0.202E+03 0.532E+02 0.104E+04   -.128E+01 -.196E+00 0.166E+01   -.828E-02 -.420E-04 -.547E-01
   -.916E+01 0.194E+03 -.212E+04   0.970E+01 -.196E+03 0.212E+04   -.128E+00 0.277E+00 -.128E+01   -.186E-01 -.318E-01 0.818E-01
   -.683E+02 -.394E+03 0.191E+04   0.677E+02 0.399E+03 -.191E+04   0.883E+00 -.234E+01 0.387E+01   0.353E-01 -.530E-01 0.761E-01
   -.953E+02 -.965E+01 0.213E+04   0.950E+02 0.975E+01 -.213E+04   0.654E+00 0.341E+00 0.226E+01   -.920E-01 0.300E-01 0.558E-02
   -.233E+03 -.649E+02 0.734E+03   0.235E+03 0.652E+02 -.733E+03   -.300E+00 -.251E+00 0.103E-01   0.341E-01 0.106E-01 0.330E-01
   -.164E+03 -.123E+02 -.299E+03   0.165E+03 0.118E+02 0.296E+03   -.105E+01 0.124E+01 -.129E+00   0.130E+00 -.365E-02 -.544E-01
   -.568E+02 -.166E+03 -.183E+04   0.579E+02 0.166E+03 0.184E+04   -.187E+01 -.603E+00 -.139E+01   0.774E-01 0.333E-01 -.939E-02
   0.243E+03 -.432E+02 0.196E+04   -.246E+03 0.442E+02 -.197E+04   0.228E+01 -.119E+01 0.422E+01   -.106E+00 0.678E-01 -.139E-01
   0.108E+03 -.151E+03 0.611E+03   -.109E+03 0.152E+03 -.609E+03   -.136E+00 -.146E+01 0.193E+00   -.147E-01 0.762E-01 0.226E-01
   0.121E+03 -.148E+03 -.474E+03   -.123E+03 0.150E+03 0.473E+03   0.182E+01 -.189E+01 0.856E+00   0.357E-01 -.239E-01 0.158E-02
   0.271E+02 -.269E+03 -.188E+04   -.273E+02 0.273E+03 0.188E+04   -.174E+00 -.248E+01 -.392E+01   0.137E-01 -.774E-02 -.319E-02
   0.994E+02 -.222E+03 0.360E+03   -.101E+03 0.225E+03 -.359E+03   0.621E+00 -.266E+01 0.418E+00   0.193E-01 -.105E+00 -.260E-01
   -.364E+01 -.184E+03 -.945E+03   0.373E+01 0.187E+03 0.945E+03   0.201E+00 -.275E+01 -.772E+00   -.748E-01 -.404E-01 -.905E-01
   0.660E+02 -.300E+03 -.209E+04   -.657E+02 0.303E+03 0.209E+04   -.387E+00 -.828E+00 -.140E+01   -.918E-01 0.479E-01 -.210E-02
   0.247E+02 -.134E+03 0.102E+04   -.240E+02 0.135E+03 -.102E+04   -.177E-01 -.376E+00 0.917E-01   -.139E-01 0.119E-01 0.161E-01
   -.349E+01 -.160E+03 -.726E+02   0.375E+01 0.163E+03 0.743E+02   -.295E+00 -.219E+01 -.183E+01   -.211E-02 0.653E-01 -.892E-01
   -.512E+02 -.943E+02 -.136E+04   0.514E+02 0.966E+02 0.136E+04   0.895E-01 -.132E+01 -.137E+01   0.666E-01 -.633E-02 0.190E-01
   0.662E+02 -.867E+02 0.208E+04   -.681E+02 0.888E+02 -.208E+04   0.158E+01 -.167E+01 0.411E+01   0.172E-01 0.190E-01 -.435E-02
   0.832E+02 -.102E+03 0.221E+04   -.829E+02 0.104E+03 -.222E+04   -.240E+00 -.158E+01 0.126E+01   -.149E+00 0.564E-01 -.748E-01
   0.908E+02 0.197E+03 0.110E+04   -.921E+02 -.199E+03 -.110E+04   0.143E+01 0.798E+00 -.427E+00   -.129E+00 -.473E-01 0.649E-01
   0.177E+03 0.119E+03 0.208E+02   -.179E+03 -.120E+03 -.207E+02   0.222E+01 0.810E+00 0.431E+00   0.326E-01 -.828E-01 0.187E-01
   0.985E+02 0.227E+03 -.120E+04   -.101E+03 -.229E+03 0.120E+04   0.182E+01 0.107E+01 -.518E+00   0.195E-01 -.546E-01 -.807E-01
   -.656E+01 0.186E+03 -.226E+04   0.653E+01 -.188E+03 0.226E+04   0.183E+00 0.880E+00 -.339E+01   0.234E-01 -.521E-01 0.600E-01
   0.330E+02 0.723E+02 -.302E+03   -.340E+02 -.734E+02 0.300E+03   0.668E+00 0.109E+01 0.149E+01   0.578E-01 0.962E-01 -.684E-01
   0.136E+03 0.604E+02 -.169E+04   -.137E+03 -.619E+02 0.169E+04   0.433E+00 0.436E+00 -.177E+00   -.409E-02 0.776E-01 -.946E-02
   -.885E+02 -.389E+02 0.208E+04   0.873E+02 0.386E+02 -.208E+04   0.734E+00 -.195E+00 0.275E+01   0.142E+00 -.848E-02 0.842E-02
   0.842E+02 0.980E+02 0.767E+03   -.862E+02 -.100E+03 -.768E+03   0.182E+01 0.593E+00 0.205E+01   0.137E+00 0.950E-01 0.450E-01
   0.274E+03 0.613E+02 0.190E+04   -.276E+03 -.620E+02 -.190E+04   0.237E+00 0.236E+00 0.173E+01   0.287E-02 -.559E-01 0.376E-01
   0.836E+02 0.764E+02 0.312E+03   -.835E+02 -.774E+02 -.310E+03   -.702E-01 0.705E+00 -.150E+01   -.128E+00 -.180E-01 -.134E+00
   0.196E+03 0.153E+03 -.875E+03   -.198E+03 -.154E+03 0.874E+03   0.422E+00 0.721E+00 -.625E+00   -.316E-01 -.512E-01 0.154E-02
   -.200E+02 0.265E+02 -.308E+02   0.512E-12 0.219E-11 -.432E-11   0.204E+02 -.268E+02 0.316E+02   -.250E+00 0.387E+00 -.819E+00

 POSITION                                       TOTAL-FORCE (eV/Angst)
      6.45801      7.08167      1.95077         0.130819      1.381673      1.813934
      7.43572      5.66537      4.57627        -0.303202      0.365730      0.297956
      8.41343      4.24907      7.20177        -0.113359      0.129047     -0.355857
      8.67288      3.33654      9.46375        -1.186486      0.666308      0.647092
      5.82787      0.75863      1.43646         0.746654      0.408533     -0.704376
      7.86625      0.11185      2.97574        -1.272725      1.311276      0.405108
      3.21062      6.91868      8.07694        -0.174410     -0.252944     -0.529984
     12.31264      8.33497      5.45144         0.252887      0.152729     -0.221600
      2.55881      2.99577      3.70110         0.448278      0.451201      1.516770
      3.53652      1.57947      6.32660         0.018304      0.007390     -0.136256
      4.20231      0.45017      8.61692         0.533686     -0.436925      0.917902
     11.69108      4.51286      1.58210        -0.842580     -0.626945     -0.957238
      0.51382      1.09100      8.43993        -1.009613     -1.161913     -1.839665
      7.78540      5.29775      1.02561         0.549369     -0.716756     -1.181695
      8.72180      3.98071      3.47357        -0.737469     -0.353147     -1.377388
      9.61584      2.50729      5.81443        -0.002557     -0.184553     -0.019907
      3.43531      6.59319      4.06409         0.241723      0.137736     -0.035180
      4.41302      5.17689      6.68959         0.057522      0.131216     -1.155001
      5.13829      3.87221      8.84799        -0.376811     -0.414500      0.593565
     12.53733      8.00949      1.43859         2.307489     -1.592051      0.416362
      3.76121      1.25399      2.31376        -1.327615      0.553968      0.876916
      8.31222      9.26279      4.93926         0.143096     -0.289732     -0.146698
      9.18831      7.98751      7.24651         0.050250     -1.024631      0.783891
     10.93352      6.43731      7.87801        -0.308460      0.652287     -0.234254
      1.59640      3.27371      8.90114         1.610388      1.435945      0.561702
      9.10585      7.38418      1.69295         0.108244     -0.372447     -0.543502
      9.84053      6.03956      3.88260         0.381264      0.592568      0.312063
     10.81824      4.62327      6.50810        -0.112365     -1.153526     -0.839981
      0.98717      0.74542      2.87522         0.674891      0.298541      0.125380
      4.63771      8.70917      4.75776         0.069749     -0.666454      0.779937
      5.61542      7.29287      7.38327         0.690752      0.013167     -1.492783
      6.26383      5.81361      9.77604         0.088730      0.408467      1.196026
      4.45592      4.85935      0.97225        -0.246489     -0.731482     -0.701909
      4.96362      3.36996      3.00743         0.266421      0.286937      1.736877
      5.94133      1.95367      5.63293         0.334853     -0.000973      0.030209
      6.90563      0.66277      7.98077         0.106022      0.193656      0.860268
      1.57981      2.47018      7.00134        -0.495514     -0.140648     -2.701000
      2.44838      1.32790      9.21184         1.109021     -1.006772      2.235391
      9.70412      5.30277      1.75033         1.015292     -1.208064     -0.023865
     10.68183      3.88647      4.37584         0.367516      0.394051      0.671063
      4.50130      7.97237      2.62550         0.783014     -1.076875     -0.577265
      5.47901      6.55607      5.25100         0.141307     -0.098414     -0.055924
      6.45673      5.13978      7.87651         1.167778      0.731023     -2.767569
      6.77905      3.87565     10.16626         0.395343     -1.248222      2.289649
      9.39176      0.58539      1.63982         0.373480      2.588217     -2.258567
      4.83023      2.64707      1.09266         0.275785      0.466930     -3.307119
      5.80492      1.21687      3.50067         0.884849      0.005720      1.396032
     10.35593      9.22568      6.12617         0.328432      0.784355     -2.965497
     11.53162      8.27474      8.44462        -0.627324      0.328692      2.646956
      7.66924      8.87848      1.25039        -1.422582     -0.090771     -2.050206
      8.17302      7.52069      3.51693        -1.208704     -0.291906      2.494825
      9.15074      6.10439      6.14243        -0.094580      0.101280     -0.176220
     10.12845      4.68809      8.76794        -0.339424      1.777060      0.245202
      9.47664      0.76519      4.39210        -0.574487      0.732333      1.337656
      3.94792      8.77399      7.01760         0.222160      0.081620     -0.902360
      4.86249      7.19349      9.29147        -0.162207      2.222637      3.175182
      3.29611      4.85108      2.64176         0.606183      0.655710      3.159687
      4.27382      3.43479      5.26727        -0.040284      0.141709     -0.225959
      5.25153      2.01849      7.89277         0.309024      0.926889     -0.434180
      2.68828      6.05846      0.59982        -0.248388      0.399075     -1.825352
      6.00601      6.01170      0.28018        -0.054581      0.288259     -3.589127
      6.64193      4.82628      2.63363         0.021723     -0.761145      2.296979
      7.61964      3.40999      5.25914        -0.296737     -0.161477      0.549511
      8.59735      1.99369      7.88464        -0.306117     -0.831885     -0.776547
     10.28469      2.25936     10.10590         0.176829     -0.642776      3.548127
      2.41682      6.07959      6.13430        -0.292674      0.088988     -0.407503
      3.26253      4.76549      8.45789        -0.497843     -0.924163      1.662936
     10.64911      8.64167      1.04857        -0.369686     -0.560850     -2.481946
     11.51884      7.49589      3.50880         0.024108     -1.553073      1.545653
      1.92957      2.35505      1.85662        -1.325158     -0.537837     -2.319071
      2.74272      0.74039      4.38397        -0.093550     -0.350827      0.238616
      7.29374      8.74919      7.00947        -1.549255     -0.828240     -1.046874
    total drift:                                0.124172      0.090122     -0.003821

  FREE ENERGIE OF THE ION-ELECTRON SYSTEM (eV)
  free  energy   TOTEN  =      -352.11732116 eV

  energy  without entropy=     -351.15455282  energy(sigma->0) =     -351.63593699