 vasp.5.4.4.18Apr17-6-g9f103f2a35 (build Aug 13 2019 17:33:20) gamma-only

 executed on             LinuxIFC date 2020.05.12  19:03:00

 INCAR:
 POTCAR:    PAW_PBE Ni_pv 06Sep2000
 POTCAR:    PAW_PBE S 06Sep2000
 POTCAR:    PAW_PBE Ni_pv 06Sep2000
   VRHFIN =Ni:

   TITEL  = PAW_PBE Ni_pv 06Sep2000
   POMASS =   58.690; ZVAL   =   16.000    mass and valenz
   ENMAX  =  367.986; ENMIN  =  275.989 eV

 POTCAR:    PAW_PBE S 06Sep2000
   VRHFIN =S : s2p4

   TITEL  = PAW_PBE S 06Sep2000
   POMASS =   32.066; ZVAL   =    6.000    mass and valenz
   ENMAX  =  258.689; ENMIN  =  194.016 eV

 Optimization of the real space projectors (new method)

 maximal supplied QI-value         = 18.90
 optimisation between [QCUT,QGAM] = [ 10.77, 21.73] = [ 32.49,132.25] Ry
 Optimized for a Real-space Cutoff    1.38 Angstroem

   l    n(q)    QCUT    max X(q) W(low)/X(q) W(high)/X(q)  e(spline)
   1      8    10.771     2.836    0.40E-04    0.29E-04    0.12E-06
   1      8    10.771     4.023    0.10E-03    0.48E-04    0.29E-06
   2      8    10.771    73.368    0.42E-03    0.97E-04    0.44E-06
   2      8    10.771    69.010    0.42E-03    0.99E-04    0.45E-06
   0      9    10.771    54.797    0.10E-03    0.56E-04    0.74E-07
   0      9    10.771    24.266    0.89E-04    0.49E-04    0.67E-07
 Optimization of the real space projectors (new method)

 maximal supplied QI-value         = 19.84
 optimisation between [QCUT,QGAM] = [ 10.71, 21.63] = [ 32.15,130.99] Ry
 Optimized for a Real-space Cutoff    1.19 Angstroem

   l    n(q)    QCUT    max X(q) W(low)/X(q) W(high)/X(q)  e(spline)
   0      8    10.715   187.594    0.41E-03    0.53E-04    0.66E-07
   0      8    10.715   164.243    0.41E-03    0.53E-04    0.65E-07
   1      7    10.715    67.533    0.19E-03    0.59E-03    0.68E-07
   1      7    10.715    50.729    0.19E-03    0.58E-03    0.67E-07
  PAW_PBE Ni_pv 06Sep2000               :
  PAW_PBE S 06Sep2000                   :

 POSCAR: Type_036 Type_136
  positions in cartesian coordinates
 exchange correlation table for  LEXCH =        8
   RHO(1)=    0.500       N(1)  =     2000
   RHO(2)=  100.500       N(2)  =     4000

 ion  position               nearest neighbor table
   1  0.397  0.795  0.127-  49 2.04  61 2.10  42 2.25  50 2.36  62 2.36  26 2.46
   2  0.547  0.645  0.254-  43 2.25  62 2.26  50 2.26  63 2.36  51 2.36  27 2.53  14 2.53
   3  0.698  0.494  0.381-  52 2.18  64 2.22  44 2.25  51 2.26  63 2.26  15 2.53  28 2.53
   4  0.827  0.340  0.481-  64 2.00  52 2.00  25 2.45  16 2.47
   5  0.114  0.412  0.169-  53 2.13  45 2.25  68 2.26   8 2.28  65 2.36  54 2.36  29 2.53  17 2.53

   6  0.264  0.261  0.296-  65 2.26  54 2.26  47 2.29  46 2.32  55 2.36  66 2.36  18 2.53  30 2.53

[...]

  32  0.763  0.802  0.436-  72 2.04  56 2.07  44 2.10  31 2.36
  33  0.015  0.843  0.144-  61 2.11  48 2.26  60 2.26  45 2.36  57 2.36  23 2.53  11 2.53
  34  0.166  0.693  0.271-  46 2.09  62 2.25  57 2.26  45 2.26  58 2.36  12 2.53  24 2.53
  35  0.293  0.547  0.379-  59 2.10  46 2.12  58 2.15  47 2.17  63 2.22
  36  0.768  0.002  0.081-  69 2.02  48 2.02  60 2.06  70 2.08  10 2.41  22 2.48
  37  0.994  0.005  0.484-   9 2.10  25 2.10  16 2.11  40 2.62
  38  0.586  0.406  0.117-  10 1.99  26 2.06  13 2.21  14 2.26  27 2.26
  39  0.736  0.256  0.244-  10 2.10  11 2.25  28 2.26  15 2.26  14 2.36  27 2.36
  40  0.886  0.105  0.371-  16 2.04  25 2.04  12 2.25  15 2.36  28 2.36  37 2.62
  41  0.174  0.151  0.047-  21 2.01  29 2.03  17 2.06  42 2.75
  42  0.303  0.023  0.160-   1 2.25  30 2.26  18 2.26  17 2.36  29 2.36  41 2.75
  43  0.453  0.872  0.286-   2 2.25  19 2.26  31 2.26  18 2.36  30 2.36
  44  0.603  0.722  0.413-  32 2.10  20 2.13   3 2.25  31 2.36  19 2.36
  45  0.019  0.639  0.202-   8 2.13   5 2.25  24 2.26  34 2.26  23 2.36  33 2.36  46 2.74
  46  0.158  0.504  0.310-  34 2.09  35 2.12  24 2.17   6 2.32  47 2.60  45 2.74
  47  0.312  0.329  0.397-   7 2.14  35 2.17   6 2.29  55 2.51  46 2.60  66 2.77
  48  0.869  0.789  0.075-   8 2.00  36 2.02  33 2.26  23 2.26  22 2.33
  49  0.483  0.782  0.037-  26 2.03   1 2.04  22 2.07
  50  0.636  0.692  0.160-  26 2.06  22 2.14  23 2.25  27 2.26   2 2.26   1 2.36
  51  0.787  0.542  0.287-  24 2.25   3 2.26  28 2.26  27 2.36   2 2.36
  52  0.921  0.383  0.402-   4 2.00  28 2.06  25 2.16   3 2.18
  53  0.214  0.453  0.085-  21 2.08   5 2.13  29 2.16  13 2.16   8 2.21
  54  0.353  0.308  0.202-  14 2.25   6 2.26  30 2.26  29 2.36   5 2.36
  55  0.503  0.158  0.329-  15 2.25   7 2.26  31 2.26   6 2.36  30 2.36  47 2.51
  56  0.636  0.014  0.444-  32 2.07  31 2.11  16 2.12   7 2.14
  57  0.070  0.925  0.245-  18 2.25  34 2.26  12 2.26  11 2.36  33 2.36
  58  0.220  0.775  0.372-   9 2.03  35 2.15  19 2.25  34 2.36  12 2.36  59 2.56
  59  0.288  0.624  0.474-  20 2.02   9 2.09  35 2.10  58 2.56
  60  0.920  0.075  0.118-  36 2.06  10 2.17  17 2.25  11 2.26  33 2.26
  61  0.213  0.759  0.097-   1 2.10  33 2.11  13 2.12  62 2.63
  62  0.350  0.641  0.203-  13 2.04  34 2.25  14 2.26   2 2.26   1 2.36  61 2.63
  63  0.501  0.491  0.330-  35 2.22   3 2.26  15 2.26   2 2.36  14 2.36
  64  0.646  0.338  0.442-   4 2.00  15 2.06  16 2.16   3 2.22
  65  0.067  0.258  0.245-  28 2.25   6 2.26  18 2.26   5 2.36  17 2.36
  66  0.218  0.108  0.372-  25 2.12  19 2.26   7 2.26  18 2.36   6 2.36  47 2.77
  67  0.394  0.942  0.482-  19 2.01  20 2.10   7 2.16
  68  0.917  0.408  0.118-  21 2.06  27 2.25  17 2.26   5 2.26   8 2.29
  69  0.607  0.004  0.023-  22 2.02  36 2.02
  70  0.634  0.025  0.160-  36 2.08  30 2.25  11 2.26  23 2.26  10 2.30  22 2.37
  71  0.784  0.874  0.287-  31 2.25  24 2.26  12 2.26  23 2.36  11 2.36
  72  0.965  0.720  0.401-  32 2.04  12 2.10   9 2.11  24 2.13

  LATTYP: Found a base centered orthorhombic cell.
 ALAT       =    11.4527836704
 B/A-ratio  =     1.4485816945
 C/A-ratio  =     1.8059804630

  Lattice vectors:

 A1 = (  10.0797329849,   0.0000000000,   0.0000000000)
 A2 = (  -3.5732980427,  -9.4251025535,   0.0000000000)
 A3 = (   0.0000000000,   0.0000000000, -20.6835035552)

Analysis of symmetry for initial positions (statically):
 Subroutine PRICEL returns:
 Original cell was already a primitive cell.

 Routine SETGRP: Setting up the symmetry group for a
 base centered orthorhombic supercell.

 Subroutine GETGRP returns: Found  1 space group operations
 (whereof  1 operations were pure point group operations)
 out of a pool of  8 trial point group operations.

The static configuration has the point symmetry C_1 .

Analysis of symmetry for dynamics (positions and initial velocities):
 Subroutine PRICEL returns:
 Original cell was already a primitive cell.

 Routine SETGRP: Setting up the symmetry group for a
 base centered orthorhombic supercell.

 Subroutine GETGRP returns: Found  1 space group operations
 (whereof  1 operations were pure point group operations)
 out of a pool of  8 trial point group operations.

The dynamic configuration has the point symmetry C_1 .

 Subroutine INISYM returns: Found  1 space group operations
 (whereof  1 operations are pure point group operations),
 and found     1 'primitive' translations

 KPOINTS: gamma-point-only calculation. no periodi

Automatic generation of k-mesh.
Space group operators:
 irot       det(A)        alpha          n_x          n_y          n_z        tau_x        tau_y        tau_z
    1     1.000000     0.000000     1.000000     0.000000     0.000000     0.000000     0.000000     0.000000

 Subroutine IBZKPT returns following result:

 Found      1 irreducible k-points:

 Following reciprocal coordinates:
            Coordinates               Weight
  0.000000  0.000000  0.000000      1.000000

 Following cartesian coordinates:
            Coordinates               Weight
  0.000000  0.000000  0.000000      1.000000

 SYSTEM =  "Millerite NiS"
 POSCAR =  Type_036 Type_136

 Startparameter for this run:
   NWRITE =      2    write-flag & timer
   PREC   = normal    normal or accurate (medium, high low for compatibility)
   ISTART =      0    job   : 0-new  1-cont  2-samecut
   ICHARG =      2    charge: 1-file 2-atom 10-const
   ISPIN  =      1    spin polarized calculation?
   LNONCOLLINEAR =      F non collinear calculations
   LSORBIT =      F    spin-orbit coupling
   INIWAV =      1    electr: 0-lowe 1-rand  2-diag
   LASPH  =      F    aspherical Exc in radial PAW
   METAGGA=      F    non-selfconsistent MetaGGA calc.

 Electronic Relaxation 1
   ENCUT  =  450.0 eV  33.07 Ry    5.75 a.u.  17.43 17.43 35.78*2*pi/ulx,y,z
   ENINI  =  450.0     initial cutoff
   ENAUG  =  703.4 eV  augmentation charge cutoff
   NELM   =    100;   NELMIN=  2; NELMDL= -5     # of ELM steps
   EDIFF  = 0.1E-03   stopping-criterion for ELM
   LREAL  =      T    real-space projection
   NLSPLINE    = F    spline interpolate recip. space projectors
   LCOMPAT=      F    compatible to vasp.4.4
   GGA_COMPAT  = T    GGA compatible to vasp.4.4-vasp.4.6
   LMAXPAW     = -100 max onsite density
   LMAXMIX     =    2 max onsite mixed and CHGCAR
   VOSKOWN=      0    Vosko Wilk Nusair interpolation
   ROPT   =   -0.00050  -0.00050
 Ionic relaxation
   EDIFFG = 0.1E-02   stopping-criterion for IOM
   NSW    =      0    number of steps for IOM
   NBLOCK =      1;   KBLOCK =      1    inner block; outer block
   IBRION =     -1    ionic relax: 0-MD 1-quasi-New 2-CG
   NFREE  =      0    steps in history (QN), initial steepest desc. (CG)
   ISIF   =      2    stress and relaxation
   IWAVPR =     10    prediction:  0-non 1-charg 2-wave 3-comb
   ISYM   =      2    0-nonsym 1-usesym 2-fastsym
   LCORR  =      T    Harris-Foulkes like correction to forces

   POTIM  = 0.5000    time-step for ionic-motion
   TEIN   =    0.0    initial temperature
   TEBEG  =    0.0;   TEEND  =   0.0 temperature during run
   SMASS  =  -3.00    Nose mass-parameter (am)
   estimated Nose-frequenzy (Omega)   =  0.10E-29 period in steps =****** mass=  -0.232E-26a.u.
   SCALEE = 1.0000    scale energy and forces
   NPACO  =    256;   APACO  = 16.0  distance and # of slots for P.C.
   PSTRESS=    0.0 pullay stress

  Mass of Ions in am
   POMASS =  58.69 32.07
  Ionic Valenz
   ZVAL   =  16.00  6.00
  Atomic Wigner-Seitz radii
  virtual crystal weights
   VCA    =   1.00  1.00
   NELECT =     792.0000    total number of electrons
   NUPDOWN=      -1.0000    fix difference up-down

 DOS related values:
   EMIN   =  10.00;   EMAX   =-10.00  energy-range for DOS
   EFERMI =   0.00
   ISMEAR =     0;   SIGMA  =   0.20  broadening in eV -4-tet -1-fermi 0-gaus

 Electronic relaxation 2 (details)
   IALGO  =     38    algorithm
   LDIAG  =      T    sub-space diagonalisation (order eigenvalues)
   LSUBROT=      F    optimize rotation matrix (better conditioning)
   TURBO    =      0    0=normal 1=particle mesh
   IRESTART =      0    0=no restart 2=restart with 2 vectors
   NREBOOT  =      0    no. of reboots
   NMIN     =      0    reboot dimension
   EREF     =   0.00    reference energy to select bands
   IMIX   =      4    mixing-type and parameters
     AMIX     =   0.40;   BMIX     =  1.00
     AMIX_MAG =   1.60;   BMIX_MAG =  1.00
     AMIN     =   0.10
     WC   =   100.;   INIMIX=   1;  MIXPRE=   1;  MAXMIX= -45

[...]
  Fock        0.00000     0.00000     0.00000     0.00000     0.00000     0.00000
  Total      85.67920    90.94906   108.85009    -2.47292    -6.38844     3.87228
  in kB      69.85971    74.15656    88.75241    -2.01633    -5.20890     3.15732

 VOLUME and BASIS-vectors are now :
  energy-cutoff  :      450.00
  volume of cell :     1964.98
      direct lattice vectors                 reciprocal lattice vectors
    10.079732985  0.000000000  0.000000000     0.099208977 -0.037612667  0.000000000
     3.573298043  9.425102554  0.000000000     0.000000000  0.106099641  0.000000000
     0.000000000  0.000000000 20.683503555     0.000000000  0.000000000  0.048347708

  length of vectors
    10.079732985 10.079732985 20.683503555     0.106099641  0.106099641  0.048347708

 FORCES acting on ions
    electron-ion (+dipol)            ewald-force                    non-local-force                 convergence-correction
   0.434E+03 -.627E+03 0.334E+04   -.437E+03 0.632E+03 -.334E+04   0.232E+01 -.421E+01 0.231E+01   -.276E-01 0.201E-01 -.429E-02
   0.220E+02 -.447E+03 -.251E+03   -.230E+02 0.449E+03 0.252E+03   0.894E+00 -.148E+01 -.122E+01   0.384E-02 0.509E-01 0.100E+00
   -.614E+02 -.611E+03 -.333E+04   0.610E+02 0.615E+03 0.333E+04   -.882E-01 -.358E+01 -.695E+00   -.177E-01 0.653E-01 0.831E-01
   -.375E+03 -.634E+03 -.563E+04   0.374E+03 0.630E+03 0.562E+04   0.159E+01 0.340E+01 0.668E+01   -.116E-01 0.806E-02 0.191E+00
   -.110E+03 -.662E+02 0.160E+04   0.110E+03 0.647E+02 -.160E+04   0.327E+00 0.193E+00 -.307E+01   -.336E-01 0.149E-01 -.959E-01
   0.785E+02 -.477E+03 -.133E+04   -.799E+02 0.478E+03 0.133E+04   0.134E+01 -.650E+00 0.400E+00   0.157E-01 -.472E-01 0.374E-01
   0.112E+03 -.803E+03 -.462E+04   -.112E+03 0.804E+03 0.462E+04   0.281E+00 -.645E+00 -.307E+01   0.882E-01 -.138E+00 0.114E+00
   0.409E+02 -.265E+03 0.447E+04   -.429E+02 0.263E+03 -.448E+04   0.178E+01 0.180E+01 0.362E+01   0.368E-02 -.530E-01 -.137E+00
   0.186E+03 0.260E+03 -.507E+04   -.187E+03 -.257E+03 0.507E+04   0.712E+00 -.354E+01 -.412E+01   -.456E-01 0.691E-02 0.702E-01
   0.124E+03 -.343E+03 0.348E+04   -.125E+03 0.342E+03 -.349E+04   0.210E+00 0.546E+00 0.412E+01   0.113E-01 -.126E-02 -.309E-01
   -.217E+03 -.204E+03 0.667E+03   0.218E+03 0.202E+03 -.663E+03   -.792E+00 0.767E+00 -.293E+01   -.139E-01 0.609E-01 0.306E-01
   -.645E+02 -.353E+03 -.207E+04   0.642E+02 0.357E+03 0.207E+04   0.101E+01 -.289E+01 0.317E+00   -.465E-01 -.127E-03 0.141E+00
   0.332E+03 0.230E+03 0.424E+04   -.334E+03 -.231E+03 -.425E+04   0.234E+01 0.602E+00 0.229E+01   -.122E-01 0.384E-02 -.507E-01
   0.509E+03 0.254E+03 0.790E+03   -.511E+03 -.252E+03 -.788E+03   0.171E+01 -.108E+01 -.207E+01   0.706E-01 0.237E-01 0.297E-01
   0.578E+03 0.163E+03 -.215E+04   -.581E+03 -.163E+03 0.215E+04   0.209E+01 0.392E+00 0.684E+00   0.376E-01 -.508E-01 0.703E-01
   0.477E+03 0.233E+03 -.502E+04   -.480E+03 -.235E+03 0.503E+04   0.188E+01 0.245E+01 -.296E+01   -.128E-01 -.804E-01 0.824E-01
   0.522E+03 0.602E+03 0.314E+04   -.524E+03 -.603E+03 -.313E+04   0.163E+01 0.482E+00 0.148E+00   -.530E-01 -.233E-01 -.955E-01
   0.378E+03 0.274E+03 -.740E+02   -.379E+03 -.274E+03 0.736E+02   0.150E+01 0.404E+00 0.463E+00   -.289E-01 -.125E+00 0.348E-01
   0.351E+03 0.472E+02 -.299E+04   -.353E+03 -.472E+02 0.298E+04   0.173E+01 0.404E+00 0.798E+00   0.535E-01 -.107E+00 0.879E-01
   -.104E+03 0.513E+03 -.529E+04   0.100E+03 -.515E+03 0.530E+04   0.445E+01 0.177E+01 -.406E+00   0.328E-01 -.654E-02 0.105E+00
   0.351E+03 -.292E+02 0.586E+04   -.353E+03 0.271E+02 -.587E+04   0.162E+01 0.299E+01 0.573E+01   -.277E-01 0.825E-02 -.172E+00
   0.304E+03 -.169E+03 0.462E+04   -.306E+03 0.170E+03 -.462E+04   0.270E+01 -.211E+01 0.542E+01   0.831E-02 0.727E-01 -.992E-01
   0.320E+03 0.309E+03 0.163E+04   -.319E+03 -.309E+03 -.162E+04   0.596E-01 0.439E+00 -.348E+01   -.317E-01 0.257E-01 0.491E-01
   0.384E+03 0.545E+03 -.144E+04   -.388E+03 -.546E+03 0.144E+04   0.280E+01 0.176E+01 -.115E+01   -.565E-01 0.103E+00 0.133E+00
   -.883E+03 -.920E+02 -.420E+04   0.888E+03 0.907E+02 0.420E+04   -.389E+01 0.177E+01 -.213E+01   -.847E-01 -.603E-01 0.123E+00
   -.190E+03 0.541E+03 0.520E+04   0.188E+03 -.542E+03 -.521E+04   0.287E+01 -.628E+00 0.364E+01   0.211E-01 -.484E-01 -.780E-01
   -.530E+03 0.140E+03 0.197E+04   0.532E+03 -.140E+03 -.196E+04   -.183E+01 -.777E+00 -.173E+01   -.280E-01 -.284E-02 0.191E-01
   -.585E+03 0.646E+02 -.110E+04   0.587E+03 -.650E+02 0.110E+04   -.184E+01 -.174E+00 0.244E+01   -.883E-01 -.167E-01 0.708E-01
   -.884E+03 0.468E+03 0.431E+04   0.885E+03 -.469E+03 -.431E+04   0.122E+01 0.498E+00 0.101E+01   -.258E-02 -.138E-01 -.115E+00
   -.295E+03 0.119E+03 0.964E+03   0.294E+03 -.119E+03 -.963E+03   0.315E+00 -.261E+00 -.770E-01   0.737E-01 -.106E+00 -.679E-02
   -.196E+03 0.850E+02 -.205E+04   0.197E+03 -.860E+02 0.205E+04   -.175E+01 0.112E+01 0.251E+01   0.526E-01 -.986E-01 0.159E+00
   -.207E+03 0.556E+03 -.484E+04   0.209E+03 -.558E+03 0.483E+04   -.226E+01 0.184E+01 0.240E+01   -.357E-02 -.441E-02 0.104E+00
   -.810E+03 -.605E+02 0.330E+04   0.815E+03 0.602E+02 -.330E+04   -.485E+01 0.389E+00 0.373E+00   0.511E-01 0.364E-01 -.407E-01
   -.459E+03 0.119E+03 -.141E+03   0.462E+03 -.117E+03 0.138E+03   -.193E+01 -.105E+01 0.146E+01   0.237E-01 0.748E-01 0.899E-01
   0.826E+02 0.511E+03 -.337E+04   -.807E+02 -.514E+03 0.337E+04   -.995E+00 0.258E+01 -.133E+01   0.578E-01 0.127E+00 0.125E+00
   -.270E+03 -.494E+03 0.527E+04   0.271E+03 0.501E+03 -.528E+04   0.129E+00 -.545E+01 0.989E+01   -.399E-01 0.736E-01 -.129E+00
   -.100E+03 0.958E+02 -.213E+04   0.101E+03 -.968E+02 0.213E+04   -.345E+00 0.804E+00 -.147E+01   -.253E-01 -.122E-01 0.343E-01
   0.939E+02 0.195E+03 0.174E+04   -.940E+02 -.196E+03 -.174E+04   -.974E+00 0.240E+01 0.329E+01   0.141E-01 -.306E-01 -.256E-01
   -.303E+02 0.766E+02 0.767E+02   0.307E+02 -.780E+02 -.749E+02   -.164E+00 0.138E+01 -.673E+00   -.343E-02 -.990E-02 0.159E-01
   -.165E+02 0.129E+03 -.826E+03   0.154E+02 -.132E+03 0.821E+03   0.506E+00 0.191E+01 0.131E+01   -.267E-01 -.212E-01 0.461E-01
   0.794E+02 0.444E+03 0.220E+04   -.800E+02 -.448E+03 -.220E+04   0.225E+00 0.123E+01 0.784E+00   -.156E-01 0.216E-01 -.554E-01
   0.531E+02 0.133E+03 0.111E+04   -.528E+02 -.134E+03 -.111E+04   -.217E+00 0.172E+01 0.621E+00   -.185E-02 -.564E-02 -.691E-02
   0.353E+02 0.109E+03 -.137E+03   -.355E+02 -.111E+03 0.137E+03   0.131E+00 0.233E+01 0.318E+00   0.162E-01 -.355E-01 0.476E-01
   -.732E+02 0.199E+03 -.146E+04   0.745E+02 -.202E+03 0.146E+04   -.984E+00 0.737E+00 -.144E+01   0.314E-01 0.415E-01 0.518E-01
   -.371E+02 0.948E+02 0.454E+03   0.380E+02 -.958E+02 -.452E+03   -.104E+01 0.123E+01 -.138E+01   -.390E-02 0.119E-01 0.198E-01
   0.983E+02 0.243E+03 -.613E+03   -.999E+02 -.245E+03 0.613E+03   0.914E+00 0.448E+00 -.449E-01   -.878E-02 0.571E-01 0.396E-01
   0.101E+03 -.142E+03 -.157E+04   -.105E+03 0.144E+03 0.157E+04   0.351E+01 -.799E+00 -.173E+01   0.237E-01 0.106E-01 0.767E-01
   -.113E+03 0.980E+02 0.213E+04   0.114E+03 -.102E+03 -.214E+04   -.103E+01 0.255E+01 0.531E+01   0.243E-02 0.882E-02 -.571E-01
   0.206E+03 -.151E+03 0.232E+04   -.209E+03 0.151E+03 -.232E+04   0.217E+01 0.536E+00 0.154E+01   0.223E-04 0.579E-02 -.677E-01
   -.725E+02 -.350E+02 0.804E+03   0.745E+02 0.351E+02 -.801E+03   -.139E+01 0.261E+00 -.400E-01   -.117E-01 -.603E-02 0.302E-01
   -.150E+03 -.101E+03 -.284E+03   0.152E+03 0.103E+03 0.284E+03   -.205E+01 -.194E+01 -.135E+00   -.214E-01 0.298E-01 0.296E-01
   -.517E+03 -.300E+03 -.141E+04   0.523E+03 0.304E+03 0.141E+04   -.302E+01 -.264E+01 0.546E+00   -.254E-01 0.844E-02 0.566E-01
   -.348E+03 -.127E+03 0.189E+04   0.350E+03 0.128E+03 -.189E+04   -.675E+00 -.739E+00 0.107E+01   -.155E-01 -.760E-02 -.644E-01
   -.108E+03 -.636E+02 0.565E+03   0.110E+03 0.651E+02 -.566E+03   -.200E+01 -.196E+01 0.803E+00   0.290E-01 -.778E-02 -.317E-01
   -.712E+02 -.144E+03 -.641E+03   0.742E+02 0.144E+03 0.639E+03   -.281E+01 -.792E+00 0.190E+00   0.562E-01 -.509E-01 0.415E-01
   0.131E+02 -.128E+03 -.192E+04   -.114E+02 0.127E+03 0.192E+04   -.892E+00 0.795E+00 -.108E+01   0.274E-01 -.666E-01 0.234E-01
   -.171E+03 -.118E+03 0.193E+03   0.173E+03 0.120E+03 -.193E+03   -.191E+01 -.195E+01 0.581E+00   -.187E-03 0.912E-03 0.337E-01
   -.127E+03 -.310E+02 -.952E+03   0.129E+03 0.341E+02 0.950E+03   -.110E+01 -.223E+01 0.457E-01   0.637E-02 0.105E-01 0.504E-01
   0.134E+03 0.369E+03 -.206E+04   -.134E+03 -.372E+03 0.207E+04   -.753E+00 0.139E+01 -.229E+01   0.202E-01 0.308E-01 0.499E-01
   -.324E+03 -.105E+03 0.164E+04   0.327E+03 0.106E+03 -.164E+04   -.135E+00 -.310E+00 0.315E+01   0.131E-02 0.202E-01 -.232E-01
   0.766E+02 -.167E+03 0.181E+04   -.784E+02 0.168E+03 -.182E+04   0.123E+01 -.558E+00 0.365E+01   -.880E-02 0.972E-02 -.330E-01
   0.138E+03 -.140E+03 0.423E+03   -.140E+03 0.142E+03 -.421E+03   0.212E+01 -.116E+01 0.370E+00   0.210E-01 0.186E-01 0.277E-01
   0.166E+03 -.597E+02 -.771E+03   -.168E+03 0.610E+02 0.773E+03   0.205E+01 -.735E+00 -.272E+01   0.254E-01 0.275E-01 0.269E-01
   0.450E+03 -.193E+03 -.188E+04   -.456E+03 0.195E+03 0.189E+04   0.313E+01 -.130E+01 -.156E+01   0.182E-01 -.154E-01 0.450E-01
   0.119E+03 -.554E+02 0.545E+02   -.121E+03 0.568E+02 -.544E+02   0.231E+01 -.154E+01 -.424E+00   -.490E-01 -.137E-01 -.449E-02
   0.851E+02 -.153E+03 -.114E+04   -.880E+02 0.155E+03 0.114E+04   0.277E+01 -.204E+01 -.148E+01   -.172E-01 -.561E-01 0.548E-01
   0.909E+01 -.205E+03 -.223E+04   -.107E+02 0.206E+03 0.224E+04   0.815E+00 -.136E+00 -.131E+01   0.127E-01 -.473E-01 0.294E-01
   0.350E+03 0.796E+01 0.143E+04   -.354E+03 -.707E+01 -.144E+04   0.255E+01 -.469E-02 0.199E+01   -.102E-02 -.171E-01 -.519E-01
   0.155E+03 -.277E+03 0.222E+04   -.156E+03 0.279E+03 -.223E+04   -.766E+00 0.142E+00 0.124E+01   0.510E-02 0.186E-01 -.587E-01
   0.307E+03 -.182E+03 0.903E+03   -.311E+03 0.185E+03 -.901E+03   0.276E+01 -.230E+01 0.489E+00   -.619E-02 0.206E-01 -.917E-02
   0.151E+03 -.512E+02 -.305E+03   -.154E+03 0.521E+02 0.305E+03   0.283E+01 -.734E+00 -.101E+01   -.116E-01 -.123E-02 0.749E-01
   0.651E+02 0.381E+03 -.157E+04   -.668E+02 -.383E+03 0.157E+04   -.207E-01 0.124E+01 -.776E+00   -.491E-01 0.491E-01 0.625E-01
   -.269E+02 0.499E+01 -.356E+02   -.313E-12 0.853E-12 -.171E-10   0.270E+02 -.472E+01 0.340E+02   -.529E-01 -.210E+00 0.147E+01

 POSITION                                       TOTAL-FORCE (eV/Angst)
      6.84285      7.49250      2.62550        -0.566524      0.649034      1.881379
      7.82056      6.07621      5.25100        -0.110223     -0.289149      0.169928
      8.79827      4.65991      7.87651        -0.499125      0.452234     -0.270181
      9.54595      3.20391      9.93879         0.568762      0.114454      1.590236
      2.61774      3.87870      3.50067         0.305065     -1.362074      2.374444
      3.59545      2.46241      6.12617         0.025675      0.196110      0.465955
      4.57317      1.04611      8.75167         0.035994     -0.198994      0.094738
     12.13630      5.60720      2.12522        -0.282264     -0.222857     -0.677380
      3.88247      7.50077      9.37806        -0.725070     -0.164589      1.028002
      7.90643      2.01316      3.02971        -0.328521     -0.228013     -0.744109
      8.47237      0.26490      4.37584         0.382973     -1.117485      1.298097
     13.02338      8.27371      7.00134         0.669306      0.503260     -1.261297
      5.63806      5.20975      2.33458        -0.090223     -0.702283     -1.012138
      6.61816      3.96023      4.55733        -0.109993      0.206324     -0.043963
      7.59587      2.54394      7.18283        -0.024077     -0.561962     -1.549409
      8.31162      1.12592      9.44465        -0.797947      0.364813      0.994172
      1.41534      1.76273      2.80700        -0.948537     -0.755599      1.925988
      2.39305      0.34643      5.43250         0.204545      0.132103      0.025371
      6.94406      8.35524      8.05800        -0.626861      0.302625     -3.283898
      6.91790      6.82702      9.78443         1.272758     -0.353852      0.980673
      2.03558      3.42264      1.00396        -0.447433      0.885833     -1.755751
      9.33279      7.98124      1.80904        -0.007933     -0.945095      0.463543
     10.84326      7.57403      3.68216         0.196629     -0.164586      0.630402
     11.82097      6.15773      6.30767        -0.600069     -0.038026     -0.906650
      0.84304      1.51866      8.80621         0.924961      0.438766      0.561746
      8.08039      5.59586      1.65913         0.486727     -1.149454     -0.684328
      9.02296      4.33443      3.86366         0.170678     -0.117634     -0.214406
     10.00068      2.91813      6.48916        -0.370931     -0.545357     -1.445658
      3.82015      2.13692      2.11332         1.843832     -0.758068      1.577896
      4.79786      0.72063      4.73883        -0.196679     -0.018439      0.042098
      9.34887      8.72943      7.36433        -0.417010      0.060137     -1.907925
     10.56079      7.55793      9.02023        -0.106831     -0.812356      0.975246
      3.16834      7.94822      2.98849        -0.057670      0.164133      0.458390
      4.14605      6.53193      5.61399         0.789015      1.016004     -1.130962
      4.91197      5.15744      7.84836         1.027142     -0.427756     -0.527927
      7.75320      0.01964      1.68345         0.992926      0.878241     -0.845587
     10.03207      0.04597     10.01357         0.578866     -0.239068      2.187582
      7.35546      3.82659      2.42507        -1.094723      0.482109     -1.592391
      8.33317      2.41029      5.05057         0.282040     -0.109542      1.123744
      9.31088      0.99399      7.67607        -0.598052     -0.984645     -3.378155
      2.29301      1.42633      0.97360        -0.369460     -2.161315     -3.502400
      3.13035      0.21279      3.30024         0.106184      0.107290      0.219628
      7.68136      8.22159      5.92574        -0.050446     -0.049738     -0.270878
      8.65907      6.80530      8.55124         0.276920     -1.328658      0.474911
      2.47854      6.02409      4.17540        -0.232999      0.252277      0.500665
      3.39156      4.75209      6.42121        -0.717173     -1.057114      0.461216
      4.31717      3.10378      8.20387        -0.386741      0.838220      1.095755
     11.58056      7.44039      1.54990         0.099086     -1.336082     -2.099783
      7.66132      7.36881      0.75694        -0.542206      0.944218     -3.692563
      8.88655      6.52099      3.30837         0.538369      0.312460      2.536936
      9.86427      5.10469      5.93387         0.077520      0.289424     -0.274907
     10.65405      3.60738      8.31815         2.952678      1.578007      1.174280
      3.77902      4.26682      1.75453         1.366323      0.959694     -1.679640
      4.66145      2.90719      4.18354         0.082750     -0.461374      0.047404
      5.63916      1.49089      6.80904         0.285368     -0.435642     -1.068069
      6.45835      0.12869      9.18277         0.856273      0.078757      1.978946
      4.00964      8.71849      5.05870         0.135603      0.021435      0.300953
      4.98735      7.30220      7.68420         1.031740      0.899408     -2.057430
      5.12874      5.87963      9.80917        -0.357568     -1.484075      2.785990
      9.53836      0.70969      2.43320         2.519998      0.860046      0.142165
      4.85911      7.15710      2.00884        -0.553788      0.781136     -2.146352
      5.82436      6.04450      4.19167         0.532432      0.657391      2.582566
      6.80207      4.62821      6.81717         0.064430      0.605588     -0.923582
      7.72036      3.18450      9.13211        -2.315179      1.088198      2.413914
      1.59925      2.43070      5.06683        -0.163177     -0.179095     -0.399025
      2.57697      1.01441      7.69234        -0.179590     -0.504295     -0.614667
      7.33321      8.87651      9.96028        -0.827474      1.076769      3.527122
     10.70128      3.84700      2.44133        -1.114211      0.861911      0.169003
      6.12746      0.03468      0.47962        -1.611860      2.156665     -3.270677
      6.47617      0.23320      3.31650        -1.495449      0.599770      2.258447
     11.02718      8.24201      5.94200        -0.040464      0.178803     -0.373837
     12.30172      6.78219      8.28416        -1.719092     -0.729373      2.086395
    total drift:                                0.096337      0.063350     -0.067409

  FREE ENERGIE OF THE ION-ELECTRON SYSTEM (eV)
  free  energy   TOTEN  =      -349.04711017 eV

  energy  without entropy=     -348.05661424  energy(sigma->0) =     -348.55186220