 vasp.5.4.4.18Apr17-6-g9f103f2a35 (build Aug 13 2019 17:33:20) gamma-only

 executed on             LinuxIFC date 2020.05.11  11:02:42

 INCAR:
 POTCAR:    PAW_PBE Ni_pv 06Sep2000
 POTCAR:    PAW_PBE S 06Sep2000
 POTCAR:    PAW_PBE Ni_pv 06Sep2000
   VRHFIN =Ni:

   TITEL  = PAW_PBE Ni_pv 06Sep2000
   POMASS =   58.690; ZVAL   =   16.000    mass and valenz
   ENMAX  =  367.986; ENMIN  =  275.989 eV

 POTCAR:    PAW_PBE S 06Sep2000
   VRHFIN =S : s2p4

   TITEL  = PAW_PBE S 06Sep2000
   POMASS =   32.066; ZVAL   =    6.000    mass and valenz
   ENMAX  =  258.689; ENMIN  =  194.016 eV

 Optimization of the real space projectors (new method)

 maximal supplied QI-value         = 18.90
 optimisation between [QCUT,QGAM] = [ 10.77, 21.73] = [ 32.49,132.25] Ry
 Optimized for a Real-space Cutoff    1.38 Angstroem

   l    n(q)    QCUT    max X(q) W(low)/X(q) W(high)/X(q)  e(spline)
   1      8    10.771     2.836    0.40E-04    0.29E-04    0.12E-06
   1      8    10.771     4.023    0.10E-03    0.48E-04    0.29E-06
   2      8    10.771    73.368    0.42E-03    0.97E-04    0.44E-06
   2      8    10.771    69.010    0.42E-03    0.99E-04    0.45E-06
   0      9    10.771    54.797    0.10E-03    0.56E-04    0.74E-07
   0      9    10.771    24.266    0.89E-04    0.49E-04    0.67E-07
 Optimization of the real space projectors (new method)

 maximal supplied QI-value         = 19.84
 optimisation between [QCUT,QGAM] = [ 10.71, 21.63] = [ 32.15,130.99] Ry
 Optimized for a Real-space Cutoff    1.19 Angstroem

   l    n(q)    QCUT    max X(q) W(low)/X(q) W(high)/X(q)  e(spline)
   0      8    10.715   187.594    0.41E-03    0.53E-04    0.66E-07
   0      8    10.715   164.243    0.41E-03    0.53E-04    0.65E-07
   1      7    10.715    67.533    0.19E-03    0.59E-03    0.68E-07
   1      7    10.715    50.729    0.19E-03    0.58E-03    0.67E-07
  PAW_PBE Ni_pv 06Sep2000               :
  PAW_PBE S 06Sep2000                   :

 POSCAR: Type_048 Type_148
  positions in cartesian coordinates
 exchange correlation table for  LEXCH =        8
   RHO(1)=    0.500       N(1)  =     2000
   RHO(2)=  100.500       N(2)  =     4000

 ion  position               nearest neighbor table
   1  0.261  0.479  0.295-  73 2.25  58 2.26  80 2.26  59 2.36  54 2.36   6 2.53  20 2.53
   2  0.355  0.385  0.426-  65 2.07  60 2.14  74 2.25  54 2.26  59 2.26   7 2.53  21 2.53
   3  0.167  0.073  0.165-  81 2.10  55 2.10  64 2.25  56 2.36  82 2.36  37 2.53  31 2.53
   4  0.215  0.524  0.059-  51 2.01  57 2.06  79 2.06  28 2.45   5 2.52  10 2.53
   5  0.274  0.333  0.130-  51 2.07  55 2.12  57 2.12  52 2.36  58 2.36   4 2.52  10 2.53  28 2.53

   6  0.368  0.239  0.261-  56 2.25  58 2.26  52 2.26  59 2.36  61 2.36   1 2.53  20 2.53
   7  0.462  0.145  0.391-  60 2.06  78 2.25  59 2.26  61 2.26  62 2.36  16 2.43   2 2.53  21 2.53

[...]

  49  0.073  0.167  0.311-  25 2.25   9 2.26  19 2.26   8 2.36  18 2.36  50 2.61
  50  0.170  0.069  0.415-   9 2.17  19 2.17  26 2.20  49 2.61
  51  0.385  0.355  0.062-   4 2.01  10 2.06   5 2.07
  52  0.479  0.261  0.181-  15 2.25   6 2.26  20 2.26  10 2.36   5 2.36
  53  0.033  0.343  0.478-  14 2.02  29 2.02   9 2.08  13 2.18  72 2.60
  54  0.436  0.472  0.355-  33 2.25   2 2.26  21 2.26   1 2.36  20 2.36
  55  0.255  0.159  0.109-  11 2.00   3 2.10   5 2.12  37 2.14
  56  0.342  0.066  0.225-   6 2.25  25 2.26  45 2.26   3 2.36  37 2.36
  57  0.083  0.482  0.107-   4 2.06  28 2.12   5 2.12  23 2.14
  58  0.174  0.397  0.225-   8 2.25   1 2.26   6 2.26   5 2.36  28 2.36
  59  0.268  0.303  0.355-   9 2.25   7 2.26   2 2.26   6 2.36   1 2.36  60 2.69
  60  0.348  0.217  0.466-  16 2.03   7 2.06   2 2.14  65 2.69  59 2.69
  61  0.573  0.167  0.311-  38 2.25  21 2.26   7 2.26  20 2.36   6 2.36
  62  0.667  0.073  0.442-  16 2.03  22 2.10  39 2.25  21 2.36   7 2.36  65 2.75
  63  0.848  0.391  0.062-  23 1.99  17 1.99
  64  0.979  0.261  0.181-   3 2.25  18 2.26   8 2.26  23 2.36  17 2.36
  65  0.514  0.326  0.484-  41 2.02  22 2.04   2 2.07  21 2.24  60 2.69  62 2.75
  66  0.936  0.472  0.355-  44 2.25  13 2.26   9 2.26  12 2.36   8 2.36
  67  0.758  0.157  0.107-  24 2.06  15 2.12  48 2.12  17 2.14
  68  0.842  0.066  0.225-  18 2.25  38 2.26  34 2.26  15 2.36  48 2.36
  69  0.583  0.480  0.113-  40 2.07  17 2.08  10 2.10  70 2.73
  70  0.674  0.397  0.225-  20 2.25  12 2.26  18 2.26  17 2.36  40 2.36  69 2.73
  71  0.768  0.303  0.355-  21 2.25  19 2.26  13 2.26  18 2.36  12 2.36
  72  0.897  0.207  0.478-  14 2.02  22 2.02  19 2.08  13 2.18  53 2.60
  73  0.073  0.667  0.311-   1 2.25  35 2.26  44 2.26  34 2.36  43 2.36
  74  0.167  0.573  0.442-  36 2.03  29 2.10   2 2.25  35 2.36  44 2.36  96 2.75
  75  0.379  0.860  0.058-  30 2.02  11 2.02  37 2.12  31 2.12
  76  0.479  0.761  0.181-  40 2.25  32 2.26  45 2.26  37 2.36  31 2.36
  77  0.023  0.892  0.466-  36 2.03  35 2.06  39 2.14  96 2.69  90 2.69
  78  0.436  0.972  0.355-   7 2.25  26 2.26  46 2.26  25 2.36  45 2.36
  79  0.257  0.657  0.107-   4 2.06  10 2.12  28 2.12  31 2.15
  80  0.342  0.566  0.225-  32 2.25   1 2.26  20 2.26  28 2.36  10 2.36
  81  0.080  0.984  0.109-  30 2.00   3 2.10  48 2.12  31 2.14
  82  0.174  0.897  0.225-  34 2.25  25 2.26  32 2.26  31 2.36   3 2.36
  83  0.268  0.803  0.355-  35 2.25  33 2.26  26 2.26  32 2.36  25 2.36
  84  0.362  0.709  0.486-  27 2.01  36 2.06  41 2.35  33 2.36  26 2.36
  85  0.573  0.667  0.311-  12 2.25  46 2.26  33 2.26  45 2.36  32 2.36
  86  0.667  0.573  0.442-  27 2.05  41 2.16  47 2.16  13 2.25  46 2.36  33 2.36
  87  0.885  0.855  0.062-  24 2.01  42 2.06  48 2.07
  88  0.979  0.761  0.181-  28 2.25  43 2.26  34 2.26  48 2.36  42 2.36
  89  0.530  0.878  0.486-  27 2.01  16 2.06  47 2.35  46 2.36  26 2.36
  90  0.936  0.972  0.355-  19 2.25  39 2.26  35 2.26  38 2.36  34 2.36  77 2.69
  91  0.760  0.657  0.113-  40 2.07  23 2.08  42 2.10  92 2.73
  92  0.842  0.566  0.225-  43 2.25  12 2.26   8 2.26  40 2.36  23 2.36  91 2.73
  93  0.583  0.982  0.107-  24 2.06  42 2.12  15 2.12  37 2.15
  94  0.674  0.897  0.225-  45 2.25  38 2.26  43 2.26  42 2.36  15 2.36
  95  0.768  0.803  0.355-  46 2.25  44 2.26  39 2.26  43 2.36  38 2.36
  96  0.914  0.726  0.484-  47 2.02  29 2.04  39 2.07  44 2.24  77 2.69  74 2.75

  LATTYP: Found a base centered orthorhombic cell.
 ALAT       =    11.8257374459
 B/A-ratio  =     1.6199260857
 C/A-ratio  =     1.9043172636

  Lattice vectors:

 A1 = (  11.2564630382,   0.0000000000,   0.0000000000)
 A2 = (  -5.0445621212, -10.0628203371,   0.0000000000)
 A3 = (   0.0000000000,   0.0000000000, -22.5199559732)

Analysis of symmetry for initial positions (statically):
 Subroutine PRICEL returns:
 Original cell was already a primitive cell.

 Routine SETGRP: Setting up the symmetry group for a
 base centered orthorhombic supercell.

 Subroutine GETGRP returns: Found  2 space group operations
 (whereof  1 operations were pure point group operations)
 out of a pool of  8 trial point group operations.

The static configuration has the point symmetry C_1 .
 The point group associated with its full space group is C_1h.

Analysis of symmetry for dynamics (positions and initial velocities):
 Subroutine PRICEL returns:
 Original cell was already a primitive cell.

 Routine SETGRP: Setting up the symmetry group for a
 base centered orthorhombic supercell.

 Subroutine GETGRP returns: Found  2 space group operations
 (whereof  1 operations were pure point group operations)
 out of a pool of  8 trial point group operations.

The dynamic configuration has the point symmetry C_1 .
 The point group associated with its full space group is C_1h.

 Subroutine INISYM returns: Found  2 space group operations
 (whereof  1 operations are pure point group operations),
 and found     1 'primitive' translations

 KPOINTS: gamma-point-only calculation. no periodi

Automatic generation of k-mesh.
Space group operators:
 irot       det(A)        alpha          n_x          n_y          n_z        tau_x        tau_y        tau_z
    1     1.000000     0.000000     1.000000     0.000000     0.000000     0.000000     0.000000     0.000000
    2    -1.000000   180.000000     0.850925     0.525287     0.000000     0.239701    -0.760299     0.000000

 Subroutine IBZKPT returns following result:

 Found      1 irreducible k-points:

 Following reciprocal coordinates:
            Coordinates               Weight
  0.000000  0.000000  0.000000      1.000000

 Following cartesian coordinates:
            Coordinates               Weight
  0.000000  0.000000  0.000000      1.000000

 SYSTEM =  "Millerite NiS"
 POSCAR =  Type_048 Type_148

 Startparameter for this run:
   NWRITE =      2    write-flag & timer
   PREC   = normal    normal or accurate (medium, high low for compatibility)
   ISTART =      0    job   : 0-new  1-cont  2-samecut
   ICHARG =      2    charge: 1-file 2-atom 10-const
   ISPIN  =      1    spin polarized calculation?
   LNONCOLLINEAR =      F non collinear calculations
   LSORBIT =      F    spin-orbit coupling
   INIWAV =      1    electr: 0-lowe 1-rand  2-diag
   LASPH  =      F    aspherical Exc in radial PAW
   METAGGA=      F    non-selfconsistent MetaGGA calc.

 Electronic Relaxation 1
   ENCUT  =  450.0 eV  33.07 Ry    5.75 a.u.  19.47 19.47 38.95*2*pi/ulx,y,z
   ENINI  =  450.0     initial cutoff
   ENAUG  =  703.4 eV  augmentation charge cutoff
   NELM   =    100;   NELMIN=  2; NELMDL= -5     # of ELM steps
   EDIFF  = 0.1E-03   stopping-criterion for ELM
   LREAL  =      T    real-space projection
   NLSPLINE    = F    spline interpolate recip. space projectors
   LCOMPAT=      F    compatible to vasp.4.4
   GGA_COMPAT  = T    GGA compatible to vasp.4.4-vasp.4.6
   LMAXPAW     = -100 max onsite density
   LMAXMIX     =    2 max onsite mixed and CHGCAR
   VOSKOWN=      0    Vosko Wilk Nusair interpolation
   ROPT   =   -0.00050  -0.00050
 Ionic relaxation
   EDIFFG = 0.1E-02   stopping-criterion for IOM
   NSW    =      0    number of steps for IOM
   NBLOCK =      1;   KBLOCK =      1    inner block; outer block
   IBRION =     -1    ionic relax: 0-MD 1-quasi-New 2-CG
   NFREE  =      0    steps in history (QN), initial steepest desc. (CG)
   ISIF   =      2    stress and relaxation
   IWAVPR =     10    prediction:  0-non 1-charg 2-wave 3-comb
   ISYM   =      2    0-nonsym 1-usesym 2-fastsym
   LCORR  =      T    Harris-Foulkes like correction to forces

   POTIM  = 0.5000    time-step for ionic-motion
   TEIN   =    0.0    initial temperature
   TEBEG  =    0.0;   TEEND  =   0.0 temperature during run
   SMASS  =  -3.00    Nose mass-parameter (am)
   estimated Nose-frequenzy (Omega)   =  0.10E-29 period in steps =****** mass=  -0.290E-26a.u.
   SCALEE = 1.0000    scale energy and forces
   NPACO  =    256;   APACO  = 16.0  distance and # of slots for P.C.
   PSTRESS=    0.0 pullay stress

  Mass of Ions in am
   POMASS =  58.69 32.07
  Ionic Valenz
   ZVAL   =  16.00  6.00
  Atomic Wigner-Seitz radii
  virtual crystal weights
   VCA    =   1.00  1.00
   NELECT =    1056.0000    total number of electrons
   NUPDOWN=      -1.0000    fix difference up-down

 DOS related values:
   EMIN   =  10.00;   EMAX   =-10.00  energy-range for DOS
[...]
     0.000000000  0.000000000 22.519955973     0.000000000  0.000000000  0.044405060

  length of vectors
    11.256463038 11.256463038 22.519955973     0.099375718  0.099375718  0.044405060

 FORCES acting on ions
    electron-ion (+dipol)            ewald-force                    non-local-force                 convergence-correction
   0.269E+03 -.378E+03 -.339E+03   -.269E+03 0.379E+03 0.339E+03   0.847E+00 -.114E+01 0.241E+00   -.332E-01 -.463E-01 -.162E+00
   0.534E+03 -.340E+03 -.393E+04   -.537E+03 0.344E+03 0.393E+04   0.249E+01 -.336E+01 -.474E+00   -.223E-01 -.457E-02 0.112E+00
   0.365E+03 -.591E+03 0.287E+04   -.366E+03 0.594E+03 -.287E+04   0.171E+01 -.277E+01 0.987E+00   -.113E+00 0.182E+00 0.125E-01
   0.278E+03 -.351E+03 0.615E+04   -.279E+03 0.352E+03 -.616E+04   -.325E+00 0.521E+00 0.613E+01   -.530E-01 -.100E-01 -.231E+00
   0.305E+03 0.578E+03 0.400E+04   -.307E+03 -.583E+03 -.400E+04   0.127E+01 0.365E+01 0.180E+01   0.115E+00 0.401E+00 -.404E+00
   0.261E+03 0.453E+03 0.765E+03   -.262E+03 -.453E+03 -.766E+03   0.703E+00 0.623E+00 0.103E+01   0.465E-01 0.586E-01 -.170E+00
   0.372E+03 0.398E+03 -.244E+04   -.374E+03 -.401E+03 0.244E+04   0.131E+01 0.300E+01 0.144E+01   0.134E+00 0.752E-01 0.679E-01
   -.500E+03 0.110E+02 0.855E+03   0.501E+03 -.109E+02 -.856E+03   -.789E+00 -.132E+00 0.871E+00   -.530E-01 0.291E-01 -.135E+00
   -.623E+03 0.266E+03 -.274E+04   0.626E+03 -.266E+03 0.274E+04   -.331E+01 -.207E+00 0.462E+00   -.109E+00 0.224E+00 0.146E+00
   -.863E+03 0.421E+02 0.410E+04   0.870E+03 -.426E+02 -.410E+04   -.506E+01 0.170E+00 0.148E+01   -.258E+00 -.527E-02 -.461E+00
   -.398E+03 -.558E+03 0.594E+04   0.392E+03 0.556E+03 -.594E+04   0.618E+01 0.195E+01 -.226E+01   0.143E+00 0.118E+00 -.153E+00
   0.220E+03 -.356E+03 -.176E+03   -.220E+03 0.357E+03 0.176E+03   0.628E+00 -.102E+01 -.330E+00   0.922E-01 -.149E+00 -.127E+00
   0.924E+02 -.150E+03 -.340E+04   -.942E+02 0.153E+03 0.339E+04   0.136E+01 -.220E+01 0.815E+00   0.426E-01 -.690E-01 0.644E+00
   -.121E+03 0.195E+03 -.622E+04   0.122E+03 -.198E+03 0.621E+04   -.221E+01 0.359E+01 0.806E+01   0.218E-01 -.353E-01 0.295E+00
   0.291E+03 -.556E+03 0.277E+04   -.293E+03 0.559E+03 -.277E+04   0.187E+01 -.280E+01 -.118E+01   0.932E-01 -.219E-01 -.597E+00
   0.196E+03 0.618E+02 -.577E+04   -.197E+03 -.630E+02 0.577E+04   0.129E+01 0.455E+00 0.130E+01   0.863E-01 0.271E-01 0.282E+00
   0.194E+03 0.326E+03 0.438E+04   -.195E+03 -.329E+03 -.438E+04   0.651E+00 0.210E+01 0.441E+01   -.616E-01 -.622E-01 -.254E+00
   0.214E+03 0.452E+03 0.855E+03   -.215E+03 -.453E+03 -.856E+03   0.471E+00 0.646E+00 0.871E+00   -.228E-02 0.605E-01 -.135E+00
   0.415E+02 0.676E+03 -.274E+04   -.429E+02 -.679E+03 0.274E+04   0.167E+01 0.287E+01 0.462E+00   -.152E+00 0.198E+00 0.146E+00
   -.517E+03 -.439E+01 0.859E+03   0.517E+03 0.497E+01 -.860E+03   -.720E+00 -.496E+00 0.126E+01   0.770E-02 -.640E-01 -.173E+00
   -.312E+03 0.140E+03 -.224E+04   0.314E+03 -.140E+03 0.223E+04   -.252E+01 -.317E+00 0.262E+01   0.801E-01 -.702E-01 0.362E-01
   -.184E+03 0.518E+03 -.550E+04   0.189E+03 -.521E+03 0.550E+04   -.575E+01 0.324E+01 0.156E+01   0.237E+00 0.414E-01 0.331E+00
   -.378E+03 -.275E+02 0.438E+04   0.382E+03 0.270E+02 -.438E+04   -.217E+01 0.358E+00 0.441E+01   0.832E-01 0.272E-01 -.254E+00
   0.189E+03 -.406E+03 0.615E+04   -.190E+03 0.407E+03 -.616E+04   -.320E+00 0.524E+00 0.613E+01   0.327E-01 0.428E-01 -.231E+00
   0.263E+03 -.426E+03 -.403E+03   -.263E+03 0.426E+03 0.402E+03   0.440E+00 -.713E+00 0.107E+01   -.139E-01 0.225E-01 -.215E+00
   0.509E+03 -.824E+03 -.401E+04   -.509E+03 0.824E+03 0.401E+04   0.374E+00 -.606E+00 0.113E+01   0.166E-01 -.269E-01 0.272E+00
   0.158E+03 -.256E+03 -.617E+04   -.158E+03 0.256E+03 0.618E+04   0.269E+00 -.436E+00 -.591E+01   0.645E-01 -.104E+00 0.535E+00
   0.367E+03 -.509E+03 0.277E+04   -.369E+03 0.513E+03 -.277E+04   0.167E+01 -.293E+01 -.118E+01   -.222E-01 -.931E-01 -.597E+00
   -.381E+03 0.396E+03 -.550E+04   0.381E+03 -.403E+03 0.550E+04   -.320E+00 0.659E+01 0.156E+01   -.143E+00 -.193E+00 0.331E+00
   0.677E+03 0.106E+03 0.594E+04   -.673E+03 -.101E+03 -.594E+04   -.451E+01 -.466E+01 -.226E+01   -.169E+00 -.749E-01 -.153E+00
   0.146E+03 0.713E+03 0.377E+04   -.147E+03 -.716E+03 -.377E+04   0.748E+00 0.198E+01 0.425E+00   -.147E+00 -.256E+00 -.289E-01
   0.238E+03 0.440E+03 0.820E+03   -.238E+03 -.441E+03 -.821E+03   0.842E+00 0.837E+00 0.978E+00   -.667E-02 -.573E-01 -.179E+00
   0.408E+03 0.133E+03 -.217E+04   -.410E+03 -.133E+03 0.217E+04   0.211E+01 0.869E+00 0.268E+01   0.183E-01 -.904E-01 0.247E-01
   -.522E+03 -.304E+02 0.765E+03   0.522E+03 0.307E+02 -.766E+03   -.872E+00 -.349E+00 0.103E+01   -.732E-01 -.153E-01 -.170E+00
   -.522E+03 -.155E+03 -.244E+04   0.526E+03 0.154E+03 0.244E+04   -.327E+01 0.177E+00 0.144E+01   -.127E+00 -.862E-01 0.679E-01
   -.143E+03 -.147E+03 -.577E+04   0.145E+03 0.148E+03 0.577E+04   -.984E+00 -.947E+00 0.130E+01   -.629E-01 -.650E-01 0.282E+00
   -.703E+03 0.189E+03 0.377E+04   0.706E+03 -.190E+03 -.377E+04   -.210E+01 0.217E+00 0.425E+00   0.295E+00 0.165E-01 -.289E-01
   0.218E+03 -.410E+03 -.339E+03   -.219E+03 0.411E+03 0.339E+03   0.644E+00 -.127E+01 0.241E+00   0.562E-01 0.893E-02 -.162E+00
   0.647E+02 -.629E+03 -.393E+04   -.671E+02 0.634E+03 0.393E+04   0.189E+01 -.373E+01 -.474E+00   0.140E-01 0.179E-01 0.112E+00
   0.250E+03 -.406E+03 0.332E+04   -.253E+03 0.410E+03 -.332E+04   0.248E+01 -.402E+01 0.188E+01   0.446E-01 -.722E-01 -.205E+00
   0.277E+03 0.229E+03 -.509E+04   -.279E+03 -.229E+03 0.509E+04   0.148E+01 -.914E-01 -.300E+01   0.193E+00 -.790E-01 0.351E+00
   0.349E+03 0.791E+03 0.410E+04   -.352E+03 -.797E+03 -.410E+04   0.212E+01 0.460E+01 0.148E+01   0.120E+00 0.229E+00 -.461E+00
   0.235E+03 0.460E+03 0.859E+03   -.236E+03 -.460E+03 -.860E+03   0.766E+00 0.421E+00 0.126E+01   0.537E-01 -.355E-01 -.173E+00
   0.144E+02 0.342E+03 -.224E+04   -.160E+02 -.344E+03 0.223E+04   0.141E+01 0.211E+01 0.262E+01   0.269E-01 -.103E+00 0.362E-01
   -.500E+03 -.151E+02 0.820E+03   0.501E+03 0.155E+02 -.821E+03   -.113E+01 -.377E+00 0.978E+00   0.542E-01 -.197E-01 -.179E+00
   -.301E+03 -.305E+03 -.217E+04   0.302E+03 0.307E+03 0.217E+04   -.172E+01 -.150E+01 0.268E+01   0.726E-01 -.569E-01 0.247E-01
   -.329E+03 -.145E+03 -.509E+04   0.330E+03 0.146E+03 0.509E+04   -.580E+00 -.136E+01 -.300E+01   -.159E-01 -.208E+00 0.351E+00
   -.653E+03 -.138E+02 0.400E+04   0.658E+03 0.129E+02 -.400E+04   -.384E+01 0.498E+00 0.180E+01   -.410E+00 0.769E-01 -.404E+00
   -.784E+02 0.127E+03 -.120E+03   0.791E+02 -.128E+03 0.118E+03   -.953E+00 0.154E+01 0.104E+01   -.401E-01 0.649E-01 -.911E-01
   -.611E+02 0.990E+02 -.150E+04   0.615E+02 -.996E+02 0.150E+04   -.550E-01 0.892E-01 -.389E+00   -.414E-01 0.671E-01 0.831E-01
   -.264E+03 0.305E+03 0.232E+04   0.266E+03 -.308E+03 -.232E+04   -.661E+00 0.796E+00 0.822E+00   -.708E-01 0.173E+00 -.921E-01
   -.102E+03 0.119E+03 0.115E+04   0.103E+03 -.120E+03 -.115E+04   -.808E+00 0.101E+01 0.171E+01   0.185E-01 0.549E-02 -.941E-01
   -.341E+03 0.309E+03 -.201E+04   0.346E+03 -.311E+03 0.202E+04   -.271E+01 0.229E+01 -.113E+01   -.211E+00 0.491E-01 0.274E+00
   -.769E+01 -.145E+03 -.532E+03   0.828E+01 0.147E+03 0.532E+03   -.422E+00 -.186E+01 0.464E+00   -.181E-01 -.637E-01 -.417E-01
   0.460E+02 -.325E+03 0.168E+04   -.478E+02 0.327E+03 -.168E+04   0.165E+01 -.420E+00 0.192E+01   0.404E-01 0.136E+00 -.201E-01
   -.718E+02 -.157E+03 0.588E+03   0.728E+02 0.159E+03 -.589E+03   -.910E+00 -.240E+01 0.997E+00   0.393E-01 0.352E-01 -.674E-02
   0.367E+03 -.442E+02 0.186E+04   -.369E+03 0.450E+02 -.186E+04   0.943E-01 -.630E+00 0.149E+01   0.166E+00 0.747E-01 -.189E+00
   0.188E+03 0.240E+01 0.610E+03   -.191E+03 -.222E+01 -.611E+03   0.262E+01 -.397E+00 0.130E+01   -.174E-01 0.134E-01 -.708E-01
   0.192E+03 0.203E+02 -.639E+03   -.195E+03 -.202E+02 0.638E+03   0.285E+01 0.526E-01 -.138E+00   0.778E-02 0.358E-01 -.355E-01
   0.410E+03 -.476E+02 -.203E+04   -.415E+03 0.472E+02 0.204E+04   0.309E+01 0.841E+00 -.682E+00   0.180E-01 0.158E-01 0.111E+00
[...]
   0.185E+03 -.559E+02 -.622E+03   -.187E+03 0.558E+02 0.622E+03   0.268E+01 -.357E+00 -.753E+00   -.508E-01 -.163E-01 -.656E-01
   0.255E+03 -.164E+03 -.209E+04   -.258E+03 0.165E+03 0.209E+04   0.186E+01 -.149E+01 -.269E+01   0.105E-01 0.686E-02 0.181E+00
   -.645E+02 0.105E+03 -.373E+02   0.655E+02 -.106E+03 0.357E+02   -.103E+01 0.167E+01 0.167E+01   0.189E-01 -.306E-01 -.984E-01
   -.118E+03 0.191E+03 -.138E+04   0.120E+03 -.194E+03 0.138E+04   -.911E+00 0.148E+01 0.475E+00   0.543E-01 -.880E-01 0.164E+00
   -.155E+03 0.373E+03 0.232E+04   0.156E+03 -.376E+03 -.232E+04   -.415E+00 0.948E+00 0.822E+00   -.123E+00 0.141E+00 -.921E-01
   -.605E+02 0.145E+03 0.115E+04   0.610E+02 -.146E+03 -.115E+04   -.537E+00 0.117E+01 0.171E+01   -.132E-01 -.141E-01 -.941E-01
   0.326E+02 -.301E+03 -.209E+04   -.322E+02 0.305E+03 0.209E+04   0.498E+00 -.233E+01 -.269E+01   -.108E-01 -.631E-02 0.181E+00
   -.104E+03 -.163E+03 -.639E+03   0.106E+03 0.166E+03 0.638E+03   -.133E+01 -.253E+01 -.138E+00   -.355E-01 0.910E-02 -.355E-01
   0.491E+02 -.850E+02 0.196E+04   -.514E+02 0.871E+02 -.196E+04   0.212E+01 -.682E+00 0.372E+01   0.555E-01 0.168E-02 -.107E+00
   -.633E+02 -.139E+03 0.670E+03   0.645E+02 0.142E+03 -.670E+03   -.103E+01 -.237E+01 0.583E+00   0.368E-01 -.304E-01 -.449E-01
   0.244E+03 0.902E+01 0.182E+04   -.246E+03 -.878E+01 -.182E+04   0.554E-01 -.335E-01 0.947E+00   0.262E+00 0.584E-01 -.179E+00
   0.175E+03 0.126E+02 0.620E+03   -.177E+03 -.127E+02 -.620E+03   0.241E+01 -.126E+00 0.121E+01   0.265E-01 0.370E-02 -.817E-01
   0.133E+03 -.580E+02 -.532E+03   -.135E+03 0.584E+02 0.532E+03   0.185E+01 -.454E+00 0.464E+00   0.650E-01 -.124E-01 -.417E-01
   -.131E+03 -.188E+03 -.227E+04   0.130E+03 0.189E+03 0.228E+04   0.717E+00 0.302E+00 -.369E+01   0.627E-01 -.409E-01 0.102E+00
   -.188E+01 0.304E+01 -.676E+02   0.455E-12 -.236E-11 0.105E-10   0.180E+01 -.292E+01 0.706E+02   0.693E-02 -.112E-01 -.277E+01

 POSITION                                       TOTAL-FORCE (eV/Angst)
      5.35228      4.81788      6.64784         0.174967     -0.124642     -0.185329
      5.93595      3.87238      9.58390        -0.653112      0.851384     -1.227947
      2.24633      0.73197      3.71178        -0.166452      0.269639      2.006596
      5.06133      5.27408      1.33388        -0.767542      1.178673     -1.911643
      4.76861      3.35453      2.93606        -0.219365     -1.263507      2.257841
      5.35228      2.40903      5.87212         0.075182      0.073821      0.004790
      5.93595      1.46353      8.80817         0.325576     -0.214434     -2.302160
      1.87746      3.73836      5.87212        -0.101935      0.009962     -0.011932
      2.46113      2.79286      8.80817         0.313064     -0.266995     -1.778657
      6.92203      4.68386      2.93606         1.332423     -0.406465      2.328717
      3.77224      0.52841      0.76530         0.139181      0.724473     -1.807563
     10.98051      4.81788      6.64784         0.047761     -0.077369     -0.233181
     11.56418      3.87238      9.58390        -0.417769      0.676754     -1.655925
     11.72341      3.61444     11.92426        -0.449906      0.728815      1.266794
      7.87456      0.73197      3.71178        -0.531426      0.777197      2.264136
      6.19478      0.64749     11.08361        -0.116413     -0.757054      1.481431
     10.39684      3.35453      2.93606        -0.576187     -1.302923      2.628144
     10.98051      2.40903      5.87212         0.036776      0.095590     -0.011932
     11.56418      1.46353      8.80817         0.098384     -0.399520     -1.778657
      7.50570      3.73836      5.87212        -0.121942      0.012727      0.057292
      8.08937      2.79286      8.80817        -0.049533      0.232208     -1.130231
      9.12508      2.14855     10.86926         0.028566      0.357269      1.050893
     12.55026      4.68386      2.93606         1.422977     -0.068815      2.628144
      8.18079      0.25102      1.33388        -0.709713      1.214372     -1.911643
      7.87456      9.84929      6.64784         0.093221     -0.151011      0.034049
      8.45823      8.90379      9.58390         0.200841     -0.325347     -0.156451
      9.61565      7.02886     11.35697         0.368630     -0.597153      1.809617
      4.76861      5.76338      3.71178        -0.456625      0.823373      2.264136
      2.94183      5.28031     10.86926        -0.332186      0.134573      1.050893
      6.78904      9.33946      0.76530        -0.710023      0.200249     -1.807563
      7.29089      8.38594      2.93606         0.004223     -0.841274      2.283948
      7.87456      7.44044      5.87212         0.023973      0.019661      0.044384
      8.45823      6.49494      8.80817        -0.289169      0.659050     -1.096598
      4.39975      8.76977      5.87212        -0.099686     -0.034127      0.004790
      4.98341      7.82427      8.80817         0.045789     -0.387150     -2.302160
      5.59692      7.22718     11.08361         0.728946     -0.235203      1.481431
      9.44431      9.71527      2.93606         0.750172     -0.380790      2.283948
     13.50279      9.84929      6.64784         0.033014     -0.212271     -0.185329
     14.08646      8.90379      9.58390        -0.468411      0.965401     -1.227947
     10.39684      5.76338      3.71178        -0.303472      0.491602      2.208199
      8.48380      4.97346     10.56751         0.467878      0.156959      0.513328
     12.91912      8.38594      2.93606        -0.233759     -1.373289      2.328717
     13.50279      7.44044      5.87212         0.043271      0.114715      0.057292
     14.08646      6.49494      8.80817        -0.185387      0.148345     -1.130231
     10.02798      8.76977      5.87212        -0.028319     -0.012620      0.044384
     10.61165      7.82427      8.80817        -0.459574      0.553857     -1.096598
     11.96033      7.11956     10.56751        -0.349993     -0.347923      0.513328
     15.07254      9.71527      2.93606         1.227832     -0.370135      2.257841
      1.66190      1.67871      7.01153        -0.287518      0.465758     -1.012609
      2.26651      0.69929      9.35004         0.277498     -0.449526      1.466742
      6.12618      3.57352      1.39295         1.275195     -2.117026     -3.405847
      6.70646      2.62422      4.07548         0.030722      0.001085      0.414660
      2.10095      3.44690     10.75383         2.308104      0.147045      1.955253
      7.29013      4.74605      7.99931         0.157445      0.272704     -0.214759
      3.67981      1.60388      2.45371        -0.072989      1.782706     -1.251788
      4.18418      0.66015      5.06325         0.180132     -0.104288      0.609872
      3.36221      4.85221      2.41806        -1.826860      0.320673     -1.448751
      3.96438      3.99884      5.06325         0.037889     -0.203548      0.693045
      4.54805      3.05334      7.99931        -0.229969      0.243683     -0.932463
      5.00708      2.18288     10.50267        -2.238287      0.461569      2.027003
[...]
      6.48666      9.03025      5.06325         0.012504     -0.207767      0.609872
      7.07033      8.08475      7.99931         0.118291     -0.431064     -0.262313
      7.65400      7.13925     10.93537        -1.415865     -0.336270      0.147245
      9.81241      6.71012      7.01153        -0.005063      0.008201      0.008776
     10.39608      5.76462      9.94759         0.981369     -1.589745     -0.851024
     14.26838      8.59980      1.39295         1.321059     -2.088714     -3.405847
     14.85697      7.65563      4.07548        -0.014738     -0.026978      0.414660
     10.39608      8.83196     10.93537         0.935129      1.115027      0.147245
     15.44064      9.77746      7.99931        -0.114783      0.314789     -0.932463
     11.86948      6.61069      2.53729        -0.171156      1.364637     -2.406230
     12.33469      5.69156      5.06325         0.234290      0.048525      0.622714
     11.51883      9.88442      2.40419        -1.802439      0.265440     -1.415661
     12.11489      9.03025      5.06325         0.116579     -0.140740      0.676546
     12.69856      8.08475      7.99931        -0.314345     -0.018538     -0.214759
     13.94626      7.30539     10.89474        -0.616801      0.849738      2.810345
    total drift:                               -0.068436      0.109130      0.189525

  FREE ENERGIE OF THE ION-ELECTRON SYSTEM (eV)
  free  energy   TOTEN  =      -468.65405935 eV

  energy  without entropy=     -467.31577703  energy(sigma->0) =     -467.98491819