 vasp.6.1.0 28Jan20 (build Mar 31 2020 17:42:31) gamma-only

 executed on             LinuxIFC date 2020.04.13  02:25:14

 INCAR:
 POTCAR:    PAW_PBE Ni_pv 06Sep2000
 POTCAR:    PAW_PBE S 06Sep2000
 POTCAR:    PAW_PBE Ni_pv 06Sep2000
   VRHFIN =Ni:

   TITEL  = PAW_PBE Ni_pv 06Sep2000
   POMASS =   58.690; ZVAL   =   16.000    mass and valenz
   ENMAX  =  367.986; ENMIN  =  275.989 eV

 POTCAR:    PAW_PBE S 06Sep2000
   VRHFIN =S : s2p4

   TITEL  = PAW_PBE S 06Sep2000
   POMASS =   32.066; ZVAL   =    6.000    mass and valenz
   ENMAX  =  258.689; ENMIN  =  194.016 eV

 Optimization of the real space projectors (new method)

 maximal supplied QI-value         = 18.90
 optimisation between [QCUT,QGAM] = [ 10.77, 21.73] = [ 32.49,132.25] Ry
 Optimized for a Real-space Cutoff    1.38 Angstroem

   l    n(q)    QCUT    max X(q) W(low)/X(q) W(high)/X(q)  e(spline)
   1      8    10.771     2.836    0.40E-04    0.29E-04    0.12E-06
   1      8    10.771     4.023    0.10E-03    0.48E-04    0.29E-06
   2      8    10.771    73.368    0.42E-03    0.97E-04    0.44E-06
   2      8    10.771    69.010    0.42E-03    0.99E-04    0.45E-06
   0      9    10.771    54.797    0.10E-03    0.56E-04    0.74E-07
   0      9    10.771    24.266    0.89E-04    0.49E-04    0.67E-07
 Optimization of the real space projectors (new method)

 maximal supplied QI-value         = 19.84
 optimisation between [QCUT,QGAM] = [ 10.71, 21.63] = [ 32.15,130.99] Ry
 Optimized for a Real-space Cutoff    1.19 Angstroem

   l    n(q)    QCUT    max X(q) W(low)/X(q) W(high)/X(q)  e(spline)
   0      8    10.715   187.594    0.41E-03    0.53E-04    0.66E-07
   0      8    10.715   164.243    0.41E-03    0.53E-04    0.65E-07
   1      7    10.715    67.533    0.19E-03    0.59E-03    0.68E-07
   1      7    10.715    50.729    0.19E-03    0.58E-03    0.67E-07
  PAW_PBE Ni_pv 06Sep2000               :
  PAW_PBE S 06Sep2000                   :

 POSCAR: Structure 13 made from 012-1.xsd file
  positions in direct lattice
 exchange correlation table for  LEXCH =        8
   RHO(1)=    0.500       N(1)  =     2000
   RHO(2)=  100.500       N(2)  =     4000

 ion  position               nearest neighbor table
   1  0.081  0.431  0.013-  51 2.25  41 2.36  53 2.36  11 2.53
   2  0.081  0.379  0.187-  33 2.25  41 2.26  53 2.26  36 2.36  42 2.36   6 2.53  12 2.53
   3  0.081  0.327  0.362-  34 2.25  42 2.26  36 2.26   7 2.53  13 2.53
   4  0.581  0.155  0.100-  31 2.25  38 2.26  45 2.26  39 2.36  58 2.36  14 2.53  23 2.53
   5  0.581  0.103  0.274-  32 2.25  39 2.26  58 2.26  40 2.36  59 2.36  15 2.53  24 2.53
   6  0.213  0.188  0.164-  37 2.25  41 2.26  31 2.26  42 2.36  32 2.36  12 2.53   2 2.53
   7  0.213  0.136  0.339-  52 2.25  42 2.26  32 2.26  13 2.53   3 2.53
   8  0.713  0.464  0.077-  38 2.25  60 2.26  51 2.26  43 2.36  33 2.36  29 2.53  19 2.53
   9  0.713  0.412  0.251-  39 2.25  43 2.26  33 2.26  44 2.36  34 2.36  30 2.53  20 2.53
  10  0.713  0.360  0.426-  40 2.25  44 2.26  34 2.26
  11  0.345  0.431  0.013-  60 2.25  31 2.36  53 2.36   1 2.53
  12  0.345  0.379  0.187-  43 2.25  31 2.26  53 2.26  36 2.36  32 2.36   6 2.53   2 2.53
  13  0.345  0.327  0.362-  44 2.25  32 2.26  36 2.26   7 2.53   3 2.53
  14  0.845  0.155  0.100-  41 2.25  38 2.26  35 2.26  39 2.36  49 2.36   4 2.53  23 2.53
  15  0.845  0.103  0.274-  42 2.25  39 2.26  49 2.26  40 2.36  50 2.36   5 2.53  24 2.53
  16  0.081  0.931  0.013-  35 2.25  56 2.36  37 2.36  26 2.53
  17  0.081  0.879  0.187-  49 2.25  56 2.26  37 2.26  52 2.36  57 2.36  21 2.53  27 2.53
  18  0.081  0.827  0.362-  50 2.25  57 2.26  52 2.26  22 2.53  28 2.53
  19  0.581  0.655  0.100-  46 2.25  54 2.26  60 2.26  55 2.36  43 2.36  29 2.53   8 2.53
  20  0.581  0.603  0.274-  47 2.25  55 2.26  43 2.26  44 2.36  30 2.53   9 2.53
  21  0.213  0.688  0.164-  53 2.25  56 2.26  46 2.26  57 2.36  47 2.36  27 2.53  17 2.53
  22  0.213  0.636  0.339-  36 2.25  57 2.26  47 2.26  48 2.36  18 2.53  28 2.53
  23  0.713  0.964  0.077-  54 2.25  45 2.26  35 2.26  58 2.36  49 2.36  14 2.53   4 2.53
  24  0.713  0.912  0.251-  55 2.25  58 2.26  49 2.26  59 2.36  50 2.36  15 2.53   5 2.53
  25  0.713  0.860  0.426-  59 2.26  50 2.26
  26  0.345  0.931  0.013-  45 2.25  46 2.36  37 2.36  16 2.53
  27  0.345  0.879  0.187-  58 2.25  46 2.26  37 2.26  52 2.36  47 2.36  21 2.53  17 2.53
  28  0.345  0.827  0.362-  59 2.25  47 2.26  52 2.26  48 2.36  22 2.53  18 2.53
  29  0.845  0.655  0.100-  56 2.25  54 2.26  51 2.26  55 2.36  33 2.36  19 2.53   8 2.53
  30  0.845  0.603  0.274-  57 2.25  55 2.26  33 2.26  34 2.36  20 2.53   9 2.53
  31  0.381  0.259  0.087-   4 2.25   6 2.26  12 2.26  11 2.36
  32  0.381  0.207  0.261-   5 2.25   7 2.26  13 2.26  12 2.36   6 2.36
  33  0.881  0.483  0.174-   2 2.25   9 2.26  30 2.26   8 2.36  29 2.36
  34  0.881  0.431  0.348-   3 2.25  10 2.26   9 2.36  30 2.36
  35  0.881  0.035  0.000-  16 2.25  14 2.26  23 2.26
  36  0.213  0.451  0.291-  22 2.25  13 2.26   3 2.26   2 2.36  12 2.36
  37  0.213  0.003  0.116-   6 2.25  17 2.26  27 2.26  26 2.36  16 2.36
  38  0.713  0.279  0.029-   8 2.25   4 2.26  14 2.26
  39  0.713  0.227  0.203-   9 2.25   5 2.26  15 2.26  14 2.36   4 2.36
  40  0.713  0.175  0.378-  10 2.25   5 2.36  15 2.36
  41  0.045  0.259  0.087-  14 2.25   6 2.26   2 2.26   1 2.36
  42  0.045  0.207  0.261-  15 2.25   7 2.26   3 2.26   2 2.36   6 2.36
  43  0.545  0.483  0.174-  12 2.25   9 2.26  20 2.26   8 2.36  19 2.36
  44  0.545  0.431  0.348-  13 2.25  10 2.26   9 2.36  20 2.36
  45  0.545  0.035  0.000-  26 2.25   4 2.26  23 2.26
  46  0.381  0.759  0.087-  19 2.25  21 2.26  27 2.26  26 2.36
  47  0.381  0.707  0.261-  20 2.25  22 2.26  28 2.26  27 2.36  21 2.36
  48  0.381  0.655  0.435-  22 2.36  28 2.36
  49  0.881  0.983  0.174-  17 2.25  24 2.26  15 2.26  23 2.36  14 2.36
  50  0.881  0.931  0.348-  18 2.25  25 2.26  24 2.36  15 2.36
  51  0.881  0.535  0.000-   1 2.25  29 2.26   8 2.26
  52  0.213  0.951  0.291-   7 2.25  18 2.26  28 2.26  27 2.36  17 2.36
  53  0.213  0.503  0.116-  21 2.25  12 2.26   2 2.26   1 2.36  11 2.36
  54  0.713  0.779  0.029-  23 2.25  19 2.26  29 2.26
  55  0.713  0.727  0.203-  24 2.25  20 2.26  30 2.26  29 2.36  19 2.36
  56  0.045  0.759  0.087-  29 2.25  21 2.26  17 2.26  16 2.36
  57  0.045  0.707  0.261-  30 2.25  22 2.26  18 2.26  17 2.36  21 2.36
  58  0.545  0.983  0.174-  27 2.25  24 2.26   5 2.26  23 2.36   4 2.36
  59  0.545  0.931  0.348-  28 2.25  25 2.26  24 2.36   5 2.36
  60  0.545  0.535  0.000-  11 2.25  19 2.26   8 2.26

  LATTYP: Found a simple orthorhombic cell.
 ALAT       =     9.5784100000
 B/A-ratio  =     1.1751911892
 C/A-ratio  =     1.8490917490

  Lattice vectors:

 A1 = (   9.5784100000,   0.0000000000,   0.0000000000)
 A2 = (   0.0000000000,  11.2564630382,   0.0000000000)
 A3 = (   0.0000000000,   0.0000000000,  17.7113588997)

Analysis of symmetry for initial positions (statically):
 Subroutine PRICEL returns:
 Original cell was already a primitive cell.

 Routine SETGRP: Setting up the symmetry group for a
 simple orthorhombic supercell.

 Subroutine GETGRP returns: Found  1 space group operations
 (whereof  1 operations were pure point group operations)
 out of a pool of  8 trial point group operations.

The static configuration has the point symmetry C_1 .

Analysis of symmetry for dynamics (positions and initial velocities):
 Subroutine PRICEL returns:
 Original cell was already a primitive cell.

 Routine SETGRP: Setting up the symmetry group for a
 simple orthorhombic supercell.

 Subroutine GETGRP returns: Found  1 space group operations
 (whereof  1 operations were pure point group operations)
 out of a pool of  8 trial point group operations.

The dynamic configuration has the point symmetry C_1 .

 Subroutine INISYM returns: Found  1 space group operations
 (whereof  1 operations are pure point group operations),
 and found     1 'primitive' translations

                                     Primitive cell

  volume of cell :    1909.6213

  direct lattice vectors                    reciprocal lattice vectors
     9.578410000  0.000000000  0.000000000     0.104401461  0.000000000  0.000000000
     0.000000000 11.256463038  0.000000000     0.000000000  0.088837852  0.000000000
     0.000000000  0.000000000 17.711358900     0.000000000  0.000000000  0.056460942

  length of vectors
     9.578410000 11.256463038 17.711358900     0.104401461  0.088837852  0.056460942

  position of ions in fractional coordinates (direct lattice)
     0.080767181  0.431197051  0.013202900
     0.080767181  0.379345117  0.187359134
     0.080767181  0.327493183  0.361515368
     0.580767181  0.155271092  0.100281017
     0.580767181  0.103419157  0.274437251
     0.212870181  0.188040419  0.164352573
     0.212870181  0.136188485  0.338508807
     0.712870181  0.463966379  0.077274456
     0.712870181  0.412114444  0.251430690
     0.712870181  0.360262510  0.425586924
     0.344973181  0.431197051  0.013202900
     0.344973181  0.379345117  0.187359134
     0.344973181  0.327493183  0.361515368
     0.844973181  0.155271092  0.100281017
     0.844973181  0.103419157  0.274437251
     0.080767181  0.931197051  0.013202900
     0.080767181  0.879345117  0.187359134
     0.080767181  0.827493183  0.361515368
     0.580767181  0.655271092  0.100281017
     0.580767181  0.603419157  0.274437251
     0.212870181  0.688040419  0.164352573
     0.212870181  0.636188485  0.338508807
     0.712870181  0.963966379  0.077274456
     0.712870181  0.912114444  0.251430690
     0.712870181  0.860262510  0.425586924
     0.344973181  0.931197051  0.013202900
     0.344973181  0.879345117  0.187359134
     0.344973181  0.827493183  0.361515368
     0.844973181  0.655271092  0.100281017
     0.844973181  0.603419157  0.274437251
     0.381085181  0.259043018  0.087078117
     0.381085181  0.207191084  0.261234351
     0.881085181  0.483117044  0.174156234
     0.881085181  0.431265110  0.348312467
     0.881085181  0.034968993  0.000000000
     0.212870181  0.450791303  0.290530041
     0.212870181  0.002643253  0.116373808
     0.712870181  0.278569212  0.029295691
     0.712870181  0.226717278  0.203451925
     0.712870181  0.174865344  0.377608158
     0.044655181  0.259043018  0.087078117
     0.044655181  0.207191084  0.261234351
     0.544655181  0.483117044  0.174156234
     0.544655181  0.431265110  0.348312467
     0.544655181  0.034968993  0.000000000
     0.381085181  0.759043018  0.087078117
     0.381085181  0.707191084  0.261234351
     0.381085181  0.655339150  0.435390584
     0.881085181  0.983117044  0.174156234
     0.881085181  0.931265110  0.348312467
     0.881085181  0.534968993  0.000000000
     0.212870181  0.950791303  0.290530041
     0.212870181  0.502643253  0.116373808
     0.712870181  0.778569212  0.029295691
     0.712870181  0.726717278  0.203451925
     0.044655181  0.759043018  0.087078117
     0.044655181  0.707191084  0.261234351
     0.544655181  0.983117044  0.174156234
     0.544655181  0.931265110  0.348312467
     0.544655181  0.534968993  0.000000000

  ion indices of the primitive-cell ions
   primitive index   ion index
                 1           1
[...]
     32     -63.5556      2.00000
     33     -63.5210      2.00000
     34     -63.5090      2.00000
     35     -63.5013      2.00000
     36     -63.4941      2.00000
     37     -63.4852      2.00000
     38     -63.4837      2.00000
     39     -63.4784      2.00000
     40     -63.4705      2.00000
     41     -63.4660      2.00000
     42     -63.4528      2.00000
     43     -63.4411      2.00000
     44     -63.4329      2.00000
     45     -63.4224      2.00000
     46     -63.4111      2.00000
     47     -63.3998      2.00000
     48     -63.3983      2.00000
     49     -63.3897      2.00000
     50     -63.3670      2.00000
     51     -63.3469      2.00000
     52     -63.3019      2.00000
     53     -63.2961      2.00000
     54     -63.2792      2.00000
     55     -63.1982      2.00000
     56     -63.1909      2.00000
     57     -63.1706      2.00000
     58     -63.1650      2.00000
     59     -63.1520      2.00000
     60     -63.1121      2.00000
[...]
    386       5.7095      0.00000
    387       5.7376      0.00000
    388       5.8103      0.00000
    389       5.8283      0.00000
    390       5.9388      0.00000
    391       5.9855      0.00000
    392       6.0567      0.00000
    393       6.0990      0.00000
    394       6.1785      0.00000
    395       6.2204      0.00000
    396       6.2332      0.00000
    397       6.2773      0.00000
    398       6.4031      0.00000
    399       6.4867      0.00000
    400       6.5839      0.00000

 soft charge-density along one line, spin component           1
         0         1         2         3         4         5         6         7         8         9
 total charge-density along one line

------------------------ aborting loop because EDIFF is reached ----------------------------------------

  FORCE on cell =-STRESS in cart. coord.  units (eV):
  Direction    XX          YY          ZZ          XY          YZ          ZX
  Alpha Z  1352.76224  1352.76224  1352.76224
  Ewald  148659.66419145375.75069************   -64.12553  -743.58587   244.47527
  Hartree178586.41766175954.43025************   -50.30457  -452.04514   166.96851
  E(xc)   -4184.68982 -4186.15391 -4189.80603    -0.11798    -1.08738     0.26729
  Local  ************************325874.64145   117.59260  1175.95285  -410.51991
  n-local  -570.66335  -576.44191  -577.38110    -1.01785    -5.20110     2.09732
  augment  4827.95673  4827.87928  4831.88570    -0.48109    10.54229    -1.53856
  Kinetic  9119.87135  9141.63055  9144.56065    -1.15546    24.20857    -4.03841
  Fock        0.00000     0.00000     0.00000     0.00000     0.00000     0.00000
  Total     -31.29884   -25.33328   -40.75319     0.39013     8.78423    -2.28848
  in kB     -26.25981   -21.25469   -34.19203     0.32732     7.36999    -1.92004

 VOLUME and BASIS-vectors are now :
  energy-cutoff  :      450.00
  volume of cell :     1909.62
      direct lattice vectors                 reciprocal lattice vectors
     9.578410000  0.000000000  0.000000000     0.104401461  0.000000000  0.000000000
     0.000000000 11.256463038  0.000000000     0.000000000  0.088837852  0.000000000
     0.000000000  0.000000000 17.711358900     0.000000000  0.000000000  0.056460942

  length of vectors
     9.578410000 11.256463038 17.711358900     0.104401461  0.088837852  0.056460942

 FORCES acting on ions
    electron-ion (+dipol)            ewald-force                    non-local-force                 convergence-correction
   0.154E+03 0.144E+02 0.369E+04   -.158E+03 -.123E+02 -.369E+04   0.359E+01 -.189E+01 -.522E+01   0.530E-01 -.638E-02 -.151E+00
   0.420E+03 -.223E+03 0.279E+03   -.421E+03 0.224E+03 -.280E+03   0.119E+01 -.925E-01 0.195E+01   0.995E-01 -.187E-01 -.837E-01
   0.407E+03 -.140E+03 -.353E+04   -.405E+03 0.140E+03 0.353E+04   -.267E+01 0.740E+00 0.539E+01   0.287E+00 -.485E-01 0.557E-01
   0.467E+03 -.288E+03 0.222E+04   -.468E+03 0.289E+03 -.222E+04   0.134E+01 -.153E+01 0.424E+01   -.129E+00 -.223E-01 -.204E+00
   0.433E+03 -.197E+03 -.184E+04   -.433E+03 0.198E+03 0.185E+04   0.406E+00 -.916E+00 -.176E+01   -.205E+00 0.306E-01 0.444E-01
   0.287E+01 0.482E+03 0.106E+04   -.298E+01 -.483E+03 -.106E+04   0.454E-01 0.619E+00 0.310E+01   0.513E-01 0.124E+00 -.109E-01
   0.887E+01 0.516E+03 -.311E+04   -.899E+01 -.512E+03 0.311E+04   0.705E-01 -.451E+01 0.421E+01   0.499E-01 0.323E+00 0.727E-01
   -.248E+01 0.465E+03 0.274E+04   0.253E+01 -.469E+03 -.275E+04   -.121E+00 0.330E+01 0.447E+01   0.736E-01 -.518E-01 -.161E+00
   -.139E+02 0.416E+03 -.112E+04   0.138E+02 -.417E+03 0.112E+04   0.331E-01 0.999E+00 -.392E+00   0.261E-02 0.797E-02 -.178E+00
   -.263E+02 -.453E+02 -.390E+04   0.263E+02 0.435E+02 0.389E+04   0.359E-02 0.133E+01 0.125E+02   0.586E-02 -.481E-01 0.137E+00
   -.152E+03 0.149E+02 0.369E+04   0.157E+03 -.128E+02 -.369E+04   -.358E+01 -.186E+01 -.506E+01   -.240E+00 -.146E-01 -.119E+00
   -.411E+03 -.218E+03 0.287E+03   0.412E+03 0.218E+03 -.290E+03   -.119E+01 0.144E+00 0.225E+01   -.946E-01 -.625E-01 0.133E-01
   -.380E+03 -.107E+03 -.352E+04   0.378E+03 0.107E+03 0.351E+04   0.258E+01 0.101E+01 0.549E+01   -.232E+00 -.865E-01 0.286E-01
   -.469E+03 -.288E+03 0.222E+04   0.470E+03 0.289E+03 -.222E+04   -.136E+01 -.151E+01 0.420E+01   0.394E-01 0.148E+00 -.133E+00
   -.443E+03 -.193E+03 -.185E+04   0.443E+03 0.195E+03 0.185E+04   -.287E+00 -.129E+01 -.140E+01   0.106E+00 0.231E-01 0.420E-01
   0.154E+03 0.167E+02 0.369E+04   -.158E+03 -.149E+02 -.369E+04   0.336E+01 -.157E+01 -.531E+01   0.434E+00 -.270E-02 -.905E-01
   0.426E+03 -.216E+03 0.275E+03   -.427E+03 0.216E+03 -.277E+03   0.128E+01 0.165E+00 0.236E+01   0.819E-01 0.655E-01 -.297E-01
   0.479E+03 -.157E+03 -.352E+04   -.477E+03 0.157E+03 0.351E+04   -.178E+01 0.385E+00 0.602E+01   -.182E+00 0.133E+00 0.123E+00
   0.458E+03 -.291E+03 0.221E+04   -.459E+03 0.293E+03 -.221E+04   0.136E+01 -.146E+01 0.416E+01   -.154E-01 -.345E-01 -.197E+00
   0.275E+03 -.273E+03 -.195E+04   -.275E+03 0.272E+03 0.194E+04   0.164E+00 0.862E+00 0.153E+01   0.332E-01 -.162E-01 -.458E-01
   0.104E+02 0.478E+03 0.107E+04   -.102E+02 -.479E+03 -.107E+04   -.177E+00 0.783E+00 0.310E+01   0.176E-01 0.213E-01 -.219E+00
   0.161E+03 0.526E+03 -.295E+04   -.157E+03 -.525E+03 0.296E+04   -.265E+01 -.105E+01 -.169E+01   -.770E-01 -.234E+00 0.219E-01
   -.167E+01 0.477E+03 0.274E+04   0.189E+01 -.481E+03 -.275E+04   0.105E-01 0.344E+01 0.467E+01   -.203E+00 -.697E-01 -.177E+00
   -.130E+02 0.521E+03 -.113E+04   0.129E+02 -.522E+03 0.113E+04   0.980E-01 0.145E+01 0.613E-01   -.348E-01 -.694E-01 0.604E-01
   -.488E+02 0.208E+03 -.382E+04   0.488E+02 -.197E+03 0.381E+04   -.285E-01 -.997E+01 0.131E+02   0.525E-01 0.201E-01 0.248E+00
   -.153E+03 0.166E+02 0.369E+04   0.157E+03 -.144E+02 -.369E+04   -.327E+01 -.187E+01 -.520E+01   0.218E+00 0.111E-01 -.186E+00
   -.415E+03 -.223E+03 0.287E+03   0.416E+03 0.222E+03 -.289E+03   -.121E+01 0.285E+00 0.221E+01   -.112E-01 0.142E+00 -.294E+00
   -.385E+03 -.308E+03 -.341E+04   0.386E+03 0.303E+03 0.341E+04   -.566E+00 0.341E+01 -.152E+01   0.762E-01 0.187E+00 0.818E-01
   -.464E+03 -.291E+03 0.220E+04   0.465E+03 0.293E+03 -.220E+04   -.140E+01 -.146E+01 0.415E+01   -.109E-02 -.168E+00 -.165E+00
   -.333E+03 -.285E+03 -.200E+04   0.333E+03 0.284E+03 0.200E+04   -.134E+00 0.858E+00 0.151E+01   0.177E-01 0.958E-02 -.283E-01
   -.289E+02 0.985E+02 0.110E+04   0.288E+02 -.100E+03 -.110E+04   0.196E+00 0.206E+01 0.210E+01   -.486E-01 0.405E-01 -.564E-01
   -.141E+03 0.893E+02 -.450E+03   0.143E+03 -.907E+02 0.449E+03   -.230E+01 0.107E+01 0.205E+01   -.612E-01 0.747E-01 0.650E-01
   -.147E+03 0.622E+02 0.263E+03   0.150E+03 -.634E+02 -.264E+03   -.241E+01 0.116E+01 0.838E+00   0.251E-01 -.270E-01 -.918E-01
   -.975E+02 -.864E+02 -.119E+04   0.989E+02 0.868E+02 0.119E+04   -.210E+01 -.175E+00 -.235E+00   0.154E+00 -.111E-01 -.207E-01
   -.506E+02 -.500E+02 0.158E+04   0.508E+02 0.506E+02 -.158E+04   0.622E+00 -.133E+01 0.522E+01   -.642E-01 0.523E-01 -.830E-01
   0.121E+02 -.174E+03 -.717E+03   -.119E+02 0.176E+03 0.717E+03   -.365E+00 -.247E+01 0.779E+00   0.142E-01 -.188E+00 0.375E-01
   0.110E+01 -.184E+03 0.742E+03   -.958E+00 0.186E+03 -.742E+03   -.243E+00 -.178E+01 -.103E+01   0.136E+00 -.407E-01 -.734E-01
   -.330E+00 -.600E+02 0.148E+04   0.398E+00 0.598E+02 -.149E+04   -.532E-01 0.237E+00 0.640E+01   0.123E-01 0.777E-01 -.719E-01
   -.159E+01 -.164E+03 -.126E+02   0.159E+01 0.167E+03 0.125E+02   0.166E-01 -.329E+01 0.103E+00   -.134E-01 0.421E-01 -.406E-01
   -.357E+01 0.648E+02 -.141E+04   0.357E+01 -.665E+02 0.141E+04   0.578E-01 0.199E+01 -.328E+01   -.192E-01 -.931E-01 0.448E-01
   0.296E+02 0.981E+02 0.110E+04   -.294E+02 -.998E+02 -.110E+04   -.232E+00 0.205E+01 0.211E+01   0.383E-01 0.121E+00 -.850E-01
   0.143E+03 0.879E+02 -.452E+03   -.145E+03 -.893E+02 0.451E+03   0.239E+01 0.994E+00 0.203E+01   0.888E-01 0.772E-01 0.515E-01
   0.144E+03 0.644E+02 0.268E+03   -.146E+03 -.656E+02 -.269E+03   0.251E+01 0.117E+01 0.877E+00   -.239E-01 -.426E-01 -.675E-01
   0.794E+02 -.640E+02 -.118E+04   -.806E+02 0.645E+02 0.118E+04   0.188E+01 -.267E+00 -.536E+00   -.168E+00 -.446E-01 -.309E-01
   0.506E+02 -.498E+02 0.158E+04   -.505E+02 0.507E+02 -.158E+04   -.678E+00 -.142E+01 0.527E+01   -.169E+00 -.991E-01 -.787E-01
   -.310E+02 0.983E+02 0.110E+04   0.303E+02 -.100E+03 -.110E+04   0.639E+00 0.210E+01 0.248E+01   -.105E-01 0.136E+00 -.149E+00
   -.158E+03 0.818E+02 -.425E+03   0.161E+03 -.832E+02 0.422E+03   -.299E+01 0.122E+01 0.255E+01   0.436E-01 0.238E-02 -.766E-01
   -.126E+03 0.122E+03 -.154E+04   0.128E+03 -.124E+03 0.154E+04   -.289E+01 0.292E+01 -.384E+01   0.292E-01 -.380E-01 0.118E+00
   -.150E+03 0.743E+02 0.268E+03   0.152E+03 -.756E+02 -.268E+03   -.244E+01 0.140E+01 0.797E+00   0.372E-01 -.259E-01 -.285E-01
   -.998E+02 -.304E+02 -.119E+04   0.101E+03 0.306E+02 0.119E+04   -.210E+01 -.971E+00 -.213E+00   -.376E-01 -.357E-01 0.112E+00
   -.507E+02 -.513E+02 0.158E+04   0.505E+02 0.519E+02 -.158E+04   0.877E+00 -.117E+01 0.537E+01   0.709E-01 -.854E-01 -.404E-01
   0.660E+01 -.189E+03 -.724E+03   -.650E+01 0.191E+03 0.725E+03   0.110E-01 -.238E+01 0.568E+00   -.140E-01 0.747E-01 -.458E-01
   0.177E+01 -.185E+03 0.743E+03   -.170E+01 0.187E+03 -.743E+03   -.334E-01 -.169E+01 -.877E+00   -.317E-01 -.102E+00 -.123E+00
   -.630E+00 -.585E+02 0.148E+04   0.640E+00 0.585E+02 -.148E+04   0.583E-01 -.202E-02 0.628E+01   -.452E-01 0.290E-02 -.723E-01
   -.534E+01 -.157E+03 -.455E+02   0.531E+01 0.159E+03 0.459E+02   0.749E-01 -.287E+01 0.470E+00   0.735E-02 -.122E-01 -.224E-01
   0.319E+02 0.990E+02 0.109E+04   -.316E+02 -.101E+03 -.110E+04   -.298E+00 0.208E+01 0.212E+01   0.183E-01 -.541E-01 -.187E-01
   0.169E+03 0.878E+02 -.455E+03   -.171E+03 -.892E+02 0.454E+03   0.222E+01 0.969E+00 0.201E+01   -.524E-01 0.153E-01 -.407E-01
   0.148E+03 0.727E+02 0.270E+03   -.151E+03 -.740E+02 -.271E+03   0.254E+01 0.145E+01 0.991E+00   -.751E-01 -.250E-01 -.733E-01
   0.884E+02 -.463E+02 -.119E+04   -.897E+02 0.465E+02 0.119E+04   0.211E+01 -.602E+00 -.669E+00   0.668E-01 0.182E-01 0.851E-01
   0.501E+02 -.513E+02 0.158E+04   -.500E+02 0.518E+02 -.158E+04   -.950E+00 -.110E+01 0.530E+01   -.144E-01 -.343E-01 -.561E-01
   0.873E+01 0.970E+01 -.107E+03   0.760E-12 -.881E-12 -.107E-10   -.877E+01 -.983E+01 0.109E+03   0.168E+00 0.693E-01 -.248E+01

 POSITION                                       TOTAL-FORCE (eV/Angst)
      0.77362      4.85375      0.23384        -0.366507      0.213740      1.488876
      0.77362      4.27008      3.31838        -0.230376     -0.019757     -0.037517
      0.77362      3.68641      6.40293        -0.156417      0.435431     -1.482869
      5.56283      1.74780      1.77611         0.073531      0.303128     -0.377874
      5.56283      1.16413      4.86066         0.221780      0.187245      0.438729
      2.03896      2.11667      2.91091        -0.013280     -0.210734     -0.175148
      2.03896      1.53300      5.99545        -0.002521      0.197672     -1.526741
      6.82816      5.22262      1.36864        -0.003787     -0.446019     -0.259023
      6.82816      4.63895      4.45318        -0.075993      0.243816      0.385000
      6.82816      4.05528      7.53772        -0.012780     -0.479745     -2.328203
      3.30429      4.85375      0.23384         0.391515      0.228412      1.505161
      3.30429      4.27008      3.31838         0.283855     -0.024705     -0.079976
      3.30429      3.68641      6.40293         0.220406      0.397662     -1.509682
      8.09350      1.74780      1.77611        -0.064194      0.290991     -0.408042
      8.09350      1.16413      4.86066        -0.246187      0.225808      0.486229
      0.77362     10.48199      0.23384        -0.426580      0.273731      1.483315
      0.77362      9.89832      3.31838        -0.019530     -0.018385     -0.085481
      0.77362      9.31465      6.40293        -0.644392      0.554443     -1.431603
      5.56283      7.37603      1.77611        -0.051971      0.258132     -0.337937
      5.56283      6.79237      4.86066        -0.265545     -0.277642     -0.350192
      2.03896      7.74490      2.91091        -0.023244     -0.171065     -0.309703
      2.03896      7.16123      5.99545         0.991446      0.207453      0.006807
      6.82816     10.85085      1.36864         0.031093     -0.247696     -0.277142
      6.82816     10.26718      4.45318        -0.055220     -0.120838      0.252957
      6.82816      9.68351      7.53772         0.002497      1.136618     -2.018319
      3.30429     10.48199      0.23384         0.409650      0.297124      1.483080
      3.30429      9.89832      3.31838         0.195826     -0.062819     -0.109978
      3.30429      9.31465      6.40293         0.349607     -0.825221     -0.205323
      8.09350      7.37603      1.77611         0.021050      0.248957     -0.326938
      8.09350      6.79237      4.86066         0.328783     -0.240512     -0.417650
      3.65019      2.91591      1.54227         0.020695      0.472461     -0.382918
      3.65019      2.33224      4.62682        -0.251995     -0.262909      0.971499
      8.43940      5.43819      3.08454        -0.082514     -0.040865     -0.079640
      8.43940      4.85452      6.16909        -0.517865      0.202301      0.826058
      8.43940      0.39363      0.00000         0.794661     -0.662564      0.048643
      2.03896      5.07432      5.14568        -0.148590     -0.132607      1.048316
      2.03896      0.02975      2.06114         0.034518     -0.225020     -1.150314
      6.82816      3.13570      0.51887         0.025129      0.096802      0.918246
      6.82816      2.55203      3.60341        -0.002333     -0.229075     -0.087001
      6.82816      1.96837      6.68795         0.035199      0.175050      0.004599
      0.42773      2.91591      1.54227        -0.032390      0.452435     -0.395905
      0.42773      2.33224      4.62682         0.275355     -0.316530      0.925949
      5.21693      5.43819      3.08454         0.122177     -0.067137     -0.040940
      5.21693      4.85452      6.16909         0.512446      0.126873      0.816645
      5.21693      0.39363      0.00000        -0.812239     -0.611232      0.042802
      3.65019      8.54414      1.54227         0.006852      0.367588     -0.259440
      3.65019      7.96047      4.62682        -0.120724     -0.185535      0.009698
      3.65019      7.37680      7.71136        -1.090010      1.016758     -1.350650
      8.43940     11.06642      3.08454        -0.022534      0.075343      0.075580
      8.43940     10.48275      6.16909        -0.520646     -0.856062      1.170865
      8.43940      6.02186      0.00000         0.796602     -0.588564      0.032358
      2.03896     10.70255      5.14568         0.099323      0.077970      1.118147
      2.03896      5.65799      2.06114        -0.000866     -0.151809     -1.063964
      6.82816      8.76394      0.51887         0.020628      0.038466      0.837309
      6.82816      8.18027      3.60341         0.041393     -0.327970      0.764341
      0.42773      8.54414      1.54227         0.022284      0.387823     -0.386815
      0.42773      7.96047      4.62682         0.021074     -0.454956      1.034219
      5.21693     11.06642      3.08454        -0.028053      0.074839      0.146798
      5.21693     10.48275      6.16909         0.788355     -0.430884      0.891686
      5.21693      6.02186      0.00000        -0.848449     -0.576218      0.039019
    total drift:                                0.123713     -0.068500      0.109265

  FREE ENERGIE OF THE ION-ELECTRON SYSTEM (eV)
  free  energy   TOTEN  =      -293.78383012 eV

  energy  without entropy=     -292.86328092  energy(sigma->0) =     -293.32355552