 vasp.5.4.4.18Apr17-6-g9f103f2a35 (build Aug 13 2019 17:33:20) gamma-only

 executed on             LinuxIFC date 2020.05.12  06:19:48

 INCAR:
 POTCAR:    PAW_PBE Ni_pv 06Sep2000
 POTCAR:    PAW_PBE S 06Sep2000
 POTCAR:    PAW_PBE Ni_pv 06Sep2000
   VRHFIN =Ni:

   TITEL  = PAW_PBE Ni_pv 06Sep2000
   POMASS =   58.690; ZVAL   =   16.000    mass and valenz
   ENMAX  =  367.986; ENMIN  =  275.989 eV

 POTCAR:    PAW_PBE S 06Sep2000
   VRHFIN =S : s2p4

   TITEL  = PAW_PBE S 06Sep2000
   POMASS =   32.066; ZVAL   =    6.000    mass and valenz
   ENMAX  =  258.689; ENMIN  =  194.016 eV

 Optimization of the real space projectors (new method)

 maximal supplied QI-value         = 18.90
 optimisation between [QCUT,QGAM] = [ 10.77, 21.73] = [ 32.49,132.25] Ry
 Optimized for a Real-space Cutoff    1.38 Angstroem

   l    n(q)    QCUT    max X(q) W(low)/X(q) W(high)/X(q)  e(spline)
   1      8    10.771     2.836    0.40E-04    0.29E-04    0.12E-06
   1      8    10.771     4.023    0.10E-03    0.48E-04    0.29E-06
   2      8    10.771    73.368    0.42E-03    0.97E-04    0.44E-06
   2      8    10.771    69.010    0.42E-03    0.99E-04    0.45E-06
   0      9    10.771    54.797    0.10E-03    0.56E-04    0.74E-07
   0      9    10.771    24.266    0.89E-04    0.49E-04    0.67E-07
 Optimization of the real space projectors (new method)

 maximal supplied QI-value         = 19.84
 optimisation between [QCUT,QGAM] = [ 10.71, 21.63] = [ 32.15,130.99] Ry
 Optimized for a Real-space Cutoff    1.19 Angstroem

   l    n(q)    QCUT    max X(q) W(low)/X(q) W(high)/X(q)  e(spline)
   0      8    10.715   187.594    0.41E-03    0.53E-04    0.66E-07
   0      8    10.715   164.243    0.41E-03    0.53E-04    0.65E-07
   1      7    10.715    67.533    0.19E-03    0.59E-03    0.68E-07
   1      7    10.715    50.729    0.19E-03    0.58E-03    0.67E-07
  PAW_PBE Ni_pv 06Sep2000               :
  PAW_PBE S 06Sep2000                   :

 POSCAR: Type_038 Type_138
  positions in cartesian coordinates
 exchange correlation table for  LEXCH =        8
   RHO(1)=    0.500       N(1)  =     2000
   RHO(2)=  100.500       N(2)  =     4000

 ion  position               nearest neighbor table
   1  0.780  0.145  0.128-  51 2.07  66 2.07  43 2.25  52 2.36  67 2.36
   2  0.805  0.145  0.295-  39 2.05  67 2.06  52 2.06  44 2.11
   3  0.240  0.645  0.088-  45 2.03  64 2.11  53 2.11   4 2.39  46 2.51
   4  0.297  0.645  0.222-  65 2.13  54 2.13  46 2.25  53 2.26  64 2.26   3 2.39  29 2.53  16 2.53

   5  0.397  0.145  0.134-  47 2.02  48 2.17  70 2.21  55 2.21   6 2.30
   6  0.470  0.145  0.254-  56 2.09  71 2.09  48 2.25  55 2.26  70 2.26   5 2.30  32 2.53  19 2.53

[...]

  36  0.290  0.315  0.312-  65 2.03  60 2.04  48 2.06  35 2.49
  37  0.744  0.799  0.100-  61 2.07  62 2.08  66 2.10  49 2.15
  38  0.770  0.777  0.260-  63 2.02  50 2.09  67 2.25  62 2.26  49 2.26  12 2.53  25 2.53
  39  0.906  0.145  0.365-  14 2.04  27 2.04   2 2.05
  40  0.991  0.145  0.189-  14 2.09  27 2.09  26 2.20  13 2.20  10 2.25
  41  0.474  0.645  0.094-  15 2.02  28 2.02  11 2.25  29 2.26  16 2.26
  42  0.509  0.645  0.284-  30 2.05  17 2.05  12 2.25  29 2.36  16 2.36
  43  0.647  0.145  0.126-  31 2.23  18 2.23   1 2.25  32 2.26  19 2.26  44 2.70
  44  0.680  0.145  0.288-   2 2.11  32 2.12  19 2.12  43 2.70
  45  0.126  0.645  0.047-   3 2.03  20 2.06  33 2.06
  46  0.164  0.645  0.220-  21 2.03  34 2.03   4 2.25  33 2.36  20 2.36   3 2.51
  47  0.295  0.145  0.069-   9 2.01   5 2.02  22 2.14  35 2.14
  48  0.336  0.145  0.252-  23 2.06  36 2.06   5 2.17   6 2.25  35 2.36  22 2.36
  49  0.819  0.645  0.157-  24 2.15  37 2.15   7 2.25  38 2.26  25 2.26
  50  0.845  0.645  0.327-   8 2.04  25 2.09  38 2.09
  51  0.806  0.317  0.056-   1 2.07  26 2.08  24 2.10  52 2.71
  52  0.829  0.314  0.221-   2 2.06  26 2.10  27 2.10  25 2.25   1 2.36  51 2.71
  53  0.312  0.814  0.126-  28 1.99   3 2.11  22 2.25   4 2.26  29 2.26
  54  0.351  0.793  0.303-  23 2.03  30 2.05   4 2.13  29 2.14
  55  0.484  0.314  0.158-   5 2.21  16 2.25   6 2.26  32 2.26  31 2.31
  56  0.526  0.289  0.331-  17 2.01  32 2.07   6 2.09  71 2.75
  57  0.001  0.814  0.252-   8 2.03  34 2.04  14 2.17   7 2.36  33 2.36  58 2.74
  58  0.968  0.823  0.088-   7 2.08  33 2.08  13 2.10  57 2.74
  59  0.139  0.321  0.109-   9 2.04  20 2.13  10 2.16  35 2.16  60 2.74
  60  0.175  0.297  0.273-  36 2.04  21 2.07  10 2.15  35 2.19  59 2.74
  61  0.653  0.793  0.016-  18 2.02  37 2.07  11 2.07
  62  0.657  0.814  0.189-  37 2.08  18 2.13  19 2.25  38 2.26  12 2.26  11 2.36
  63  0.695  0.791  0.356-  38 2.02  12 2.02  74 2.79
  64  0.312  0.477  0.126-  15 1.99   3 2.11  35 2.25   4 2.26  16 2.26
  65  0.351  0.498  0.303-  36 2.03  17 2.05   4 2.13  16 2.14
  66  0.806  0.973  0.056-   1 2.07  13 2.08  37 2.10  67 2.71
  67  0.829  0.977  0.221-   2 2.06  13 2.10  14 2.10  38 2.25   1 2.36  66 2.71
  68  0.001  0.477  0.252-   8 2.03  21 2.04  27 2.17   7 2.36  20 2.36  69 2.74
  69  0.968  0.467  0.088-   7 2.08  20 2.08  26 2.10  68 2.74
  70  0.484  0.977  0.158-   5 2.21  29 2.25  19 2.26   6 2.26  18 2.31
  71  0.526  0.002  0.331-  30 2.01  19 2.07   6 2.09  56 2.75
  72  0.653  0.498  0.016-  31 2.02  24 2.07  11 2.07
  73  0.657  0.477  0.189-  24 2.08  31 2.13  32 2.25  25 2.26  12 2.26  11 2.36
  74  0.695  0.500  0.356-  25 2.02  12 2.02  63 2.79
  75  0.139  0.970  0.109-   9 2.04  33 2.13  10 2.16  22 2.16  76 2.74
  76  0.175  0.993  0.273-  23 2.04  34 2.07  10 2.15  22 2.19  75 2.74

  LATTYP: Found a simple orthorhombic cell.
 ALAT       =     9.5784100000
 B/A-ratio  =     1.7016870630
 C/A-ratio  =     1.7627867312

  Lattice vectors:

 A1 = (   0.0000000000,   9.5784100000,   0.0000000000)
 A2 = (   0.0000000000,   0.0000000000, -16.2994563815)
 A3 = ( -16.8846940542,   0.0000000000,   0.0000000000)

Analysis of symmetry for initial positions (statically):
 Subroutine PRICEL returns:
 Original cell was already a primitive cell.

 Routine SETGRP: Setting up the symmetry group for a
 simple orthorhombic supercell.

 Subroutine GETGRP returns: Found  2 space group operations
 (whereof  1 operations were pure point group operations)
 out of a pool of  8 trial point group operations.

The static configuration has the point symmetry C_1 .
 The point group associated with its full space group is C_1h.

Analysis of symmetry for dynamics (positions and initial velocities):
 Subroutine PRICEL returns:
 Original cell was already a primitive cell.

 Routine SETGRP: Setting up the symmetry group for a
 simple orthorhombic supercell.

 Subroutine GETGRP returns: Found  2 space group operations
 (whereof  1 operations were pure point group operations)
 out of a pool of  8 trial point group operations.

The dynamic configuration has the point symmetry C_1 .
 The point group associated with its full space group is C_1h.

 Subroutine INISYM returns: Found  2 space group operations
 (whereof  1 operations are pure point group operations),
 and found     1 'primitive' translations

 KPOINTS: gamma-point-only calculation. no periodi

Automatic generation of k-mesh.
Space group operators:
 irot       det(A)        alpha          n_x          n_y          n_z        tau_x        tau_y        tau_z
    1     1.000000     0.000000     1.000000     0.000000     0.000000     0.000000     0.000000     0.000000
    2    -1.000000   180.000000     0.000000     1.000000     0.000000     0.000000     0.290594     0.000000

 Subroutine IBZKPT returns following result:

 Found      1 irreducible k-points:

 Following reciprocal coordinates:
            Coordinates               Weight
  0.000000  0.000000  0.000000      1.000000

 Following cartesian coordinates:
            Coordinates               Weight
  0.000000  0.000000  0.000000      1.000000

 SYSTEM =  "Millerite NiS"
 POSCAR =  Type_038 Type_138

 Startparameter for this run:
   NWRITE =      2    write-flag & timer
   PREC   = normal    normal or accurate (medium, high low for compatibility)
   ISTART =      0    job   : 0-new  1-cont  2-samecut
   ICHARG =      2    charge: 1-file 2-atom 10-const
   ISPIN  =      1    spin polarized calculation?
   LNONCOLLINEAR =      F non collinear calculations
   LSORBIT =      F    spin-orbit coupling
   INIWAV =      1    electr: 0-lowe 1-rand  2-diag
   LASPH  =      F    aspherical Exc in radial PAW
   METAGGA=      F    non-selfconsistent MetaGGA calc.

 Electronic Relaxation 1
   ENCUT  =  450.0 eV  33.07 Ry    5.75 a.u.  29.20 16.57 28.19*2*pi/ulx,y,z
   ENINI  =  450.0     initial cutoff
   ENAUG  =  703.4 eV  augmentation charge cutoff
   NELM   =    100;   NELMIN=  2; NELMDL= -5     # of ELM steps
   EDIFF  = 0.1E-03   stopping-criterion for ELM
   LREAL  =      T    real-space projection
   NLSPLINE    = F    spline interpolate recip. space projectors
   LCOMPAT=      F    compatible to vasp.4.4
   GGA_COMPAT  = T    GGA compatible to vasp.4.4-vasp.4.6
   LMAXPAW     = -100 max onsite density
   LMAXMIX     =    2 max onsite mixed and CHGCAR
   VOSKOWN=      0    Vosko Wilk Nusair interpolation
   ROPT   =   -0.00050  -0.00050
 Ionic relaxation
   EDIFFG = 0.1E-02   stopping-criterion for IOM
   NSW    =      0    number of steps for IOM
   NBLOCK =      1;   KBLOCK =      1    inner block; outer block
   IBRION =     -1    ionic relax: 0-MD 1-quasi-New 2-CG
   NFREE  =      0    steps in history (QN), initial steepest desc. (CG)
   ISIF   =      2    stress and relaxation
   IWAVPR =     10    prediction:  0-non 1-charg 2-wave 3-comb
   ISYM   =      2    0-nonsym 1-usesym 2-fastsym
   LCORR  =      T    Harris-Foulkes like correction to forces

   POTIM  = 0.5000    time-step for ionic-motion
   TEIN   =    0.0    initial temperature
   TEBEG  =    0.0;   TEEND  =   0.0 temperature during run
   SMASS  =  -3.00    Nose mass-parameter (am)
   estimated Nose-frequenzy (Omega)   =  0.10E-29 period in steps =****** mass=  -0.652E-26a.u.
   SCALEE = 1.0000    scale energy and forces
   NPACO  =    256;   APACO  = 16.0  distance and # of slots for P.C.
   PSTRESS=    0.0 pullay stress

  Mass of Ions in am
   POMASS =  58.69 32.07
  Ionic Valenz
   ZVAL   =  16.00  6.00
  Atomic Wigner-Seitz radii
  virtual crystal weights
   VCA    =   1.00  1.00
   NELECT =     836.0000    total number of electrons
   NUPDOWN=      -1.0000    fix difference up-down

 DOS related values:
   EMIN   =  10.00;   EMAX   =-10.00  energy-range for DOS
   EFERMI =   0.00
   ISMEAR =     0;   SIGMA  =   0.20  broadening in eV -4-tet -1-fermi 0-gaus

 Electronic relaxation 2 (details)
   IALGO  =     38    algorithm
   LDIAG  =      T    sub-space diagonalisation (order eigenvalues)
   LSUBROT=      F    optimize rotation matrix (better conditioning)
   TURBO    =      0    0=normal 1=particle mesh
   IRESTART =      0    0=no restart 2=restart with 2 vectors
   NREBOOT  =      0    no. of reboots
   NMIN     =      0    reboot dimension
   EREF     =   0.00    reference energy to select bands
   IMIX   =      4    mixing-type and parameters
     AMIX     =   0.40;   BMIX     =  1.00
     AMIX_MAG =   1.60;   BMIX_MAG =  1.00
     AMIN     =   0.10
     WC   =   100.;   INIMIX=   1;  MIXPRE=   1;  MAXMIX= -45

[...]

  length of vectors
    16.884694054  9.578410000 16.299456382     0.059225237  0.104401461  0.061351739

 FORCES acting on ions
    electron-ion (+dipol)            ewald-force                    non-local-force                 convergence-correction
   0.281E+03 -.955E-03 0.187E+04   -.286E+03 -.156E-08 -.188E+04   0.457E+01 0.000E+00 0.649E+01   -.889E-02 0.296E-05 -.155E+00
   0.408E+03 -.993E-03 -.297E+04   -.413E+03 0.177E-07 0.297E+04   0.276E+01 0.000E+00 -.374E+01   0.675E-01 0.149E-05 0.107E+00
   0.504E+03 -.941E-03 0.296E+04   -.510E+03 -.233E-08 -.297E+04   0.541E+01 0.000E+00 0.555E+01   0.297E+00 -.163E-05 -.437E+00
   0.675E+03 -.815E-03 -.129E+04   -.678E+03 -.144E-07 0.130E+04   0.214E+01 0.000E+00 -.258E+01   -.595E-02 -.170E-05 -.350E+00
   -.216E+03 -.835E-03 0.223E+04   0.220E+03 0.675E-07 -.224E+04   -.269E+01 0.000E+00 0.389E+01   -.429E+00 0.254E-05 -.588E+00
   0.217E+03 -.873E-03 -.183E+04   -.219E+03 0.345E-07 0.184E+04   0.204E+01 0.000E+00 -.511E+01   -.159E+00 0.225E-05 -.148E+00
   0.434E+03 -.778E-03 0.118E+04   -.439E+03 0.140E-07 -.119E+04   0.417E+01 0.000E+00 0.407E+01   0.108E+00 -.945E-06 -.197E+00
   0.667E+00 -.922E-03 -.340E+04   -.387E+01 0.400E-07 0.340E+04   0.325E+01 0.000E+00 0.154E+01   0.123E+00 0.960E-06 0.150E+00
   0.534E+03 -.123E-02 0.402E+04   -.539E+03 0.180E-07 -.403E+04   0.327E+01 0.000E+00 0.447E+01   0.629E-01 -.229E-06 -.323E+00
   0.909E+03 -.811E-03 -.345E+03   -.916E+03 -.156E-07 0.349E+03   0.462E+01 0.000E+00 -.138E+01   0.374E+00 0.102E-05 -.118E+01
   0.328E+03 -.943E-03 0.234E+04   -.332E+03 -.689E-07 -.234E+04   0.438E+01 0.000E+00 0.487E+01   -.240E+00 -.480E-06 -.251E+00
   0.360E+03 -.810E-03 -.247E+04   -.366E+03 -.326E-07 0.247E+04   0.402E+01 0.000E+00 -.525E+01   -.286E-01 -.799E-06 -.511E-01
   -.524E+03 0.230E+03 0.232E+04   0.528E+03 -.233E+03 -.232E+04   -.355E+01 0.349E+01 0.452E+01   0.280E+00 0.976E-01 -.201E+00
   -.526E+03 0.393E+03 -.242E+04   0.529E+03 -.398E+03 0.242E+04   -.213E+01 0.343E+01 -.351E+01   0.171E+00 0.938E-01 0.225E-01
   -.227E+02 0.736E+03 0.386E+04   0.211E+02 -.731E+03 -.386E+04   0.176E+01 -.553E+01 -.158E+01   -.140E+00 0.220E+00 -.325E+00
   -.232E+03 0.445E+03 -.143E+02   0.233E+03 -.448E+03 0.141E+02   -.126E+01 0.307E+01 -.183E+00   -.124E+00 0.286E-01 -.576E+00
   -.112E+03 0.144E+03 -.373E+04   0.115E+03 -.146E+03 0.372E+04   -.244E+01 0.270E+01 0.238E+01   -.733E-01 -.767E-02 0.636E-01
   0.267E+03 -.448E+03 0.292E+04   -.268E+03 0.450E+03 -.292E+04   0.796E+00 -.145E+01 0.666E+01   -.175E+00 -.455E-01 -.294E+00
   -.353E+03 0.178E+03 -.120E+04   0.355E+03 -.181E+03 0.120E+04   -.142E+01 0.280E+01 -.435E+01   -.491E-01 -.344E-01 -.151E+00
   0.855E+02 0.486E+03 0.182E+04   -.861E+02 -.488E+03 -.183E+04   0.546E+00 0.163E+01 0.510E+01   0.302E+00 -.341E+00 -.324E+00
   -.264E+02 0.226E+03 -.290E+04   0.273E+02 -.229E+03 0.290E+04   -.839E+00 0.299E+01 0.136E+01   0.947E-01 -.146E+00 -.399E-01
   0.440E+02 0.510E+03 0.825E+03   -.421E+02 -.516E+03 -.825E+03   -.915E+00 0.467E+01 0.154E+01   -.439E+00 0.442E+00 -.102E+01
   0.266E+03 0.439E+02 -.342E+04   -.264E+03 -.477E+02 0.342E+04   -.188E+01 0.391E+01 0.191E+01   -.110E+00 0.798E-01 -.605E-01
   -.682E+03 0.135E+03 0.258E+04   0.688E+03 -.137E+03 -.259E+04   -.533E+01 0.296E+01 0.621E+01   -.593E-01 0.331E-01 -.207E+00
   -.476E+03 0.510E+03 -.190E+04   0.478E+03 -.514E+03 0.190E+04   -.176E+01 0.368E+01 -.497E+01   -.477E-01 -.454E-01 -.801E-01
   -.524E+03 -.230E+03 0.232E+04   0.528E+03 0.233E+03 -.232E+04   -.355E+01 -.349E+01 0.452E+01   0.280E+00 -.976E-01 -.202E+00
   -.526E+03 -.393E+03 -.242E+04   0.529E+03 0.398E+03 0.242E+04   -.213E+01 -.343E+01 -.351E+01   0.171E+00 -.938E-01 0.225E-01
   -.227E+02 -.736E+03 0.386E+04   0.211E+02 0.731E+03 -.386E+04   0.176E+01 0.553E+01 -.158E+01   -.140E+00 -.220E+00 -.325E+00
   -.232E+03 -.445E+03 -.143E+02   0.233E+03 0.448E+03 0.141E+02   -.126E+01 -.307E+01 -.183E+00   -.124E+00 -.286E-01 -.576E+00
   -.112E+03 -.144E+03 -.373E+04   0.115E+03 0.146E+03 0.372E+04   -.244E+01 -.270E+01 0.238E+01   -.733E-01 0.767E-02 0.636E-01
   0.267E+03 0.448E+03 0.292E+04   -.268E+03 -.450E+03 -.292E+04   0.796E+00 0.145E+01 0.666E+01   -.175E+00 0.455E-01 -.294E+00
   -.353E+03 -.178E+03 -.120E+04   0.355E+03 0.181E+03 0.120E+04   -.142E+01 -.280E+01 -.435E+01   -.491E-01 0.344E-01 -.151E+00
   0.855E+02 -.486E+03 0.182E+04   -.861E+02 0.488E+03 -.183E+04   0.546E+00 -.163E+01 0.510E+01   0.302E+00 0.341E+00 -.324E+00
   -.264E+02 -.226E+03 -.290E+04   0.273E+02 0.229E+03 0.290E+04   -.839E+00 -.299E+01 0.136E+01   0.947E-01 0.146E+00 -.399E-01
   0.440E+02 -.510E+03 0.825E+03   -.421E+02 0.516E+03 -.825E+03   -.915E+00 -.467E+01 0.154E+01   -.439E+00 -.442E+00 -.102E+01
   0.266E+03 -.439E+02 -.342E+04   -.264E+03 0.477E+02 0.342E+04   -.188E+01 -.391E+01 0.191E+01   -.110E+00 -.798E-01 -.605E-01
   -.682E+03 -.135E+03 0.258E+04   0.688E+03 0.137E+03 -.259E+04   -.533E+01 -.296E+01 0.621E+01   -.593E-01 -.331E-01 -.207E+00
   -.476E+03 -.510E+03 -.190E+04   0.478E+03 0.514E+03 0.190E+04   -.176E+01 -.368E+01 -.497E+01   -.477E-01 0.454E-01 -.801E-01
   -.135E+03 -.609E-05 -.173E+04   0.135E+03 0.133E-07 0.173E+04   0.327E+00 0.000E+00 -.695E+00   0.475E-01 -.543E-07 0.410E-01
   -.305E+03 -.697E-05 0.178E+03   0.307E+03 -.529E-08 -.178E+03   0.453E+00 0.000E+00 -.131E+01   0.161E+00 0.315E-06 -.898E-01
   -.290E+03 -.485E-05 0.949E+03   0.292E+03 -.310E-07 -.950E+03   0.571E+00 0.000E+00 0.176E+01   -.248E+00 -.520E-06 -.272E+00
   -.202E+03 -.386E-04 -.822E+03   0.204E+03 -.283E-07 0.824E+03   -.541E+00 0.000E+00 -.155E+01   -.194E-01 -.481E-06 -.245E-01
   -.741E+02 -.100E-04 0.855E+03   0.756E+02 -.196E-07 -.860E+03   -.842E+00 0.000E+00 0.274E+01   -.466E-01 0.536E-06 -.972E-01
   -.117E+03 -.193E-04 -.112E+04   0.119E+03 0.557E-08 0.113E+04   -.939E+00 0.000E+00 -.167E+01   0.177E-01 0.495E-06 0.152E-01
   0.126E+03 0.108E-04 0.160E+04   -.126E+03 0.621E-08 -.161E+04   0.375E+00 0.000E+00 0.239E+01   0.778E-01 -.646E-06 -.129E+00
   -.765E+02 0.264E-04 -.342E+03   0.765E+02 0.206E-07 0.346E+03   0.179E+01 0.000E+00 -.353E+01   0.309E-01 -.396E-06 -.712E-01
   -.183E+03 -.299E-04 0.150E+04   0.186E+03 0.223E-07 -.150E+04   -.403E+00 0.000E+00 0.174E+01   -.581E+00 0.780E-06 -.273E+00
   -.492E+02 0.434E-04 -.703E+03   0.493E+02 0.272E-07 0.708E+03   0.125E+01 0.000E+00 -.402E+01   -.718E-01 0.728E-06 -.103E+00
   -.311E+03 0.221E-05 0.485E+03   0.313E+03 -.297E-08 -.487E+03   -.812E+00 0.000E+00 0.175E+01   -.530E-01 -.672E-06 -.834E-01
   -.126E+03 -.914E-05 -.138E+04   0.128E+03 0.727E-08 0.139E+04   -.126E+01 0.000E+00 -.278E+01   -.118E-01 -.986E-07 0.459E-01
   -.866E+02 -.349E+02 0.149E+04   0.864E+02 0.347E+02 -.150E+04   0.468E+00 0.757E+00 0.358E+01   -.360E-02 0.205E-01 -.101E+00
   0.830E+02 -.188E+03 -.308E+03   -.846E+02 0.191E+03 0.309E+03   0.380E+00 -.129E+01 -.529E+00   0.253E-01 -.752E-02 0.278E-02
   0.184E+03 -.261E+03 0.680E+03   -.185E+03 0.264E+03 -.683E+03   -.974E-01 -.621E+00 0.288E+01   0.691E-01 0.329E-01 -.297E+00
   0.238E+03 0.359E+02 -.124E+04   -.240E+03 -.352E+02 0.124E+04   0.233E+00 -.225E+00 -.274E+01   -.285E-01 0.170E-01 -.486E-03
   0.362E+02 -.159E+02 0.569E+03   -.384E+02 0.178E+02 -.571E+03   0.179E+01 -.123E+01 0.113E+01   -.799E-01 0.294E-01 -.155E+00
   -.134E+03 0.592E+02 -.147E+04   0.135E+03 -.577E+02 0.148E+04   -.382E+00 -.117E+01 -.192E+01   -.355E-01 0.921E-02 0.323E-01
   0.644E+02 -.186E+03 -.603E+03   -.651E+02 0.189E+03 0.605E+03   0.104E-01 -.990E+00 -.105E+01   0.622E-01 0.918E-01 -.212E-01
   0.593E+02 -.730E+02 0.127E+04   -.604E+02 0.726E+02 -.128E+04   0.378E+00 0.110E+01 0.330E+01   0.105E+00 0.730E-01 -.115E+00
   0.256E+03 -.172E+03 0.961E+03   -.257E+03 0.173E+03 -.964E+03   0.101E+00 0.443E+00 0.238E+01   0.209E+00 -.505E+00 -.402E+00
   0.268E+03 0.478E+02 -.102E+04   -.269E+03 -.476E+02 0.102E+04   0.199E+00 0.255E+00 -.256E+01   -.156E-01 -.591E-01 -.117E+00
[...]
   -.152E+02 -.256E+03 -.161E+04   0.141E+02 0.259E+03 0.161E+04   0.682E+00 -.212E+01 -.594E+00   -.725E-02 0.121E-01 0.502E-01
   0.184E+03 0.261E+03 0.680E+03   -.185E+03 -.264E+03 -.683E+03   -.974E-01 0.621E+00 0.288E+01   0.691E-01 -.329E-01 -.297E+00
   0.238E+03 -.359E+02 -.124E+04   -.240E+03 0.352E+02 0.124E+04   0.233E+00 0.225E+00 -.274E+01   -.285E-01 -.170E-01 -.486E-03
   -.866E+02 0.349E+02 0.149E+04   0.864E+02 -.347E+02 -.150E+04   0.468E+00 -.757E+00 0.358E+01   -.360E-02 -.205E-01 -.101E+00
   0.830E+02 0.188E+03 -.308E+03   -.846E+02 -.191E+03 0.309E+03   0.380E+00 0.129E+01 -.529E+00   0.253E-01 0.752E-02 0.278E-02
   0.644E+02 0.186E+03 -.603E+03   -.651E+02 -.189E+03 0.605E+03   0.104E-01 0.990E+00 -.105E+01   0.622E-01 -.918E-01 -.212E-01
   0.593E+02 0.730E+02 0.127E+04   -.604E+02 -.726E+02 -.128E+04   0.378E+00 -.110E+01 0.330E+01   0.105E+00 -.730E-01 -.115E+00
   0.362E+02 0.159E+02 0.569E+03   -.384E+02 -.178E+02 -.571E+03   0.179E+01 0.123E+01 0.113E+01   -.799E-01 -.294E-01 -.155E+00
   -.134E+03 -.592E+02 -.147E+04   0.135E+03 0.577E+02 0.148E+04   -.382E+00 0.117E+01 -.192E+01   -.355E-01 -.921E-02 0.323E-01
   -.471E+02 0.801E+02 0.174E+04   0.475E+02 -.814E+02 -.175E+04   -.540E+00 0.414E+00 0.270E+01   -.535E-01 -.909E-03 -.795E-01
   0.347E+02 0.787E+02 -.123E+03   -.361E+02 -.791E+02 0.126E+03   -.761E-01 0.523E-01 -.128E+01   -.142E-01 0.118E-01 -.766E-01
   -.152E+02 0.256E+03 -.161E+04   0.141E+02 -.259E+03 0.161E+04   0.682E+00 0.212E+01 -.594E+00   -.725E-02 -.121E-01 0.502E-01
   0.256E+03 0.172E+03 0.961E+03   -.257E+03 -.173E+03 -.964E+03   0.101E+00 -.443E+00 0.238E+01   0.209E+00 0.505E+00 -.402E+00
   0.268E+03 -.478E+02 -.102E+04   -.269E+03 0.476E+02 0.102E+04   0.199E+00 -.255E+00 -.256E+01   -.156E-01 0.591E-01 -.117E+00
   -.649E+01 -.880E-02 -.349E+02   0.739E-12 0.497E-12 -.591E-11   0.735E+01 0.439E-14 0.484E+02   -.808E+00 -.806E-06 -.134E+02

 POSITION                                       TOTAL-FORCE (eV/Angst)
     13.17084      1.39171      2.08012        -0.109361     -0.000000      1.862437
     13.58839      1.39171      4.81638        -1.888473     -0.000000      0.805455
      4.04894      6.18092      1.43342         0.513387     -0.000000     -0.420133
      5.02033      6.18092      3.62239         0.003921     -0.000000     -0.390736
      6.70418      1.39171      2.19083         0.666598     -0.000000     -0.472750
      7.93172      1.39171      4.13648         0.074623     -0.000000     -0.729596
     16.08224      6.18092      2.59421        -0.476243     -0.000000      1.442204
     16.29396      6.18092      5.17685         0.173982     -0.000000      1.025588
      2.99534      1.39171      0.81487        -0.798422     -0.000000     -2.009969
      2.10894      1.39171      3.10830        -1.535432     -0.000000      0.930272
     10.25945      6.18092      1.56603        -0.267328     -0.000000      0.896120
     10.84312      6.18092      4.65057        -2.025876     -0.000000     -2.005729
     15.34833      0.06186      2.01727         0.722430      0.518665     -0.656316
     15.87895      0.09190      4.47658         0.822373     -1.324590      0.387677
      6.63469      4.97936      0.66894         0.044174     -0.431259     -1.150890
      7.17375      4.91558      3.21491         0.436059     -0.151993     -1.015085
      7.86015      4.49208      5.52478         0.217318      0.299246      1.073293
     10.18654      8.93010      1.52542        -1.097494      0.800208      0.104953
     10.08514      0.12638      3.72900         0.340492      0.160455     -0.792764
      1.35096      4.91558      2.18673         0.196352     -0.443151      1.515281
      1.97891      4.65298      4.68176         0.139477     -0.096492      1.144287
      4.26235      0.12638      2.70082         0.557765     -0.888288      0.111574
      4.89252      9.34049      5.08262        -0.137642      0.232877      0.823668
     12.56986      4.71120      1.62959         0.656985      0.702316      0.091050
     12.99653      4.91558      4.24309         1.010330     -0.557063     -2.381415
     15.34833      2.72157      2.01727         0.722430     -0.518665     -0.656316
     15.87895      2.69152      4.47658         0.822373      1.324590      0.387677
      6.63469      7.38248      0.66894         0.044174      0.431259     -1.150890
      7.17375      7.44626      3.21491         0.436059      0.151993     -1.015085
      7.86015      7.86976      5.52478         0.217318     -0.299246      1.073293
     10.18654      3.43173      1.52542        -1.097494     -0.800208      0.104953
     10.08514      2.65705      3.72900         0.340492     -0.160455     -0.792764
      1.35096      7.44626      2.18673         0.196352      0.443151      1.515281
      1.97891      7.70886      4.68176         0.139477      0.096492      1.144287
      4.26235      2.65705      2.70082         0.557765      0.888288      0.111574
      4.89252      3.02135      5.08262        -0.137642     -0.232877      0.823668
     12.56986      7.65064      1.62959         0.656985     -0.702316      0.091050
     12.99653      7.44626      4.24309         1.010330      0.557063     -2.381415
     15.29917      1.39171      5.94240         0.541865     -0.000000      4.292310
     16.74052      1.39171      3.07977         2.057888     -0.000000     -1.754595
      8.00634      6.18092      1.53750         2.506646     -0.000000     -0.246028
      8.59001      6.18092      4.62204         1.613085     -0.000000      0.306980
     10.91773      1.39171      2.05159         0.602730     -0.000000     -2.160642
     11.48360      1.39171      4.69184         0.966853     -0.000000      2.478180
      2.13075      6.18092      0.75922         0.116516     -0.000000     -4.031010
      2.76722      6.18092      3.59386         1.762863     -0.000000     -0.029262
      4.98360      1.39171      1.12965         1.700817     -0.000000     -3.109335
      5.67861      1.39171      4.10795         1.209780     -0.000000      0.912819
     13.82913      6.18092      2.56568         1.521024     -0.000000     -0.873289
     14.25960      6.18092      5.32614         0.890185     -0.000000      2.614769
     13.61110      3.03855      0.91271         0.202306      0.595543     -2.857463
     13.99844      3.00295      3.59863        -1.194965      1.753232      0.487841
      5.26426      7.79215      2.05636        -1.256859      1.540696      0.113632
      5.91936      7.59146      4.93822        -1.171822      0.498564      1.981022
      8.17565      3.00295      2.57045        -0.436738      0.750547     -1.048100
      8.87515      2.76607      5.40212         0.041282      0.303716      2.941374
      0.02514      7.79215      4.11272        -0.582276      1.464726      0.633859
     16.34326      7.88467      1.43238        -0.642313      0.745558     -2.966780
      2.34778      3.07244      1.77986        -0.899239      0.788855     -1.530979
      2.95802      2.84791      4.44663        -0.796869      0.385596      1.768323
     11.02029      7.59515      0.26400        -0.157811      0.830246     -3.822972
     11.08705      7.79215      3.08454        -1.473063      0.264650      1.840087
     11.73174      7.57572      5.81041        -0.451066      1.509511      3.537812
      5.26426      4.56969      2.05636        -1.256859     -1.540696      0.113632
      5.91936      4.77037      4.93822        -1.171822     -0.498564      1.981022
     13.61110      9.32328      0.91271         0.202306     -0.595543     -2.857463
     13.99844      9.35889      3.59863        -1.194965     -1.753232      0.487841
      0.02514      4.56969      4.11272        -0.582276     -1.464726      0.633859
     16.34326      4.47716      1.43238        -0.642313     -0.745558     -2.966780
      8.17565      9.35889      2.57045        -0.436738     -0.750547     -1.048100
      8.87515      0.01736      5.40212         0.041282     -0.303716      2.941374
     11.02029      4.76669      0.26400        -0.157811     -0.830246     -3.822972
     11.08705      4.56969      3.08454        -1.473063     -0.264650      1.840087
     11.73174      4.78612      5.81041        -0.451066     -1.509511      3.537812
      2.34778      9.28940      1.77986        -0.899239     -0.788855     -1.530979
      2.95802      9.51393      4.44663        -0.796869     -0.385596      1.768323
    total drift:                                0.045613     -0.008805      0.120917

  FREE ENERGIE OF THE ION-ELECTRON SYSTEM (eV)
  free  energy   TOTEN  =      -362.90165419 eV

  energy  without entropy=     -361.78582779  energy(sigma->0) =     -362.34374099