 vasp.5.4.4.18Apr17-6-g9f103f2a35 (build Aug 13 2019 17:33:20) gamma-only

 executed on             LinuxIFC date 2020.05.10  22:21:45

 INCAR:
 POTCAR:    PAW_PBE Ni_pv 06Sep2000
 POTCAR:    PAW_PBE S 06Sep2000
 POTCAR:    PAW_PBE Ni_pv 06Sep2000
   VRHFIN =Ni:

   TITEL  = PAW_PBE Ni_pv 06Sep2000
   POMASS =   58.690; ZVAL   =   16.000    mass and valenz
   ENMAX  =  367.986; ENMIN  =  275.989 eV

 POTCAR:    PAW_PBE S 06Sep2000
   VRHFIN =S : s2p4

   TITEL  = PAW_PBE S 06Sep2000
   POMASS =   32.066; ZVAL   =    6.000    mass and valenz
   ENMAX  =  258.689; ENMIN  =  194.016 eV

 Optimization of the real space projectors (new method)

 maximal supplied QI-value         = 18.90
 optimisation between [QCUT,QGAM] = [ 10.77, 21.73] = [ 32.49,132.25] Ry
 Optimized for a Real-space Cutoff    1.38 Angstroem

   l    n(q)    QCUT    max X(q) W(low)/X(q) W(high)/X(q)  e(spline)
   1      8    10.771     2.836    0.40E-04    0.29E-04    0.12E-06
   1      8    10.771     4.023    0.10E-03    0.48E-04    0.29E-06
   2      8    10.771    73.368    0.42E-03    0.97E-04    0.44E-06
   2      8    10.771    69.010    0.42E-03    0.99E-04    0.45E-06
   0      9    10.771    54.797    0.10E-03    0.56E-04    0.74E-07
   0      9    10.771    24.266    0.89E-04    0.49E-04    0.67E-07
 Optimization of the real space projectors (new method)

 maximal supplied QI-value         = 19.84
 optimisation between [QCUT,QGAM] = [ 10.71, 21.63] = [ 32.15,130.99] Ry
 Optimized for a Real-space Cutoff    1.19 Angstroem

   l    n(q)    QCUT    max X(q) W(low)/X(q) W(high)/X(q)  e(spline)
   0      8    10.715   187.594    0.41E-03    0.53E-04    0.66E-07
   0      8    10.715   164.243    0.41E-03    0.53E-04    0.65E-07
   1      7    10.715    67.533    0.19E-03    0.59E-03    0.68E-07
   1      7    10.715    50.729    0.19E-03    0.58E-03    0.67E-07
  PAW_PBE Ni_pv 06Sep2000               :
  PAW_PBE S 06Sep2000                   :

 POSCAR: Type_052 Type_152
  positions in cartesian coordinates
 exchange correlation table for  LEXCH =        8
   RHO(1)=    0.500       N(1)  =     2000
   RHO(2)=  100.500       N(2)  =     4000

 ion  position               nearest neighbor table
   1  0.261  0.479  0.291-  79 2.25  63 2.26  87 2.26  59 2.36  64 2.36   8 2.53  23 2.53
   2  0.355  0.385  0.419-  65 2.18  80 2.20  57 2.23  59 2.26  64 2.26  71 2.36   9 2.53  24 2.53

   3  0.436  0.291  0.525-  71 2.04  96 2.04  57 2.05  65 2.08  18 2.44
   4  0.053  0.259  0.095-  60 1.97  68 1.99  69 2.08  26 2.30   5 2.45  13 2.50  62 2.61
   5  0.167  0.073  0.162-  88 2.14  69 2.25  60 2.26  61 2.36  89 2.36   4 2.45  13 2.51  38 2.53
                            32 2.53
   6  0.088  0.977  0.459-  84 2.07  54 2.08  83 2.09  78 2.17  22 2.46
   7  0.274  0.333  0.128-  62 2.06  55 2.07  60 2.25  56 2.36  63 2.36  12 2.53  31 2.53
   8  0.368  0.239  0.257-  61 2.25  63 2.26  56 2.26  64 2.36  66 2.36   1 2.53  23 2.53
   9  0.462  0.145  0.385-  65 2.07  85 2.25  64 2.26  66 2.26  67 2.36   2 2.53  24 2.53
  10  0.000  0.372  0.257-  63 2.25  69 2.26 100 2.26  53 2.36  72 2.36  14 2.53  21 2.53
  11  0.094  0.278  0.385-  58 2.00  54 2.13  64 2.25  53 2.26  72 2.26  22 2.53  15 2.53
  12  0.406  0.465  0.128-  55 2.05  86 2.09  75 2.25  56 2.36  87 2.36  31 2.53   7 2.53
  13  0.189  0.031  0.054-  81 2.02  88 2.03  60 2.05   4 2.50   5 2.51
  14  0.761  0.479  0.291-  92 2.25  76 2.26 100 2.26  72 2.36  77 2.36  21 2.53  10 2.53
  15  0.855  0.385  0.419-  58 1.98  93 2.25  72 2.26  77 2.26  22 2.53  11 2.53
  16  0.529  0.221  0.088-  55 2.04  56 2.13  73 2.25 101 2.38  17 2.40  27 2.51  19 2.53
  17  0.667  0.073  0.162-  56 2.25  73 2.26 101 2.26  74 2.36 102 2.36  16 2.40  51 2.53  45 2.53

  18  0.538  0.059  0.494-  67 2.04  96 2.05  65 2.09  97 2.11   3 2.44
  19  0.660  0.326  0.040-  75 2.05  73 2.07  20 2.41  16 2.53
  20  0.774  0.333  0.128-  73 2.25  75 2.26  68 2.26  69 2.36  76 2.36  19 2.41  26 2.53  42 2.53

[...]

  46  0.868  0.739  0.257- 100 2.25 102 2.26  95 2.26 103 2.36  79 2.36  39 2.53  35 2.53
  47  0.962  0.645  0.385- 104 2.08  80 2.11  72 2.25 103 2.26  79 2.26  40 2.53  36 2.53
  48  0.500  0.872  0.257- 102 2.25  82 2.26  61 2.26  92 2.36  85 2.36  28 2.53  33 2.53
  49  0.594  0.778  0.385- 103 2.25  92 2.26  85 2.26  93 2.36  97 2.36  34 2.53  29 2.53
  50  0.687  0.696  0.495-  93 2.04  70 2.05  97 2.05 104 2.09
  51  0.906  0.965  0.128-  88 2.05  73 2.26  94 2.31  95 2.36  74 2.36  17 2.53  45 2.53
  52  0.715  0.524  0.044-  68 2.01  75 2.05  99 2.05  41 2.50
  53  0.073  0.167  0.306-  28 2.25  11 2.26  22 2.26  10 2.36  21 2.36  54 2.56
  54  0.170  0.072  0.407-   6 2.08  11 2.13  22 2.16  29 2.22  53 2.56  83 2.57
  55  0.362  0.379  0.058-  16 2.04  12 2.05   7 2.07
  56  0.479  0.261  0.178-  16 2.13  17 2.25   8 2.26  23 2.26   7 2.36  12 2.36
  57  0.272  0.465  0.507-   3 2.05  37 2.05   2 2.23  80 2.63  71 2.70  65 2.77
  58  0.018  0.344  0.464-  15 1.98  11 2.00
  59  0.436  0.472  0.350-  34 2.25   2 2.26  24 2.26   1 2.36  23 2.36
  60  0.248  0.160  0.093-   4 1.97  13 2.05   7 2.25   5 2.26  38 2.26
  61  0.342  0.066  0.221-   8 2.25  28 2.26  48 2.26   5 2.36  38 2.36
  62  0.083  0.473  0.109-   7 2.06  26 2.08  31 2.14   4 2.61  63 2.76
  63  0.174  0.397  0.221-  10 2.25   8 2.26   1 2.26   7 2.36  31 2.36  62 2.76
  64  0.268  0.303  0.350-  11 2.25   2 2.26   9 2.26   1 2.36   8 2.36
  65  0.359  0.210  0.462-   9 2.07   3 2.08  18 2.09   2 2.18  57 2.77
  66  0.573  0.167  0.306-  39 2.25  24 2.26   9 2.26  23 2.36   8 2.36
  67  0.667  0.073  0.435-  18 2.04  25 2.04  40 2.25  24 2.36   9 2.36
  68  0.885  0.355  0.050-   4 1.99  52 2.01  26 2.26  20 2.26
  69  0.979  0.261  0.178-   4 2.08   5 2.25  21 2.26  10 2.26  20 2.36  26 2.36
  70  0.602  0.644  0.564-  30 2.04  43 2.05  50 2.05
  71  0.530  0.378  0.478-   3 2.04  25 2.08  43 2.15  24 2.36   2 2.36  57 2.70
  72  0.936  0.472  0.350-  47 2.25  15 2.26  11 2.26  14 2.36  10 2.36
  73  0.748  0.160  0.093-  27 2.03  19 2.07  20 2.25  16 2.25  17 2.26  51 2.26
  74  0.842  0.066  0.221-  21 2.25  39 2.26  35 2.26  17 2.36  51 2.36
  75  0.580  0.491  0.093-  52 2.05  19 2.05  12 2.25  20 2.26  42 2.26  41 2.51
  76  0.674  0.397  0.221-  23 2.25  21 2.26  14 2.26  20 2.36  42 2.36
  77  0.768  0.303  0.350-  24 2.25  15 2.26  22 2.26  14 2.36  21 2.36
  78  0.898  0.150  0.469-  22 2.05  25 2.13   6 2.17
  79  0.073  0.667  0.306-   1 2.25  36 2.26  47 2.26  35 2.36  46 2.36  80 2.53
  80  0.166  0.564  0.405-  37 2.06  47 2.11   2 2.20  36 2.21  79 2.53  57 2.63
  81  0.368  0.869  0.054-  13 2.02  41 2.02  32 2.13  38 2.16
  82  0.479  0.761  0.178-  41 2.12  42 2.25  33 2.26  48 2.26  32 2.36  38 2.36
  83  0.256  0.956  0.505-  30 2.08   6 2.09  29 2.23  91 2.55  54 2.57
  84  0.028  0.829  0.471-   6 2.07  36 2.09  37 2.10  40 2.12
  85  0.436  0.972  0.350-   9 2.25  29 2.26  49 2.26  28 2.36  48 2.36
  86  0.258  0.657  0.110-  31 2.06  12 2.09  32 2.11  87 2.74
  87  0.342  0.566  0.221-  33 2.25   1 2.26  23 2.26  31 2.36  12 2.36  86 2.74
  88  0.078  0.978  0.109-  13 2.03  51 2.05  32 2.12   5 2.14  89 2.78
  89  0.174  0.897  0.221-  35 2.25  33 2.26  28 2.26  32 2.36   5 2.36  88 2.78
  90  0.268  0.803  0.350-  36 2.25  29 2.26  34 2.26  28 2.36  33 2.36
  91  0.362  0.709  0.478-  30 2.05  43 2.07  37 2.08  29 2.36  34 2.36  83 2.55
  92  0.573  0.667  0.306-  14 2.25  49 2.26  34 2.26  48 2.36  33 2.36
  93  0.667  0.573  0.435-  50 2.04  43 2.05  15 2.25  49 2.36  34 2.36
  94  0.875  0.840  0.056-  27 2.02  45 2.04  44 2.21  51 2.31
  95  0.979  0.761  0.178-  31 2.25  46 2.26  35 2.26  45 2.36  51 2.36
  96  0.608  0.142  0.557-   3 2.04  18 2.05  25 2.06
  97  0.530  0.878  0.478-  30 2.04  50 2.05  18 2.11  49 2.36  29 2.36
  98  0.936  0.972  0.350-  22 2.25  40 2.26  36 2.26  39 2.36  35 2.36
  99  0.748  0.660  0.093-  52 2.05  44 2.09  41 2.13  45 2.25  42 2.26  26 2.26
 100  0.842  0.566  0.221-  46 2.25  14 2.26  10 2.26  42 2.36  26 2.36
 101  0.580  0.991  0.093-  27 2.07  44 2.17  38 2.25  45 2.26  17 2.26  16 2.38
 102  0.674  0.897  0.221-  48 2.25  46 2.26  39 2.26  45 2.36  17 2.36
 103  0.768  0.803  0.350-  49 2.25  40 2.26  47 2.26  39 2.36  46 2.36 104 2.68
 104  0.845  0.721  0.459-  47 2.08  50 2.09  40 2.11 103 2.68

  LATTYP: Found a base centered orthorhombic cell.
 ALAT       =    11.8257374459
 B/A-ratio  =     1.6199260857
 C/A-ratio  =     1.9350716598

  Lattice vectors:

 A1 = (  11.2564630382,   0.0000000000,   0.0000000000)
 A2 = (  -5.0445621212, -10.0628203371,   0.0000000000)
 A3 = (   0.0000000000,   0.0000000000, -22.8836493875)

Analysis of symmetry for initial positions (statically):
 Subroutine PRICEL returns:
 Original cell was already a primitive cell.

 Routine SETGRP: Setting up the symmetry group for a
 base centered orthorhombic supercell.

 Subroutine GETGRP returns: Found  1 space group operations
 (whereof  1 operations were pure point group operations)
 out of a pool of  8 trial point group operations.

The static configuration has the point symmetry C_1 .

Analysis of symmetry for dynamics (positions and initial velocities):
 Subroutine PRICEL returns:
 Original cell was already a primitive cell.

 Routine SETGRP: Setting up the symmetry group for a
 base centered orthorhombic supercell.

 Subroutine GETGRP returns: Found  1 space group operations
 (whereof  1 operations were pure point group operations)
 out of a pool of  8 trial point group operations.

The dynamic configuration has the point symmetry C_1 .

 Subroutine INISYM returns: Found  1 space group operations
 (whereof  1 operations are pure point group operations),
 and found     1 'primitive' translations

 KPOINTS: gamma-point-only calculation. no periodi

Automatic generation of k-mesh.
Space group operators:
 irot       det(A)        alpha          n_x          n_y          n_z        tau_x        tau_y        tau_z
    1     1.000000     0.000001     1.000000     0.000000     0.000000     0.000000     0.000000     0.000000

 Subroutine IBZKPT returns following result:

 Found      1 irreducible k-points:

 Following reciprocal coordinates:
            Coordinates               Weight
  0.000000  0.000000  0.000000      1.000000

 Following cartesian coordinates:
            Coordinates               Weight
  0.000000  0.000000  0.000000      1.000000

 SYSTEM =  "Millerite NiS"
 POSCAR =  Type_052 Type_152

 Startparameter for this run:
   NWRITE =      2    write-flag & timer
   PREC   = normal    normal or accurate (medium, high low for compatibility)
   ISTART =      0    job   : 0-new  1-cont  2-samecut
   ICHARG =      2    charge: 1-file 2-atom 10-const
   ISPIN  =      1    spin polarized calculation?
   LNONCOLLINEAR =      F non collinear calculations
   LSORBIT =      F    spin-orbit coupling
   INIWAV =      1    electr: 0-lowe 1-rand  2-diag
   LASPH  =      F    aspherical Exc in radial PAW
   METAGGA=      F    non-selfconsistent MetaGGA calc.

 Electronic Relaxation 1
   ENCUT  =  450.0 eV  33.07 Ry    5.75 a.u.  19.47 19.47 39.58*2*pi/ulx,y,z
   ENINI  =  450.0     initial cutoff
   ENAUG  =  703.4 eV  augmentation charge cutoff
[...]
     0.000000000  0.000000000 22.883649388     0.000000000  0.000000000  0.043699324

  length of vectors
    11.256463038 11.256463038 22.883649388     0.099375718  0.099375718  0.043699324

 FORCES acting on ions
    electron-ion (+dipol)            ewald-force                    non-local-force                 convergence-correction
   0.325E+03 -.400E+03 -.543E+03   -.326E+03 0.400E+03 0.542E+03   0.240E+00 -.370E+00 0.759E+00   0.290E+00 -.206E+00 -.433E-01
   0.551E+03 -.378E+03 -.355E+04   -.550E+03 0.378E+03 0.355E+04   -.691E+00 0.201E+00 0.321E+01   0.362E-01 0.128E+00 0.244E+00
   0.570E+03 -.340E+03 -.611E+04   -.570E+03 0.339E+03 0.612E+04   -.594E+00 0.105E+01 -.652E+01   0.104E+00 0.657E-01 0.264E+00
   -.261E+03 -.971E+02 0.510E+04   0.263E+03 0.960E+02 -.510E+04   -.118E+01 0.630E+00 0.383E+01   -.585E-01 0.202E+00 -.179E+00
   0.238E+03 -.180E+03 0.225E+04   -.239E+03 0.181E+03 -.225E+04   0.178E+00 -.512E+00 -.260E+01   0.142E+00 0.377E-01 0.113E+00
   0.127E+03 -.277E+03 -.519E+04   -.131E+03 0.275E+03 0.519E+04   0.366E+01 0.212E+01 -.649E+01   0.932E-01 -.168E+00 0.354E+00
   0.364E+03 0.446E+02 0.399E+04   -.366E+03 -.459E+02 -.399E+04   0.154E+01 0.149E+00 0.282E+01   0.226E+00 0.322E-01 -.942E-01
   0.301E+03 0.390E+03 0.406E+03   -.303E+03 -.391E+03 -.406E+03   0.151E+01 0.840E+00 -.628E-01   0.181E+00 -.495E-01 -.666E-01
   0.349E+03 0.428E+03 -.244E+04   -.349E+03 -.430E+03 0.243E+04   0.690E+00 0.193E+01 0.240E+01   -.110E+00 -.322E-01 0.737E-01
   -.563E+03 -.807E+02 0.307E+03   0.563E+03 0.823E+02 -.308E+03   -.562E+00 -.130E+01 0.108E+01   0.118E+00 -.147E+00 -.120E+00
   -.517E+03 -.190E+03 -.310E+04   0.522E+03 0.193E+03 0.310E+04   -.394E+01 -.299E+01 -.202E+01   0.165E+00 -.122E+00 0.372E+00
   -.845E+02 -.533E+03 0.389E+04   0.860E+02 0.536E+03 -.390E+04   -.369E+00 -.297E+01 0.270E+01   0.693E-01 -.112E+00 -.155E+00
   0.342E+03 0.620E+02 0.639E+04   -.346E+03 -.599E+02 -.640E+04   0.300E+01 -.152E+01 0.406E+01   0.993E-01 0.120E+00 -.957E-01
   0.164E+03 -.379E+03 -.745E+03   -.164E+03 0.379E+03 0.745E+03   0.651E+00 -.116E+01 0.475E+00   -.491E+00 0.206E+00 0.118E+00
   -.196E+02 -.296E+03 -.420E+04   0.180E+02 0.298E+03 0.420E+04   -.310E+00 -.273E+01 -.172E+01   -.166E+00 0.172E+00 0.528E+00
   0.552E+03 -.163E+03 0.506E+04   -.553E+03 0.164E+03 -.507E+04   0.155E+01 -.173E+01 0.705E+01   0.237E+00 0.668E-02 -.255E+00
   0.104E+03 -.172E+03 0.210E+04   -.104E+03 0.171E+03 -.209E+04   -.212E+00 0.300E+00 -.422E+01   -.158E+00 0.269E+00 -.298E+00
   0.214E+03 0.592E+03 -.536E+04   -.217E+03 -.597E+03 0.536E+04   0.128E+01 0.419E+01 -.249E+01   -.663E-01 -.145E+00 0.309E+00
   0.227E+03 0.302E+02 0.631E+04   -.229E+03 -.295E+02 -.631E+04   0.175E+01 -.987E+00 -.151E+01   -.631E-01 0.459E-01 -.179E+00
   0.971E+02 0.561E+03 0.331E+04   -.966E+02 -.562E+03 -.331E+04   0.235E+00 0.348E+00 -.205E+01   -.255E+00 0.254E-01 -.479E+00
   0.222E+03 0.456E+03 0.339E+03   -.224E+03 -.457E+03 -.340E+03   0.192E+01 0.556E+00 0.208E+00   -.376E+00 -.201E+00 -.150E+00
   0.206E+03 0.550E+02 -.274E+04   -.212E+03 -.548E+02 0.274E+04   0.438E+01 0.130E+00 0.481E+00   0.148E-03 -.152E+00 0.372E+00
   -.467E+03 -.623E+02 0.410E+03   0.469E+03 0.632E+02 -.410E+03   -.156E+01 -.683E+00 -.206E+00   -.207E+00 -.276E-01 -.147E+00
   -.586E+03 -.229E+02 -.245E+04   0.588E+03 0.234E+02 0.245E+04   -.192E+01 -.696E+00 0.227E+01   -.976E-01 0.107E+00 0.235E+00
   -.956E+03 0.147E+03 -.539E+04   0.962E+03 -.148E+03 0.539E+04   -.493E+01 0.127E+01 -.227E+01   0.377E-01 0.120E+00 0.376E+00
   -.819E+03 -.444E+03 0.367E+04   0.822E+03 0.447E+03 -.366E+04   -.339E+01 -.146E+01 -.197E+01   -.139E+00 -.252E-01 -.536E+00
   -.362E+03 -.921E+02 0.632E+04   0.364E+03 0.905E+02 -.633E+04   -.186E+01 0.235E+01 0.681E+01   -.124E+00 0.121E+00 -.261E+00
   0.247E+03 -.426E+03 -.585E+03   -.248E+03 0.426E+03 0.584E+03   0.403E+00 -.535E+00 0.105E+01   0.290E+00 -.223E+00 -.923E-02
   0.124E+03 -.578E+03 -.354E+04   -.122E+03 0.577E+03 0.354E+04   -.211E+01 0.725E+00 0.288E+01   -.589E-02 -.112E+00 0.353E+00
   0.261E+03 -.529E+03 -.614E+04   -.260E+03 0.531E+03 0.615E+04   -.163E+01 -.525E+00 -.615E+01   0.136E+00 -.319E+00 0.179E+00
   0.316E+03 -.552E+03 0.305E+04   -.319E+03 0.556E+03 -.305E+04   0.205E+01 -.337E+01 0.185E+01   0.224E+00 -.154E+00 -.210E+00
   0.705E+03 0.679E+03 0.387E+04   -.709E+03 -.684E+03 -.387E+04   0.296E+01 0.432E+01 0.541E+00   0.118E+00 -.300E+00 0.161E+00
   0.326E+03 0.465E+03 0.482E+03   -.328E+03 -.466E+03 -.482E+03   0.150E+01 0.719E+00 -.283E+00   0.186E+00 0.410E-01 -.137E-01
   0.164E+03 0.486E+03 -.241E+04   -.165E+03 -.487E+03 0.241E+04   0.634E+00 0.652E+00 0.271E+01   -.146E-01 0.622E-01 0.362E+00
   -.495E+03 0.582E+02 0.537E+03   0.495E+03 -.572E+02 -.538E+03   -.343E+00 -.107E+01 0.142E+01   0.300E+00 0.818E-01 -.313E-01
   -.195E+03 0.728E+01 -.250E+04   0.198E+03 -.480E+01 0.250E+04   -.315E+01 -.226E+01 0.108E+01   0.290E+00 -.613E-01 0.503E+00
   0.444E+03 0.677E+02 -.544E+04   -.442E+03 -.666E+02 0.544E+04   -.144E+01 -.889E+00 -.341E+01   0.216E+00 0.720E-01 0.326E+00
   -.423E+03 -.333E+03 0.365E+04   0.425E+03 0.335E+03 -.365E+04   -.161E+01 -.169E+01 -.163E+00   0.219E+00 -.580E-01 0.114E+00
   0.208E+03 -.343E+03 -.662E+03   -.208E+03 0.344E+03 0.662E+03   0.497E+00 -.136E+01 0.210E+00   -.388E+00 0.403E+00 0.949E-01
   0.233E+03 -.250E+03 -.405E+04   -.235E+03 0.254E+03 0.405E+04   0.111E+01 -.275E+01 -.275E+01   -.839E-02 0.158E-01 0.447E+00
   0.479E+03 -.565E+02 0.501E+04   -.479E+03 0.558E+02 -.501E+04   -.723E+00 0.332E+00 0.456E+01   0.200E+00 -.226E+00 -.280E+00
   0.170E+03 -.221E+03 0.210E+04   -.170E+03 0.220E+03 -.209E+04   -.262E-01 0.503E+00 -.437E+01   -.211E+00 0.720E-01 -.346E+00
   -.503E+02 0.734E+03 -.537E+04   0.479E+02 -.740E+03 0.538E+04   0.113E+01 0.391E+01 -.218E+01   0.118E+00 0.207E+00 0.383E+00
   0.468E+02 0.274E+03 0.636E+04   -.458E+02 -.273E+03 -.636E+04   -.158E+01 -.131E+01 -.400E-01   -.801E-02 0.157E-01 -.326E+00
   -.259E+03 0.703E+03 0.326E+04   0.260E+03 -.705E+03 -.326E+04   -.900E+00 0.119E+01 -.305E+01   -.215E+00 0.142E+00 -.491E+00
   0.158E+03 0.504E+03 0.451E+03   -.159E+03 -.505E+03 -.452E+03   0.107E+01 0.361E+00 0.161E+01   -.282E+00 -.498E-02 -.853E-01
   0.318E+03 0.629E+03 -.301E+04   -.322E+03 -.632E+03 0.301E+04   0.326E+01 0.359E+01 -.218E+01   0.457E-01 -.431E-01 0.490E+00
   -.518E+03 -.319E+02 0.371E+03   0.520E+03 0.327E+02 -.371E+03   -.154E+01 -.829E+00 0.243E+00   -.223E+00 0.546E-01 -.846E-02
   -.632E+03 0.120E+02 -.248E+04   0.632E+03 -.114E+02 0.247E+04   -.570E+00 -.796E+00 0.302E+01   -.179E+00 0.801E-02 0.386E+00
   -.113E+04 0.341E+03 -.540E+04   0.114E+04 -.341E+03 0.540E+04   -.424E+01 0.320E+00 -.263E+01   -.311E+00 -.719E-01 0.439E+00
   -.808E+03 0.320E+03 0.383E+04   0.809E+03 -.322E+03 -.383E+04   -.185E+01 0.108E+01 -.122E+01   -.263E+00 0.189E+00 -.367E+00
   -.173E+03 -.169E+03 0.637E+04   0.173E+03 0.170E+03 -.637E+04   -.176E+00 -.273E+00 0.541E+01   -.147E+00 -.210E-01 -.293E+00
   -.738E+02 0.742E+02 -.222E+03   0.744E+02 -.755E+02 0.219E+03   -.101E+01 0.173E+01 0.109E+01   0.539E-01 -.175E+00 0.656E-01
   -.189E+03 -.125E+03 -.133E+04   0.191E+03 0.125E+03 0.132E+04   -.110E+01 -.376E-01 0.195E+01   0.188E-01 -.109E+00 0.127E+00
   0.241E+03 -.247E+03 0.249E+04   -.242E+03 0.249E+03 -.250E+04   0.140E+01 -.138E+01 0.187E+01   0.844E-01 -.229E-01 -.824E-01
   0.119E+02 0.431E+02 0.782E+03   -.112E+02 -.446E+02 -.780E+03   -.706E+00 0.126E+01 -.207E+00   0.602E-02 -.798E-02 -.162E-01
   0.428E+03 -.100E+03 -.223E+04   -.432E+03 0.101E+03 0.224E+04   0.254E+01 -.548E-01 -.278E+01   0.578E-01 0.670E-01 0.877E-01
   -.199E+03 -.940E+02 -.226E+04   0.200E+03 0.948E+02 0.226E+04   0.262E+00 -.130E+00 -.254E+00   -.834E-02 0.179E-01 0.170E+00
   -.765E+02 -.135E+03 -.630E+03   0.775E+02 0.138E+03 0.631E+03   -.332E+00 -.266E+01 -.427E+00   -.381E-01 0.316E-01 0.200E-01
   -.310E+03 -.170E+03 0.194E+04   0.314E+03 0.172E+03 -.195E+04   -.363E+00 -.202E+01 0.315E+01   0.676E-01 0.126E+00 0.118E-01
[...]
   0.267E+03 -.135E+02 -.187E+04   -.270E+03 0.116E+02 0.187E+04   0.229E+01 0.100E+01 -.153E+01   0.753E-01 -.482E-01 0.188E+00
   -.950E+02 0.133E+03 -.205E+03   0.965E+02 -.135E+03 0.202E+03   -.127E+01 0.182E+01 0.209E+01   -.114E+00 0.110E+00 -.165E-01
   -.233E+03 0.266E+03 -.133E+04   0.234E+03 -.268E+03 0.133E+04   -.647E+00 0.441E+00 -.730E+00   -.681E-01 0.789E-01 0.316E+00
   -.546E+03 0.426E+03 0.226E+04   0.551E+03 -.431E+03 -.227E+04   -.240E+01 0.273E+01 0.790E+00   -.101E+00 0.487E-01 -.175E+00
   -.141E+03 0.183E+03 0.108E+04   0.142E+03 -.184E+03 -.108E+04   -.853E+00 0.984E+00 0.186E+01   0.459E-01 -.834E-01 -.234E+00
   -.201E+03 0.216E+03 -.248E+04   0.202E+03 -.217E+03 0.248E+04   -.564E-02 0.163E+00 -.133E+01   0.961E-02 0.158E-01 0.655E-01
   -.159E+03 -.221E+03 -.181E+04   0.161E+03 0.225E+03 0.181E+04   -.566E+00 -.153E+01 -.934E+00   -.346E-01 -.144E+00 0.194E+00
   -.292E+02 -.150E+03 -.657E+03   0.306E+02 0.153E+03 0.657E+03   -.191E+01 -.244E+01 -.633E+00   0.383E-01 0.424E-01 0.183E+00
   -.366E+03 0.167E+02 0.170E+04   0.369E+03 -.160E+02 -.170E+04   -.162E+01 -.102E+00 -.305E+00   -.928E-01 0.101E-01 -.210E+00
   -.130E+03 -.160E+03 0.444E+03   0.131E+03 0.162E+03 -.444E+03   -.606E+00 -.271E+01 0.513E+00   -.127E+00 0.949E-01 -.153E+00
   0.331E+03 -.118E+03 0.173E+04   -.336E+03 0.119E+03 -.173E+04   0.256E+01 -.410E+00 0.515E+00   0.944E-01 0.248E-01 -.132E+00
   0.136E+03 0.133E+02 0.428E+03   -.139E+03 -.132E+02 -.429E+03   0.269E+01 -.291E+00 0.480E+00   -.197E+00 0.122E+00 -.565E-01
   0.136E+03 0.265E+02 -.689E+03   -.139E+03 -.261E+02 0.689E+03   0.295E+01 0.254E-01 -.548E+00   -.113E+00 0.469E-01 0.153E+00
   -.101E+03 0.176E+03 -.201E+04   0.102E+03 -.178E+03 0.201E+04   -.753E+00 0.684E+00 -.178E+01   -.128E+00 -.203E-01 0.216E+00
   -.692E+01 0.175E+02 -.224E+02   0.128E-11 0.142E-11 -.750E-11   0.694E+01 -.173E+02 0.193E+02   -.218E+00 -.114E+00 0.303E+01

 POSITION                                       TOTAL-FORCE (eV/Angst)
      5.35228      4.81788      6.64784         0.111583     -0.284375     -0.226505
      5.93595      3.87238      9.58390         0.378938     -0.129950      0.039260
      6.37924      2.92742     12.00977        -0.653141      0.353152      1.495873
      1.89971      2.60180      2.16827        -0.042256     -0.269791     -0.848090
      2.24633      0.73197      3.71178         0.003680     -0.059924      1.868974
      5.91981      9.82672     10.49874        -0.496017      0.664371      0.336407
      4.76861      3.35453      2.93606        -0.201813     -1.097331      1.650629
      5.35228      2.40903      5.87212        -0.137531      0.004251      0.032237
      5.93595      1.46353      8.80817         0.597933     -0.516280     -1.467484
      1.87746      3.73836      5.87212         0.120342      0.104014      0.128675
      2.46113      2.79286      8.80817         0.626599      0.318766     -2.032641
      6.92203      4.68386      2.93606         1.170133      0.202164      1.632898
      2.28451      0.30820      1.23869        -0.732848      0.691236     -1.610700
     10.98051      4.81788      6.64784         0.080479     -0.243470      0.063814
     11.56418      3.87238      9.58390        -2.047506      0.368827     -1.365805
      7.06292      2.22166      2.01945         0.399530     -0.585688     -0.808564
      7.87456      0.73197      3.71178         0.158517     -0.192802      0.944777
      6.34963      0.59383     11.30025        -1.319071     -1.463022      0.488318
      9.07585      3.28187      0.92352        -0.116256     -0.229697     -1.087824
     10.39684      3.35453      2.93606         0.502505     -0.285111      1.207111
     10.98051      2.40903      5.87212        -0.170693     -0.113725     -0.022300
     11.56418      1.46353      8.80817        -0.820111      0.202914     -2.439527
      7.50570      3.73836      5.87212        -0.007730      0.186593     -0.042917
      8.08937      2.79286      8.80817         0.154493     -0.086834     -0.190765
      8.84593      1.98719     11.23399         1.959294      0.257569     -0.369134
     12.55026      4.68386      2.93606        -0.598348      1.085295      1.257752
      8.22229      0.22064      1.03787        -0.071662      0.842026     -1.691987
      7.87456      9.84929      6.64784         0.098164     -0.317715     -0.048773
      8.45823      8.90379      9.58390         0.089168     -0.295901      0.151210
      8.97054      8.08285     12.18650        -0.891992      0.584306      1.711691
      4.76861      5.76338      3.71178        -0.732398      0.213017      1.803360
      7.29089      8.38594      2.93606        -0.153530     -0.980696      1.775743
      7.87456      7.44044      5.87212        -0.185577     -0.051511      0.219004
      8.45823      6.49494      8.80817         0.165910     -0.151321     -0.125896
      4.39975      8.76977      5.87212         0.007589      0.018301     -0.031756
      4.98341      7.82427      8.80817         0.437449      0.163051     -1.893189
      5.64976      6.58402     10.85809         0.142061      0.265853      0.862795
      9.44431      9.71527      2.93606         0.425583      0.336007      0.922591
     13.50279      9.84929      6.64784         0.188491     -0.224202     -0.049831
     14.08646      8.90379      9.58390        -0.772304      0.600634     -1.161449
      9.74782      7.34368      2.04360         0.229244     -0.513342     -0.827808
     10.39684      5.76338      3.71178        -0.057607     -0.479356      1.132548
      8.95749      5.59870     11.39563        -1.154463     -1.963684      0.187951
     11.92378      8.27146      0.84195        -0.571388     -0.151218     -1.042042
     12.91912      8.38594      2.93606        -0.224601     -0.325976      3.331228
     13.50279      7.44044      5.87212         0.048168      0.003379     -0.053409
     14.08646      6.49494      8.80817        -1.096938     -0.184009     -1.923252
     10.02798      8.76977      5.87212         0.032594      0.066606     -0.009653
     10.61165      7.82427      8.80817        -0.279057     -0.138150     -0.249085
     11.24182      7.00350     11.33461         2.069995      0.093684     -0.150934
     15.07254      9.71527      2.93606        -0.558192     -0.331187      0.497473
     10.69367      5.27416      1.01543        -0.231780      0.601959     -1.597576
      1.66190      1.67871      7.01153        -0.351782      0.253657     -1.197480
      2.28199      0.72895      9.30715         1.139719      0.254489      0.254247
      5.98536      3.81617      1.33122        -0.264363     -0.001008     -3.695453
      6.70646      2.62422      4.07548         0.057504     -0.218126      1.126823
      5.40515      4.68339     11.59361        -1.903483      1.144539      1.984722
      1.93938      3.46471     10.62233         1.688690      0.663770      3.759660
      7.29013      4.74605      7.99931         0.573024     -0.029772     -0.342828
      3.60051      1.60565      2.12720         3.634234     -0.145783     -0.268581
[...]
      7.07033      8.08475      7.99931         0.277834     -0.351579     -0.700421
      7.65400      7.13925     10.93537        -1.526001     -0.923006     -1.377777
      9.81241      6.71012      7.01153         0.056982      0.044115     -0.024824
     10.39608      5.76462      9.94759         0.495456     -1.665083     -2.664645
     14.08845      8.44800      1.27040         2.196763     -1.494385     -2.661246
     14.85697      7.65563      4.07548        -0.156729     -0.109578      0.181313
      7.55779      1.42508     12.73817         0.988583     -1.342087      3.906007
     10.39608      8.83196     10.93537         1.202054      2.178406     -1.312835
     15.44064      9.77746      7.99931        -0.454006      0.164279     -0.526180
     11.75102      6.63706      2.12720         1.824775      0.563536      0.668737
     12.33469      5.69156      5.06325        -0.109690      0.066522      0.143325
     11.53122      9.97575      2.12720        -2.131442      0.612291      0.081455
     12.11489      9.03025      5.06325        -0.066274     -0.095357      0.086249
     12.69856      8.08475      7.99931        -0.215692      0.439793     -0.900969
     13.14627      7.25949     10.50443         0.279158     -0.725803      2.618577
    total drift:                               -0.198398      0.089535     -0.033147

  FREE ENERGIE OF THE ION-ELECTRON SYSTEM (eV)
  free  energy   TOTEN  =      -508.98805331 eV

  energy  without entropy=     -507.63632186  energy(sigma->0) =     -508.31218758