 vasp.5.4.4.18Apr17-6-g9f103f2a35 (build Aug 13 2019 17:33:20) gamma-only

 executed on             LinuxIFC date 2020.05.10  17:13:41

 INCAR:
 POTCAR:    PAW_PBE Ni_pv 06Sep2000
 POTCAR:    PAW_PBE S 06Sep2000
 POTCAR:    PAW_PBE Ni_pv 06Sep2000
   VRHFIN =Ni:

   TITEL  = PAW_PBE Ni_pv 06Sep2000
   POMASS =   58.690; ZVAL   =   16.000    mass and valenz
   ENMAX  =  367.986; ENMIN  =  275.989 eV

 POTCAR:    PAW_PBE S 06Sep2000
   VRHFIN =S : s2p4

   TITEL  = PAW_PBE S 06Sep2000
   POMASS =   32.066; ZVAL   =    6.000    mass and valenz
   ENMAX  =  258.689; ENMIN  =  194.016 eV

 Optimization of the real space projectors (new method)

 maximal supplied QI-value         = 18.90
 optimisation between [QCUT,QGAM] = [ 10.77, 21.73] = [ 32.49,132.25] Ry
 Optimized for a Real-space Cutoff    1.38 Angstroem

   l    n(q)    QCUT    max X(q) W(low)/X(q) W(high)/X(q)  e(spline)
   1      8    10.771     2.836    0.40E-04    0.29E-04    0.12E-06
   1      8    10.771     4.023    0.10E-03    0.48E-04    0.29E-06
   2      8    10.771    73.368    0.42E-03    0.97E-04    0.44E-06
   2      8    10.771    69.010    0.42E-03    0.99E-04    0.45E-06
   0      9    10.771    54.797    0.10E-03    0.56E-04    0.74E-07
   0      9    10.771    24.266    0.89E-04    0.49E-04    0.67E-07
 Optimization of the real space projectors (new method)

 maximal supplied QI-value         = 19.84
 optimisation between [QCUT,QGAM] = [ 10.71, 21.63] = [ 32.15,130.99] Ry
 Optimized for a Real-space Cutoff    1.19 Angstroem

   l    n(q)    QCUT    max X(q) W(low)/X(q) W(high)/X(q)  e(spline)
   0      8    10.715   187.594    0.41E-03    0.53E-04    0.66E-07
   0      8    10.715   164.243    0.41E-03    0.53E-04    0.65E-07
   1      7    10.715    67.533    0.19E-03    0.59E-03    0.68E-07
   1      7    10.715    50.729    0.19E-03    0.58E-03    0.67E-07
  PAW_PBE Ni_pv 06Sep2000               :
  PAW_PBE S 06Sep2000                   :

 POSCAR: Type_048 Type_148
  positions in cartesian coordinates
 exchange correlation table for  LEXCH =        8
   RHO(1)=    0.500       N(1)  =     2000
   RHO(2)=  100.500       N(2)  =     4000

 ion  position               nearest neighbor table
   1  0.261  0.479  0.253-  75 2.25  59 2.26  81 2.26  55 2.36  60 2.36   7 2.53  21 2.53
   2  0.355  0.385  0.388-  76 2.25  55 2.26  60 2.26  61 2.36  67 2.36   3 2.39   8 2.53  22 2.53

   3  0.376  0.364  0.497-  53 2.04  61 2.08  67 2.08   2 2.39
   4  0.167  0.073  0.118-  82 2.06  56 2.09  65 2.25  57 2.36  83 2.36  30 2.39
   5  0.049  0.055  0.473-  50 2.05  78 2.08  74 2.10  79 2.15
   6  0.274  0.333  0.083-  58 2.05  51 2.07  56 2.13  52 2.36  59 2.36  28 2.44
   7  0.368  0.239  0.218-  57 2.25  59 2.26  52 2.26  60 2.36  62 2.36   1 2.53  21 2.53
   8  0.462  0.145  0.353-  80 2.25  60 2.26  62 2.26  61 2.36  63 2.36   2 2.53  22 2.53
   9  0.000  0.372  0.218-  59 2.25  65 2.26  92 2.26  24 2.34  49 2.36  68 2.36  13 2.53  19 2.53

[...]

  39  0.876  0.864  0.497-  89 2.04  96 2.08  79 2.08  38 2.39
  40  0.683  0.553  0.130-  72 2.11  71 2.11  64 2.11  92 2.16  77 2.43  18 2.44
  41  0.549  0.555  0.473-  87 2.05  66 2.08  85 2.10  67 2.15
  42  0.787  0.838  0.103-  94 2.04  88 2.05  93 2.08  16 2.39
  43  0.868  0.739  0.218-  92 2.25  94 2.26  88 2.26  95 2.36  75 2.36  37 2.53  33 2.53
  44  0.962  0.645  0.353-  68 2.25  95 2.26  75 2.26  96 2.36  76 2.36  38 2.53  34 2.53
  45  0.500  0.872  0.218-  94 2.25  77 2.26  57 2.26  86 2.36  80 2.36  25 2.53  31 2.53
  46  0.594  0.778  0.353-  95 2.25  86 2.26  80 2.26  90 2.36  87 2.36  32 2.53  26 2.53
  47  0.685  0.691  0.473-  87 2.05  66 2.08  90 2.10  96 2.15
  48  0.932  0.961  0.103-  70 2.05  82 2.10  69 2.13  88 2.19
  49  0.073  0.167  0.270-  25 2.25  10 2.26  20 2.26   9 2.36  19 2.36
  50  0.167  0.073  0.405-   5 2.05  11 2.05  26 2.25  10 2.36  20 2.36  78 2.69
  51  0.330  0.480  0.061-  12 2.07   6 2.07  28 2.11  58 2.52  52 2.79
  52  0.479  0.261  0.135-  12 2.14  16 2.25   7 2.26  21 2.26   6 2.36  51 2.79
  53  0.212  0.528  0.526-   3 2.04  29 2.08  35 2.08  76 2.69
  54  0.030  0.378  0.451-  15 2.08  11 2.10  29 2.15  10 2.36  14 2.36
  55  0.436  0.472  0.315-  32 2.25   2 2.26  22 2.26   1 2.36  21 2.36
  56  0.280  0.143  0.068-   4 2.09  36 2.13   6 2.13  57 2.59
  57  0.342  0.066  0.180-  36 2.05   7 2.25  25 2.26  45 2.26   4 2.36  56 2.59
  58  0.101  0.493  0.056-  24 2.02   6 2.05  28 2.11  51 2.52
  59  0.174  0.397  0.180-  28 2.11   9 2.25   7 2.26   1 2.26  24 2.34   6 2.36
  60  0.268  0.303  0.315-  10 2.25   2 2.26   8 2.26   7 2.36   1 2.36
  61  0.362  0.209  0.451-   3 2.08  17 2.10  11 2.15   8 2.36   2 2.36
  62  0.573  0.167  0.270-  37 2.25  22 2.26   8 2.26  21 2.36   7 2.36
  63  0.667  0.073  0.405-  17 2.05  23 2.05  38 2.25  22 2.36   8 2.36  89 2.69
  64  0.830  0.480  0.061-  24 2.07  18 2.07  40 2.11  71 2.52  65 2.79
  65  0.979  0.261  0.135-  24 2.14   4 2.25  19 2.26   9 2.26  18 2.36  64 2.79
  66  0.712  0.528  0.526-  15 2.04  41 2.08  47 2.08  87 2.69
  67  0.530  0.378  0.451-   3 2.08  23 2.10  41 2.15  22 2.36   2 2.36
  68  0.936  0.472  0.315-  44 2.25  14 2.26  10 2.26  13 2.36   9 2.36
  69  0.780  0.143  0.068-  16 2.09  48 2.13  18 2.13  70 2.59
  70  0.842  0.066  0.180-  48 2.05  19 2.25  37 2.26  33 2.26  16 2.36  69 2.59
  71  0.601  0.493  0.056-  12 2.02  18 2.05  40 2.11  64 2.52
  72  0.674  0.397  0.180-  40 2.11  21 2.25  19 2.26  13 2.26  12 2.34  18 2.36
  73  0.768  0.303  0.315-  22 2.25  14 2.26  20 2.26  19 2.36  13 2.36
  74  0.862  0.209  0.451-  15 2.08   5 2.10  23 2.15  20 2.36  14 2.36
  75  0.073  0.667  0.270-   1 2.25  34 2.26  44 2.26  33 2.36  43 2.36
  76  0.167  0.573  0.405-  35 2.05  29 2.05   2 2.25  34 2.36  44 2.36  53 2.69
  77  0.479  0.761  0.135-  30 2.05  36 2.19  31 2.26  45 2.26  40 2.43
  78  0.212  0.028  0.526-  27 2.04  11 2.08   5 2.08  50 2.69
  79  0.030  0.878  0.451-  39 2.08  35 2.10   5 2.15  34 2.36  38 2.36
  80  0.436  0.972  0.315-   8 2.25  26 2.26  46 2.26  25 2.36  45 2.36
  81  0.342  0.566  0.180-  28 2.16  12 2.17  31 2.25   1 2.26  21 2.26
  82  0.103  0.962  0.065-   4 2.06  30 2.08  48 2.10  83 2.64
  83  0.174  0.897  0.180-  30 2.04  33 2.25  31 2.26  25 2.26   4 2.36  82 2.64
  84  0.268  0.803  0.315-  34 2.25  26 2.26  32 2.26  31 2.36  25 2.36
  85  0.362  0.709  0.451-  27 2.08  41 2.10  35 2.15  32 2.36  26 2.36
  86  0.573  0.667  0.270-  13 2.25  46 2.26  32 2.26  45 2.36  31 2.36
  87  0.667  0.573  0.405-  47 2.05  41 2.05  14 2.25  46 2.36  32 2.36  66 2.69
  88  0.979  0.761  0.135-  42 2.05  48 2.19  43 2.26  33 2.26  28 2.43
  89  0.712  0.028  0.526-  39 2.04  23 2.08  17 2.08  63 2.69
  90  0.530  0.878  0.451-  27 2.08  47 2.10  17 2.15  46 2.36  26 2.36
  91  0.936  0.972  0.315-  20 2.25  38 2.26  34 2.26  37 2.36  33 2.36
  92  0.842  0.566  0.180-  40 2.16  24 2.17  43 2.25  13 2.26   9 2.26
  93  0.603  0.962  0.065-  16 2.06  42 2.08  36 2.10  94 2.64
  94  0.674  0.897  0.180-  42 2.04  45 2.25  43 2.26  37 2.26  16 2.36  93 2.64
  95  0.768  0.803  0.315-  46 2.25  38 2.26  44 2.26  43 2.36  37 2.36
  96  0.862  0.709  0.451-  39 2.08  29 2.10  47 2.15  44 2.36  38 2.36

  LATTYP: Found a base centered orthorhombic cell.
 ALAT       =    11.8257374459
 B/A-ratio  =     1.6199260857
 C/A-ratio  =     1.8387210052

  Lattice vectors:

 A1 = (  11.2564630382,   0.0000000000,   0.0000000000)
 A2 = (  -5.0445621212, -10.0628203371,   0.0000000000)
 A3 = (   0.0000000000,   0.0000000000, -21.7442318436)

Analysis of symmetry for initial positions (statically):
 Subroutine PRICEL returns following result:

  LATTYP: Found a simple monoclinic cell.
 ALAT       =    11.2564630382
 B/A-ratio  =     1.9317108553
 C/A-ratio  =     1.3031301026
 COS(beta)  =    -0.9393337087

[...]

   2 primitive cells build up your supercell.

 Routine SETGRP: Setting up the symmetry group for a
 base centered orthorhombic supercell.

 Subroutine GETGRP returns: Found  1 space group operations
 (whereof  1 operations were pure point group operations)
 out of a pool of  8 trial point group operations.

The static configuration has the point symmetry C_1 .

Analysis of symmetry for dynamics (positions and initial velocities):
 Subroutine PRICEL returns following result:

  LATTYP: Found a simple monoclinic cell.
 ALAT       =    11.2564630382
 B/A-ratio  =     1.9317108553
 C/A-ratio  =     1.3031301026
 COS(beta)  =    -0.9393337087

  Lattice vectors:

 A1 = (  -5.0445621212, -10.0628203371,   0.0000000000)
 A2 = (   0.0000000000,   0.0000000000, -21.7442318436)
 A3 = (  10.6727936403,  10.0628203371,   0.0000000000)

   2 primitive cells build up your supercell.

 Routine SETGRP: Setting up the symmetry group for a
 base centered orthorhombic supercell.

 Subroutine GETGRP returns: Found  1 space group operations
 (whereof  1 operations were pure point group operations)
 out of a pool of  8 trial point group operations.

The dynamic configuration has the point symmetry C_1 .

 Subroutine INISYM returns: Found  1 space group operations
 (whereof  1 operations are pure point group operations),
 and found     2 'primitive' translations

 KPOINTS: gamma-point-only calculation. no periodi

Automatic generation of k-mesh.
Space group operators:
 irot       det(A)        alpha          n_x          n_y          n_z        tau_x        tau_y        tau_z
    1     1.000000     0.000000     1.000000     0.000000     0.000000     0.000000     0.000000     0.000000

 Subroutine IBZKPT returns following result:

 Found      1 irreducible k-points:

 Following reciprocal coordinates:
            Coordinates               Weight
  0.000000  0.000000  0.000000      1.000000

 Following cartesian coordinates:
            Coordinates               Weight
  0.000000  0.000000  0.000000      1.000000

 SYSTEM =  "Millerite NiS"
 POSCAR =  Type_048 Type_148

 Startparameter for this run:
   NWRITE =      2    write-flag & timer
   PREC   = normal    normal or accurate (medium, high low for compatibility)
   ISTART =      0    job   : 0-new  1-cont  2-samecut
   ICHARG =      2    charge: 1-file 2-atom 10-const
   ISPIN  =      1    spin polarized calculation?
   LNONCOLLINEAR =      F non collinear calculations
   LSORBIT =      F    spin-orbit coupling
   INIWAV =      1    electr: 0-lowe 1-rand  2-diag
   LASPH  =      F    aspherical Exc in radial PAW
   METAGGA=      F    non-selfconsistent MetaGGA calc.

 Electronic Relaxation 1
   ENCUT  =  450.0 eV  33.07 Ry    5.75 a.u.  19.47 19.47 37.61*2*pi/ulx,y,z
   ENINI  =  450.0     initial cutoff
   ENAUG  =  703.4 eV  augmentation charge cutoff
   NELM   =    100;   NELMIN=  2; NELMDL= -5     # of ELM steps
   EDIFF  = 0.1E-03   stopping-criterion for ELM
   LREAL  =      T    real-space projection
   NLSPLINE    = F    spline interpolate recip. space projectors
   LCOMPAT=      F    compatible to vasp.4.4
   GGA_COMPAT  = T    GGA compatible to vasp.4.4-vasp.4.6
   LMAXPAW     = -100 max onsite density
   LMAXMIX     =    2 max onsite mixed and CHGCAR
   VOSKOWN=      0    Vosko Wilk Nusair interpolation
   ROPT   =   -0.00050  -0.00050
 Ionic relaxation
[...]
     0.000000000  0.000000000 21.744231844     0.000000000  0.000000000  0.045989208

  length of vectors
    11.256463038 11.256463038 21.744231844     0.099375718  0.099375718  0.045989208

 FORCES acting on ions
    electron-ion (+dipol)            ewald-force                    non-local-force                 convergence-correction
   0.231E+03 -.415E+03 0.637E+03   -.232E+03 0.416E+03 -.635E+03   0.142E-01 -.693E+00 -.233E+01   0.221E-02 -.139E-02 0.181E-01
   0.234E+03 -.377E+03 -.234E+04   -.234E+03 0.378E+03 0.234E+04   0.673E+00 -.932E+00 0.627E-02   0.994E-05 0.786E-02 -.404E-01
   -.952E+01 0.155E+02 -.559E+04   0.689E+01 -.114E+02 0.559E+04   0.303E+01 -.478E+01 0.792E+00   -.569E-03 0.763E-02 -.222E-01
   0.250E+03 -.414E+03 0.434E+04   -.251E+03 0.418E+03 -.434E+04   0.169E+01 -.348E+01 0.395E+01   -.270E-02 0.192E-01 0.373E-01
   0.302E+03 0.236E+03 -.485E+04   -.306E+03 -.240E+03 0.485E+04   0.350E+01 0.334E+01 -.228E+01   -.432E-03 -.114E-02 -.279E-01
   -.433E+02 0.457E+03 0.534E+04   0.427E+02 -.465E+03 -.534E+04   0.137E+01 0.645E+01 0.397E+01   0.618E-03 -.204E-02 0.265E-01
   0.232E+03 0.493E+03 0.182E+04   -.231E+03 -.494E+03 -.182E+04   -.115E+00 0.873E+00 0.281E+00   0.187E-02 0.239E-02 0.306E-01
   0.256E+03 0.444E+03 -.134E+04   -.257E+03 -.445E+03 0.134E+04   0.113E+01 0.351E+00 0.205E+01   -.563E-03 0.223E-02 -.347E-01
   -.431E+03 0.839E+02 0.157E+04   0.431E+03 -.848E+02 -.156E+04   -.367E+00 0.515E+00 -.226E+01   -.256E-02 -.139E-02 0.387E-01
   -.503E+03 -.244E+02 -.135E+04   0.504E+03 0.251E+02 0.135E+04   -.930E+00 -.797E+00 0.226E+01   0.179E-02 0.653E-02 -.322E-01
   -.345E+03 -.163E+03 -.485E+04   0.350E+03 0.165E+03 0.485E+04   -.461E+01 -.161E+01 -.216E+01   0.160E-02 0.500E-02 -.289E-01
   -.381E+02 -.194E+03 0.474E+04   0.387E+02 0.195E+03 -.475E+04   0.547E-01 -.120E+01 0.523E+01   -.630E-03 -.324E-02 0.397E-01
   0.231E+03 -.415E+03 0.637E+03   -.232E+03 0.416E+03 -.635E+03   0.142E-01 -.693E+00 -.233E+01   0.218E-02 -.144E-02 0.181E-01
   0.234E+03 -.377E+03 -.234E+04   -.234E+03 0.378E+03 0.234E+04   0.673E+00 -.932E+00 0.627E-02   -.339E-04 0.779E-02 -.404E-01
   -.952E+01 0.155E+02 -.559E+04   0.689E+01 -.114E+02 0.559E+04   0.303E+01 -.478E+01 0.792E+00   -.606E-03 0.764E-02 -.222E-01
   0.250E+03 -.414E+03 0.434E+04   -.251E+03 0.418E+03 -.434E+04   0.169E+01 -.348E+01 0.395E+01   -.260E-02 0.192E-01 0.373E-01
   0.302E+03 0.236E+03 -.485E+04   -.306E+03 -.240E+03 0.485E+04   0.350E+01 0.334E+01 -.228E+01   -.457E-03 -.113E-02 -.278E-01
   -.433E+02 0.457E+03 0.534E+04   0.427E+02 -.465E+03 -.534E+04   0.137E+01 0.645E+01 0.397E+01   0.614E-03 -.213E-02 0.266E-01
   0.232E+03 0.493E+03 0.182E+04   -.231E+03 -.494E+03 -.182E+04   -.115E+00 0.873E+00 0.281E+00   0.193E-02 0.236E-02 0.307E-01
   0.256E+03 0.444E+03 -.134E+04   -.257E+03 -.445E+03 0.134E+04   0.113E+01 0.351E+00 0.205E+01   -.555E-03 0.221E-02 -.347E-01
   -.431E+03 0.839E+02 0.157E+04   0.431E+03 -.848E+02 -.156E+04   -.367E+00 0.515E+00 -.226E+01   -.259E-02 -.132E-02 0.387E-01
   -.503E+03 -.244E+02 -.135E+04   0.504E+03 0.251E+02 0.135E+04   -.930E+00 -.797E+00 0.226E+01   0.181E-02 0.657E-02 -.322E-01
   -.345E+03 -.163E+03 -.485E+04   0.350E+03 0.165E+03 0.485E+04   -.461E+01 -.161E+01 -.216E+01   0.156E-02 0.510E-02 -.289E-01
   -.381E+02 -.194E+03 0.474E+04   0.387E+02 0.195E+03 -.475E+04   0.547E-01 -.120E+01 0.523E+01   -.502E-03 -.325E-02 0.396E-01
   0.257E+03 -.395E+03 0.691E+03   -.257E+03 0.396E+03 -.691E+03   0.563E+00 -.780E+00 -.398E+00   0.711E-02 -.115E-01 0.187E-01
   0.234E+03 -.378E+03 -.233E+04   -.234E+03 0.379E+03 0.233E+04   0.681E+00 -.989E+00 0.100E-01   0.102E-02 -.865E-02 -.470E-01
   -.961E+01 0.152E+02 -.558E+04   0.691E+01 -.110E+02 0.558E+04   0.308E+01 -.488E+01 0.860E+00   -.721E-03 -.387E-02 -.225E-01
   0.196E+01 -.788E+03 0.409E+04   -.119E+01 0.796E+03 -.409E+04   -.935E+00 -.524E+01 -.298E+00   0.367E-03 0.127E-02 0.431E-01
   0.302E+03 0.232E+03 -.485E+04   -.306E+03 -.236E+03 0.485E+04   0.347E+01 0.343E+01 -.212E+01   0.170E-02 0.973E-03 -.330E-01
   0.231E+03 0.651E+03 0.521E+04   -.230E+03 -.651E+03 -.521E+04   -.900E+00 -.966E+00 0.193E+01   -.284E-02 0.121E-02 0.470E-01
   0.251E+03 0.463E+03 0.182E+04   -.252E+03 -.463E+03 -.182E+04   0.358E+00 0.658E+00 -.620E+00   0.814E-02 -.488E-02 0.512E-01
   0.256E+03 0.424E+03 -.134E+04   -.257E+03 -.424E+03 0.134E+04   0.920E+00 0.152E+00 0.193E+01   0.149E-02 0.129E-02 -.332E-01
   -.542E+03 0.580E+02 0.177E+04   0.542E+03 -.582E+02 -.177E+04   -.377E+00 0.296E+00 -.508E+00   -.286E-02 -.739E-02 0.409E-01
   -.505E+03 -.389E+02 -.133E+04   0.506E+03 0.396E+02 0.133E+04   -.866E+00 -.751E+00 0.212E+01   -.261E-02 -.630E-02 -.335E-01
   -.345E+03 -.167E+03 -.485E+04   0.350E+03 0.169E+03 0.485E+04   -.458E+01 -.161E+01 -.226E+01   0.237E-03 -.359E-02 -.320E-01
   -.358E+03 0.118E+03 0.507E+04   0.362E+03 -.120E+03 -.507E+04   -.443E+01 0.151E+01 0.461E+01   0.132E-01 0.978E-02 0.381E-01
   0.257E+03 -.395E+03 0.691E+03   -.257E+03 0.396E+03 -.691E+03   0.563E+00 -.780E+00 -.398E+00   0.719E-02 -.114E-01 0.187E-01
   0.234E+03 -.378E+03 -.233E+04   -.234E+03 0.379E+03 0.233E+04   0.681E+00 -.989E+00 0.100E-01   0.104E-02 -.865E-02 -.471E-01
   -.961E+01 0.152E+02 -.558E+04   0.691E+01 -.110E+02 0.558E+04   0.308E+01 -.488E+01 0.860E+00   -.731E-03 -.388E-02 -.226E-01
   0.196E+01 -.788E+03 0.409E+04   -.119E+01 0.796E+03 -.409E+04   -.935E+00 -.524E+01 -.298E+00   0.406E-03 0.126E-02 0.432E-01
   0.302E+03 0.232E+03 -.485E+04   -.306E+03 -.236E+03 0.485E+04   0.347E+01 0.343E+01 -.212E+01   0.172E-02 0.979E-03 -.330E-01
   0.231E+03 0.651E+03 0.521E+04   -.230E+03 -.651E+03 -.521E+04   -.900E+00 -.966E+00 0.193E+01   -.267E-02 0.119E-02 0.471E-01
   0.251E+03 0.463E+03 0.182E+04   -.252E+03 -.463E+03 -.182E+04   0.358E+00 0.658E+00 -.620E+00   0.826E-02 -.495E-02 0.512E-01
   0.256E+03 0.424E+03 -.134E+04   -.257E+03 -.424E+03 0.134E+04   0.920E+00 0.152E+00 0.193E+01   0.151E-02 0.130E-02 -.333E-01
   -.542E+03 0.580E+02 0.177E+04   0.542E+03 -.582E+02 -.177E+04   -.377E+00 0.296E+00 -.508E+00   -.295E-02 -.735E-02 0.409E-01
   -.505E+03 -.389E+02 -.133E+04   0.506E+03 0.396E+02 0.133E+04   -.866E+00 -.751E+00 0.212E+01   -.261E-02 -.631E-02 -.333E-01
   -.345E+03 -.167E+03 -.485E+04   0.350E+03 0.169E+03 0.485E+04   -.458E+01 -.161E+01 -.226E+01   0.118E-03 -.364E-02 -.320E-01
   -.358E+03 0.118E+03 0.507E+04   0.362E+03 -.120E+03 -.507E+04   -.443E+01 0.151E+01 0.461E+01   0.132E-01 0.976E-02 0.381E-01
   -.718E+02 0.131E+03 0.292E+03   0.730E+02 -.133E+03 -.294E+03   -.105E+01 0.227E+01 0.231E+01   -.166E-02 0.267E-02 0.128E-02
   -.779E+02 0.128E+03 -.887E+03   0.791E+02 -.130E+03 0.882E+03   -.699E+00 0.120E+01 0.102E+01   0.154E-02 -.349E-03 -.166E-01
   -.124E+03 -.202E+03 0.232E+04   0.126E+03 0.205E+03 -.232E+04   -.123E+01 -.139E+01 0.478E+01   -.744E-03 0.360E-03 0.459E-02
   -.399E+01 0.198E+03 0.161E+04   0.391E+01 -.201E+03 -.161E+04   -.226E+00 0.163E+01 0.143E+01   -.204E-02 -.372E-03 0.185E-01
   -.583E+01 0.893E+01 -.233E+04   0.634E+01 -.985E+01 0.233E+04   -.319E+00 0.593E+00 -.214E+01   0.323E-03 0.112E-02 -.455E-02
   -.127E+03 -.113E+03 -.156E+04   0.129E+03 0.115E+03 0.156E+04   -.146E+01 -.500E+00 -.184E+01   -.494E-04 0.222E-02 -.142E-01
   -.728E+02 -.157E+03 -.201E+03   0.742E+02 0.160E+03 0.202E+03   -.131E+01 -.295E+01 -.445E+00   0.559E-03 0.196E-02 -.534E-02
   -.120E+02 -.493E+02 0.218E+04   0.114E+02 0.505E+02 -.219E+04   0.100E+01 -.706E+00 0.349E+01   0.147E-02 0.165E-02 0.578E-02
   -.416E+02 -.195E+03 0.964E+03   0.423E+02 0.198E+03 -.962E+03   -.104E+01 -.127E+01 0.148E+00   0.456E-02 0.790E-03 0.187E-01
   0.107E+03 -.246E+03 0.235E+04   -.109E+03 0.249E+03 -.236E+04   0.129E+01 -.116E+01 0.273E+01   0.937E-03 0.689E-03 0.358E-02
   0.992E+02 0.554E+02 0.934E+03   -.100E+03 -.571E+02 -.932E+03   0.902E-01 0.401E+00 0.647E-01   0.136E-02 -.177E-02 0.186E-01
   0.169E+03 0.379E+01 -.198E+03   -.172E+03 -.346E+01 0.197E+03   0.291E+01 -.350E+00 0.504E+00   0.464E-03 0.187E-02 -.719E-02
[...]
   0.206E+03 0.542E+00 0.981E+03   -.209E+03 -.611E+00 -.979E+03   0.272E+01 0.334E+00 0.260E+00   -.667E-02 -.133E-02 0.262E-01
   0.172E+03 -.333E+01 -.187E+03   -.175E+03 0.332E+01 0.188E+03   0.282E+01 0.817E-01 -.384E+00   0.803E-03 -.370E-02 -.686E-02
   0.159E+03 0.622E+02 -.155E+04   -.161E+03 -.629E+02 0.156E+04   0.111E+01 0.976E+00 -.170E+01   -.142E-02 -.319E-02 -.163E-01
   -.771E+02 0.105E+03 0.295E+03   0.781E+02 -.106E+03 -.297E+03   -.103E+01 0.200E+01 0.221E+01   -.236E-02 0.401E-02 0.343E-02
   -.782E+02 0.125E+03 -.888E+03   0.793E+02 -.126E+03 0.884E+03   -.656E+00 0.113E+01 0.101E+01   -.150E-03 0.199E-02 -.157E-01
   -.158E+03 0.237E+03 0.165E+04   0.159E+03 -.239E+03 -.166E+04   0.619E+00 0.131E+01 0.292E+01   0.755E-02 -.333E-02 0.251E-01
   -.574E+01 0.977E+01 -.233E+04   0.631E+01 -.106E+02 0.233E+04   -.360E+00 0.566E+00 -.218E+01   0.391E-03 0.858E-03 -.168E-02
   -.128E+03 -.114E+03 -.155E+04   0.129E+03 0.115E+03 0.156E+04   -.132E+01 -.628E+00 -.161E+01   0.140E-02 -.465E-02 -.161E-01
   -.756E+02 -.151E+03 -.190E+03   0.769E+02 0.153E+03 0.190E+03   -.133E+01 -.257E+01 -.286E+00   0.187E-03 -.493E-02 -.858E-02
   -.280E+02 -.256E+03 0.105E+04   0.293E+02 0.260E+03 -.105E+04   -.862E+00 -.252E+01 0.146E+01   0.458E-03 0.105E-02 0.202E-01
   0.108E+03 0.370E+02 0.227E+04   -.108E+03 -.370E+02 -.227E+04   -.644E+00 -.803E+00 0.295E+01   -.730E-02 0.618E-02 0.216E-02
   0.206E+03 0.542E+00 0.981E+03   -.209E+03 -.611E+00 -.979E+03   0.272E+01 0.334E+00 0.260E+00   -.663E-02 -.132E-02 0.262E-01
   0.172E+03 -.333E+01 -.187E+03   -.175E+03 0.332E+01 0.188E+03   0.282E+01 0.817E-01 -.384E+00   0.845E-03 -.371E-02 -.685E-02
   0.159E+03 0.622E+02 -.155E+04   -.161E+03 -.629E+02 0.156E+04   0.111E+01 0.976E+00 -.170E+01   -.144E-02 -.318E-02 -.163E-01
   -.565E+01 0.251E+02 -.597E+02   -.279E-11 0.277E-12 0.955E-11   0.528E+01 -.251E+02 0.597E+02   0.473E-01 0.334E-01 0.128E+00

 POSITION                                       TOTAL-FORCE (eV/Angst)
      5.35228      4.81788      5.50842        -0.100782      0.225154      0.003157
      5.93595      3.87238      8.44448        -0.132896      0.085267     -0.998643
      6.06826      3.65805     10.81771         0.407367     -0.669218      0.849773
      2.24633      0.73197      2.57236         0.171141      1.305129      1.647575
      0.82760      0.55005     10.27426        -0.563105      0.000421      0.475642
      4.76861      3.35453      1.79664         0.766953     -2.437656      0.752166
      5.35228      2.40903      4.73270        -0.048561     -0.154670      0.126981
      5.93595      1.46353      7.66876         0.033179     -0.003005     -0.032249
      1.87746      3.73836      4.73270        -0.194234     -0.382333      1.288118
      2.46113      2.79286      7.66876        -0.008079     -0.060975      0.048067
      3.04475      1.91871     10.27429         0.220040      0.478949      0.533568
      7.77561      4.43383      2.51244         0.660384     -0.125865      0.655292
     10.98051      4.81788      5.50842        -0.100782      0.225154      0.003157
     11.56418      3.87238      8.44448        -0.132896      0.085267     -0.998643
     11.69649      3.65805     10.81771         0.407367     -0.669218      0.849773
      7.87456      0.73197      2.57236         0.171141      1.305129      1.647575
      6.45583      0.55005     10.27426        -0.563105      0.000421      0.475642
     10.39684      3.35453      1.79664         0.766953     -2.437656      0.752166
     10.98051      2.40903      4.73270        -0.048561     -0.154670      0.126981
     11.56418      1.46353      7.66876         0.033179     -0.003005     -0.032249
      7.50570      3.73836      4.73270        -0.194234     -0.382333      1.288118
      8.08937      2.79286      7.66876        -0.008079     -0.060975      0.048067
      8.67298      1.91871     10.27429         0.220040      0.478949      0.533568
     13.40384      4.43383      2.51244         0.660384     -0.125865      0.655292
      7.87456      9.84929      5.50842        -0.035094     -0.064359      0.073011
      8.45823      8.90379      8.44448        -0.069351      0.098232     -0.926116
      8.59051      8.68951     10.81769         0.390336     -0.666967      0.845144
      4.84746      5.56754      2.82854        -0.158728      2.223311      0.133165
      3.34993      5.58149     10.27438        -0.538519     -0.000157      0.514130
      7.45845      8.42937      2.23693        -0.351678     -0.997521     -1.274909
      7.87456      7.44044      4.73270        -0.147170      0.124003      0.215619
      8.45823      6.49494      7.66876         0.063190     -0.070894     -0.086863
      4.39975      8.76977      4.73270        -0.145311      0.053175      0.241971
      4.98341      7.82427      7.66876        -0.045843     -0.117501     -0.034822
      5.56703      6.95013     10.27434         0.264472      0.505531      0.479831
      9.70932      9.67076      2.23583        -0.342172     -0.495337     -1.085905
     13.50279      9.84929      5.50842        -0.035094     -0.064359      0.073011
     14.08646      8.90379      8.44448        -0.069351      0.098232     -0.926116
     14.21874      8.68951     10.81769         0.390336     -0.666967      0.845144
     10.47569      5.56754      2.82854        -0.158728      2.223311      0.133165
      8.97816      5.58149     10.27438        -0.538519     -0.000157      0.514130
     13.08668      8.42937      2.23693        -0.351678     -0.997521     -1.274909
     13.50279      7.44044      4.73270        -0.147170      0.124003      0.215619
     14.08646      6.49494      7.66876         0.063190     -0.070894     -0.086863
     10.02798      8.76977      4.73270        -0.145311      0.053175      0.241971
     10.61165      7.82427      7.66876        -0.045843     -0.117501     -0.034822
     11.19526      6.95013     10.27434         0.264472      0.505531      0.479831
     15.33755      9.67076      2.23583        -0.342172     -0.495337     -1.085905
      1.66190      1.67871      5.87212         0.133242      0.011390      0.043063
      2.24556      0.73321      8.80817         0.482254     -0.761538     -3.134376
      6.13250      4.83361      1.32641         0.697023      1.329680     -2.798981
      6.70646      2.62422      2.93606        -0.306618     -1.872757      0.048717
      5.04734      5.31193     11.44423         0.193971     -0.332600      2.697750
      2.24556      3.80055      9.79595         0.261827      1.034126     -0.168760
      7.29013      4.74605      6.85989         0.116527     -0.149840     -0.078542
      3.87865      1.44088      1.47607         0.377307      0.449908     -2.051415
      4.18418      0.66015      3.92384        -0.362359      0.952400      2.301657
      3.61976      4.95950      1.22667        -1.166760      1.371237     -3.267225
      3.96438      3.99884      3.92384        -0.774241     -1.310861      1.691493
      4.54805      3.05334      6.85989        -0.040617     -0.015586      0.071685
[...]
      6.01337      9.67838      1.41063        -0.601365     -0.795513     -2.549090
      6.48666      9.03025      3.92384        -0.296294      0.263206      2.190739
      7.07033      8.08475      6.85989        -0.007383      0.067974     -0.014648
      7.65400      7.13925      9.79595        -1.039808      0.271120     -0.162605
      9.81241      6.71012      5.87212         0.014487      0.082860      0.120047
     10.39608      5.76462      8.80817         0.438882     -0.690856     -3.107452
     14.85697      7.65563      2.93606         1.838223     -1.177211     -0.046212
      8.15321      0.28054     11.44419         0.216930     -0.284068      2.713112
     10.39608      8.83196      9.79595         0.183442      1.045351     -0.164931
     15.44064      9.77746      6.85989         0.053454      0.025233     -0.085571
     12.33469      5.69156      3.92384         0.495822      1.331732      1.443204
     11.64160      9.67838      1.41063        -0.601365     -0.795513     -2.549090
     12.11489      9.03025      3.92384        -0.296294      0.263206      2.190739
     12.69856      8.08475      6.85989        -0.007383      0.067974     -0.014648
     13.28223      7.13925      9.79595        -1.039808      0.271120     -0.162605
    total drift:                               -0.319697      0.010944      0.143895

  FREE ENERGIE OF THE ION-ELECTRON SYSTEM (eV)
  free  energy   TOTEN  =      -476.92810713 eV

  energy  without entropy=     -475.82046509  energy(sigma->0) =     -476.37428611