 vasp.5.4.4.18Apr17-6-g9f103f2a35 (build Aug 13 2019 17:33:20) gamma-only

 executed on             LinuxIFC date 2020.05.11  22:19:55

 INCAR:
 POTCAR:    PAW_PBE Ni_pv 06Sep2000
 POTCAR:    PAW_PBE S 06Sep2000
 POTCAR:    PAW_PBE Ni_pv 06Sep2000
   VRHFIN =Ni:

   TITEL  = PAW_PBE Ni_pv 06Sep2000
   POMASS =   58.690; ZVAL   =   16.000    mass and valenz
   ENMAX  =  367.986; ENMIN  =  275.989 eV

 POTCAR:    PAW_PBE S 06Sep2000
   VRHFIN =S : s2p4

   TITEL  = PAW_PBE S 06Sep2000
   POMASS =   32.066; ZVAL   =    6.000    mass and valenz
   ENMAX  =  258.689; ENMIN  =  194.016 eV

 Optimization of the real space projectors (new method)

 maximal supplied QI-value         = 18.90
 optimisation between [QCUT,QGAM] = [ 10.77, 21.73] = [ 32.49,132.25] Ry
 Optimized for a Real-space Cutoff    1.38 Angstroem

   l    n(q)    QCUT    max X(q) W(low)/X(q) W(high)/X(q)  e(spline)
   1      8    10.771     2.836    0.40E-04    0.29E-04    0.12E-06
   1      8    10.771     4.023    0.10E-03    0.48E-04    0.29E-06
   2      8    10.771    73.368    0.42E-03    0.97E-04    0.44E-06
   2      8    10.771    69.010    0.42E-03    0.99E-04    0.45E-06
   0      9    10.771    54.797    0.10E-03    0.56E-04    0.74E-07
   0      9    10.771    24.266    0.89E-04    0.49E-04    0.67E-07
 Optimization of the real space projectors (new method)

 maximal supplied QI-value         = 19.84
 optimisation between [QCUT,QGAM] = [ 10.71, 21.63] = [ 32.15,130.99] Ry
 Optimized for a Real-space Cutoff    1.19 Angstroem

   l    n(q)    QCUT    max X(q) W(low)/X(q) W(high)/X(q)  e(spline)
   0      8    10.715   187.594    0.41E-03    0.53E-04    0.66E-07
   0      8    10.715   164.243    0.41E-03    0.53E-04    0.65E-07
   1      7    10.715    67.533    0.19E-03    0.59E-03    0.68E-07
   1      7    10.715    50.729    0.19E-03    0.58E-03    0.67E-07
  PAW_PBE Ni_pv 06Sep2000               :
  PAW_PBE S 06Sep2000                   :

 POSCAR: Type_036 Type_136
  positions in cartesian coordinates
 exchange correlation table for  LEXCH =        8
   RHO(1)=    0.500       N(1)  =     2000
   RHO(2)=  100.500       N(2)  =     4000

 ion  position               nearest neighbor table
   1  0.780  0.145  0.097-  63 2.08  49 2.08  40 2.25  50 2.36  64 2.36
   2  0.809  0.145  0.265-  64 2.04  50 2.04  41 2.08
   3  0.219  0.645  0.074-  42 2.01  43 2.10  61 2.29  51 2.29   4 2.33
   4  0.297  0.645  0.193-  61 2.06  51 2.06  43 2.25   3 2.33  52 2.36  62 2.36  27 2.53  15 2.53

   5  0.393  0.145  0.102-  45 2.03  46 2.17  67 2.27  53 2.27   6 2.37
   6  0.470  0.145  0.224-  68 2.17  54 2.17  46 2.25  53 2.26  67 2.26   5 2.37  30 2.53  18 2.53

[...]

  40  0.647  0.145  0.095-  17 2.01  29 2.01   1 2.25  18 2.26  30 2.26  41 2.65
  41  0.686  0.145  0.254-   2 2.08  18 2.15  30 2.15  40 2.65
  42  0.116  0.645  0.011-   3 2.01  19 2.06  31 2.06
  43  0.164  0.645  0.191-  32 2.09  20 2.09   3 2.10   4 2.25  31 2.36  19 2.36
  44  0.070  0.645  0.362-  32 2.06  20 2.06   8 2.06
  45  0.288  0.145  0.041-   5 2.03  21 2.07  33 2.07
  46  0.336  0.145  0.223-  10 2.09   5 2.17  22 2.24  34 2.24   6 2.25  33 2.36  21 2.36
  47  0.819  0.645  0.127-  35 2.23  23 2.23   7 2.25  24 2.26  36 2.26
  48  0.842  0.645  0.299-  36 2.08  24 2.08   8 2.11
  49  0.816  0.294  0.011-  23 2.02  25 2.06   1 2.08
  50  0.829  0.314  0.191-   2 2.04  26 2.09  25 2.12  23 2.15  24 2.25   1 2.36
  51  0.306  0.815  0.114-   4 2.06  21 2.13  27 2.22   3 2.29  22 2.58
  52  0.373  0.779  0.286-  22 1.97  28 2.10  27 2.11   4 2.36  62 2.57  39 2.68
  53  0.484  0.314  0.127-  29 1.99  15 2.25   6 2.26  30 2.26   5 2.27
  54  0.542  0.255  0.314-  16 2.00  30 2.09  68 2.11   6 2.17
  55  0.001  0.814  0.223-  32 2.05   8 2.06  14 2.13  31 2.36   7 2.36  56 2.75
  56  0.967  0.822  0.056-   7 2.07  31 2.09  13 2.10  55 2.75
  57  0.139  0.321  0.087-   9 2.08  19 2.11  33 2.11  58 2.77
  58  0.174  0.314  0.255-  10 2.02  34 2.14  20 2.17   9 2.36  33 2.36  57 2.77
  59  0.657  0.814  0.159-  18 2.25  11 2.26  36 2.26  12 2.26  35 2.29
  60  0.694  0.795  0.328-  36 2.04  12 2.04
  61  0.306  0.475  0.114-   4 2.06  33 2.13  15 2.22   3 2.29  34 2.58
  62  0.373  0.511  0.286-  34 1.97  16 2.10  15 2.11   4 2.36  52 2.57  39 2.68
  63  0.816  0.997  0.011-  35 2.02  13 2.06   1 2.08
  64  0.829  0.977  0.191-   2 2.04  14 2.09  13 2.12  35 2.15  36 2.25   1 2.36
  65  0.001  0.477  0.223-  20 2.05   8 2.06  26 2.13  19 2.36   7 2.36  66 2.75
  66  0.967  0.469  0.056-   7 2.07  19 2.09  25 2.10  65 2.75
  67  0.484  0.977  0.127-  17 1.99  27 2.25   6 2.26  18 2.26   5 2.27
  68  0.542  0.035  0.314-  28 2.00  18 2.09  54 2.11   6 2.17
  69  0.657  0.477  0.159-  30 2.25  11 2.26  24 2.26  12 2.26  23 2.29
  70  0.694  0.496  0.328-  24 2.04  12 2.04
  71  0.139  0.969  0.087-   9 2.08  31 2.11  21 2.11  72 2.77
  72  0.174  0.977  0.255-  10 2.02  22 2.14  32 2.17   9 2.36  21 2.36  71 2.77

  LATTYP: Found a simple orthorhombic cell.
 ALAT       =     9.5784100000
 B/A-ratio  =     1.6880763216
 C/A-ratio  =     1.7627867312

  Lattice vectors:

 A1 = (   0.0000000000,   9.5784100000,   0.0000000000)
 A2 = (   0.0000000000,   0.0000000000, -16.1690871197)
 A3 = ( -16.8846940542,   0.0000000000,   0.0000000000)

Analysis of symmetry for initial positions (statically):
 Subroutine PRICEL returns:
 Original cell was already a primitive cell.

 Routine SETGRP: Setting up the symmetry group for a
 simple orthorhombic supercell.

 Subroutine GETGRP returns: Found  2 space group operations
 (whereof  1 operations were pure point group operations)
 out of a pool of  8 trial point group operations.

The static configuration has the point symmetry C_1 .
 The point group associated with its full space group is C_1h.

Analysis of symmetry for dynamics (positions and initial velocities):
 Subroutine PRICEL returns:
 Original cell was already a primitive cell.

 Routine SETGRP: Setting up the symmetry group for a
 simple orthorhombic supercell.

 Subroutine GETGRP returns: Found  2 space group operations
 (whereof  1 operations were pure point group operations)
 out of a pool of  8 trial point group operations.

The dynamic configuration has the point symmetry C_1 .
 The point group associated with its full space group is C_1h.

 Subroutine INISYM returns: Found  2 space group operations
 (whereof  1 operations are pure point group operations),
 and found     1 'primitive' translations

 KPOINTS: gamma-point-only calculation. no periodi

Automatic generation of k-mesh.
Space group operators:
 irot       det(A)        alpha          n_x          n_y          n_z        tau_x        tau_y        tau_z
    1     1.000000     0.000000     1.000000     0.000000     0.000000     0.000000     0.000000     0.000000
    2    -1.000000   180.000000     0.000000     1.000000     0.000000    -0.000000     0.290594     0.000000

 Subroutine IBZKPT returns following result:

 Found      1 irreducible k-points:

 Following reciprocal coordinates:
            Coordinates               Weight
  0.000000  0.000000  0.000000      1.000000

 Following cartesian coordinates:
            Coordinates               Weight
  0.000000  0.000000  0.000000      1.000000

 SYSTEM =  "Millerite NiS"
 POSCAR =  Type_036 Type_136

 Startparameter for this run:
   NWRITE =      2    write-flag & timer
   PREC   = normal    normal or accurate (medium, high low for compatibility)
   ISTART =      0    job   : 0-new  1-cont  2-samecut
   ICHARG =      2    charge: 1-file 2-atom 10-const
   ISPIN  =      1    spin polarized calculation?
   LNONCOLLINEAR =      F non collinear calculations
   LSORBIT =      F    spin-orbit coupling
   INIWAV =      1    electr: 0-lowe 1-rand  2-diag
   LASPH  =      F    aspherical Exc in radial PAW
   METAGGA=      F    non-selfconsistent MetaGGA calc.

 Electronic Relaxation 1
   ENCUT  =  450.0 eV  33.07 Ry    5.75 a.u.  29.20 16.57 27.97*2*pi/ulx,y,z
   ENINI  =  450.0     initial cutoff
   ENAUG  =  703.4 eV  augmentation charge cutoff
   NELM   =    100;   NELMIN=  2; NELMDL= -5     # of ELM steps
   EDIFF  = 0.1E-03   stopping-criterion for ELM
   LREAL  =      T    real-space projection
   NLSPLINE    = F    spline interpolate recip. space projectors
   LCOMPAT=      F    compatible to vasp.4.4
   GGA_COMPAT  = T    GGA compatible to vasp.4.4-vasp.4.6
   LMAXPAW     = -100 max onsite density
   LMAXMIX     =    2 max onsite mixed and CHGCAR
   VOSKOWN=      0    Vosko Wilk Nusair interpolation
   ROPT   =   -0.00050  -0.00050
 Ionic relaxation
   EDIFFG = 0.1E-02   stopping-criterion for IOM
   NSW    =      0    number of steps for IOM
   NBLOCK =      1;   KBLOCK =      1    inner block; outer block
   IBRION =     -1    ionic relax: 0-MD 1-quasi-New 2-CG
   NFREE  =      0    steps in history (QN), initial steepest desc. (CG)
   ISIF   =      2    stress and relaxation
   IWAVPR =     10    prediction:  0-non 1-charg 2-wave 3-comb
   ISYM   =      2    0-nonsym 1-usesym 2-fastsym
   LCORR  =      T    Harris-Foulkes like correction to forces

   POTIM  = 0.5000    time-step for ionic-motion
   TEIN   =    0.0    initial temperature
   TEBEG  =    0.0;   TEEND  =   0.0 temperature during run
   SMASS  =  -3.00    Nose mass-parameter (am)
   estimated Nose-frequenzy (Omega)   =  0.10E-29 period in steps =****** mass=  -0.652E-26a.u.
   SCALEE = 1.0000    scale energy and forces
   NPACO  =    256;   APACO  = 16.0  distance and # of slots for P.C.
   PSTRESS=    0.0 pullay stress

  Mass of Ions in am
   POMASS =  58.69 32.07
  Ionic Valenz
   ZVAL   =  16.00  6.00
  Atomic Wigner-Seitz radii
  virtual crystal weights
   VCA    =   1.00  1.00
   NELECT =     792.0000    total number of electrons
   NUPDOWN=      -1.0000    fix difference up-down

 DOS related values:
   EMIN   =  10.00;   EMAX   =-10.00  energy-range for DOS
   EFERMI =   0.00
   ISMEAR =     0;   SIGMA  =   0.20  broadening in eV -4-tet -1-fermi 0-gaus

 Electronic relaxation 2 (details)
   IALGO  =     38    algorithm
   LDIAG  =      T    sub-space diagonalisation (order eigenvalues)
   LSUBROT=      F    optimize rotation matrix (better conditioning)
   TURBO    =      0    0=normal 1=particle mesh
   IRESTART =      0    0=no restart 2=restart with 2 vectors
   NREBOOT  =      0    no. of reboots
   NMIN     =      0    reboot dimension
   EREF     =   0.00    reference energy to select bands
   IMIX   =      4    mixing-type and parameters
     AMIX     =   0.40;   BMIX     =  1.00
     AMIX_MAG =   1.60;   BMIX_MAG =  1.00
     AMIN     =   0.10
     WC   =   100.;   INIMIX=   1;  MIXPRE=   1;  MAXMIX= -45

 Intra band minimization:
   WEIMIN = 0.0000     energy-eigenvalue tresh-hold
   EBREAK =  0.53E-07  absolut break condition
   DEPER  =   0.30     relativ break condition

   TIME   =   0.40     timestep for ELM

  volume/ion in A,a.u.               =      36.32       245.10
  Fermi-wavevector in a.u.,A,eV,Ry     =   1.099409  2.077581 16.445356  1.208700
  Thomas-Fermi vector in A             =   2.235803

 Write flags
   LWAVE        =      F    write WAVECAR
   LDOWNSAMPLE  =      F    k-point downsampling of WAVECAR
   LCHARG       =      F    write CHGCAR
[...]
  Fock        0.00000     0.00000     0.00000     0.00000     0.00000     0.00000
  Total     118.90076   122.29371   143.54358     0.00000     0.00000     0.50793
  in kB      72.84892    74.92773    87.94725     0.00000     0.00000     0.31120

 VOLUME and BASIS-vectors are now :
  energy-cutoff  :      450.00
  volume of cell :     2615.00
      direct lattice vectors                 reciprocal lattice vectors
    16.884694054  0.000000000  0.000000000     0.059225237  0.000000000  0.000000000
     0.000000000  9.578410000  0.000000000     0.000000000  0.104401461  0.000000000
     0.000000000  0.000000000 16.169087120     0.000000000  0.000000000  0.061846411

  length of vectors
    16.884694054  9.578410000 16.169087120     0.059225237  0.104401461  0.061846411

 FORCES acting on ions
    electron-ion (+dipol)            ewald-force                    non-local-force                 convergence-correction
   0.529E+03 -.908E-03 0.201E+04   -.533E+03 -.263E-04 -.201E+04   0.357E+01 0.000E+00 0.629E+01   0.307E+00 0.572E-05 -.183E-02
   0.223E+03 -.888E-03 -.306E+04   -.221E+03 -.539E-05 0.306E+04   -.207E+01 0.000E+00 -.139E+01   0.257E+00 0.523E-05 0.882E-01
   -.387E+03 -.915E-03 0.319E+04   0.388E+03 0.614E-06 -.320E+04   0.437E+00 0.000E+00 0.820E+01   -.979E-01 -.176E-05 -.210E-01
   0.267E+03 -.840E-03 -.664E+03   -.268E+03 0.148E-05 0.666E+03   0.135E+01 0.000E+00 -.230E+00   -.283E-01 -.133E-05 0.211E+00
   -.320E+02 -.726E-03 0.271E+04   0.320E+02 0.375E-05 -.271E+04   0.135E+01 0.000E+00 0.723E+01   -.238E+00 0.119E-05 -.402E-01
   0.314E+03 -.754E-03 -.155E+04   -.316E+03 -.108E-04 0.155E+04   0.246E+01 0.000E+00 0.310E-01   -.150E+00 0.255E-06 0.130E+00
   0.537E+03 -.721E-03 0.140E+04   -.542E+03 0.922E-06 -.140E+04   0.526E+01 0.000E+00 0.435E+01   -.797E-01 -.635E-05 0.140E+00
   0.513E+03 -.939E-03 -.312E+04   -.519E+03 0.720E-06 0.313E+04   0.463E+01 0.000E+00 -.375E+01   -.246E-01 -.543E-05 0.374E-01
   0.782E+03 -.822E-03 0.506E+03   -.787E+03 -.324E-06 -.508E+03   0.439E+01 0.000E+00 0.386E+01   -.108E+00 0.613E-05 0.118E+00
   0.441E+03 -.118E-02 -.362E+04   -.442E+03 -.250E-06 0.363E+04   0.145E+01 0.000E+00 -.602E+01   -.131E+00 0.516E-05 0.137E+00
   -.327E+03 -.917E-03 0.206E+04   0.327E+03 0.661E-04 -.207E+04   0.806E+00 0.000E+00 0.627E+01   0.825E-01 0.484E-07 -.183E-01
   0.114E+03 -.818E-03 -.221E+04   -.117E+03 0.231E-04 0.221E+04   0.187E+01 0.000E+00 -.591E+01   0.192E+00 -.311E-06 0.146E+00
   -.635E+03 0.198E+03 0.246E+04   0.640E+03 -.200E+03 -.247E+04   -.439E+01 0.295E+01 0.548E+01   0.250E-01 -.184E-01 0.779E-01
   -.407E+03 0.152E+03 -.240E+04   0.408E+03 -.150E+03 0.240E+04   -.761E+00 -.130E+01 -.165E+00   0.315E-01 -.455E-01 0.825E-01
   0.524E+00 0.249E+03 0.997E+03   -.553E+00 -.253E+03 -.100E+04   0.240E-01 0.344E+01 0.541E+01   -.442E-01 0.544E-01 0.316E-01
   -.173E+03 0.945E+01 -.312E+04   0.172E+03 -.111E+02 0.312E+04   0.828E+00 0.164E+01 -.350E+01   -.185E-01 0.933E-01 0.144E+00
   0.263E+02 0.687E+03 0.368E+04   -.274E+02 -.682E+03 -.368E+04   0.123E+01 -.590E+01 -.130E+01   0.223E-01 -.235E+00 -.934E-01
   -.545E+03 0.425E+03 -.689E+03   0.549E+03 -.431E+03 0.689E+03   -.310E+01 0.499E+01 -.121E+01   0.104E+00 -.169E+00 0.205E+00
   -.354E+02 0.656E+03 0.207E+04   0.355E+02 -.661E+03 -.208E+04   0.306E+00 0.456E+01 0.495E+01   -.214E+00 -.173E-01 0.138E+00
   -.202E+03 0.575E+03 -.269E+04   0.204E+03 -.579E+03 0.269E+04   -.501E+00 0.289E+01 -.494E+01   -.165E+00 0.300E-01 0.144E+00
   0.166E+03 0.384E+03 0.180E+04   -.167E+03 -.387E+03 -.181E+04   0.102E+01 0.318E+01 0.594E+01   -.648E-01 0.616E-01 0.606E-01
   -.219E+02 0.338E+03 -.255E+04   0.227E+02 -.338E+03 0.255E+04   -.159E+01 0.862E-01 -.425E+01   -.158E+00 0.324E-01 0.141E+00
   0.369E+03 -.472E+03 0.257E+04   -.372E+03 0.475E+03 -.257E+04   0.153E+01 -.207E+01 0.809E+01   0.200E+00 0.110E+00 0.285E-01
   -.236E+03 0.342E+03 -.165E+04   0.238E+03 -.345E+03 0.166E+04   -.148E+01 0.249E+01 -.521E+01   0.218E+00 0.708E-01 0.790E-01
   -.635E+03 -.198E+03 0.246E+04   0.640E+03 0.200E+03 -.247E+04   -.439E+01 -.295E+01 0.548E+01   0.250E-01 0.184E-01 0.779E-01
   -.407E+03 -.152E+03 -.240E+04   0.408E+03 0.150E+03 0.240E+04   -.761E+00 0.130E+01 -.165E+00   0.315E-01 0.455E-01 0.825E-01
   0.524E+00 -.249E+03 0.997E+03   -.553E+00 0.253E+03 -.100E+04   0.240E-01 -.344E+01 0.541E+01   -.442E-01 -.544E-01 0.316E-01
   -.173E+03 -.945E+01 -.312E+04   0.172E+03 0.111E+02 0.312E+04   0.828E+00 -.164E+01 -.350E+01   -.185E-01 -.933E-01 0.144E+00
   0.263E+02 -.687E+03 0.368E+04   -.274E+02 0.682E+03 -.368E+04   0.123E+01 0.590E+01 -.130E+01   0.223E-01 0.235E+00 -.934E-01
   -.545E+03 -.425E+03 -.689E+03   0.549E+03 0.431E+03 0.689E+03   -.310E+01 -.499E+01 -.121E+01   0.104E+00 0.169E+00 0.205E+00
   -.354E+02 -.656E+03 0.207E+04   0.355E+02 0.661E+03 -.208E+04   0.306E+00 -.456E+01 0.495E+01   -.214E+00 0.172E-01 0.138E+00
   -.202E+03 -.575E+03 -.269E+04   0.204E+03 0.579E+03 0.269E+04   -.501E+00 -.289E+01 -.494E+01   -.165E+00 -.300E-01 0.144E+00
   0.166E+03 -.384E+03 0.180E+04   -.167E+03 0.387E+03 -.181E+04   0.102E+01 -.318E+01 0.594E+01   -.648E-01 -.616E-01 0.606E-01
   -.219E+02 -.338E+03 -.255E+04   0.227E+02 0.338E+03 0.255E+04   -.159E+01 -.862E-01 -.425E+01   -.158E+00 -.324E-01 0.141E+00
   0.369E+03 0.472E+03 0.257E+04   -.372E+03 -.475E+03 -.257E+04   0.153E+01 0.207E+01 0.809E+01   0.200E+00 -.110E+00 0.285E-01
   -.236E+03 -.342E+03 -.165E+04   0.238E+03 0.345E+03 0.166E+04   -.148E+01 -.249E+01 -.521E+01   0.218E+00 -.708E-01 0.790E-01
   -.348E+03 -.241E-04 0.251E+03   0.349E+03 -.429E-06 -.251E+03   0.163E+01 0.000E+00 -.889E+00   -.386E-01 0.242E-05 0.484E-01
   0.210E+02 -.296E-04 0.152E+04   -.215E+02 0.140E-04 -.153E+04   0.998E+00 0.000E+00 0.170E+01   -.257E-03 -.862E-07 -.414E-01
   -.561E+02 0.668E-04 -.925E+03   0.592E+02 0.824E-05 0.930E+03   -.273E+00 0.000E+00 -.513E+01   -.232E-02 0.154E-06 0.394E-01
   -.264E+03 0.645E-04 0.835E+03   0.266E+03 -.526E-04 -.838E+03   0.320E-01 0.000E+00 0.152E+01   0.156E+00 0.734E-06 0.377E-01
   -.123E+03 0.251E-05 -.988E+03   0.124E+03 -.675E-05 0.991E+03   -.780E+00 0.000E+00 -.148E+01   0.854E-01 0.683E-06 0.733E-01
   0.143E+02 0.796E-05 0.173E+04   -.144E+02 0.266E-06 -.174E+04   0.218E+00 0.000E+00 0.193E+01   -.920E-01 -.107E-05 -.623E-01
   -.115E+03 0.385E-04 -.207E+03   0.116E+03 0.286E-06 0.210E+03   0.932E-01 0.000E+00 -.358E+01   -.112E+00 -.170E-05 0.129E+00
   -.398E+02 0.285E-04 -.172E+04   0.401E+02 0.110E-06 0.173E+04   0.201E+00 0.000E+00 -.156E+01   -.260E-01 -.170E-05 0.745E-02
   0.704E+02 -.947E-05 0.167E+04   -.710E+02 0.177E-05 -.168E+04   0.641E+00 0.000E+00 0.215E+01   -.130E-01 0.532E-06 -.182E-01
   -.176E+03 -.830E-04 -.556E+03   0.180E+03 0.986E-06 0.560E+03   -.229E+01 0.000E+00 -.305E+01   -.794E-01 0.832E-06 0.200E-01
   -.248E+02 0.603E-04 0.718E+03   0.263E+02 0.729E-06 -.721E+03   -.925E+00 0.000E+00 0.166E+01   0.482E-01 -.205E-05 0.179E-01
   -.821E+02 0.906E-05 -.132E+04   0.839E+02 0.106E-05 0.133E+04   -.261E+00 0.000E+00 -.219E+01   0.499E-01 -.154E-05 0.231E-01
   0.463E+02 -.106E+03 0.170E+04   -.463E+02 0.107E+03 -.170E+04   -.468E+00 -.273E+00 0.255E+01   0.456E-01 0.339E-01 -.712E-02
   0.789E+02 -.135E+03 -.351E+03   -.788E+02 0.135E+03 0.354E+03   -.876E+00 0.743E+00 -.198E+01   0.754E-01 0.375E-01 0.155E-01
   -.530E+02 -.777E+02 0.100E+04   0.534E+02 0.785E+02 -.101E+04   -.610E+00 0.192E-01 0.358E+01   0.261E-02 0.575E-01 0.277E-02
   0.108E+03 0.130E+03 -.135E+04   -.109E+03 -.128E+03 0.135E+04   0.788E+00 -.156E+01 -.215E+01   -.339E-01 -.160E-01 0.753E-01
   0.128E+03 -.210E+03 0.699E+03   -.129E+03 0.211E+03 -.703E+03   -.833E+00 -.628E+00 0.398E+01   -.945E-01 0.509E-01 0.387E-01
   -.156E+03 0.419E+02 -.156E+04   0.159E+03 -.364E+02 0.156E+04   -.256E+01 -.399E+01 -.331E+01   0.117E-01 0.175E-01 0.113E+00
   0.922E+02 -.241E+03 -.463E+03   -.941E+02 0.244E+03 0.463E+03   0.528E+00 -.169E+01 -.760E+00   -.246E-01 -.192E-01 0.584E-01
   0.423E+02 -.707E+02 0.133E+04   -.438E+02 0.701E+02 -.134E+04   0.122E+01 0.115E+01 0.417E+01   -.342E-01 -.143E-01 0.294E-01
   0.120E+03 0.418E+02 0.113E+04   -.121E+03 -.426E+02 -.114E+04   0.281E+00 0.833E+00 0.393E+01   -.358E-01 -.111E-01 0.148E-01
   0.344E+03 -.767E+02 -.869E+03   -.347E+03 0.778E+02 0.871E+03   0.153E+01 0.569E-01 -.101E+01   -.482E-01 0.544E-02 0.664E-01
   0.264E+02 -.287E+02 0.406E+03   -.285E+02 0.307E+02 -.408E+03   0.161E+01 -.135E+01 0.797E+00   0.927E-01 -.503E-01 0.156E-01
   -.152E+02 -.241E+03 -.154E+04   0.141E+02 0.244E+03 0.154E+04   0.585E+00 -.205E+01 -.121E+01   0.709E-01 -.167E-01 0.651E-01
   -.530E+02 0.777E+02 0.100E+04   0.534E+02 -.785E+02 -.101E+04   -.610E+00 -.192E-01 0.358E+01   0.261E-02 -.575E-01 0.277E-02
   0.108E+03 -.130E+03 -.135E+04   -.109E+03 0.128E+03 0.135E+04   0.788E+00 0.156E+01 -.215E+01   -.339E-01 0.160E-01 0.753E-01
   0.463E+02 0.106E+03 0.170E+04   -.463E+02 -.107E+03 -.170E+04   -.468E+00 0.273E+00 0.255E+01   0.456E-01 -.339E-01 -.712E-02
   0.789E+02 0.135E+03 -.351E+03   -.788E+02 -.135E+03 0.354E+03   -.876E+00 -.743E+00 -.198E+01   0.754E-01 -.375E-01 0.155E-01
   0.922E+02 0.241E+03 -.463E+03   -.941E+02 -.244E+03 0.463E+03   0.528E+00 0.169E+01 -.760E+00   -.246E-01 0.192E-01 0.584E-01
   0.423E+02 0.707E+02 0.133E+04   -.438E+02 -.701E+02 -.134E+04   0.122E+01 -.115E+01 0.417E+01   -.342E-01 0.143E-01 0.294E-01
   0.128E+03 0.210E+03 0.699E+03   -.129E+03 -.211E+03 -.703E+03   -.833E+00 0.628E+00 0.398E+01   -.945E-01 -.509E-01 0.387E-01
   -.156E+03 -.419E+02 -.156E+04   0.159E+03 0.364E+02 0.156E+04   -.256E+01 0.399E+01 -.331E+01   0.117E-01 -.175E-01 0.113E+00
   0.264E+02 0.287E+02 0.406E+03   -.285E+02 -.307E+02 -.408E+03   0.161E+01 0.135E+01 0.797E+00   0.927E-01 0.503E-01 0.156E-01
   -.152E+02 0.241E+03 -.154E+04   0.141E+02 -.244E+03 0.154E+04   0.585E+00 0.205E+01 -.121E+01   0.709E-01 0.167E-01 0.651E-01
   0.120E+03 -.418E+02 0.113E+04   -.121E+03 0.426E+02 -.114E+04   0.281E+00 -.833E+00 0.393E+01   -.358E-01 0.111E-01 0.148E-01
   0.344E+03 0.767E+02 -.869E+03   -.347E+03 -.778E+02 0.871E+03   0.153E+01 -.569E-01 -.101E+01   -.482E-01 -.544E-02 0.664E-01
   -.133E+02 -.144E-01 -.501E+02   -.568E-13 0.125E-11 -.284E-11   0.134E+02 0.246E-14 0.458E+02   -.117E+00 0.274E-05 0.425E+01

 POSITION                                       TOTAL-FORCE (eV/Angst)
     13.17084      1.39171      1.57080        -0.115003     -0.000000      1.263147
     13.65560      1.39171      4.29205        -0.004310     -0.000000      0.613725
      3.69421      6.18092      1.20275         1.628421     -0.000000     -0.040897
      5.02033      6.18092      3.11308         0.165217     -0.000000      2.671175
      6.63322      1.39171      1.64996         1.097403     -0.000000      0.045616
      7.93172      1.39171      3.62717         0.117063     -0.000000     -0.056971
     16.08224      6.18092      2.08489        -0.307681     -0.000000      2.166525
     16.33162      6.18092      4.74819        -1.649415     -0.000000      0.510129
      2.10894      1.39171      2.59898        -0.839171     -0.000000      1.651863
      3.95668      1.39171      4.77452         0.080233     -0.000000      1.760070
      9.55167      6.18092      2.18757         1.009977     -0.000000     -0.367650
     10.84312      6.18092      4.14126        -0.590268     -0.000000     -1.239116
     15.36181      0.06075      1.48950         0.920413      0.503008     -0.191402
     15.89934      0.06604      3.90458         0.047576     -0.113283      0.973076
      7.17375      4.91558      2.70560        -0.049104     -0.309960     -1.337180
      8.25889      4.15992      4.59020        -0.051733      0.117296      0.473683
      9.57595      0.16058      0.69522         0.117375     -0.433762     -1.184784
     10.08514      0.12638      3.21969         0.495628     -0.701311     -1.246066
      1.35096      4.91558      1.67742         0.151187     -0.486821      1.909043
      1.87535      4.86475      4.43632         1.383006     -1.288790      0.508225
      4.26235      0.12638      2.19151        -0.215976      0.119287     -0.134327
      5.02414      8.90383      4.18202        -0.876177      0.240020      0.178885
     13.07523      4.15260      1.52085        -0.955844      0.824237      0.400053
     12.99653      4.91558      3.73378         0.320321     -0.224103     -1.296115
     15.36181      2.72268      1.48950         0.920413     -0.503008     -0.191402
     15.89934      2.71739      3.90458         0.047576      0.113283      0.973076
      7.17375      7.44626      2.70560        -0.049104      0.309960     -1.337180
      8.25889      8.20192      4.59020        -0.051733     -0.117296      0.473683
      9.57595      2.62285      0.69522         0.117375      0.433762     -1.184784
     10.08514      2.65705      3.21969         0.495628      0.701311     -1.246066
      1.35096      7.44626      1.67742         0.151187      0.486821      1.909043
      1.87535      7.49709      4.43632         1.383006      1.288790      0.508225
      4.26235      2.65705      2.19151        -0.215976     -0.119287     -0.134327
      5.02414      3.45801      4.18202        -0.876177     -0.240020      0.178885
     13.07523      8.20924      1.52085        -0.955844     -0.824237      0.400053
     12.99653      7.44626      3.73378         0.320321      0.224103     -1.296115
     16.74052      1.39171      2.57045         2.211327     -0.000000     -0.469685
      7.79307      6.18092      1.18055         0.458255     -0.000000     -4.057269
      8.59001      6.18092      4.11272         2.788644     -0.000000      0.753040
     10.91773      1.39171      1.54227         1.857426     -0.000000     -1.496700
     11.58218      1.39171      4.10506         0.907159     -0.000000      2.301337
      1.96649      6.18092      0.17408         0.046027     -0.000000     -4.140085
      2.76722      6.18092      3.08454         0.643049     -0.000000     -0.092788
      1.18198      6.18092      5.85805         0.510186     -0.000000      3.999595
      4.86074      1.39171      0.66053         0.001451     -0.000000     -3.707020
      5.67861      1.39171      3.59863         1.635594     -0.000000      1.321368
     13.82913      6.18092      2.05636         0.563590     -0.000000     -1.591067
     14.21988      6.18092      4.83616         1.568771     -0.000000      2.774256
     13.77252      2.81193      0.18183        -0.413564      0.819563     -3.965979
     13.99844      3.00295      3.08932        -0.667586      1.491874      1.638255
      5.16225      7.80769      1.85059        -0.235560      0.853416     -2.175046
      6.29771      7.46556      4.62215        -0.510643      0.153855      3.262433
      8.17565      3.00295      2.06114        -1.804443      0.865563      0.063525
      9.15351      2.44477      5.08103         0.018880      1.593147      2.960730
      0.02514      7.79215      3.60341        -1.317573      1.555201     -0.607217
     16.33496      7.87286      0.91119        -0.349668      0.572303     -2.921935
      2.34656      3.07765      1.40918        -0.751757     -0.045089     -2.821071
      2.93654      3.00295      4.11750        -1.370463      1.150254      0.978795
     11.08705      7.79215      2.57523        -0.348043      0.605404     -1.217053
     11.71181      7.61243      5.30326        -0.428225      1.277990      3.465174
      5.16225      4.55415      1.85059        -0.235560     -0.853416     -2.175046
      6.29771      4.89628      4.62215        -0.510643     -0.153855      3.262433
     13.77252      9.54991      0.18183        -0.413564     -0.819563     -3.965979
     13.99844      9.35889      3.08932        -0.667586     -1.491874      1.638255
      0.02514      4.56969      3.60341        -1.317573     -1.555201     -0.607217
     16.33496      4.48898      0.91119        -0.349668     -0.572303     -2.921935
      8.17565      9.35889      2.06114        -1.804443     -0.865563      0.063525
      9.15351      0.33865      5.08103         0.018880     -1.593147      2.960730
     11.08705      4.56969      2.57523        -0.348043     -0.605404     -1.217053
     11.71181      4.74941      5.30326        -0.428225     -1.277990      3.465174
      2.34656      9.28418      1.40918        -0.751757      0.045089     -2.821071
      2.93654      9.35889      4.11750        -1.370463     -1.150254      0.978795
    total drift:                               -0.014469     -0.014404     -0.012312

  FREE ENERGIE OF THE ION-ELECTRON SYSTEM (eV)
  free  energy   TOTEN  =      -340.04816512 eV

  energy  without entropy=     -339.02389874  energy(sigma->0) =     -339.53603193