 vasp.5.4.4.18Apr17-6-g9f103f2a35 (build Aug 13 2019 17:33:20) gamma-only

 executed on             LinuxIFC date 2020.05.12  14:10:00

 INCAR:
 POTCAR:    PAW_PBE Ni_pv 06Sep2000
 POTCAR:    PAW_PBE S 06Sep2000
 POTCAR:    PAW_PBE Ni_pv 06Sep2000
   VRHFIN =Ni:

   TITEL  = PAW_PBE Ni_pv 06Sep2000
   POMASS =   58.690; ZVAL   =   16.000    mass and valenz
   ENMAX  =  367.986; ENMIN  =  275.989 eV

 POTCAR:    PAW_PBE S 06Sep2000
   VRHFIN =S : s2p4

   TITEL  = PAW_PBE S 06Sep2000
   POMASS =   32.066; ZVAL   =    6.000    mass and valenz
   ENMAX  =  258.689; ENMIN  =  194.016 eV

 Optimization of the real space projectors (new method)

 maximal supplied QI-value         = 18.90
 optimisation between [QCUT,QGAM] = [ 10.77, 21.73] = [ 32.49,132.25] Ry
 Optimized for a Real-space Cutoff    1.38 Angstroem

   l    n(q)    QCUT    max X(q) W(low)/X(q) W(high)/X(q)  e(spline)
   1      8    10.771     2.836    0.40E-04    0.29E-04    0.12E-06
   1      8    10.771     4.023    0.10E-03    0.48E-04    0.29E-06
   2      8    10.771    73.368    0.42E-03    0.97E-04    0.44E-06
   2      8    10.771    69.010    0.42E-03    0.99E-04    0.45E-06
   0      9    10.771    54.797    0.10E-03    0.56E-04    0.74E-07
   0      9    10.771    24.266    0.89E-04    0.49E-04    0.67E-07
 Optimization of the real space projectors (new method)

 maximal supplied QI-value         = 19.84
 optimisation between [QCUT,QGAM] = [ 10.71, 21.63] = [ 32.15,130.99] Ry
 Optimized for a Real-space Cutoff    1.19 Angstroem

   l    n(q)    QCUT    max X(q) W(low)/X(q) W(high)/X(q)  e(spline)
   0      8    10.715   187.594    0.41E-03    0.53E-04    0.66E-07
   0      8    10.715   164.243    0.41E-03    0.53E-04    0.65E-07
   1      7    10.715    67.533    0.19E-03    0.59E-03    0.68E-07
   1      7    10.715    50.729    0.19E-03    0.58E-03    0.67E-07
  PAW_PBE Ni_pv 06Sep2000               :
  PAW_PBE S 06Sep2000                   :

 POSCAR: Type_036 Type_136
  positions in cartesian coordinates
 exchange correlation table for  LEXCH =        8
   RHO(1)=    0.500       N(1)  =     2000
   RHO(2)=  100.500       N(2)  =     4000

 ion  position               nearest neighbor table
   1  0.374  0.751  0.095-  61 2.05  50 2.10  41 2.25  62 2.36  51 2.36  14 2.40
   2  0.525  0.601  0.223-  42 2.25  51 2.26  62 2.26  63 2.36  52 2.36  15 2.53  27 2.53
   3  0.675  0.451  0.351-  43 2.25  63 2.26  52 2.26  64 2.36  53 2.36  32 2.39  28 2.53  16 2.53

   4  0.786  0.325  0.466-  65 2.00  64 2.04  53 2.09  44 2.11  32 2.46
   5  0.562  0.166  0.073-  46 2.08  47 2.08  68 2.22  54 2.26   6 2.36
   6  0.758  0.035  0.138-  68 2.05  54 2.07  47 2.25   5 2.36  55 2.36  69 2.36  29 2.53  20 2.53

[...]

  11  0.377  0.060  0.419-  59 2.03  72 2.03  38 2.05  10 2.53
  12  0.988  0.466  0.084-  57 2.03  39 2.12  60 2.18  70 2.23
  13  0.010  0.116  0.412-  65 2.01  38 2.10  56 2.25  64 2.26  37 2.26
  14  0.572  0.564  0.050-  62 2.04  39 2.05  61 2.07   1 2.40
  15  0.709  0.416  0.155-  54 2.16  39 2.26  62 2.26  40 2.36  63 2.36  27 2.53   2 2.53
  16  0.860  0.266  0.283-  55 2.25  63 2.26  40 2.26  37 2.36  64 2.36   3 2.53  28 2.53
  17  0.093  0.700  0.198-  57 2.25  41 2.26  69 2.26  42 2.36  66 2.36  30 2.53   8 2.53
  18  0.243  0.549  0.326-  67 2.07  58 2.25  66 2.26  42 2.26  43 2.36
  19  0.384  0.407  0.435-  43 2.02  59 2.09  44 2.10  67 2.11
  20  0.943  0.850  0.070-  45 1.98  60 2.14  68 2.22  69 2.36  41 2.36   6 2.53  29 2.53
  21  0.326  0.133  0.113-  50 2.12  46 2.14  70 2.24  71 2.36  47 2.36  34 2.53   9 2.53
  22  0.476  0.983  0.241-  51 2.25  71 2.26  47 2.26  48 2.36  72 2.36  35 2.53  10 2.53
  23  0.616  0.844  0.354-  48 2.05  72 2.10  52 2.17  49 2.22  24 2.42
  24  0.737  0.706  0.447-  49 2.01  53 2.02  23 2.42  32 2.47
  25  0.047  0.362  0.429-  37 2.03  38 2.08  53 2.14  67 2.16
  26  0.623  0.791  0.083-  51 2.05  50 2.13  68 2.14  39 2.23
  27  0.749  0.641  0.189-  69 2.25  51 2.26  39 2.26  40 2.36  52 2.36  15 2.53   2 2.53
  28  0.899  0.491  0.317-  66 2.25  52 2.26  40 2.26  53 2.36  37 2.36   3 2.53  16 2.53
  29  0.982  0.074  0.104-  45 1.97  70 2.23  54 2.28  41 2.36  55 2.36   6 2.53  20 2.53
  30  0.133  0.924  0.232-  71 2.25  55 2.26  41 2.26  56 2.36  42 2.36   8 2.53  17 2.53
  31  0.269  0.793  0.344-  42 2.03  56 2.06  72 2.16  43 2.64
  32  0.591  0.555  0.455-  44 2.02  43 2.08  53 2.32   3 2.39   4 2.46  24 2.47
  33  0.243  0.520  0.043-  57 2.03  61 2.06  60 2.13  46 2.17
  34  0.366  0.358  0.147-  46 2.07  62 2.25  57 2.26  47 2.36  58 2.36  21 2.53   9 2.53
  35  0.516  0.207  0.275-  63 2.25  58 2.26  47 2.26  48 2.36  59 2.36  10 2.53  22 2.53
  36  0.656  0.071  0.389-  48 2.05  59 2.10  49 2.16  64 2.18
  37  0.064  0.262  0.341-  25 2.03  10 2.25  13 2.26  16 2.36  28 2.36  38 2.67
  38  0.178  0.159  0.456-  11 2.05  25 2.08  13 2.10  37 2.67  65 2.69
  39  0.763  0.563  0.085-  14 2.05  12 2.12  26 2.23  15 2.26  27 2.26
  40  0.914  0.412  0.213-   9 2.25  16 2.26  28 2.26  27 2.36  15 2.36
  41  0.147  0.846  0.128-   1 2.25  17 2.26  30 2.26  20 2.36  29 2.36
  42  0.297  0.696  0.256-  31 2.03   2 2.25  18 2.26  30 2.36  17 2.36
  43  0.447  0.545  0.384-  19 2.02  32 2.08   3 2.25  18 2.36  31 2.64  44 2.76
  44  0.570  0.375  0.489-  32 2.02  19 2.10   4 2.11  43 2.76
  45  0.974  0.999  0.016-  29 1.97  20 1.98
  46  0.355  0.293  0.052-  34 2.07   5 2.08  21 2.14  33 2.17
  47  0.530  0.129  0.171-   5 2.08   6 2.25  22 2.26  35 2.26  34 2.36  21 2.36
  48  0.680  0.979  0.299-  36 2.05  23 2.05   8 2.25  35 2.36  22 2.36  49 2.66
  49  0.799  0.859  0.410-  24 2.01  36 2.16   7 2.16  23 2.22  48 2.66
  50  0.412  0.934  0.065-   1 2.10  21 2.12  26 2.13  51 2.61
  51  0.528  0.798  0.171-  26 2.05  22 2.25  27 2.26   2 2.26   1 2.36  50 2.61
  52  0.678  0.648  0.299-  23 2.17  28 2.26   3 2.26  27 2.36   2 2.36
  53  0.829  0.497  0.427-  24 2.02   4 2.09  25 2.14  32 2.32  28 2.36   3 2.36
  54  0.752  0.225  0.099-   6 2.07  15 2.16   5 2.26  29 2.28
  55  0.911  0.081  0.214-  16 2.25   8 2.26  30 2.26   6 2.36  29 2.36
  56  0.062  0.931  0.342-  31 2.06   7 2.07  13 2.25  30 2.36   8 2.36
  57  0.145  0.515  0.129-  33 2.03  12 2.03  17 2.25  34 2.26   9 2.26  60 2.44
  58  0.295  0.364  0.257-  18 2.25  10 2.26  35 2.26   9 2.36  34 2.36
  59  0.445  0.214  0.385-  11 2.03  19 2.09  36 2.10  35 2.36  10 2.36
  60  0.023  0.639  0.032-  33 2.13  20 2.14  12 2.18  57 2.44
  61  0.367  0.635  0.014-   1 2.05  33 2.06  14 2.07  62 2.70
  62  0.477  0.512  0.128-  14 2.04  34 2.25  15 2.26   2 2.26   1 2.36  61 2.70
  63  0.628  0.362  0.256-  35 2.25   3 2.26  16 2.26   2 2.36  15 2.36
  64  0.778  0.212  0.384-   4 2.04  36 2.18  13 2.26  16 2.36   3 2.36
  65  0.932  0.149  0.502-   4 2.00  13 2.01  38 2.69
  66  0.011  0.645  0.299-   7 2.01  28 2.25  18 2.26   8 2.36  17 2.36
  67  0.166  0.499  0.413-  18 2.07  19 2.11  25 2.16   7 2.61
  68  0.710  0.947  0.055-   6 2.05  26 2.14  20 2.22   5 2.22
  69  0.861  0.795  0.171-  27 2.25  17 2.26   8 2.26   6 2.36  20 2.36
  70  0.091  0.232  0.097-   9 2.06  29 2.23  12 2.23  21 2.24
  71  0.244  0.079  0.214-  30 2.25  22 2.26  10 2.26   9 2.36  21 2.36
  72  0.395  0.928  0.342-  11 2.03  23 2.10  31 2.16  10 2.36  22 2.36

  LATTYP: Found a base centered orthorhombic cell.
 ALAT       =    11.4527836704
 B/A-ratio  =     1.4485816945
 C/A-ratio  =     1.7908432109

  Lattice vectors:

 A1 = (  10.0797329849,   0.0000000000,   0.0000000000)
 A2 = (  -3.5732980427,  -9.4251025535,   0.0000000000)
 A3 = (   0.0000000000,   0.0000000000, -20.5101398818)

Analysis of symmetry for initial positions (statically):
 Subroutine PRICEL returns:
 Original cell was already a primitive cell.

 Routine SETGRP: Setting up the symmetry group for a
 base centered orthorhombic supercell.

 Subroutine GETGRP returns: Found  1 space group operations
 (whereof  1 operations were pure point group operations)
 out of a pool of  8 trial point group operations.

The static configuration has the point symmetry C_1 .

Analysis of symmetry for dynamics (positions and initial velocities):
 Subroutine PRICEL returns:
 Original cell was already a primitive cell.

 Routine SETGRP: Setting up the symmetry group for a
 base centered orthorhombic supercell.

 Subroutine GETGRP returns: Found  1 space group operations
 (whereof  1 operations were pure point group operations)
 out of a pool of  8 trial point group operations.

The dynamic configuration has the point symmetry C_1 .

 Subroutine INISYM returns: Found  1 space group operations
 (whereof  1 operations are pure point group operations),
 and found     1 'primitive' translations

 KPOINTS: gamma-point-only calculation. no periodi

Automatic generation of k-mesh.
Space group operators:
 irot       det(A)        alpha          n_x          n_y          n_z        tau_x        tau_y        tau_z
    1     1.000000     0.000000     1.000000     0.000000     0.000000     0.000000     0.000000     0.000000

 Subroutine IBZKPT returns following result:

 Found      1 irreducible k-points:

 Following reciprocal coordinates:
            Coordinates               Weight
  0.000000  0.000000  0.000000      1.000000

 Following cartesian coordinates:
            Coordinates               Weight
  0.000000  0.000000  0.000000      1.000000

 SYSTEM =  "Millerite NiS"
 POSCAR =  Type_036 Type_136

 Startparameter for this run:
   NWRITE =      2    write-flag & timer
   PREC   = normal    normal or accurate (medium, high low for compatibility)
   ISTART =      0    job   : 0-new  1-cont  2-samecut
   ICHARG =      2    charge: 1-file 2-atom 10-const
   ISPIN  =      1    spin polarized calculation?
   LNONCOLLINEAR =      F non collinear calculations
   LSORBIT =      F    spin-orbit coupling
   INIWAV =      1    electr: 0-lowe 1-rand  2-diag
   LASPH  =      F    aspherical Exc in radial PAW
   METAGGA=      F    non-selfconsistent MetaGGA calc.

 Electronic Relaxation 1
   ENCUT  =  450.0 eV  33.07 Ry    5.75 a.u.  17.43 17.43 35.48*2*pi/ulx,y,z
   ENINI  =  450.0     initial cutoff
   ENAUG  =  703.4 eV  augmentation charge cutoff
   NELM   =    100;   NELMIN=  2; NELMDL= -5     # of ELM steps
   EDIFF  = 0.1E-03   stopping-criterion for ELM
   LREAL  =      T    real-space projection
   NLSPLINE    = F    spline interpolate recip. space projectors
   LCOMPAT=      F    compatible to vasp.4.4
   GGA_COMPAT  = T    GGA compatible to vasp.4.4-vasp.4.6
   LMAXPAW     = -100 max onsite density
   LMAXMIX     =    2 max onsite mixed and CHGCAR
   VOSKOWN=      0    Vosko Wilk Nusair interpolation
   ROPT   =   -0.00050  -0.00050
 Ionic relaxation
   EDIFFG = 0.1E-02   stopping-criterion for IOM
   NSW    =      0    number of steps for IOM
   NBLOCK =      1;   KBLOCK =      1    inner block; outer block
   IBRION =     -1    ionic relax: 0-MD 1-quasi-New 2-CG
   NFREE  =      0    steps in history (QN), initial steepest desc. (CG)
   ISIF   =      2    stress and relaxation
   IWAVPR =     10    prediction:  0-non 1-charg 2-wave 3-comb
   ISYM   =      2    0-nonsym 1-usesym 2-fastsym
   LCORR  =      T    Harris-Foulkes like correction to forces

[...]
  Fock        0.00000     0.00000     0.00000     0.00000     0.00000     0.00000
  Total      61.39770    67.03533    99.47147     7.34228     2.21666    -0.10730
  in kB      50.48461    55.12018    81.79097     6.03723     1.82267    -0.08823

 VOLUME and BASIS-vectors are now :
  energy-cutoff  :      450.00
  volume of cell :     1948.51
      direct lattice vectors                 reciprocal lattice vectors
    10.079732985  0.000000000  0.000000000     0.099208977 -0.037612667  0.000000000
     3.573298043  9.425102554  0.000000000     0.000000000  0.106099641  0.000000000
     0.000000000  0.000000000 20.510139882     0.000000000  0.000000000  0.048756372

  length of vectors
    10.079732985 10.079732985 20.510139882     0.106099641  0.106099641  0.048756372

 FORCES acting on ions
    electron-ion (+dipol)            ewald-force                    non-local-force                 convergence-correction
   0.475E+03 -.510E+03 0.364E+04   -.478E+03 0.514E+03 -.364E+04   0.352E+01 -.324E+01 0.322E+01   -.778E-02 0.354E-02 -.291E-01
   0.472E+03 -.157E+03 0.259E+03   -.473E+03 0.158E+03 -.259E+03   0.845E+00 -.576E+00 0.234E+00   0.893E-02 -.247E-02 -.728E-01
   0.463E+03 -.890E+02 -.224E+04   -.465E+03 0.890E+02 0.223E+04   0.160E+01 -.613E+00 0.273E+01   -.384E-01 0.127E-01 0.490E-01
   0.479E+02 0.344E+03 -.523E+04   -.488E+02 -.345E+03 0.524E+04   0.680E+00 0.263E+01 -.560E+01   -.380E-01 0.262E-01 0.686E-01
   -.159E+03 -.110E+03 0.490E+04   0.160E+03 0.113E+03 -.491E+04   -.817E+00 -.285E+01 0.620E+01   0.137E-02 -.253E-02 -.306E-01
   0.133E+02 -.413E+02 0.237E+04   -.122E+02 0.398E+02 -.237E+04   -.349E+00 0.435E+00 -.169E+01   -.130E-01 0.291E-01 -.676E-01
   -.789E+02 -.553E+02 -.408E+04   0.781E+02 0.572E+02 0.408E+04   0.119E+01 -.203E+01 0.144E+00   0.106E-01 0.415E-02 0.471E-01
   0.319E+03 -.195E+03 -.661E+03   -.320E+03 0.196E+03 0.660E+03   0.125E+01 -.860E+00 0.137E+01   0.191E-01 -.414E-02 -.498E-01
   0.405E+03 0.165E+01 0.133E+04   -.406E+03 -.182E+01 -.133E+04   0.895E+00 0.238E+00 -.151E+01   0.104E-02 -.218E-02 -.795E-01
   0.474E+03 -.150E+03 -.161E+04   -.475E+03 0.151E+03 0.161E+04   0.125E+01 -.968E+00 0.956E+00   -.316E-01 0.410E-01 -.126E+00
   0.146E+03 0.384E+03 -.485E+04   -.149E+03 -.382E+03 0.485E+04   0.347E+01 -.209E+01 0.563E+00   0.222E-02 0.586E-02 0.445E-01
   0.369E+03 0.201E+03 0.440E+04   -.374E+03 -.202E+03 -.441E+04   0.456E+01 0.343E+00 0.332E+01   -.302E-02 -.241E-02 -.400E-01
   -.710E+02 0.884E+03 -.390E+04   0.709E+02 -.890E+03 0.390E+04   -.107E+00 0.565E+01 -.633E+00   -.629E-01 0.234E-02 0.380E-01
   -.241E+03 0.479E+03 0.526E+04   0.240E+03 -.478E+03 -.527E+04   0.114E+01 -.195E+01 0.165E+01   -.748E-02 -.121E-02 -.234E-01
   -.116E+03 0.592E+03 0.249E+04   0.115E+03 -.595E+03 -.249E+04   -.446E-01 0.292E+01 0.242E+00   -.258E-02 0.497E-02 -.450E-01
   -.633E+02 0.568E+03 -.561E+03   0.631E+02 -.568E+03 0.560E+03   0.203E+00 0.632E+00 0.126E+01   -.119E-01 -.121E-01 -.463E-01
   -.589E+02 0.394E+03 0.136E+04   0.587E+02 -.394E+03 -.136E+04   0.116E+00 -.214E-01 0.112E+01   0.309E-01 -.131E-01 -.763E-01
   -.537E+02 0.168E+03 -.193E+04   0.525E+02 -.169E+03 0.193E+04   0.126E+01 0.149E+01 0.223E+01   0.234E-01 0.884E-02 0.417E-02
   0.367E+03 -.661E+02 -.474E+04   -.369E+03 0.642E+02 0.474E+04   0.194E+01 0.125E+01 -.241E+00   0.617E-01 0.646E-01 0.869E-01
   -.660E+02 0.305E+03 0.460E+04   0.656E+02 -.309E+03 -.460E+04   -.447E+00 0.327E+01 0.444E+01   0.155E-02 0.146E-01 -.389E-01
   0.460E+03 0.493E+03 0.374E+04   -.463E+03 -.496E+03 -.374E+04   0.241E+01 0.342E+01 0.221E+01   0.103E-01 -.355E-02 -.564E-01
   0.990E+02 0.445E+03 0.377E+03   -.100E+03 -.445E+03 -.379E+03   0.984E+00 -.222E-01 0.142E+01   0.505E-02 -.337E-01 -.114E+00
   0.219E+03 0.201E+03 -.272E+04   -.221E+03 -.206E+03 0.273E+04   0.212E+01 0.466E+01 -.127E+01   0.372E-01 -.690E-01 -.268E-01
   -.281E+03 -.453E+03 -.510E+04   0.280E+03 0.453E+03 0.510E+04   0.119E+01 0.395E+00 0.362E+01   -.191E-01 -.536E-01 0.683E-01
   -.572E+03 -.274E+03 -.462E+04   0.579E+03 0.278E+03 0.462E+04   -.692E+01 -.246E+01 -.113E+01   -.345E-01 0.241E-01 0.559E-01
   -.270E+03 -.246E+03 0.441E+04   0.274E+03 0.248E+03 -.441E+04   -.348E+01 -.273E+01 0.343E+01   -.580E-02 0.659E-02 -.281E-01
   -.456E+03 -.202E+03 0.128E+04   0.457E+03 0.203E+03 -.128E+04   -.479E+00 -.296E+00 -.132E+01   -.257E-01 -.159E-01 -.667E-01
   -.529E+03 -.280E+03 -.156E+04   0.529E+03 0.281E+03 0.156E+04   -.293E+00 -.120E+01 0.237E+01   -.108E-01 0.437E-02 -.257E-01
   -.542E+03 -.428E+03 0.373E+04   0.545E+03 0.432E+03 -.373E+04   -.260E+01 -.288E+01 0.249E+01   -.574E-02 0.108E-01 -.444E-01
   -.417E+03 -.328E+03 0.425E+03   0.417E+03 0.330E+03 -.426E+03   -.385E+00 -.132E+01 0.154E+01   0.241E-01 -.164E-01 -.727E-01
   -.310E+03 -.961E+02 -.306E+04   0.311E+03 0.973E+02 0.306E+04   -.582E+00 -.142E+01 0.158E+00   -.186E-01 -.359E-01 -.285E-01
   0.545E+03 -.880E+03 -.505E+04   -.545E+03 0.883E+03 0.505E+04   0.456E+00 -.131E+01 -.101E+01   -.378E-01 -.295E-01 0.829E-01
   0.364E+02 -.490E+02 0.507E+04   -.321E+02 0.525E+02 -.508E+04   -.449E+01 -.433E+01 0.568E+01   0.113E-01 -.605E-02 -.442E-01
   -.309E+03 -.315E+03 0.223E+04   0.309E+03 0.316E+03 -.222E+04   -.316E+00 -.112E+01 -.184E+01   0.644E-02 -.290E-02 -.706E-01
   -.398E+03 -.311E+03 -.664E+03   0.399E+03 0.312E+03 0.663E+03   -.483E+00 -.116E+01 0.426E+00   0.469E-01 0.246E-01 -.773E-01
   -.285E+03 -.109E+01 -.399E+04   0.287E+03 0.410E+01 0.399E+04   -.177E+01 -.295E+01 -.160E+01   0.897E-01 0.201E-01 0.255E-01
   -.115E+03 0.110E+03 -.675E+03   0.116E+03 -.111E+03 0.671E+03   -.190E+01 -.394E-01 0.619E+00   -.255E-01 0.119E-02 0.275E-03
   -.127E+03 0.181E+03 -.203E+04   0.130E+03 -.182E+03 0.203E+04   -.252E+01 -.630E+00 -.157E+01   -.651E-01 0.298E-01 0.493E-01
   -.191E+03 0.109E+03 0.173E+04   0.192E+03 -.109E+03 -.173E+04   -.198E+00 0.542E+00 0.252E+01   -.125E-02 -.390E-02 -.230E-02
   -.115E+03 0.712E+02 0.413E+03   0.117E+03 -.713E+02 -.414E+03   -.168E+01 0.388E+00 0.148E+01   -.126E-01 0.337E-02 -.355E-01
   -.152E+03 -.394E+02 0.125E+04   0.154E+03 0.382E+02 -.125E+04   -.126E+01 0.127E+01 0.105E+01   0.912E-02 -.434E-02 -.100E-01
   -.111E+03 0.639E+02 0.329E+02   0.113E+03 -.653E+02 -.344E+02   -.192E+01 0.214E+00 -.256E+00   0.478E-02 0.433E-02 -.294E-01
   0.128E+03 -.245E+03 -.116E+04   -.127E+03 0.248E+03 0.116E+04   -.724E+00 -.557E+00 0.647E+00   0.764E-02 -.101E-01 0.433E-01
   0.254E+03 0.179E+03 -.212E+04   -.255E+03 -.181E+03 0.213E+04   0.398E+00 0.941E+00 -.156E+01   -.157E-02 0.305E-01 0.194E-01
   -.156E+03 -.151E+03 0.223E+04   0.157E+03 0.152E+03 -.224E+04   -.386E+00 -.113E+00 0.642E-01   0.176E-02 0.984E-02 -.256E-01
   0.992E+02 0.561E+02 0.213E+04   -.100E+03 -.569E+02 -.214E+04   0.991E+00 0.936E+00 0.175E+01   0.135E-02 -.288E-02 -.171E-01
   -.742E+02 0.572E+02 0.638E+03   0.750E+02 -.581E+02 -.635E+03   -.111E+01 0.690E+00 -.449E+00   0.420E-02 0.523E-03 -.376E-01
   -.167E+03 0.268E+02 -.320E+03   0.169E+03 -.267E+02 0.316E+03   -.193E+01 0.768E+00 0.392E+00   0.161E-03 0.316E-02 -.124E-01
   -.236E+03 -.867E+02 -.169E+04   0.237E+03 0.861E+02 0.170E+04   -.680E+00 0.817E+00 -.227E+01   0.926E-02 -.409E-02 0.197E-01
   0.138E+03 -.164E+03 0.188E+04   -.139E+03 0.166E+03 -.188E+04   0.512E+00 -.105E+01 0.360E+01   -.179E-02 0.240E-02 -.141E-01
   0.103E+03 -.174E+03 0.579E+03   -.104E+03 0.175E+03 -.577E+03   0.113E-01 -.121E+01 -.201E-01   -.206E-02 -.942E-02 -.213E-01
   0.317E+02 -.160E+03 -.475E+03   -.319E+02 0.162E+03 0.476E+03   0.142E+00 -.234E+01 -.141E+01   -.901E-02 0.269E-02 -.233E-01
   -.249E+03 -.148E+03 -.167E+04   0.252E+03 0.150E+03 0.167E+04   -.221E+01 -.748E+00 -.134E+01   -.212E-01 0.459E-02 0.355E-01
   -.147E+03 -.179E+03 0.159E+04   0.147E+03 0.182E+03 -.159E+04   0.936E-01 -.143E+01 0.216E+01   -.426E-02 0.111E-02 -.987E-02
   -.247E+02 -.158E+03 0.281E+03   0.248E+02 0.160E+03 -.281E+03   0.286E-01 -.249E+01 0.256E+00   0.559E-02 0.119E-01 -.334E-01
   -.241E+02 -.169E+03 -.104E+04   0.245E+02 0.170E+03 0.104E+04   -.383E+00 -.422E+00 -.175E+01   0.191E-02 0.480E-02 0.642E-02
   0.165E+02 -.146E+03 0.972E+03   -.157E+02 0.148E+03 -.969E+03   -.649E-01 -.726E+00 0.137E-01   0.628E-02 0.384E-02 -.200E-01
   0.232E+02 -.180E+03 -.137E+03   -.231E+02 0.182E+03 0.138E+03   -.116E+00 -.231E+01 -.162E+01   0.518E-02 0.118E-01 -.355E-01
   -.148E+02 -.120E+03 -.137E+04   0.150E+02 0.121E+03 0.137E+04   -.199E+00 -.808E+00 -.151E+01   0.564E-01 0.684E-01 0.604E-02
   0.122E+03 -.521E+02 0.203E+04   -.124E+03 0.541E+02 -.204E+04   0.130E+01 -.175E+01 0.388E+01   0.378E-02 -.102E-01 -.232E-01
   0.772E+02 -.111E+03 0.218E+04   -.772E+02 0.113E+03 -.218E+04   -.235E+00 -.160E+01 0.150E+01   -.603E-02 0.290E-03 -.182E-01
   0.160E+03 0.867E+02 0.104E+04   -.162E+03 -.885E+02 -.104E+04   0.211E+01 0.168E+01 0.361E+00   0.380E-02 0.119E-02 -.946E-02
   0.147E+03 0.738E+02 -.281E+02   -.149E+03 -.749E+02 0.285E+02   0.204E+01 0.124E+01 -.187E+00   0.280E-02 0.674E-02 -.314E-01
   0.121E+03 0.252E+03 -.116E+04   -.124E+03 -.254E+03 0.115E+04   0.219E+01 0.145E+01 -.288E+00   0.512E-02 -.110E-02 0.185E-01
   -.173E+02 0.365E+03 -.217E+04   0.162E+02 -.367E+03 0.217E+04   0.126E+01 0.460E+00 -.108E+01   -.724E-02 -.105E-02 0.267E-01
   0.954E+02 0.117E+03 -.423E+03   -.971E+02 -.119E+03 0.423E+03   0.111E+01 0.769E+00 -.185E+01   0.455E-02 -.730E-03 -.140E-01
   0.553E+02 -.153E+03 -.172E+04   -.557E+02 0.155E+03 0.172E+04   -.435E+00 -.488E+00 -.505E+00   0.166E-01 0.383E-02 0.325E-01
   0.669E+02 0.409E+02 0.204E+04   -.690E+02 -.411E+02 -.204E+04   0.157E+01 -.615E+00 0.189E+01   -.535E-02 0.116E-01 -.147E-01
   0.960E+02 0.614E+02 0.716E+03   -.977E+02 -.627E+02 -.717E+03   0.211E+01 0.110E+01 0.978E+00   -.739E-02 -.101E-01 -.303E-01
   0.171E+03 0.127E+03 0.167E+04   -.172E+03 -.127E+03 -.168E+04   0.244E-01 -.251E+00 0.104E+01   0.238E-02 -.297E-02 -.175E-01
   0.184E+03 0.819E+02 0.369E+03   -.186E+03 -.832E+02 -.369E+03   0.276E+01 0.102E+01 0.497E+00   -.838E-02 -.917E-02 -.420E-01
   0.190E+03 0.171E+03 -.933E+03   -.192E+03 -.173E+03 0.934E+03   0.227E+00 0.115E+01 -.181E+01   -.123E-01 -.555E-01 -.549E-01
   -.833E+01 0.153E+02 -.393E+02   -.156E-11 -.210E-11 -.568E-11   0.843E+01 -.152E+02 0.404E+02   -.212E-01 0.940E-01 -.114E+01

 POSITION                                       TOTAL-FORCE (eV/Angst)
      6.45801      7.08167      1.95077        -0.383762      0.883079      2.018666
      7.43572      5.66537      4.57627         0.088637     -0.117861      0.113036
      8.41343      4.24907      7.20177         0.161909     -0.587980     -1.013143
      9.08138      3.06278      9.55754        -0.258341      0.920514      0.838331
      6.26266      1.56637      1.49799         0.764937      0.163378     -1.022221
      7.76163      0.32617      2.82594         0.733785     -1.079254      2.884483
      2.88760      7.15615      7.76843         0.404617     -0.145031      1.632452
     12.31264      8.33497      5.45144         0.245991      0.101887     -0.080723
      2.55881      2.99577      3.70110         0.464153      0.069906      1.560651
      3.53652      1.57947      6.32660         0.012668     -0.074088     -0.451179
      4.01321      0.56645      8.59307         0.589294     -0.586624      0.851796
     11.62532      4.39520      1.73052        -0.391237     -0.388121     -1.257235
      0.51382      1.09100      8.43993        -0.272967     -0.028423     -2.579310
      7.78690      5.31918      1.01806         0.431844     -0.687884     -1.270272
      8.63813      3.92359      3.18892        -0.281080     -0.047583      0.522669
      9.61584      2.50729      5.81443         0.000133      0.081869     -0.089981
      3.43531      6.59319      4.06409        -0.048350      0.114949      0.150215
      4.41302      5.17689      6.68959         0.169512      0.748386     -1.173792
      5.32520      3.83347      8.92145        -0.604824     -0.611356      0.899828
     12.53733      8.00949      1.43859        -0.818182     -1.388583      1.595271
      3.76121      1.25399      2.31376        -0.642202     -0.112557      0.574957
      8.31222      9.26279      4.93926        -0.128829     -0.228238     -0.058868
      9.22240      7.95407      7.26575        -0.188629     -0.423944      0.860303
      9.95101      6.65520      9.16792        -0.443082     -0.054449      1.033308
      1.76382      3.41219      8.79187         0.123381      1.165280      0.596424
      9.09997      7.45065      1.69416         0.321550     -0.383274     -0.928879
      9.84053      6.03956      3.88260        -0.168991      0.001341      0.076794
     10.81824      4.62327      6.50810         0.075838     -0.180561      0.047819
     10.16643      0.70036      2.13226         0.441059      0.954050      2.556102
      4.63771      8.70917      4.75776        -0.028283      0.030659     -0.006698
      5.54642      7.47405      7.05897         0.935818     -0.215048      1.391218
      7.93862      5.23088      9.32841         0.851587      1.391767      0.608102
      4.31326      4.90524      0.89110        -0.165602     -0.800076     -0.969877
      4.96362      3.36996      3.00743         0.073660      0.243906      1.429403
      5.94133      1.95367      5.63293         0.239263      0.164886     -0.123662
      6.86678      0.67212      7.97727         0.363922      0.080111      1.065875
      1.57981      2.47018      7.00134        -0.475156     -0.614471     -2.774521
      2.36021      1.49742      9.35708         0.629684     -1.014026      2.709902
      9.70412      5.30277      1.75033         0.780249      0.030280     -0.428956
     10.68183      3.88647      4.37584        -0.252849      0.241824      0.341387
      4.50130      7.97237      2.62550         0.171225      0.007370      0.158467
      5.47901      6.55607      5.25100         0.047531     -1.211858     -1.765598
      6.45673      5.13978      7.87651         0.250806      2.567995     -1.645112
      7.08438      3.53554     10.02876        -1.204421     -0.967191      2.855883
     13.38968      9.41322      0.32415         0.749665      0.800630     -4.341919
      4.61955      2.75940      1.06310         0.185492      0.164246     -3.300445
      5.80492      1.21687      3.50067        -0.349158     -0.181598      1.752781
     10.35593      9.22568      6.12617         0.377388      0.897408     -3.425644
     11.12647      8.09829      8.40720         0.884884      0.177515      1.630623
      7.49255      8.80165      1.34128        -0.313187      0.820153     -1.898941
      8.17302      7.52069      3.51693        -0.879037     -0.350619      2.498771
      9.15074      6.10439      6.14243        -0.020183     -0.263610     -0.880448
     10.12845      4.68809      8.76794         0.375870      1.355713      0.055949
      8.38692      2.12414      2.02515         0.719634      1.786804     -1.647593
      9.47664      0.76519      4.39210         0.170982     -0.110484      0.449280
      3.94792      8.77399      7.01760        -0.020975      1.416503      0.041423
      3.29611      4.85108      2.64176         0.670415      0.750642      3.293431
      4.27382      3.43479      5.26727        -0.046392      0.090129     -0.218467
      5.25153      2.01849      7.89277         0.020009      0.510805     -0.633186
      2.51014      6.02251      0.64994        -0.421696      0.229218     -1.473288
      5.96732      5.98190      0.29353        -0.160028      0.134151     -3.390590
      6.64193      4.82628      2.63363        -0.358337     -0.151103      2.158643
      7.61964      3.40999      5.25914        -0.026853      0.116751      0.162331
      8.59735      1.99369      7.88464        -0.577551     -1.262854     -1.984517
      9.92780      1.40828     10.30510         0.163831     -1.714680      3.711570
      2.41682      6.07959      6.13430        -0.580272     -1.117439     -2.099134
      3.46162      4.70728      8.47092        -0.771151      0.621132      2.258718
     10.54053      8.92184      1.12235        -0.558295     -0.805427     -2.734612
     11.51884      7.49589      3.50880         0.372983     -0.265651      0.452150
      1.74916      2.18580      1.99172        -1.283656     -0.647617     -1.950028
      2.74272      0.74039      4.38397         0.204723     -0.307799      0.540782
      7.29374      8.74919      7.00947        -1.145375     -0.707876     -0.760954
    total drift:                                0.080271      0.187937     -0.011481

  FREE ENERGIE OF THE ION-ELECTRON SYSTEM (eV)
  free  energy   TOTEN  =      -353.41994394 eV

  energy  without entropy=     -352.45086510  energy(sigma->0) =     -352.93540452