 vasp.5.4.4.18Apr17-6-g9f103f2a35 (build Aug 13 2019 17:33:20) gamma-only

 executed on             LinuxIFC date 2020.05.10  12:36:47

 INCAR:
 POTCAR:    PAW_PBE Ni_pv 06Sep2000
 POTCAR:    PAW_PBE S 06Sep2000
 POTCAR:    PAW_PBE Ni_pv 06Sep2000
   VRHFIN =Ni:

   TITEL  = PAW_PBE Ni_pv 06Sep2000
   POMASS =   58.690; ZVAL   =   16.000    mass and valenz
   ENMAX  =  367.986; ENMIN  =  275.989 eV

 POTCAR:    PAW_PBE S 06Sep2000
   VRHFIN =S : s2p4

   TITEL  = PAW_PBE S 06Sep2000
   POMASS =   32.066; ZVAL   =    6.000    mass and valenz
   ENMAX  =  258.689; ENMIN  =  194.016 eV

 Optimization of the real space projectors (new method)

 maximal supplied QI-value         = 18.90
 optimisation between [QCUT,QGAM] = [ 10.77, 21.73] = [ 32.49,132.25] Ry
 Optimized for a Real-space Cutoff    1.38 Angstroem

   l    n(q)    QCUT    max X(q) W(low)/X(q) W(high)/X(q)  e(spline)
   1      8    10.771     2.836    0.40E-04    0.29E-04    0.12E-06
   1      8    10.771     4.023    0.10E-03    0.48E-04    0.29E-06
   2      8    10.771    73.368    0.42E-03    0.97E-04    0.44E-06
   2      8    10.771    69.010    0.42E-03    0.99E-04    0.45E-06
   0      9    10.771    54.797    0.10E-03    0.56E-04    0.74E-07
   0      9    10.771    24.266    0.89E-04    0.49E-04    0.67E-07
 Optimization of the real space projectors (new method)

 maximal supplied QI-value         = 19.84
 optimisation between [QCUT,QGAM] = [ 10.71, 21.63] = [ 32.15,130.99] Ry
 Optimized for a Real-space Cutoff    1.19 Angstroem

   l    n(q)    QCUT    max X(q) W(low)/X(q) W(high)/X(q)  e(spline)
   0      8    10.715   187.594    0.41E-03    0.53E-04    0.66E-07
   0      8    10.715   164.243    0.41E-03    0.53E-04    0.65E-07
   1      7    10.715    67.533    0.19E-03    0.59E-03    0.68E-07
   1      7    10.715    50.729    0.19E-03    0.58E-03    0.67E-07
  PAW_PBE Ni_pv 06Sep2000               :
  PAW_PBE S 06Sep2000                   :

 POSCAR: Type_026 Type_126
  positions in cartesian coordinates
 exchange correlation table for  LEXCH =        8
   RHO(1)=    0.500       N(1)  =     2000
   RHO(2)=  100.500       N(2)  =     4000

 ion  position               nearest neighbor table
   1  0.443  0.475  0.182-  45 2.07  46 2.14  36 2.20  29 2.25   2 2.51
   2  0.481  0.472  0.326-  42 2.04  36 2.10  46 2.11  30 2.16   1 2.51
   3  0.237  0.831  0.108-  38 2.04  37 2.06  29 2.08  34 2.09  11 2.46
   4  0.215  0.964  0.253-  39 2.07  35 2.21  27 2.25  38 2.26  34 2.26  12 2.53   8 2.53
   5  0.443  0.177  0.186-  40 2.07  41 2.11  34 2.17  36 2.23   6 2.49
   6  0.483  0.196  0.328-  42 2.04  36 2.09  41 2.12  35 2.15   5 2.49
   7  0.175  0.567  0.125-  31 2.06  29 2.07  37 2.11  32 2.19  24 2.33   9 2.48
   8  0.215  0.700  0.253-  39 2.08  30 2.23  32 2.25  38 2.26  29 2.26  12 2.53   4 2.53
   9  0.114  0.328  0.163-  27 2.05  32 2.11  31 2.11  14 2.36   7 2.48
  10  0.182  0.332  0.319-  28 2.05  33 2.07  36 2.25  27 2.26  32 2.26  19 2.43
  11  0.455  0.814  0.098-  51 2.09  29 2.15  12 2.31  34 2.40   3 2.46
  12  0.407  0.832  0.229-  35 2.16  30 2.16  51 2.25  29 2.26  34 2.26  11 2.31  13 2.38   8 2.53
                             4 2.53
  13  0.477  0.838  0.359-  52 2.01  30 2.07  35 2.07  12 2.38
  14  0.939  0.464  0.163-  31 2.02  43 2.25   9 2.36  50 2.36  32 2.36  49 2.43  24 2.53
  15  0.961  0.505  0.310-  33 2.04  32 2.08  50 2.09  44 2.11
  16  0.681  0.098  0.129-  47 2.01  40 2.04  41 2.15  49 2.24  22 2.32  17 2.52
  17  0.715  0.964  0.253-  52 2.07  48 2.22  41 2.25  51 2.26  47 2.26  16 2.52  25 2.53  21 2.53

  18  0.921  0.168  0.199-  47 2.06  50 2.07  49 2.15  27 2.25  48 2.28  19 2.50
  19  0.996  0.207  0.334-  28 2.06  33 2.09  27 2.12  50 2.18  48 2.21  10 2.43  18 2.50
  20  0.620  0.626  0.135-  45 2.02  51 2.14  46 2.16  21 2.39  43 2.46
  21  0.715  0.700  0.253-  52 2.09  44 2.23  46 2.25  51 2.26  43 2.26  20 2.39  25 2.53  17 2.53

[...]

  26  0.997  0.868  0.351-  39 2.01  48 2.08  44 2.11  25 2.36
  27  0.111  0.164  0.239-   9 2.05  19 2.12  18 2.25   4 2.25  10 2.26  28 2.58
  28  0.156  0.158  0.386-  10 2.05  19 2.06  33 2.54  27 2.58
  29  0.336  0.664  0.149-   7 2.07   3 2.08  11 2.15   1 2.25  12 2.26   8 2.26
  30  0.388  0.667  0.314-  13 2.07   2 2.16  12 2.16   8 2.23
  31  0.048  0.449  0.070-  14 2.02   7 2.06   9 2.11  24 2.47  37 2.77
  32  0.111  0.500  0.239-  15 2.08   9 2.11   7 2.19   8 2.25  10 2.26  14 2.36
  33  0.046  0.389  0.392-  15 2.04  10 2.07  19 2.09  28 2.54
  34  0.336  1.000  0.149-   3 2.09   5 2.17  12 2.26   4 2.26  11 2.40
  35  0.389  0.004  0.309-  13 2.07   6 2.15  12 2.16   4 2.21
  36  0.368  0.332  0.269-   6 2.09   2 2.10   1 2.20   5 2.23  10 2.25
  37  0.146  0.705  0.031-  24 2.05   3 2.06   7 2.11  31 2.77
  38  0.092  0.832  0.179-   3 2.04  24 2.13  25 2.25   4 2.26   8 2.26
  39  0.172  0.832  0.344-  26 2.01   4 2.07   8 2.08
  40  0.532  0.182  0.080-  16 2.04   5 2.07  22 2.08
  41  0.611  0.164  0.239-  23 2.08   5 2.11   6 2.12  16 2.15  17 2.25  22 2.36
  42  0.572  0.336  0.396-   2 2.04   6 2.04  23 2.05
  43  0.836  0.664  0.149-  24 2.05  14 2.25  25 2.26  21 2.26  20 2.46
  44  0.881  0.702  0.324-  25 2.07  15 2.11  26 2.11  21 2.23
  45  0.531  0.476  0.076-  20 2.02   1 2.07  22 2.08
  46  0.611  0.500  0.239-  23 2.08   2 2.11   1 2.14  20 2.16  21 2.25  22 2.36
  47  0.836  1.000  0.149-  16 2.01  18 2.06  25 2.26  17 2.26  48 2.69  49 2.74
  48  0.891  0.021  0.301-  26 2.08  25 2.21  19 2.21  17 2.22  18 2.28  47 2.69
  49  0.808  0.279  0.119-  22 2.09  18 2.15  16 2.24  14 2.43  50 2.72  47 2.74
  50  0.868  0.332  0.269-  18 2.07  15 2.09  23 2.17  19 2.18  14 2.36  49 2.72
  51  0.592  0.832  0.179-  11 2.09  20 2.14  12 2.25  17 2.26  21 2.26
  52  0.653  0.834  0.340-  13 2.01  17 2.07  21 2.09

  LATTYP: Found a simple orthorhombic cell.
 ALAT       =     9.5784100000
 B/A-ratio  =     1.1751911892
 C/A-ratio  =     1.7949213288

  Lattice vectors:

 A1 = (   0.0000000000,  -9.5784100000,   0.0000000000)
 A2 = ( -11.2564630382,   0.0000000000,   0.0000000000)
 A3 = (   0.0000000000,   0.0000000000, -17.1924924047)

Analysis of symmetry for initial positions (statically):
 Subroutine PRICEL returns:
 Original cell was already a primitive cell.

 Routine SETGRP: Setting up the symmetry group for a
 simple orthorhombic supercell.

 Subroutine GETGRP returns: Found  1 space group operations
 (whereof  1 operations were pure point group operations)
 out of a pool of  8 trial point group operations.

The static configuration has the point symmetry C_1 .

Analysis of symmetry for dynamics (positions and initial velocities):
 Subroutine PRICEL returns:
 Original cell was already a primitive cell.

 Routine SETGRP: Setting up the symmetry group for a
 simple orthorhombic supercell.

 Subroutine GETGRP returns: Found  1 space group operations
 (whereof  1 operations were pure point group operations)
 out of a pool of  8 trial point group operations.

The dynamic configuration has the point symmetry C_1 .

 Subroutine INISYM returns: Found  1 space group operations
 (whereof  1 operations are pure point group operations),
 and found     1 'primitive' translations

 KPOINTS: gamma-point-only calculation. no periodi

Automatic generation of k-mesh.
Space group operators:
 irot       det(A)        alpha          n_x          n_y          n_z        tau_x        tau_y        tau_z
    1     1.000000     0.000000     1.000000     0.000000     0.000000     0.000000     0.000000     0.000000

 Subroutine IBZKPT returns following result:

 Found      1 irreducible k-points:

 Following reciprocal coordinates:
            Coordinates               Weight
  0.000000  0.000000  0.000000      1.000000

 Following cartesian coordinates:
            Coordinates               Weight
  0.000000  0.000000  0.000000      1.000000

 SYSTEM =  "Millerite NiS"
 POSCAR =  Type_026 Type_126

 Startparameter for this run:
   NWRITE =      2    write-flag & timer
   PREC   = normal    normal or accurate (medium, high low for compatibility)
   ISTART =      0    job   : 0-new  1-cont  2-samecut
   ICHARG =      2    charge: 1-file 2-atom 10-const
   ISPIN  =      1    spin polarized calculation?
   LNONCOLLINEAR =      F non collinear calculations
   LSORBIT =      F    spin-orbit coupling
   INIWAV =      1    electr: 0-lowe 1-rand  2-diag
   LASPH  =      F    aspherical Exc in radial PAW
   METAGGA=      F    non-selfconsistent MetaGGA calc.

 Electronic Relaxation 1
   ENCUT  =  450.0 eV  33.07 Ry    5.75 a.u.  19.47 16.57 29.74*2*pi/ulx,y,z
   ENINI  =  450.0     initial cutoff
   ENAUG  =  703.4 eV  augmentation charge cutoff
   NELM   =    100;   NELMIN=  2; NELMDL= -5     # of ELM steps
   EDIFF  = 0.1E-03   stopping-criterion for ELM
   LREAL  =      T    real-space projection
   NLSPLINE    = F    spline interpolate recip. space projectors
   LCOMPAT=      F    compatible to vasp.4.4
   GGA_COMPAT  = T    GGA compatible to vasp.4.4-vasp.4.6
   LMAXPAW     = -100 max onsite density
   LMAXMIX     =    2 max onsite mixed and CHGCAR
   VOSKOWN=      0    Vosko Wilk Nusair interpolation
   ROPT   =   -0.00050  -0.00050
 Ionic relaxation
   EDIFFG = 0.1E-02   stopping-criterion for IOM
   NSW    =      0    number of steps for IOM
   NBLOCK =      1;   KBLOCK =      1    inner block; outer block
   IBRION =     -1    ionic relax: 0-MD 1-quasi-New 2-CG
   NFREE  =      0    steps in history (QN), initial steepest desc. (CG)
   ISIF   =      2    stress and relaxation
   IWAVPR =     10    prediction:  0-non 1-charg 2-wave 3-comb
   ISYM   =      2    0-nonsym 1-usesym 2-fastsym
   LCORR  =      T    Harris-Foulkes like correction to forces

   POTIM  = 0.5000    time-step for ionic-motion
   TEIN   =    0.0    initial temperature
   TEBEG  =    0.0;   TEEND  =   0.0 temperature during run
   SMASS  =  -3.00    Nose mass-parameter (am)
   estimated Nose-frequenzy (Omega)   =  0.10E-29 period in steps =****** mass=  -0.290E-26a.u.
   SCALEE = 1.0000    scale energy and forces
   NPACO  =    256;   APACO  = 16.0  distance and # of slots for P.C.
   PSTRESS=    0.0 pullay stress

  Mass of Ions in am
   POMASS =  58.69 32.07
  Ionic Valenz
   ZVAL   =  16.00  6.00
  Atomic Wigner-Seitz radii
  virtual crystal weights
   VCA    =   1.00  1.00
   NELECT =     572.0000    total number of electrons
   NUPDOWN=      -1.0000    fix difference up-down

 DOS related values:
   EMIN   =  10.00;   EMAX   =-10.00  energy-range for DOS
   EFERMI =   0.00
   ISMEAR =     0;   SIGMA  =   0.20  broadening in eV -4-tet -1-fermi 0-gaus

 Electronic relaxation 2 (details)
   IALGO  =     38    algorithm
   LDIAG  =      T    sub-space diagonalisation (order eigenvalues)
   LSUBROT=      F    optimize rotation matrix (better conditioning)
   TURBO    =      0    0=normal 1=particle mesh
   IRESTART =      0    0=no restart 2=restart with 2 vectors
   NREBOOT  =      0    no. of reboots
   NMIN     =      0    reboot dimension
   EREF     =   0.00    reference energy to select bands
   IMIX   =      4    mixing-type and parameters
     AMIX     =   0.40;   BMIX     =  1.00
     AMIX_MAG =   1.60;   BMIX_MAG =  1.00
     AMIN     =   0.10
[...]
      26 -87.3329      27 -93.3219      28 -92.4042      29 -93.4092      30 -92.6728
      31 -92.7046      32 -93.3389      33 -92.6053      34 -92.8577      35 -92.8598
      36 -92.9544      37 -92.2533      38 -93.1443      39 -92.1757      40 -92.3958
      41 -93.6248      42 -92.0689      43 -92.8021      44 -92.5385      45 -92.3973
      46 -93.5903      47 -92.7465      48 -93.0515      49 -92.5733      50 -93.2085
      51 -93.0710      52 -92.2074

 E-fermi :  -0.0945     XC(G=0):  -5.3099     alpha+bet : -5.1393

 k-point     1 :       0.0000    0.0000    0.0000
  band No.  band energies     occupation
      1     -65.0723      2.00000
      2     -64.8412      2.00000
      3     -64.8167      2.00000
      4     -64.8135      2.00000
      5     -64.7454      2.00000
      6     -64.7234      2.00000
      7     -64.7145      2.00000
      8     -64.6806      2.00000
      9     -64.6755      2.00000
     10     -64.6659      2.00000
     11     -64.6432      2.00000
     12     -64.6404      2.00000
     13     -64.6212      2.00000
     14     -64.6197      2.00000
     15     -64.6180      2.00000
     16     -64.5899      2.00000
     17     -64.5769      2.00000
     18     -64.5449      2.00000
     19     -64.5199      2.00000
     20     -64.5190      2.00000
     21     -64.5185      2.00000
     22     -64.4921      2.00000
     23     -64.4893      2.00000
     24     -64.4794      2.00000
     25     -64.4650      2.00000
     26     -64.4562      2.00000
     27     -64.4526      2.00000
     28     -64.4258      2.00000
     29     -64.4210      2.00000
     30     -64.4110      2.00000
     31     -64.3909      2.00000
     32     -64.3891      2.00000
     33     -64.3749      2.00000
     34     -64.3727      2.00000
     35     -64.3706      2.00000
     36     -64.3685      2.00000
     37     -64.3664      2.00000
     38     -64.3652      2.00000
     39     -64.3141      2.00000
     40     -64.2972      2.00000
     41     -64.2908      2.00000
     42     -64.2811      2.00000
     43     -64.2760      2.00000
     44     -64.2435      2.00000
     45     -64.2432      2.00000
     46     -64.2144      2.00000
     47     -64.2112      2.00000
     48     -64.1995      2.00000
     49     -64.1962      2.00000
     50     -64.1923      2.00000
     51     -64.1779      2.00000
     52     -64.1726      2.00000
     53     -64.1610      2.00000
     54     -64.1422      2.00000
     55     -64.1374      2.00000
     56     -64.1351      2.00000
     57     -64.1244      2.00000
     58     -64.1187      2.00000
     59     -64.1122      2.00000
     60     -64.0893      2.00000
[...]
    330       5.0477      0.00000
    331       5.0617      0.00000
    332       5.1244      0.00000
    333       5.1860      0.00000
    334       5.2709      0.00000
    335       5.3104      0.00000
    336       5.3517      0.00000
    337       5.3664      0.00000
    338       5.4827      0.00000
    339       5.5480      0.00000
    340       5.5822      0.00000
    341       5.6318      0.00000
    342       5.7137      0.00000
    343       5.7560      0.00000
    344       5.7984      0.00000

 soft charge-density along one line, spin component           1
         0         1         2         3         4         5         6         7         8         9
 total charge-density along one line

------------------------ aborting loop because EDIFF is reached ----------------------------------------

  FORCE on cell =-STRESS in cart. coord.  units (eV):
  Direction    XX          YY          ZZ          XY          YZ          ZX
  Alpha Z  1046.73971  1046.73971  1046.73971
  Ewald  165651.32962165266.38694************  1319.45717  -349.68947  1056.36328
  Hartree190259.64990189950.93868************  1045.72756  -328.04305   633.80089
  E(xc)   -3652.88637 -3652.85835 -3657.32727     0.30745     0.05645     1.23468
  Local  ************************356592.85903 -2352.55434   682.63103 -1649.11217
  n-local  -417.42905  -431.58728  -429.53682     0.69160    -0.55614     2.84018
  augment  4178.58154  4185.63930  4178.35107    -4.37876    -1.72636   -15.55994
  Kinetic  8034.44482  8020.25273  8070.85612    -9.94752    -1.94295   -28.75749
  Fock        0.00000     0.00000     0.00000     0.00000     0.00000     0.00000
  Total     101.08581    89.07771   103.10327    -0.69685     0.72951     0.80942
  in kB      87.37085    76.99197    89.11458    -0.60230     0.63054     0.69960

 VOLUME and BASIS-vectors are now :
  energy-cutoff  :      450.00
  volume of cell :     1853.68
      direct lattice vectors                 reciprocal lattice vectors
    11.256463038  0.000000000  0.000000000     0.088837852  0.000000000  0.000000000
     0.000000000  9.578410000  0.000000000     0.000000000  0.104401461  0.000000000
     0.000000000  0.000000000 17.192492405     0.000000000  0.000000000  0.058164923

  length of vectors
    11.256463038  9.578410000 17.192492405     0.088837852  0.104401461  0.058164923

 FORCES acting on ions
    electron-ion (+dipol)            ewald-force                    non-local-force                 convergence-correction
   0.578E+03 0.166E+03 0.139E+04   -.581E+03 -.166E+03 -.140E+04   0.247E+01 0.297E+00 0.261E+01   -.630E-02 0.614E-02 0.137E-01
   0.202E+03 -.429E+03 -.324E+04   -.204E+03 0.433E+03 0.324E+04   0.133E+01 -.201E+01 -.410E+01   -.113E-01 0.936E-02 0.157E-01
   0.263E+03 -.863E+03 0.352E+04   -.264E+03 0.868E+03 -.353E+04   0.122E+01 -.332E+01 0.941E+01   -.442E-01 -.536E-02 0.119E-01
   0.279E+03 -.720E+03 -.828E+03   -.280E+03 0.725E+03 0.831E+03   0.151E+01 -.324E+01 -.372E+01   -.311E-01 -.195E-01 0.324E-01
   0.694E+03 0.137E+03 0.148E+04   -.698E+03 -.136E+03 -.149E+04   0.241E+01 -.336E+00 0.422E+01   -.879E-02 0.511E-02 0.977E-02
   0.190E+03 0.447E+03 -.322E+04   -.193E+03 -.449E+03 0.322E+04   0.149E+01 0.340E+00 -.492E+01   -.108E-01 0.416E-02 0.243E-01
   -.482E+03 0.600E+03 0.281E+04   0.485E+03 -.604E+03 -.281E+04   -.168E+01 0.341E+01 0.399E+01   -.265E-01 0.103E-02 0.166E-01
   0.189E+03 0.399E+03 -.147E+04   -.191E+03 -.401E+03 0.148E+04   0.213E+01 0.152E+01 -.588E+01   -.375E-01 0.290E-02 0.375E-01
   -.589E+03 0.882E+03 0.224E+04   0.589E+03 -.885E+03 -.224E+04   0.116E+01 0.200E+01 0.121E+01   -.236E-01 0.169E-01 0.312E-01
   -.653E+03 -.184E+03 -.259E+04   0.661E+03 0.188E+03 0.259E+04   -.643E+01 -.256E+01 -.183E+01   -.362E-01 0.212E-01 0.843E-02
   -.458E+03 -.318E+03 0.393E+04   0.458E+03 0.317E+03 -.393E+04   0.378E+00 0.142E+01 -.210E+01   0.636E-02 -.662E-02 0.309E-02
   -.334E+03 -.179E+03 -.336E+03   0.339E+03 0.180E+03 0.337E+03   -.511E+01 -.488E-01 -.139E+01   -.218E-01 -.748E-02 0.427E-01
   -.151E+03 -.211E+02 -.397E+04   0.154E+03 0.207E+02 0.397E+04   -.281E+01 0.608E+00 0.206E+01   -.834E-02 -.989E-02 0.522E-02
   0.666E+03 0.136E+03 0.188E+04   -.672E+03 -.135E+03 -.188E+04   0.363E+01 -.119E+01 0.240E+01   0.238E-02 0.217E-01 0.520E-01
   0.288E+03 -.349E+03 -.275E+04   -.291E+03 0.356E+03 0.275E+04   0.144E+01 -.536E+01 -.468E+01   -.148E-02 0.204E-01 0.705E-02
   -.210E+03 0.503E+03 0.315E+04   0.210E+03 -.505E+03 -.315E+04   0.452E+00 0.986E+00 0.591E+01   0.286E-01 -.676E-02 -.380E-02
   0.983E+02 -.219E+03 -.112E+04   -.995E+02 0.220E+03 0.112E+04   0.877E+00 -.371E+00 -.458E+01   0.366E-01 -.189E-01 0.724E-02
   -.163E+03 0.325E+03 0.128E+04   0.165E+03 -.328E+03 -.128E+04   -.536E+00 0.316E+01 0.581E+01   0.914E-02 0.687E-03 0.231E-01
   0.401E+03 0.323E+03 -.320E+04   -.406E+03 -.325E+03 0.321E+04   0.272E+01 0.145E+01 -.506E+01   -.118E-02 0.234E-01 -.138E-02
   -.462E+03 -.155E+03 0.292E+04   0.461E+03 0.157E+03 -.293E+04   0.200E+01 -.158E+01 0.593E+01   0.346E-01 -.546E-02 0.146E-01
   -.500E+02 0.290E+03 -.119E+04   0.501E+02 -.292E+03 0.119E+04   0.563E+00 0.151E+01 -.456E+01   0.481E-01 -.837E-02 0.124E-01
   -.309E+03 -.204E+03 0.265E+04   0.311E+03 0.208E+03 -.265E+04   -.258E+01 -.165E+01 0.482E+01   0.183E-01 0.776E-02 -.527E-02
   -.633E+03 -.235E+02 -.247E+04   0.640E+03 0.225E+02 0.247E+04   -.463E+01 0.863E+00 -.388E+01   0.279E-01 0.164E-01 0.132E-01
   0.715E+03 -.540E+03 0.348E+04   -.716E+03 0.542E+03 -.348E+04   -.514E+00 -.119E+01 0.292E+01   -.128E-01 -.497E-02 0.237E-01
   -.125E+03 -.139E+03 0.225E+03   0.126E+03 0.139E+03 -.227E+03   -.936E+00 0.782E+00 -.350E+00   0.110E-01 -.264E-01 0.272E-01
   -.108E+02 -.467E+01 -.374E+04   0.153E+02 0.118E+01 0.374E+04   -.512E+01 0.360E+01 0.133E+01   0.113E-01 -.218E-01 0.101E-01
   -.179E+03 0.222E+03 0.720E+02   0.181E+03 -.225E+03 -.772E+02   -.707E+00 0.112E+01 0.351E+01   -.735E-02 0.471E-04 0.125E-01
   -.205E+03 0.221E+03 -.160E+04   0.208E+03 -.225E+03 0.160E+04   -.198E+01 0.265E+01 -.710E+00   -.817E-02 0.246E-02 -.394E-02
   -.143E+03 0.258E+03 0.833E+03   0.146E+03 -.262E+03 -.835E+03   -.238E+00 0.204E+01 0.168E+01   -.123E-01 -.102E-01 0.110E-01
   0.825E+02 0.178E+03 -.114E+04   -.822E+02 -.179E+03 0.115E+04   -.619E+00 0.137E+00 -.120E+01   -.899E-02 -.233E-02 0.443E-02
   0.719E+02 0.302E+03 0.180E+04   -.728E+02 -.305E+03 -.180E+04   0.822E+00 0.199E+01 0.214E+01   -.436E-02 0.526E-02 0.420E-02
   -.130E+03 -.539E+02 -.339E+03   0.131E+03 0.556E+02 0.342E+03   0.124E+01 -.493E+00 -.118E+01   -.221E-01 0.509E-02 0.201E-01
   0.168E+02 -.177E+03 -.177E+04   -.173E+02 0.180E+03 0.178E+04   0.451E+00 -.203E+01 -.334E+01   -.103E-01 0.129E-01 -.186E-01
   0.973E+02 -.411E+03 0.994E+03   -.988E+02 0.414E+03 -.998E+03   0.242E+01 -.258E+01 0.226E+01   -.121E-01 0.307E-02 0.951E-02
   0.780E+02 -.180E+03 -.102E+04   -.783E+02 0.180E+03 0.102E+04   0.179E+00 0.191E+00 -.158E+01   -.107E-01 -.234E-02 0.518E-02
   0.304E+03 0.328E+02 -.428E+03   -.307E+03 -.330E+02 0.426E+03   0.677E+00 0.240E+00 0.629E+00   -.971E-02 0.547E-02 0.101E-01
   0.499E+01 -.821E+02 0.190E+04   -.409E+01 0.826E+02 -.191E+04   -.422E+00 -.105E+00 0.237E+01   -.777E-02 -.349E-02 -.128E-02
   0.219E+03 -.320E+03 0.485E+03   -.222E+03 0.323E+03 -.484E+03   0.103E+01 -.232E+01 0.217E+00   -.104E-01 -.306E-02 0.146E-01
   -.851E+02 0.537E+02 -.150E+04   0.862E+02 -.538E+02 0.151E+04   -.100E+01 -.346E+00 -.207E+01   -.105E-01 -.290E-02 0.952E-03
   0.245E+03 0.903E+02 0.170E+04   -.248E+03 -.917E+02 -.171E+04   0.985E+00 0.879E+00 0.213E+01   0.582E-02 -.670E-04 -.656E-02
   -.974E+02 0.161E+03 -.271E+03   0.989E+02 -.162E+03 0.274E+03   -.419E+00 -.356E+00 -.209E+01   0.677E-02 -.362E-02 0.323E-02
   -.138E+03 -.101E+02 -.183E+04   0.139E+03 0.103E+02 0.184E+04   -.745E-01 -.225E+00 -.502E+00   -.142E-02 0.289E-02 0.784E-02
   0.180E+03 -.235E+02 0.967E+03   -.180E+03 0.225E+02 -.971E+03   -.135E+01 -.180E+00 0.340E+01   0.677E-02 -.635E-03 0.133E-01
   0.127E+03 0.124E+03 -.129E+04   -.127E+03 -.126E+03 0.129E+04   -.746E+00 0.934E+00 -.179E+01   0.149E-01 -.150E-01 -.320E-02
   0.112E+03 0.555E+02 0.175E+04   -.115E+03 -.546E+02 -.176E+04   0.189E+01 -.425E+00 0.198E+01   0.323E-02 0.219E-02 -.213E-02
   -.191E+03 -.100E+03 -.268E+03   0.193E+03 0.101E+03 0.271E+03   -.124E+01 0.726E+00 -.242E+01   0.722E-02 0.102E-01 0.362E-02
   -.198E+03 0.134E+03 0.114E+04   0.200E+03 -.136E+03 -.115E+04   -.320E-01 -.579E+00 0.489E+01   0.544E-02 -.345E-02 0.477E-02
   0.123E+03 -.943E+02 -.954E+03   -.125E+03 0.942E+02 0.958E+03   0.241E+00 0.257E+00 -.276E+01   0.104E-01 -.550E-02 0.327E-02
   -.172E+03 -.353E+02 0.133E+04   0.174E+03 0.371E+02 -.133E+04   -.481E+00 -.127E+01 0.454E+01   0.840E-02 0.372E-03 0.266E-02
   0.207E+03 -.292E+02 -.548E+03   -.210E+03 0.303E+02 0.548E+03   0.137E+01 0.275E+00 0.671E+00   0.220E-01 0.187E-01 0.102E-01
   -.141E+03 -.171E+03 0.551E+03   0.140E+03 0.173E+03 -.553E+03   0.469E+00 -.776E+00 0.147E+01   0.161E-01 -.551E-02 0.113E-01
   -.120E+03 -.211E+01 -.144E+04   0.120E+03 0.233E+01 0.145E+04   -.913E-01 -.322E+00 -.224E+01   0.124E-01 -.716E-02 0.192E-02
   0.239E+01 0.149E+01 -.161E+02   0.179E-11 -.820E-12 -.182E-11   -.219E+01 -.150E+01 0.156E+02   -.642E-01 0.189E-01 0.551E+00

 POSITION                                       TOTAL-FORCE (eV/Angst)
      4.99010      4.54864      3.13529        -1.100442     -0.225114      0.069229
      5.41794      4.51956      5.60789        -0.624369      1.673247      0.248982
      2.66434      7.95847      1.85112        -0.030368      1.468128     -1.195394
      2.42308      9.23251      4.34179         0.054035      0.854460     -1.115917
      4.98430      1.69155      3.19035        -0.937577      0.342505      0.296108
      5.43779      1.88025      5.63196        -0.641161     -1.661191      0.371012
      1.97392      5.43258      2.14249         0.799663     -1.080629      0.353271
      2.42308      6.70184      4.34179        -0.096708     -0.584300     -0.929864
      1.28578      3.13970      2.79734         0.561206     -0.740024     -0.782038
      2.05421      3.17797      5.47658         1.850781      1.091316     -1.535553
      5.11856      7.79235      1.69305         0.194249      0.222492     -1.265020
      4.57649      7.96718      3.93431        -0.053826      0.211806     -0.478972
      5.36954      8.02236      6.17626        -0.126544      0.166947      1.148928
     10.57359      4.44331      2.79952        -2.292374     -0.050926      1.576703
     10.82185      4.84181      5.32373        -1.125262      0.852247     -0.285018
      7.67099      0.94171      2.21183        -0.132053     -1.464757     -0.601987
      8.05131      9.23251      4.34179        -0.222451      0.714686     -0.972897
     10.36863      1.60988      3.41629         1.345873      0.574830     -0.514988
     11.21444      1.98375      5.73516        -1.807843     -0.884114      0.109383
      6.98252      5.99668      2.32497         0.913774      0.668231     -0.405017
      8.05131      6.70184      4.34179         0.756629     -0.351048     -0.344914
      7.09877      3.17797      2.39204        -0.278912      1.907768      1.239328
      7.67014      3.18067      5.16477         1.815308     -0.071317      0.082345
      0.01561      6.64388      1.76021        -1.161294      0.164612     -0.170069
     10.20472      7.96718      3.93431        -0.240757      0.158797     -2.388511
     11.22288      8.31734      6.03852        -0.632397      0.084172      1.067449
      1.25497      1.56674      4.10795         1.366740     -1.459641     -1.705265
      1.75296      1.51174      6.63670         1.436370     -1.585259      2.594056
      3.77725      6.35595      2.56568         2.764260     -1.886971     -0.287148
      4.36652      6.39086      5.39520        -0.334994     -0.918066      1.815385
      0.53816      4.29867      1.19744        -0.041923     -1.040552     -3.138935
      1.25497      4.78920      4.10795         1.814237      1.232843      1.112168
      0.51229      3.72984      6.74455        -0.041999      0.999043      3.630098
      3.77725      9.57841      2.56568         0.816582      1.136491     -1.345678
      4.37503      0.04108      5.30437        -0.201051      0.582388      2.181380
      4.14113      3.17797      4.62682        -2.506172     -0.035331     -0.822759
      1.64348      6.75306      0.52630         0.472506      0.353719     -3.697733
      1.03518      7.96718      3.08454        -1.751234      0.822720      1.482830
      1.93872      7.97226      5.91029         0.051435     -0.400988      2.813589
      5.98411      1.74193      1.38227        -1.574286     -0.557151     -3.141911
      6.88320      1.56674      4.10795         1.098982     -1.315379      0.641054
      6.44163      3.21899      6.80368         0.667685     -0.006734      4.270362
      9.40548      6.35595      2.56568        -1.632182     -1.167030     -0.284818
      9.91663      6.72718      5.57211        -0.094547     -1.130620      2.309816
      5.97890      4.56226      1.31267        -0.908545      0.409885     -3.304441
      6.88320      4.78920      4.10795         1.463716      1.310528      0.128922
      9.40548      9.57841      2.56568         1.894939     -2.336343     -1.914938
     10.03200      0.20522      5.17520        -0.858609      0.190044      1.702551
      9.09367      2.66941      2.03991         1.225471      0.585323     -2.157988
      9.76936      3.17797      4.62682        -2.070758      1.428611      1.320873
      6.66341      7.96718      3.08454        -0.302964      0.850823     -0.655917
      7.35399      7.98385      5.83990         0.459164     -0.105179      2.877871
    total drift:                                0.140472      0.011152      0.045720

  FREE ENERGIE OF THE ION-ELECTRON SYSTEM (eV)
  free  energy   TOTEN  =      -246.65293895 eV

  energy  without entropy=     -245.83338336  energy(sigma->0) =     -246.24316116