 vasp.5.4.4.18Apr17-6-g9f103f2a35 (build Aug 13 2019 17:33:20) gamma-only

 executed on             LinuxIFC date 2020.05.12  03:54:38

 INCAR:
 POTCAR:    PAW_PBE Ni_pv 06Sep2000
 POTCAR:    PAW_PBE S 06Sep2000
 POTCAR:    PAW_PBE Ni_pv 06Sep2000
   VRHFIN =Ni:

   TITEL  = PAW_PBE Ni_pv 06Sep2000
   POMASS =   58.690; ZVAL   =   16.000    mass and valenz
   ENMAX  =  367.986; ENMIN  =  275.989 eV

 POTCAR:    PAW_PBE S 06Sep2000
   VRHFIN =S : s2p4

   TITEL  = PAW_PBE S 06Sep2000
   POMASS =   32.066; ZVAL   =    6.000    mass and valenz
   ENMAX  =  258.689; ENMIN  =  194.016 eV

 Optimization of the real space projectors (new method)

 maximal supplied QI-value         = 18.90
 optimisation between [QCUT,QGAM] = [ 10.77, 21.73] = [ 32.49,132.25] Ry
 Optimized for a Real-space Cutoff    1.38 Angstroem

   l    n(q)    QCUT    max X(q) W(low)/X(q) W(high)/X(q)  e(spline)
   1      8    10.771     2.836    0.40E-04    0.29E-04    0.12E-06
   1      8    10.771     4.023    0.10E-03    0.48E-04    0.29E-06
   2      8    10.771    73.368    0.42E-03    0.97E-04    0.44E-06
   2      8    10.771    69.010    0.42E-03    0.99E-04    0.45E-06
   0      9    10.771    54.797    0.10E-03    0.56E-04    0.74E-07
   0      9    10.771    24.266    0.89E-04    0.49E-04    0.67E-07
 Optimization of the real space projectors (new method)

 maximal supplied QI-value         = 19.84
 optimisation between [QCUT,QGAM] = [ 10.71, 21.63] = [ 32.15,130.99] Ry
 Optimized for a Real-space Cutoff    1.19 Angstroem

   l    n(q)    QCUT    max X(q) W(low)/X(q) W(high)/X(q)  e(spline)
   0      8    10.715   187.594    0.41E-03    0.53E-04    0.66E-07
   0      8    10.715   164.243    0.41E-03    0.53E-04    0.65E-07
   1      7    10.715    67.533    0.19E-03    0.59E-03    0.68E-07
   1      7    10.715    50.729    0.19E-03    0.58E-03    0.67E-07
  PAW_PBE Ni_pv 06Sep2000               :
  PAW_PBE S 06Sep2000                   :

 POSCAR: Type_037 Type_137
  positions in cartesian coordinates
 exchange correlation table for  LEXCH =        8
   RHO(1)=    0.500       N(1)  =     2000
   RHO(2)=  100.500       N(2)  =     4000

 ion  position               nearest neighbor table
   1  0.780  0.145  0.123-  51 2.06  65 2.09  42 2.25  52 2.36  66 2.36
   2  0.808  0.145  0.288-  52 2.05  66 2.05  43 2.09
   3  0.225  0.637  0.090-  44 2.03  45 2.06  63 2.19  53 2.31   4 2.44  15 2.46
   4  0.297  0.645  0.216-  54 2.15  46 2.15  53 2.26  63 2.26  45 2.31   3 2.44  35 2.52  16 2.53
                            29 2.53
   5  0.424  0.144  0.102-  69 2.07  47 2.09  55 2.10   6 2.54
   6  0.470  0.145  0.247-  56 2.07  70 2.14  48 2.25  55 2.26  69 2.26  32 2.53  19 2.53   5 2.54

   7  0.952  0.645  0.154-  58 2.08  68 2.10  57 2.16  49 2.25  67 2.36   8 2.40  33 2.53  20 2.53

   8  0.954  0.654  0.298-  50 2.02  67 2.07  57 2.09   7 2.40
   9  0.185  0.144  0.050-  47 2.05  73 2.06  59 2.06  10 2.47  22 2.51  34 2.52
  10  0.125  0.145  0.185-  74 2.08  73 2.14  59 2.16  39 2.25  11 2.32  60 2.36   9 2.47  34 2.53
                            22 2.53
  11  0.067  0.169  0.311-  38 2.04  74 2.12  10 2.32  60 2.34  27 2.49  39 2.49
  12  0.642  0.645  0.278-  62 2.00  72 2.03  41 2.25  61 2.28  71 2.43  37 2.53  25 2.53
  13  0.918  0.910  0.135-  58 2.04  65 2.10  66 2.11  57 2.16  14 2.51
  14  0.943  0.014  0.270-  38 2.05  39 2.08  66 2.17  57 2.17  13 2.51
  15  0.369  0.643  0.070-  40 2.02  63 2.05  53 2.09  28 2.45   3 2.46
  16  0.425  0.513  0.192-  64 2.08  55 2.25  63 2.26  41 2.36   4 2.53  29 2.53  40 2.54
  17  0.537  0.448  0.310-  56 2.03  41 2.03  72 2.13  64 2.13  32 2.42
  18  0.564  0.017  0.067-  69 2.01  42 2.07  31 2.39
  19  0.597  0.013  0.222-  70 2.08  43 2.12  61 2.19  69 2.26  42 2.26  32 2.53   6 2.53
  20  0.080  0.513  0.130-  44 2.07  68 2.10  59 2.16  45 2.27  67 2.36   7 2.53  33 2.53
  21  0.128  0.509  0.275-  60 2.03  45 2.06  46 2.11  67 2.21
  22  0.252  0.013  0.161-  73 2.11  47 2.12  53 2.25  48 2.36  23 2.43   9 2.51  10 2.53  34 2.53
                            74 2.58
  23  0.278  0.990  0.304-  48 2.04  74 2.04  54 2.06  22 2.43
  24  0.782  0.435  0.118-  51 2.02  52 2.13  71 2.14  49 2.19  25 2.38
  25  0.770  0.513  0.253-  50 2.06  71 2.12  52 2.25  49 2.26  72 2.29  24 2.38  12 2.53  37 2.53

  26  0.910  0.286  0.120-  51 2.06  68 2.08  52 2.11  39 2.19  27 2.52
  27  0.942  0.285  0.268-  38 2.05  39 2.11  52 2.13  67 2.13  11 2.49  26 2.52
  28  0.425  0.877  0.060-  69 2.07  40 2.12  53 2.26  29 2.39  15 2.45
  29  0.425  0.777  0.192-  40 2.08  54 2.18  69 2.25  53 2.26  41 2.36  28 2.39  30 2.49   4 2.53
                            16 2.53
  30  0.454  0.803  0.337-  70 2.01  54 2.03  41 2.04  29 2.49
  31  0.563  0.266  0.068-  55 2.00  42 2.03  18 2.39
  32  0.597  0.277  0.222-  56 2.08  43 2.18  55 2.26  42 2.26  71 2.32  17 2.42  19 2.53   6 2.53

  33  0.080  0.777  0.130-  45 2.09  58 2.09  44 2.11  73 2.15  57 2.22   7 2.53  20 2.53
  34  0.252  0.277  0.161-  47 2.13  59 2.14  63 2.25  35 2.33  48 2.36  60 2.36   9 2.52  10 2.53
                            22 2.53
  35  0.294  0.402  0.273-  46 2.03  64 2.06  60 2.20  34 2.33   4 2.52  48 2.60  63 2.63
  36  0.771  0.861  0.121-  65 2.03  66 2.16  61 2.16  49 2.28  37 2.34
  37  0.770  0.777  0.253-  62 2.04  61 2.09  50 2.11  66 2.25  49 2.26  36 2.34  12 2.53  25 2.53

  38  0.958  0.152  0.363-  11 2.04  14 2.05  27 2.05
  39  0.991  0.145  0.183-  14 2.08  27 2.11  26 2.19  10 2.25  11 2.49
  40  0.483  0.689  0.094-  15 2.02  29 2.08  28 2.12  16 2.54
  41  0.509  0.645  0.276-  17 2.03  30 2.04  12 2.25  29 2.36  16 2.36  64 2.76
  42  0.647  0.145  0.122-  31 2.03  18 2.07   1 2.25  19 2.26  32 2.26  43 2.67
  43  0.685  0.140  0.277-   2 2.09  19 2.12  32 2.18  42 2.67  56 2.77
  44  0.116  0.641  0.037-   3 2.03  20 2.07  33 2.11  58 2.71  45 2.76
  45  0.162  0.662  0.195-  21 2.06   3 2.06  33 2.09  20 2.27   4 2.31  46 2.63  44 2.76
  46  0.239  0.569  0.322-  35 2.03  21 2.11   4 2.15  45 2.63  60 2.79
  47  0.304  0.145  0.072-   9 2.05   5 2.09  22 2.12  34 2.13
  48  0.336  0.145  0.245-  23 2.04   6 2.25  22 2.36  34 2.36  35 2.60
  49  0.819  0.645  0.153-  24 2.19   7 2.25  25 2.26  37 2.26  36 2.28
  50  0.838  0.641  0.325-   8 2.02  25 2.06  37 2.11  62 2.74
  51  0.818  0.288  0.039-  24 2.02   1 2.06  26 2.06
  52  0.829  0.314  0.215-   2 2.05  26 2.11  27 2.13  24 2.13  25 2.25   1 2.36
  53  0.312  0.814  0.122-  15 2.09  22 2.25   4 2.26  29 2.26  28 2.26   3 2.31
  54  0.343  0.809  0.291-  30 2.03  23 2.06   4 2.15  29 2.18
  55  0.484  0.314  0.153-  31 2.00   5 2.10  16 2.25   6 2.26  32 2.26
  56  0.541  0.240  0.332-  17 2.03   6 2.07  32 2.08  70 2.58  43 2.77
  57  0.993  0.819  0.227-   8 2.09   7 2.16  13 2.16  14 2.17  33 2.22
  58  0.978  0.779  0.059-  13 2.04   7 2.08  33 2.09  44 2.71
  59  0.141  0.320  0.105-   9 2.06  34 2.14  10 2.16  20 2.16
  60  0.174  0.314  0.276-  21 2.03  35 2.20  11 2.34  10 2.36  34 2.36  74 2.75  46 2.79
  61  0.665  0.826  0.192-  37 2.09  36 2.16  19 2.19  12 2.28  62 2.76
  62  0.698  0.778  0.352-  12 2.00  37 2.04  50 2.74  61 2.76
  63  0.312  0.477  0.122-  15 2.05   3 2.19  34 2.25   4 2.26  16 2.26  35 2.63
  64  0.412  0.418  0.303-  35 2.06  16 2.08  17 2.13  41 2.76
  65  0.836  0.994  0.053-  36 2.03   1 2.09  13 2.10  66 2.70
  66  0.829  0.977  0.215-   2 2.05  13 2.11  36 2.16  14 2.17  37 2.25   1 2.36  65 2.70
  67  0.001  0.477  0.246-   8 2.07  27 2.13  21 2.21  20 2.36   7 2.36  68 2.77
  68  0.968  0.466  0.083-  26 2.08  20 2.10   7 2.10  67 2.77
  69  0.484  0.977  0.153-  18 2.01  28 2.07   5 2.07  29 2.25   6 2.26  19 2.26  70 2.76
  70  0.517  0.976  0.315-  30 2.01  19 2.08   6 2.14  56 2.58  69 2.76
  71  0.672  0.466  0.179-  25 2.12  24 2.14  32 2.32  12 2.43  72 2.52
  72  0.661  0.457  0.329-  12 2.03  17 2.13  25 2.29  71 2.52
  73  0.141  0.970  0.108-   9 2.06  22 2.11  10 2.14  33 2.15
  74  0.160  0.028  0.284-  23 2.04  10 2.08  11 2.12  22 2.58  60 2.75

  LATTYP: Found a simple orthorhombic cell.
 ALAT       =     9.5784100000
 B/A-ratio  =     1.7387693453
 C/A-ratio  =     1.7627867312

  Lattice vectors:

 A1 = (   0.0000000000,   9.5784100000,   0.0000000000)
 A2 = (   0.0000000000,   0.0000000000, -16.6546456851)
 A3 = ( -16.8846940542,   0.0000000000,   0.0000000000)

Analysis of symmetry for initial positions (statically):
 Subroutine PRICEL returns:
 Original cell was already a primitive cell.

 Routine SETGRP: Setting up the symmetry group for a
 simple orthorhombic supercell.

 Subroutine GETGRP returns: Found  1 space group operations
 (whereof  1 operations were pure point group operations)
 out of a pool of  8 trial point group operations.

The static configuration has the point symmetry C_1 .

Analysis of symmetry for dynamics (positions and initial velocities):
 Subroutine PRICEL returns:
 Original cell was already a primitive cell.

 Routine SETGRP: Setting up the symmetry group for a
 simple orthorhombic supercell.

 Subroutine GETGRP returns: Found  1 space group operations
 (whereof  1 operations were pure point group operations)
 out of a pool of  8 trial point group operations.

The dynamic configuration has the point symmetry C_1 .

 Subroutine INISYM returns: Found  1 space group operations
 (whereof  1 operations are pure point group operations),
 and found     1 'primitive' translations

 KPOINTS: gamma-point-only calculation. no periodi

Automatic generation of k-mesh.
Space group operators:
 irot       det(A)        alpha          n_x          n_y          n_z        tau_x        tau_y        tau_z
    1     1.000000     0.000000     1.000000     0.000000     0.000000     0.000000     0.000000     0.000000

 Subroutine IBZKPT returns following result:

 Found      1 irreducible k-points:

 Following reciprocal coordinates:
            Coordinates               Weight
  0.000000  0.000000  0.000000      1.000000

 Following cartesian coordinates:
            Coordinates               Weight
  0.000000  0.000000  0.000000      1.000000

 SYSTEM =  "Millerite NiS"
 POSCAR =  Type_037 Type_137

 Startparameter for this run:
   NWRITE =      2    write-flag & timer
   PREC   = normal    normal or accurate (medium, high low for compatibility)
   ISTART =      0    job   : 0-new  1-cont  2-samecut
   ICHARG =      2    charge: 1-file 2-atom 10-const
   ISPIN  =      1    spin polarized calculation?
   LNONCOLLINEAR =      F non collinear calculations
   LSORBIT =      F    spin-orbit coupling
   INIWAV =      1    electr: 0-lowe 1-rand  2-diag
   LASPH  =      F    aspherical Exc in radial PAW
   METAGGA=      F    non-selfconsistent MetaGGA calc.

 Electronic Relaxation 1
   ENCUT  =  450.0 eV  33.07 Ry    5.75 a.u.  29.20 16.57 28.81*2*pi/ulx,y,z
   ENINI  =  450.0     initial cutoff
   ENAUG  =  703.4 eV  augmentation charge cutoff
   NELM   =    100;   NELMIN=  2; NELMDL= -5     # of ELM steps
   EDIFF  = 0.1E-03   stopping-criterion for ELM
   LREAL  =      T    real-space projection
   NLSPLINE    = F    spline interpolate recip. space projectors
   LCOMPAT=      F    compatible to vasp.4.4
   GGA_COMPAT  = T    GGA compatible to vasp.4.4-vasp.4.6
[...]
     0.000000000  9.578410000  0.000000000     0.000000000  0.104401461  0.000000000
     0.000000000  0.000000000 16.654645685     0.000000000  0.000000000  0.060043307

  length of vectors
    16.884694054  9.578410000 16.654645685     0.059225237  0.104401461  0.060043307

 FORCES acting on ions
    electron-ion (+dipol)            ewald-force                    non-local-force                 convergence-correction
   0.422E+03 0.707E+02 0.207E+04   -.425E+03 -.720E+02 -.207E+04   0.250E+01 0.107E+01 0.621E+01   0.568E-02 0.125E-01 0.196E-01
   0.469E+03 0.231E+02 -.300E+04   -.472E+03 -.224E+02 0.300E+04   0.275E+01 -.686E+00 -.524E+00   0.113E-01 0.709E-02 -.212E-02
   0.260E+03 -.194E+02 0.303E+04   -.261E+03 0.185E+02 -.304E+04   0.125E+01 0.743E+00 0.695E+01   0.543E-02 -.397E-02 0.185E-02
   0.407E+03 -.256E+03 -.124E+04   -.407E+03 0.255E+03 0.125E+04   -.668E+00 0.159E+01 -.482E+01   0.638E-03 -.660E-02 -.131E-01
   0.277E+03 -.418E+03 0.264E+04   -.280E+03 0.419E+03 -.265E+04   0.228E+01 -.887E+00 0.472E+01   0.161E-01 0.553E-02 0.401E-02
   0.416E+03 -.595E+01 -.191E+04   -.421E+03 0.606E+01 0.192E+04   0.424E+01 -.314E+00 -.359E+01   0.181E-01 0.986E-03 -.186E-03
   0.479E+03 0.185E+03 0.123E+04   -.485E+03 -.189E+03 -.124E+04   0.499E+01 0.252E+01 0.230E+01   0.325E-02 -.561E-02 0.127E-01
   -.207E+03 -.122E+03 -.330E+04   0.204E+03 0.120E+03 0.329E+04   0.341E+01 0.136E+01 0.159E+01   0.192E-02 -.478E-02 -.773E-02
   0.453E+03 0.160E+02 0.412E+04   -.456E+03 -.157E+02 -.413E+04   0.225E+01 -.191E+00 0.421E+01   -.673E-02 0.452E-02 0.137E-01
   0.595E+03 0.172E+03 0.224E+03   -.598E+03 -.171E+03 -.226E+03   0.285E+01 0.318E+00 0.132E+01   -.220E-01 0.720E-02 0.193E-01
   -.306E+03 0.869E+02 -.341E+04   0.306E+03 -.882E+02 0.342E+04   0.104E+01 0.156E+01 -.456E+01   -.213E-01 0.558E-02 -.494E-02
   0.285E+03 -.240E+03 -.175E+04   -.288E+03 0.244E+03 0.175E+04   0.186E+01 -.340E+01 -.342E+01   0.227E-02 -.606E-02 -.206E-02
   -.190E+03 -.161E+03 0.198E+04   0.191E+03 0.162E+03 -.199E+04   -.983E+00 0.244E+00 0.740E+01   0.932E-02 0.480E-02 0.165E-01
   -.147E+03 0.606E+03 -.236E+04   0.149E+03 -.608E+03 0.236E+04   -.172E+01 0.921E+00 -.513E+01   -.661E-02 0.132E-01 0.363E-02
   -.324E+03 0.514E+03 0.378E+04   0.327E+03 -.515E+03 -.379E+04   -.326E+01 0.406E+00 0.556E+01   -.871E-03 -.813E-02 0.110E-02
   -.651E+03 0.347E+03 0.276E+03   0.650E+03 -.348E+03 -.277E+03   0.987E+00 0.123E+01 -.524E+00   -.454E-03 0.538E-02 -.108E-01
   -.556E+01 -.145E+03 -.306E+04   0.704E+01 0.144E+03 0.307E+04   -.819E+00 0.129E+01 -.262E+01   0.599E-02 -.384E-02 -.740E-02
   -.725E+03 0.664E+03 0.352E+04   0.723E+03 -.659E+03 -.352E+04   0.176E+01 -.536E+01 0.116E+01   0.864E-02 0.220E-02 0.597E-02
   -.535E+03 0.606E+03 -.991E+03   0.540E+03 -.612E+03 0.994E+03   -.407E+01 0.553E+01 -.387E+01   0.794E-02 0.104E-01 0.207E-02
   0.154E+03 0.470E+03 0.184E+04   -.155E+03 -.474E+03 -.184E+04   0.145E+01 0.399E+01 0.331E+01   -.104E-01 0.498E-02 0.134E-01
   0.272E+03 -.274E+03 -.278E+04   -.274E+03 0.273E+03 0.278E+04   0.587E+00 0.232E+01 -.232E+01   -.163E-01 -.225E-02 -.357E-02
   -.209E+02 0.572E+03 0.702E+03   0.224E+02 -.575E+03 -.702E+03   -.619E+00 0.240E+01 0.218E+00   -.532E-02 -.590E-02 0.862E-02
   0.185E+03 0.126E+03 -.340E+04   -.185E+03 -.127E+03 0.340E+04   -.406E+00 0.600E-01 0.274E+01   -.720E-02 -.165E-02 0.217E-02
   0.483E+03 -.503E+03 0.262E+04   -.486E+03 0.506E+03 -.263E+04   0.274E+01 -.226E+01 0.838E+01   0.749E-02 -.810E-02 0.116E-01
   -.795E+02 0.262E+03 -.175E+04   0.831E+02 -.263E+03 0.176E+04   -.422E+01 0.317E+00 -.512E+01   0.134E-01 -.159E-01 -.120E-02
   -.438E+03 0.375E+02 0.246E+04   0.445E+03 -.358E+02 -.247E+04   -.608E+01 -.215E+01 0.580E+01   -.167E-02 0.510E-03 0.214E-01
   0.656E+02 -.591E+03 -.221E+04   -.636E+02 0.596E+03 0.221E+04   -.217E+01 -.406E+01 -.386E+01   -.767E-02 -.572E-02 0.278E-03
   -.204E+03 -.631E+02 0.375E+04   0.206E+03 0.632E+02 -.375E+04   -.247E+01 0.606E+00 0.326E+01   0.281E-02 -.160E-01 0.793E-03
   -.568E+03 -.178E+03 -.252E+03   0.569E+03 0.180E+03 0.256E+03   -.128E+01 -.116E+01 -.176E+01   0.260E-02 -.132E-01 -.501E-02
   -.114E+03 -.434E+02 -.379E+04   0.114E+03 0.435E+02 0.379E+04   0.894E-01 -.356E+00 0.221E+01   0.631E-02 -.102E-02 -.629E-03
   -.393E+03 -.966E+03 0.357E+04   0.391E+03 0.960E+03 -.357E+04   0.215E+01 0.677E+01 -.726E+00   0.813E-02 0.126E-03 0.834E-02
   -.577E+03 -.396E+03 -.634E+03   0.580E+03 0.399E+03 0.631E+03   -.190E+01 -.261E+01 0.506E+00   0.113E-01 -.598E-02 0.210E-03
   -.870E+02 -.625E+03 0.151E+04   0.867E+02 0.630E+03 -.151E+04   0.202E+00 -.450E+01 -.327E-01   -.121E-01 -.104E-01 0.103E-01
   -.206E+03 -.314E+03 0.915E+03   0.207E+03 0.315E+03 -.916E+03   -.327E+00 -.156E+01 0.821E+00   -.590E-02 0.157E-01 0.114E-01
   -.776E+02 0.275E+03 -.273E+04   0.772E+02 -.276E+03 0.274E+04   0.958E+00 -.325E+00 -.408E+01   -.635E-02 0.510E-02 -.666E-02
   0.614E+03 0.429E+03 0.261E+04   -.617E+03 -.432E+03 -.262E+04   0.172E+01 0.158E+01 0.716E+01   0.552E-02 0.563E-02 0.662E-02
   -.442E+02 -.273E+03 -.174E+04   0.473E+02 0.276E+03 0.174E+04   -.208E+01 -.254E+01 -.446E+01   0.127E-01 0.155E-02 0.826E-02
   0.970E+02 0.369E+02 -.177E+04   -.965E+02 -.370E+02 0.178E+04   -.132E+01 0.189E-02 -.200E+01   -.237E-02 0.133E-02 -.985E-02
   -.121E+03 0.809E+02 0.438E+03   0.121E+03 -.820E+02 -.443E+03   0.139E+01 0.142E+01 0.309E+01   -.550E-02 0.241E-02 0.840E-02
   -.706E+03 0.259E+03 0.109E+04   0.712E+03 -.261E+03 -.109E+04   -.302E+01 0.611E+00 0.605E-01   -.403E-02 -.427E-02 0.117E-02
   -.166E+03 -.624E+02 -.701E+03   0.166E+03 0.641E+02 0.703E+03   -.181E+00 0.738E-01 -.209E+01   -.912E-03 -.129E-02 -.231E-02
   -.326E+03 -.997E+01 0.798E+03   0.329E+03 0.101E+02 -.801E+03   -.725E+00 -.575E+00 0.171E+01   0.147E-02 0.103E-02 0.549E-02
   -.923E+02 0.383E+02 -.103E+04   0.935E+02 -.384E+02 0.103E+04   -.864E+00 0.326E+00 -.196E+00   0.585E-02 0.149E-02 -.229E-02
   0.114E+03 -.113E+02 0.170E+04   -.113E+03 0.108E+02 -.170E+04   -.251E+00 0.742E+00 0.310E+01   -.132E-03 -.785E-03 0.428E-02
   0.439E+02 -.261E+03 -.347E+03   -.451E+02 0.265E+03 0.350E+03   0.136E+01 -.316E+01 -.111E+01   -.360E-02 -.303E-02 -.421E-03
   0.973E+02 -.223E+03 -.155E+04   -.965E+02 0.225E+03 0.156E+04   -.117E+01 -.114E+01 -.360E+01   -.421E-02 -.817E-03 -.242E-02
   -.169E+03 -.615E+02 0.139E+04   0.171E+03 0.620E+02 -.139E+04   0.481E-01 -.454E+00 0.247E+01   0.531E-02 0.259E-02 0.327E-02
   -.943E+02 -.759E+02 -.714E+03   0.948E+02 0.763E+02 0.717E+03   -.343E+00 0.369E+00 -.256E+01   0.101E-02 0.309E-02 -.171E-03
   0.812E+02 0.869E+01 0.700E+03   -.799E+02 -.810E+01 -.704E+03   -.111E+01 -.147E+00 0.213E+01   0.580E-02 -.659E-02 0.297E-02
   -.567E+02 0.137E+02 -.146E+04   0.589E+02 -.149E+02 0.147E+04   -.184E+01 0.137E+01 -.739E+00   0.560E-02 -.284E-02 -.245E-02
   0.659E+02 -.558E+02 0.171E+04   -.657E+02 0.565E+02 -.172E+04   -.470E+00 -.246E+00 0.217E+01   0.912E-03 0.549E-03 0.678E-02
   0.131E+03 -.123E+03 -.340E+03   -.131E+03 0.123E+03 0.343E+03   -.703E+00 0.927E+00 -.165E+01   0.329E-02 -.488E-02 0.504E-02
   0.235E+03 -.236E+03 0.729E+03   -.238E+03 0.239E+03 -.730E+03   0.277E+01 -.148E+01 0.105E+00   0.486E-03 -.927E-02 -.177E-02
   0.210E+03 -.196E+02 -.117E+04   -.211E+03 0.212E+02 0.117E+04   0.155E+00 -.118E+01 -.197E+01   0.195E-02 -.380E-02 -.124E-02
   0.403E+02 -.331E+03 0.494E+03   -.412E+02 0.333E+03 -.497E+03   0.126E+00 0.358E+00 0.268E+01   0.367E-02 0.321E-02 0.208E-02
   -.552E+02 0.148E+03 -.160E+04   0.554E+02 -.148E+03 0.161E+04   -.325E+00 -.950E+00 -.310E+01   0.480E-02 -.584E-03 -.427E-02
   -.234E+03 -.110E+03 -.596E+03   0.237E+03 0.109E+03 0.601E+03   -.179E+01 0.108E+01 -.215E+01   -.324E-02 -.771E-03 0.236E-02
   0.989E+02 -.583E+02 0.161E+04   -.100E+03 0.594E+02 -.161E+04   0.104E+01 -.440E+00 0.309E+01   -.266E-03 -.261E-02 0.550E-02
   0.243E+03 -.161E+03 0.104E+04   -.244E+03 0.161E+03 -.105E+04   -.316E+00 0.144E+00 0.178E+01   -.518E-02 0.763E-02 0.895E-02
   0.249E+02 0.653E+02 -.107E+04   -.249E+02 -.657E+02 0.107E+04   -.148E+00 -.877E+00 -.276E+01   -.743E-02 0.170E-02 -.772E-03
   0.214E+03 0.109E+03 0.264E+03   -.217E+03 -.109E+03 -.267E+03   0.463E+00 0.705E+00 0.193E+01   -.358E-02 0.413E-02 0.197E-02
   0.173E+02 -.222E+03 -.158E+04   -.183E+02 0.225E+03 0.158E+04   0.114E+01 -.157E+01 -.144E+01   0.217E-02 0.210E-02 0.609E-03
   -.232E+02 0.314E+03 0.907E+03   0.230E+02 -.316E+03 -.910E+03   -.573E+00 0.262E+00 0.383E+01   0.208E-02 0.644E-02 -.860E-03
   0.405E+02 0.983E+02 -.131E+04   -.421E+02 -.101E+03 0.131E+04   0.108E+01 0.180E+01 -.191E+01   0.234E-02 0.192E-02 -.337E-02
   -.402E+02 0.435E+01 0.162E+04   0.416E+02 -.471E+01 -.163E+04   -.891E+00 0.115E+00 0.414E+01   0.308E-02 0.502E-02 0.257E-02
   0.123E+03 0.525E+02 -.329E+03   -.124E+03 -.530E+02 0.332E+03   -.594E+00 -.548E+00 -.185E+01   0.533E-02 0.107E-01 0.851E-02
   0.190E+02 0.605E+02 -.638E+03   -.201E+02 -.618E+02 0.640E+03   0.204E+01 0.173E+01 -.834E+00   -.372E-02 -.178E-02 0.109E-02
   0.994E+02 0.712E+02 0.134E+04   -.999E+02 -.709E+02 -.134E+04   0.391E+00 -.854E+00 0.381E+01   -.193E-02 0.326E-03 0.658E-02
   -.106E+03 0.180E+03 0.227E+03   0.106E+03 -.181E+03 -.227E+03   0.172E+00 -.141E+00 0.339E-01   0.680E-02 0.602E-04 0.294E-02
   -.131E+03 0.108E+02 -.135E+04   0.131E+03 -.123E+02 0.135E+04   -.490E+00 0.169E+01 -.169E+01   0.445E-02 0.126E-02 -.284E-02
   0.217E+03 -.134E+03 0.491E+03   -.220E+03 0.135E+03 -.495E+03   0.163E+01 -.606E+00 0.288E+01   0.299E-02 -.495E-02 0.123E-02
   -.188E+03 0.188E+03 -.139E+04   0.189E+03 -.191E+03 0.140E+04   -.283E-01 0.126E+01 -.403E+01   0.321E-02 -.439E-02 -.248E-02
   0.250E+03 0.214E+03 0.932E+03   -.251E+03 -.214E+03 -.935E+03   -.265E+00 -.307E+00 0.171E+01   -.678E-02 -.632E-02 0.749E-02
   0.994E+02 0.330E+03 -.112E+04   -.100E+03 -.333E+03 0.112E+04   0.690E+00 0.186E+01 -.127E+01   -.933E-02 0.278E-02 0.676E-04
   -.606E+01 -.665E+01 -.284E+02   -.853E-12 0.279E-11 -.705E-11   0.607E+01 0.665E+01 0.282E+02   0.464E-01 -.114E-01 0.190E+00

 POSITION                                       TOTAL-FORCE (eV/Angst)
     13.17084      1.39171      2.05636        -0.281769     -0.250217      1.338108
     13.64988      1.39363      4.79512         0.149072      0.029748      0.797894
      3.79184      6.09914      1.49456         1.166513     -0.152821     -0.928088
      5.02033      6.18092      3.59863        -0.341304      0.431509     -0.090372
      7.16163      1.37514      1.69507        -0.039179      0.016818     -1.144302
      7.93172      1.39171      4.11272        -1.050399     -0.194843     -0.612896
     16.08224      6.18092      2.57045        -0.868063     -0.863726      0.383871
     16.10679      6.26174      4.96882         0.884995      0.055742      0.857485
      3.12236      1.37645      0.82667        -0.148031      0.075396     -1.989672
      2.10894      1.39171      3.08454        -0.614120      0.777925     -0.413056
      1.13607      1.62068      5.18134         0.602763      0.232607      0.156642
     10.84312      6.18092      4.62682        -1.170498      0.505873     -2.592850
     15.50181      8.71192      2.24454         0.356060      1.008198      0.488714
     15.92563      0.13431      4.50421        -0.163816     -1.067003     -0.122492
      6.23036      6.15455      1.16492        -0.174031     -0.654489     -1.262312
      7.17375      4.91558      3.19116         0.570761      0.038311     -0.762391
      9.06638      4.29409      5.16563         0.662962      0.701462      0.870174
      9.52613      0.16098      1.10855        -0.032057     -0.468745     -0.932735
     10.08514      0.12638      3.70525         0.562691     -0.956147     -1.362765
      1.35096      4.91558      2.16298         0.298042     -0.591140      1.286256
      2.15786      4.88008      4.58669        -1.705668      0.578892      0.526908
      4.26235      0.12638      2.67707         0.916164     -0.598377      0.764424
      4.69179      9.47935      5.05724        -0.475392     -0.532592      0.676105
     13.20598      4.16514      1.97338        -0.592901      0.635214      0.143384
     12.99653      4.91558      4.21934        -0.577026     -0.616647     -0.098278
     15.37296      2.73769      2.00069         0.505225     -0.457760      0.050122
     15.91087      2.72575      4.46426        -0.174325      0.523778     -0.305043
      7.18341      8.40162      0.99929        -0.258166      0.702840     -0.985684
      7.17375      7.44626      3.19116        -0.032744      0.244908      1.519748
      7.66829      7.68812      5.61551         0.299902     -0.255716      1.124823
      9.51388      2.54990      1.13691         0.158502      0.491216     -1.150313
     10.08514      2.65705      3.70525         0.860002      0.487347     -1.721789
      1.35096      7.44626      2.16298        -0.125759      0.931041     -0.125936
      4.26235      2.65705      2.67707         0.556695      0.302064      0.468509
      4.96794      3.84955      4.54914         0.565430     -1.195674      0.282286
     13.01128      8.24494      2.01487        -0.663845     -0.770422      0.007482
     12.99653      7.44626      4.21934         1.010861     -0.096901     -0.329883
     16.18330      1.45480      6.04974        -0.800098     -0.118049      4.135585
     16.74052      1.39171      3.05601         1.646343      0.313113     -1.974244
      8.16131      6.60228      1.56186         2.916939     -1.211912     -2.025103
      8.59001      6.18092      4.59828         0.297698      1.765071     -0.532588
     10.91773      1.39171      2.02783         1.531423     -0.470533     -1.449032
     11.56959      1.34096      4.61179         0.254048      0.218376      2.980745
      1.96613      6.14405      0.61674         0.065006      0.184487     -3.606630
      2.74246      6.33732      3.25552         0.188872      0.865822      1.803871
      4.03387      5.44919      5.36812        -0.408579      0.849385      2.519610
      5.13503      1.38485      1.20457         1.543356      0.054318     -2.474014
      5.67861      1.39171      4.08419         0.116299      0.743924      0.181379
     13.82913      6.18092      2.54192         0.214184      0.428430     -1.625491
     14.14377      6.14104      5.41631         0.434119      0.156490      2.772949
     13.81529      2.75449      0.65556        -0.273194      0.465307     -4.064492
     13.99844      3.00295      3.57488        -0.553013      1.307286      1.582127
      5.26426      7.79215      2.03261        -0.813854      1.401700     -1.258401
      5.78845      7.75092      4.84381        -0.674241      0.378940      1.616463
      8.17565      3.00295      2.54670        -0.850110      1.951758      0.046309
      9.14126      2.30243      5.52926        -0.045880     -1.408043      3.023742
     16.75921      7.84170      3.77298         1.257049      0.564730      2.195993
     16.50625      7.45802      0.98373        -0.393388      0.619447     -3.626622
      2.37926      3.06169      1.74925        -1.102270      0.494700     -1.446432
      2.93654      3.00295      4.60306        -0.154653     -1.231171      0.974353
     11.23507      7.91140      3.19427        -1.947884     -0.171668     -1.267405
     11.78253      7.44822      5.86128         0.100342      1.461044      3.671594
      5.26426      4.56969      2.03261        -0.721499     -1.635909      0.116396
      6.95856      4.00480      5.05119        -0.490854     -0.744022      1.788076
     14.11797      9.51983      0.88487         0.480874     -0.233331     -3.692405
     13.99844      9.35889      3.57488        -1.047262     -1.063219      1.324903
      0.02514      4.56969      4.08897         0.872813      0.412434      1.578867
     16.34413      4.46711      1.37859        -0.101081     -0.517029     -2.815493
      8.17565      9.35889      2.54670        -0.474680     -1.135835      0.614432
      8.73527      9.34550      5.24525         0.365864      0.133871      2.612443
     11.34420      4.46643      2.97469        -1.771838      0.216069     -1.554361
     11.16723      4.37447      5.48687         1.115535     -1.388152      2.388629
      2.38614      9.29203      1.79385        -1.096711     -0.883808     -1.190083
      2.70629      0.26558      4.73041        -0.317219     -1.821690      1.862251
    total drift:                                0.056178     -0.013917      0.024828

  FREE ENERGIE OF THE ION-ELECTRON SYSTEM (eV)
  free  energy   TOTEN  =      -349.18338143 eV

  energy  without entropy=     -348.06301103  energy(sigma->0) =     -348.62319623