 vasp.5.4.4.18Apr17-6-g9f103f2a35 (build Aug 13 2019 17:33:20) gamma-only

 executed on             LinuxIFC date 2020.05.10  20:09:20

 INCAR:
 POTCAR:    PAW_PBE Ni_pv 06Sep2000
 POTCAR:    PAW_PBE S 06Sep2000
 POTCAR:    PAW_PBE Ni_pv 06Sep2000
   VRHFIN =Ni:

   TITEL  = PAW_PBE Ni_pv 06Sep2000
   POMASS =   58.690; ZVAL   =   16.000    mass and valenz
   ENMAX  =  367.986; ENMIN  =  275.989 eV

 POTCAR:    PAW_PBE S 06Sep2000
   VRHFIN =S : s2p4

   TITEL  = PAW_PBE S 06Sep2000
   POMASS =   32.066; ZVAL   =    6.000    mass and valenz
   ENMAX  =  258.689; ENMIN  =  194.016 eV

 Optimization of the real space projectors (new method)

 maximal supplied QI-value         = 18.90
 optimisation between [QCUT,QGAM] = [ 10.77, 21.73] = [ 32.49,132.25] Ry
 Optimized for a Real-space Cutoff    1.38 Angstroem

   l    n(q)    QCUT    max X(q) W(low)/X(q) W(high)/X(q)  e(spline)
   1      8    10.771     2.836    0.40E-04    0.29E-04    0.12E-06
   1      8    10.771     4.023    0.10E-03    0.48E-04    0.29E-06
   2      8    10.771    73.368    0.42E-03    0.97E-04    0.44E-06
   2      8    10.771    69.010    0.42E-03    0.99E-04    0.45E-06
   0      9    10.771    54.797    0.10E-03    0.56E-04    0.74E-07
   0      9    10.771    24.266    0.89E-04    0.49E-04    0.67E-07
 Optimization of the real space projectors (new method)

 maximal supplied QI-value         = 19.84
 optimisation between [QCUT,QGAM] = [ 10.71, 21.63] = [ 32.15,130.99] Ry
 Optimized for a Real-space Cutoff    1.19 Angstroem

   l    n(q)    QCUT    max X(q) W(low)/X(q) W(high)/X(q)  e(spline)
   0      8    10.715   187.594    0.41E-03    0.53E-04    0.66E-07
   0      8    10.715   164.243    0.41E-03    0.53E-04    0.65E-07
   1      7    10.715    67.533    0.19E-03    0.59E-03    0.68E-07
   1      7    10.715    50.729    0.19E-03    0.58E-03    0.67E-07
  PAW_PBE Ni_pv 06Sep2000               :
  PAW_PBE S 06Sep2000                   :

 POSCAR: Type_048 Type_148
  positions in cartesian coordinates
 exchange correlation table for  LEXCH =        8
   RHO(1)=    0.500       N(1)  =     2000
   RHO(2)=  100.500       N(2)  =     4000

 ion  position               nearest neighbor table
   1  0.261  0.479  0.253-  73 2.25  58 2.26  80 2.26  54 2.36  59 2.36   7 2.53  21 2.53
   2  0.355  0.385  0.388-  74 2.25  54 2.26  59 2.26  60 2.36  66 2.36   3 2.38   8 2.53  22 2.53

   3  0.375  0.365  0.497-  52 2.04  66 2.08  60 2.08   2 2.38
   4  0.167  0.073  0.118-  55 2.06  81 2.08  64 2.25  56 2.36  82 2.36  30 2.52  36 2.53
   5  0.049  0.055  0.472-  50 2.05  77 2.08  72 2.10  78 2.15
   6  0.339  0.205  0.108-  51 2.03  55 2.03  93 2.18  56 2.20  57 2.24  24 2.43   7 2.45  36 2.51
                            58 2.64
   7  0.368  0.239  0.218-  56 2.25  58 2.26  51 2.26  59 2.36  61 2.36   6 2.45  16 2.49   1 2.53
                            21 2.53
   8  0.462  0.145  0.353-  79 2.25  59 2.26  61 2.26  60 2.36  62 2.36   2 2.53  22 2.53
   9  0.000  0.372  0.218-  58 2.25  64 2.26  92 2.26  49 2.36  67 2.36  13 2.53  19 2.53
  10  0.094  0.278  0.353-  59 2.25  49 2.26  67 2.26  53 2.36  50 2.36  20 2.53  14 2.53
  11  0.185  0.191  0.472-  50 2.05  77 2.08  53 2.10  60 2.15
  12  0.503  0.547  0.130-  69 2.03  80 2.04  70 2.20  76 2.30  40 2.33
  13  0.761  0.479  0.253-  85 2.25  70 2.26  92 2.26  40 2.31  67 2.36  71 2.36  19 2.53   9 2.53

  14  0.855  0.385  0.388-  86 2.25  67 2.26  71 2.26  72 2.36  53 2.36  15 2.38  20 2.53  10 2.53

[...]

  77  0.211  0.029  0.526-  27 2.04  11 2.08   5 2.08  50 2.69
  78  0.030  0.878  0.451-  39 2.08  35 2.10   5 2.15  34 2.36  38 2.36
  79  0.436  0.972  0.315-   8 2.25  26 2.26  46 2.26  25 2.36  45 2.36
  80  0.342  0.566  0.180-  12 2.04  28 2.12  31 2.25   1 2.26  21 2.26
  81  0.128  0.969  0.048-  48 2.04  30 2.08   4 2.08  75 2.63
  82  0.174  0.897  0.180-  30 2.13  48 2.16  33 2.25  31 2.26  25 2.26   4 2.36
  83  0.268  0.803  0.315-  34 2.25  26 2.26  32 2.26  31 2.36  25 2.36
  84  0.362  0.709  0.451-  27 2.08  41 2.10  35 2.15  32 2.36  26 2.36
  85  0.573  0.667  0.270-  40 2.16  13 2.25  46 2.26  32 2.26  45 2.36  31 2.36
  86  0.667  0.573  0.405-  41 2.05  47 2.05  14 2.25  46 2.36  32 2.36  65 2.69
  87  0.868  0.990  0.052-  42 2.01  48 2.03
  88  0.979  0.761  0.135-  42 2.05  48 2.23  43 2.26  33 2.26  28 2.39
  89  0.711  0.029  0.526-  39 2.04  17 2.08  23 2.08  62 2.69
  90  0.530  0.878  0.451-  27 2.08  47 2.10  17 2.15  46 2.36  26 2.36
  91  0.936  0.972  0.315-  20 2.25  38 2.26  34 2.26  37 2.36  33 2.36
  92  0.842  0.566  0.180-  40 2.05  18 2.08  43 2.25  13 2.26   9 2.26
  93  0.534  0.048  0.082-  36 2.03   6 2.18  16 2.30  51 2.47  94 2.75
  94  0.674  0.897  0.180-  16 1.99  42 2.04  45 2.25  43 2.26  37 2.26  93 2.75
  95  0.768  0.803  0.315-  46 2.25  38 2.26  44 2.26  43 2.36  37 2.36
  96  0.862  0.709  0.451-  39 2.08  29 2.10  47 2.15  44 2.36  38 2.36

  LATTYP: Found a base centered orthorhombic cell.
 ALAT       =    11.8257374459
 B/A-ratio  =     1.6199260857
 C/A-ratio  =     1.8387210052

  Lattice vectors:

 A1 = (  11.2564630382,   0.0000000000,   0.0000000000)
 A2 = (  -5.0445621212, -10.0628203371,   0.0000000000)
 A3 = (   0.0000000000,   0.0000000000, -21.7442318436)

Analysis of symmetry for initial positions (statically):
 Subroutine PRICEL returns:
 Original cell was already a primitive cell.

 Routine SETGRP: Setting up the symmetry group for a
 base centered orthorhombic supercell.

 Subroutine GETGRP returns: Found  1 space group operations
 (whereof  1 operations were pure point group operations)
 out of a pool of  8 trial point group operations.

The static configuration has the point symmetry C_1 .

Analysis of symmetry for dynamics (positions and initial velocities):
 Subroutine PRICEL returns:
 Original cell was already a primitive cell.

 Routine SETGRP: Setting up the symmetry group for a
 base centered orthorhombic supercell.

 Subroutine GETGRP returns: Found  1 space group operations
 (whereof  1 operations were pure point group operations)
 out of a pool of  8 trial point group operations.

The dynamic configuration has the point symmetry C_1 .

 Subroutine INISYM returns: Found  1 space group operations
 (whereof  1 operations are pure point group operations),
 and found     1 'primitive' translations

 KPOINTS: gamma-point-only calculation. no periodi

Automatic generation of k-mesh.
Space group operators:
 irot       det(A)        alpha          n_x          n_y          n_z        tau_x        tau_y        tau_z
    1     1.000000     0.000000     1.000000     0.000000     0.000000     0.000000     0.000000     0.000000

 Subroutine IBZKPT returns following result:

 Found      1 irreducible k-points:

 Following reciprocal coordinates:
            Coordinates               Weight
  0.000000  0.000000  0.000000      1.000000

 Following cartesian coordinates:
            Coordinates               Weight
  0.000000  0.000000  0.000000      1.000000

 SYSTEM =  "Millerite NiS"
 POSCAR =  Type_048 Type_148

 Startparameter for this run:
   NWRITE =      2    write-flag & timer
   PREC   = normal    normal or accurate (medium, high low for compatibility)
   ISTART =      0    job   : 0-new  1-cont  2-samecut
   ICHARG =      2    charge: 1-file 2-atom 10-const
   ISPIN  =      1    spin polarized calculation?
   LNONCOLLINEAR =      F non collinear calculations
   LSORBIT =      F    spin-orbit coupling
   INIWAV =      1    electr: 0-lowe 1-rand  2-diag
   LASPH  =      F    aspherical Exc in radial PAW
   METAGGA=      F    non-selfconsistent MetaGGA calc.

 Electronic Relaxation 1
   ENCUT  =  450.0 eV  33.07 Ry    5.75 a.u.  19.47 19.47 37.61*2*pi/ulx,y,z
   ENINI  =  450.0     initial cutoff
   ENAUG  =  703.4 eV  augmentation charge cutoff
   NELM   =    100;   NELMIN=  2; NELMDL= -5     # of ELM steps
   EDIFF  = 0.1E-03   stopping-criterion for ELM
   LREAL  =      T    real-space projection
   NLSPLINE    = F    spline interpolate recip. space projectors
   LCOMPAT=      F    compatible to vasp.4.4
   GGA_COMPAT  = T    GGA compatible to vasp.4.4-vasp.4.6
   LMAXPAW     = -100 max onsite density
   LMAXMIX     =    2 max onsite mixed and CHGCAR
   VOSKOWN=      0    Vosko Wilk Nusair interpolation
   ROPT   =   -0.00050  -0.00050
 Ionic relaxation
   EDIFFG = 0.1E-02   stopping-criterion for IOM
   NSW    =      0    number of steps for IOM
   NBLOCK =      1;   KBLOCK =      1    inner block; outer block
   IBRION =     -1    ionic relax: 0-MD 1-quasi-New 2-CG
   NFREE  =      0    steps in history (QN), initial steepest desc. (CG)
   ISIF   =      2    stress and relaxation
   IWAVPR =     10    prediction:  0-non 1-charg 2-wave 3-comb
   ISYM   =      2    0-nonsym 1-usesym 2-fastsym
   LCORR  =      T    Harris-Foulkes like correction to forces

   POTIM  = 0.5000    time-step for ionic-motion
   TEIN   =    0.0    initial temperature
   TEBEG  =    0.0;   TEEND  =   0.0 temperature during run
   SMASS  =  -3.00    Nose mass-parameter (am)
   estimated Nose-frequenzy (Omega)   =  0.10E-29 period in steps =****** mass=  -0.290E-26a.u.
   SCALEE = 1.0000    scale energy and forces
   NPACO  =    256;   APACO  = 16.0  distance and # of slots for P.C.
   PSTRESS=    0.0 pullay stress

  Mass of Ions in am
   POMASS =  58.69 32.07
  Ionic Valenz
   ZVAL   =  16.00  6.00
  Atomic Wigner-Seitz radii
  virtual crystal weights
   VCA    =   1.00  1.00
   NELECT =    1056.0000    total number of electrons
   NUPDOWN=      -1.0000    fix difference up-down

 DOS related values:
   EMIN   =  10.00;   EMAX   =-10.00  energy-range for DOS
   EFERMI =   0.00
   ISMEAR =     0;   SIGMA  =   0.20  broadening in eV -4-tet -1-fermi 0-gaus

 Electronic relaxation 2 (details)
   IALGO  =     38    algorithm
   LDIAG  =      T    sub-space diagonalisation (order eigenvalues)
   LSUBROT=      F    optimize rotation matrix (better conditioning)
   TURBO    =      0    0=normal 1=particle mesh
   IRESTART =      0    0=no restart 2=restart with 2 vectors
   NREBOOT  =      0    no. of reboots
   NMIN     =      0    reboot dimension
   EREF     =   0.00    reference energy to select bands
   IMIX   =      4    mixing-type and parameters
     AMIX     =   0.40;   BMIX     =  1.00
     AMIX_MAG =   1.60;   BMIX_MAG =  1.00
     AMIN     =   0.10
     WC   =   100.;   INIMIX=   1;  MIXPRE=   1;  MAXMIX= -45

 Intra band minimization:
   WEIMIN = 0.0000     energy-eigenvalue tresh-hold
   EBREAK =  0.39E-07  absolut break condition
   DEPER  =   0.30     relativ break condition

   TIME   =   0.40     timestep for ELM

  volume/ion in A,a.u.               =      25.66       173.14
  Fermi-wavevector in a.u.,A,eV,Ry     =   1.234452  2.332776 20.733535  1.523872
  Thomas-Fermi vector in A             =   2.369142

 Write flags
   LWAVE        =      F    write WAVECAR
   LDOWNSAMPLE  =      F    k-point downsampling of WAVECAR
   LCHARG       =      F    write CHGCAR
   LVTOT        =      F    write LOCPOT, total local potential
   LVHAR        =      F    write LOCPOT, Hartree potential only
   LELF         =      F    write electronic localiz. function (ELF)
[...]
     0.000000000  0.000000000 21.744231844     0.000000000  0.000000000  0.045989208

  length of vectors
    11.256463038 11.256463038 21.744231844     0.099375718  0.099375718  0.045989208

 FORCES acting on ions
    electron-ion (+dipol)            ewald-force                    non-local-force                 convergence-correction
   0.240E+03 -.440E+03 0.757E+03   -.240E+03 0.441E+03 -.753E+03   0.184E+00 -.898E+00 -.354E+01   0.131E-01 -.223E-01 0.222E-01
   0.242E+03 -.396E+03 -.239E+04   -.242E+03 0.397E+03 0.239E+04   0.510E+00 -.108E+01 0.219E+00   0.196E-01 -.303E-01 -.617E-01
   -.967E+01 0.151E+02 -.565E+04   0.727E+01 -.109E+02 0.565E+04   0.282E+01 -.488E+01 0.621E+00   -.467E-02 0.121E-01 0.842E-02
   0.564E+03 -.381E+03 0.419E+04   -.566E+03 0.381E+03 -.419E+04   0.122E+01 -.953E-01 0.548E+00   -.180E-01 0.116E-01 0.586E-01
   0.305E+03 0.231E+03 -.491E+04   -.309E+03 -.234E+03 0.491E+04   0.357E+01 0.337E+01 -.238E+01   -.146E-01 0.296E-01 -.158E-01
   -.543E+03 -.377E+03 0.504E+04   0.543E+03 0.380E+03 -.504E+04   -.693E+00 -.157E+01 0.349E+01   0.105E-01 0.310E-01 0.452E-01
   0.275E+03 0.395E+02 0.160E+04   -.277E+03 -.385E+02 -.160E+04   0.136E+01 -.760E+00 -.185E+01   0.504E-02 0.290E-01 0.966E-01
   0.263E+03 0.404E+03 -.147E+04   -.265E+03 -.405E+03 0.147E+04   0.149E+01 0.493E+00 0.127E+01   0.123E-01 0.165E-01 -.529E-01
   -.484E+03 -.117E+03 0.176E+04   0.486E+03 0.117E+03 -.176E+04   -.131E+01 -.452E-01 -.210E+01   -.127E-01 -.177E-01 0.740E-01
   -.490E+03 -.499E+02 -.140E+04   0.491E+03 0.505E+02 0.140E+04   -.743E+00 -.662E+00 0.193E+01   -.229E-01 -.770E-02 -.335E-01
   -.337E+03 -.171E+03 -.492E+04   0.341E+03 0.173E+03 0.492E+04   -.464E+01 -.170E+01 -.238E+01   -.308E-01 0.166E-01 -.183E-01
   0.485E+03 0.549E+03 0.503E+04   -.487E+03 -.552E+03 -.503E+04   0.337E+00 0.226E+01 0.301E+01   -.205E-01 -.204E-01 0.557E-01
   0.951E+02 -.929E+02 0.464E+03   -.944E+02 0.915E+02 -.460E+03   -.361E+00 0.603E+00 -.303E+01   -.949E-02 -.325E-01 0.571E-01
   0.222E+03 -.361E+03 -.239E+04   -.222E+03 0.363E+03 0.239E+04   0.641E+00 -.103E+01 0.319E-01   -.259E-02 -.338E-01 -.748E-02
   -.141E+02 0.212E+02 -.565E+04   0.115E+02 -.170E+02 0.565E+04   0.310E+01 -.489E+01 0.759E+00   0.975E-03 -.120E-01 0.140E-01
   -.337E+03 -.157E+03 0.343E+04   0.338E+03 0.158E+03 -.343E+04   -.241E+00 -.998E+00 0.679E+00   -.278E-02 0.309E-01 0.908E-01
   0.298E+03 0.228E+03 -.493E+04   -.302E+03 -.232E+03 0.493E+04   0.347E+01 0.331E+01 -.210E+01   0.161E-01 0.141E-02 -.356E-01
   0.175E+03 0.182E+03 0.516E+04   -.178E+03 -.184E+03 -.517E+04   0.103E+01 0.842E+00 0.805E+01   -.115E-02 -.192E-01 0.644E-01
   0.392E+03 0.520E+03 0.209E+04   -.392E+03 -.522E+03 -.209E+04   0.486E+00 0.198E+01 -.163E+01   -.799E-03 0.908E-02 0.842E-01
   0.263E+03 0.434E+03 -.138E+04   -.263E+03 -.434E+03 0.138E+04   0.750E+00 0.443E-01 0.177E+01   -.384E-02 0.329E-01 -.315E-01
   -.485E+03 -.251E+02 0.212E+04   0.483E+03 0.260E+02 -.212E+04   0.169E+01 -.869E+00 -.953E+00   -.138E-01 -.487E-02 0.854E-01
   -.523E+03 -.497E+02 -.141E+04   0.525E+03 0.512E+02 0.141E+04   -.992E+00 -.157E+01 0.734E+00   0.412E-03 -.319E-02 -.445E-01
   -.347E+03 -.167E+03 -.492E+04   0.352E+03 0.169E+03 0.492E+04   -.457E+01 -.158E+01 -.225E+01   0.317E-01 0.629E-02 -.333E-01
   0.212E+03 -.589E+03 0.518E+04   -.214E+03 0.591E+03 -.519E+04   0.308E+01 -.335E+01 0.606E+01   0.158E-02 0.293E-01 0.322E-01
   0.324E+03 -.406E+03 0.612E+03   -.324E+03 0.407E+03 -.609E+03   0.179E+00 -.735E+00 -.193E+01   -.610E-03 0.169E-01 0.511E-01
   0.255E+03 -.381E+03 -.242E+04   -.256E+03 0.382E+03 0.242E+04   0.652E+00 -.942E+00 0.293E+00   0.154E-01 -.420E-02 -.506E-01
   -.681E+01 0.190E+02 -.566E+04   0.427E+01 -.150E+02 0.566E+04   0.302E+01 -.474E+01 0.642E+00   -.876E-02 0.522E-02 0.162E-01
   0.481E+02 -.484E+03 0.455E+04   -.461E+02 0.487E+03 -.455E+04   -.214E+01 -.135E+01 0.262E+01   0.567E-02 -.857E-02 0.576E-01
   0.299E+03 0.230E+03 -.491E+04   -.304E+03 -.233E+03 0.491E+04   0.349E+01 0.333E+01 -.227E+01   -.946E-02 -.542E-02 0.625E-02
   0.434E+03 0.889E+03 0.516E+04   -.436E+03 -.891E+03 -.516E+04   0.774E+00 0.101E+01 0.324E+01   -.194E-01 -.172E-01 0.255E-01
   0.508E+03 0.364E+03 0.170E+04   -.511E+03 -.364E+03 -.170E+04   0.195E+01 0.314E+00 -.244E+01   -.603E-02 0.244E-02 0.789E-01
   0.298E+03 0.445E+03 -.145E+04   -.300E+03 -.445E+03 0.145E+04   0.206E+01 0.543E+00 0.702E+00   0.165E-01 -.125E-01 -.458E-01
   -.438E+03 0.145E+03 0.168E+04   0.439E+03 -.146E+03 -.167E+04   -.122E+01 0.935E+00 -.231E+01   0.105E-01 0.801E-02 0.624E-01
   -.488E+03 -.224E+02 -.137E+04   0.489E+03 0.230E+02 0.137E+04   -.789E+00 -.684E+00 0.213E+01   0.277E-02 0.122E-01 -.197E-01
   -.336E+03 -.166E+03 -.491E+04   0.341E+03 0.168E+03 0.491E+04   -.464E+01 -.162E+01 -.237E+01   -.153E-01 -.227E-02 0.451E-02
   -.763E+03 0.407E+03 0.545E+04   0.766E+03 -.409E+03 -.546E+04   -.337E+01 0.322E+01 0.589E+01   0.956E-02 -.123E-01 0.102E-01
   0.118E+02 -.260E+03 0.534E+03   -.106E+02 0.259E+03 -.530E+03   -.686E+00 -.164E-01 -.345E+01   -.401E-02 0.282E-01 0.714E-01
   0.210E+03 -.364E+03 -.239E+04   -.211E+03 0.365E+03 0.239E+04   0.652E+00 -.112E+01 -.153E+00   -.174E-02 0.166E-01 -.605E-02
   -.168E+02 0.216E+02 -.565E+04   0.142E+02 -.175E+02 0.565E+04   0.296E+01 -.486E+01 0.834E+00   0.113E-01 -.184E-02 0.222E-01
   -.403E+03 -.316E+03 0.336E+04   0.407E+03 0.317E+03 -.336E+04   -.371E+01 -.442E+00 -.166E+01   0.150E-01 -.115E-01 0.984E-01
   0.305E+03 0.235E+03 -.492E+04   -.309E+03 -.238E+03 0.493E+04   0.366E+01 0.329E+01 -.227E+01   0.174E-01 -.233E-01 -.222E-01
   0.390E+03 0.105E+03 0.516E+04   -.395E+03 -.105E+03 -.517E+04   0.354E+01 -.845E+00 0.951E+01   0.638E-02 0.953E-02 0.274E-01
   0.182E+03 0.604E+03 0.216E+04   -.182E+03 -.606E+03 -.216E+04   0.136E+00 0.176E+01 -.893E+00   -.451E-02 -.172E-01 0.596E-01
   0.231E+03 0.441E+03 -.136E+04   -.232E+03 -.441E+03 0.136E+04   0.734E+00 0.268E+00 0.207E+01   -.140E-01 -.620E-02 -.182E-01
   -.534E+03 -.101E+03 0.184E+04   0.534E+03 0.103E+03 -.184E+04   0.241E+00 -.210E+01 -.973E+00   -.157E-01 0.623E-02 0.862E-01
   -.522E+03 -.370E+02 -.147E+04   0.523E+03 0.382E+02 0.147E+04   -.822E+00 -.126E+01 0.113E+01   -.685E-02 -.339E-02 -.396E-01
   -.348E+03 -.162E+03 -.493E+04   0.353E+03 0.164E+03 0.493E+04   -.452E+01 -.162E+01 -.211E+01   0.120E-01 -.233E-01 -.209E-01
   0.214E+03 -.306E+02 0.496E+04   -.213E+03 0.311E+02 -.496E+04   0.307E+00 -.908E+00 0.451E+01   0.456E-02 0.487E-02 0.196E-01
   -.459E+02 0.112E+03 0.278E+03   0.469E+02 -.114E+03 -.280E+03   -.879E+00 0.203E+01 0.244E+01   -.628E-02 0.276E-02 0.165E-01
   -.716E+02 0.124E+03 -.912E+03   0.728E+02 -.125E+03 0.908E+03   -.796E+00 0.102E+01 0.861E+00   -.912E-02 0.119E-01 -.222E-01
   -.366E+03 -.263E+03 0.196E+04   0.371E+03 0.268E+03 -.196E+04   -.247E+01 -.217E+00 0.350E+01   0.808E-02 0.147E-01 0.244E-01
   -.439E+01 0.771E+01 -.236E+04   0.493E+01 -.855E+01 0.236E+04   -.319E+00 0.527E+00 -.223E+01   -.650E-03 -.507E-02 0.155E-01
   -.127E+03 -.113E+03 -.158E+04   0.128E+03 0.114E+03 0.158E+04   -.139E+01 -.511E+00 -.172E+01   -.278E-01 -.190E-02 0.947E-03
   -.566E+02 -.149E+03 -.207E+03   0.584E+02 0.151E+03 0.207E+03   -.181E+01 -.230E+01 0.573E+00   0.438E-02 -.120E-01 -.676E-02
   0.658E+02 -.124E+03 0.251E+04   -.665E+02 0.125E+03 -.252E+04   0.974E-01 -.986E+00 0.389E+01   -.703E-02 0.961E-02 -.248E-01
   0.855E+01 -.388E+02 0.909E+03   -.928E+01 0.386E+02 -.907E+03   -.154E+00 -.359E+00 -.548E-01   -.486E-02 0.917E-03 0.476E-01
   -.251E+03 -.256E+03 0.232E+04   0.253E+03 0.258E+03 -.233E+04   -.820E+00 -.682E+00 0.393E+01   0.322E-02 0.168E-01 -.322E-02
   0.917E+02 -.131E+03 0.101E+04   -.926E+02 0.130E+03 -.101E+04   -.243E+00 0.155E+00 -.773E+00   0.810E-02 0.924E-02 0.296E-01
   0.178E+03 -.270E+02 -.218E+03   -.181E+03 0.271E+02 0.218E+03   0.319E+01 -.239E-01 -.354E+00   0.562E-02 -.678E-02 -.621E-02
   0.158E+03 0.590E+02 -.158E+04   -.160E+03 -.598E+02 0.159E+04   0.123E+01 0.114E+01 -.153E+01   0.198E-02 0.109E-01 -.186E-01
[...]
   0.194E+03 -.106E+01 -.218E+03   -.197E+03 0.124E+01 0.217E+03   0.282E+01 -.197E+00 0.552E+00   0.854E-02 0.117E-02 -.807E-02
   0.161E+03 0.632E+02 -.158E+04   -.163E+03 -.641E+02 0.159E+04   0.118E+01 0.120E+01 -.151E+01   0.141E-03 0.603E-02 -.728E-02
   -.427E+02 0.870E+02 0.104E+03   0.425E+02 -.890E+02 -.102E+03   -.204E-01 0.223E+01 -.617E+00   0.110E-02 -.537E-02 0.241E-01
   -.804E+02 0.131E+03 -.923E+03   0.816E+02 -.133E+03 0.919E+03   -.699E+00 0.122E+01 0.151E+01   0.392E-02 -.817E-02 -.251E-01
   0.149E+03 -.179E+03 0.239E+04   -.151E+03 0.181E+03 -.240E+04   0.997E+00 -.221E+00 0.138E+01   0.403E-02 0.886E-02 -.292E-01
   0.579E+02 0.371E+03 0.186E+04   -.586E+02 -.375E+03 -.186E+04   0.192E+01 0.123E+01 0.333E+01   0.101E-01 -.221E-01 0.121E-01
   -.670E+01 0.851E+01 -.236E+04   0.726E+01 -.932E+01 0.236E+04   -.367E+00 0.535E+00 -.209E+01   0.221E-01 -.182E-01 0.150E-01
   -.127E+03 -.112E+03 -.159E+04   0.128E+03 0.113E+03 0.159E+04   -.147E+01 -.514E+00 -.149E+01   -.764E-02 -.417E-02 -.157E-01
   -.811E+02 -.151E+03 -.204E+03   0.827E+02 0.154E+03 0.205E+03   -.169E+01 -.295E+01 -.528E+00   -.169E-03 0.191E-01 0.512E-02
   -.325E+03 -.233E+03 0.126E+04   0.328E+03 0.236E+03 -.126E+04   -.728E-01 -.130E+01 0.384E+01   0.223E-02 -.630E-02 0.328E-01
   -.420E+03 0.757E+02 0.223E+04   0.423E+03 -.783E+02 -.224E+04   -.129E+01 0.240E+01 0.381E+01   0.119E-01 0.198E-02 -.666E-02
   0.158E+03 0.256E+03 0.127E+04   -.161E+03 -.258E+03 -.127E+04   0.106E+01 -.114E+01 0.410E+01   -.884E-02 -.378E-02 0.341E-01
   0.142E+03 0.136E+02 -.210E+03   -.145E+03 -.135E+02 0.211E+03   0.293E+01 -.738E-01 -.406E+00   -.108E-01 0.574E-02 0.428E-02
   0.152E+03 0.644E+02 -.158E+04   -.154E+03 -.651E+02 0.158E+04   0.113E+01 0.101E+01 -.182E+01   0.119E-01 0.112E-01 0.437E-02
   -.969E+01 0.218E+02 -.555E+02   -.108E-11 0.102E-11 0.682E-11   0.937E+01 -.218E+02 0.544E+02   0.126E-01 0.776E-02 0.114E+01

 POSITION                                       TOTAL-FORCE (eV/Angst)
      5.35228      4.81788      5.50842         0.058841      0.095398      0.165650
      5.93595      3.87238      8.44448         0.015696      0.114441     -0.987925
      6.06163      3.66882     10.81436         0.416013     -0.706386      0.794976
      2.24633      0.73197      2.57236        -0.444863      0.061764      1.621265
      0.82582      0.54904     10.27222        -0.533562     -0.017704      0.478955
      4.84433      2.05813      2.35776        -0.398291      1.125244     -0.814130
      5.35228      2.40903      4.73270        -0.401869      0.294878      0.926779
      5.93595      1.46353      7.66876        -0.003053     -0.196790     -0.073156
      1.87746      3.73836      4.73270         0.059113      0.144932      0.395586
      2.46113      2.79286      7.66876        -0.016186     -0.115002     -0.082540
      3.04644      1.91987     10.27227         0.220708      0.462384      0.472956
      8.42115      5.50504      2.83574        -1.059102     -0.258978     -0.580991
     10.98051      4.81788      5.50842         0.273495     -0.843738      1.372386
     11.56418      3.87238      8.44448        -0.058578      0.118561     -0.917220
     11.69006      3.66842     10.81442         0.419901     -0.694660      0.831178
      7.16870      0.95608      3.84084         1.228031     -0.482673     -0.166929
      6.45426      0.54902     10.27346        -0.505214     -0.001142      0.542159
     11.33131      4.35435      2.69451        -1.021587     -1.048398     -0.758205
     10.98051      2.40903      4.73270        -0.113875     -0.554250      0.623067
     11.56418      1.46353      7.66876         0.053622     -0.019552     -0.090149
      7.50570      3.73836      4.73270        -0.031999     -0.016760      0.128609
      8.08937      2.79286      7.66876         0.183001     -0.004585      0.016394
      8.67470      1.91975     10.27325         0.246570      0.451335      0.516094
      2.84184      3.42205      2.14122         0.904610     -0.830090     -0.412943
      7.87456      9.84929      5.50842        -0.041957      0.279191      0.234327
      8.45823      8.90379      8.44448        -0.052865      0.064194     -0.948554
      8.58388      8.70028     10.81434         0.469931     -0.686902      0.777573
      4.81089      5.59340      2.97662        -0.145525      1.578147     -0.595984
      3.34814      5.58047     10.27234        -0.544382      0.012116      0.453163
      7.38317      8.32070      2.12334        -0.733306     -1.340399      0.366916
      7.87456      7.44044      4.73270        -0.320926     -0.145159      0.504990
      8.45823      6.49494      7.66876        -0.181943     -0.129646      0.042712
      4.39975      8.76977      4.73270        -0.033047     -0.161946      1.134805
      4.98341      7.82427      7.66876         0.048062     -0.132958      0.018319
      5.56875      6.95127     10.27231         0.280999      0.478810      0.458924
      9.44431      9.71527      1.79664        -0.202419      0.612404      1.182120
     13.50279      9.84929      5.50842         0.550789     -0.144437      0.825556
     14.08646      8.90379      8.44448        -0.019965      0.064036     -0.962696
     14.21233      8.69987     10.81442         0.387198     -0.691534      0.859119
     10.37807      6.28838      3.82960         0.160570      0.084529     -0.140083
      8.97647      5.58038     10.27341        -0.479534     -0.017651      0.531115
     13.76718      9.38332      2.77812        -1.415134     -0.476908     -0.779040
     13.50279      7.44044      4.73270         0.041745     -0.182938      0.314902
     14.08646      6.49494      7.66876         0.031210      0.038576     -0.042595
     10.02798      8.76977      4.73270         0.033375      0.035881      0.488432
     10.61165      7.82427      7.66876         0.151522     -0.052611     -0.153033
     11.19691      6.95109     10.27348         0.228909      0.467083      0.503282
      4.91827      9.39551      2.48220         0.464497     -0.350472      0.513922
      1.66190      1.67871      5.87212         0.109631     -0.065833      0.191781
      2.24556      0.73321      8.80817         0.436548     -0.706340     -3.158930
      6.70646      2.62422      2.93606         2.361540      3.909680     -0.901699
      5.04215      5.32034     11.44666         0.214749     -0.322453      2.742499
      2.24556      3.80055      9.79595         0.164237      1.056878     -0.160898
      7.29013      4.74605      6.85989        -0.020658      0.017271      0.200050
      3.37811      1.53548      1.04936        -0.642881     -0.167131     -3.170883
      4.18418      0.66015      3.92384        -0.888393     -0.589407      1.670671
      4.68559      4.11901      1.50473         1.362325      1.163392     -2.379981
      3.96438      3.99884      3.92384        -1.219152     -0.674419      2.670419
      4.54805      3.05334      6.85989        -0.018083      0.094061     -0.048505
      5.13172      2.10784      9.79595        -0.994865      0.351582     -0.115073
[...]
      6.48666      9.03025      3.92384        -0.006966      0.240235      2.129471
      7.07033      8.08475      6.85989        -0.034977     -0.021531      0.052721
      7.65400      7.13925      9.79595        -1.056539      0.361211     -0.022201
      9.81241      6.71012      5.87212        -0.190222      0.280980      0.931210
     10.39608      5.76462      8.80817         0.467612     -0.750568     -3.125460
     14.76826      9.96625      1.13325        -0.649209      1.468314     -3.696548
     14.85697      7.65563      2.93606         1.244680     -3.422417     -0.057581
      8.14841      0.28857     11.44708         0.221104     -0.298263      2.716230
     10.39608      8.83196      9.79595         0.149480      1.080680     -0.100172
     15.44064      9.77746      6.85989        -0.089891     -0.118358     -0.109947
     12.33469      5.69156      3.92384         3.409407      1.705980      2.050906
      6.24942      0.48661      1.78975         2.446640     -0.232057     -1.327115
     12.11489      9.03025      3.92384        -2.447715     -3.585598      1.736160
     12.69856      8.08475      6.85989         0.033862      0.005721     -0.094857
     13.28223      7.13925      9.79595        -0.962756      0.340906     -0.117278
    total drift:                               -0.309618      0.096901      0.089124

  FREE ENERGIE OF THE ION-ELECTRON SYSTEM (eV)
  free  energy   TOTEN  =      -468.39228209 eV

  energy  without entropy=     -467.08512591  energy(sigma->0) =     -467.73870400