 vasp.5.4.4.18Apr17-6-g9f103f2a35 (build Aug 13 2019 17:33:20) gamma-only

 executed on             LinuxIFC date 2020.05.12  08:32:31

 INCAR:
 POTCAR:    PAW_PBE Ni_pv 06Sep2000
 POTCAR:    PAW_PBE S 06Sep2000
 POTCAR:    PAW_PBE Ni_pv 06Sep2000
   VRHFIN =Ni:

   TITEL  = PAW_PBE Ni_pv 06Sep2000
   POMASS =   58.690; ZVAL   =   16.000    mass and valenz
   ENMAX  =  367.986; ENMIN  =  275.989 eV

 POTCAR:    PAW_PBE S 06Sep2000
   VRHFIN =S : s2p4

   TITEL  = PAW_PBE S 06Sep2000
   POMASS =   32.066; ZVAL   =    6.000    mass and valenz
   ENMAX  =  258.689; ENMIN  =  194.016 eV

 Optimization of the real space projectors (new method)

 maximal supplied QI-value         = 18.90
 optimisation between [QCUT,QGAM] = [ 10.77, 21.73] = [ 32.49,132.25] Ry
 Optimized for a Real-space Cutoff    1.38 Angstroem

   l    n(q)    QCUT    max X(q) W(low)/X(q) W(high)/X(q)  e(spline)
   1      8    10.771     2.836    0.40E-04    0.29E-04    0.12E-06
   1      8    10.771     4.023    0.10E-03    0.48E-04    0.29E-06
   2      8    10.771    73.368    0.42E-03    0.97E-04    0.44E-06
   2      8    10.771    69.010    0.42E-03    0.99E-04    0.45E-06
   0      9    10.771    54.797    0.10E-03    0.56E-04    0.74E-07
   0      9    10.771    24.266    0.89E-04    0.49E-04    0.67E-07
 Optimization of the real space projectors (new method)

 maximal supplied QI-value         = 19.84
 optimisation between [QCUT,QGAM] = [ 10.71, 21.63] = [ 32.15,130.99] Ry
 Optimized for a Real-space Cutoff    1.19 Angstroem

   l    n(q)    QCUT    max X(q) W(low)/X(q) W(high)/X(q)  e(spline)
   0      8    10.715   187.594    0.41E-03    0.53E-04    0.66E-07
   0      8    10.715   164.243    0.41E-03    0.53E-04    0.65E-07
   1      7    10.715    67.533    0.19E-03    0.59E-03    0.68E-07
   1      7    10.715    50.729    0.19E-03    0.58E-03    0.67E-07
  PAW_PBE Ni_pv 06Sep2000               :
  PAW_PBE S 06Sep2000                   :

 POSCAR: Type_048 Type_148
  positions in cartesian coordinates
 exchange correlation table for  LEXCH =        8
   RHO(1)=    0.500       N(1)  =     2000
   RHO(2)=  100.500       N(2)  =     4000

 ion  position               nearest neighbor table
   1  0.256  0.016  0.152-  76 2.25  66 2.26  81 2.26  53 2.36  93 2.36   5 2.43   9 2.53
   2  0.256  0.016  0.481-  77 2.25  67 2.26  82 2.26  54 2.36  94 2.36  36 2.38  10 2.53   6 2.53

   3  0.006  0.266  0.317-  63 2.25  69 2.26  73 2.26  56 2.36  60 2.36   7 2.53  23 2.53
   4  0.010  0.269  0.638-  57 2.17  74 2.19  70 2.23  61 2.25   8 2.33  24 2.42
   5  0.297  0.014  0.070-  91 2.06  49 2.12  93 2.12  62 2.23  81 2.36   1 2.43   9 2.51
   6  0.256  0.016  0.394-  80 2.25  63 2.26  82 2.26  50 2.36  94 2.36   2 2.53  10 2.53
   7  0.006  0.266  0.230-  66 2.25  73 2.26  64 2.26  60 2.36  51 2.36   3 2.53  23 2.53
   8  0.006  0.266  0.558-  67 2.25  74 2.26  65 2.26   4 2.33  61 2.36  52 2.36  24 2.53
   9  0.190  0.215  0.109-  62 2.10  49 2.11  58 2.25  66 2.26  53 2.36   5 2.51   1 2.53
  10  0.190  0.215  0.438-  59 2.25  67 2.26  63 2.26  54 2.36  50 2.36   2 2.53   6 2.53
  11  0.440  0.465  0.273-  83 2.25  51 2.26  56 2.26  64 2.36  69 2.36  19 2.53  15 2.53
  12  0.440  0.465  0.602-  70 2.15  57 2.16  84 2.25  52 2.26  40 2.31  65 2.36  16 2.42  20 2.53

[...]

  25  0.256  0.516  0.152-  51 2.25  89 2.26  58 2.26  78 2.36  71 2.36  29 2.41  33 2.49
  26  0.256  0.516  0.481-  52 2.25  90 2.26  59 2.26  79 2.36  72 2.36  34 2.53  30 2.53
  27  0.006  0.766  0.317-  86 2.25  92 2.26  95 2.26  80 2.36  83 2.36  31 2.53  47 2.53
  28  0.093  0.603  0.643-  84 2.00  96 2.18  57 2.21  24 2.31
  29  0.219  0.528  0.070-  55 2.05  85 2.12  58 2.13  68 2.17  25 2.41  71 2.51  33 2.52
  30  0.256  0.516  0.394-  56 2.25  86 2.26  59 2.26  75 2.36  72 2.36  26 2.53  34 2.53
  31  0.006  0.766  0.230-  89 2.25  95 2.26  87 2.26  83 2.36  76 2.36  27 2.53  47 2.53
  32  0.006  0.766  0.558-  90 2.25  96 2.26  88 2.26  84 2.36  77 2.36
  33  0.201  0.720  0.116-  85 2.14  78 2.18  68 2.18  89 2.18  81 2.22  25 2.49  29 2.52
  34  0.190  0.715  0.438-  82 2.25  90 2.26  86 2.26  79 2.36  75 2.36  26 2.53  30 2.53
  35  0.440  0.965  0.273-  60 2.25  76 2.26  80 2.26  87 2.36  92 2.36  43 2.53  39 2.53
  36  0.441  0.047  0.550-  88 2.06  61 2.08  54 2.17  77 2.21   2 2.38
  37  0.756  0.516  0.152-  64 2.25  78 2.26  71 2.26  89 2.36  58 2.36  41 2.38  45 2.48
  38  0.756  0.516  0.481-  65 2.25  79 2.26  72 2.26  90 2.36  59 2.36  46 2.53  42 2.53
  39  0.506  0.766  0.317-  75 2.25  80 2.26  83 2.26  92 2.36  95 2.36  43 2.53  35 2.53
  40  0.593  0.603  0.643-  96 2.00  84 2.18  70 2.21  12 2.31
  41  0.796  0.525  0.071-  55 2.03  85 2.14  58 2.15  68 2.21  37 2.38  71 2.41  45 2.53
  42  0.756  0.516  0.394-  69 2.25  75 2.26  72 2.26  86 2.36  59 2.36  38 2.53  46 2.53
  43  0.506  0.766  0.230-  78 2.25  83 2.26  76 2.26  95 2.36  87 2.36  39 2.53  35 2.53
  44  0.506  0.766  0.558-  79 2.25  84 2.26  77 2.26  96 2.36  88 2.36
  45  0.685  0.719  0.116-  78 2.12  85 2.12  68 2.18  93 2.21  89 2.26  37 2.48  41 2.53
  46  0.690  0.715  0.438-  94 2.25  79 2.26  75 2.26  90 2.36  86 2.36  38 2.53  42 2.53
  47  0.940  0.965  0.273-  73 2.25  87 2.26  92 2.26  76 2.36  80 2.36  31 2.53  27 2.53
  48  0.941  0.047  0.550-  77 2.06  74 2.08  67 2.17  88 2.21  14 2.38
  49  0.464  0.161  0.067-  21 2.05   9 2.11   5 2.12  17 2.21  91 2.55
  50  0.468  0.167  0.382-  15 2.25  18 2.26  22 2.26   6 2.36  10 2.36
  51  0.218  0.417  0.218-  25 2.25  11 2.26  19 2.26  23 2.36   7 2.36
  52  0.218  0.417  0.547-  26 2.25  12 2.26  20 2.26  24 2.36   8 2.36
  53  0.468  0.167  0.164-  19 2.25  13 2.26  21 2.26   1 2.36   9 2.36
  54  0.468  0.167  0.493-  36 2.17  20 2.25  22 2.26  14 2.26  10 2.36   2 2.36
  55  0.021  0.479  0.021-  41 2.03  29 2.05  85 2.64  58 2.67
  56  0.218  0.417  0.329-  30 2.25  15 2.26  11 2.26   3 2.36  23 2.36
  57  0.209  0.406  0.647-  24 2.15  12 2.16   4 2.17  28 2.21  16 2.23
  58  0.053  0.414  0.109-  29 2.13  41 2.15   9 2.25  25 2.26  37 2.36  55 2.67
  59  0.053  0.414  0.438-  10 2.25  26 2.26  30 2.26  38 2.36  42 2.36
  60  0.303  0.164  0.273-  35 2.25  19 2.26  15 2.26   7 2.36   3 2.36
  61  0.303  0.164  0.602-  36 2.08  16 2.19   4 2.25  20 2.26   8 2.36
  62  0.974  0.138  0.069-   9 2.10  17 2.10  21 2.17   5 2.23  81 2.73
  63  0.968  0.167  0.382-   3 2.25   6 2.26  10 2.26  18 2.36  22 2.36
  64  0.718  0.417  0.218-  37 2.25  23 2.26   7 2.26  11 2.36  19 2.36
  65  0.718  0.417  0.547-  38 2.25  24 2.26   8 2.26  12 2.36  20 2.36
  66  0.968  0.167  0.164-   7 2.25   1 2.26   9 2.26  13 2.36  21 2.36
  67  0.968  0.167  0.493-  48 2.17   8 2.25  10 2.26   2 2.26  22 2.36  14 2.36
  68  0.469  0.638  0.072-  29 2.17  45 2.18  33 2.18  41 2.21  71 2.69  78 2.70
  69  0.718  0.417  0.329-  42 2.25   3 2.26  23 2.26  15 2.36  11 2.36
  70  0.709  0.406  0.647-  12 2.15  24 2.16  16 2.17  40 2.21   4 2.23
  71  0.553  0.414  0.109-  21 2.25  37 2.26  25 2.36  41 2.41  29 2.51  68 2.69
  72  0.553  0.414  0.438-  22 2.25  38 2.26  42 2.26  26 2.36  30 2.36
  73  0.803  0.164  0.273-  47 2.25   7 2.26   3 2.26  19 2.36  15 2.36
  74  0.803  0.164  0.602-  48 2.08   4 2.19  16 2.25   8 2.26  20 2.36
  75  0.468  0.667  0.382-  39 2.25  42 2.26  46 2.26  30 2.36  34 2.36
  76  0.218  0.917  0.218-   1 2.25  35 2.26  43 2.26  47 2.36  31 2.36
  77  0.218  0.917  0.547-  48 2.06  36 2.21   2 2.25  44 2.26  32 2.36
  78  0.468  0.667  0.164-  45 2.12  33 2.18  43 2.25  37 2.26  25 2.36  68 2.70
  79  0.468  0.667  0.493-  44 2.25  46 2.26  38 2.26  34 2.36  26 2.36
  80  0.218  0.917  0.329-   6 2.25  39 2.26  35 2.26  27 2.36  47 2.36
  81  0.053  0.914  0.109-  33 2.22   1 2.26   5 2.36  17 2.36  13 2.36  62 2.73
  82  0.053  0.914  0.438-  34 2.25   2 2.26   6 2.26  14 2.36  18 2.36
  83  0.303  0.664  0.273-  11 2.25  43 2.26  39 2.26  31 2.36  27 2.36
  84  0.303  0.664  0.602-  28 2.00  40 2.18  12 2.25  44 2.26  32 2.36
  85  0.956  0.677  0.072-  45 2.12  29 2.12  41 2.14  33 2.14  55 2.64  89 2.71
  86  0.968  0.667  0.382-  27 2.25  30 2.26  34 2.26  42 2.36  46 2.36
  87  0.718  0.917  0.218-  13 2.25  47 2.26  31 2.26  35 2.36  43 2.36
  88  0.718  0.917  0.547-  36 2.06  48 2.21  14 2.25  32 2.26  44 2.36
  89  0.968  0.667  0.164-  33 2.18  31 2.25  25 2.26  45 2.26  37 2.36  85 2.71
  90  0.968  0.667  0.493-  32 2.25  34 2.26  26 2.26  46 2.36  38 2.36
  91  0.539  0.963  0.022-  17 2.03   5 2.06  49 2.55  93 2.58
  92  0.718  0.917  0.329-  18 2.25  27 2.26  47 2.26  39 2.36  35 2.36
  93  0.553  0.914  0.109-   5 2.12  45 2.21  17 2.26  13 2.26   1 2.36  91 2.58
  94  0.553  0.914  0.438-  46 2.25  14 2.26  18 2.26   2 2.36   6 2.36
  95  0.803  0.664  0.273-  23 2.25  31 2.26  27 2.26  43 2.36  39 2.36
  96  0.803  0.664  0.602-  40 2.00  28 2.18  24 2.25  32 2.26  44 2.36

  LATTYP: Found a simple monoclinic cell.
 ALAT       =    13.8711386352
 B/A-ratio  =     2.1019774055
 C/A-ratio  =     1.3233367991
 COS(beta)  =    -0.9620914447

  Lattice vectors:

 A1 = (  -8.3714133957, -11.0601955134,   0.0000000000)
 A2 = (   0.0000000000,   0.0000000000, -29.1568200000)
 A3 = (  14.6499733957,  11.0601955134,   0.0000000000)

Analysis of symmetry for initial positions (statically):
 Subroutine PRICEL returns:
 Original cell was already a primitive cell.

 Routine SETGRP: Setting up the symmetry group for a
 simple monoclinic supercell.

 Subroutine GETGRP returns: Found  1 space group operations
 (whereof  1 operations were pure point group operations)
 out of a pool of  4 trial point group operations.

The static configuration has the point symmetry C_1 .

Analysis of symmetry for dynamics (positions and initial velocities):
 Subroutine PRICEL returns:
 Original cell was already a primitive cell.

 Routine SETGRP: Setting up the symmetry group for a
 simple monoclinic supercell.

 Subroutine GETGRP returns: Found  1 space group operations
 (whereof  1 operations were pure point group operations)
 out of a pool of  4 trial point group operations.

The dynamic configuration has the point symmetry C_1 .

 Subroutine INISYM returns: Found  1 space group operations
 (whereof  1 operations are pure point group operations),
 and found     1 'primitive' translations

 KPOINTS: gamma-point-only calculation. no periodi

Automatic generation of k-mesh.
Space group operators:
 irot       det(A)        alpha          n_x          n_y          n_z        tau_x        tau_y        tau_z
    1     1.000000     0.000000     1.000000     0.000000     0.000000     0.000000     0.000000     0.000000

 Subroutine IBZKPT returns following result:

 Found      1 irreducible k-points:

 Following reciprocal coordinates:
            Coordinates               Weight
  0.000000  0.000000  0.000000      1.000000

 Following cartesian coordinates:
            Coordinates               Weight
  0.000000  0.000000  0.000000      1.000000

 SYSTEM =  "Millerite NiS"
 POSCAR =  Type_048 Type_148

 Startparameter for this run:
   NWRITE =      2    write-flag & timer
   PREC   = normal    normal or accurate (medium, high low for compatibility)
   ISTART =      0    job   : 0-new  1-cont  2-samecut
[...]
     0.000000000  0.000000000 29.156820000     0.000000000  0.000000000  0.034297293

  length of vectors
     6.278560000 11.256463038 29.156820000     0.162098538  0.090414315  0.034297293

 FORCES acting on ions
    electron-ion (+dipol)            ewald-force                    non-local-force                 convergence-correction
   0.126E+02 0.218E+03 0.410E+04   -.134E+02 -.220E+03 -.409E+04   0.805E+00 0.137E+01 -.146E+01   0.153E-01 0.115E+00 -.154E+01
   0.147E+02 0.564E+03 -.324E+04   -.150E+02 -.566E+03 0.324E+04   0.625E-01 0.225E+01 -.325E+00   -.107E-01 -.591E+00 0.442E+00
   -.411E+02 0.249E+03 0.333E+03   0.402E+02 -.250E+03 -.332E+03   0.962E+00 0.650E+00 -.128E+01   0.440E-02 -.249E+00 0.319E+00
   -.881E+01 0.105E+04 -.747E+04   0.874E+01 -.105E+04 0.746E+04   0.133E+00 -.694E+00 0.268E+01   0.644E-03 -.404E-01 0.665E+00
   0.290E+03 0.348E+03 0.705E+04   -.294E+03 -.352E+03 -.706E+04   0.167E+01 0.326E+01 0.665E+01   0.948E-01 0.866E-01 -.463E+00
   -.410E+02 0.310E+03 -.535E+03   0.401E+02 -.310E+03 0.534E+03   0.100E+01 0.712E+00 0.712E+00   0.223E-02 -.353E+00 0.612E+00
   -.391E+02 0.258E+03 0.323E+04   0.382E+02 -.259E+03 -.323E+04   0.112E+01 0.747E+00 0.121E+01   0.994E-02 -.242E+00 -.150E+01
   -.722E+02 0.173E+03 -.456E+04   0.724E+02 -.171E+03 0.456E+04   0.101E+00 -.120E+01 0.550E+00   -.982E-03 -.906E-01 0.374E+00
   0.212E+02 -.663E+03 0.573E+04   -.210E+02 0.665E+03 -.573E+04   0.304E-01 -.227E+01 0.874E+00   -.125E-01 -.777E-01 -.100E+01
   -.394E+02 -.576E+03 -.192E+04   0.390E+02 0.577E+03 0.192E+04   0.516E+00 -.129E+01 0.616E+00   0.131E-02 -.257E+00 0.409E+00
   -.416E+02 -.506E+03 0.176E+04   0.409E+02 0.507E+03 -.176E+04   0.857E+00 -.129E+01 -.121E+00   -.143E-01 0.228E+00 -.518E+00
   0.419E+02 -.499E+03 -.558E+04   -.424E+02 0.500E+03 0.557E+04   -.370E+00 -.263E+01 0.142E+01   0.189E-01 0.907E+00 0.682E+00
   -.775E+02 0.222E+03 0.414E+04   0.760E+02 -.223E+03 -.413E+04   0.161E+01 0.128E+01 -.164E+01   -.225E-01 0.363E-01 -.159E+01
   0.146E+02 0.564E+03 -.324E+04   -.150E+02 -.566E+03 0.324E+04   0.664E-01 0.225E+01 -.325E+00   -.134E-01 -.573E+00 0.425E+00
   -.415E+02 0.249E+03 0.333E+03   0.406E+02 -.250E+03 -.333E+03   0.957E+00 0.662E+00 -.131E+01   0.697E-02 -.235E+00 0.313E+00
   -.882E+01 0.105E+04 -.747E+04   0.874E+01 -.105E+04 0.746E+04   0.131E+00 -.693E+00 0.268E+01   0.722E-03 -.380E-01 0.664E+00
   -.297E+03 0.321E+03 0.708E+04   0.300E+03 -.325E+03 -.708E+04   -.122E+01 0.394E+01 0.794E+01   -.619E-01 0.191E-01 -.486E+00
   -.411E+02 0.310E+03 -.535E+03   0.402E+02 -.310E+03 0.534E+03   0.992E+00 0.706E+00 0.696E+00   -.127E-02 -.335E+00 0.630E+00
   -.436E+02 0.255E+03 0.324E+04   0.427E+02 -.256E+03 -.324E+04   0.955E+00 0.544E+00 0.898E+00   -.134E-01 -.224E+00 -.144E+01
   -.722E+02 0.173E+03 -.456E+04   0.724E+02 -.171E+03 0.456E+04   0.101E+00 -.120E+01 0.548E+00   0.556E-02 -.889E-01 0.367E+00
   -.827E+02 -.693E+03 0.574E+04   0.834E+02 0.697E+03 -.574E+04   -.758E-02 -.369E+01 -.273E+00   -.208E-02 -.150E+00 -.106E+01
   -.394E+02 -.576E+03 -.192E+04   0.390E+02 0.577E+03 0.192E+04   0.513E+00 -.130E+01 0.607E+00   -.169E-01 -.286E+00 0.408E+00
   -.407E+02 -.507E+03 0.176E+04   0.399E+02 0.507E+03 -.176E+04   0.940E+00 -.123E+01 0.179E-01   0.118E-02 0.275E+00 -.528E+00
   0.419E+02 -.499E+03 -.558E+04   -.424E+02 0.500E+03 0.557E+04   -.372E+00 -.263E+01 0.142E+01   0.273E-01 0.906E+00 0.685E+00
   -.102E+03 0.390E+03 0.411E+04   0.100E+03 -.392E+03 -.411E+04   0.136E+01 0.216E+01 -.132E+01   -.273E-01 -.299E-01 -.147E+01
   -.414E+02 0.101E+03 -.352E+04   0.406E+02 -.102E+03 0.352E+04   0.992E+00 0.442E+00 -.126E+01   -.568E-02 0.557E+00 0.444E+00
   -.412E+02 0.265E+03 0.289E+03   0.404E+02 -.265E+03 -.289E+03   0.947E+00 0.435E+00 -.115E+01   0.306E-02 -.369E-02 0.503E+00
   -.257E+02 -.118E+04 -.720E+04   0.240E+02 0.118E+04 0.720E+04   0.919E+00 0.139E+00 0.543E+00   0.356E-01 0.528E+00 0.391E+00
   -.386E+03 0.334E+03 0.710E+04   0.391E+03 -.337E+03 -.711E+04   -.268E+01 0.281E+01 0.781E+01   -.154E+00 -.452E-01 -.436E+00
   -.413E+02 0.213E+03 -.605E+03   0.404E+02 -.214E+03 0.603E+03   0.972E+00 0.498E+00 0.110E+01   -.182E-03 0.304E+00 0.741E+00
   -.387E+02 0.246E+03 0.316E+04   0.378E+02 -.247E+03 -.316E+04   0.104E+01 0.555E+00 0.121E+01   -.138E-01 -.110E+00 -.138E+01
   -.346E+02 -.336E+03 -.541E+04   0.328E+02 0.335E+03 0.540E+04   0.195E+01 0.674E+00 0.229E+01   -.350E-02 -.438E-01 0.567E+00
   -.681E+02 -.630E+03 0.561E+04   0.676E+02 0.634E+03 -.561E+04   0.223E+00 -.401E+01 -.558E-01   -.362E-01 -.695E-01 -.106E+01
   -.411E+02 -.511E+03 -.215E+04   0.405E+02 0.512E+03 0.215E+04   0.796E+00 -.129E+01 -.234E+00   -.747E-02 0.126E+00 0.779E+00
   -.413E+02 -.524E+03 0.176E+04   0.405E+02 0.524E+03 -.176E+04   0.976E+00 -.122E+01 0.213E-01   0.665E-03 0.234E+00 -.425E+00
   -.143E+02 0.638E+03 -.579E+04   0.128E+02 -.639E+03 0.579E+04   0.871E+00 0.630E+00 -.219E+01   0.176E-01 -.669E+00 0.463E+00
   0.290E+02 0.390E+03 0.410E+04   -.301E+02 -.392E+03 -.410E+04   0.952E+00 0.215E+01 -.125E+01   0.241E-01 0.852E-01 -.159E+01
   -.414E+02 0.101E+03 -.352E+04   0.406E+02 -.102E+03 0.352E+04   0.989E+00 0.440E+00 -.126E+01   -.138E-01 0.551E+00 0.457E+00
   -.413E+02 0.265E+03 0.289E+03   0.404E+02 -.265E+03 -.289E+03   0.968E+00 0.450E+00 -.111E+01   0.466E-02 -.398E-01 0.498E+00
   -.257E+02 -.118E+04 -.720E+04   0.240E+02 0.118E+04 0.720E+04   0.918E+00 0.137E+00 0.542E+00   0.279E-01 0.530E+00 0.386E+00
   0.368E+03 0.361E+03 0.708E+04   -.373E+03 -.364E+03 -.708E+04   0.248E+01 0.291E+01 0.787E+01   0.482E-01 0.482E-01 -.434E+00
   -.413E+02 0.214E+03 -.605E+03   0.404E+02 -.214E+03 0.603E+03   0.984E+00 0.507E+00 0.111E+01   -.692E-02 0.301E+00 0.742E+00
   -.411E+02 0.249E+03 0.316E+04   0.401E+02 -.249E+03 -.316E+04   0.119E+01 0.582E+00 0.144E+01   0.153E-01 -.142E+00 -.144E+01
   -.346E+02 -.336E+03 -.541E+04   0.328E+02 0.335E+03 0.540E+04   0.196E+01 0.674E+00 0.229E+01   0.247E-02 -.455E-01 0.569E+00
   0.110E+02 -.600E+03 0.560E+04   -.980E+01 0.603E+03 -.560E+04   -.849E+00 -.354E+01 0.869E+00   0.347E-01 -.864E-01 -.112E+01
   -.412E+02 -.511E+03 -.215E+04   0.406E+02 0.512E+03 0.215E+04   0.802E+00 -.128E+01 -.233E+00   0.375E-02 0.146E+00 0.787E+00
   -.410E+02 -.523E+03 0.176E+04   0.403E+02 0.524E+03 -.176E+04   0.888E+00 -.128E+01 -.102E+00   -.748E-02 0.220E+00 -.403E+00
   -.143E+02 0.638E+03 -.579E+04   0.128E+02 -.639E+03 0.579E+04   0.868E+00 0.629E+00 -.218E+01   -.165E-01 -.667E+00 0.452E+00
   -.315E+01 -.289E+03 0.276E+04   0.269E+01 0.297E+03 -.277E+04   0.412E+00 -.588E+01 0.420E+01   0.685E-02 -.705E-01 -.156E+00
   0.394E+02 -.847E+02 -.117E+03   -.404E+02 0.863E+02 0.115E+03   0.923E+00 -.159E+01 0.223E+01   0.126E-01 -.233E+00 0.199E+00
   0.380E+02 -.716E+02 0.129E+04   -.386E+02 0.728E+02 -.129E+04   0.453E+00 -.147E+01 0.248E+01   0.625E-02 0.762E-01 -.683E+00
   0.389E+02 -.136E+03 -.153E+04   -.394E+02 0.137E+03 0.153E+04   0.513E+00 -.160E+01 0.150E+01   -.253E-02 0.196E+00 0.140E+00
   0.350E+02 -.105E+03 0.147E+04   -.356E+02 0.106E+03 -.146E+04   0.476E+00 -.145E+01 -.211E+01   -.318E-01 -.533E-01 -.651E+00
   0.185E+02 -.183E+03 -.126E+04   -.185E+02 0.186E+03 0.126E+04   -.197E+00 -.272E+01 -.919E+00   0.134E-01 -.158E+00 0.193E+00
   0.113E+01 0.176E+03 0.283E+04   -.117E+01 -.178E+03 -.284E+04   0.220E+00 0.414E+00 0.317E+01   -.388E-01 0.145E-01 0.121E-01
   0.397E+02 -.886E+02 0.391E+02   -.404E+02 0.896E+02 -.372E+02   0.531E+00 -.130E+01 -.263E+01   0.175E-01 0.970E-01 0.263E+00
   -.235E+02 0.382E+02 -.287E+04   0.236E+02 -.384E+02 0.287E+04   0.520E-01 0.185E-02 -.324E+01   -.169E-02 0.271E+00 0.262E+00
   0.253E+02 0.294E+03 0.209E+04   -.262E+02 -.297E+03 -.209E+04   0.902E+00 0.288E+01 -.735E+00   -.202E-01 0.589E-02 -.364E+00
   0.395E+02 0.131E+03 -.757E+03   -.404E+02 -.133E+03 0.757E+03   0.736E+00 0.241E+01 0.179E-01   0.241E-02 0.196E+00 0.173E+00
   0.396E+02 0.164E+03 0.666E+03   -.404E+02 -.166E+03 -.666E+03   0.719E+00 0.273E+01 -.210E-01   0.134E-02 -.902E-01 -.193E+00
[...]
   0.397E+02 0.170E+03 0.649E+03   -.404E+02 -.172E+03 -.649E+03   0.661E+00 0.260E+01 -.705E-01   -.186E-01 -.328E-01 -.192E+00
   -.513E+01 -.468E+03 -.221E+04   0.438E+01 0.468E+03 0.221E+04   0.225E+01 0.422E+00 -.172E+01   -.114E-01 0.134E+00 0.229E+00
   -.524E+01 -.311E+03 0.274E+04   0.482E+01 0.319E+03 -.275E+04   0.481E+00 -.570E+01 0.496E+01   -.868E-01 -.366E-01 -.176E+00
   0.397E+02 -.853E+02 -.156E+03   -.404E+02 0.864E+02 0.154E+03   0.558E+00 -.132E+01 0.257E+01   0.329E-02 0.431E-03 0.392E+00
   0.372E+02 -.963E+02 0.128E+04   -.379E+02 0.975E+02 -.128E+04   0.574E+00 -.155E+01 0.248E+01   0.679E-03 0.717E-01 -.611E+00
   0.447E+01 0.240E+03 -.211E+04   -.554E+01 -.240E+03 0.211E+04   0.237E+01 -.149E+01 -.238E+01   0.212E-02 -.227E+00 0.195E+00
   0.382E+02 -.687E+02 0.144E+04   -.386E+02 0.701E+02 -.143E+04   0.294E+00 -.144E+01 -.170E+01   -.495E-01 -.765E-01 -.643E+00
   0.398E+02 -.138E+03 -.147E+04   -.405E+02 0.139E+03 0.147E+04   0.540E+00 -.159E+01 -.328E+01   0.939E-02 0.147E+00 0.241E+00
   0.181E+02 0.194E+03 0.282E+04   -.183E+02 -.197E+03 -.283E+04   -.253E+00 0.967E+00 0.370E+01   0.557E-01 0.428E-01 0.306E-01
   0.396E+02 -.778E+02 0.365E+02   -.403E+02 0.788E+02 -.345E+02   0.575E+00 -.138E+01 -.269E+01   0.238E-01 0.106E+00 0.339E+00
   0.534E+01 0.219E+03 0.211E+04   -.569E+01 -.222E+03 -.210E+04   0.836E+00 0.271E+01 -.116E+01   0.359E-01 0.212E-01 -.412E+00
   0.385E+02 0.225E+03 -.764E+03   -.396E+02 -.227E+03 0.764E+03   0.931E+00 0.273E+01 -.292E-02   0.199E-01 -.489E-01 0.182E+00
   0.394E+02 0.170E+03 0.649E+03   -.403E+02 -.172E+03 -.649E+03   0.737E+00 0.266E+01 -.802E-01   -.143E-01 -.227E-01 -.193E+00
   -.513E+01 -.468E+03 -.221E+04   0.438E+01 0.468E+03 0.221E+04   0.225E+01 0.420E+00 -.173E+01   -.124E-01 0.136E+00 0.228E+00
   -.651E+02 0.698E+01 -.327E+02   -.512E-12 0.267E-11 -.150E-10   0.653E+02 -.765E+01 0.400E+02   -.200E+00 0.763E+00 -.721E+01

 POSITION                                       TOTAL-FORCE (eV/Angst)
      1.64370      0.18204      4.44331         0.002212      0.162743      0.482928
      1.64370      0.18204     14.02172        -0.328788     -0.443563     -1.353612
      0.59727      2.94708      9.23251         0.081467      0.140117     -0.382849
      0.62792      2.97015     18.61489         0.057402     -0.141315     -0.050910
      1.89206      0.15934      2.03056        -2.172765     -0.234723      1.196112
      1.64370      0.18204     11.49105         0.109206      0.136614      0.206533
      0.59727      2.94708      6.70184         0.156225      0.174346      0.461768
      0.59727      2.94708     16.28025         0.306824      0.645098     -0.808543
      1.64370      2.37366      3.17797         0.193508      0.067921      2.360641
      1.64370      2.37366     12.75638         0.134574     -0.253386     -0.113741
      3.73655      5.13871      7.96718         0.168918     -0.382782     -0.000360
      3.73655      5.13871     17.54559        -0.861943     -0.840599     -2.725353
      4.78298      0.18204      4.44331         0.100840      0.114888      0.055307
      4.78298      0.18204     14.02172        -0.329195     -0.447342     -1.353189
      3.73655      2.94708      9.23251         0.087666      0.141892     -0.394611
      3.76720      2.97015     18.61489         0.057541     -0.141600     -0.050906
      4.78298      0.18204      1.91264         0.942743     -0.352297      2.457605
      4.78298      0.18204     11.49105         0.105989      0.138230      0.204571
      3.73655      2.94708      6.70184         0.103747      0.138623      0.392575
      3.73655      2.94708     16.28025         0.307199      0.645430     -0.808808
      4.78298      2.37366      3.17797         0.600969      0.050457      2.152899
      4.78298      2.37366     12.75638         0.131146     -0.254673     -0.115360
      6.87583      5.13871      7.96718         0.178951     -0.394466     -0.006880
      6.87583      5.13871     17.54559        -0.862013     -0.840419     -2.725625
      2.69013      5.71213      4.44331         0.143588     -0.266908      0.537605
      2.69013      5.71213     14.02172         0.126334      0.077094     -0.431663
      1.64370      8.47718      9.23251         0.100820      0.139772     -0.387713
      1.84293      6.66981     18.74221        -0.719440      0.517556      1.019180
      2.48237      5.84473      2.05095         1.966177     -0.451024      1.016023
      2.69013      5.71213     11.49105         0.062151      0.142633      0.331408
      1.64370      8.47718      6.70184         0.061731      0.111454      0.517804
      1.64370      8.47718     16.28025         0.103488      0.039656     -0.274283
      2.77038      7.96379      3.39324        -0.276013     -0.399406      0.408272
      2.69013      7.90376     12.75638         0.187813     -0.383607     -0.075434
      4.78298     10.66881      7.96718         0.174408     -0.409082     -0.001511
      2.86669      0.52055     16.03734        -0.623771     -0.157877      0.297766
      5.82941      5.71213      4.44331        -0.029919     -0.293234      0.728689
      5.82941      5.71213     14.02172         0.125316      0.080928     -0.433907
      4.78298      8.47718      9.23251         0.093123      0.137085     -0.377866
      4.98221      6.66981     18.74221        -0.719399      0.517160      1.019463
      6.09618      5.80250      2.07698        -2.323052     -0.340628      1.150571
      5.82941      5.71213     11.49105         0.067395      0.145426      0.331963
      4.78298      8.47718      6.70184         0.124829      0.149794      0.592687
      4.78298      8.47718     16.28025         0.102873      0.039702     -0.275085
      5.80566      7.95489      3.38122         0.389176     -0.278957      0.662366
      5.82941      7.90376     12.75638         0.189228     -0.384102     -0.075114
      7.92226     10.66881      7.96718         0.158417     -0.407186      0.006170
      6.00597      0.52055     16.03734        -0.624250     -0.156603      0.298931
      3.25072      1.78021      1.94818        -0.045295      1.861723     -3.196640
      3.28961      1.84282     11.14515        -0.014738     -0.289863      0.402619
      2.24318      4.60787      6.35595        -0.122280     -0.224560      0.358249
      2.24318      4.60787     15.93436         0.038937     -0.348965     -0.044932
      3.28961      1.84282      4.78920        -0.090688     -0.299181      0.128443
      3.28961      1.84282     14.36761        -0.197905      0.479170     -0.613847
      1.13123      5.29535      0.60814         0.145495     -1.732816     -3.817100
      2.24318      4.60787      9.57841        -0.087358     -0.256559     -0.412693
      2.15903      4.48726     18.87120         0.135996      0.082878      3.125532
      1.19676      4.58218      3.17797        -0.002165     -0.408098      1.321814
      1.19676      4.58218     12.75638        -0.156946      0.390519      0.040164
      2.24318      1.81714      7.96718        -0.139559      0.527548     -0.016081
[...]
      2.24318     10.11228     12.75638        -0.098537      0.554989     -0.090317
      3.28961      7.34723      7.96718        -0.123889      0.552931     -0.028865
      3.28961      7.34723     17.54559         1.481685      0.990370     -0.115838
      7.41765      7.48823      2.08608        -0.024630      2.330750     -2.593884
      7.47532      7.37292     11.14515        -0.167253     -0.265849      0.427105
      6.42889     10.13797      6.35595        -0.107380     -0.263091      0.327822
      6.42889     10.13797     15.93436         1.297214     -1.241861      0.322558
      7.47532      7.37292      4.78920        -0.172523     -0.105040      1.180819
      7.47532      7.37292     14.36761        -0.220846     -0.149127     -0.268197
      5.39780     10.64857      0.65084        -0.379999     -2.142997     -4.105619
      6.42889     10.13797      9.57841        -0.119144     -0.216784     -0.388953
      5.38246     10.11228      3.17797         0.516773     -0.022806      1.477236
      5.38246     10.11228     12.75638        -0.099438      0.552026     -0.088663
      6.42889      7.34723      7.96718        -0.161442      0.535647     -0.045627
      6.42889      7.34723     17.54559         1.481535      0.990043     -0.115530
    total drift:                               -0.000862      0.092578      0.091722

  FREE ENERGIE OF THE ION-ELECTRON SYSTEM (eV)
  free  energy   TOTEN  =      -477.81322239 eV

  energy  without entropy=     -476.52977935  energy(sigma->0) =     -477.17150087