 vasp.5.4.4.18Apr17-6-g9f103f2a35 (build Aug 13 2019 17:33:20) gamma-only

 executed on             LinuxIFC date 2020.05.12  03:23:20

 INCAR:
 POTCAR:    PAW_PBE Ni_pv 06Sep2000
 POTCAR:    PAW_PBE S 06Sep2000
 POTCAR:    PAW_PBE Ni_pv 06Sep2000
   VRHFIN =Ni:

   TITEL  = PAW_PBE Ni_pv 06Sep2000
   POMASS =   58.690; ZVAL   =   16.000    mass and valenz
   ENMAX  =  367.986; ENMIN  =  275.989 eV

 POTCAR:    PAW_PBE S 06Sep2000
   VRHFIN =S : s2p4

   TITEL  = PAW_PBE S 06Sep2000
   POMASS =   32.066; ZVAL   =    6.000    mass and valenz
   ENMAX  =  258.689; ENMIN  =  194.016 eV

 Optimization of the real space projectors (new method)

 maximal supplied QI-value         = 18.90
 optimisation between [QCUT,QGAM] = [ 10.77, 21.73] = [ 32.49,132.25] Ry
 Optimized for a Real-space Cutoff    1.38 Angstroem

   l    n(q)    QCUT    max X(q) W(low)/X(q) W(high)/X(q)  e(spline)
   1      8    10.771     2.836    0.40E-04    0.29E-04    0.12E-06
   1      8    10.771     4.023    0.10E-03    0.48E-04    0.29E-06
   2      8    10.771    73.368    0.42E-03    0.97E-04    0.44E-06
   2      8    10.771    69.010    0.42E-03    0.99E-04    0.45E-06
   0      9    10.771    54.797    0.10E-03    0.56E-04    0.74E-07
   0      9    10.771    24.266    0.89E-04    0.49E-04    0.67E-07
 Optimization of the real space projectors (new method)

 maximal supplied QI-value         = 19.84
 optimisation between [QCUT,QGAM] = [ 10.71, 21.63] = [ 32.15,130.99] Ry
 Optimized for a Real-space Cutoff    1.19 Angstroem

   l    n(q)    QCUT    max X(q) W(low)/X(q) W(high)/X(q)  e(spline)
   0      8    10.715   187.594    0.41E-03    0.53E-04    0.66E-07
   0      8    10.715   164.243    0.41E-03    0.53E-04    0.65E-07
   1      7    10.715    67.533    0.19E-03    0.59E-03    0.68E-07
   1      7    10.715    50.729    0.19E-03    0.58E-03    0.67E-07
  PAW_PBE Ni_pv 06Sep2000               :
  PAW_PBE S 06Sep2000                   :

 POSCAR: Type_037 Type_137
  positions in cartesian coordinates
 exchange correlation table for  LEXCH =        8
   RHO(1)=    0.500       N(1)  =     2000
   RHO(2)=  100.500       N(2)  =     4000

 ion  position               nearest neighbor table
   1  0.776  0.147  0.134-  51 2.05  65 2.09  42 2.20  52 2.26  66 2.29   2 2.45
   2  0.810  0.162  0.277-  52 2.05  66 2.07  43 2.09   1 2.45
   3  0.252  0.645  0.074-  44 2.04  53 2.06  63 2.06   4 2.49
   4  0.297  0.645  0.216-  64 2.13  54 2.14  45 2.25  53 2.26  63 2.26   3 2.49  28 2.53  16 2.53

   5  0.414  0.145  0.115-  47 2.06  69 2.09  55 2.10   6 2.39  48 2.54
   6  0.470  0.145  0.247-  56 2.09  70 2.09  48 2.25  55 2.26  69 2.26   5 2.39  31 2.53  19 2.53

   7  0.952  0.645  0.154-  68 2.00  58 2.08  49 2.25  57 2.36  67 2.36  32 2.53  20 2.53
   8  0.977  0.645  0.318-  46 2.05  67 2.05  57 2.06  50 2.10
   9  0.182  0.146  0.049-  47 2.03  59 2.06  73 2.06  10 2.46
  10  0.125  0.145  0.185-  59 2.14  73 2.16  39 2.22  60 2.36  74 2.36  11 2.46   9 2.46  34 2.53
                            22 2.53
  11  0.123  0.145  0.333-  38 2.04  60 2.05  74 2.05  10 2.46
  12  0.642  0.645  0.278-  62 2.02  72 2.02  71 2.20  41 2.25  61 2.29  37 2.53  25 2.53
  13  0.906  0.989  0.115-  65 2.05  58 2.08  66 2.12  39 2.14  14 2.46
  14  0.950  0.019  0.254-  38 2.06  39 2.10  57 2.15  66 2.19  13 2.46  26 2.48
  15  0.399  0.521  0.044-  63 2.01  40 2.03  27 2.39  16 2.50
  16  0.425  0.513  0.192-  40 2.13  64 2.15  55 2.25  63 2.26  41 2.36  17 2.45  15 2.50   4 2.53
                            28 2.53
  17  0.462  0.474  0.332-  56 2.02  41 2.05  64 2.05  16 2.45
  18  0.560  0.031  0.067-  69 1.99  42 2.03  30 2.39
  19  0.597  0.013  0.222-  70 2.06  43 2.16  61 2.20  69 2.26  42 2.26  31 2.53   6 2.53
  20  0.080  0.513  0.130-  68 2.00  44 2.07  59 2.14  67 2.36  45 2.36   7 2.53  32 2.53
  21  0.112  0.507  0.294-  46 2.04  67 2.06  45 2.07  60 2.15
  22  0.252  0.013  0.161-  73 2.12  47 2.13  53 2.25  48 2.36  74 2.36  10 2.53  34 2.53
  23  0.289  0.988  0.312-  48 2.03  74 2.04  54 2.07
  24  0.761  0.447  0.118-  51 1.98  71 2.12  52 2.12  49 2.21  25 2.34
  25  0.770  0.513  0.253-  72 2.03  71 2.12  50 2.12  52 2.20  49 2.26  24 2.34  12 2.53  37 2.53

  26  0.947  0.275  0.234-  38 2.07  39 2.09  52 2.14  67 2.15  14 2.48
  27  0.399  0.770  0.044-  53 2.01  40 2.03  15 2.39  28 2.50
  28  0.425  0.777  0.192-  40 2.13  54 2.15  69 2.25  53 2.26  41 2.36  29 2.44  27 2.50   4 2.53
                            16 2.53
  29  0.462  0.817  0.332-  70 2.02  41 2.05  54 2.05  28 2.44
  30  0.568  0.280  0.071-  55 2.00  42 2.03  18 2.39
  31  0.597  0.277  0.222-  56 2.07  43 2.13  71 2.19  55 2.26  42 2.26  19 2.53   6 2.53
  32  0.080  0.777  0.130-  44 2.06  58 2.07  73 2.14  57 2.36  45 2.36   7 2.53  20 2.53
  33  0.112  0.783  0.295-  46 2.04  57 2.06  45 2.07  74 2.15
  34  0.252  0.277  0.161-  47 2.12  59 2.14  63 2.25  48 2.36  60 2.36  10 2.53  22 2.53
  35  0.289  0.303  0.312-  48 2.03  60 2.04  64 2.07
  36  0.773  0.858  0.121-  65 2.03  66 2.15  61 2.16  49 2.24  37 2.33
  37  0.770  0.777  0.253-  62 2.03  61 2.09  50 2.12  66 2.25  49 2.26  36 2.33  12 2.53  25 2.53

  38  0.003  0.167  0.325-  11 2.04  14 2.06  26 2.07
  39  0.997  0.127  0.156-  26 2.09  14 2.10  13 2.14  10 2.22
  40  0.477  0.645  0.103-  15 2.03  27 2.03  28 2.13  16 2.13
  41  0.509  0.645  0.276-  17 2.05  29 2.05  12 2.25  28 2.36  16 2.36
  42  0.647  0.145  0.122-  18 2.03  30 2.03   1 2.20  19 2.26  31 2.26  43 2.63
  43  0.686  0.147  0.275-   2 2.09  31 2.13  19 2.16  42 2.63
  44  0.134  0.646  0.048-   3 2.04  32 2.06  20 2.07
  45  0.164  0.645  0.214-  21 2.07  33 2.07   4 2.25  32 2.36  20 2.36
  46  0.080  0.645  0.383-  33 2.04  21 2.04   8 2.05
  47  0.300  0.145  0.071-   9 2.03   5 2.06  34 2.12  22 2.13
  48  0.336  0.145  0.245-  35 2.03  23 2.03   6 2.25  34 2.36  22 2.36   5 2.54
  49  0.819  0.645  0.153-  24 2.21  36 2.24   7 2.25  25 2.26  37 2.26  50 2.70
  50  0.853  0.645  0.311-   8 2.10  37 2.12  25 2.12  49 2.70
  51  0.778  0.290  0.043-  24 1.98   1 2.05  65 2.75
  52  0.828  0.329  0.202-   2 2.05  24 2.12  26 2.14  25 2.20   1 2.26
  53  0.312  0.814  0.122-  27 2.01   3 2.06  22 2.25   4 2.26  28 2.26
  54  0.347  0.801  0.293-  29 2.05  23 2.07   4 2.14  28 2.15
  55  0.484  0.314  0.153-  30 2.00   5 2.10  16 2.25   6 2.26  31 2.26
  56  0.523  0.294  0.321-  17 2.02  31 2.07   6 2.09
  57  0.001  0.814  0.246-   8 2.06  33 2.06  14 2.15  32 2.36   7 2.36
  58  0.970  0.815  0.079-  32 2.07   7 2.08  13 2.08
  59  0.140  0.320  0.107-   9 2.06  10 2.14  34 2.14  20 2.14
  60  0.174  0.314  0.276-  35 2.04  11 2.05  21 2.15  10 2.36  34 2.36
  61  0.666  0.826  0.191-  37 2.09  36 2.16  19 2.20  12 2.29  62 2.71
  62  0.696  0.787  0.349-  12 2.02  37 2.03  72 2.65  61 2.71
  63  0.312  0.477  0.122-  15 2.01   3 2.06  34 2.25   4 2.26  16 2.26
  64  0.347  0.490  0.293-  17 2.05  35 2.07   4 2.13  16 2.15
  65  0.808  0.007  0.043-  36 2.03  13 2.05   1 2.09  51 2.75
  66  0.829  0.977  0.215-   2 2.07  13 2.12  36 2.15  14 2.19  37 2.25   1 2.29
  67  0.001  0.477  0.246-   8 2.05  21 2.06  26 2.15  20 2.36   7 2.36
  68  0.979  0.508  0.068-   7 2.00  20 2.00
  69  0.484  0.977  0.153-  18 1.99   5 2.09  28 2.25   6 2.26  19 2.26
  70  0.524  0.997  0.321-  29 2.02  19 2.06   6 2.09
  71  0.661  0.470  0.194-  24 2.12  25 2.12  31 2.19  12 2.20  72 2.72
  72  0.699  0.510  0.351-  12 2.02  25 2.03  62 2.65  71 2.72
  73  0.142  0.969  0.107-   9 2.06  22 2.12  32 2.14  10 2.16
  74  0.174  0.977  0.276-  23 2.04  11 2.05  33 2.15  10 2.36  22 2.36

  LATTYP: Found a simple orthorhombic cell.
 ALAT       =     9.5784100000
 B/A-ratio  =     1.7387693453
 C/A-ratio  =     1.7627867312

  Lattice vectors:

 A1 = (   0.0000000000,   9.5784100000,   0.0000000000)
 A2 = (   0.0000000000,   0.0000000000, -16.6546456851)
 A3 = ( -16.8846940542,   0.0000000000,   0.0000000000)

Analysis of symmetry for initial positions (statically):
 Subroutine PRICEL returns:
 Original cell was already a primitive cell.

 Routine SETGRP: Setting up the symmetry group for a
 simple orthorhombic supercell.

 Subroutine GETGRP returns: Found  1 space group operations
 (whereof  1 operations were pure point group operations)
 out of a pool of  8 trial point group operations.

The static configuration has the point symmetry C_1 .

Analysis of symmetry for dynamics (positions and initial velocities):
 Subroutine PRICEL returns:
 Original cell was already a primitive cell.

 Routine SETGRP: Setting up the symmetry group for a
 simple orthorhombic supercell.

 Subroutine GETGRP returns: Found  1 space group operations
 (whereof  1 operations were pure point group operations)
 out of a pool of  8 trial point group operations.

The dynamic configuration has the point symmetry C_1 .

 Subroutine INISYM returns: Found  1 space group operations
 (whereof  1 operations are pure point group operations),
 and found     1 'primitive' translations

 KPOINTS: gamma-point-only calculation. no periodi

Automatic generation of k-mesh.
Space group operators:
 irot       det(A)        alpha          n_x          n_y          n_z        tau_x        tau_y        tau_z
    1     1.000000     0.000000     1.000000     0.000000     0.000000     0.000000     0.000000     0.000000

 Subroutine IBZKPT returns following result:

 Found      1 irreducible k-points:

 Following reciprocal coordinates:
            Coordinates               Weight
  0.000000  0.000000  0.000000      1.000000

 Following cartesian coordinates:
            Coordinates               Weight
  0.000000  0.000000  0.000000      1.000000

 SYSTEM =  "Millerite NiS"
 POSCAR =  Type_037 Type_137

 Startparameter for this run:
   NWRITE =      2    write-flag & timer
   PREC   = normal    normal or accurate (medium, high low for compatibility)
   ISTART =      0    job   : 0-new  1-cont  2-samecut
   ICHARG =      2    charge: 1-file 2-atom 10-const
   ISPIN  =      1    spin polarized calculation?
   LNONCOLLINEAR =      F non collinear calculations
   LSORBIT =      F    spin-orbit coupling
   INIWAV =      1    electr: 0-lowe 1-rand  2-diag
   LASPH  =      F    aspherical Exc in radial PAW
   METAGGA=      F    non-selfconsistent MetaGGA calc.

 Electronic Relaxation 1
   ENCUT  =  450.0 eV  33.07 Ry    5.75 a.u.  29.20 16.57 28.81*2*pi/ulx,y,z
   ENINI  =  450.0     initial cutoff
   ENAUG  =  703.4 eV  augmentation charge cutoff
   NELM   =    100;   NELMIN=  2; NELMDL= -5     # of ELM steps
   EDIFF  = 0.1E-03   stopping-criterion for ELM
   LREAL  =      T    real-space projection
   NLSPLINE    = F    spline interpolate recip. space projectors
   LCOMPAT=      F    compatible to vasp.4.4
   GGA_COMPAT  = T    GGA compatible to vasp.4.4-vasp.4.6
   LMAXPAW     = -100 max onsite density
   LMAXMIX     =    2 max onsite mixed and CHGCAR
   VOSKOWN=      0    Vosko Wilk Nusair interpolation
   ROPT   =   -0.00050  -0.00050
 Ionic relaxation
   EDIFFG = 0.1E-02   stopping-criterion for IOM
   NSW    =      0    number of steps for IOM
   NBLOCK =      1;   KBLOCK =      1    inner block; outer block
   IBRION =     -1    ionic relax: 0-MD 1-quasi-New 2-CG
[...]
     0.000000000  9.578410000  0.000000000     0.000000000  0.104401461  0.000000000
     0.000000000  0.000000000 16.654645685     0.000000000  0.000000000  0.060043307

  length of vectors
    16.884694054  9.578410000 16.654645685     0.059225237  0.104401461  0.060043307

 FORCES acting on ions
    electron-ion (+dipol)            ewald-force                    non-local-force                 convergence-correction
   0.868E+02 -.215E+03 0.181E+04   -.877E+02 0.215E+03 -.182E+04   0.144E+01 -.112E+01 0.387E+01   -.555E-01 0.422E-01 0.571E-01
   0.214E+03 -.101E+03 -.283E+04   -.215E+03 0.102E+03 0.283E+04   0.140E+01 -.119E+01 0.735E+00   0.920E-02 0.137E-01 0.973E-02
   0.526E+03 0.127E+02 0.326E+04   -.532E+03 -.125E+02 -.327E+04   0.595E+01 -.181E+00 0.365E+01   0.294E-01 -.690E-02 0.309E-01
   0.504E+03 0.457E+01 -.109E+04   -.507E+03 -.450E+01 0.109E+04   0.218E+01 -.126E-02 -.321E+01   0.800E-01 -.297E-01 0.864E-01
   0.278E+02 -.962E+01 0.251E+04   -.293E+02 0.950E+01 -.251E+04   0.124E+01 0.146E+00 0.406E+01   0.368E+00 0.743E-03 0.392E-01
   0.441E+02 0.588E+01 -.184E+04   -.472E+02 -.605E+01 0.185E+04   0.253E+01 0.608E-01 -.573E+01   0.155E+00 0.885E-01 -.440E-03
   0.840E+03 0.224E+03 0.133E+04   -.844E+03 -.224E+03 -.134E+04   0.428E+01 0.144E+01 0.456E+01   -.116E+00 -.105E-01 0.433E-01
   0.810E+03 0.598E+02 -.319E+04   -.815E+03 -.597E+02 0.319E+04   0.358E+01 -.429E-01 -.417E+01   -.111E+00 -.474E-02 0.288E-01
   0.572E+03 -.315E+02 0.418E+04   -.574E+03 0.315E+02 -.419E+04   0.193E+01 -.612E-01 0.413E+01   -.307E-01 0.109E-01 0.761E-01
   0.924E+03 -.607E+02 0.351E+03   -.928E+03 0.607E+02 -.351E+03   0.300E+01 -.397E+00 0.255E+00   -.266E+00 0.904E-02 0.437E+00
   0.361E+03 -.500E+01 -.367E+04   -.364E+03 0.515E+01 0.367E+04   0.309E+01 -.150E+00 0.316E+01   -.115E+00 -.389E-02 0.970E-01
   0.373E+03 -.181E+02 -.177E+04   -.381E+03 0.186E+02 0.177E+04   0.605E+01 -.115E+00 -.174E+01   0.918E-01 -.438E-01 0.131E-01
   -.248E+03 -.117E+03 0.261E+04   0.253E+03 0.115E+03 -.262E+04   -.428E+01 0.225E+01 0.610E+01   -.106E+00 0.208E-01 0.103E+00
   0.187E+03 0.278E+03 -.193E+04   -.185E+03 -.281E+03 0.193E+04   -.317E+01 0.191E+01 -.276E+01   -.131E+00 0.540E-01 0.624E-01
   -.499E+03 0.582E+03 0.388E+04   0.497E+03 -.576E+03 -.388E+04   0.127E+01 -.686E+01 -.795E+00   0.165E+00 0.768E-02 0.463E-02
   -.678E+03 0.341E+03 0.110E+03   0.679E+03 -.344E+03 -.110E+03   -.104E+01 0.250E+01 0.374E-01   0.141E+00 -.192E-01 0.115E+00
   -.387E+03 0.830E+02 -.359E+04   0.389E+03 -.852E+02 0.359E+04   -.268E+01 0.254E+01 0.278E+01   0.913E-01 -.428E-01 0.627E-01
   -.480E+03 0.759E+03 0.352E+04   0.479E+03 -.754E+03 -.352E+04   0.109E+01 -.529E+01 -.646E+00   0.114E+00 0.366E-01 -.315E-01
   -.626E+03 0.600E+03 -.922E+03   0.629E+03 -.605E+03 0.925E+03   -.200E+01 0.490E+01 -.404E+01   0.821E-01 0.505E-01 -.117E+00
   0.274E+03 0.595E+03 0.200E+04   -.273E+03 -.599E+03 -.200E+04   0.802E+00 0.343E+01 0.441E+01   -.167E+00 0.960E-01 0.764E-01
   -.112E+03 0.436E+03 -.262E+04   0.116E+03 -.441E+03 0.263E+04   -.280E+01 0.425E+01 -.319E+01   -.868E-01 0.127E-01 0.743E-01
   -.149E+03 0.580E+03 0.977E+03   0.150E+03 -.583E+03 -.977E+03   -.725E+00 0.303E+01 0.179E+01   0.152E+00 -.168E+00 0.352E+00
   -.145E+03 0.204E+03 -.333E+04   0.146E+03 -.208E+03 0.333E+04   -.597E+00 0.305E+01 0.224E+01   0.219E-01 -.228E-01 0.132E+00
   0.405E+02 -.365E+03 0.263E+04   -.417E+02 0.366E+03 -.264E+04   0.140E+01 0.305E+00 0.876E+01   -.439E-01 -.227E-01 0.426E-01
   -.254E+03 0.363E+03 -.163E+04   0.258E+03 -.366E+03 0.164E+04   -.249E+01 0.295E+01 -.545E+01   -.302E-01 -.803E-05 0.108E-01
   0.220E+03 -.506E+03 -.802E+03   -.218E+03 0.509E+03 0.801E+03   -.154E+01 -.245E+01 0.110E+01   -.142E+00 -.520E-01 0.740E-01
   -.514E+03 -.584E+03 0.387E+04   0.512E+03 0.578E+03 -.387E+04   0.128E+01 0.681E+01 -.790E+00   0.176E+00 0.723E-02 -.302E-01
   -.695E+03 -.348E+03 0.115E+03   0.696E+03 0.351E+03 -.115E+03   -.106E+01 -.255E+01 0.287E-01   0.114E+00 -.437E-01 -.175E-02
   -.392E+03 -.858E+02 -.358E+04   0.395E+03 0.881E+02 0.358E+04   -.291E+01 -.265E+01 0.267E+01   0.486E-01 -.643E-01 0.404E-01
   -.477E+03 -.791E+03 0.345E+04   0.475E+03 0.787E+03 -.345E+04   0.145E+01 0.554E+01 -.102E+01   0.110E+00 -.893E-01 0.101E-01
   -.622E+03 -.558E+03 -.980E+03   0.625E+03 0.563E+03 0.983E+03   -.222E+01 -.457E+01 -.438E+01   0.533E-01 0.280E-01 -.388E-01
   0.149E+03 -.433E+03 0.200E+04   -.149E+03 0.437E+03 -.201E+04   0.190E+00 -.270E+01 0.514E+01   -.173E+00 -.111E+00 0.719E-01
   -.153E+03 -.395E+03 -.266E+04   0.156E+03 0.401E+03 0.267E+04   -.258E+01 -.425E+01 -.303E+01   -.852E-01 -.182E-01 0.829E-01
   -.126E+03 -.597E+03 0.982E+03   0.127E+03 0.601E+03 -.983E+03   -.579E+00 -.301E+01 0.186E+01   0.154E+00 0.193E+00 0.345E+00
   -.138E+03 -.208E+03 -.333E+04   0.138E+03 0.211E+03 0.332E+04   -.563E+00 -.290E+01 0.226E+01   0.726E-01 0.520E-01 0.113E+00
   0.447E+03 0.508E+03 0.252E+04   -.450E+03 -.510E+03 -.253E+04   0.275E+01 0.152E+01 0.763E+01   -.405E-01 0.459E-02 0.612E-01
   -.153E+03 -.287E+03 -.169E+04   0.157E+03 0.289E+03 0.170E+04   -.251E+01 -.226E+01 -.540E+01   -.101E-01 -.300E-01 0.472E-01
   0.196E+03 -.819E+02 -.140E+04   -.196E+03 0.826E+02 0.141E+04   -.495E+00 -.551E+00 -.233E+01   -.669E-01 -.548E-02 0.133E-01
   0.344E+01 -.147E+03 0.759E+03   -.349E+01 0.149E+03 -.763E+03   0.709E+00 -.153E+01 0.270E+01   -.950E-01 -.181E-02 0.794E-01
   -.776E+03 -.764E+01 0.922E+03   0.783E+03 0.764E+01 -.924E+03   -.339E+01 0.911E-02 0.178E+00   0.599E-01 -.165E-02 0.132E-01
   -.368E+03 -.330E+01 -.663E+03   0.370E+03 0.330E+01 0.665E+03   -.295E+00 0.106E+00 -.141E+01   0.304E-01 -.662E-01 0.936E-02
   -.331E+03 0.329E+02 0.786E+03   0.332E+03 -.336E+02 -.789E+03   -.522E+00 0.507E+00 0.165E+01   -.266E-01 0.622E-04 -.269E-01
   -.113E+03 0.121E+02 -.105E+04   0.113E+03 -.121E+02 0.105E+04   -.802E-01 0.988E-02 -.291E+01   0.251E-01 0.189E-01 -.794E-02
   0.138E+03 0.135E+02 0.158E+04   -.137E+03 -.128E+02 -.159E+04   0.107E+00 -.625E+00 0.320E+01   -.410E-01 -.387E-02 -.232E-02
   -.128E+03 0.904E+01 -.142E+03   0.129E+03 -.910E+01 0.142E+03   0.409E+00 0.101E-01 -.161E+01   -.179E-01 -.645E-02 0.284E-01
   -.265E+02 0.766E+01 -.176E+04   0.273E+02 -.762E+01 0.177E+04   0.112E+00 0.348E-02 -.696E+00   -.216E-01 -.287E-02 0.442E-01
   -.197E+03 -.300E+01 0.146E+04   0.199E+03 0.304E+01 -.146E+04   -.641E+00 -.214E-01 0.190E+01   0.232E+00 0.754E-02 0.287E-01
   -.195E+03 -.914E+00 -.528E+03   0.195E+03 0.857E+00 0.532E+03   0.108E+01 0.486E-01 -.352E+01   0.478E-01 0.526E-02 0.556E-01
   -.118E+02 0.564E+02 0.710E+03   0.134E+02 -.565E+02 -.713E+03   -.130E+01 0.299E+00 0.157E+01   -.214E-01 -.166E-01 0.280E-01
   -.113E+02 0.196E+02 -.121E+04   0.125E+02 -.195E+02 0.121E+04   -.398E+00 -.119E+00 -.163E+01   -.330E-01 0.922E-03 -.453E-03
   -.110E+03 -.897E+02 0.154E+04   0.110E+03 0.909E+02 -.155E+04   -.821E+00 -.378E+00 0.183E+01   -.328E-01 0.322E-02 0.907E-02
   -.109E+03 -.141E+03 -.104E+02   0.113E+03 0.141E+03 0.122E+02   -.251E+01 0.288E+00 -.131E+01   -.213E-01 -.103E-01 0.209E-01
   0.133E+03 -.255E+03 0.708E+03   -.134E+03 0.257E+03 -.711E+03   0.957E-01 -.869E-01 0.268E+01   0.487E-01 -.405E-01 0.311E-01
   0.141E+03 0.394E+02 -.113E+04   -.142E+03 -.388E+02 0.114E+04   -.102E+00 -.396E-01 -.199E+01   -.528E-02 -.192E-01 0.247E-01
   -.588E+02 -.259E+03 0.443E+03   0.569E+02 0.261E+03 -.445E+03   0.602E+00 0.522E-01 0.177E+01   0.836E-01 -.577E-03 0.992E-02
   -.223E+03 0.230E+02 -.141E+04   0.224E+03 -.221E+02 0.141E+04   -.327E+00 -.957E+00 -.191E+01   0.176E-01 0.431E-01 0.141E-01
   0.229E+03 -.176E+03 -.468E+03   -.230E+03 0.179E+03 0.468E+03   0.342E+00 -.908E+00 -.914E+00   -.567E-01 0.104E-01 0.210E-01
   0.153E+03 -.438E+02 0.138E+04   -.154E+03 0.435E+02 -.139E+04   0.278E+00 0.588E+00 0.384E+01   -.538E-01 -.151E-01 0.174E-01
   0.321E+03 -.211E+03 0.103E+04   -.322E+03 0.211E+03 -.103E+04   0.377E-01 0.675E+00 0.939E+00   -.102E+00 0.164E+00 0.131E+00
   0.130E+03 -.186E+03 -.805E+03   -.130E+03 0.188E+03 0.806E+03   -.252E-01 -.104E+01 -.649E+00   -.248E-01 0.110E-01 0.480E-01
   0.196E+03 0.999E+02 0.286E+03   -.199E+03 -.100E+03 -.289E+03   0.139E+01 0.315E+00 0.228E+01   0.130E-01 -.447E-02 0.717E-02
   -.225E+01 -.243E+03 -.152E+04   0.114E+01 0.247E+03 0.153E+04   0.630E+00 -.288E+01 -.892E+00   0.253E-01 -.107E-01 -.238E-03
   0.138E+03 0.258E+03 0.709E+03   -.140E+03 -.260E+03 -.711E+03   0.285E+00 -.371E-01 0.277E+01   0.457E-01 0.306E-01 0.452E-01
   0.143E+03 -.385E+02 -.113E+04   -.144E+03 0.380E+02 0.114E+04   -.570E-01 -.235E-01 -.195E+01   0.641E-01 0.925E-02 0.391E-01
   0.564E+02 0.772E+00 0.166E+04   -.562E+02 -.162E+01 -.166E+04   -.551E+00 0.564E+00 0.243E+01   -.294E-01 0.164E-01 -.432E-02
   0.848E+02 0.106E+03 -.401E+03   -.845E+02 -.107E+03 0.405E+03   -.237E+00 -.248E+00 -.201E+01   -.405E-02 0.195E-01 0.341E-01
   0.274E+03 0.238E+03 -.423E+03   -.275E+03 -.241E+03 0.423E+03   -.393E+00 0.150E+00 -.164E+01   -.514E-01 -.680E-02 0.189E-01
   0.324E+03 0.272E+03 0.144E+04   -.326E+03 -.274E+03 -.144E+04   0.706E+00 0.598E+00 0.913E+00   -.515E-01 0.150E-01 0.163E-01
   -.838E+02 0.284E+03 0.439E+03   0.821E+02 -.285E+03 -.441E+03   0.379E+00 -.417E+00 0.189E+01   0.920E-01 0.167E-01 -.423E-01
   -.225E+03 -.208E+02 -.140E+04   0.226E+03 0.198E+02 0.141E+04   -.569E+00 0.882E+00 -.181E+01   0.416E-01 0.340E-01 0.119E-01
   0.168E+03 -.958E+02 0.227E+03   -.171E+03 0.959E+02 -.230E+03   0.119E+01 -.240E+00 0.189E+01   0.150E-01 -.141E-01 0.716E-02
   -.129E+02 0.233E+03 -.154E+04   0.119E+02 -.237E+03 0.154E+04   0.519E+00 0.296E+01 -.124E+01   0.744E-02 -.147E-02 -.171E-02
   0.274E+03 0.199E+03 0.104E+04   -.274E+03 -.200E+03 -.104E+04   -.391E+00 -.690E-01 0.136E+01   -.108E+00 -.162E+00 0.124E+00
   0.119E+03 0.180E+03 -.812E+03   -.120E+03 -.182E+03 0.814E+03   0.298E+00 0.809E+00 -.925E+00   -.177E-01 -.686E-02 0.602E-01
   -.980E+01 -.263E+01 -.327E+02   0.151E-11 0.108E-11 -.364E-11   0.923E+01 0.263E+01 0.293E+02   0.490E+00 -.461E-01 0.349E+01

 POSITION                                       TOTAL-FORCE (eV/Angst)
     13.11036      1.41053      2.23051         0.513518     -0.750380      0.974845
     13.66921      1.54846      4.60749        -0.209538     -0.155869      0.874960
      4.25287      6.18094      1.23129         0.500295      0.011117     -1.160773
      5.02033      6.18092      3.59863        -0.508948      0.034793     -0.250008
      6.99536      1.39032      1.91102         0.142073      0.025606     -1.031196
      7.93172      1.39171      4.11272        -0.487268     -0.017852     -0.939641
     16.08224      6.18092      2.57045        -0.466028      0.508571      2.642013
     16.49612      6.17765      5.29475        -1.625679      0.081361      0.397299
      3.07365      1.39394      0.82100        -0.616187      0.003506     -2.084106
      2.10894      1.39171      3.08454        -0.577966     -0.364559      0.617813
      2.08246      1.39231      5.54100         0.043415     -0.005021      1.173304
     10.84312      6.18092      4.62682        -1.836915      0.260304     -2.639066
     15.29601      9.47724      1.90886         0.617056      0.272894     -0.157490
     16.04551      0.17744      4.23315        -0.973826     -0.688448      0.457919
      6.73959      4.98884      0.73348        -0.006481     -0.592527     -1.229404
      7.17375      4.91558      3.19116         0.020931     -0.659675     -0.307114
      7.79962      4.53596      5.52467        -0.100416      0.352309      1.177576
      9.46255      0.29723      1.12261         0.074145     -0.420835     -1.253222
     10.08514      0.12638      3.70525         0.880901     -0.285986     -1.400712
      1.35096      4.91558      2.16298         1.162338     -0.097747      2.140683
      1.89212      4.85977      4.90110         1.107985     -1.389976      0.558824
      4.26235      0.12638      2.67707         0.888260     -0.928566      1.296460
      4.88605      9.46213      5.19195         0.089365     -0.279231      0.942905
     12.85299      4.28136      1.97145         0.124881      1.190880     -0.285184
     12.99653      4.91558      4.21934         1.332997      0.050218     -0.419343
     15.99606      2.62940      3.89209        -0.522675      0.984752      0.443938
      6.74035      7.37821      0.73321        -0.004085      0.601691     -1.240124
      7.17375      7.44626      3.19116         0.052588      0.652460     -0.305601
      7.80386      7.83020      5.52111        -0.144489     -0.363870      1.201874
      9.59779      2.68489      1.17653         0.119988      0.626895     -1.196287
     10.08514      2.65705      3.70525         0.678377      0.356046     -1.378110
      1.35096      7.44626      2.16298         0.451676      0.385144      1.837841
      1.89503      7.49912      4.90830         0.958398      1.355252      0.558469
      4.26235      2.65705      2.67707         0.727979      1.024438      1.205405
      4.88572      2.89883      5.19241         0.013246      0.260171      0.890814
     13.04599      8.21860      2.01914        -0.256759     -0.918275     -0.009396
     12.99653      7.44626      4.21934         1.496212      0.093676     -0.432468
      0.05870      1.60211      5.42071        -0.187323      0.135849      2.450724
     16.83283      1.21632      2.59190         0.568410      0.799879     -1.793902
      8.05367      6.18281      1.71780         3.377574      0.004638     -1.439643
      8.59001      6.18092      4.59828         1.643124      0.045165      0.451426
     10.91773      1.39171      2.02783         0.903327     -0.221994     -1.064551
     11.58153      1.41150      4.57493         0.515687      0.063463      2.575026
      2.25531      6.19005      0.79848         0.367863     -0.002611     -3.349492
      2.76722      6.18092      3.57010         1.776805     -0.056742     -1.269647
      1.35581      6.17637      6.37091         0.959308      0.047219      4.236297
      5.07351      1.39354      1.17513         1.483279      0.030202     -2.675656
      5.67861      1.39171      4.08419         1.337748     -0.002480     -0.246492
     13.82913      6.18092      2.54192         0.310810      0.196409     -2.072864
     14.40161      6.18104      5.18162         0.771185      0.017380      2.629569
     13.14112      2.77876      0.71008        -0.222773      0.851154     -3.503510
     13.98873      3.15297      3.36633         1.130935      0.266211      0.554452
      5.26426      7.79215      2.03261        -1.195244      1.934020      0.056690
      5.86275      7.66903      4.87766        -1.013544      0.622003      1.792403
      8.17565      3.00295      2.54670        -1.238405      1.764512      0.076827
      8.83681      2.81604      5.34866         0.372352      0.044006      2.886845
      0.02514      7.79215      4.08897        -1.139899      1.819294     -0.893813
     16.37742      7.80696      1.31445        -0.371525      0.347047     -3.008562
      2.36461      3.06815      1.78493        -0.888137      0.891751     -1.402616
      2.93654      3.00295      4.60306        -0.326626      1.074382      0.337948
     11.24547      7.91359      3.18107        -1.941948     -0.235975     -1.010924
     11.75030      7.53912      5.81457        -0.452393      0.938252      3.735749
      5.26426      4.56969      2.03261        -1.210237     -2.011574      0.087562
      5.86046      4.69258      4.87686        -0.997208     -0.586254      1.851663
     13.64236      0.07009      0.71453        -0.366697     -0.267244     -3.786319
     13.99844      9.35889      3.57488         0.134459     -0.795176      1.989384
      0.02514      4.56969      4.08897        -1.573327     -2.095434     -1.874498
     16.52169      4.86718      1.12428        -1.627205     -1.918499     -3.317823
      8.17565      9.35889      2.54670        -1.250833     -1.876668      0.386972
      8.84390      9.54850      5.34708         0.271345     -0.083271      2.932884
     11.16767      4.50237      3.23472        -1.844439     -0.099185     -0.774156
     11.79555      4.88554      5.85077        -0.493101     -0.906178      3.806580
      2.39000      9.28091      1.77373        -0.827512     -0.871472     -1.450318
      2.93654      9.35889      4.60306        -0.415199     -1.075347      0.422086
    total drift:                               -0.079612     -0.044380      0.065507

  FREE ENERGIE OF THE ION-ELECTRON SYSTEM (eV)
  free  energy   TOTEN  =      -349.41689291 eV

  energy  without entropy=     -348.15315441  energy(sigma->0) =     -348.78502366