 vasp.5.4.4.18Apr17-6-g9f103f2a35 (build Aug 13 2019 17:33:20) gamma-only

 executed on             LinuxIFC date 2020.05.12  11:19:21

 INCAR:
 POTCAR:    PAW_PBE Ni_pv 06Sep2000
 POTCAR:    PAW_PBE S 06Sep2000
 POTCAR:    PAW_PBE Ni_pv 06Sep2000
   VRHFIN =Ni:

   TITEL  = PAW_PBE Ni_pv 06Sep2000
   POMASS =   58.690; ZVAL   =   16.000    mass and valenz
   ENMAX  =  367.986; ENMIN  =  275.989 eV

 POTCAR:    PAW_PBE S 06Sep2000
   VRHFIN =S : s2p4

   TITEL  = PAW_PBE S 06Sep2000
   POMASS =   32.066; ZVAL   =    6.000    mass and valenz
   ENMAX  =  258.689; ENMIN  =  194.016 eV

 Optimization of the real space projectors (new method)

 maximal supplied QI-value         = 18.90
 optimisation between [QCUT,QGAM] = [ 10.77, 21.73] = [ 32.49,132.25] Ry
 Optimized for a Real-space Cutoff    1.38 Angstroem

   l    n(q)    QCUT    max X(q) W(low)/X(q) W(high)/X(q)  e(spline)
   1      8    10.771     2.836    0.40E-04    0.29E-04    0.12E-06
   1      8    10.771     4.023    0.10E-03    0.48E-04    0.29E-06
   2      8    10.771    73.368    0.42E-03    0.97E-04    0.44E-06
   2      8    10.771    69.010    0.42E-03    0.99E-04    0.45E-06
   0      9    10.771    54.797    0.10E-03    0.56E-04    0.74E-07
   0      9    10.771    24.266    0.89E-04    0.49E-04    0.67E-07
 Optimization of the real space projectors (new method)

 maximal supplied QI-value         = 19.84
 optimisation between [QCUT,QGAM] = [ 10.71, 21.63] = [ 32.15,130.99] Ry
 Optimized for a Real-space Cutoff    1.19 Angstroem

   l    n(q)    QCUT    max X(q) W(low)/X(q) W(high)/X(q)  e(spline)
   0      8    10.715   187.594    0.41E-03    0.53E-04    0.66E-07
   0      8    10.715   164.243    0.41E-03    0.53E-04    0.65E-07
   1      7    10.715    67.533    0.19E-03    0.59E-03    0.68E-07
   1      7    10.715    50.729    0.19E-03    0.58E-03    0.67E-07
  PAW_PBE Ni_pv 06Sep2000               :
  PAW_PBE S 06Sep2000                   :

 POSCAR: Type_048 Type_148
  positions in cartesian coordinates
 exchange correlation table for  LEXCH =        8
   RHO(1)=    0.500       N(1)  =     2000
   RHO(2)=  100.500       N(2)  =     4000

 ion  position               nearest neighbor table
   1  0.256  0.016  0.152-  73 2.25  64 2.26  80 2.26  52 2.36  93 2.36
   2  0.256  0.016  0.481-  74 2.25  65 2.26  81 2.26  53 2.36  94 2.36  10 2.53   6 2.53
   3  0.006  0.266  0.317-  61 2.25  66 2.26  70 2.26  55 2.36  59 2.36   7 2.53  23 2.53
   4  0.015  0.262  0.638-  56 2.11  67 2.14  71 2.15  60 2.20   8 2.33  24 2.48
   5  0.316  0.878  0.063-  77 2.01  90 2.02  93 2.09  80 2.10
   6  0.256  0.016  0.394-  78 2.25  61 2.26  81 2.26  49 2.36  94 2.36   2 2.53  10 2.53
   7  0.006  0.266  0.230-  64 2.25  70 2.26  62 2.26  59 2.36  50 2.36   9 2.38   3 2.53  23 2.53

   8  0.006  0.266  0.558-  65 2.25  71 2.26  63 2.26   4 2.33  60 2.36  51 2.36  24 2.53
   9  0.191  0.298  0.161-  52 2.06  57 2.09  50 2.16  64 2.22   7 2.38
  10  0.190  0.215  0.438-  58 2.25  65 2.26  61 2.26  53 2.36  49 2.36   2 2.53   6 2.53
  11  0.440  0.465  0.273-  82 2.25  50 2.26  55 2.26  62 2.36  66 2.36  19 2.53  15 2.53
  12  0.440  0.465  0.602-  56 2.11  67 2.14  83 2.25  51 2.26  63 2.36  16 2.48  20 2.53
  13  0.756  0.016  0.152-  86 2.25  52 2.26  93 2.26  64 2.36  80 2.36
  14  0.756  0.016  0.481-  87 2.25  53 2.26  94 2.26  65 2.36  81 2.36  22 2.53  18 2.53
  15  0.506  0.266  0.317-  49 2.25  55 2.26  59 2.26  66 2.36  70 2.36  19 2.53  11 2.53
  16  0.515  0.262  0.638-  67 2.11  56 2.14  60 2.15  71 2.20  20 2.33  12 2.48
  17  0.821  0.873  0.063-  77 2.04  90 2.04  80 2.10  84 2.14  93 2.14
  18  0.756  0.016  0.394-  91 2.25  49 2.26  94 2.26  61 2.36  81 2.36  14 2.53  22 2.53
  19  0.506  0.266  0.230-  52 2.25  59 2.26  50 2.26  70 2.36  62 2.36  21 2.39  15 2.53  11 2.53

  20  0.506  0.266  0.558-  53 2.25  60 2.26  51 2.26  16 2.33  71 2.36  63 2.36  12 2.53
  21  0.689  0.298  0.160-  68 2.07  64 2.08  62 2.18  52 2.21  19 2.39
  22  0.690  0.215  0.438-  69 2.25  53 2.26  49 2.26  65 2.36  61 2.36  14 2.53  18 2.53
  23  0.940  0.465  0.273-  95 2.25  62 2.26  66 2.26  50 2.36  55 2.36   7 2.53   3 2.53
  24  0.940  0.465  0.602-  67 2.11  56 2.14  96 2.25  63 2.26  51 2.36   4 2.48   8 2.53
  25  0.256  0.516  0.152-  50 2.25  88 2.26  57 2.26  75 2.36  68 2.36  29 2.51
  26  0.256  0.516  0.481-  51 2.25  89 2.26  58 2.26  76 2.36  69 2.36  34 2.53  30 2.53
  27  0.006  0.766  0.317-  85 2.25  91 2.26  95 2.26  78 2.36  82 2.36  31 2.53  47 2.53
  28  0.015  0.762  0.638-  79 2.11  92 2.14  96 2.15  83 2.20  32 2.33  48 2.48
  29  0.180  0.532  0.068-  54 2.02  57 2.06  84 2.12  41 2.49  25 2.51  33 2.52
  30  0.256  0.516  0.394-  55 2.25  85 2.26  58 2.26  72 2.36  69 2.36  26 2.53  34 2.53
  31  0.006  0.766  0.230-  88 2.25  95 2.26  86 2.26  82 2.36  73 2.36  27 2.53  47 2.53
  32  0.006  0.766  0.558-  89 2.25  96 2.26  87 2.26  28 2.33  83 2.36  74 2.36  48 2.53
  33  0.153  0.726  0.113-  88 2.08  80 2.10  84 2.16  75 2.48  29 2.52
  34  0.190  0.715  0.438-  81 2.25  89 2.26  85 2.26  76 2.36  72 2.36  26 2.53  30 2.53
  35  0.440  0.965  0.273-  59 2.25  73 2.26  78 2.26  86 2.36  91 2.36  43 2.53  39 2.53
  36  0.440  0.965  0.602-  79 2.11  92 2.14  60 2.25  74 2.26  87 2.36  40 2.48  44 2.53
  37  0.756  0.516  0.152-  62 2.25  75 2.26  68 2.26  88 2.36  57 2.36  41 2.37  45 2.53
  38  0.756  0.516  0.481-  63 2.25  76 2.26  69 2.26  89 2.36  58 2.36  46 2.53  42 2.53
  39  0.506  0.766  0.317-  72 2.25  78 2.26  82 2.26  91 2.36  95 2.36  43 2.53  35 2.53
  40  0.515  0.762  0.638-  92 2.11  79 2.14  83 2.15  96 2.20  44 2.33  36 2.48
  41  0.791  0.515  0.071-  54 2.01  57 2.12  84 2.16  68 2.32  37 2.37  29 2.49
  42  0.756  0.516  0.394-  66 2.25  72 2.26  69 2.26  85 2.36  58 2.36  38 2.53  46 2.53
  43  0.506  0.766  0.230-  75 2.25  82 2.26  73 2.26  95 2.36  86 2.36  39 2.53  35 2.53
  44  0.506  0.766  0.558-  76 2.25  83 2.26  74 2.26  40 2.33  96 2.36  87 2.36  36 2.53
  45  0.697  0.729  0.121-  84 2.13  75 2.14  88 2.14  93 2.14  37 2.53
  46  0.690  0.715  0.438-  94 2.25  76 2.26  72 2.26  89 2.36  85 2.36  38 2.53  42 2.53
  47  0.940  0.965  0.273-  70 2.25  86 2.26  91 2.26  73 2.36  78 2.36  31 2.53  27 2.53
  48  0.940  0.965  0.602-  92 2.11  79 2.14  71 2.25  87 2.26  74 2.36  28 2.48  32 2.53
  49  0.468  0.167  0.382-  15 2.25  18 2.26  22 2.26   6 2.36  10 2.36
  50  0.218  0.417  0.218-   9 2.16  25 2.25  11 2.26  19 2.26  23 2.36   7 2.36
  51  0.218  0.417  0.547-  26 2.25  12 2.26  20 2.26  24 2.36   8 2.36
  52  0.468  0.167  0.164-   9 2.06  21 2.21  19 2.25  13 2.26   1 2.36
  53  0.468  0.167  0.493-  20 2.25  22 2.26  14 2.26  10 2.36   2 2.36
  54  0.002  0.467  0.020-  41 2.01  29 2.02  57 2.68  84 2.70
  55  0.218  0.417  0.329-  30 2.25  15 2.26  11 2.26   3 2.36  23 2.36
  56  0.218  0.391  0.642-   4 2.11  12 2.11  24 2.14  16 2.14  60 2.77
  57  0.053  0.414  0.109-  29 2.06   9 2.09  41 2.12  25 2.26  37 2.36  54 2.68
  58  0.053  0.414  0.438-  10 2.25  26 2.26  30 2.26  38 2.36  42 2.36
  59  0.303  0.164  0.273-  35 2.25  19 2.26  15 2.26   7 2.36   3 2.36
  60  0.303  0.164  0.602-  16 2.15   4 2.20  36 2.25  20 2.26   8 2.36  56 2.77
  61  0.968  0.167  0.382-   3 2.25   6 2.26  10 2.26  18 2.36  22 2.36
  62  0.718  0.417  0.218-  21 2.18  37 2.25  23 2.26   7 2.26  11 2.36  19 2.36
  63  0.718  0.417  0.547-  38 2.25  24 2.26   8 2.26  12 2.36  20 2.36
  64  0.968  0.167  0.164-  21 2.08   9 2.22   7 2.25   1 2.26  13 2.36
  65  0.968  0.167  0.493-   8 2.25  10 2.26   2 2.26  22 2.36  14 2.36
  66  0.718  0.417  0.329-  42 2.25   3 2.26  23 2.26  15 2.36  11 2.36
  67  0.718  0.391  0.642-  16 2.11  24 2.11  12 2.14   4 2.14  71 2.77
  68  0.553  0.414  0.109-  21 2.07  37 2.26  41 2.32  25 2.36
  69  0.553  0.414  0.438-  22 2.25  38 2.26  42 2.26  26 2.36  30 2.36
  70  0.803  0.164  0.273-  47 2.25   7 2.26   3 2.26  19 2.36  15 2.36
  71  0.803  0.164  0.602-   4 2.15  16 2.20  48 2.25   8 2.26  20 2.36  67 2.77
  72  0.468  0.667  0.382-  39 2.25  42 2.26  46 2.26  30 2.36  34 2.36
  73  0.218  0.917  0.218-   1 2.25  35 2.26  43 2.26  47 2.36  31 2.36
  74  0.218  0.917  0.547-   2 2.25  36 2.26  44 2.26  48 2.36  32 2.36
  75  0.468  0.667  0.164-  45 2.14  43 2.25  37 2.26  25 2.36  33 2.48
  76  0.468  0.667  0.493-  44 2.25  46 2.26  38 2.26  34 2.36  26 2.36
  77  0.067  0.890  0.019-   5 2.01  17 2.04  80 2.63
  78  0.218  0.917  0.329-   6 2.25  39 2.26  35 2.26  27 2.36  47 2.36
  79  0.218  0.891  0.642-  28 2.11  36 2.11  48 2.14  40 2.14  83 2.77
[...]
  82  0.303  0.664  0.273-  11 2.25  43 2.26  39 2.26  31 2.36  27 2.36
  83  0.303  0.664  0.602-  40 2.15  28 2.20  12 2.25  44 2.26  32 2.36  79 2.77
  84  0.917  0.680  0.065-  29 2.12  45 2.13  17 2.14  41 2.16  33 2.16  54 2.70
  85  0.968  0.667  0.382-  27 2.25  30 2.26  34 2.26  42 2.36  46 2.36
  86  0.718  0.917  0.218-  13 2.25  47 2.26  31 2.26  35 2.36  43 2.36
  87  0.718  0.917  0.547-  14 2.25  48 2.26  32 2.26  36 2.36  44 2.36
  88  0.968  0.667  0.164-  33 2.08  45 2.14  31 2.25  25 2.26  37 2.36
  89  0.968  0.667  0.493-  32 2.25  34 2.26  26 2.26  46 2.36  38 2.36
  90  0.564  0.882  0.019-   5 2.02  17 2.04  93 2.63
  91  0.718  0.917  0.329-  18 2.25  27 2.26  47 2.26  39 2.36  35 2.36
  92  0.718  0.891  0.642-  40 2.11  48 2.11  36 2.14  28 2.14  96 2.77
  93  0.553  0.914  0.109-   5 2.09  45 2.14  17 2.14  13 2.26   1 2.36  90 2.63
  94  0.553  0.914  0.438-  46 2.25  14 2.26  18 2.26   2 2.36   6 2.36
  95  0.803  0.664  0.273-  23 2.25  31 2.26  27 2.26  43 2.36  39 2.36
  96  0.803  0.664  0.602-  28 2.15  40 2.20  24 2.25  32 2.26  44 2.36  92 2.77

  LATTYP: Found a simple monoclinic cell.
 ALAT       =    13.8711386352
 B/A-ratio  =     2.1019774055
 C/A-ratio  =     1.3233367991
 COS(beta)  =    -0.9620914447

  Lattice vectors:

 A1 = (  -8.3714133957, -11.0601955134,   0.0000000000)
 A2 = (   0.0000000000,   0.0000000000, -29.1568200000)
 A3 = (  14.6499733957,  11.0601955134,   0.0000000000)

Analysis of symmetry for initial positions (statically):
 Subroutine PRICEL returns:
 Original cell was already a primitive cell.

 Routine SETGRP: Setting up the symmetry group for a
 simple monoclinic supercell.

 Subroutine GETGRP returns: Found  1 space group operations
 (whereof  1 operations were pure point group operations)
 out of a pool of  4 trial point group operations.

The static configuration has the point symmetry C_1 .

Analysis of symmetry for dynamics (positions and initial velocities):
 Subroutine PRICEL returns:
 Original cell was already a primitive cell.

 Routine SETGRP: Setting up the symmetry group for a
 simple monoclinic supercell.

 Subroutine GETGRP returns: Found  1 space group operations
 (whereof  1 operations were pure point group operations)
 out of a pool of  4 trial point group operations.

The dynamic configuration has the point symmetry C_1 .

 Subroutine INISYM returns: Found  1 space group operations
 (whereof  1 operations are pure point group operations),
 and found     1 'primitive' translations

 KPOINTS: gamma-point-only calculation. no periodi

Automatic generation of k-mesh.
Space group operators:
[...]
     0.000000000  0.000000000 29.156820000     0.000000000  0.000000000  0.034297293

  length of vectors
     6.278560000 11.256463038 29.156820000     0.162098538  0.090414315  0.034297293

 FORCES acting on ions
    electron-ion (+dipol)            ewald-force                    non-local-force                 convergence-correction
   -.441E+02 -.348E+03 0.517E+04   0.428E+02 0.346E+03 -.517E+04   0.133E+01 0.170E+01 -.179E+01   0.357E-01 0.342E+00 -.122E+01
   -.413E+02 0.258E+03 -.336E+04   0.405E+02 -.258E+03 0.336E+04   0.970E+00 0.465E+00 -.782E+00   0.543E-02 -.319E-01 0.406E-01
   -.407E+02 0.305E+03 0.384E+03   0.398E+02 -.305E+03 -.382E+03   0.961E+00 0.728E+00 -.741E+00   0.676E-02 -.178E-01 -.179E+01
   -.123E+02 0.456E+03 -.731E+04   0.125E+02 -.458E+03 0.731E+04   -.137E+00 0.101E+01 0.545E+00   0.497E-02 -.139E-01 0.105E+01
   -.115E+03 -.689E+03 0.667E+04   0.116E+03 0.687E+03 -.667E+04   -.520E+00 0.190E+01 0.675E+01   0.938E-01 0.344E+00 -.208E+00
   -.413E+02 0.266E+03 -.455E+03   0.404E+02 -.266E+03 0.456E+03   0.968E+00 0.458E+00 0.112E+01   0.864E-02 -.576E-01 -.100E+01
   0.209E+02 0.537E+03 0.310E+04   -.213E+02 -.540E+03 -.309E+04   0.391E-01 0.240E+01 0.493E+00   0.315E-01 -.107E+00 -.232E+01
   -.370E+02 0.275E+03 -.417E+04   0.359E+02 -.276E+03 0.416E+04   0.118E+01 0.831E+00 0.212E+01   -.120E-01 0.452E-01 0.674E+00
   -.398E+02 0.569E+03 0.564E+04   0.385E+02 -.570E+03 -.564E+04   0.664E+00 0.140E+01 0.163E+01   -.165E-02 -.255E+00 -.127E+01
   -.411E+02 -.508E+03 -.191E+04   0.404E+02 0.508E+03 0.191E+04   0.896E+00 -.125E+01 0.740E-01   0.181E-02 0.142E+00 -.455E+00
   -.404E+02 -.576E+03 0.179E+04   0.401E+02 0.577E+03 -.178E+04   0.519E+00 -.132E+01 -.557E+00   0.134E-01 -.116E+00 -.198E+01
   -.281E+02 -.672E+03 -.588E+04   0.280E+02 0.676E+03 0.588E+04   0.232E+00 -.413E+01 -.351E+00   -.432E-02 -.222E-01 0.858E+00
   -.313E+02 -.397E+03 0.517E+04   0.296E+02 0.396E+03 -.516E+04   0.183E+01 0.155E+01 -.181E+01   -.322E-01 0.296E+00 -.125E+01
   -.413E+02 0.258E+03 -.336E+04   0.405E+02 -.258E+03 0.336E+04   0.976E+00 0.463E+00 -.778E+00   0.300E-02 -.444E-01 0.383E-01
   -.413E+02 0.304E+03 0.385E+03   0.405E+02 -.305E+03 -.382E+03   0.942E+00 0.749E+00 -.736E+00   0.111E-01 -.425E-02 -.179E+01
   -.123E+02 0.456E+03 -.731E+04   0.125E+02 -.458E+03 0.731E+04   -.136E+00 0.101E+01 0.544E+00   0.718E-02 -.101E-01 0.106E+01
   0.618E+02 -.965E+03 0.677E+04   -.629E+02 0.969E+03 -.677E+04   0.719E+00 -.320E+01 0.783E+01   -.739E-01 0.263E+00 -.116E+00
   -.413E+02 0.266E+03 -.456E+03   0.404E+02 -.266E+03 0.456E+03   0.974E+00 0.467E+00 0.112E+01   0.205E-02 -.688E-01 -.998E+00
   0.830E+01 0.531E+03 0.310E+04   -.872E+01 -.534E+03 -.310E+04   0.118E+00 0.234E+01 0.636E+00   -.513E-02 -.107E+00 -.229E+01
   -.370E+02 0.275E+03 -.417E+04   0.359E+02 -.276E+03 0.416E+04   0.118E+01 0.825E+00 0.212E+01   -.954E-02 0.478E-01 0.683E+00
   0.806E+01 0.550E+03 0.567E+04   -.946E+01 -.549E+03 -.568E+04   0.917E+00 0.492E-02 0.421E+01   0.317E-01 -.316E+00 -.125E+01
   -.411E+02 -.508E+03 -.191E+04   0.404E+02 0.508E+03 0.191E+04   0.890E+00 -.125E+01 0.807E-01   0.822E-02 0.137E+00 -.460E+00
   -.383E+02 -.573E+03 0.178E+04   0.379E+02 0.574E+03 -.178E+04   0.532E+00 -.139E+01 -.459E+00   -.305E-02 -.129E+00 -.199E+01
   -.281E+02 -.672E+03 -.588E+04   0.280E+02 0.676E+03 0.588E+04   0.231E+00 -.413E+01 -.348E+00   -.838E-02 -.209E-01 0.854E+00
   -.263E+03 0.131E+03 0.465E+04   0.264E+03 -.129E+03 -.465E+04   -.422E+00 -.136E+01 0.143E+01   -.771E-01 -.495E+00 -.121E+01
   -.413E+02 0.254E+03 -.336E+04   0.405E+02 -.255E+03 0.336E+04   0.967E+00 0.504E+00 -.723E+00   0.582E-02 -.402E-01 -.246E-01
   -.429E+02 0.219E+03 0.443E+03   0.420E+02 -.219E+03 -.441E+03   0.976E+00 0.539E+00 -.929E+00   0.484E-02 -.409E-01 -.159E+01
   -.123E+02 0.455E+03 -.730E+04   0.125E+02 -.457E+03 0.730E+04   -.143E+00 0.101E+01 0.533E+00   0.657E-02 -.345E-01 0.119E+01
   -.736E+03 0.699E+03 0.713E+04   0.741E+03 -.698E+03 -.713E+04   -.207E+01 -.982E+00 0.181E+01   -.329E+00 -.346E+00 -.183E+00
   -.414E+02 0.249E+03 -.479E+03   0.405E+02 -.250E+03 0.479E+03   0.958E+00 0.611E+00 0.127E+01   0.828E-02 0.360E-01 -.918E+00
   -.647E+02 0.130E+03 0.333E+04   0.638E+02 -.131E+03 -.333E+04   0.114E+01 0.732E+00 0.186E+01   -.291E-01 0.131E+00 -.185E+01
   -.370E+02 0.274E+03 -.417E+04   0.359E+02 -.274E+03 0.416E+04   0.118E+01 0.829E+00 0.211E+01   -.125E-01 -.371E-01 0.619E+00
   -.442E+03 -.280E+03 0.552E+04   0.446E+03 0.280E+03 -.552E+04   -.263E+01 -.416E+00 0.223E+01   -.125E+00 0.731E-01 -.802E+00
   -.412E+02 -.521E+03 -.191E+04   0.404E+02 0.522E+03 0.191E+04   0.867E+00 -.123E+01 0.648E-01   0.727E-02 -.454E-01 -.527E+00
   -.388E+02 -.515E+03 0.198E+04   0.381E+02 0.515E+03 -.197E+04   0.884E+00 -.110E+01 0.253E+00   0.235E-01 0.106E+00 -.207E+01
   -.281E+02 -.674E+03 -.588E+04   0.280E+02 0.678E+03 0.588E+04   0.233E+00 -.414E+01 -.358E+00   -.584E-02 0.167E+00 0.941E+00
   0.958E+02 0.154E+03 0.457E+04   -.968E+02 -.152E+03 -.457E+04   0.867E+00 -.132E+01 0.124E+01   0.508E-01 -.348E+00 -.128E+01
   -.413E+02 0.254E+03 -.336E+04   0.404E+02 -.255E+03 0.336E+04   0.977E+00 0.506E+00 -.727E+00   0.570E-02 -.343E-01 -.647E-01
   -.397E+02 0.220E+03 0.445E+03   0.388E+02 -.220E+03 -.443E+03   0.968E+00 0.522E+00 -.891E+00   0.140E-01 -.292E-01 -.161E+01
   -.123E+02 0.455E+03 -.730E+04   0.125E+02 -.457E+03 0.730E+04   -.143E+00 0.101E+01 0.535E+00   0.680E-02 -.389E-01 0.119E+01
   0.689E+03 0.734E+03 0.711E+04   -.696E+03 -.735E+03 -.711E+04   0.433E+01 0.519E+00 0.394E+01   0.290E+00 -.176E+00 -.134E+00
   -.411E+02 0.249E+03 -.479E+03   0.403E+02 -.250E+03 0.479E+03   0.955E+00 0.620E+00 0.125E+01   0.557E-02 0.420E-01 -.912E+00
   -.140E+02 0.136E+03 0.335E+04   0.129E+02 -.137E+03 -.335E+04   0.106E+01 0.861E+00 0.215E+01   0.319E-01 0.136E+00 -.187E+01
   -.370E+02 0.274E+03 -.417E+04   0.359E+02 -.274E+03 0.416E+04   0.118E+01 0.828E+00 0.211E+01   -.900E-02 -.431E-01 0.618E+00
   0.382E+03 -.338E+03 0.535E+04   -.386E+03 0.340E+03 -.535E+04   0.270E+01 -.273E+01 0.839E+00   0.138E-01 0.133E+00 -.875E+00
   -.411E+02 -.521E+03 -.191E+04   0.404E+02 0.522E+03 0.191E+04   0.871E+00 -.123E+01 0.640E-01   0.742E-02 -.750E-01 -.545E+00
   -.436E+02 -.517E+03 0.197E+04   0.430E+02 0.517E+03 -.197E+04   0.843E+00 -.103E+01 0.447E+00   -.889E-02 0.116E+00 -.206E+01
   -.281E+02 -.674E+03 -.588E+04   0.280E+02 0.678E+03 0.588E+04   0.232E+00 -.414E+01 -.358E+00   -.934E-02 0.169E+00 0.940E+00
   0.397E+02 -.765E+02 -.960E+02   -.404E+02 0.776E+02 0.943E+02   0.545E+00 -.137E+01 0.259E+01   -.404E-02 0.456E-01 -.438E+00
   0.119E+02 -.190E+03 0.122E+04   -.120E+02 0.193E+03 -.122E+04   -.153E+00 -.308E+01 0.138E+01   -.483E-02 -.141E+00 -.796E+00
   0.391E+02 -.986E+02 -.151E+04   -.399E+02 0.999E+02 0.151E+04   0.772E+00 -.135E+01 0.219E+01   0.972E-03 0.234E-01 0.180E+00
   0.329E+01 0.210E+03 0.204E+04   -.427E+01 -.211E+03 -.204E+04   0.217E+01 -.574E+00 0.189E+01   0.230E-01 -.377E-01 -.525E+00
   0.399E+02 -.796E+02 -.134E+04   -.405E+02 0.807E+02 0.134E+04   0.452E+00 -.131E+01 -.252E+01   -.644E-02 0.117E-01 0.481E-01
   0.456E+01 0.407E+03 0.274E+04   -.463E+01 -.409E+03 -.275E+04   0.144E+00 0.641E+00 0.882E+00   0.142E-01 0.241E-01 0.248E+00
   0.392E+02 -.850E+02 0.620E+02   -.401E+02 0.863E+02 -.596E+02   0.886E+00 -.158E+01 -.221E+01   0.307E-02 -.203E-02 -.596E+00
   -.419E+00 -.194E+03 -.281E+04   0.401E-01 0.197E+03 0.281E+04   0.391E+00 -.232E+01 -.439E+01   0.348E-02 -.192E-01 0.388E+00
   0.100E+02 0.540E+03 0.242E+04   -.118E+02 -.547E+03 -.243E+04   0.137E+01 0.619E+01 0.131E+01   0.734E-02 -.474E-01 -.195E+00
   0.396E+02 0.166E+03 -.720E+03   -.404E+02 -.169E+03 0.720E+03   0.725E+00 0.274E+01 0.378E-01   -.174E-01 0.269E-01 -.155E+00
   0.386E+02 0.220E+03 0.705E+03   -.394E+02 -.222E+03 -.704E+03   0.756E+00 0.268E+01 0.477E-01   -.232E-02 0.964E-02 -.816E+00
   0.362E+02 0.239E+03 -.219E+04   -.364E+02 -.241E+03 0.219E+04   0.999E-01 0.204E+01 -.106E+00   0.152E-02 0.787E-02 0.357E+00
[...]
   0.362E+02 0.239E+03 -.219E+04   -.364E+02 -.241E+03 0.219E+04   0.950E-01 0.203E+01 -.105E+00   0.306E-03 -.666E-01 0.386E+00
   0.469E+02 -.157E+02 0.276E+04   -.475E+02 0.180E+02 -.277E+04   0.645E+00 -.251E+01 0.684E+01   -.639E-01 -.516E-01 -.129E+00
   0.398E+02 -.896E+02 -.964E+02   -.404E+02 0.906E+02 0.946E+02   0.452E+00 -.127E+01 0.260E+01   -.191E-01 0.119E-01 -.387E+00
   0.419E+02 -.145E+03 0.139E+04   -.425E+02 0.146E+03 -.139E+04   0.508E+00 -.122E+01 0.318E+01   -.329E-02 0.153E+00 -.823E+00
   0.391E+02 -.990E+02 -.151E+04   -.399E+02 0.100E+03 0.151E+04   0.775E+00 -.133E+01 0.219E+01   -.288E-03 0.796E-01 0.180E+00
   0.632E+01 -.525E+02 0.143E+04   -.692E+01 0.547E+02 -.143E+04   0.840E+00 -.274E+01 -.187E+00   -.822E-01 -.855E-01 -.460E+00
   0.399E+02 -.816E+02 -.134E+04   -.405E+02 0.827E+02 0.134E+04   0.452E+00 -.130E+01 -.252E+01   -.111E-01 -.590E-01 -.542E-01
   0.236E+02 -.225E+03 0.267E+04   -.243E+02 0.224E+03 -.268E+04   0.204E+00 0.184E+00 0.132E+01   0.149E-01 0.244E-01 0.228E+00
   0.397E+02 -.855E+02 0.940E+02   -.405E+02 0.867E+02 -.911E+02   0.685E+00 -.151E+01 -.271E+01   -.103E-01 -.174E-01 -.613E+00
   -.413E+00 -.195E+03 -.281E+04   0.359E-01 0.198E+03 0.281E+04   0.390E+00 -.232E+01 -.439E+01   0.120E-04 0.985E-02 0.419E+00
   0.598E+02 -.389E+03 0.212E+04   -.603E+02 0.388E+03 -.212E+04   0.505E+00 0.133E+01 0.581E+00   0.618E-01 0.188E+00 -.193E+00
   0.396E+02 0.166E+03 -.714E+03   -.404E+02 -.168E+03 0.714E+03   0.709E+00 0.269E+01 0.772E-01   0.446E-02 -.676E-01 -.164E+00
   0.406E+02 0.139E+03 0.697E+03   -.415E+02 -.141E+03 -.697E+03   0.782E+00 0.249E+01 -.318E+00   -.104E-01 0.295E-02 -.674E+00
   0.362E+02 0.239E+03 -.219E+04   -.364E+02 -.241E+03 0.219E+04   0.939E-01 0.203E+01 -.106E+00   -.318E-02 -.646E-01 0.386E+00
   -.624E+02 0.116E+02 -.885E+01   0.144E-11 -.284E-12 -.455E-12   0.625E+02 -.114E+02 0.463E+02   -.100E+00 -.190E+00 -.373E+02

 POSITION                                       TOTAL-FORCE (eV/Angst)
      1.64370      0.18204      4.44331         0.079005      0.512847      0.427745
      1.64370      0.18204     14.02172         0.110454      0.119115     -0.358349
      0.59727      2.94708      9.23251         0.105380      0.144486     -0.281986
      0.63879      2.89466     18.60492         0.013214     -0.635350     -0.099076
      3.82011      9.71508      1.85001         0.140923      0.289148      0.753916
      1.64370      0.18204     11.49105         0.116062      0.149261      0.321827
      0.59727      2.94708      6.70184        -0.359334     -0.383337      1.423199
      0.59727      2.94708     16.28025         0.092752      0.239421     -1.034386
      1.82418      3.29041      4.69154        -0.652637      0.059976     -0.450289
      1.64370      2.37366     12.75638         0.177747     -0.356924     -0.000600
      3.73655      5.13871      7.96718         0.203472     -0.354840      0.114450
      3.73655      5.13871     17.54559         0.075751      0.011928     -2.112266
      4.78298      0.18204      4.44331         0.116630      0.693540      0.446258
      4.78298      0.18204     14.02172         0.111360      0.121979     -0.358740
      3.73655      2.94708      9.23251         0.103314      0.133563     -0.293321
      3.77807      2.89466     18.60492         0.013208     -0.634652     -0.099601
      6.98107      9.65351      1.82872        -0.440023      1.456597      0.707285
      4.78298      0.18204     11.49105         0.116208      0.147844      0.326760
      3.73655      2.94708      6.70184        -0.311806     -0.374758      1.429909
      3.73655      2.94708     16.28025         0.093114      0.239719     -1.035014
      4.94884      3.29498      4.67483        -0.456585     -0.166899     -0.292377
      4.78298      2.37366     12.75638         0.179920     -0.358316     -0.002091
      6.87583      5.13871      7.96718         0.174169     -0.361434      0.105635
      6.87583      5.13871     17.54559         0.074909      0.011398     -2.113431
      2.69013      5.71213      4.44331         0.473421      0.562082     -0.254055
      2.69013      5.71213     14.02172         0.116967      0.120337     -0.347241
      1.64370      8.47718      9.23251         0.044688      0.192117     -0.374073
      1.68522      8.42476     18.60492         0.015216     -0.634181     -0.100426
      2.24434      5.88731      1.97941         2.470438      0.086332      0.862524
      2.69013      5.71213     11.49105         0.093336      0.139973      0.322850
      1.64370      8.47718      6.70184         0.168478      0.024955      0.644409
      1.64370      8.47718     16.28025         0.092218      0.239656     -1.038387
      2.47808      8.02969      3.28914         1.469198     -1.028316      0.739857
      2.69013      7.90376     12.75638         0.172533     -0.345016     -0.021158
      4.78298     10.66881      7.96718         0.162312     -0.417102      0.126265
      4.78298     10.66881     17.54559         0.074651      0.011445     -2.114169
      5.82941      5.71213      4.44331        -0.021670      0.549030      0.600574
      5.82941      5.71213     14.02172         0.115308      0.120725     -0.344601
      4.78298      8.47718      9.23251         0.043563      0.198659     -0.360659
      4.82450      8.42476     18.60492         0.015263     -0.634081     -0.099850
      6.04630      5.69580      2.08317        -2.289865     -0.157328      1.121127
      5.82941      5.71213     11.49105         0.101712      0.144794      0.315658
      4.78298      8.47718      6.70184         0.061495      0.064651      0.662599
      4.78298      8.47718     16.28025         0.093400      0.238515     -1.038606
      5.90386      8.06374      3.51429        -1.279053     -1.093672      0.280351
      5.82941      7.90376     12.75638         0.176754     -0.347366     -0.024798
      7.92226     10.66881      7.96718         0.146041     -0.382620      0.104605
      7.92226     10.66881     17.54559         0.073797      0.010694     -2.114247
      3.28961      1.84282     11.14515        -0.137437     -0.239203      0.392686
      2.24318      4.60787      6.35595        -0.260461      0.531838      0.729517
      2.24318      4.60787     15.93436        -0.084117     -0.075435     -0.267372
      3.28961      1.84282      4.78920         1.213743     -1.631781     -0.298895
      3.28961      1.84282     14.36761        -0.123840     -0.209762     -0.409700
      0.98917      5.16904      0.57585         0.083311     -1.812746     -3.726451
      2.24318      4.60787      9.57841        -0.030181     -0.263227     -0.395068
      2.18494      4.32079     18.72370         0.015238      1.295591      3.825273
      1.19676      4.58218      3.17797        -0.349688     -0.247535      0.414706
      1.19676      4.58218     12.75638        -0.136965      0.539070      0.007321
      2.24318      1.81714      7.96718        -0.111833      0.526640      0.074430
      2.24318      1.81714     17.54559        -0.114751     -0.817403     -0.009135
[...]
      3.28961      7.34723      7.96718        -0.173806      0.492062     -0.072076
      3.28961      7.34723     17.54559        -0.113494     -0.821587     -0.008237
      7.18251      7.52364      1.89812         0.020597     -0.253035     -1.697417
      7.47532      7.37292     11.14515        -0.122998     -0.253896      0.406843
      6.42889     10.13797      6.35595        -0.079561     -0.127295      0.107238
      6.42889     10.13797     15.93436        -0.078674     -0.067532     -0.266397
      7.47532      7.37292      4.78920         0.163668     -0.620532      1.551457
      7.47532      7.37292     14.36761        -0.117818     -0.213918     -0.410200
      5.38403      9.75221      0.56800        -0.480268      0.057332     -3.353755
      6.42889     10.13797      9.57841        -0.138454     -0.291635     -0.432218
      6.37065      9.85089     18.72370         0.013474      1.295450      3.824593
      5.38246     10.11228      3.17797         0.118027      0.544392      1.881191
      5.38246     10.11228     12.75638        -0.138648      0.527513      0.027631
      6.42889      7.34723      7.96718        -0.171885      0.462920     -0.155923
      6.42889      7.34723     17.54559        -0.114098     -0.821283     -0.009390
    total drift:                                0.001744      0.036452      0.146908

  FREE ENERGIE OF THE ION-ELECTRON SYSTEM (eV)
  free  energy   TOTEN  =      -478.17837814 eV

  energy  without entropy=     -476.86330533  energy(sigma->0) =     -477.52084174