 vasp.5.4.4.18Apr17-6-g9f103f2a35 (build Aug 13 2019 17:33:20) gamma-only

 executed on             LinuxIFC date 2020.05.10  13:10:37

 INCAR:
 POTCAR:    PAW_PBE Ni_pv 06Sep2000
 POTCAR:    PAW_PBE S 06Sep2000
 POTCAR:    PAW_PBE Ni_pv 06Sep2000
   VRHFIN =Ni:

   TITEL  = PAW_PBE Ni_pv 06Sep2000
   POMASS =   58.690; ZVAL   =   16.000    mass and valenz
   ENMAX  =  367.986; ENMIN  =  275.989 eV

 POTCAR:    PAW_PBE S 06Sep2000
   VRHFIN =S : s2p4

   TITEL  = PAW_PBE S 06Sep2000
   POMASS =   32.066; ZVAL   =    6.000    mass and valenz
   ENMAX  =  258.689; ENMIN  =  194.016 eV

 Optimization of the real space projectors (new method)

 maximal supplied QI-value         = 18.90
 optimisation between [QCUT,QGAM] = [ 10.77, 21.73] = [ 32.49,132.25] Ry
 Optimized for a Real-space Cutoff    1.38 Angstroem

   l    n(q)    QCUT    max X(q) W(low)/X(q) W(high)/X(q)  e(spline)
   1      8    10.771     2.836    0.40E-04    0.29E-04    0.12E-06
   1      8    10.771     4.023    0.10E-03    0.48E-04    0.29E-06
   2      8    10.771    73.368    0.42E-03    0.97E-04    0.44E-06
   2      8    10.771    69.010    0.42E-03    0.99E-04    0.45E-06
   0      9    10.771    54.797    0.10E-03    0.56E-04    0.74E-07
   0      9    10.771    24.266    0.89E-04    0.49E-04    0.67E-07
 Optimization of the real space projectors (new method)

 maximal supplied QI-value         = 19.84
 optimisation between [QCUT,QGAM] = [ 10.71, 21.63] = [ 32.15,130.99] Ry
 Optimized for a Real-space Cutoff    1.19 Angstroem

   l    n(q)    QCUT    max X(q) W(low)/X(q) W(high)/X(q)  e(spline)
   0      8    10.715   187.594    0.41E-03    0.53E-04    0.66E-07
   0      8    10.715   164.243    0.41E-03    0.53E-04    0.65E-07
   1      7    10.715    67.533    0.19E-03    0.59E-03    0.68E-07
   1      7    10.715    50.729    0.19E-03    0.58E-03    0.67E-07
  PAW_PBE Ni_pv 06Sep2000               :
  PAW_PBE S 06Sep2000                   :

 POSCAR: Type_048 Type_148
  positions in cartesian coordinates
 exchange correlation table for  LEXCH =        8
   RHO(1)=    0.500       N(1)  =     2000
   RHO(2)=  100.500       N(2)  =     4000

 ion  position               nearest neighbor table
   1  0.261  0.479  0.258-  73 2.25  58 2.26  80 2.26  59 2.36  54 2.36   7 2.53  21 2.53
   2  0.355  0.385  0.395-  74 2.25  54 2.26  59 2.26  60 2.36  65 2.36   8 2.53  22 2.53
   3  0.453  0.286  0.514-  60 2.00  65 2.00  23 2.49  17 2.49
   4  0.167  0.073  0.120-  55 2.07  81 2.07  64 2.25  56 2.36  82 2.36  36 2.53  30 2.53
   5  0.043  0.053  0.475-  50 2.02  72 2.04  77 2.08  15 2.49
   6  0.274  0.333  0.084-  51 1.99  57 2.08  55 2.10  58 2.36  52 2.36  12 2.53  28 2.53
   7  0.368  0.239  0.221-  56 2.25  58 2.26  52 2.26  59 2.36  61 2.36   1 2.53  21 2.53
   8  0.462  0.145  0.359-  78 2.25  59 2.26  61 2.26  60 2.36  62 2.36   2 2.53  22 2.53
   9  0.000  0.372  0.221-  58 2.25  64 2.26  92 2.26  49 2.36  66 2.36  19 2.53  13 2.53
  10  0.094  0.278  0.359-  59 2.25  49 2.26  66 2.26  50 2.36  53 2.36  14 2.53  20 2.53
  11  0.187  0.196  0.475-  50 2.02  53 2.04  60 2.08  15 2.49
  12  0.406  0.465  0.084-  51 1.99  79 2.08  69 2.10  52 2.36  80 2.36  28 2.53   6 2.53
  13  0.761  0.479  0.258-  85 2.25  70 2.26  92 2.26  71 2.36  66 2.36  19 2.53   9 2.53
  14  0.855  0.385  0.395-  86 2.25  66 2.26  71 2.26  72 2.36  53 2.36  20 2.53  10 2.53
  15  0.953  0.286  0.514-  72 2.00  53 2.00  11 2.49   5 2.49
  16  0.667  0.073  0.120-  67 2.07  93 2.07  52 2.25  68 2.36  94 2.36  48 2.53  42 2.53
  17  0.543  0.053  0.475-  62 2.02  60 2.04  89 2.08   3 2.49
  18  0.774  0.333  0.084-  63 1.99  69 2.08  67 2.10  70 2.36  64 2.36  24 2.53  40 2.53
  19  0.868  0.239  0.221-  68 2.25  70 2.26  64 2.26  71 2.36  49 2.36  13 2.53   9 2.53
  20  0.962  0.145  0.359-  90 2.25  71 2.26  49 2.26  72 2.36  50 2.36  14 2.53  10 2.53
  21  0.500  0.372  0.221-  70 2.25  52 2.26  80 2.26  61 2.36  54 2.36   7 2.53   1 2.53
  22  0.594  0.278  0.359-  71 2.25  61 2.26  54 2.26  62 2.36  65 2.36   2 2.53   8 2.53
  23  0.687  0.196  0.475-  62 2.02  65 2.04  72 2.08   3 2.49
  24  0.906  0.465  0.084-  63 1.99  91 2.08  57 2.10  64 2.36  92 2.36  40 2.53  18 2.53
  25  0.261  0.979  0.258-  49 2.25  82 2.26  56 2.26  83 2.36  78 2.36  31 2.53  45 2.53
  26  0.355  0.885  0.395-  50 2.25  78 2.26  83 2.26  84 2.36  89 2.36  32 2.53  46 2.53
  27  0.453  0.786  0.514-  84 2.00  89 2.00  47 2.49  41 2.49
  28  0.167  0.573  0.120-  79 2.07  57 2.07  88 2.25  80 2.36  58 2.36  12 2.53   6 2.53
  29  0.043  0.553  0.475-  74 2.02  96 2.04  53 2.08  39 2.49
  30  0.274  0.833  0.084-  75 1.99  81 2.08  79 2.10  82 2.36  76 2.36  36 2.53   4 2.53
  31  0.368  0.739  0.221-  80 2.25  82 2.26  76 2.26  83 2.36  85 2.36  25 2.53  45 2.53
  32  0.462  0.645  0.359-  54 2.25  83 2.26  85 2.26  84 2.36  86 2.36  26 2.53  46 2.53
  33  0.000  0.872  0.221-  82 2.25  88 2.26  68 2.26  73 2.36  90 2.36  43 2.53  37 2.53
  34  0.094  0.778  0.359-  83 2.25  73 2.26  90 2.26  74 2.36  77 2.36  38 2.53  44 2.53
  35  0.187  0.696  0.475-  74 2.02  77 2.04  84 2.08  39 2.49
  36  0.406  0.965  0.084-  75 1.99  55 2.08  93 2.10  76 2.36  56 2.36   4 2.53  30 2.53
  37  0.761  0.979  0.258-  61 2.25  94 2.26  68 2.26  95 2.36  90 2.36  43 2.53  33 2.53
  38  0.855  0.885  0.395-  62 2.25  90 2.26  95 2.26  96 2.36  77 2.36  44 2.53  34 2.53
  39  0.953  0.786  0.514-  96 2.00  77 2.00  35 2.49  29 2.49
  40  0.667  0.573  0.120-  91 2.07  69 2.07  76 2.25  92 2.36  70 2.36  24 2.53  18 2.53
  41  0.543  0.553  0.475-  86 2.02  84 2.04  65 2.08  27 2.49
  42  0.774  0.833  0.084-  87 1.99  93 2.08  91 2.10  94 2.36  88 2.36  48 2.53  16 2.53
  43  0.868  0.739  0.221-  92 2.25  94 2.26  88 2.26  95 2.36  73 2.36  37 2.53  33 2.53
  44  0.962  0.645  0.359-  66 2.25  95 2.26  73 2.26  96 2.36  74 2.36  38 2.53  34 2.53
  45  0.500  0.872  0.221-  94 2.25  76 2.26  56 2.26  85 2.36  78 2.36  31 2.53  25 2.53
  46  0.594  0.778  0.359-  95 2.25  85 2.26  78 2.26  86 2.36  89 2.36  26 2.53  32 2.53
  47  0.687  0.696  0.475-  86 2.02  89 2.04  96 2.08  27 2.49
  48  0.906  0.965  0.084-  87 1.99  67 2.08  81 2.10  88 2.36  68 2.36  16 2.53  42 2.53
  49  0.073  0.167  0.275-  25 2.25  10 2.26  20 2.26   9 2.36  19 2.36
  50  0.167  0.073  0.412-  11 2.02   5 2.02  26 2.25  10 2.36  20 2.36
  51  0.355  0.384  0.013-   6 1.99  12 1.99
  52  0.479  0.261  0.137-  16 2.25   7 2.26  21 2.26  12 2.36   6 2.36
  53  0.030  0.378  0.458-  15 2.00  11 2.04  29 2.08  10 2.36  14 2.36
  54  0.436  0.472  0.321-  32 2.25   2 2.26  22 2.26   1 2.36  21 2.36
  55  0.260  0.157  0.065-   4 2.07  36 2.08   6 2.10  56 2.73
  56  0.342  0.066  0.184-   7 2.25  25 2.26  45 2.26   4 2.36  36 2.36  55 2.73
  57  0.083  0.480  0.065-  28 2.07   6 2.08  24 2.10  58 2.73
  58  0.174  0.397  0.184-   9 2.25   1 2.26   7 2.26   6 2.36  28 2.36  57 2.73
  59  0.268  0.303  0.321-  10 2.25   2 2.26   8 2.26   7 2.36   1 2.36
  60  0.362  0.209  0.458-   3 2.00  17 2.04  11 2.08   8 2.36   2 2.36
[...]
  82  0.174  0.897  0.184-  33 2.25  25 2.26  31 2.26  30 2.36   4 2.36  81 2.73
  83  0.268  0.803  0.321-  34 2.25  26 2.26  32 2.26  31 2.36  25 2.36
  84  0.362  0.709  0.458-  27 2.00  41 2.04  35 2.08  32 2.36  26 2.36
  85  0.573  0.667  0.275-  13 2.25  46 2.26  32 2.26  45 2.36  31 2.36
  86  0.667  0.573  0.412-  47 2.02  41 2.02  14 2.25  46 2.36  32 2.36
  87  0.855  0.884  0.013-  42 1.99  48 1.99
  88  0.979  0.761  0.137-  28 2.25  43 2.26  33 2.26  48 2.36  42 2.36
  89  0.530  0.878  0.458-  27 2.00  47 2.04  17 2.08  46 2.36  26 2.36
  90  0.936  0.972  0.321-  20 2.25  38 2.26  34 2.26  37 2.36  33 2.36
  91  0.760  0.657  0.065-  40 2.07  24 2.08  42 2.10  92 2.73
  92  0.842  0.566  0.184-  43 2.25  13 2.26   9 2.26  40 2.36  24 2.36  91 2.73
  93  0.583  0.980  0.065-  16 2.07  42 2.08  36 2.10  94 2.73
  94  0.674  0.897  0.184-  45 2.25  37 2.26  43 2.26  42 2.36  16 2.36  93 2.73
  95  0.768  0.803  0.321-  46 2.25  38 2.26  44 2.26  43 2.36  37 2.36
  96  0.862  0.709  0.458-  39 2.00  29 2.04  47 2.08  44 2.36  38 2.36

  LATTYP: Found a base centered orthorhombic cell.
 ALAT       =    11.8257374459
 B/A-ratio  =     1.6199260857
 C/A-ratio  =     1.8079666090

  Lattice vectors:

 A1 = (  11.2564630382,   0.0000000000,   0.0000000000)
 A2 = (  -5.0445621212, -10.0628203371,   0.0000000000)
 A3 = (   0.0000000000,   0.0000000000, -21.3805384292)

Analysis of symmetry for initial positions (statically):
 Subroutine PRICEL returns following result:

[...]

   4 primitive cells build up your supercell.

 Routine SETGRP: Setting up the symmetry group for a
 base centered orthorhombic supercell.

 Subroutine GETGRP returns: Found  2 space group operations
 (whereof  1 operations were pure point group operations)
 out of a pool of  8 trial point group operations.

The static configuration has the point symmetry C_1 .
 The point group associated with its full space group is C_1h.

Analysis of symmetry for dynamics (positions and initial velocities):
 Subroutine PRICEL returns following result:

  LATTYP: Found a base centered orthorhombic cell.
 ALAT       =     5.9128687229
 B/A-ratio  =     1.6199260857
 C/A-ratio  =     3.6159332180

  Lattice vectors:

 A1 = (   5.6282315190,   0.0000000000,   0.0000000000)
 A2 = (  -2.5222810606,  -5.0314101686,   0.0000000000)
 A3 = (   0.0000000000,   0.0000000000, -21.3805384292)

   4 primitive cells build up your supercell.

 Routine SETGRP: Setting up the symmetry group for a
 base centered orthorhombic supercell.

 Subroutine GETGRP returns: Found  2 space group operations
 (whereof  1 operations were pure point group operations)
 out of a pool of  8 trial point group operations.

The dynamic configuration has the point symmetry C_1 .
 The point group associated with its full space group is C_1h.

 Subroutine INISYM returns: Found  2 space group operations
 (whereof  1 operations are pure point group operations),
 and found     4 'primitive' translations

 KPOINTS: gamma-point-only calculation. no periodi

Automatic generation of k-mesh.
Space group operators:
 irot       det(A)        alpha          n_x          n_y          n_z        tau_x        tau_y        tau_z
    1     1.000000     0.000000     1.000000     0.000000     0.000000     0.000000     0.000000     0.000000
    2    -1.000000   180.000000     0.850925     0.525287     0.000000     0.239701    -0.260299     0.000000

 Subroutine IBZKPT returns following result:

 Found      1 irreducible k-points:

 Following reciprocal coordinates:
            Coordinates               Weight
  0.000000  0.000000  0.000000      1.000000

 Following cartesian coordinates:
            Coordinates               Weight
  0.000000  0.000000  0.000000      1.000000

 SYSTEM =  "Millerite NiS"
 POSCAR =  Type_048 Type_148

 Startparameter for this run:
   NWRITE =      2    write-flag & timer
   PREC   = normal    normal or accurate (medium, high low for compatibility)
   ISTART =      0    job   : 0-new  1-cont  2-samecut
   ICHARG =      2    charge: 1-file 2-atom 10-const
   ISPIN  =      1    spin polarized calculation?
[...]
     0.000000000  0.000000000 21.380538429     0.000000000  0.000000000  0.046771507

  length of vectors
    11.256463038 11.256463038 21.380538429     0.099375718  0.099375718  0.046771507

 FORCES acting on ions
    electron-ion (+dipol)            ewald-force                    non-local-force                 convergence-correction
   0.244E+03 -.396E+03 0.433E+03   -.245E+03 0.397E+03 -.433E+03   0.670E+00 -.109E+01 -.545E+00   -.166E-02 0.269E-02 -.593E-01
   0.287E+03 -.464E+03 -.274E+04   -.287E+03 0.466E+03 0.273E+04   0.733E+00 -.119E+01 0.153E+01   -.941E-03 0.153E-02 -.872E-01
   0.238E+03 -.386E+03 -.572E+04   -.235E+03 0.380E+03 0.572E+04   -.331E+01 0.536E+01 0.378E+01   -.498E-02 0.806E-02 0.166E-01
   0.287E+03 -.465E+03 0.363E+04   -.290E+03 0.469E+03 -.363E+04   0.237E+01 -.385E+01 0.190E+01   0.290E-02 -.470E-02 -.264E-01
   0.481E+02 0.518E+03 -.485E+04   -.481E+02 -.519E+03 0.485E+04   0.106E+00 0.589E+00 0.437E-01   0.990E-03 -.454E-02 -.245E-01
   0.243E+03 0.447E+03 0.457E+04   -.245E+03 -.452E+03 -.457E+04   0.129E+01 0.350E+01 0.445E+01   0.703E-02 0.465E-02 -.205E-01
   0.238E+03 0.450E+03 0.152E+04   -.239E+03 -.451E+03 -.152E+04   0.610E+00 0.740E+00 0.627E+00   -.259E-03 0.454E-03 -.475E-01
   0.268E+03 0.425E+03 -.149E+04   -.269E+03 -.425E+03 0.148E+04   0.104E+01 0.510E+00 0.249E+01   -.372E-03 0.164E-02 -.942E-01
   -.509E+03 -.111E+02 0.152E+04   0.510E+03 0.113E+02 -.152E+04   -.935E+00 -.214E+00 0.627E+00   -.289E-03 0.435E-03 -.475E-01
   -.500E+03 -.491E+02 -.149E+04   0.501E+03 0.497E+02 0.148E+04   -.922E+00 -.702E+00 0.249E+01   -.130E-02 0.107E-02 -.942E-01
   -.484E+03 0.189E+03 -.485E+04   0.485E+03 -.189E+03 0.485E+04   -.574E+00 0.169E+00 0.437E-01   0.361E-02 -.292E-02 -.245E-01
   -.509E+03 -.169E+02 0.457E+04   0.514E+03 0.163E+02 -.457E+04   -.371E+01 0.420E+00 0.445E+01   -.731E-02 -.420E-02 -.205E-01
   0.244E+03 -.396E+03 0.433E+03   -.245E+03 0.397E+03 -.433E+03   0.670E+00 -.109E+01 -.545E+00   -.166E-02 0.269E-02 -.593E-01
   0.287E+03 -.464E+03 -.274E+04   -.287E+03 0.466E+03 0.273E+04   0.733E+00 -.119E+01 0.153E+01   -.941E-03 0.153E-02 -.872E-01
   0.238E+03 -.386E+03 -.572E+04   -.235E+03 0.380E+03 0.572E+04   -.331E+01 0.536E+01 0.378E+01   -.498E-02 0.806E-02 0.166E-01
   0.287E+03 -.465E+03 0.363E+04   -.290E+03 0.469E+03 -.363E+04   0.237E+01 -.385E+01 0.190E+01   0.290E-02 -.470E-02 -.264E-01
   0.481E+02 0.518E+03 -.485E+04   -.481E+02 -.519E+03 0.485E+04   0.106E+00 0.589E+00 0.437E-01   0.990E-03 -.454E-02 -.245E-01
   0.243E+03 0.447E+03 0.457E+04   -.245E+03 -.452E+03 -.457E+04   0.129E+01 0.350E+01 0.445E+01   0.703E-02 0.465E-02 -.205E-01
   0.238E+03 0.450E+03 0.152E+04   -.239E+03 -.451E+03 -.152E+04   0.610E+00 0.740E+00 0.627E+00   -.259E-03 0.454E-03 -.475E-01
   0.268E+03 0.425E+03 -.149E+04   -.269E+03 -.425E+03 0.148E+04   0.104E+01 0.510E+00 0.249E+01   -.372E-03 0.164E-02 -.942E-01
   -.509E+03 -.111E+02 0.152E+04   0.510E+03 0.113E+02 -.152E+04   -.935E+00 -.214E+00 0.627E+00   -.289E-03 0.435E-03 -.475E-01
   -.500E+03 -.491E+02 -.149E+04   0.501E+03 0.497E+02 0.148E+04   -.922E+00 -.702E+00 0.249E+01   -.130E-02 0.107E-02 -.942E-01
   -.484E+03 0.189E+03 -.485E+04   0.485E+03 -.189E+03 0.485E+04   -.574E+00 0.169E+00 0.437E-01   0.361E-02 -.292E-02 -.245E-01
   -.509E+03 -.169E+02 0.457E+04   0.514E+03 0.163E+02 -.457E+04   -.371E+01 0.420E+00 0.445E+01   -.731E-02 -.420E-02 -.205E-01
   0.244E+03 -.396E+03 0.433E+03   -.245E+03 0.397E+03 -.433E+03   0.670E+00 -.109E+01 -.545E+00   -.166E-02 0.269E-02 -.593E-01
   0.287E+03 -.464E+03 -.274E+04   -.287E+03 0.466E+03 0.273E+04   0.733E+00 -.119E+01 0.153E+01   -.941E-03 0.153E-02 -.872E-01
   0.238E+03 -.386E+03 -.572E+04   -.235E+03 0.380E+03 0.572E+04   -.331E+01 0.536E+01 0.378E+01   -.498E-02 0.806E-02 0.166E-01
   0.287E+03 -.465E+03 0.363E+04   -.290E+03 0.469E+03 -.363E+04   0.237E+01 -.385E+01 0.190E+01   0.290E-02 -.470E-02 -.264E-01
   0.481E+02 0.518E+03 -.485E+04   -.481E+02 -.519E+03 0.485E+04   0.106E+00 0.589E+00 0.437E-01   0.990E-03 -.454E-02 -.245E-01
   0.243E+03 0.447E+03 0.457E+04   -.245E+03 -.452E+03 -.457E+04   0.129E+01 0.350E+01 0.445E+01   0.703E-02 0.465E-02 -.205E-01
   0.238E+03 0.450E+03 0.152E+04   -.239E+03 -.451E+03 -.152E+04   0.610E+00 0.740E+00 0.627E+00   -.259E-03 0.454E-03 -.475E-01
   0.268E+03 0.425E+03 -.149E+04   -.269E+03 -.425E+03 0.148E+04   0.104E+01 0.510E+00 0.249E+01   -.372E-03 0.164E-02 -.942E-01
   -.509E+03 -.111E+02 0.152E+04   0.510E+03 0.113E+02 -.152E+04   -.935E+00 -.214E+00 0.627E+00   -.289E-03 0.435E-03 -.475E-01
   -.500E+03 -.491E+02 -.149E+04   0.501E+03 0.497E+02 0.148E+04   -.922E+00 -.702E+00 0.249E+01   -.130E-02 0.107E-02 -.942E-01
   -.484E+03 0.189E+03 -.485E+04   0.485E+03 -.189E+03 0.485E+04   -.574E+00 0.169E+00 0.437E-01   0.361E-02 -.292E-02 -.245E-01
   -.509E+03 -.169E+02 0.457E+04   0.514E+03 0.163E+02 -.457E+04   -.371E+01 0.420E+00 0.445E+01   -.731E-02 -.420E-02 -.205E-01
   0.244E+03 -.396E+03 0.433E+03   -.245E+03 0.397E+03 -.433E+03   0.670E+00 -.109E+01 -.545E+00   -.166E-02 0.269E-02 -.593E-01
   0.287E+03 -.464E+03 -.274E+04   -.287E+03 0.466E+03 0.273E+04   0.733E+00 -.119E+01 0.153E+01   -.941E-03 0.153E-02 -.872E-01
   0.238E+03 -.386E+03 -.572E+04   -.235E+03 0.380E+03 0.572E+04   -.331E+01 0.536E+01 0.378E+01   -.498E-02 0.806E-02 0.166E-01
   0.287E+03 -.465E+03 0.363E+04   -.290E+03 0.469E+03 -.363E+04   0.237E+01 -.385E+01 0.190E+01   0.290E-02 -.470E-02 -.264E-01
   0.481E+02 0.518E+03 -.485E+04   -.481E+02 -.519E+03 0.485E+04   0.106E+00 0.589E+00 0.437E-01   0.990E-03 -.454E-02 -.245E-01
   0.243E+03 0.447E+03 0.457E+04   -.245E+03 -.452E+03 -.457E+04   0.129E+01 0.350E+01 0.445E+01   0.703E-02 0.465E-02 -.205E-01
   0.238E+03 0.450E+03 0.152E+04   -.239E+03 -.451E+03 -.152E+04   0.610E+00 0.740E+00 0.627E+00   -.259E-03 0.454E-03 -.475E-01
   0.268E+03 0.425E+03 -.149E+04   -.269E+03 -.425E+03 0.148E+04   0.104E+01 0.510E+00 0.249E+01   -.372E-03 0.164E-02 -.942E-01
   -.509E+03 -.111E+02 0.152E+04   0.510E+03 0.113E+02 -.152E+04   -.935E+00 -.214E+00 0.627E+00   -.289E-03 0.435E-03 -.475E-01
   -.500E+03 -.491E+02 -.149E+04   0.501E+03 0.497E+02 0.148E+04   -.922E+00 -.702E+00 0.249E+01   -.130E-02 0.107E-02 -.942E-01
   -.484E+03 0.189E+03 -.485E+04   0.485E+03 -.189E+03 0.485E+04   -.574E+00 0.169E+00 0.437E-01   0.361E-02 -.292E-02 -.245E-01
   -.509E+03 -.169E+02 0.457E+04   0.514E+03 0.163E+02 -.457E+04   -.371E+01 0.420E+00 0.445E+01   -.731E-02 -.420E-02 -.205E-01
   -.742E+02 0.120E+03 0.205E+03   0.753E+02 -.122E+03 -.206E+03   -.111E+01 0.180E+01 0.175E+01   0.770E-03 -.125E-02 -.235E-01
   -.119E+03 0.193E+03 -.998E+03   0.121E+03 -.196E+03 0.998E+03   -.555E+00 0.898E+00 -.126E+01   0.173E-02 -.280E-02 -.343E-01
   -.524E+02 0.849E+02 0.228E+04   0.529E+02 -.857E+02 -.229E+04   -.180E+00 0.291E+00 0.780E+00   -.360E-03 0.583E-03 0.449E-02
   -.842E+02 0.136E+03 0.137E+04   0.850E+02 -.138E+03 -.138E+04   -.731E+00 0.118E+01 0.209E+01   -.867E-03 0.140E-02 -.131E-01
   -.832E+02 -.214E+03 -.157E+04   0.842E+02 0.217E+03 0.157E+04   -.784E+00 -.105E+01 -.190E+01   -.210E-02 0.205E-02 -.188E-01
   -.681E+02 -.152E+03 -.274E+03   0.696E+02 0.155E+03 0.274E+03   -.156E+01 -.250E+01 -.384E+00   -.404E-03 0.185E-03 -.296E-01
   0.223E+02 -.143E+03 0.198E+04   -.241E+02 0.145E+03 -.199E+04   0.177E+01 -.796E+00 0.351E+01   0.128E-02 -.132E-02 -.256E-02
   -.730E+02 -.151E+03 0.863E+03   0.742E+02 0.153E+03 -.863E+03   -.991E+00 -.208E+01 0.573E+00   -.154E-02 -.909E-03 -.156E-01
   0.118E+03 -.842E+02 0.198E+04   -.119E+03 0.868E+02 -.199E+04   -.797E-01 -.194E+01 0.351E+01   0.604E-03 -.174E-02 -.256E-02
   0.168E+03 -.255E+01 0.863E+03   -.170E+03 0.241E+01 -.863E+03   0.230E+01 -.464E-01 0.573E+00   0.150E-02 0.973E-03 -.156E-01
   0.166E+03 -.726E+01 -.274E+03   -.169E+03 0.698E+01 0.274E+03   0.293E+01 0.273E+00 -.384E+00   0.158E-04 0.444E-03 -.296E-01
   0.229E+03 -.216E+02 -.157E+04   -.232E+03 0.219E+02 0.157E+04   0.129E+01 0.228E+00 -.190E+01   -.886E-03 0.280E-02 -.188E-01
[...]
   0.166E+03 -.726E+01 -.274E+03   -.169E+03 0.698E+01 0.274E+03   0.293E+01 0.273E+00 -.384E+00   0.158E-04 0.444E-03 -.296E-01
   0.229E+03 -.216E+02 -.157E+04   -.232E+03 0.219E+02 0.157E+04   0.129E+01 0.228E+00 -.190E+01   -.886E-03 0.280E-02 -.188E-01
   -.742E+02 0.120E+03 0.205E+03   0.753E+02 -.122E+03 -.206E+03   -.111E+01 0.180E+01 0.175E+01   0.770E-03 -.125E-02 -.235E-01
   -.119E+03 0.193E+03 -.998E+03   0.121E+03 -.196E+03 0.998E+03   -.555E+00 0.898E+00 -.126E+01   0.173E-02 -.280E-02 -.343E-01
   -.524E+02 0.849E+02 0.228E+04   0.529E+02 -.857E+02 -.229E+04   -.180E+00 0.291E+00 0.780E+00   -.360E-03 0.583E-03 0.449E-02
   -.842E+02 0.136E+03 0.137E+04   0.850E+02 -.138E+03 -.138E+04   -.731E+00 0.118E+01 0.209E+01   -.867E-03 0.140E-02 -.131E-01
   -.832E+02 -.214E+03 -.157E+04   0.842E+02 0.217E+03 0.157E+04   -.784E+00 -.105E+01 -.190E+01   -.210E-02 0.205E-02 -.188E-01
   -.681E+02 -.152E+03 -.274E+03   0.696E+02 0.155E+03 0.274E+03   -.156E+01 -.250E+01 -.384E+00   -.404E-03 0.185E-03 -.296E-01
   0.223E+02 -.143E+03 0.198E+04   -.241E+02 0.145E+03 -.199E+04   0.177E+01 -.796E+00 0.351E+01   0.128E-02 -.132E-02 -.256E-02
   -.730E+02 -.151E+03 0.863E+03   0.742E+02 0.153E+03 -.863E+03   -.991E+00 -.208E+01 0.573E+00   -.154E-02 -.909E-03 -.156E-01
   0.118E+03 -.842E+02 0.198E+04   -.119E+03 0.868E+02 -.199E+04   -.797E-01 -.194E+01 0.351E+01   0.604E-03 -.174E-02 -.256E-02
   0.168E+03 -.255E+01 0.863E+03   -.170E+03 0.241E+01 -.863E+03   0.230E+01 -.464E-01 0.573E+00   0.150E-02 0.973E-03 -.156E-01
   0.166E+03 -.726E+01 -.274E+03   -.169E+03 0.698E+01 0.274E+03   0.293E+01 0.273E+00 -.384E+00   0.158E-04 0.444E-03 -.296E-01
   0.229E+03 -.216E+02 -.157E+04   -.232E+03 0.219E+02 0.157E+04   0.129E+01 0.228E+00 -.190E+01   -.886E-03 0.280E-02 -.188E-01
   0.116E+01 -.188E+01 -.113E+03   -.395E-11 -.279E-11 0.143E-10   -.127E+01 0.206E+01 0.115E+03   -.114E-01 0.184E-01 -.292E+01

 POSITION                                       TOTAL-FORCE (eV/Angst)
      5.35228      4.81788      5.50842         0.065189     -0.105602     -0.174409
      5.93595      3.87238      8.44448        -0.000166      0.000269     -0.093841
      6.54717      2.88225     10.97943         0.057528     -0.093190      1.270427
      2.24633      0.73197      2.57236        -0.358188      0.580237      2.063762
      0.75584      0.53360     10.16108         0.066220     -0.196541      1.223231
      4.76861      3.35453      1.79664        -0.411225     -1.262345      2.736012
      5.35228      2.40903      4.73270         0.076926      0.070535     -0.022714
      5.93595      1.46353      7.66876         0.069343     -0.014264     -0.178540
      1.87746      3.73836      4.73270        -0.097530     -0.037158     -0.022714
      2.46113      2.79286      7.66876        -0.018325     -0.068382     -0.178540
      3.09163      1.97551     10.16108         0.146023     -0.147277      1.223231
      6.92203      4.68386      1.79664         1.312775     -0.198099      2.736012
     10.98051      4.81788      5.50842         0.065189     -0.105602     -0.174409
     11.56418      3.87238      8.44448        -0.000166      0.000269     -0.093841
     12.17540      2.88225     10.97943         0.057528     -0.093190      1.270427
      7.87456      0.73197      2.57236        -0.358188      0.580237      2.063762
      6.38407      0.53360     10.16108         0.066220     -0.196541      1.223231
     10.39684      3.35453      1.79664        -0.411225     -1.262345      2.736012
     10.98051      2.40903      4.73270         0.076926      0.070535     -0.022714
     11.56418      1.46353      7.66876         0.069343     -0.014264     -0.178540
      7.50570      3.73836      4.73270        -0.097530     -0.037158     -0.022714
      8.08937      2.79286      7.66876        -0.018325     -0.068382     -0.178540
      8.71986      1.97551     10.16108         0.146023     -0.147277      1.223231
     12.55026      4.68386      1.79664         1.312775     -0.198099      2.736012
      7.87456      9.84929      5.50842         0.065189     -0.105602     -0.174409
      8.45823      8.90379      8.44448        -0.000166      0.000269     -0.093841
      9.06945      7.91366     10.97943         0.057528     -0.093190      1.270427
      4.76861      5.76338      2.57236        -0.358188      0.580237      2.063762
      3.27812      5.56501     10.16108         0.066220     -0.196541      1.223231
      7.29089      8.38594      1.79664        -0.411225     -1.262345      2.736012
      7.87456      7.44044      4.73270         0.076926      0.070535     -0.022714
      8.45823      6.49494      7.66876         0.069343     -0.014264     -0.178540
      4.39975      8.76977      4.73270        -0.097530     -0.037158     -0.022714
      4.98341      7.82427      7.66876        -0.018325     -0.068382     -0.178540
      5.61391      7.00692     10.16108         0.146023     -0.147277      1.223231
      9.44431      9.71527      1.79664         1.312775     -0.198099      2.736012
     13.50279      9.84929      5.50842         0.065189     -0.105602     -0.174409
     14.08646      8.90379      8.44448        -0.000166      0.000269     -0.093841
     14.69769      7.91366     10.97943         0.057528     -0.093190      1.270427
     10.39684      5.76338      2.57236        -0.358188      0.580237      2.063762
      8.90635      5.56501     10.16108         0.066220     -0.196541      1.223231
     12.91912      8.38594      1.79664        -0.411225     -1.262345      2.736012
     13.50279      7.44044      4.73270         0.076926      0.070535     -0.022714
     14.08646      6.49494      7.66876         0.069343     -0.014264     -0.178540
     10.02798      8.76977      4.73270        -0.097530     -0.037158     -0.022714
     10.61165      7.82427      7.66876        -0.018325     -0.068382     -0.178540
     11.24214      7.00692     10.16108         0.146023     -0.147277      1.223231
     15.07254      9.71527      1.79664         1.312775     -0.198099      2.736012
      1.66190      1.67871      5.87212         0.034790     -0.056357      0.128901
      2.24556      0.73321      8.80817         0.974506     -1.578627     -1.847375
      5.93902      3.86740      0.27015         0.326809     -0.529406     -4.394738
      6.70646      2.62422      2.93606         0.073550     -0.119145      0.057754
      2.24556      3.80055      9.79595         0.212168      1.581250     -0.720753
      7.29013      4.74605      6.85989         0.036042      0.052493      0.058471
      3.72020      1.58040      1.39939        -0.056655      1.234901     -2.371277
      4.18418      0.66015      3.92384         0.189015     -0.040504      0.770330
      3.34964      4.82603      1.39939        -1.078562      0.604066     -2.371277
      3.96438      3.99884      3.92384        -0.048498     -0.187123      0.770330
      4.54805      3.05334      6.85989        -0.063079     -0.008696      0.058471
      5.13172      2.10784      9.79595        -1.508655      0.518965     -0.720753
[...]
      6.48666      9.03025      3.92384        -0.048498     -0.187123      0.770330
      7.07033      8.08475      6.85989        -0.063079     -0.008696      0.058471
      7.65400      7.13925      9.79595        -1.508655      0.518965     -0.720753
      9.81241      6.71012      5.87212         0.034790     -0.056357      0.128901
     10.39608      5.76462      8.80817         0.974506     -1.578627     -1.847375
     14.08954      8.89881      0.27015         0.326809     -0.529406     -4.394738
     14.85697      7.65563      2.93606         0.073550     -0.119145      0.057754
     10.39608      8.83196      9.79595         0.212168      1.581250     -0.720753
     15.44064      9.77746      6.85989         0.036042      0.052493      0.058471
     11.87071      6.61181      1.39939        -0.056655      1.234901     -2.371277
     12.33469      5.69156      3.92384         0.189015     -0.040504      0.770330
     11.50015      9.85744      1.39939        -1.078562      0.604066     -2.371277
     12.11489      9.03025      3.92384        -0.048498     -0.187123      0.770330
     12.69856      8.08475      6.85989        -0.063079     -0.008696      0.058471
     13.28223      7.13925      9.79595        -1.508655      0.518965     -0.720753
    total drift:                               -0.129270      0.203661     -0.099137

  FREE ENERGIE OF THE ION-ELECTRON SYSTEM (eV)
  free  energy   TOTEN  =      -472.85591736 eV

  energy  without entropy=     -471.76415374  energy(sigma->0) =     -472.31003555