 vasp.5.4.4.18Apr17-6-g9f103f2a35 (build Aug 13 2019 17:33:20) gamma-only

 executed on             LinuxIFC date 2020.05.12  04:23:52

 INCAR:
 POTCAR:    PAW_PBE Ni_pv 06Sep2000
 POTCAR:    PAW_PBE S 06Sep2000
 POTCAR:    PAW_PBE Ni_pv 06Sep2000
   VRHFIN =Ni:

   TITEL  = PAW_PBE Ni_pv 06Sep2000
   POMASS =   58.690; ZVAL   =   16.000    mass and valenz
   ENMAX  =  367.986; ENMIN  =  275.989 eV

 POTCAR:    PAW_PBE S 06Sep2000
   VRHFIN =S : s2p4

   TITEL  = PAW_PBE S 06Sep2000
   POMASS =   32.066; ZVAL   =    6.000    mass and valenz
   ENMAX  =  258.689; ENMIN  =  194.016 eV

 Optimization of the real space projectors (new method)

 maximal supplied QI-value         = 18.90
 optimisation between [QCUT,QGAM] = [ 10.77, 21.73] = [ 32.49,132.25] Ry
 Optimized for a Real-space Cutoff    1.38 Angstroem

   l    n(q)    QCUT    max X(q) W(low)/X(q) W(high)/X(q)  e(spline)
   1      8    10.771     2.836    0.40E-04    0.29E-04    0.12E-06
   1      8    10.771     4.023    0.10E-03    0.48E-04    0.29E-06
   2      8    10.771    73.368    0.42E-03    0.97E-04    0.44E-06
   2      8    10.771    69.010    0.42E-03    0.99E-04    0.45E-06
   0      9    10.771    54.797    0.10E-03    0.56E-04    0.74E-07
   0      9    10.771    24.266    0.89E-04    0.49E-04    0.67E-07
 Optimization of the real space projectors (new method)

 maximal supplied QI-value         = 19.84
 optimisation between [QCUT,QGAM] = [ 10.71, 21.63] = [ 32.15,130.99] Ry
 Optimized for a Real-space Cutoff    1.19 Angstroem

   l    n(q)    QCUT    max X(q) W(low)/X(q) W(high)/X(q)  e(spline)
   0      8    10.715   187.594    0.41E-03    0.53E-04    0.66E-07
   0      8    10.715   164.243    0.41E-03    0.53E-04    0.65E-07
   1      7    10.715    67.533    0.19E-03    0.59E-03    0.68E-07
   1      7    10.715    50.729    0.19E-03    0.58E-03    0.67E-07
  PAW_PBE Ni_pv 06Sep2000               :
  PAW_PBE S 06Sep2000                   :

 POSCAR: Type_037 Type_137
  positions in cartesian coordinates
 exchange correlation table for  LEXCH =        8
   RHO(1)=    0.500       N(1)  =     2000
   RHO(2)=  100.500       N(2)  =     4000

 ion  position               nearest neighbor table
   1  0.780  0.145  0.123-  65 2.07  51 2.07  42 2.25  52 2.36  66 2.36
   2  0.802  0.145  0.285-  66 2.04  52 2.04  43 2.06
   3  0.223  0.645  0.098-  44 2.02  45 2.18  63 2.24  53 2.24   4 2.34
   4  0.297  0.645  0.216-  54 2.16  64 2.16  45 2.25  53 2.26  63 2.26   3 2.34  28 2.53  15 2.53

   5  0.470  0.145  0.247-  69 2.13  55 2.13  56 2.13  70 2.13  48 2.25  31 2.53  18 2.53
   6  0.952  0.645  0.154-  58 2.07  68 2.07  49 2.25  57 2.36  67 2.36  32 2.53  19 2.53
   7  0.973  0.645  0.317-  46 2.05  67 2.06  57 2.06  50 2.10
   8  0.182  0.145  0.049-  47 2.01  73 2.06  59 2.06   9 2.47
   9  0.125  0.145  0.185-  73 2.14  59 2.14  39 2.25  10 2.36  60 2.36  74 2.36   8 2.47  34 2.53
                            21 2.53
  10  0.109  0.145  0.326-  38 2.02  74 2.12  60 2.12   9 2.36
  11  0.642  0.645  0.278-  62 2.01  72 2.01  41 2.25  61 2.33  71 2.33  37 2.53  24 2.53
  12  0.911  0.004  0.120-  65 2.06  58 2.10  66 2.10  39 2.19
  13  0.944  0.012  0.270-  38 2.06  39 2.09  57 2.18  66 2.18
  14  0.400  0.520  0.046-  63 2.01  40 2.02  27 2.40  15 2.47
  15  0.425  0.513  0.192-  55 2.10  64 2.13  40 2.14  63 2.26  41 2.36  16 2.37  14 2.47   4 2.53
                            28 2.53
  16  0.470  0.456  0.322-  56 1.99  41 2.07  64 2.07  15 2.37
  17  0.558  0.019  0.082-  69 2.02  42 2.04  30 2.41  18 2.44
  18  0.597  0.013  0.222-  70 2.08  43 2.13  69 2.14  61 2.22  42 2.26  17 2.44  31 2.53   5 2.53

  19  0.080  0.513  0.130-  44 2.05  68 2.09  59 2.15  67 2.36  45 2.36   6 2.53  32 2.53
  20  0.112  0.507  0.296-  46 2.05  67 2.06  45 2.09  60 2.16
  21  0.252  0.013  0.161-  47 2.07  73 2.13  53 2.25  48 2.36  74 2.36  22 2.51   9 2.53  34 2.53

[...]

  25  0.911  0.286  0.120-  51 2.06  68 2.10  52 2.10  39 2.19
  26  0.944  0.278  0.270-  38 2.06  39 2.09  67 2.18  52 2.18
  27  0.400  0.770  0.046-  53 2.01  40 2.02  14 2.40  28 2.47
  28  0.425  0.777  0.192-  69 2.10  54 2.13  40 2.14  53 2.26  41 2.36  29 2.37  27 2.47   4 2.53
                            15 2.53
  29  0.470  0.834  0.322-  70 1.99  41 2.07  54 2.07  28 2.37
  30  0.558  0.271  0.082-  55 2.02  42 2.04  17 2.41  31 2.44
  31  0.597  0.277  0.222-  56 2.08  43 2.13  55 2.14  71 2.22  42 2.26  30 2.44  18 2.53   5 2.53

[...]

  38  0.992  0.145  0.355-  10 2.02  26 2.06  13 2.06
  39  0.991  0.145  0.183-  26 2.09  13 2.09  25 2.19  12 2.19   9 2.25
  40  0.478  0.645  0.103-  14 2.02  27 2.02  28 2.14  15 2.14
  41  0.509  0.645  0.276-  16 2.07  29 2.07  11 2.25  28 2.36  15 2.36
  42  0.647  0.145  0.122-  17 2.04  30 2.04   1 2.25  18 2.26  31 2.26  43 2.72
  43  0.680  0.145  0.282-   2 2.06  18 2.13  31 2.13  42 2.72
  44  0.117  0.645  0.040-   3 2.02  19 2.05  32 2.05
  45  0.164  0.645  0.214-  33 2.09  20 2.09   3 2.18   4 2.25  32 2.36  19 2.36
  46  0.076  0.645  0.382-   7 2.05  20 2.05  33 2.05
  47  0.299  0.145  0.074-   8 2.01  21 2.07  34 2.07
  48  0.336  0.145  0.245-  22 2.03  35 2.03   5 2.25  34 2.36  21 2.36
  49  0.819  0.645  0.153-  23 2.22  36 2.22   6 2.25  24 2.26  37 2.26  50 2.75
  50  0.849  0.645  0.315-   7 2.10  24 2.11  37 2.11  49 2.75
  51  0.818  0.292  0.040-  23 2.02  25 2.06   1 2.07
  52  0.829  0.314  0.215-   2 2.04  25 2.10  23 2.13  26 2.18  24 2.25   1 2.36
  53  0.312  0.814  0.122-  27 2.01   3 2.24  21 2.25   4 2.26  28 2.26
  54  0.352  0.793  0.296-  22 2.04  29 2.07  28 2.13   4 2.16
  55  0.484  0.323  0.172-  30 2.02  15 2.10   5 2.13  31 2.14  56 2.76
  56  0.531  0.279  0.328-  16 1.99  31 2.08   5 2.13  70 2.56  55 2.76
  57  0.001  0.814  0.246-   7 2.06  33 2.06  13 2.18  32 2.36   6 2.36  58 2.77
  58  0.968  0.821  0.083-   6 2.07  32 2.09  12 2.10  57 2.77
  59  0.141  0.320  0.107-   8 2.06  34 2.13   9 2.14  19 2.15
  60  0.174  0.314  0.276-  35 2.05  10 2.12  20 2.16   9 2.36  34 2.36
  61  0.668  0.826  0.188-  37 2.09  36 2.18  18 2.22  11 2.33  62 2.73
  62  0.695  0.788  0.349-  11 2.01  37 2.03  61 2.73  72 2.74
  63  0.312  0.477  0.122-  14 2.01   3 2.24  34 2.25   4 2.26  15 2.26
  64  0.352  0.497  0.296-  35 2.04  16 2.07  15 2.13   4 2.16
  65  0.818  0.998  0.040-  36 2.02  12 2.06   1 2.07
  66  0.829  0.977  0.215-   2 2.04  12 2.10  36 2.13  13 2.18  37 2.25   1 2.36
  67  0.001  0.477  0.246-   7 2.06  20 2.06  26 2.18  19 2.36   6 2.36  68 2.77
  68  0.968  0.470  0.083-   6 2.07  19 2.09  25 2.10  67 2.77
  69  0.484  0.968  0.172-  17 2.02  28 2.10   5 2.13  18 2.14  70 2.76
  70  0.531  0.012  0.328-  29 1.99  18 2.08   5 2.13  56 2.56  69 2.76
  71  0.668  0.464  0.188-  24 2.09  23 2.18  31 2.22  11 2.33  72 2.73
  72  0.695  0.502  0.349-  11 2.01  24 2.03  71 2.73  62 2.74
  73  0.141  0.970  0.107-   8 2.06  21 2.13   9 2.14  32 2.15
  74  0.174  0.977  0.276-  22 2.05  10 2.12  33 2.16   9 2.36  21 2.36

  LATTYP: Found a simple orthorhombic cell.
 ALAT       =     9.5784100000
 B/A-ratio  =     1.7387693453
 C/A-ratio  =     1.7627867312

  Lattice vectors:

 A1 = (   0.0000000000,   9.5784100000,   0.0000000000)
 A2 = (   0.0000000000,   0.0000000000, -16.6546456851)
 A3 = ( -16.8846940542,   0.0000000000,   0.0000000000)

Analysis of symmetry for initial positions (statically):
 Subroutine PRICEL returns:
 Original cell was already a primitive cell.

 Routine SETGRP: Setting up the symmetry group for a
 simple orthorhombic supercell.

 Subroutine GETGRP returns: Found  2 space group operations
 (whereof  1 operations were pure point group operations)
 out of a pool of  8 trial point group operations.

The static configuration has the point symmetry C_1 .
 The point group associated with its full space group is C_1h.

Analysis of symmetry for dynamics (positions and initial velocities):
 Subroutine PRICEL returns:
 Original cell was already a primitive cell.

 Routine SETGRP: Setting up the symmetry group for a
 simple orthorhombic supercell.

 Subroutine GETGRP returns: Found  2 space group operations
 (whereof  1 operations were pure point group operations)
 out of a pool of  8 trial point group operations.

The dynamic configuration has the point symmetry C_1 .
 The point group associated with its full space group is C_1h.

 Subroutine INISYM returns: Found  2 space group operations
 (whereof  1 operations are pure point group operations),
 and found     1 'primitive' translations

 KPOINTS: gamma-point-only calculation. no periodi

Automatic generation of k-mesh.
Space group operators:
 irot       det(A)        alpha          n_x          n_y          n_z        tau_x        tau_y        tau_z
    1     1.000000     0.000000     1.000000     0.000000     0.000000     0.000000     0.000000     0.000000
    2    -1.000000   180.000000     0.000000     1.000000     0.000000     0.000000     0.290594     0.000000

 Subroutine IBZKPT returns following result:

 Found      1 irreducible k-points:

 Following reciprocal coordinates:
            Coordinates               Weight
  0.000000  0.000000  0.000000      1.000000

 Following cartesian coordinates:
            Coordinates               Weight
  0.000000  0.000000  0.000000      1.000000

 SYSTEM =  "Millerite NiS"
 POSCAR =  Type_037 Type_137

 Startparameter for this run:
   NWRITE =      2    write-flag & timer
   PREC   = normal    normal or accurate (medium, high low for compatibility)
   ISTART =      0    job   : 0-new  1-cont  2-samecut
   ICHARG =      2    charge: 1-file 2-atom 10-const
   ISPIN  =      1    spin polarized calculation?
   LNONCOLLINEAR =      F non collinear calculations
   LSORBIT =      F    spin-orbit coupling
   INIWAV =      1    electr: 0-lowe 1-rand  2-diag
   LASPH  =      F    aspherical Exc in radial PAW
   METAGGA=      F    non-selfconsistent MetaGGA calc.

 Electronic Relaxation 1
   ENCUT  =  450.0 eV  33.07 Ry    5.75 a.u.  29.20 16.57 28.81*2*pi/ulx,y,z
   ENINI  =  450.0     initial cutoff
   ENAUG  =  703.4 eV  augmentation charge cutoff
   NELM   =    100;   NELMIN=  2; NELMDL= -5     # of ELM steps
   EDIFF  = 0.1E-03   stopping-criterion for ELM
   LREAL  =      T    real-space projection
   NLSPLINE    = F    spline interpolate recip. space projectors
   LCOMPAT=      F    compatible to vasp.4.4
   GGA_COMPAT  = T    GGA compatible to vasp.4.4-vasp.4.6
   LMAXPAW     = -100 max onsite density
   LMAXMIX     =    2 max onsite mixed and CHGCAR
   VOSKOWN=      0    Vosko Wilk Nusair interpolation
   ROPT   =   -0.00050  -0.00050
 Ionic relaxation
   EDIFFG = 0.1E-02   stopping-criterion for IOM
   NSW    =      0    number of steps for IOM
   NBLOCK =      1;   KBLOCK =      1    inner block; outer block
   IBRION =     -1    ionic relax: 0-MD 1-quasi-New 2-CG
   NFREE  =      0    steps in history (QN), initial steepest desc. (CG)
   ISIF   =      2    stress and relaxation
   IWAVPR =     10    prediction:  0-non 1-charg 2-wave 3-comb
   ISYM   =      2    0-nonsym 1-usesym 2-fastsym
   LCORR  =      T    Harris-Foulkes like correction to forces

   POTIM  = 0.5000    time-step for ionic-motion
   TEIN   =    0.0    initial temperature
[...]
     0.000000000  9.578410000  0.000000000     0.000000000  0.104401461  0.000000000
     0.000000000  0.000000000 16.654645685     0.000000000  0.000000000  0.060043307

  length of vectors
    16.884694054  9.578410000 16.654645685     0.059225237  0.104401461  0.060043307

 FORCES acting on ions
    electron-ion (+dipol)            ewald-force                    non-local-force                 convergence-correction
   0.746E+03 -.949E-03 0.208E+04   -.750E+03 0.103E-07 -.208E+04   0.387E+01 0.000E+00 0.572E+01   -.117E+00 0.864E-06 -.289E+00
   0.520E+03 -.835E-03 -.295E+04   -.523E+03 0.171E-07 0.294E+04   0.269E+01 0.000E+00 0.117E+01   0.938E-01 0.561E-06 -.260E-02
   -.542E+02 -.667E-03 0.296E+04   0.537E+02 0.113E-07 -.296E+04   0.140E+01 0.000E+00 0.613E+01   -.391E-01 -.139E-05 -.345E+00
   0.241E+03 -.853E-03 -.104E+04   -.242E+03 -.222E-07 0.104E+04   0.136E+01 0.000E+00 -.276E+01   -.154E+00 -.103E-05 -.194E+00
   0.419E+03 -.694E-03 -.127E+04   -.425E+03 0.649E-07 0.127E+04   0.507E+01 0.000E+00 -.439E+00   -.200E+00 0.577E-07 -.347E+00
   0.738E+03 -.802E-03 0.140E+04   -.744E+03 -.311E-07 -.140E+04   0.501E+01 0.000E+00 0.496E+01   0.145E+00 -.136E-05 -.207E+00
   0.698E+03 -.964E-03 -.322E+04   -.704E+03 -.208E-07 0.322E+04   0.418E+01 0.000E+00 -.374E+01   0.145E+00 -.103E-05 0.635E-01
   0.224E+03 -.933E-03 0.419E+04   -.223E+03 0.458E-08 -.420E+04   -.162E+01 0.000E+00 0.520E+01   0.136E+00 -.109E-05 -.383E+00
   0.586E+03 -.811E-03 0.422E+03   -.591E+03 0.112E-07 -.420E+03   0.361E+01 0.000E+00 -.437E+00   0.449E+00 0.919E-06 -.988E+00
   -.161E+02 -.799E-03 -.353E+04   0.131E+02 0.923E-08 0.353E+04   0.379E+01 0.000E+00 0.199E+00   0.115E+00 0.862E-06 -.144E+00
   0.513E+03 -.896E-03 -.169E+04   -.520E+03 -.237E-07 0.169E+04   0.555E+01 0.000E+00 -.234E+01   -.120E+00 -.199E-07 -.131E+00
   -.350E+03 0.237E+03 0.247E+04   0.356E+03 -.239E+03 -.247E+04   -.551E+01 0.258E+01 0.595E+01   0.298E+00 0.644E-01 -.252E+00
   0.144E+03 0.482E+03 -.227E+04   -.142E+03 -.485E+03 0.228E+04   -.266E+01 0.206E+01 -.386E+01   0.354E+00 0.925E-01 -.377E-01
   -.405E+03 0.658E+03 0.385E+04   0.405E+03 -.652E+03 -.384E+04   0.923E+00 -.655E+01 -.174E+01   -.139E+00 -.200E+00 -.302E+00
   -.571E+03 0.388E+03 0.303E+03   0.572E+03 -.390E+03 -.304E+03   -.670E+00 0.216E+01 0.595E+00   -.895E-01 -.228E+00 -.300E+00
   -.321E+03 0.408E+02 -.337E+04   0.325E+03 -.424E+02 0.337E+04   -.391E+01 0.255E+01 -.108E+01   -.123E+00 -.107E+00 0.585E-01
   -.188E+02 0.593E+03 0.340E+04   0.166E+02 -.589E+03 -.340E+04   0.224E+01 -.503E+01 -.560E+00   -.192E+00 0.256E+00 -.300E+00
   -.453E+03 0.555E+03 -.777E+03   0.458E+03 -.560E+03 0.779E+03   -.321E+01 0.511E+01 -.199E+01   -.204E+00 0.907E-01 -.456E+00
   0.657E+02 0.539E+03 0.203E+04   -.671E+02 -.542E+03 -.203E+04   0.133E+01 0.277E+01 0.482E+01   0.301E+00 -.414E+00 -.320E+00
   -.332E+03 0.404E+03 -.271E+04   0.334E+03 -.410E+03 0.272E+04   -.173E+01 0.449E+01 -.362E+01   0.997E-01 -.234E+00 -.716E-01
   -.538E+03 0.443E+03 0.111E+04   0.541E+03 -.448E+03 -.111E+04   -.197E+01 0.296E+01 0.186E+01   -.470E+00 0.674E+00 -.105E+01
   -.227E+03 0.830E+02 -.312E+04   0.227E+03 -.858E+02 0.312E+04   -.666E+00 0.238E+01 0.226E+01   -.189E+00 0.191E+00 -.149E+00
   0.618E+03 -.544E+03 0.260E+04   -.621E+03 0.547E+03 -.261E+04   0.258E+01 -.188E+01 0.893E+01   -.429E-01 -.397E-01 -.291E+00
   0.266E+02 0.251E+03 -.163E+04   -.230E+02 -.253E+03 0.164E+04   -.240E+01 0.191E+01 -.569E+01   0.956E-01 -.864E-01 -.174E+00
   -.350E+03 -.237E+03 0.247E+04   0.356E+03 0.239E+03 -.247E+04   -.551E+01 -.258E+01 0.595E+01   0.298E+00 -.644E-01 -.252E+00
   0.144E+03 -.482E+03 -.227E+04   -.142E+03 0.485E+03 0.228E+04   -.266E+01 -.206E+01 -.386E+01   0.354E+00 -.925E-01 -.377E-01
   -.405E+03 -.658E+03 0.385E+04   0.405E+03 0.652E+03 -.384E+04   0.923E+00 0.655E+01 -.174E+01   -.139E+00 0.200E+00 -.302E+00
   -.571E+03 -.388E+03 0.303E+03   0.572E+03 0.390E+03 -.304E+03   -.670E+00 -.216E+01 0.595E+00   -.895E-01 0.228E+00 -.300E+00
   -.321E+03 -.408E+02 -.337E+04   0.325E+03 0.424E+02 0.337E+04   -.391E+01 -.255E+01 -.108E+01   -.123E+00 0.107E+00 0.585E-01
   -.188E+02 -.593E+03 0.340E+04   0.166E+02 0.589E+03 -.340E+04   0.224E+01 0.503E+01 -.560E+00   -.192E+00 -.256E+00 -.300E+00
   -.453E+03 -.555E+03 -.777E+03   0.458E+03 0.560E+03 0.779E+03   -.321E+01 -.511E+01 -.199E+01   -.204E+00 -.907E-01 -.456E+00
   0.657E+02 -.539E+03 0.203E+04   -.671E+02 0.542E+03 -.203E+04   0.133E+01 -.277E+01 0.482E+01   0.301E+00 0.414E+00 -.320E+00
   -.332E+03 -.404E+03 -.271E+04   0.334E+03 0.410E+03 0.272E+04   -.173E+01 -.449E+01 -.362E+01   0.997E-01 0.234E+00 -.716E-01
   -.538E+03 -.443E+03 0.111E+04   0.541E+03 0.448E+03 -.111E+04   -.197E+01 -.296E+01 0.186E+01   -.470E+00 -.674E+00 -.105E+01
   -.227E+03 -.830E+02 -.312E+04   0.227E+03 0.858E+02 0.312E+04   -.666E+00 -.238E+01 0.226E+01   -.189E+00 -.191E+00 -.149E+00
   0.618E+03 0.544E+03 0.260E+04   -.621E+03 -.547E+03 -.261E+04   0.258E+01 0.188E+01 0.893E+01   -.429E-01 0.397E-01 -.291E+00
   0.266E+02 -.251E+03 -.163E+04   -.230E+02 0.253E+03 0.164E+04   -.240E+01 -.191E+01 -.569E+01   0.956E-01 0.864E-01 -.174E+00
   0.124E+03 -.319E-04 -.163E+04   -.123E+03 0.185E-07 0.164E+04   -.141E+01 0.000E+00 -.154E+01   0.180E+00 0.279E-06 0.610E-02
   -.188E+03 -.168E-04 0.360E+03   0.190E+03 0.851E-08 -.363E+03   -.106E+00 0.000E+00 0.586E+00   0.242E+00 0.453E-06 -.105E+00
   -.732E+03 -.609E-05 0.955E+03   0.739E+03 -.162E-06 -.957E+03   -.344E+01 0.000E+00 0.462E+00   -.236E-01 -.260E-06 -.156E+00
   -.294E+03 0.310E-04 -.683E+03   0.296E+03 -.142E-07 0.686E+03   -.348E+00 0.000E+00 -.170E+01   -.567E-01 0.100E-07 -.722E-02
   -.237E+03 -.474E-05 0.876E+03   0.239E+03 0.166E-07 -.879E+03   0.265E+00 0.000E+00 0.976E+00   -.196E+00 0.192E-06 -.185E+00
   -.515E+02 0.520E-05 -.106E+04   0.526E+02 0.166E-07 0.106E+04   -.531E+00 0.000E+00 -.235E+01   -.471E-01 0.570E-07 -.337E-01
   0.862E+02 -.961E-06 0.173E+04   -.864E+02 0.150E-07 -.174E+04   0.247E+00 0.000E+00 0.185E+01   0.660E-01 -.444E-06 -.110E+00
   -.158E+03 0.328E-04 -.235E+03   0.159E+03 0.123E-07 0.237E+03   0.107E+01 0.000E+00 -.318E+01   0.186E-01 -.429E-06 -.893E-01
   -.688E+02 -.755E-05 -.178E+04   0.693E+02 -.250E-08 0.178E+04   0.222E+00 0.000E+00 -.768E+00   0.325E-01 -.271E-06 0.800E-01
   -.545E+03 -.999E-05 0.136E+04   0.550E+03 0.316E-07 -.137E+04   -.113E+01 0.000E+00 0.959E+00   -.527E+00 0.372E-06 -.248E+00
   -.276E+03 -.321E-05 -.389E+03   0.278E+03 0.147E-07 0.391E+03   -.387E-01 0.000E+00 -.222E+01   -.917E-01 0.235E-06 -.173E+00
   0.838E+02 0.104E-04 0.723E+03   -.828E+02 -.441E-08 -.727E+03   -.355E+00 0.000E+00 0.135E+01   0.128E-01 -.341E-06 -.102E+00
   0.223E+02 -.326E-05 -.127E+04   -.211E+02 0.467E-08 0.127E+04   -.242E+00 0.000E+00 -.188E+01   0.577E-01 -.222E-06 0.246E-01
   0.117E+03 -.108E+03 0.172E+04   -.117E+03 0.109E+03 -.172E+04   -.411E+00 -.630E-01 0.262E+01   -.611E-03 -.368E-03 -.101E+00
   0.154E+03 -.153E+03 -.343E+03   -.154E+03 0.153E+03 0.347E+03   -.582E+00 0.863E+00 -.201E+01   0.330E-01 0.796E-02 -.645E-01
   0.553E+02 -.258E+03 0.808E+03   -.562E+02 0.260E+03 -.811E+03   -.642E+00 -.691E+00 0.324E+01   -.806E-01 0.155E+00 -.173E+00
   0.105E+03 0.537E+02 -.118E+04   -.106E+03 -.527E+02 0.118E+04   -.246E+00 -.662E+00 -.254E+01   -.476E-01 0.517E-01 0.122E-01
   0.102E+03 -.594E+02 0.428E+03   -.104E+03 0.578E+02 -.432E+03   0.945E+00 0.192E+01 0.226E+01   -.122E-01 -.106E+00 -.214E+00
   -.170E+03 0.448E+02 -.145E+04   0.172E+03 -.433E+02 0.145E+04   -.146E+01 -.135E+01 -.276E+01   -.605E-01 -.150E-01 0.897E-02
   0.171E+03 -.177E+03 -.440E+03   -.173E+03 0.179E+03 0.440E+03   0.957E-01 -.926E+00 -.856E+00   0.779E-01 0.714E-01 -.467E-01
   0.131E+03 -.461E+02 0.137E+04   -.133E+03 0.454E+02 -.137E+04   0.942E+00 0.126E+01 0.421E+01   0.107E+00 0.611E-01 -.105E+00
   0.183E+03 -.184E+03 0.105E+04   -.185E+03 0.185E+03 -.106E+04   0.650E-01 0.487E+00 0.154E+01   0.216E+00 -.512E+00 -.354E+00
   0.156E+02 -.130E+03 -.843E+03   -.157E+02 0.131E+03 0.844E+03   -.309E+00 -.136E+01 -.614E+00   -.500E-01 -.162E+00 -.101E+00
   0.257E+03 0.113E+03 0.351E+03   -.260E+03 -.114E+03 -.354E+03   0.107E+01 0.598E+00 0.207E+01   -.429E-01 0.568E-01 -.144E+00
   0.525E+02 -.224E+03 -.152E+04   -.536E+02 0.228E+03 0.152E+04   0.691E+00 -.241E+01 -.111E+01   0.117E-02 0.523E-01 0.696E-01
   0.553E+02 0.258E+03 0.808E+03   -.562E+02 -.260E+03 -.811E+03   -.642E+00 0.691E+00 0.324E+01   -.806E-01 -.155E+00 -.173E+00
   0.105E+03 -.537E+02 -.118E+04   -.106E+03 0.527E+02 0.118E+04   -.246E+00 0.662E+00 -.254E+01   -.476E-01 -.517E-01 0.122E-01
   0.117E+03 0.108E+03 0.172E+04   -.117E+03 -.109E+03 -.172E+04   -.411E+00 0.630E-01 0.262E+01   -.611E-03 0.369E-03 -.101E+00
   0.154E+03 0.153E+03 -.343E+03   -.154E+03 -.153E+03 0.347E+03   -.582E+00 -.863E+00 -.201E+01   0.330E-01 -.796E-02 -.645E-01
   0.171E+03 0.177E+03 -.440E+03   -.173E+03 -.179E+03 0.440E+03   0.957E-01 0.926E+00 -.856E+00   0.779E-01 -.714E-01 -.467E-01
   0.131E+03 0.461E+02 0.137E+04   -.133E+03 -.454E+02 -.137E+04   0.942E+00 -.126E+01 0.421E+01   0.107E+00 -.611E-01 -.105E+00
   0.102E+03 0.594E+02 0.428E+03   -.104E+03 -.578E+02 -.432E+03   0.945E+00 -.192E+01 0.226E+01   -.122E-01 0.106E+00 -.214E+00
   -.170E+03 -.448E+02 -.145E+04   0.172E+03 0.433E+02 0.145E+04   -.146E+01 0.135E+01 -.276E+01   -.605E-01 0.150E-01 0.897E-02
   0.257E+03 -.113E+03 0.351E+03   -.260E+03 0.114E+03 -.354E+03   0.107E+01 -.598E+00 0.207E+01   -.429E-01 -.568E-01 -.144E+00
   0.525E+02 0.224E+03 -.152E+04   -.536E+02 -.228E+03 0.152E+04   0.691E+00 0.241E+01 -.111E+01   0.117E-02 -.523E-01 0.696E-01
   0.183E+03 0.184E+03 0.105E+04   -.185E+03 -.185E+03 -.106E+04   0.650E-01 -.487E+00 0.154E+01   0.216E+00 0.512E+00 -.354E+00
   0.156E+02 0.130E+03 -.843E+03   -.157E+02 -.131E+03 0.844E+03   -.309E+00 0.136E+01 -.614E+00   -.500E-01 0.162E+00 -.101E+00
   0.214E+01 -.894E-02 -.161E+02   -.207E-11 0.739E-12 -.659E-11   -.187E+01 -.422E-14 0.301E+02   -.201E+00 -.225E-05 -.138E+02

 POSITION                                       TOTAL-FORCE (eV/Angst)
     13.17084      1.39171      2.05636        -0.059544      0.000000      0.934036
     13.54342      1.39171      4.74166        -0.016916      0.000000      0.682598
      3.76340      6.18092      1.62693         0.852997      0.000000     -0.128616
      5.02033      6.18092      3.59863         0.232416      0.000000      0.228119
      7.93172      1.39171      4.11272        -0.975042      0.000000      0.165734
     16.08224      6.18092      2.57045        -0.407863      0.000000      2.278264
     16.43704      6.18092      5.27981        -1.558416      0.000000      0.285925
      3.07982      1.39171      0.81582        -0.981666      0.000000     -2.011241
      2.10894      1.39171      3.08454        -0.974733      0.000000      0.455606
      1.83557      1.39171      5.42901         0.916072      0.000000      0.928150
     10.84312      6.18092      4.62682        -1.734456      0.000000     -3.020863
     15.37676      0.03945      2.00651         0.909959      0.546126      0.132748
     15.94018      0.11880      4.50076        -0.944318     -0.909910     -0.007456
      6.76229      4.98203      0.75839         0.050031     -0.777760     -1.328869
      7.17375      4.91558      3.19116        -0.214240      0.176054     -0.448577
      7.93865      4.37193      5.36413        -0.583054      0.869205      1.141083
      9.41818      0.18590      1.35877        -0.151656     -0.357807     -1.329672
     10.08514      0.12638      3.70525         1.442547     -0.609085     -0.545995
      1.35096      4.91558      2.16298         0.243752     -0.538438      1.564159
      1.88833      4.85845      4.92325         1.158689     -1.310712      0.482231
      4.26235      0.12638      2.67707         0.640923     -1.249950      1.311097
      4.93219      9.36437      5.07555         0.119490     -0.175484      1.172202
     13.11015      4.14603      2.00720        -0.476711      0.772358      0.258632
     12.99653      4.91558      4.21934         1.271601     -0.221279     -0.556051
     15.37676      2.74398      2.00651         0.909959     -0.546126      0.132748
     15.94018      2.66462      4.50076        -0.944318      0.909910     -0.007456
      6.76229      7.37981      0.75839         0.050031      0.777760     -1.328869
      7.17375      7.44626      3.19116        -0.214240     -0.176054     -0.448577
      7.93865      7.98991      5.36413        -0.583054     -0.869205      1.141083
      9.41818      2.59753      1.35877        -0.151656      0.357807     -1.329672
     10.08514      2.65705      3.70525         1.442547      0.609085     -0.545995
      1.35096      7.44626      2.16298         0.243752      0.538438      1.564159
      1.88833      7.50339      4.92325         1.158689      1.310712      0.482231
      4.26235      2.65705      2.67707         0.640923      1.249950      1.311097
      4.93219      2.99747      5.07555         0.119490      0.175484      1.172202
     13.11015      8.21581      2.00720        -0.476711     -0.772358      0.258632
     12.99653      7.44626      4.21934         1.271601      0.221279     -0.556051
     16.75314      1.39171      5.90616        -0.189683      0.000000      3.191667
     16.74052      1.39171      3.05601         1.897911      0.000000     -2.416662
      8.07388      6.18092      1.71169         3.430162      0.000000     -1.637136
      8.59001      6.18092      4.59828         2.014721      0.000000      0.872809
     10.91773      1.39171      2.02783         1.226878      0.000000     -1.922000
     11.48055      1.39171      4.69107         0.604115      0.000000      2.517449
      1.97928      6.18092      0.67149         0.080900      0.000000     -4.068692
      2.76722      6.18092      3.57010         1.673463      0.000000     -0.949822
      1.28523      6.18092      6.36621         0.681394      0.000000      4.201003
      5.04302      1.39171      1.23842         3.102644      0.000000     -2.772922
      5.67861      1.39171      4.08419         1.029745      0.000000     -0.085314
     13.82913      6.18092      2.54192         0.661572      0.000000     -1.968777
     14.34165      6.18092      5.24580         0.993899      0.000000      2.584612
     13.80805      2.79869      0.67089        -0.350009      0.861340     -3.921467
     13.99844      3.00295      3.57488        -0.312995      1.099653      1.779253
      5.26426      7.79215      2.03261        -1.634194      0.951042     -0.458126
      5.95183      7.60012      4.92879        -1.415066      0.343954      2.053078
      8.16658      3.09424      2.85853        -1.080108      0.220279     -1.706123
      8.97394      2.67288      5.46363         0.473781      0.210543      2.913410
      0.02514      7.79215      4.08897        -1.114922      1.617056     -0.655739
     16.34133      7.85964      1.38375        -0.381235      0.638135     -2.918682
      2.37440      3.06773      1.77511        -1.046860      0.760260     -1.409282
      2.93654      3.00295      4.60306        -0.473748      0.076454      0.682865
     11.27401      7.91538      3.13928        -1.962816     -0.103858     -1.042707
     11.73076      7.54955      5.80422        -0.419126      1.195613      3.666028
      5.26426      4.56969      2.03261        -1.634194     -0.951042     -0.458126
      5.95183      4.76172      4.92879        -1.415066     -0.343954      2.053078
     13.80805      9.56315      0.67089        -0.350009     -0.861340     -3.921467
     13.99844      9.35889      3.57488        -0.312995     -1.099653      1.779253
      0.02514      4.56969      4.08897        -1.114922     -1.617056     -0.655739
     16.34133      4.50220      1.38375        -0.381235     -0.638135     -2.918682
      8.16658      9.26760      2.85853        -1.080108     -0.220279     -1.706123
      8.97394      0.11055      5.46363         0.473781     -0.210543      2.913410
     11.27401      4.44646      3.13928        -1.962816      0.103858     -1.042707
     11.73076      4.81229      5.80422        -0.419126     -1.195613      3.666028
      2.37440      9.29411      1.77511        -1.046860     -0.760260     -1.409282
      2.93654      9.35889      4.60306        -0.473748     -0.076454      0.682865
    total drift:                                0.066323     -0.008946      0.208485

  FREE ENERGIE OF THE ION-ELECTRON SYSTEM (eV)
  free  energy   TOTEN  =      -350.43627594 eV

  energy  without entropy=     -349.32873985  energy(sigma->0) =     -349.88250789