 vasp.5.4.4.18Apr17-6-g9f103f2a35 (build Aug 13 2019 17:33:20) gamma-only

 executed on             LinuxIFC date 2020.05.12  21:55:59

 INCAR:
 POTCAR:    PAW_PBE Ni_pv 06Sep2000
 POTCAR:    PAW_PBE S 06Sep2000
 POTCAR:    PAW_PBE Ni_pv 06Sep2000
   VRHFIN =Ni:

   TITEL  = PAW_PBE Ni_pv 06Sep2000
   POMASS =   58.690; ZVAL   =   16.000    mass and valenz
   ENMAX  =  367.986; ENMIN  =  275.989 eV

 POTCAR:    PAW_PBE S 06Sep2000
   VRHFIN =S : s2p4

   TITEL  = PAW_PBE S 06Sep2000
   POMASS =   32.066; ZVAL   =    6.000    mass and valenz
   ENMAX  =  258.689; ENMIN  =  194.016 eV

 Optimization of the real space projectors (new method)

 maximal supplied QI-value         = 18.90
 optimisation between [QCUT,QGAM] = [ 10.77, 21.73] = [ 32.49,132.25] Ry
 Optimized for a Real-space Cutoff    1.38 Angstroem

   l    n(q)    QCUT    max X(q) W(low)/X(q) W(high)/X(q)  e(spline)
   1      8    10.771     2.836    0.40E-04    0.29E-04    0.12E-06
   1      8    10.771     4.023    0.10E-03    0.48E-04    0.29E-06
   2      8    10.771    73.368    0.42E-03    0.97E-04    0.44E-06
   2      8    10.771    69.010    0.42E-03    0.99E-04    0.45E-06
   0      9    10.771    54.797    0.10E-03    0.56E-04    0.74E-07
   0      9    10.771    24.266    0.89E-04    0.49E-04    0.67E-07
 Optimization of the real space projectors (new method)

 maximal supplied QI-value         = 19.84
 optimisation between [QCUT,QGAM] = [ 10.71, 21.63] = [ 32.15,130.99] Ry
 Optimized for a Real-space Cutoff    1.19 Angstroem

   l    n(q)    QCUT    max X(q) W(low)/X(q) W(high)/X(q)  e(spline)
   0      8    10.715   187.594    0.41E-03    0.53E-04    0.66E-07
   0      8    10.715   164.243    0.41E-03    0.53E-04    0.65E-07
   1      7    10.715    67.533    0.19E-03    0.59E-03    0.68E-07
   1      7    10.715    50.729    0.19E-03    0.58E-03    0.67E-07
  PAW_PBE Ni_pv 06Sep2000               :
  PAW_PBE S 06Sep2000                   :

 POSCAR: Type_036 Type_136
  positions in cartesian coordinates
 exchange correlation table for  LEXCH =        8
   RHO(1)=    0.500       N(1)  =     2000
   RHO(2)=  100.500       N(2)  =     4000

 ion  position               nearest neighbor table
   1  0.397  0.795  0.118-  49 2.04  61 2.11  42 2.25  50 2.36  62 2.36  21 2.40  25 2.41
   2  0.547  0.645  0.245-  43 2.25  62 2.26  50 2.26  63 2.36  51 2.36  26 2.53  13 2.53
   3  0.698  0.494  0.372-  44 2.25  51 2.26  63 2.26  52 2.36  64 2.36  14 2.53  27 2.53
   4  0.837  0.342  0.480-  52 2.00  64 2.00  24 2.47  15 2.49
   5  0.114  0.412  0.160-  53 2.07  68 2.07  45 2.25   8 2.27  54 2.36  65 2.36  28 2.53  16 2.53

   6  0.264  0.261  0.287-  46 2.25  65 2.26  54 2.26  55 2.36  66 2.36  17 2.53  29 2.53
   7  0.414  0.111  0.414-  56 2.10  67 2.18  55 2.26  66 2.26  47 2.34  30 2.53  18 2.53
   8  0.988  0.594  0.095-  48 2.00  45 2.13  53 2.17  68 2.23   5 2.27
   9  0.100  0.780  0.443-  58 2.04  72 2.09  59 2.12  37 2.13
  10  0.831  0.028  0.203-  70 2.09  60 2.12  39 2.25  57 2.36  71 2.36  36 2.49  22 2.53  32 2.53

[...]

  19  0.433  0.706  0.458-  59 2.05  44 2.10  67 2.22  18 2.34
  20  0.084  0.511  0.410-  46 2.03  72 2.14  52 2.22  47 2.29  34 2.51
  21  0.574  0.899  0.098-  69 2.06  49 2.07  70 2.13  50 2.24   1 2.40  36 2.52  22 2.53
  22  0.791  0.804  0.169-  70 2.14  50 2.25  48 2.26  71 2.36  45 2.36  21 2.53  10 2.53  32 2.53
                            36 2.54
  23  0.941  0.653  0.296-  51 2.25  71 2.26  45 2.26  46 2.36  72 2.36  33 2.53  11 2.53
  24  0.026  0.165  0.417-  40 2.04  37 2.12  66 2.12  52 2.15   4 2.47
  25  0.584  0.595  0.073-  38 2.04  49 2.04  50 2.06   1 2.41
  26  0.732  0.460  0.178-  38 2.15  68 2.16  50 2.26  51 2.36  39 2.36  13 2.53   2 2.53
  27  0.882  0.310  0.305-  65 2.25  39 2.26  51 2.26  40 2.36  52 2.36   3 2.53  14 2.53
  28  0.299  0.227  0.093-  41 1.99  69 2.07  53 2.17  54 2.36  42 2.36   5 2.53  16 2.53
  29  0.449  0.076  0.220-  70 2.08  42 2.26  54 2.26  43 2.36  55 2.36  17 2.53   6 2.53
  30  0.599  0.926  0.347-  56 2.15  71 2.25  43 2.26  55 2.26  44 2.36  31 2.43   7 2.53  18 2.53

  31  0.734  0.818  0.443-  56 2.04  44 2.05  72 2.06  30 2.43
  32  0.015  0.843  0.136-  60 2.10  61 2.12  48 2.26  45 2.36  57 2.36  22 2.53  10 2.53
  33  0.166  0.693  0.263-  62 2.25  57 2.26  45 2.26  46 2.36  58 2.36  11 2.53  23 2.53
  34  0.316  0.543  0.390-  59 2.13  47 2.13  63 2.25  58 2.26  46 2.26  35 2.34  20 2.51
  35  0.446  0.433  0.481-  64 2.06  59 2.07  47 2.09  34 2.34
  36  0.768  1.000  0.089-  48 2.05  70 2.09  60 2.10  10 2.49  21 2.52  22 2.54  69 2.66
  37  0.004  0.996  0.471-  15 2.11  24 2.12   9 2.13  40 2.60
  38  0.576  0.419  0.118-  25 2.04  13 2.05  26 2.15  12 2.17
  39  0.736  0.256  0.235-  10 2.25  27 2.26  14 2.26  13 2.36  26 2.36
  40  0.886  0.105  0.362-  15 2.04  24 2.04  11 2.25  14 2.36  27 2.36  37 2.60
  41  0.147  0.198  0.039-  16 1.98  28 1.99
  42  0.303  0.023  0.151-   1 2.25  29 2.26  17 2.26  16 2.36  28 2.36
  43  0.453  0.872  0.278-   2 2.25  30 2.26  18 2.26  29 2.36  17 2.36
  44  0.603  0.722  0.405-  31 2.05  19 2.10   3 2.25  30 2.36  18 2.36  67 2.70
  45  0.019  0.639  0.193-   8 2.13   5 2.25  23 2.26  33 2.26  22 2.36  32 2.36
  46  0.170  0.489  0.320-  20 2.03   6 2.25  34 2.26  33 2.36  23 2.36
  47  0.307  0.355  0.433-  35 2.09  34 2.13  20 2.29   7 2.34
  48  0.869  0.789  0.066-   8 2.00  36 2.05  32 2.26  22 2.26
  49  0.496  0.791  0.032-  25 2.04   1 2.04  21 2.07
  50  0.636  0.692  0.151-  25 2.06  21 2.24  22 2.25  26 2.26   2 2.26   1 2.36
  51  0.787  0.542  0.278-  23 2.25   3 2.26  27 2.26  26 2.36   2 2.36
  52  0.937  0.391  0.405-   4 2.00  24 2.15  20 2.22   3 2.36  27 2.36
  53  0.205  0.454  0.077-   5 2.07  12 2.13   8 2.17  28 2.17
  54  0.353  0.308  0.193-  13 2.25   6 2.26  29 2.26  28 2.36   5 2.36
  55  0.503  0.158  0.320-  14 2.25   7 2.26  30 2.26   6 2.36  29 2.36  56 2.75
  56  0.634  0.032  0.433-  31 2.04   7 2.10  15 2.13  30 2.15  55 2.75
  57  0.070  0.925  0.236-  17 2.25  33 2.26  11 2.26  10 2.36  32 2.36
  58  0.220  0.775  0.363-   9 2.04  18 2.25  34 2.26  33 2.36  11 2.36
  59  0.280  0.626  0.485-  19 2.05  35 2.07   9 2.12  34 2.13
  60  0.936  0.063  0.119-  32 2.10  36 2.10  10 2.12  16 2.18
  61  0.214  0.757  0.088-   1 2.11  12 2.12  32 2.12  62 2.64
  62  0.350  0.641  0.194-  12 2.05  33 2.25  13 2.26   2 2.26   1 2.36  61 2.64
  63  0.501  0.491  0.321-  34 2.25   3 2.26  14 2.26   2 2.36  13 2.36
  64  0.651  0.341  0.448-   4 2.00  35 2.06  15 2.15  14 2.36   3 2.36
  65  0.067  0.258  0.236-  27 2.25   6 2.26  17 2.26   5 2.36  16 2.36
  66  0.218  0.108  0.363-  24 2.12  18 2.26   7 2.26  17 2.36   6 2.36
  67  0.410  0.932  0.472-  18 2.00   7 2.18  19 2.22  44 2.70
  68  0.924  0.411  0.122-   5 2.07  26 2.16   8 2.23  16 2.23
  69  0.494  0.098  0.058-  21 2.06  28 2.07  36 2.66  70 2.70
  70  0.639  0.015  0.170-  29 2.08  10 2.09  36 2.09  21 2.13  22 2.14  69 2.70  71 2.78
  71  0.784  0.874  0.279-  30 2.25  23 2.26  11 2.26  22 2.36  10 2.36  70 2.78
  72  0.934  0.724  0.405-  31 2.06   9 2.09  20 2.14  11 2.36  23 2.36

  LATTYP: Found a base centered orthorhombic cell.
 ALAT       =    11.4527836704
 B/A-ratio  =     1.4485816945
 C/A-ratio  =     1.8059804630

  Lattice vectors:

 A1 = (  10.0797329849,   0.0000000000,   0.0000000000)
 A2 = (  -3.5732980427,  -9.4251025535,   0.0000000000)
 A3 = (   0.0000000000,   0.0000000000, -20.6835035552)

Analysis of symmetry for initial positions (statically):
 Subroutine PRICEL returns:
 Original cell was already a primitive cell.

 Routine SETGRP: Setting up the symmetry group for a
 base centered orthorhombic supercell.

 Subroutine GETGRP returns: Found  1 space group operations
 (whereof  1 operations were pure point group operations)
 out of a pool of  8 trial point group operations.

The static configuration has the point symmetry C_1 .

Analysis of symmetry for dynamics (positions and initial velocities):
 Subroutine PRICEL returns:
 Original cell was already a primitive cell.

 Routine SETGRP: Setting up the symmetry group for a
 base centered orthorhombic supercell.

 Subroutine GETGRP returns: Found  1 space group operations
 (whereof  1 operations were pure point group operations)
 out of a pool of  8 trial point group operations.

The dynamic configuration has the point symmetry C_1 .

 Subroutine INISYM returns: Found  1 space group operations
 (whereof  1 operations are pure point group operations),
 and found     1 'primitive' translations

 KPOINTS: gamma-point-only calculation. no periodi

Automatic generation of k-mesh.
Space group operators:
 irot       det(A)        alpha          n_x          n_y          n_z        tau_x        tau_y        tau_z
    1     1.000000     0.000000     1.000000     0.000000     0.000000     0.000000     0.000000     0.000000

 Subroutine IBZKPT returns following result:

 Found      1 irreducible k-points:

 Following reciprocal coordinates:
            Coordinates               Weight
  0.000000  0.000000  0.000000      1.000000

 Following cartesian coordinates:
            Coordinates               Weight
  0.000000  0.000000  0.000000      1.000000

 SYSTEM =  "Millerite NiS"
 POSCAR =  Type_036 Type_136

 Startparameter for this run:
   NWRITE =      2    write-flag & timer
   PREC   = normal    normal or accurate (medium, high low for compatibility)
   ISTART =      0    job   : 0-new  1-cont  2-samecut
   ICHARG =      2    charge: 1-file 2-atom 10-const
   ISPIN  =      1    spin polarized calculation?
   LNONCOLLINEAR =      F non collinear calculations
   LSORBIT =      F    spin-orbit coupling
   INIWAV =      1    electr: 0-lowe 1-rand  2-diag
   LASPH  =      F    aspherical Exc in radial PAW
   METAGGA=      F    non-selfconsistent MetaGGA calc.

 Electronic Relaxation 1
   ENCUT  =  450.0 eV  33.07 Ry    5.75 a.u.  17.43 17.43 35.78*2*pi/ulx,y,z
   ENINI  =  450.0     initial cutoff
   ENAUG  =  703.4 eV  augmentation charge cutoff
   NELM   =    100;   NELMIN=  2; NELMDL= -5     # of ELM steps
   EDIFF  = 0.1E-03   stopping-criterion for ELM
   LREAL  =      T    real-space projection
   NLSPLINE    = F    spline interpolate recip. space projectors
   LCOMPAT=      F    compatible to vasp.4.4
   GGA_COMPAT  = T    GGA compatible to vasp.4.4-vasp.4.6
   LMAXPAW     = -100 max onsite density
   LMAXMIX     =    2 max onsite mixed and CHGCAR
   VOSKOWN=      0    Vosko Wilk Nusair interpolation
   ROPT   =   -0.00050  -0.00050
 Ionic relaxation
   EDIFFG = 0.1E-02   stopping-criterion for IOM
   NSW    =      0    number of steps for IOM
   NBLOCK =      1;   KBLOCK =      1    inner block; outer block
   IBRION =     -1    ionic relax: 0-MD 1-quasi-New 2-CG
   NFREE  =      0    steps in history (QN), initial steepest desc. (CG)
   ISIF   =      2    stress and relaxation
   IWAVPR =     10    prediction:  0-non 1-charg 2-wave 3-comb
   ISYM   =      2    0-nonsym 1-usesym 2-fastsym
   LCORR  =      T    Harris-Foulkes like correction to forces

   POTIM  = 0.5000    time-step for ionic-motion
   TEIN   =    0.0    initial temperature
   TEBEG  =    0.0;   TEEND  =   0.0 temperature during run
[...]
  Fock        0.00000     0.00000     0.00000     0.00000     0.00000     0.00000
  Total      75.32017    69.06021    97.30907    -0.66554    -3.31001    -0.74813
  in kB      61.41333    56.30919    79.34228    -0.54265    -2.69886    -0.60999

 VOLUME and BASIS-vectors are now :
  energy-cutoff  :      450.00
  volume of cell :     1964.98
      direct lattice vectors                 reciprocal lattice vectors
    10.079732985  0.000000000  0.000000000     0.099208977 -0.037612667  0.000000000
     3.573298043  9.425102554  0.000000000     0.000000000  0.106099641  0.000000000
     0.000000000  0.000000000 20.683503555     0.000000000  0.000000000  0.048347708

  length of vectors
    10.079732985 10.079732985 20.683503555     0.106099641  0.106099641  0.048347708

 FORCES acting on ions
    electron-ion (+dipol)            ewald-force                    non-local-force                 convergence-correction
   0.566E+03 -.450E+03 0.366E+04   -.571E+03 0.455E+03 -.366E+04   0.282E+01 -.348E+01 0.276E+01   0.493E+00 -.183E+00 -.398E+00
   -.396E+01 -.352E+03 0.264E+03   0.330E+01 0.353E+03 -.263E+03   0.551E+00 -.148E+01 -.518E+00   0.100E+00 -.371E-01 -.132E+00
   -.175E+03 -.488E+03 -.277E+04   0.176E+03 0.490E+03 0.277E+04   -.215E+00 -.192E+01 0.178E+01   -.166E+00 0.868E-01 0.217E+00
   -.407E+03 -.447E+03 -.554E+04   0.407E+03 0.445E+03 0.554E+04   0.499E+00 0.222E+01 0.589E+01   -.152E+00 0.190E+00 0.173E+00
   0.331E+01 0.187E+02 0.235E+04   -.199E+01 -.206E+02 -.235E+04   -.232E+00 0.466E+00 -.170E+01   -.116E+00 0.458E-01 -.200E+00
   0.115E+02 -.399E+03 -.740E+03   -.121E+02 0.400E+03 0.739E+03   0.490E+00 -.148E+01 0.405E+00   0.304E-01 0.112E+00 0.733E-01
   0.180E+03 -.547E+03 -.418E+04   -.182E+03 0.549E+03 0.418E+04   0.107E+01 -.180E+01 -.250E+01   0.144E+00 0.174E+00 0.375E+00
   0.184E+03 0.139E+03 0.494E+04   -.187E+03 -.140E+03 -.495E+04   0.199E+01 0.166E+01 0.504E+01   -.175E+00 -.172E+00 -.204E+00
   0.175E+03 -.248E+03 -.481E+04   -.177E+03 0.252E+03 0.482E+04   0.136E+01 -.405E+01 -.148E+01   0.280E-01 -.278E+00 0.449E+00
   -.180E+03 -.745E+03 0.134E+04   0.184E+03 0.748E+03 -.133E+04   -.264E+01 -.313E+01 -.176E+01   -.702E-01 0.172E+00 0.637E-01
   -.952E+01 -.464E+03 -.162E+04   0.950E+01 0.465E+03 0.162E+04   0.192E+00 -.140E+01 0.149E+01   -.119E+00 0.539E-01 0.239E+00
   0.266E+03 0.343E+03 0.446E+04   -.270E+03 -.345E+03 -.447E+04   0.349E+01 0.222E+01 0.358E+01   0.352E+00 0.231E-01 -.319E+00
   0.320E+03 0.534E+03 0.140E+04   -.321E+03 -.534E+03 -.140E+04   0.809E+00 0.791E+00 -.176E+01   0.116E+00 0.217E-01 -.105E+00
   0.434E+03 0.286E+03 -.156E+04   -.436E+03 -.285E+03 0.156E+04   0.142E+01 -.602E+00 0.237E+01   -.201E-01 0.168E+00 0.182E+00
   0.347E+03 0.392E+03 -.480E+04   -.349E+03 -.394E+03 0.480E+04   0.145E+01 0.227E+01 -.313E+01   -.283E+00 -.410E-01 0.243E+00
   0.661E+03 0.275E+03 0.376E+04   -.665E+03 -.276E+03 -.376E+04   0.263E+01 0.563E+00 0.256E+01   0.340E-01 0.141E+00 -.145E+00
   0.447E+03 0.236E+03 0.386E+03   -.448E+03 -.236E+03 -.387E+03   0.133E+01 0.212E+00 0.805E+00   0.839E-01 0.117E+00 -.120E+00
   0.375E+03 -.672E+02 -.266E+04   -.378E+03 0.676E+02 0.265E+04   0.256E+01 0.199E+00 0.884E+00   0.934E-01 -.331E+00 0.492E+00
   -.309E+03 -.552E+02 -.499E+04   0.308E+03 0.551E+02 0.500E+04   0.237E+01 0.216E+00 -.275E+01   0.359E-01 -.387E+00 0.424E+00
   0.452E+03 0.383E+03 -.403E+04   -.455E+03 -.385E+03 0.403E+04   0.215E+01 0.146E+01 0.726E+00   0.839E-01 -.119E-01 0.372E+00
   0.798E+02 -.259E+03 0.452E+04   -.820E+02 0.261E+03 -.452E+04   0.329E+01 -.270E+01 0.604E+01   -.285E+00 -.331E+00 -.234E+00
   0.261E+03 0.413E+03 0.217E+04   -.261E+03 -.416E+03 -.217E+04   0.345E+00 0.191E+01 -.153E+01   -.356E+00 -.136E+00 -.225E+00
   0.433E+03 0.361E+03 -.732E+03   -.434E+03 -.361E+03 0.732E+03   0.153E+01 0.529E-01 0.987E-01   -.170E+00 -.208E+00 0.174E+00
   -.757E+03 0.127E+03 -.385E+04   0.762E+03 -.128E+03 0.386E+04   -.426E+01 0.106E+01 -.135E+01   0.654E-01 0.664E-01 0.137E+00
   -.343E+03 0.694E+03 0.536E+04   0.341E+03 -.693E+03 -.536E+04   0.233E+01 -.272E+01 0.168E+01   0.953E-01 0.101E+00 -.289E+00
   -.438E+03 0.530E+03 0.260E+04   0.442E+03 -.533E+03 -.260E+04   -.353E+01 0.248E+01 -.202E+00   -.406E-01 0.161E+00 -.331E+00
   -.457E+03 0.150E+03 -.530E+03   0.457E+03 -.150E+03 0.527E+03   -.159E+00 -.678E+00 0.260E+01   -.951E-01 0.119E+00 0.497E-01
   -.427E+03 0.515E+02 0.466E+04   0.432E+03 -.527E+02 -.466E+04   -.334E+01 0.139E+01 0.454E+01   0.391E-02 -.373E-01 -.168E+00
   -.333E+03 -.466E+02 0.132E+04   0.332E+03 0.476E+02 -.132E+04   0.680E+00 -.791E+00 -.750E-01   0.198E-01 -.171E-01 -.181E+00
   -.291E+03 0.100E+03 -.163E+04   0.292E+03 -.101E+03 0.163E+04   -.191E+01 0.121E+01 0.259E+01   0.151E+00 -.147E+00 0.399E+00
   -.196E+03 0.321E+03 -.490E+04   0.197E+03 -.323E+03 0.490E+04   -.444E+00 0.139E+01 0.203E+01   -.672E-01 -.135E+00 0.431E+00
   -.738E+03 -.948E+02 0.369E+04   0.744E+03 0.938E+02 -.369E+04   -.496E+01 0.246E+00 0.238E+01   0.881E-02 -.103E+00 -.151E+00
   -.454E+03 0.160E+03 0.361E+03   0.456E+03 -.160E+03 -.361E+03   -.973E+00 -.443E+00 0.174E+00   0.114E+00 -.196E+00 -.188E-01
   -.652E+02 0.202E+03 -.257E+04   0.685E+02 -.203E+03 0.256E+04   -.388E+01 0.156E+01 0.249E+01   0.226E+00 -.191E+00 0.687E+00
   0.263E+01 0.485E+03 -.537E+04   -.171E+01 -.488E+03 0.537E+04   -.192E+00 0.318E+01 0.272E+01   0.806E-02 0.207E+00 0.248E+00
   -.205E+03 -.952E+03 0.524E+04   0.207E+03 0.956E+03 -.525E+04   -.220E+01 -.316E+01 0.440E+01   -.284E+00 -.551E-01 -.114E+00
   -.123E+03 0.929E+02 -.204E+04   0.124E+03 -.938E+02 0.205E+04   -.750E+00 0.759E+00 -.217E+01   -.204E-01 -.405E-01 0.144E+00
   -.375E+02 0.488E+03 0.171E+04   0.379E+02 -.493E+03 -.172E+04   -.670E+00 0.262E+01 0.180E+01   0.946E-01 0.159E+00 -.180E+00
   0.488E+01 0.125E+03 0.519E+03   -.533E+01 -.126E+03 -.521E+03   0.468E+00 0.132E+01 0.225E+01   0.165E-01 0.112E-01 0.208E-01
   0.628E-01 0.139E+03 -.659E+03   -.123E+01 -.141E+03 0.654E+03   0.643E+00 0.178E+01 0.144E+01   -.523E-01 0.936E-01 0.357E-01
   0.200E+03 0.665E+02 0.226E+04   -.202E+03 -.672E+02 -.226E+04   0.650E+00 0.399E+00 0.627E+00   -.744E-02 0.161E-01 -.807E-01
   0.141E+03 0.685E+02 0.124E+04   -.142E+03 -.691E+02 -.124E+04   0.872E-01 0.510E+00 0.170E+01   0.710E-01 -.507E-01 -.107E+00
   0.352E+02 0.103E+03 0.171E+02   -.355E+02 -.106E+03 -.177E+02   0.247E+00 0.245E+01 0.612E+00   0.322E-01 -.528E-01 -.694E-01
   -.115E+03 0.150E+03 -.128E+04   0.116E+03 -.152E+03 0.128E+04   -.114E+01 0.877E+00 -.157E+01   0.189E-01 -.496E-01 0.252E+00
   -.306E+02 0.114E+03 0.646E+03   0.315E+02 -.115E+03 -.643E+03   -.644E+00 0.136E+01 -.115E+01   -.611E-01 -.940E-01 -.132E+00
   0.192E+01 0.170E+03 -.327E+03   -.183E+01 -.171E+03 0.324E+03   0.358E+00 0.174E+01 0.122E-01   0.246E-02 -.807E-01 0.131E+00
   0.219E+03 0.271E+03 -.163E+04   -.221E+03 -.273E+03 0.163E+04   0.129E+01 0.146E+00 -.626E+00   0.123E+00 0.116E+00 0.174E+00
   -.869E+01 0.603E+02 0.224E+04   0.846E+01 -.616E+02 -.225E+04   -.113E+00 0.183E+01 0.399E+01   -.104E+00 -.161E+00 -.108E+00
   0.678E+02 -.101E+03 0.235E+04   -.691E+02 0.101E+03 -.236E+04   0.129E+01 0.823E-01 0.137E+01   0.781E-01 -.132E+00 0.574E-01
   -.137E+03 0.385E+02 0.102E+04   0.140E+03 -.390E+02 -.102E+04   -.171E+01 0.114E+01 -.635E+00   -.842E-01 -.971E-02 -.253E+00
   -.122E+03 -.774E+02 -.557E+02   0.124E+03 0.793E+02 0.558E+02   -.204E+01 -.182E+01 0.277E+00   -.606E-01 -.466E-01 0.232E-01
   -.249E+03 -.169E+03 -.129E+04   0.251E+03 0.171E+03 0.130E+04   -.451E+00 -.403E+00 -.127E+01   0.510E-01 0.871E-01 -.201E-02
   -.107E+03 -.161E+02 0.206E+04   0.108E+03 0.181E+02 -.207E+04   -.127E+00 -.161E+01 0.184E+01   -.461E-01 0.212E-01 -.736E-01
   -.143E+03 -.691E+02 0.750E+03   0.146E+03 0.705E+02 -.751E+03   -.201E+01 -.188E+01 0.160E+01   -.165E-01 -.101E-01 -.243E-01
   -.912E+02 -.130E+03 -.430E+03   0.928E+02 0.132E+03 0.430E+03   -.179E+01 -.165E+01 -.828E-01   0.310E-01 0.868E-01 0.440E-01
   -.322E+02 -.122E+03 -.173E+04   0.331E+02 0.122E+03 0.173E+04   0.380E-01 0.474E+00 -.814E+00   0.238E-01 -.110E+00 0.169E+00
   -.145E+03 -.151E+03 0.366E+03   0.147E+03 0.153E+03 -.366E+03   -.127E+01 -.202E+01 0.101E+01   -.835E-03 0.710E-01 -.574E-01
   -.126E+03 -.119E+03 -.743E+03   0.128E+03 0.121E+03 0.741E+03   -.858E+00 -.168E+01 -.427E+00   0.734E-01 -.104E+00 0.166E+00
   0.204E+03 -.580E+02 -.221E+04   -.205E+03 0.589E+02 0.222E+04   0.378E+00 -.805E-01 -.249E+01   0.195E+00 -.141E+00 0.912E-01
   -.166E+03 -.317E+03 0.165E+04   0.166E+03 0.320E+03 -.165E+04   0.567E+00 -.905E+00 0.113E+01   0.553E-01 0.917E-01 -.101E-01
   0.102E+03 -.162E+03 0.191E+04   -.104E+03 0.163E+03 -.191E+04   0.890E+00 -.212E+00 0.334E+01   0.111E+00 -.385E-01 -.118E+00
   0.132E+03 -.114E+03 0.583E+03   -.134E+03 0.116E+03 -.581E+03   0.173E+01 -.113E+01 0.116E+01   0.103E+00 -.647E-02 -.963E-01
   0.141E+03 -.396E+02 -.458E+03   -.143E+03 0.407E+02 0.458E+03   0.210E+01 -.104E+01 -.142E+01   0.426E-01 -.242E-01 0.134E+00
   0.152E+03 -.256E+02 -.172E+04   -.154E+03 0.268E+02 0.172E+04   0.449E+00 -.766E+00 -.248E+01   -.243E+00 0.134E+00 0.882E-01
   0.162E+03 -.493E+02 0.290E+03   -.165E+03 0.503E+02 -.290E+03   0.262E+01 -.122E+01 -.466E-01   -.163E-01 0.543E-01 -.186E-01
   0.972E+02 -.940E+02 -.977E+03   -.100E+03 0.952E+02 0.977E+03   0.327E+01 -.112E+01 -.107E+01   0.117E-01 0.853E-01 0.598E-01
   0.197E+02 -.165E+03 -.221E+04   -.200E+02 0.167E+03 0.221E+04   -.428E+00 -.117E+01 -.209E+01   0.517E-01 -.146E+00 0.175E+00
   0.277E+03 0.103E+03 0.160E+04   -.280E+03 -.102E+03 -.161E+04   0.112E+01 -.617E+00 0.208E+01   -.136E-01 0.644E-01 -.858E-01
   -.139E+03 -.227E+03 0.205E+04   0.140E+03 0.230E+03 -.205E+04   0.116E+01 -.882E+00 0.332E+01   -.390E-01 -.108E+00 -.594E-01
   0.834E+02 -.340E+03 0.838E+03   -.848E+02 0.343E+03 -.836E+03   0.471E+00 -.169E+01 -.165E+01   -.949E-01 -.430E-01 -.428E-01
   0.133E+03 -.762E+02 -.148E+03   -.135E+03 0.767E+02 0.149E+03   0.267E+01 -.903E+00 -.105E+01   -.584E-01 0.337E-01 -.239E-01
   0.178E+03 0.554E+02 -.143E+04   -.181E+03 -.549E+02 0.144E+04   0.134E+01 -.696E+00 -.250E+01   -.148E+00 -.362E-01 0.232E+00
   -.162E+02 0.107E+02 -.498E+02   0.190E-11 0.540E-12 -.978E-11   0.163E+02 -.907E+01 0.473E+02   0.676E-02 -.140E+01 0.255E+01

 POSITION                                       TOTAL-FORCE (eV/Angst)
      6.84285      7.49250      2.44401        -1.639571      0.549895      2.028086
      7.82056      6.07621      5.06951        -0.009233     -0.099732      0.126846
      8.79827      4.65991      7.69501         0.178703      0.001477      0.166901
      9.66448      3.22806      9.92213         0.367538      0.038647      1.332986
      2.61774      3.87870      3.31918         0.971196     -1.463709      3.292699
      3.59545      2.46241      5.94468        -0.027404     -0.148410     -0.007163
      4.57317      1.04611      8.57018        -0.795131      1.024733     -0.713289
     12.08587      5.59879      1.96298        -0.645632     -0.399955     -0.834310
      3.79222      7.35264      9.15841        -0.463380      0.006489      0.890960
      8.47237      0.26490      4.19434         0.971874      0.256225      1.923320
     13.02338      8.27371      6.81985         0.052028     -0.270312     -0.340124
      5.52900      5.16227      2.18895         0.165754     -0.249404     -1.051375
      6.61816      3.96023      4.37584        -0.380055      0.206314      1.651931
      7.59587      2.54394      7.00134         0.251232     -0.006502     -0.014727
      8.41877      1.15509      9.31884        -0.762459      0.249502      0.901562
      1.41534      1.76273      2.62550        -0.850667     -0.161335      2.438843
      2.39305      0.34643      5.25100         0.167559     -0.055381     -0.100791
      6.94406      8.35524      7.87651        -0.706873      0.275536     -2.811018
      6.88141      6.65017      9.48243         0.589709     -0.212602      0.608622
      2.67110      4.81931      8.47895        -0.852230     -0.734852      1.302236
      8.99773      8.47290      2.02860         0.819736     -0.777096      0.070099
     10.84326      7.57403      3.50067         0.196110     -1.317248      0.821032
     11.82097      6.15773      6.12617        -0.151216     -0.097944      0.108460
      0.84677      1.55319      8.61522         0.803850      0.229429      0.694804
      8.01018      5.60868      1.50548         0.232875     -1.040403     -1.104156
      9.02296      4.33443      3.68216         0.505471     -0.074904      0.668967
     10.00068      2.91813      6.30767        -0.029732     -0.065950     -0.104082
      3.82015      2.13692      1.93183         1.269517      0.110119      1.701952
      4.79786      0.72063      4.55733        -0.966449      0.175522      1.157202
      9.34887      8.72943      7.18283        -0.414735      0.295180     -1.502561
     10.31817      7.71273      9.16219         0.401498     -0.638243      1.154872
      3.16834      7.94822      2.80700         0.496764     -0.860713      0.673629
      4.14605      6.53193      5.43250         0.239634      0.042876     -0.153081
      5.12376      5.11563      8.05800        -0.315416      1.089836     -2.321920
      6.04144      4.08199      9.94801         0.736664     -0.207402      0.934540
     11.31876      9.42406      1.83107        -0.707783      1.199506     -1.174833
      3.59946      9.38778      9.74971         0.665782     -0.213233      1.929018
      7.30266      3.94474      2.44779        -0.187701     -2.558042     -2.525053
      8.33317      2.41029      4.86908         0.027844     -0.087208      0.197442
      9.31088      0.99399      7.49458        -0.580974     -0.455402     -3.244610
      2.19507      1.86852      0.80718        -0.933601     -0.320551     -4.209567
      3.13035      0.21279      3.11874        -0.553434     -0.140037      0.657897
      7.68136      8.22159      5.74425        -0.053616     -0.247481     -0.129021
      8.65907      6.80530      8.36975         0.357343     -1.765038     -0.454328
      2.47854      6.02409      3.99391         0.276311      0.429643      1.272633
      3.45626      4.60779      6.61941         0.448159      0.193065     -2.512911
      4.36010      3.34216      8.96052        -0.768349     -1.790145      1.577744
     11.58056      7.44039      1.36841        -0.444316      0.345372     -2.284106
      7.82797      7.45339      0.65600         0.048404      0.581009     -3.971524
      8.88655      6.52099      3.12687         0.604454      0.596503      1.751766
      9.86427      5.10469      5.75238         0.048422      0.006768      0.358608
     10.84198      3.68840      8.37788         1.403838      1.125273     -0.591485
      3.68899      4.27921      1.59443         1.050595      0.375383     -2.758133
      4.66145      2.90719      4.00204         0.092197     -0.454462      0.496017
      5.63916      1.49089      6.62754        -0.193267      0.320459     -0.674770
      6.50128      0.30005      8.95008         0.975366      0.093917      1.882888
      4.00964      8.71849      4.87721         0.295171     -0.283127      0.828570
      4.98735      7.30220      7.50271         1.018942      0.201813     -1.936043
      5.05653      5.89799     10.03752        -0.364253      0.629920      3.324659
      9.65938      0.59729      2.46360         0.721251      1.836694     -1.560465
      4.85999      7.13531      1.81164        -0.743661      0.702237     -1.979440
      5.82436      6.04450      4.01017         0.440999      0.778556      2.851732
      6.80207      4.62821      6.63567         0.154384      0.088024     -0.514482
      7.77979      3.21191      9.26118        -1.215739      0.535837      0.028996
      1.59925      2.43070      4.88534         0.139453     -0.224510      0.245892
      2.57697      1.01441      7.51084         0.361674      0.074654     -0.548391
      7.46133      8.77988      9.76035        -0.668776      0.627618      3.688771
     10.78538      3.87666      2.51970        -2.060956      0.059372     -1.524239
      5.33111      0.92615      1.19866         1.642420      1.189054     -2.160844
      6.49959      0.14525      3.50697        -0.996994      1.437718      0.268252
     11.02718      8.24201      5.76051         0.214064     -0.387253      0.210378
     12.00489      6.82571      8.38601        -0.921184     -0.171587     -0.408972
    total drift:                                0.087528      0.193500     -0.008931

  FREE ENERGIE OF THE ION-ELECTRON SYSTEM (eV)
  free  energy   TOTEN  =      -352.30091463 eV

  energy  without entropy=     -351.29519563  energy(sigma->0) =     -351.79805513