 vasp.5.4.4.18Apr17-6-g9f103f2a35 (build Aug 13 2019 17:33:20) gamma-only

 executed on             LinuxIFC date 2020.05.12  18:20:35

 INCAR:
 POTCAR:    PAW_PBE Ni_pv 06Sep2000
 POTCAR:    PAW_PBE S 06Sep2000
 POTCAR:    PAW_PBE Ni_pv 06Sep2000
   VRHFIN =Ni:

   TITEL  = PAW_PBE Ni_pv 06Sep2000
   POMASS =   58.690; ZVAL   =   16.000    mass and valenz
   ENMAX  =  367.986; ENMIN  =  275.989 eV

 POTCAR:    PAW_PBE S 06Sep2000
   VRHFIN =S : s2p4

   TITEL  = PAW_PBE S 06Sep2000
   POMASS =   32.066; ZVAL   =    6.000    mass and valenz
   ENMAX  =  258.689; ENMIN  =  194.016 eV

 Optimization of the real space projectors (new method)

 maximal supplied QI-value         = 18.90
 optimisation between [QCUT,QGAM] = [ 10.77, 21.73] = [ 32.49,132.25] Ry
 Optimized for a Real-space Cutoff    1.38 Angstroem

   l    n(q)    QCUT    max X(q) W(low)/X(q) W(high)/X(q)  e(spline)
   1      8    10.771     2.836    0.40E-04    0.29E-04    0.12E-06
   1      8    10.771     4.023    0.10E-03    0.48E-04    0.29E-06
   2      8    10.771    73.368    0.42E-03    0.97E-04    0.44E-06
   2      8    10.771    69.010    0.42E-03    0.99E-04    0.45E-06
   0      9    10.771    54.797    0.10E-03    0.56E-04    0.74E-07
   0      9    10.771    24.266    0.89E-04    0.49E-04    0.67E-07
 Optimization of the real space projectors (new method)

 maximal supplied QI-value         = 19.84
 optimisation between [QCUT,QGAM] = [ 10.71, 21.63] = [ 32.15,130.99] Ry
 Optimized for a Real-space Cutoff    1.19 Angstroem

   l    n(q)    QCUT    max X(q) W(low)/X(q) W(high)/X(q)  e(spline)
   0      8    10.715   187.594    0.41E-03    0.53E-04    0.66E-07
   0      8    10.715   164.243    0.41E-03    0.53E-04    0.65E-07
   1      7    10.715    67.533    0.19E-03    0.59E-03    0.68E-07
   1      7    10.715    50.729    0.19E-03    0.58E-03    0.67E-07
  PAW_PBE Ni_pv 06Sep2000               :
  PAW_PBE S 06Sep2000                   :

 POSCAR: Type_036 Type_136
  positions in cartesian coordinates
 exchange correlation table for  LEXCH =        8
   RHO(1)=    0.500       N(1)  =     2000
   RHO(2)=  100.500       N(2)  =     4000

 ion  position               nearest neighbor table
   1  0.397  0.795  0.127-  49 2.04  61 2.11  42 2.25  50 2.36  62 2.36  26 2.46
   2  0.547  0.645  0.254-  43 2.25  62 2.26  50 2.26  63 2.36  51 2.36  27 2.53  14 2.53
   3  0.698  0.494  0.381-  64 2.04  44 2.25  51 2.26  63 2.26  52 2.36  15 2.53  28 2.53
   4  0.888  0.210  0.432-  40 2.04  64 2.04  52 2.08  37 2.26
   5  0.114  0.412  0.169-  53 2.13  45 2.25  68 2.26   8 2.28  65 2.36  54 2.36  29 2.53  16 2.53

   6  0.264  0.261  0.296-  46 2.25  65 2.26  54 2.26  55 2.36  66 2.36  17 2.53  30 2.53
   7  0.414  0.111  0.423-  56 2.04  67 2.13  55 2.26  66 2.26  47 2.31  31 2.53  18 2.53
   8  0.993  0.595  0.103-  48 2.00  45 2.13  53 2.21   5 2.28  68 2.30  20 2.46
   9  0.103  0.769  0.454-  72 2.08  59 2.08  58 2.09  37 2.17  25 2.49
  10  0.707  0.213  0.146-  38 1.99  39 2.11  60 2.18  11 2.28  70 2.28  36 2.41
  11  0.831  0.028  0.212-  39 2.25  60 2.26  70 2.26  10 2.28  57 2.36  71 2.36  23 2.53  33 2.53

[...]

  32  0.735  0.811  0.453-  56 2.02  44 2.03  72 2.05  31 2.48
  33  0.015  0.843  0.144-  61 2.11  48 2.26  60 2.26  45 2.36  57 2.36  23 2.53  11 2.53
  34  0.166  0.693  0.271-  62 2.25  57 2.26  45 2.26  46 2.36  58 2.36  12 2.53  24 2.53
  35  0.316  0.543  0.398-  59 2.06  47 2.13  63 2.25  58 2.26  46 2.26
  36  0.769  0.002  0.081-  69 2.02  48 2.02  60 2.06  70 2.09  10 2.41  22 2.48
  37  0.969  0.987  0.472-  25 2.01   9 2.17   4 2.26
  38  0.586  0.406  0.117-  10 1.99  26 2.06  13 2.21  14 2.26  27 2.26
  39  0.736  0.256  0.244-  10 2.11  11 2.25  28 2.26  15 2.26  14 2.36  27 2.36  40 2.77
  40  0.895  0.105  0.347-   4 2.04  28 2.14  12 2.15  25 2.29  15 2.38  39 2.77
  41  0.174  0.151  0.047-  20 2.01  29 2.03  16 2.06  42 2.76
  42  0.303  0.023  0.160-   1 2.25  30 2.26  17 2.26  16 2.36  29 2.36  41 2.76
  43  0.453  0.872  0.286-   2 2.25  18 2.26  31 2.26  17 2.36  30 2.36
  44  0.603  0.722  0.413-  32 2.03  19 2.10   3 2.25  31 2.36  18 2.36
  45  0.019  0.639  0.202-   8 2.13   5 2.25  24 2.26  34 2.26  23 2.36  33 2.36
  46  0.170  0.489  0.329-  21 2.02   6 2.25  35 2.26  34 2.36  24 2.36  47 2.56
  47  0.290  0.352  0.430-  35 2.13  21 2.15   7 2.31  46 2.56
  48  0.869  0.789  0.075-   8 2.00  36 2.02  33 2.26  23 2.26  22 2.31
  49  0.482  0.781  0.036-  26 2.03   1 2.04  22 2.07
  50  0.636  0.692  0.160-  26 2.05  22 2.15  23 2.25  27 2.26   2 2.26   1 2.36
  51  0.787  0.542  0.287-  24 2.25   3 2.26  28 2.26  27 2.36   2 2.36
  52  0.937  0.391  0.414-   4 2.08  21 2.15   3 2.36  28 2.36
  53  0.214  0.453  0.085-  20 2.08   5 2.13  29 2.16  13 2.16   8 2.21
  54  0.353  0.308  0.202-  14 2.25   6 2.26  30 2.26  29 2.36   5 2.36
  55  0.503  0.158  0.329-  15 2.25   7 2.26  31 2.26   6 2.36  30 2.36  56 2.77
  56  0.626  0.020  0.442-  32 2.02   7 2.04  31 2.08  55 2.77
  57  0.070  0.925  0.245-  17 2.25  34 2.26  12 2.26  11 2.36  33 2.36
  58  0.220  0.775  0.372-   9 2.09  25 2.17  18 2.25  35 2.26  34 2.36  12 2.36  59 2.79
  59  0.296  0.632  0.489-  19 2.03  35 2.06   9 2.08  58 2.79
  60  0.920  0.075  0.118-  36 2.06  10 2.18  16 2.25  11 2.26  33 2.26
  61  0.213  0.759  0.097-   1 2.11  33 2.11  13 2.12  62 2.63
  62  0.350  0.641  0.203-  13 2.04  34 2.25  14 2.26   2 2.26   1 2.36  61 2.63
  63  0.501  0.491  0.330-  35 2.25   3 2.26  15 2.26   2 2.36  14 2.36
  64  0.679  0.337  0.438-  15 2.04   3 2.04   4 2.04
  65  0.067  0.258  0.245-  28 2.25   6 2.26  17 2.26   5 2.36  16 2.36
  66  0.218  0.108  0.372-  25 2.01  18 2.26   7 2.26  17 2.36   6 2.36
  67  0.388  0.949  0.482-  18 2.04  19 2.08   7 2.13
  68  0.917  0.408  0.118-  20 2.06  27 2.25  16 2.26   5 2.26   8 2.30
  69  0.610  0.001  0.022-  36 2.02  22 2.02
  70  0.634  0.025  0.160-  36 2.09  30 2.25  11 2.26  23 2.26  10 2.28  22 2.40
  71  0.784  0.874  0.287-  31 2.25  24 2.26  12 2.26  23 2.36  11 2.36
  72  0.934  0.724  0.414-  32 2.05   9 2.08  21 2.17  12 2.36  24 2.36

  LATTYP: Found a base centered orthorhombic cell.
 ALAT       =    11.4527836704
 B/A-ratio  =     1.4485816945
 C/A-ratio  =     1.8059804630

  Lattice vectors:

 A1 = (  10.0797329849,   0.0000000000,   0.0000000000)
 A2 = (  -3.5732980427,  -9.4251025535,   0.0000000000)
 A3 = (   0.0000000000,   0.0000000000, -20.6835035552)

Analysis of symmetry for initial positions (statically):
 Subroutine PRICEL returns:
 Original cell was already a primitive cell.

 Routine SETGRP: Setting up the symmetry group for a
 base centered orthorhombic supercell.

 Subroutine GETGRP returns: Found  1 space group operations
 (whereof  1 operations were pure point group operations)
 out of a pool of  8 trial point group operations.

The static configuration has the point symmetry C_1 .

Analysis of symmetry for dynamics (positions and initial velocities):
 Subroutine PRICEL returns:
 Original cell was already a primitive cell.

 Routine SETGRP: Setting up the symmetry group for a
 base centered orthorhombic supercell.

 Subroutine GETGRP returns: Found  1 space group operations
 (whereof  1 operations were pure point group operations)
 out of a pool of  8 trial point group operations.

The dynamic configuration has the point symmetry C_1 .

 Subroutine INISYM returns: Found  1 space group operations
 (whereof  1 operations are pure point group operations),
 and found     1 'primitive' translations

 KPOINTS: gamma-point-only calculation. no periodi

Automatic generation of k-mesh.
Space group operators:
 irot       det(A)        alpha          n_x          n_y          n_z        tau_x        tau_y        tau_z
    1     1.000000     0.000000     1.000000     0.000000     0.000000     0.000000     0.000000     0.000000

 Subroutine IBZKPT returns following result:

 Found      1 irreducible k-points:

 Following reciprocal coordinates:
            Coordinates               Weight
  0.000000  0.000000  0.000000      1.000000

 Following cartesian coordinates:
            Coordinates               Weight
  0.000000  0.000000  0.000000      1.000000

 SYSTEM =  "Millerite NiS"
 POSCAR =  Type_036 Type_136

 Startparameter for this run:
   NWRITE =      2    write-flag & timer
   PREC   = normal    normal or accurate (medium, high low for compatibility)
   ISTART =      0    job   : 0-new  1-cont  2-samecut
   ICHARG =      2    charge: 1-file 2-atom 10-const
   ISPIN  =      1    spin polarized calculation?
   LNONCOLLINEAR =      F non collinear calculations
   LSORBIT =      F    spin-orbit coupling
   INIWAV =      1    electr: 0-lowe 1-rand  2-diag
   LASPH  =      F    aspherical Exc in radial PAW
   METAGGA=      F    non-selfconsistent MetaGGA calc.

 Electronic Relaxation 1
   ENCUT  =  450.0 eV  33.07 Ry    5.75 a.u.  17.43 17.43 35.78*2*pi/ulx,y,z
   ENINI  =  450.0     initial cutoff
   ENAUG  =  703.4 eV  augmentation charge cutoff
   NELM   =    100;   NELMIN=  2; NELMDL= -5     # of ELM steps
   EDIFF  = 0.1E-03   stopping-criterion for ELM
   LREAL  =      T    real-space projection
   NLSPLINE    = F    spline interpolate recip. space projectors
   LCOMPAT=      F    compatible to vasp.4.4
   GGA_COMPAT  = T    GGA compatible to vasp.4.4-vasp.4.6
   LMAXPAW     = -100 max onsite density
   LMAXMIX     =    2 max onsite mixed and CHGCAR
   VOSKOWN=      0    Vosko Wilk Nusair interpolation
   ROPT   =   -0.00050  -0.00050
 Ionic relaxation
   EDIFFG = 0.1E-02   stopping-criterion for IOM
   NSW    =      0    number of steps for IOM
   NBLOCK =      1;   KBLOCK =      1    inner block; outer block
   IBRION =     -1    ionic relax: 0-MD 1-quasi-New 2-CG
   NFREE  =      0    steps in history (QN), initial steepest desc. (CG)
   ISIF   =      2    stress and relaxation
   IWAVPR =     10    prediction:  0-non 1-charg 2-wave 3-comb
   ISYM   =      2    0-nonsym 1-usesym 2-fastsym
   LCORR  =      T    Harris-Foulkes like correction to forces

   POTIM  = 0.5000    time-step for ionic-motion
   TEIN   =    0.0    initial temperature
   TEBEG  =    0.0;   TEEND  =   0.0 temperature during run
   SMASS  =  -3.00    Nose mass-parameter (am)
   estimated Nose-frequenzy (Omega)   =  0.10E-29 period in steps =****** mass=  -0.232E-26a.u.
   SCALEE = 1.0000    scale energy and forces
   NPACO  =    256;   APACO  = 16.0  distance and # of slots for P.C.
   PSTRESS=    0.0 pullay stress

  Mass of Ions in am
   POMASS =  58.69 32.07
  Ionic Valenz
   ZVAL   =  16.00  6.00
  Atomic Wigner-Seitz radii
  virtual crystal weights
   VCA    =   1.00  1.00
   NELECT =     792.0000    total number of electrons
   NUPDOWN=      -1.0000    fix difference up-down

 DOS related values:
   EMIN   =  10.00;   EMAX   =-10.00  energy-range for DOS
   EFERMI =   0.00
   ISMEAR =     0;   SIGMA  =   0.20  broadening in eV -4-tet -1-fermi 0-gaus

 Electronic relaxation 2 (details)
   IALGO  =     38    algorithm
   LDIAG  =      T    sub-space diagonalisation (order eigenvalues)
   LSUBROT=      F    optimize rotation matrix (better conditioning)
   TURBO    =      0    0=normal 1=particle mesh
[...]
  Fock        0.00000     0.00000     0.00000     0.00000     0.00000     0.00000
  Total      83.55462    85.71568   103.30960     0.83063    -4.91261     0.47187
  in kB      68.12740    69.88945    84.23489     0.67726    -4.00556     0.38474

 VOLUME and BASIS-vectors are now :
  energy-cutoff  :      450.00
  volume of cell :     1964.98
      direct lattice vectors                 reciprocal lattice vectors
    10.079732985  0.000000000  0.000000000     0.099208977 -0.037612667  0.000000000
     3.573298043  9.425102554  0.000000000     0.000000000  0.106099641  0.000000000
     0.000000000  0.000000000 20.683503555     0.000000000  0.000000000  0.048347708

  length of vectors
    10.079732985 10.079732985 20.683503555     0.106099641  0.106099641  0.048347708

 FORCES acting on ions
    electron-ion (+dipol)            ewald-force                    non-local-force                 convergence-correction
   0.418E+03 -.624E+03 0.336E+04   -.420E+03 0.629E+03 -.336E+04   0.225E+01 -.430E+01 0.240E+01   -.408E-01 -.436E-01 0.112E+00
   0.808E+01 -.413E+03 -.248E+03   -.913E+01 0.414E+03 0.249E+03   0.926E+00 -.149E+01 -.106E+01   -.434E-01 -.881E-01 0.392E+00
   -.667E+02 -.394E+03 -.360E+04   0.683E+02 0.397E+03 0.360E+04   -.808E+00 -.245E+01 -.300E+01   -.494E-01 0.725E-01 0.307E+00
   -.511E+02 -.174E+03 -.507E+04   0.517E+02 0.174E+03 0.508E+04   0.682E-01 -.210E+01 -.533E+01   -.720E-01 0.409E-01 0.211E+00
   -.123E+03 -.727E+02 0.162E+04   0.123E+03 0.712E+02 -.162E+04   0.389E+00 0.233E+00 -.349E+01   -.253E-01 -.833E-01 -.476E-01
   -.517E+02 -.438E+03 -.130E+04   0.513E+02 0.439E+03 0.129E+04   0.156E+00 -.114E+01 0.112E+01   0.876E-01 -.514E-01 0.389E+00
   -.104E+03 -.852E+03 -.460E+04   0.102E+03 0.854E+03 0.461E+04   0.289E+00 -.142E+01 -.290E+01   0.111E+00 -.154E+00 0.263E+00
   0.391E+02 -.255E+03 0.450E+04   -.410E+02 0.253E+03 -.450E+04   0.168E+01 0.207E+01 0.352E+01   0.110E-01 -.340E+00 -.221E+00
   0.303E+03 0.124E+03 -.532E+04   -.303E+03 -.124E+03 0.533E+04   -.865E-01 0.413E+00 -.544E+01   -.118E-01 -.113E-02 0.294E+00
   0.143E+03 -.360E+03 0.349E+04   -.144E+03 0.359E+03 -.350E+04   0.676E+00 0.330E+00 0.427E+01   0.827E-02 0.199E+00 0.217E+00
   -.158E+03 -.221E+03 0.703E+03   0.159E+03 0.219E+03 -.700E+03   -.682E+00 0.828E+00 -.279E+01   -.139E-01 0.199E+00 0.332E+00
   0.385E+03 -.267E+03 -.199E+04   -.387E+03 0.265E+03 0.199E+04   0.157E+01 0.933E+00 0.277E+01   -.288E-01 0.213E-01 0.446E+00
   0.328E+03 0.239E+03 0.426E+04   -.330E+03 -.240E+03 -.426E+04   0.238E+01 0.732E+00 0.235E+01   0.341E-01 -.124E+00 0.321E-01
   0.508E+03 0.267E+03 0.764E+03   -.510E+03 -.266E+03 -.762E+03   0.191E+01 -.111E+01 -.181E+01   0.461E-01 -.341E-01 0.314E+00
   0.607E+03 0.277E+03 -.251E+04   -.612E+03 -.278E+03 0.251E+04   0.475E+01 0.530E+00 -.193E+01   -.667E-01 0.370E-01 0.285E+00
   0.523E+03 0.591E+03 0.318E+04   -.525E+03 -.592E+03 -.317E+04   0.152E+01 0.288E+00 0.196E+00   0.152E-01 0.145E+00 -.106E+00
   0.282E+03 0.224E+03 0.700E+02   -.282E+03 -.223E+03 -.706E+02   0.811E+00 -.257E+00 0.161E+00   0.582E-01 -.155E-01 0.356E+00
   0.303E+02 0.130E+03 -.300E+04   -.304E+02 -.131E+03 0.299E+04   -.561E+00 0.115E+01 0.596E+00   0.169E+00 -.618E-01 0.472E+00
   -.263E+03 0.544E+03 -.542E+04   0.259E+03 -.546E+03 0.542E+04   0.513E+01 0.131E+01 -.995E+00   0.148E+00 0.770E-01 0.143E+00
   0.350E+03 -.317E+02 0.589E+04   -.352E+03 0.299E+02 -.590E+04   0.181E+01 0.286E+01 0.560E+01   -.276E-01 -.464E-02 -.272E+00
   0.408E+03 0.519E+03 -.448E+04   -.412E+03 -.521E+03 0.448E+04   0.249E+01 0.167E+01 -.847E+00   -.501E-01 0.487E-01 0.313E+00
   0.302E+03 -.169E+03 0.466E+04   -.305E+03 0.170E+03 -.467E+04   0.275E+01 -.196E+01 0.563E+01   -.133E+00 -.117E+00 -.203E-01
   0.344E+03 0.297E+03 0.164E+04   -.344E+03 -.297E+03 -.164E+04   0.235E+00 0.495E+00 -.365E+01   -.644E-01 -.258E-01 0.321E+00
   0.474E+03 0.398E+03 -.124E+04   -.476E+03 -.399E+03 0.124E+04   0.202E+01 0.119E+00 0.476E+00   -.129E+00 -.951E-01 0.444E+00
   -.210E+03 -.572E+03 -.383E+04   0.211E+03 0.575E+03 0.383E+04   -.287E+00 -.280E+01 -.247E+01   0.170E+00 -.136E-02 0.405E+00
   -.186E+03 0.550E+03 0.521E+04   0.184E+03 -.551E+03 -.522E+04   0.266E+01 -.510E+00 0.384E+01   -.222E-01 -.182E+00 -.977E-01
   -.511E+03 0.149E+03 0.197E+04   0.513E+03 -.148E+03 -.197E+04   -.182E+01 -.760E+00 -.196E+01   -.929E-01 -.805E-01 0.225E+00
   -.516E+03 -.292E+02 -.124E+04   0.521E+03 0.316E+02 0.124E+04   -.414E+01 -.161E+01 0.155E+01   -.111E+00 0.540E-01 0.325E+00
   -.895E+03 0.469E+03 0.433E+04   0.895E+03 -.470E+03 -.433E+04   0.127E+01 0.407E+00 0.867E+00   -.147E+00 0.150E+00 -.139E+00
   -.344E+03 0.107E+03 0.966E+03   0.343E+03 -.106E+03 -.966E+03   0.592E+00 -.777E+00 -.240E+00   0.344E-01 0.352E-01 0.378E+00
   -.391E+03 0.344E+02 -.212E+04   0.392E+03 -.349E+02 0.212E+04   -.193E+01 0.619E+00 0.188E+01   -.131E-02 -.502E-01 0.627E+00
   -.251E+03 0.219E+03 -.516E+04   0.252E+03 -.220E+03 0.516E+04   0.448E+00 0.448E+00 0.145E+01   -.128E+00 0.158E-01 0.245E+00
   -.800E+03 -.558E+02 0.334E+04   0.805E+03 0.555E+02 -.334E+04   -.496E+01 0.348E+00 0.209E+00   0.133E+00 0.296E-01 0.126E+00
   -.480E+03 0.277E+03 -.641E+02   0.480E+03 -.276E+03 0.629E+02   -.594E+00 -.380E+00 0.693E+00   0.169E+00 -.115E+00 0.289E+00
   -.417E+03 0.602E+03 -.351E+04   0.421E+03 -.606E+03 0.351E+04   -.414E+01 0.388E+01 -.198E+01   0.834E-01 -.489E-03 0.305E+00
   -.263E+03 -.504E+03 0.529E+04   0.264E+03 0.511E+03 -.530E+04   0.237E+00 -.554E+01 0.987E+01   0.117E+00 0.167E+00 -.398E-01
   0.236E+03 -.156E+03 -.220E+04   -.238E+03 0.157E+03 0.220E+04   0.949E+00 0.736E+00 -.849E+00   -.208E-01 -.413E-01 0.916E-01
   0.910E+02 0.196E+03 0.174E+04   -.912E+02 -.198E+03 -.175E+04   -.855E+00 0.248E+01 0.346E+01   -.244E-02 -.709E-02 0.338E-01
   -.853E+01 0.642E+02 0.703E+02   0.895E+01 -.647E+02 -.687E+02   -.339E+00 0.894E+00 -.105E+01   -.382E-01 0.322E-01 0.130E+00
   0.129E+03 0.356E+02 -.760E+03   -.131E+03 -.367E+02 0.756E+03   0.223E+01 0.508E+00 0.368E+01   -.345E-01 0.919E-01 0.126E+00
   0.777E+02 0.444E+03 0.221E+04   -.782E+02 -.447E+03 -.221E+04   0.215E+00 0.109E+01 0.722E+00   -.307E-01 0.137E+00 -.936E-01
   0.426E+02 0.132E+03 0.113E+04   -.421E+02 -.133E+03 -.113E+04   -.247E+00 0.172E+01 0.732E+00   -.653E-02 0.232E-01 0.605E-01
   -.360E+01 0.114E+03 -.123E+03   0.374E+01 -.117E+03 0.122E+03   -.224E+00 0.232E+01 0.516E+00   0.194E-01 -.714E-02 0.177E+00
   -.873E+02 0.251E+03 -.140E+04   0.883E+02 -.252E+03 0.141E+04   -.139E+01 0.661E-01 -.138E+01   0.633E-01 0.804E-01 0.192E+00
   -.400E+02 0.103E+03 0.465E+03   0.408E+02 -.104E+03 -.463E+03   -.752E+00 0.103E+01 -.109E+01   0.253E-01 -.387E-01 0.976E-01
   -.273E+02 0.184E+03 -.541E+03   0.272E+02 -.185E+03 0.537E+03   0.698E+00 0.125E+01 0.158E+01   0.188E-01 -.168E-01 0.141E+00
   -.468E+02 0.189E+03 -.180E+04   0.470E+02 -.190E+03 0.181E+04   0.161E+00 0.308E-01 -.689E+00   0.150E-01 -.376E-01 0.892E-01
   -.116E+03 0.100E+03 0.214E+04   0.117E+03 -.104E+03 -.215E+04   -.117E+01 0.253E+01 0.498E+01   0.333E-01 -.803E-01 -.857E-01
   0.209E+03 -.153E+03 0.232E+04   -.212E+03 0.153E+03 -.233E+04   0.224E+01 0.429E+00 0.152E+01   -.439E-01 -.386E-01 -.105E+00
   -.714E+02 -.380E+02 0.808E+03   0.735E+02 0.381E+02 -.806E+03   -.150E+01 0.355E+00 -.487E+00   -.415E-01 -.630E-01 0.896E-01
   -.115E+03 -.960E+02 -.284E+03   0.117E+03 0.977E+02 0.283E+03   -.210E+01 -.163E+01 0.304E+00   -.491E-01 -.164E-01 0.154E+00
   -.148E+03 -.655E+02 -.169E+04   0.149E+03 0.662E+02 0.169E+04   -.123E+01 0.441E+00 -.209E+01   -.145E-01 0.392E-01 0.930E-01
   -.349E+03 -.125E+03 0.190E+04   0.351E+03 0.127E+03 -.190E+04   -.668E+00 -.706E+00 0.945E+00   -.733E-01 -.628E-01 -.108E+00
   -.118E+03 -.666E+02 0.564E+03   0.120E+03 0.682E+02 -.565E+03   -.211E+01 -.205E+01 0.955E+00   0.617E-01 0.103E-01 0.891E-01
   -.119E+03 -.155E+03 -.688E+03   0.121E+03 0.157E+03 0.688E+03   -.128E+01 -.214E+01 -.470E+00   0.265E-01 -.127E-01 0.163E+00
   -.271E+03 -.314E+03 -.193E+04   0.275E+03 0.316E+03 0.193E+04   -.196E+01 -.776E+00 -.368E+00   -.333E-01 -.134E+00 0.904E-01
   -.157E+03 -.107E+03 0.259E+03   0.159E+03 0.109E+03 -.259E+03   -.182E+01 -.169E+01 0.159E+00   0.476E-01 0.280E-01 0.756E-01
   -.181E+03 0.132E+03 -.886E+03   0.184E+03 -.132E+03 0.883E+03   -.227E+01 -.380E+00 0.937E+00   0.753E-01 -.102E-01 0.175E+00
   0.850E+01 0.298E+03 -.221E+04   -.809E+01 -.299E+03 0.222E+04   -.217E+00 0.238E+00 -.157E+01   0.553E-01 0.508E-01 0.558E-01
   -.318E+03 -.113E+03 0.165E+04   0.320E+03 0.114E+03 -.165E+04   -.240E+00 -.139E+00 0.306E+01   0.537E-01 0.772E-01 0.243E-01
   0.739E+02 -.163E+03 0.183E+04   -.757E+02 0.164E+03 -.183E+04   0.122E+01 -.583E+00 0.393E+01   0.150E-01 -.191E-01 -.342E-01
   0.135E+03 -.125E+03 0.429E+03   -.137E+03 0.127E+03 -.426E+03   0.207E+01 -.149E+01 0.578E+00   0.256E-01 -.492E-01 0.121E+00
   0.154E+03 -.212E+02 -.766E+03   -.156E+03 0.230E+02 0.767E+03   0.281E+01 -.116E+01 -.950E+00   0.325E-01 -.260E-01 0.103E+00
   0.258E+03 -.229E+02 -.211E+04   -.262E+03 0.236E+02 0.211E+04   0.150E+01 -.502E+00 -.112E+01   -.267E-01 0.140E-01 0.522E-01
   0.120E+03 -.679E+02 0.760E+02   -.122E+03 0.688E+02 -.761E+02   0.227E+01 -.788E+00 -.177E+00   -.260E-01 -.392E-02 0.114E+00
   0.310E+02 -.333E+03 -.118E+04   -.340E+02 0.338E+03 0.118E+04   0.431E+01 -.303E+01 -.315E+01   0.398E-01 -.261E-01 0.146E+00
   -.152E+01 -.254E+03 -.227E+04   -.440E+00 0.255E+03 0.227E+04   0.838E+00 -.331E-01 -.178E+01   0.590E-01 -.654E-01 0.302E-01
   0.353E+03 0.702E+01 0.144E+04   -.357E+03 -.636E+01 -.145E+04   0.271E+01 0.188E+00 0.170E+01   0.423E-01 -.455E-01 -.977E-01
   0.155E+03 -.275E+03 0.223E+04   -.155E+03 0.277E+03 -.224E+04   -.837E+00 0.884E-01 0.115E+01   -.401E-01 0.471E-01 -.140E+00
   0.313E+03 -.176E+03 0.910E+03   -.317E+03 0.179E+03 -.908E+03   0.285E+01 -.219E+01 0.501E+00   -.286E-01 0.776E-01 0.140E+00
   0.179E+03 -.696E+02 -.335E+03   -.182E+03 0.707E+02 0.336E+03   0.293E+01 -.127E+01 -.123E+01   -.988E-01 0.329E-01 0.171E+00
   0.213E+03 0.772E+02 -.158E+04   -.215E+03 -.768E+02 0.158E+04   0.191E+01 -.143E+01 -.223E+01   -.139E+00 0.242E-01 0.227E+00
   -.297E+02 0.150E+02 -.305E+02   -.995E-12 0.242E-12 -.157E-10   0.297E+02 -.145E+02 0.203E+02   0.983E-01 -.413E+00 0.102E+02

 POSITION                                       TOTAL-FORCE (eV/Angst)
      6.84285      7.49250      2.62550        -0.525280      0.626187      1.909913
      7.82056      6.07621      5.25100        -0.171201     -0.227114      0.222255
      8.79827      4.65991      7.87651         0.786251      1.299318     -1.175188
      9.70558      1.98215      8.93791         0.635564     -1.904102      1.623102
      2.61774      3.87870      3.50067         0.337372     -1.307170      2.457281
      3.59545      2.46241      6.12617        -0.203944     -0.256701     -0.227263
      4.57317      1.04611      8.75167        -1.107046      1.057158     -0.646419
     12.13868      5.61009      2.12697        -0.240188     -0.244407     -0.696647
      3.78672      7.25103      9.38846        -0.278569      0.049000      0.432704
      7.88126      2.00312      3.02756        -0.259350     -0.194091     -0.598684
      8.47237      0.26490      4.37584         0.403589     -1.093352      1.168109
     13.02338      8.27371      7.00134        -0.896488     -1.612297     -0.722930
      5.63786      5.20803      2.33657        -0.092278     -0.620308     -1.049673
      6.61816      3.96023      4.55733        -0.091506      0.210519     -0.101137
      7.59587      2.54394      7.18283        -0.562365     -0.730045     -1.590140
      1.41534      1.76273      2.80700        -1.001306     -0.750174      1.789871
      2.39305      0.34643      5.43250         0.287503      0.192797     -0.130850
      6.94406      8.35524      8.05800        -0.416093      0.174008     -2.543129
      7.02968      6.88524      9.87466         1.104511     -0.430633      0.763239
      2.03548      3.42056      1.00453        -0.414501      0.974696     -1.740664
      2.61387      4.76915      8.63452        -1.025987     -0.085391      1.361025
      9.34363      7.95878      1.78269        -0.060097     -0.945882      0.408701
     10.84326      7.57403      3.68216         0.148127     -0.188988      0.671928
     11.82097      6.15773      6.30767        -0.084008     -0.017219      0.141353
      4.58005      9.34549      8.29447         0.254244      0.385098     -0.039887
      8.08029      5.59584      1.66009         0.520872     -1.163362     -0.644878
      9.02296      4.33443      3.86366         0.042688     -0.066735     -0.314770
     10.00068      2.91813      6.48916         0.824379      0.823822     -0.733472
      3.82015      2.13692      2.11332         1.812782     -0.770321      1.566302
      4.79786      0.72063      4.73883        -0.185232     -0.001542      0.149122
      9.34887      8.72943      7.36433        -0.279269      0.081354     -1.840928
     10.30876      7.64417      9.37509         0.640352     -0.541676      0.971769
      3.16834      7.94822      2.98849         0.015654      0.072276      0.506668
      4.14605      6.53193      5.61399         0.339761      0.112348     -0.162259
      5.12376      5.11563      8.23950         0.123288      0.116044     -1.790755
      7.75553      0.01504      1.67661         1.013261      0.952029     -0.733564
     13.29349      9.30512      9.76485        -1.187991      0.861479      2.993676
      7.35546      3.82659      2.42507        -1.068804      0.403414     -1.572665
      8.33317      2.41029      5.05057         0.036888      0.392343      0.754631
      9.39490      0.98765      7.18064        -0.356728     -0.418936     -0.471686
      2.29239      1.42682      0.97272        -0.339091     -2.210615     -3.414461
      3.13035      0.21279      3.30024         0.211878      0.112591      0.227047
      7.68136      8.22159      5.92574        -0.065192     -0.257519     -0.299889
      8.65907      6.80530      8.55124        -0.252948     -1.473960      0.010528
      2.47854      6.02409      4.17540         0.072686     -0.011332      1.362834
      3.45626      4.60779      6.80091         0.566193      0.278496     -2.516754
      4.18309      3.32199      8.89382         0.413087     -0.931649      2.076051
     11.58056      7.44039      1.54990         0.044182     -1.371979     -2.129916
      7.64593      7.36126      0.75383        -0.498501      0.951612     -3.672282
      8.88655      6.52099      3.30837         0.575228      0.408646      2.500233
      9.86427      5.10469      5.93387         0.276433      0.024044      0.093504
     10.84198      3.68840      8.55937        -0.114348      1.173747      0.210676
      3.77909      4.26615      1.75711         1.363947      0.958968     -1.642049
      4.66145      2.90719      4.18354        -0.040640     -0.376652      0.259670
      5.63916      1.49089      6.80904        -0.036901      0.122495     -0.755367
      6.38559      0.19118      9.14211         2.107958      1.199656      1.986964
      4.00964      8.71849      5.05870         0.077657     -0.346369     -0.203489
      4.98735      7.30220      7.68420         0.843166     -0.783485     -1.967184
      5.24483      5.95592     10.11385         0.240963     -0.809645      3.541307
      9.53836      0.70969      2.43320         2.412349      0.835428      0.179357
      4.85718      7.15579      2.00915        -0.571630      0.800316     -2.200424
      5.82436      6.04450      4.19167         0.271582      0.570484      2.903323
      6.80207      4.62821      6.81717         0.122060      0.607463     -0.374266
      8.05284      3.17921      9.06639        -1.801649      0.211580      3.495491
      1.59925      2.43070      5.06683         0.079471      0.117106     -0.160526
      2.57697      1.01441      7.69234         1.333926      1.657941     -1.383856
      7.30406      8.94556      9.97263        -1.068597      1.014807      3.365016
     10.70128      3.84700      2.44133        -1.090825      0.797872      0.177042
      6.15367      0.00609      0.44943        -1.638186      2.109963     -3.354991
      6.47617      0.23320      3.31650        -1.491610      0.540839      2.114763
     11.02718      8.24201      5.94200         0.051979     -0.120121     -0.408718
     12.00489      6.82571      8.56750        -0.873482     -1.014172     -0.383695
    total drift:                                0.113438      0.075135      0.005373

  FREE ENERGIE OF THE ION-ELECTRON SYSTEM (eV)
  free  energy   TOTEN  =      -350.30126897 eV

  energy  without entropy=     -349.28341788  energy(sigma->0) =     -349.79234342