 vasp.5.4.4.18Apr17-6-g9f103f2a35 (build Aug 13 2019 17:33:20) gamma-only

 executed on             LinuxIFC date 2020.05.11  01:42:48

 INCAR:
 POTCAR:    PAW_PBE Ni_pv 06Sep2000
 POTCAR:    PAW_PBE S 06Sep2000
 POTCAR:    PAW_PBE Ni_pv 06Sep2000
   VRHFIN =Ni:

   TITEL  = PAW_PBE Ni_pv 06Sep2000
   POMASS =   58.690; ZVAL   =   16.000    mass and valenz
   ENMAX  =  367.986; ENMIN  =  275.989 eV

 POTCAR:    PAW_PBE S 06Sep2000
   VRHFIN =S : s2p4

   TITEL  = PAW_PBE S 06Sep2000
   POMASS =   32.066; ZVAL   =    6.000    mass and valenz
   ENMAX  =  258.689; ENMIN  =  194.016 eV

 Optimization of the real space projectors (new method)

 maximal supplied QI-value         = 18.90
 optimisation between [QCUT,QGAM] = [ 10.77, 21.73] = [ 32.49,132.25] Ry
 Optimized for a Real-space Cutoff    1.38 Angstroem

   l    n(q)    QCUT    max X(q) W(low)/X(q) W(high)/X(q)  e(spline)
   1      8    10.771     2.836    0.40E-04    0.29E-04    0.12E-06
   1      8    10.771     4.023    0.10E-03    0.48E-04    0.29E-06
   2      8    10.771    73.368    0.42E-03    0.97E-04    0.44E-06
   2      8    10.771    69.010    0.42E-03    0.99E-04    0.45E-06
   0      9    10.771    54.797    0.10E-03    0.56E-04    0.74E-07
   0      9    10.771    24.266    0.89E-04    0.49E-04    0.67E-07
 Optimization of the real space projectors (new method)

 maximal supplied QI-value         = 19.84
 optimisation between [QCUT,QGAM] = [ 10.71, 21.63] = [ 32.15,130.99] Ry
 Optimized for a Real-space Cutoff    1.19 Angstroem

   l    n(q)    QCUT    max X(q) W(low)/X(q) W(high)/X(q)  e(spline)
   0      8    10.715   187.594    0.41E-03    0.53E-04    0.66E-07
   0      8    10.715   164.243    0.41E-03    0.53E-04    0.65E-07
   1      7    10.715    67.533    0.19E-03    0.59E-03    0.68E-07
   1      7    10.715    50.729    0.19E-03    0.58E-03    0.67E-07
  PAW_PBE Ni_pv 06Sep2000               :
  PAW_PBE S 06Sep2000                   :

 POSCAR: Type_052 Type_152
  positions in cartesian coordinates
 exchange correlation table for  LEXCH =        8
   RHO(1)=    0.500       N(1)  =     2000
   RHO(2)=  100.500       N(2)  =     4000

 ion  position               nearest neighbor table
   1  0.261  0.479  0.291-  79 2.25  63 2.26  87 2.26  59 2.36  64 2.36   6 2.53  21 2.53
   2  0.355  0.385  0.419-  57 2.10  65 2.20  80 2.22  59 2.26  64 2.26  71 2.27   7 2.53  22 2.53

   3  0.167  0.073  0.162-  60 2.06  88 2.22  69 2.25  61 2.36  89 2.36  38 2.53  32 2.53
   4  0.214  0.524  0.044-  55 2.02  62 2.03  86 2.06  29 2.42  39 2.50
   5  0.274  0.333  0.128-  60 2.09  62 2.26  55 2.26  56 2.36  63 2.36  11 2.53  30 2.53
   6  0.368  0.239  0.257-  61 2.25  63 2.26  56 2.26  64 2.36  66 2.36   1 2.53  21 2.53
   7  0.462  0.145  0.385-  65 2.07  85 2.25  64 2.26  66 2.26  67 2.36   2 2.53  22 2.53
   8  0.000  0.372  0.257-  63 2.25  69 2.26 100 2.26  53 2.36  72 2.36  12 2.53  19 2.53
   9  0.094  0.278  0.385-  58 2.01  54 2.22  64 2.25  53 2.26  72 2.26  10 2.46  20 2.53  13 2.53

[...]

  53  0.073  0.167  0.306-  26 2.25   9 2.26  20 2.26   8 2.36  19 2.36  54 2.54
  54  0.167  0.063  0.405-  10 2.06  20 2.12  27 2.19   9 2.22  53 2.54  83 2.64
  55  0.385  0.355  0.050-  14 1.98   4 2.02  39 2.09  11 2.26   5 2.26
  56  0.479  0.261  0.178-  14 2.11  15 2.25   6 2.26  21 2.26   5 2.36  11 2.36
  57  0.289  0.469  0.502-  37 2.01   2 2.10  80 2.56  71 2.66  65 2.78
  58  0.033  0.310  0.468-   9 2.01  10 2.12  13 2.12  78 2.72
  59  0.436  0.472  0.350-  34 2.25   2 2.26  22 2.26   1 2.36  21 2.36
  60  0.261  0.157  0.112-   3 2.06  38 2.07   5 2.09  61 2.70
  61  0.342  0.066  0.221-   6 2.25  26 2.26  49 2.26   3 2.36  38 2.36  60 2.70
  62  0.080  0.491  0.093-   4 2.03  24 2.25   5 2.26  30 2.26  29 2.40
  63  0.174  0.397  0.221-   8 2.25   6 2.26   1 2.26   5 2.36  30 2.36
  64  0.268  0.303  0.350-   9 2.25   2 2.26   7 2.26   1 2.36   6 2.36
  65  0.384  0.206  0.468-   7 2.07  10 2.08  16 2.13   2 2.20  57 2.78
  66  0.573  0.167  0.306-  40 2.25  22 2.26   7 2.26  21 2.36   6 2.36
  67  0.667  0.073  0.435-  23 2.04  16 2.04  41 2.25  22 2.36   7 2.36
  68  0.832  0.397  0.057-  18 2.00  24 2.13  17 2.15  75 2.74
  69  0.979  0.261  0.178-   3 2.25  19 2.26   8 2.26  18 2.36  24 2.36
  70  0.603  0.632  0.562-  28 2.05  44 2.05  51 2.06
  71  0.539  0.374  0.465-  22 2.07  23 2.10  44 2.13   2 2.27  57 2.66
  72  0.936  0.472  0.350-  48 2.25  13 2.26   9 2.26  12 2.36   8 2.36
  73  0.748  0.160  0.093-  45 2.06  14 2.11  17 2.17  18 2.25  15 2.26  52 2.26  25 2.54
  74  0.842  0.066  0.221-  19 2.25  40 2.26  35 2.26  15 2.36  52 2.36
  75  0.578  0.487  0.099-  17 2.10  39 2.11  11 2.16  18 2.22  43 2.22  68 2.74
  76  0.674  0.397  0.221-  21 2.25  19 2.26  12 2.26  18 2.36  43 2.36
  77  0.768  0.303  0.350-  22 2.25  13 2.26  20 2.26  12 2.36  19 2.36  78 2.68
  78  0.845  0.222  0.459-  23 2.08  20 2.08  13 2.10  77 2.68  58 2.72
  79  0.073  0.667  0.306-   1 2.25  36 2.26  48 2.26  35 2.36  47 2.36  80 2.55
  80  0.165  0.567  0.406-  37 2.06  48 2.10  36 2.19   2 2.22  79 2.55  57 2.56
  81  0.332  0.897  0.057-  32 2.00  38 2.13  31 2.15  88 2.74
  82  0.479  0.761  0.178-  43 2.25  33 2.26  49 2.26  32 2.36  38 2.36
  83  0.279  0.971  0.507-  10 2.05  28 2.08  27 2.24  97 2.62  54 2.64  91 2.75
  84  0.018  0.829  0.473-  41 2.07  37 2.11  36 2.17  42 2.26 104 2.68
  85  0.436  0.972  0.350-   7 2.25  27 2.26  50 2.26  26 2.36  49 2.36
  86  0.248  0.660  0.093-   4 2.06  29 2.11  31 2.17  32 2.25  30 2.26  11 2.26  39 2.54
  87  0.342  0.566  0.221-  33 2.25   1 2.26  21 2.26  30 2.36  11 2.36
  88  0.078  0.987  0.099-  31 2.10  25 2.11  52 2.16  32 2.22   3 2.22  81 2.74
  89  0.174  0.897  0.221-  35 2.25  33 2.26  26 2.26  32 2.36   3 2.36
  90  0.268  0.803  0.350-  36 2.25  27 2.26  34 2.26  26 2.36  33 2.36
  91  0.362  0.709  0.478-  28 2.04  44 2.06  37 2.09  27 2.36  34 2.36  83 2.75
  92  0.573  0.667  0.306-  12 2.25  50 2.26  34 2.26  49 2.36  33 2.36
  93  0.667  0.573  0.435-  44 2.05  51 2.06  13 2.25  50 2.36  34 2.36
  94  0.885  0.855  0.050-  29 1.98  45 2.02  25 2.09  52 2.26  46 2.26
  95  0.979  0.761  0.178-  29 2.11  30 2.25  47 2.26  35 2.26  46 2.36  52 2.36
  96  0.698  0.056  0.556-  42 2.01  16 2.06  23 2.06
  97  0.530  0.878  0.478-  28 2.05  51 2.06  16 2.12  50 2.36  27 2.36  83 2.62
  98  0.936  0.972  0.350-  20 2.25  41 2.26  36 2.26  40 2.36  35 2.36
  99  0.761  0.657  0.112-  43 2.06  24 2.07  46 2.09 100 2.70
 100  0.842  0.566  0.221-  47 2.25  12 2.26   8 2.26  43 2.36  24 2.36  99 2.70
 101  0.580  0.991  0.093-  45 2.03  38 2.25  46 2.26  15 2.26  14 2.40
 102  0.674  0.897  0.221-  49 2.25  47 2.26  40 2.26  46 2.36  15 2.36
 103  0.768  0.803  0.350-  50 2.25  41 2.26  48 2.26  40 2.36  47 2.36
 104  0.849  0.722  0.465-  42 2.09  51 2.11  41 2.14  48 2.18  84 2.68

  LATTYP: Found a base centered orthorhombic cell.
 ALAT       =    11.8257374459
 B/A-ratio  =     1.6199260857
 C/A-ratio  =     1.9350716598

  Lattice vectors:

 A1 = (  11.2564630382,   0.0000000000,   0.0000000000)
 A2 = (  -5.0445621212, -10.0628203371,   0.0000000000)
 A3 = (   0.0000000000,   0.0000000000, -22.8836493875)

Analysis of symmetry for initial positions (statically):
 Subroutine PRICEL returns:
 Original cell was already a primitive cell.

 Routine SETGRP: Setting up the symmetry group for a
 base centered orthorhombic supercell.

 Subroutine GETGRP returns: Found  1 space group operations
 (whereof  1 operations were pure point group operations)
 out of a pool of  8 trial point group operations.

The static configuration has the point symmetry C_1 .

Analysis of symmetry for dynamics (positions and initial velocities):
 Subroutine PRICEL returns:
 Original cell was already a primitive cell.

 Routine SETGRP: Setting up the symmetry group for a
 base centered orthorhombic supercell.

 Subroutine GETGRP returns: Found  1 space group operations
 (whereof  1 operations were pure point group operations)
 out of a pool of  8 trial point group operations.

The dynamic configuration has the point symmetry C_1 .

 Subroutine INISYM returns: Found  1 space group operations
 (whereof  1 operations are pure point group operations),
 and found     1 'primitive' translations

 KPOINTS: gamma-point-only calculation. no periodi

Automatic generation of k-mesh.
Space group operators:
 irot       det(A)        alpha          n_x          n_y          n_z        tau_x        tau_y        tau_z
    1     1.000000     0.000001     1.000000     0.000000     0.000000     0.000000     0.000000     0.000000

 Subroutine IBZKPT returns following result:

 Found      1 irreducible k-points:

 Following reciprocal coordinates:
            Coordinates               Weight
  0.000000  0.000000  0.000000      1.000000

 Following cartesian coordinates:
            Coordinates               Weight
  0.000000  0.000000  0.000000      1.000000

 SYSTEM =  "Millerite NiS"
 POSCAR =  Type_052 Type_152

 Startparameter for this run:
   NWRITE =      2    write-flag & timer
   PREC   = normal    normal or accurate (medium, high low for compatibility)
   ISTART =      0    job   : 0-new  1-cont  2-samecut
   ICHARG =      2    charge: 1-file 2-atom 10-const
   ISPIN  =      1    spin polarized calculation?
   LNONCOLLINEAR =      F non collinear calculations
   LSORBIT =      F    spin-orbit coupling
   INIWAV =      1    electr: 0-lowe 1-rand  2-diag
   LASPH  =      F    aspherical Exc in radial PAW
   METAGGA=      F    non-selfconsistent MetaGGA calc.

 Electronic Relaxation 1
   ENCUT  =  450.0 eV  33.07 Ry    5.75 a.u.  19.47 19.47 39.58*2*pi/ulx,y,z
   ENINI  =  450.0     initial cutoff
   ENAUG  =  703.4 eV  augmentation charge cutoff
   NELM   =    100;   NELMIN=  2; NELMDL= -5     # of ELM steps
   EDIFF  = 0.1E-03   stopping-criterion for ELM
   LREAL  =      T    real-space projection
   NLSPLINE    = F    spline interpolate recip. space projectors
   LCOMPAT=      F    compatible to vasp.4.4
   GGA_COMPAT  = T    GGA compatible to vasp.4.4-vasp.4.6
   LMAXPAW     = -100 max onsite density
   LMAXMIX     =    2 max onsite mixed and CHGCAR
   VOSKOWN=      0    Vosko Wilk Nusair interpolation
   ROPT   =   -0.00050  -0.00050
 Ionic relaxation
   EDIFFG = 0.1E-02   stopping-criterion for IOM
   NSW    =      0    number of steps for IOM
   NBLOCK =      1;   KBLOCK =      1    inner block; outer block
   IBRION =     -1    ionic relax: 0-MD 1-quasi-New 2-CG
   NFREE  =      0    steps in history (QN), initial steepest desc. (CG)
   ISIF   =      2    stress and relaxation
   IWAVPR =     10    prediction:  0-non 1-charg 2-wave 3-comb
   ISYM   =      2    0-nonsym 1-usesym 2-fastsym
   LCORR  =      T    Harris-Foulkes like correction to forces

   POTIM  = 0.5000    time-step for ionic-motion
   TEIN   =    0.0    initial temperature
   TEBEG  =    0.0;   TEEND  =   0.0 temperature during run
   SMASS  =  -3.00    Nose mass-parameter (am)
   estimated Nose-frequenzy (Omega)   =  0.10E-29 period in steps =****** mass=  -0.290E-26a.u.
   SCALEE = 1.0000    scale energy and forces
   NPACO  =    256;   APACO  = 16.0  distance and # of slots for P.C.
   PSTRESS=    0.0 pullay stress
[...]
     0.000000000  0.000000000 22.883649388     0.000000000  0.000000000  0.043699324

  length of vectors
    11.256463038 11.256463038 22.883649388     0.099375718  0.099375718  0.043699324

 FORCES acting on ions
    electron-ion (+dipol)            ewald-force                    non-local-force                 convergence-correction
   0.312E+03 -.359E+03 -.647E+03   -.312E+03 0.359E+03 0.645E+03   0.544E+00 -.499E+00 0.110E+01   0.548E-02 0.140E-01 0.263E-01
   0.439E+03 -.325E+03 -.387E+04   -.439E+03 0.324E+03 0.387E+04   0.598E+00 0.356E+00 -.242E+00   0.180E-01 -.467E-02 0.224E-01
   0.137E+03 -.606E+03 0.284E+04   -.139E+03 0.610E+03 -.284E+04   0.166E+01 -.353E+01 0.421E+00   -.790E-02 -.843E-02 0.119E-03
   0.774E+03 0.295E+03 0.625E+04   -.777E+03 -.294E+03 -.626E+04   0.260E+01 -.309E+00 0.512E+01   -.685E-02 0.541E-02 -.226E-01
   0.871E+03 0.716E+03 0.373E+04   -.875E+03 -.718E+03 -.372E+04   0.428E+01 0.238E+01 -.142E+01   -.828E-02 -.187E-01 -.650E-02
   0.362E+03 0.480E+03 0.436E+03   -.364E+03 -.480E+03 -.436E+03   0.163E+01 0.330E+00 0.148E+00   0.149E-02 -.190E-01 0.144E-01
   0.231E+03 0.325E+03 -.245E+04   -.232E+03 -.327E+03 0.245E+04   0.154E+01 0.167E+01 0.205E+01   0.358E-02 -.117E-01 0.252E-01
   -.484E+03 -.297E+01 0.513E+03   0.485E+03 0.359E+01 -.514E+03   -.757E+00 -.536E+00 0.138E+01   -.120E-01 -.560E-03 0.123E-01
   -.336E+03 -.327E+03 -.275E+04   0.341E+03 0.330E+03 0.275E+04   -.402E+01 -.372E+01 0.657E+00   -.109E-01 -.529E-02 0.263E-01
   0.247E+03 -.401E+03 -.533E+04   -.242E+03 0.404E+03 0.534E+04   -.484E+01 -.190E+01 -.400E+01   -.791E-03 -.275E-02 0.991E-02
   -.483E+03 -.240E+03 0.300E+04   0.486E+03 0.240E+03 -.300E+04   -.309E+01 -.103E+01 -.325E+01   0.198E-01 -.419E-02 0.259E-02
   0.166E+03 -.381E+03 -.603E+03   -.166E+03 0.382E+03 0.603E+03   0.680E+00 -.118E+01 0.229E+00   -.989E-02 0.123E-01 0.269E-01
   -.555E+02 -.345E+03 -.410E+04   0.538E+02 0.349E+03 0.410E+04   0.127E+01 -.342E+01 -.213E+01   -.153E-01 0.134E-01 0.224E-01
   0.585E+03 0.187E+03 0.477E+04   -.585E+03 -.190E+03 -.477E+04   0.367E-01 0.224E+01 0.349E+01   0.243E-01 -.264E-01 -.120E-01
   0.347E+03 -.439E+02 0.203E+04   -.348E+03 0.417E+02 -.202E+04   0.697E+00 0.134E+01 -.364E+01   0.173E-01 -.156E-01 -.109E-01
   0.414E+03 -.214E+03 -.549E+04   -.417E+03 0.212E+03 0.549E+04   0.204E+01 0.970E+00 -.265E+01   -.104E-01 -.291E-02 0.298E-02
   -.587E+03 -.150E+03 0.616E+04   0.586E+03 0.154E+03 -.617E+04   0.234E+00 -.349E+01 0.202E+00   0.140E-01 -.178E-01 -.839E-02
   -.446E+03 0.223E+03 0.339E+04   0.448E+03 -.226E+03 -.338E+04   -.152E+01 0.199E+01 -.173E+01   0.241E-02 -.748E-02 -.129E-01
   0.127E+03 0.398E+03 0.440E+03   -.128E+03 -.398E+03 -.442E+03   0.861E+00 0.300E+00 0.169E+01   -.545E-02 -.796E-02 0.911E-02
   0.194E+03 0.456E+03 -.297E+04   -.198E+03 -.460E+03 0.297E+04   0.346E+01 0.393E+01 -.130E+01   -.953E-03 0.686E-02 0.172E-01
   -.540E+03 -.463E+02 0.340E+03   0.541E+03 0.472E+02 -.341E+03   -.150E+01 -.887E+00 0.728E+00   0.249E-01 0.266E-02 0.186E-01
   -.532E+03 -.215E+02 -.249E+04   0.534E+03 0.213E+02 0.248E+04   -.168E+01 -.318E+00 0.307E+01   0.128E-01 0.830E-02 0.279E-01
   -.641E+03 -.339E+03 -.551E+04   0.643E+03 0.340E+03 0.551E+04   -.157E+01 -.677E+00 -.364E+01   0.417E-04 0.222E-01 0.114E-02
   -.489E+03 0.967E+02 0.409E+04   0.491E+03 -.973E+02 -.409E+04   -.158E+01 -.403E-02 0.233E+01   -.176E-01 -.322E-02 -.326E-02
   -.564E+03 -.608E+03 0.621E+04   0.565E+03 0.605E+03 -.621E+04   -.127E+01 0.377E+01 -.541E+00   -.141E-01 0.758E-02 -.124E-02
   0.254E+03 -.424E+03 -.503E+03   -.255E+03 0.424E+03 0.502E+03   0.452E+00 -.459E+00 0.109E+01   -.227E-02 -.103E-01 0.123E-01
   0.480E+03 -.402E+03 -.350E+04   -.480E+03 0.399E+03 0.350E+04   -.118E+00 0.190E+01 0.275E+01   0.156E-01 -.169E-01 0.111E-01
   0.490E+03 -.394E+03 -.609E+04   -.490E+03 0.394E+03 0.610E+04   -.101E+00 0.406E+00 -.620E+01   0.151E-01 -.294E-01 -.557E-02
   0.587E+03 0.188E+03 0.476E+04   -.588E+03 -.191E+03 -.477E+04   0.608E-01 0.221E+01 0.355E+01   -.150E-01 0.346E-01 -.628E-02
   0.361E+03 -.426E+02 0.202E+04   -.362E+03 0.403E+02 -.202E+04   0.701E+00 0.134E+01 -.371E+01   -.688E-02 0.181E-01 0.608E-02
   -.583E+03 -.152E+03 0.617E+04   0.583E+03 0.155E+03 -.617E+04   0.202E+00 -.356E+01 0.234E+00   -.143E-01 0.249E-01 -.113E-01
   -.438E+03 0.221E+03 0.340E+04   0.440E+03 -.223E+03 -.339E+04   -.153E+01 0.195E+01 -.172E+01   0.101E-02 0.219E-01 0.111E-01
   0.155E+03 0.405E+03 0.506E+03   -.156E+03 -.406E+03 -.507E+03   0.759E+00 0.702E+00 0.127E+01   0.931E-02 0.687E-02 0.192E-01
   0.244E+03 0.455E+03 -.239E+04   -.245E+03 -.455E+03 0.239E+04   0.827E+00 0.625E+00 0.265E+01   0.257E-01 -.414E-02 0.337E-01
   -.531E+03 -.595E+02 0.309E+03   0.532E+03 0.608E+02 -.310E+03   -.119E+01 -.114E+01 0.101E+01   -.182E-02 0.110E-01 0.300E-02
   -.433E+03 -.228E+03 -.265E+04   0.437E+03 0.231E+03 0.265E+04   -.341E+01 -.286E+01 0.884E+00   0.393E-02 0.873E-02 -.168E-02
   0.255E+03 0.794E+01 -.542E+04   -.254E+03 -.656E+01 0.543E+04   -.131E+01 0.369E-01 -.333E+01   0.265E-01 -.104E-01 0.147E-01
   -.486E+03 0.927E+02 0.410E+04   0.489E+03 -.933E+02 -.410E+04   -.159E+01 -.401E-01 0.235E+01   -.211E-02 -.716E-03 0.591E-02
   -.563E+03 -.607E+03 0.621E+04   0.564E+03 0.604E+03 -.621E+04   -.131E+01 0.387E+01 -.561E+00   0.193E-01 -.918E-02 -.177E-01
   0.231E+03 -.375E+03 -.651E+03   -.231E+03 0.376E+03 0.650E+03   0.658E+00 -.119E+01 0.488E+00   0.354E-02 -.447E-02 0.101E-01
   -.111E+03 -.341E+03 -.340E+04   0.109E+03 0.346E+03 0.340E+04   0.828E+00 -.387E+01 0.891E+00   -.186E-01 0.671E-02 -.121E-02
   -.561E+03 0.354E+03 -.594E+04   0.561E+03 -.351E+03 0.594E+04   0.248E+00 -.430E+01 -.254E+01   -.175E-01 0.563E-03 0.336E-02
   0.123E+03 -.592E+03 0.284E+04   -.125E+03 0.595E+03 -.284E+04   0.173E+01 -.343E+01 0.377E+00   0.573E-02 -.181E-02 0.331E-02
   0.153E+03 0.810E+03 -.535E+04   -.155E+03 -.816E+03 0.535E+04   0.146E+01 0.399E+01 -.167E+01   0.188E-01 0.355E-02 0.330E-03
   0.770E+03 0.295E+03 0.625E+04   -.773E+03 -.294E+03 -.626E+04   0.258E+01 -.312E+00 0.515E+01   0.190E-01 -.421E-03 -.526E-02
   0.863E+03 0.721E+03 0.373E+04   -.867E+03 -.723E+03 -.372E+04   0.428E+01 0.236E+01 -.136E+01   0.635E-02 0.166E-01 -.363E-02
   0.339E+03 0.522E+03 0.413E+03   -.340E+03 -.523E+03 -.413E+03   0.156E+01 0.259E+00 0.238E+00   -.469E-02 0.128E-01 0.119E-01
   0.272E+03 0.690E+03 -.289E+04   -.276E+03 -.692E+03 0.289E+04   0.292E+01 0.274E+01 -.643E+00   -.242E-01 -.105E-02 0.121E-01
   -.498E+03 0.137E+02 0.607E+03   0.499E+03 -.135E+02 -.608E+03   -.122E+01 -.209E+00 0.684E+00   -.280E-02 -.999E-02 0.163E-01
   -.539E+03 0.612E+02 -.234E+04   0.540E+03 -.609E+02 0.233E+04   -.888E+00 -.516E+00 0.310E+01   -.940E-02 -.169E-01 0.272E-01
   -.841E+03 0.575E+03 -.529E+04   0.846E+03 -.577E+03 0.530E+04   -.379E+01 0.162E+01 -.203E+01   -.279E-01 -.185E-01 -.666E-03
   -.486E+03 -.241E+03 0.300E+04   0.489E+03 0.242E+03 -.299E+04   -.308E+01 -.111E+01 -.325E+01   -.482E-02 0.106E-01 -.132E-01
   -.566E+02 0.863E+02 -.183E+03   0.575E+02 -.877E+02 0.180E+03   -.113E+01 0.165E+01 0.156E+01   -.191E-02 -.471E-02 0.833E-02
   0.163E+03 0.123E+03 -.125E+04   -.164E+03 -.125E+03 0.125E+04   0.101E+01 0.113E+01 0.204E+01   0.114E-02 0.104E-02 0.594E-02
   0.293E+03 0.357E+03 0.235E+04   -.295E+03 -.361E+03 -.235E+04   0.979E+00 0.329E+01 0.305E+01   0.364E-02 -.845E-02 -.769E-02
   0.387E+02 0.121E+03 0.729E+03   -.384E+02 -.122E+03 -.727E+03   -.485E+00 0.157E+01 -.914E-01   0.787E-02 -.708E-02 -.352E-02
   0.220E+03 0.131E+03 -.231E+04   -.221E+03 -.132E+03 0.231E+04   0.675E+00 0.200E+00 -.326E+01   0.649E-02 -.524E-02 0.660E-02
   0.359E+00 -.203E+03 -.225E+04   0.102E+01 0.206E+03 0.226E+04   -.114E+01 -.122E+01 -.239E+01   -.346E-02 -.250E-03 0.334E-02
   -.747E+02 -.140E+03 -.648E+03   0.754E+02 0.143E+03 0.648E+03   -.426E+00 -.257E+01 -.547E+00   0.115E-01 0.460E-02 0.137E-01
   0.111E+03 -.117E+03 0.185E+04   -.113E+03 0.119E+03 -.185E+04   0.124E+01 -.388E+00 0.379E+01   -.582E-02 -.812E-02 0.396E-03
[...]
   0.339E+03 -.532E+02 -.186E+04   -.343E+03 0.527E+02 0.186E+04   0.176E+01 0.775E-01 -.195E+01   0.193E-01 -.111E-01 0.239E-02
   -.940E+02 0.130E+03 -.156E+03   0.950E+02 -.132E+03 0.154E+03   -.101E+01 0.167E+01 0.203E+01   -.141E-02 0.207E-02 0.136E-01
   -.206E+03 0.272E+03 -.131E+04   0.208E+03 -.274E+03 0.131E+04   -.541E+00 0.722E+00 -.634E+00   -.887E-02 0.392E-02 0.140E-01
   0.292E+03 0.357E+03 0.235E+04   -.294E+03 -.361E+03 -.235E+04   0.949E+00 0.329E+01 0.313E+01   0.297E-03 0.134E-01 -.186E-02
   0.398E+02 0.123E+03 0.725E+03   -.394E+02 -.124E+03 -.723E+03   -.526E+00 0.151E+01 -.172E+00   -.329E-02 0.122E-01 0.107E-02
   -.145E+03 -.130E+03 -.245E+04   0.145E+03 0.131E+03 0.245E+04   -.145E+00 0.425E+00 -.372E+00   -.313E-02 0.470E-02 0.392E-02
   -.666E+02 -.207E+03 -.175E+04   0.697E+02 0.210E+03 0.175E+04   -.195E+01 -.128E+01 -.745E+00   0.747E-03 -.101E-01 0.577E-03
   -.111E+03 -.168E+03 -.716E+03   0.112E+03 0.171E+03 0.716E+03   -.124E+01 -.268E+01 0.116E+00   -.993E-03 0.452E-02 0.114E-02
   0.109E+03 -.114E+03 0.185E+04   -.110E+03 0.116E+03 -.185E+04   0.116E+01 -.358E+00 0.373E+01   -.551E-03 0.517E-03 0.352E-03
   -.502E+02 -.127E+03 0.512E+03   0.517E+02 0.129E+03 -.511E+03   -.132E+01 -.221E+01 -.188E+00   -.464E-02 0.386E-02 0.846E-03
   0.489E+03 0.214E+03 0.186E+04   -.493E+03 -.216E+03 -.186E+04   0.156E+01 0.946E+00 0.254E+01   0.658E-02 -.182E-02 -.261E-02
   0.225E+03 0.378E+02 0.491E+03   -.228E+03 -.377E+02 -.491E+03   0.275E+01 -.867E-01 0.648E+00   0.197E-02 -.726E-03 0.102E-02
   0.148E+03 0.357E+02 -.629E+03   -.151E+03 -.353E+02 0.629E+03   0.280E+01 -.161E+00 -.734E+00   -.655E-02 -.102E-02 0.692E-02
   -.793E+02 0.410E+03 -.184E+04   0.782E+02 -.413E+03 0.184E+04   0.851E+00 0.164E+01 -.105E+01   -.148E-01 -.463E-02 0.174E-02
   -.120E+02 0.110E+02 -.124E+02   -.867E-12 0.182E-11 0.205E-11   0.118E+02 -.110E+02 0.117E+02   0.446E-01 -.299E-01 0.463E+00

 POSITION                                       TOTAL-FORCE (eV/Angst)
      5.35228      4.81788      6.64784         0.076046     -0.347973     -0.108170
      5.93595      3.87238      9.58390         0.383760     -0.547183     -0.734225
      2.24633      0.73197      3.71178        -0.510556      0.069371      1.401715
      5.04967      5.27311      1.01116        -0.144128      0.428322     -1.564099
      4.76861      3.35453      2.93606         0.042049      0.220132      0.859644
      5.35228      2.40903      5.87212        -0.153070     -0.108694      0.130182
      5.93595      1.46353      8.80817         0.565689     -0.436860     -1.556431
      1.87746      3.73836      5.87212        -0.019482      0.086575     -0.036785
      2.46113      2.79286      8.80817         0.498502     -0.015559     -2.556504
      3.34678      1.53137     10.72413        -0.083016      0.943158      0.379987
      6.92203      4.68386      2.93606        -0.096068     -0.319238      2.095168
     10.98051      4.81788      6.64784         0.077632     -0.168383     -0.056685
     11.56418      3.87238      9.58390        -0.353340      1.169814     -1.285727
      7.21125      2.20469      2.06995        -0.044900     -0.593052     -0.753867
      7.87456      0.73197      3.71178        -0.121104     -0.905367      1.560667
      6.52944      0.45888     11.45633        -1.216082     -0.574635      0.425087
      9.35127      3.36979      0.87419        -0.542021     -0.418153     -1.084812
     10.39684      3.35453      2.93606         0.129040     -0.657092      3.394010
     10.98051      2.40903      5.87212         0.015771      0.175326      0.065765
     11.56418      1.46353      8.80817        -1.023904     -0.360838     -1.731726
      7.50570      3.73836      5.87212        -0.015618      0.064799      0.047016
      8.08937      2.79286      8.80817         0.147828     -0.498947     -1.688023
      8.74365      1.95185     11.32709         0.846400      0.876888      0.454751
     12.55026      4.68386      2.93606         0.933769     -0.612412      1.130276
     10.63072      0.03313      0.71645         0.064409      0.601549     -1.040577
      7.87456      9.84929      6.64784         0.082962     -0.272734     -0.080020
      8.45823      8.90379      9.58390         0.168415     -0.323340      0.361224
      8.99721      8.02779     12.19184         0.057195      0.902741      1.701930
      4.10528      7.23608      2.06991        -0.047357     -0.606228     -0.739771
      4.76861      5.76338      3.71178        -0.087075     -0.913687      1.532491
      6.24533      8.40120      0.87419        -0.564035     -0.391975     -1.079971
      7.29089      8.38594      2.93606         0.130833     -0.670632      3.418938
      7.87456      7.44044      5.87212         0.011243      0.102398      0.095683
      8.45823      6.49494      8.80817         0.233611     -0.024804     -0.100432
      4.39975      8.76977      5.87212         0.032981      0.096277      0.032054
      4.98341      7.82427      8.80817         0.159023      0.496955     -1.426129
      5.62638      6.63867     10.88419        -0.132634      1.400528      0.743887
      9.44431      9.71527      2.93606         0.921379     -0.611945      1.090816
      7.52476      5.06455      0.71645         0.064062      0.598711     -1.058781
     13.50279      9.84929      6.64784         0.093212     -0.220108     -0.088026
     14.08646      8.90379      9.58390        -0.642420      0.889898     -2.771712
     13.70680      8.89635     11.86161         0.628005     -1.173723      0.382965
     10.39684      5.76338      3.71178        -0.511231      0.095275      1.326991
      8.89244      5.54026     11.31951        -0.668848     -1.800902     -0.074658
      8.15562      0.24171      1.01115        -0.136880      0.434917     -1.582387
     12.91912      8.38594      2.93606         0.034497      0.199097      0.849537
     13.50279      7.44044      5.87212        -0.242030     -0.039833      0.117540
     14.08646      6.49494      8.80817        -1.132261      0.038768     -1.059925
     10.02798      8.76977      5.87212         0.023065      0.060110      0.039339
     10.61165      7.82427      8.80817        -0.097611     -0.207084     -0.267357
     11.23382      7.00025     11.36774         1.944904      0.187084      0.050301
     15.07254      9.71527      2.93606        -0.082376     -0.337818      2.143577
      1.66190      1.67871      7.01153        -0.213077      0.248968     -1.124940
      2.19770      0.63210      9.26757        -0.325757     -0.397792     -0.055849
      6.12279      3.56972      1.13942        -0.668901     -0.617451     -3.081707
      6.70646      2.62422      4.07548        -0.105714      0.240118      1.496225
      5.61608      4.72317     11.47687        -0.332247     -0.860547      2.426215
      1.93707      3.11994     10.72030         0.232345      1.435316      3.637846
      7.29013      4.74605      7.99931         0.346366      0.211574     -0.850982
      3.73426      1.57801      2.56345        -0.199419      1.489749     -2.185891
[...]
      7.07033      8.08475      7.99931         0.033616     -0.396632     -0.498484
      7.65400      7.13925     10.93537        -2.380685     -0.421758     -1.544367
      9.81241      6.71012      7.01153        -0.062162     -0.052056     -0.025583
     10.39608      5.76462      9.94759         0.952007     -1.149180     -2.372642
     14.27330      8.60113      1.13942        -0.706999     -0.640812     -3.092722
     14.85697      7.65563      4.07548        -0.109198      0.212283      1.561065
      8.14242      0.56738     12.72684         0.489415      0.637075      3.665984
     10.39608      8.83196     10.93537         1.131622      1.662245     -1.199195
     15.44064      9.77746      7.99931        -0.121494      0.156979     -0.075362
     11.88477      6.60942      2.56346        -0.235424      1.491065     -2.192746
     12.33469      5.69156      5.06325         0.236751     -0.028104      0.562520
     11.53122      9.97575      2.12720        -1.933733     -0.389651      0.585654
     12.11489      9.03025      5.06325         0.090716      0.075559      0.246137
     12.69856      8.08475      7.99931        -0.212084      0.257855     -0.661272
     13.19802      7.26965     10.64663        -0.307195     -1.742763      1.353494
    total drift:                               -0.225570     -0.038765     -0.172208

  FREE ENERGIE OF THE ION-ELECTRON SYSTEM (eV)
  free  energy   TOTEN  =      -507.26739270 eV

  energy  without entropy=     -505.94531199  energy(sigma->0) =     -506.60635234