 vasp.5.4.4.18Apr17-6-g9f103f2a35 (build Aug 13 2019 17:33:20) gamma-only

 executed on             LinuxIFC date 2020.05.10  11:50:11

 INCAR:
 POTCAR:    PAW_PBE Ni_pv 06Sep2000
 POTCAR:    PAW_PBE S 06Sep2000
 POTCAR:    PAW_PBE Ni_pv 06Sep2000
   VRHFIN =Ni:

   TITEL  = PAW_PBE Ni_pv 06Sep2000
   POMASS =   58.690; ZVAL   =   16.000    mass and valenz
   ENMAX  =  367.986; ENMIN  =  275.989 eV

 POTCAR:    PAW_PBE S 06Sep2000
   VRHFIN =S : s2p4

   TITEL  = PAW_PBE S 06Sep2000
   POMASS =   32.066; ZVAL   =    6.000    mass and valenz
   ENMAX  =  258.689; ENMIN  =  194.016 eV

 Optimization of the real space projectors (new method)

 maximal supplied QI-value         = 18.90
 optimisation between [QCUT,QGAM] = [ 10.77, 21.73] = [ 32.49,132.25] Ry
 Optimized for a Real-space Cutoff    1.38 Angstroem

   l    n(q)    QCUT    max X(q) W(low)/X(q) W(high)/X(q)  e(spline)
   1      8    10.771     2.836    0.40E-04    0.29E-04    0.12E-06
   1      8    10.771     4.023    0.10E-03    0.48E-04    0.29E-06
   2      8    10.771    73.368    0.42E-03    0.97E-04    0.44E-06
   2      8    10.771    69.010    0.42E-03    0.99E-04    0.45E-06
   0      9    10.771    54.797    0.10E-03    0.56E-04    0.74E-07
   0      9    10.771    24.266    0.89E-04    0.49E-04    0.67E-07
 Optimization of the real space projectors (new method)

 maximal supplied QI-value         = 19.84
 optimisation between [QCUT,QGAM] = [ 10.71, 21.63] = [ 32.15,130.99] Ry
 Optimized for a Real-space Cutoff    1.19 Angstroem

   l    n(q)    QCUT    max X(q) W(low)/X(q) W(high)/X(q)  e(spline)
   0      8    10.715   187.594    0.41E-03    0.53E-04    0.66E-07
   0      8    10.715   164.243    0.41E-03    0.53E-04    0.65E-07
   1      7    10.715    67.533    0.19E-03    0.59E-03    0.68E-07
   1      7    10.715    50.729    0.19E-03    0.58E-03    0.67E-07
  PAW_PBE Ni_pv 06Sep2000               :
  PAW_PBE S 06Sep2000                   :

 POSCAR: Type_026 Type_126
  positions in cartesian coordinates
 exchange correlation table for  LEXCH =        8
   RHO(1)=    0.500       N(1)  =     2000
   RHO(2)=  100.500       N(2)  =     4000

 ion  position               nearest neighbor table
   1  0.446  0.489  0.185-  44 2.08  45 2.09  29 2.16  35 2.27   2 2.48
   2  0.484  0.468  0.326-  41 2.04  35 2.09  45 2.10  30 2.15   1 2.48
   3  0.158  0.981  0.103-  36 2.07  37 2.07  27 2.08  33 2.16
   4  0.215  0.964  0.253-  38 2.07  34 2.21  28 2.25  37 2.26  33 2.26  12 2.53   8 2.53
   5  0.447  0.176  0.182-  39 2.08  40 2.10  33 2.17  35 2.29   6 2.49
   6  0.482  0.192  0.325-  41 2.04  35 2.09  40 2.10  34 2.16   5 2.49
   7  0.158  0.683  0.103-  36 2.07  37 2.07  31 2.08  29 2.16
   8  0.215  0.700  0.253-  38 2.07  30 2.20  32 2.25  37 2.26  29 2.26  12 2.53   4 2.53
   9  0.124  0.332  0.155-  27 2.09  31 2.09  28 2.16  32 2.16  18 2.44  14 2.44  10 2.51
  10  0.183  0.332  0.296-  28 2.05  32 2.05  35 2.14   9 2.51
  11  0.455  0.833  0.095-  50 2.04  51 2.12  33 2.29  29 2.30  12 2.36
  12  0.407  0.832  0.229-  34 2.15  30 2.15  51 2.25  29 2.26  33 2.26  11 2.36  13 2.38   8 2.53
                             4 2.53
  13  0.474  0.827  0.360-  52 2.02  34 2.07  30 2.07  12 2.38
  14  0.939  0.464  0.163-  31 2.07  48 2.09  42 2.25  49 2.36  32 2.36   9 2.44  18 2.53
  15  0.971  0.489  0.312-  32 2.03  49 2.04  43 2.08
  16  0.656  0.984  0.105-  51 2.07  39 2.07  50 2.08  46 2.17
  17  0.715  0.964  0.253-  52 2.09  47 2.16  40 2.25  51 2.26  46 2.26  25 2.53  21 2.53
  18  0.939  0.200  0.163-  27 2.07  48 2.09  46 2.25  49 2.36  28 2.36   9 2.44  14 2.53
  19  0.971  0.175  0.312-  28 2.03  49 2.04  47 2.08
  20  0.655  0.679  0.105-  51 2.07  44 2.08  50 2.08  42 2.17
  21  0.715  0.700  0.253-  52 2.08  43 2.16  45 2.25  51 2.26  42 2.26  25 2.53  17 2.53
  22  0.631  0.332  0.139-  39 2.07  44 2.07  48 2.11  40 2.36  45 2.36
  23  0.681  0.332  0.299-  41 2.04  40 2.07  45 2.07  49 2.16
  24  0.954  0.832  0.095-  36 2.04  37 2.12  46 2.29  42 2.29  25 2.36
  25  0.907  0.832  0.229-  43 2.14  47 2.14  37 2.25  42 2.26  46 2.26  24 2.36  26 2.39  21 2.53
                            17 2.53
  26  0.993  0.832  0.355-  38 2.01  47 2.07  43 2.07  25 2.39
  27  0.073  0.170  0.082-  18 2.07   3 2.08   9 2.09  28 2.74
  28  0.111  0.164  0.239-  19 2.03  10 2.05   9 2.16   4 2.25  18 2.36  27 2.74
  29  0.336  0.664  0.149-   7 2.16   1 2.16  12 2.26   8 2.26  11 2.30
  30  0.388  0.660  0.308-  13 2.07  12 2.15   2 2.15   8 2.20
  31  0.073  0.494  0.082-  14 2.07   7 2.08   9 2.09  32 2.74
  32  0.111  0.500  0.239-  15 2.03  10 2.05   9 2.16   8 2.25  14 2.36  31 2.74
  33  0.336  1.000  0.149-   3 2.16   5 2.17  12 2.26   4 2.26  11 2.29
  34  0.387  0.998  0.312-  13 2.07  12 2.15   6 2.16   4 2.21
  35  0.368  0.332  0.269-   2 2.09   6 2.09  10 2.14   1 2.27   5 2.29
  36  0.100  0.832  0.025-  24 2.04   7 2.07   3 2.07  37 2.66
  37  0.092  0.832  0.179-   7 2.07   3 2.07  24 2.12  25 2.25   4 2.26   8 2.26  36 2.66
  38  0.171  0.831  0.343-  26 2.01   8 2.07   4 2.07
  39  0.555  0.162  0.085-  22 2.07  16 2.07   5 2.08  40 2.73
  40  0.611  0.164  0.239-  23 2.07   5 2.10   6 2.10  17 2.25  22 2.36  39 2.73
  41  0.572  0.329  0.394-   2 2.04   6 2.04  23 2.04
  42  0.836  0.664  0.149-  20 2.17  14 2.25  25 2.26  21 2.26  24 2.29
  43  0.879  0.678  0.317-  26 2.07  15 2.08  25 2.14  21 2.16
  44  0.553  0.502  0.086-  22 2.07  20 2.08   1 2.08  45 2.71
  45  0.611  0.500  0.239-  23 2.07   1 2.09   2 2.10  21 2.25  22 2.36  44 2.71
  46  0.836  1.000  0.149-  16 2.17  18 2.25  25 2.26  17 2.26  24 2.29
  47  0.879  0.986  0.317-  26 2.07  19 2.08  25 2.14  17 2.16
  48  0.813  0.332  0.113-  14 2.09  18 2.09  22 2.11  49 2.76
  49  0.868  0.332  0.269-  15 2.04  19 2.04  23 2.16  14 2.36  18 2.36  48 2.76
  50  0.603  0.831  0.026-  11 2.04  16 2.08  20 2.08  51 2.64
  51  0.592  0.832  0.179-  16 2.07  20 2.07  11 2.12  12 2.25  17 2.26  21 2.26  50 2.64
  52  0.651  0.832  0.339-  13 2.02  21 2.08  17 2.09

  LATTYP: Found a simple orthorhombic cell.
 ALAT       =     9.5784100000
 B/A-ratio  =     1.1751911892
 C/A-ratio  =     1.7949213288

  Lattice vectors:

 A1 = (   0.0000000000,  -9.5784100000,   0.0000000000)
 A2 = ( -11.2564630382,   0.0000000000,   0.0000000000)
 A3 = (   0.0000000000,   0.0000000000, -17.1924924047)

Analysis of symmetry for initial positions (statically):
 Subroutine PRICEL returns:
 Original cell was already a primitive cell.

 Routine SETGRP: Setting up the symmetry group for a
 simple orthorhombic supercell.

 Subroutine GETGRP returns: Found  1 space group operations
 (whereof  1 operations were pure point group operations)
 out of a pool of  8 trial point group operations.

The static configuration has the point symmetry C_1 .

Analysis of symmetry for dynamics (positions and initial velocities):
 Subroutine PRICEL returns:
 Original cell was already a primitive cell.

 Routine SETGRP: Setting up the symmetry group for a
 simple orthorhombic supercell.

 Subroutine GETGRP returns: Found  1 space group operations
 (whereof  1 operations were pure point group operations)
 out of a pool of  8 trial point group operations.

The dynamic configuration has the point symmetry C_1 .

 Subroutine INISYM returns: Found  1 space group operations
 (whereof  1 operations are pure point group operations),
 and found     1 'primitive' translations

 KPOINTS: gamma-point-only calculation. no periodi

Automatic generation of k-mesh.
Space group operators:
 irot       det(A)        alpha          n_x          n_y          n_z        tau_x        tau_y        tau_z
    1     1.000000     0.000000     1.000000     0.000000     0.000000     0.000000     0.000000     0.000000

 Subroutine IBZKPT returns following result:

 Found      1 irreducible k-points:

 Following reciprocal coordinates:
            Coordinates               Weight
  0.000000  0.000000  0.000000      1.000000

 Following cartesian coordinates:
            Coordinates               Weight
  0.000000  0.000000  0.000000      1.000000

 SYSTEM =  "Millerite NiS"
 POSCAR =  Type_026 Type_126

 Startparameter for this run:
   NWRITE =      2    write-flag & timer
   PREC   = normal    normal or accurate (medium, high low for compatibility)
   ISTART =      0    job   : 0-new  1-cont  2-samecut
   ICHARG =      2    charge: 1-file 2-atom 10-const
   ISPIN  =      1    spin polarized calculation?
   LNONCOLLINEAR =      F non collinear calculations
   LSORBIT =      F    spin-orbit coupling
   INIWAV =      1    electr: 0-lowe 1-rand  2-diag
   LASPH  =      F    aspherical Exc in radial PAW
   METAGGA=      F    non-selfconsistent MetaGGA calc.

 Electronic Relaxation 1
   ENCUT  =  450.0 eV  33.07 Ry    5.75 a.u.  19.47 16.57 29.74*2*pi/ulx,y,z
   ENINI  =  450.0     initial cutoff
   ENAUG  =  703.4 eV  augmentation charge cutoff
   NELM   =    100;   NELMIN=  2; NELMDL= -5     # of ELM steps
   EDIFF  = 0.1E-03   stopping-criterion for ELM
   LREAL  =      T    real-space projection
   NLSPLINE    = F    spline interpolate recip. space projectors
   LCOMPAT=      F    compatible to vasp.4.4
   GGA_COMPAT  = T    GGA compatible to vasp.4.4-vasp.4.6
   LMAXPAW     = -100 max onsite density
   LMAXMIX     =    2 max onsite mixed and CHGCAR
   VOSKOWN=      0    Vosko Wilk Nusair interpolation
   ROPT   =   -0.00050  -0.00050
 Ionic relaxation
   EDIFFG = 0.1E-02   stopping-criterion for IOM
   NSW    =      0    number of steps for IOM
   NBLOCK =      1;   KBLOCK =      1    inner block; outer block
   IBRION =     -1    ionic relax: 0-MD 1-quasi-New 2-CG
   NFREE  =      0    steps in history (QN), initial steepest desc. (CG)
   ISIF   =      2    stress and relaxation
   IWAVPR =     10    prediction:  0-non 1-charg 2-wave 3-comb
   ISYM   =      2    0-nonsym 1-usesym 2-fastsym
   LCORR  =      T    Harris-Foulkes like correction to forces

   POTIM  = 0.5000    time-step for ionic-motion
   TEIN   =    0.0    initial temperature
   TEBEG  =    0.0;   TEEND  =   0.0 temperature during run
   SMASS  =  -3.00    Nose mass-parameter (am)
   estimated Nose-frequenzy (Omega)   =  0.10E-29 period in steps =****** mass=  -0.290E-26a.u.
   SCALEE = 1.0000    scale energy and forces
   NPACO  =    256;   APACO  = 16.0  distance and # of slots for P.C.
   PSTRESS=    0.0 pullay stress

  Mass of Ions in am
   POMASS =  58.69 32.07
  Ionic Valenz
   ZVAL   =  16.00  6.00
  Atomic Wigner-Seitz radii
  virtual crystal weights
   VCA    =   1.00  1.00
   NELECT =     572.0000    total number of electrons
   NUPDOWN=      -1.0000    fix difference up-down

 DOS related values:
   EMIN   =  10.00;   EMAX   =-10.00  energy-range for DOS
   EFERMI =   0.00
   ISMEAR =     0;   SIGMA  =   0.20  broadening in eV -4-tet -1-fermi 0-gaus

 Electronic relaxation 2 (details)
   IALGO  =     38    algorithm
   LDIAG  =      T    sub-space diagonalisation (order eigenvalues)
   LSUBROT=      F    optimize rotation matrix (better conditioning)
   TURBO    =      0    0=normal 1=particle mesh
   IRESTART =      0    0=no restart 2=restart with 2 vectors
   NREBOOT  =      0    no. of reboots
   NMIN     =      0    reboot dimension
[...]
      26 -87.4827      27 -92.2389      28 -93.2040      29 -92.8948      30 -92.9028
      31 -92.2409      32 -93.2102      33 -92.8654      34 -92.8276      35 -93.0496
      36 -92.4810      37 -93.7402      38 -91.9261      39 -92.4197      40 -93.4692
      41 -92.2448      42 -92.9637      43 -92.8598      44 -92.4285      45 -93.4825
      46 -92.9671      47 -92.8556      48 -92.1692      49 -93.0718      50 -92.4673
      51 -93.6934      52 -92.2021

 E-fermi :  -0.1736     XC(G=0):  -5.3670     alpha+bet : -5.1393

 k-point     1 :       0.0000    0.0000    0.0000
  band No.  band energies     occupation
      1     -64.7907      2.00000
      2     -64.7810      2.00000
      3     -64.7584      2.00000
      4     -64.7581      2.00000
      5     -64.7424      2.00000
      6     -64.7416      2.00000
      7     -64.6855      2.00000
      8     -64.6589      2.00000
      9     -64.6474      2.00000
     10     -64.6452      2.00000
     11     -64.6377      2.00000
     12     -64.6337      2.00000
     13     -64.6316      2.00000
     14     -64.6269      2.00000
     15     -64.6241      2.00000
     16     -64.6154      2.00000
     17     -64.6054      2.00000
     18     -64.5961      2.00000
     19     -64.5758      2.00000
     20     -64.5712      2.00000
     21     -64.5550      2.00000
     22     -64.5343      2.00000
     23     -64.5256      2.00000
     24     -64.5222      2.00000
     25     -64.5106      2.00000
     26     -64.5075      2.00000
     27     -64.5047      2.00000
     28     -64.4962      2.00000
     29     -64.4759      2.00000
     30     -64.4750      2.00000
     31     -64.4682      2.00000
     32     -64.4545      2.00000
     33     -64.4436      2.00000
     34     -64.4400      2.00000
     35     -64.4214      2.00000
     36     -64.4083      2.00000
     37     -64.4036      2.00000
     38     -64.3947      2.00000
     39     -64.3775      2.00000
     40     -64.3553      2.00000
     41     -64.3513      2.00000
     42     -64.3330      2.00000
     43     -64.3317      2.00000
     44     -64.3275      2.00000
     45     -64.3210      2.00000
     46     -64.3009      2.00000
     47     -64.2980      2.00000
     48     -64.2889      2.00000
     49     -64.2781      2.00000
     50     -64.2692      2.00000
     51     -64.2361      2.00000
     52     -64.2306      2.00000
     53     -64.2266      2.00000
     54     -64.2221      2.00000
     55     -64.2189      2.00000
     56     -64.2100      2.00000
     57     -64.2052      2.00000
     58     -64.1960      2.00000
     59     -64.1698      2.00000
     60     -64.1546      2.00000
[...]
    330       5.0184      0.00000
    331       5.0247      0.00000
    332       5.0516      0.00000
    333       5.0883      0.00000
    334       5.2112      0.00000
    335       5.2925      0.00000
    336       5.3855      0.00000
    337       5.4175      0.00000
    338       5.5250      0.00000
    339       5.5810      0.00000
    340       5.6013      0.00000
    341       5.6556      0.00000
    342       5.7733      0.00000
    343       5.8541      0.00000
    344       5.8867      0.00000

 soft charge-density along one line, spin component           1
         0         1         2         3         4         5         6         7         8         9
 total charge-density along one line

------------------------ aborting loop because EDIFF is reached ----------------------------------------

  FORCE on cell =-STRESS in cart. coord.  units (eV):
  Direction    XX          YY          ZZ          XY          YZ          ZX
  Alpha Z  1046.73971  1046.73971  1046.73971
  Ewald  161161.42502160941.33599************   -19.74559   -31.77856   304.20957
  Hartree185916.19269185666.98471************   -12.73748   -21.86069   103.72170
  E(xc)   -3649.79744 -3649.67900 -3654.64739    -0.00533    -0.01422     0.59324
  Local  ************************348272.86758    32.04061    53.11987  -386.64930
  n-local  -413.30413  -417.88367  -431.67254    -0.06476    -0.15049     0.80288
  augment  4181.11320  4186.42573  4192.03045     0.06885     0.23064    -9.43273
  Kinetic  8014.16777  7993.87224  8073.32265     0.35252     0.29698   -15.33084
  Fock        0.00000     0.00000     0.00000     0.00000     0.00000     0.00000
  Total      82.32168    76.72904   100.54665    -0.09119    -0.15648    -2.08548
  in kB      71.15257    66.31872    86.90484    -0.07881    -0.13525    -1.80253

 VOLUME and BASIS-vectors are now :
  energy-cutoff  :      450.00
  volume of cell :     1853.68
      direct lattice vectors                 reciprocal lattice vectors
    11.256463038  0.000000000  0.000000000     0.088837852  0.000000000  0.000000000
     0.000000000  9.578410000  0.000000000     0.000000000  0.104401461  0.000000000
     0.000000000  0.000000000 17.192492405     0.000000000  0.000000000  0.058164923

  length of vectors
    11.256463038  9.578410000 17.192492405     0.088837852  0.104401461  0.058164923

 FORCES acting on ions
    electron-ion (+dipol)            ewald-force                    non-local-force                 convergence-correction
   0.561E+03 0.145E+03 0.128E+04   -.566E+03 -.143E+03 -.128E+04   0.399E+01 -.174E+01 0.441E+01   0.211E-01 -.135E-02 -.105E-01
   0.278E+03 -.365E+03 -.330E+04   -.278E+03 0.368E+03 0.330E+04   -.111E-01 -.162E+01 -.422E+01   0.153E-01 0.876E-02 0.510E-02
   -.313E+03 -.621E+03 0.310E+04   0.315E+03 0.627E+03 -.311E+04   -.825E+00 -.655E+01 0.553E+01   -.133E-01 -.122E-01 0.937E-02
   0.145E+03 -.635E+03 -.142E+04   -.145E+03 0.638E+03 0.142E+04   0.888E+00 -.183E+01 -.472E+01   -.472E-01 -.326E-01 0.287E-01
   0.574E+03 -.137E+03 0.132E+04   -.579E+03 0.135E+03 -.133E+04   0.388E+01 0.231E+01 0.389E+01   0.161E-01 -.168E-02 -.143E-01
   0.287E+03 0.376E+03 -.326E+04   -.288E+03 -.380E+03 0.326E+04   0.288E+00 0.226E+01 -.373E+01   0.111E-01 -.691E-02 0.316E-02
   -.312E+03 0.620E+03 0.310E+04   0.314E+03 -.626E+03 -.311E+04   -.791E+00 0.651E+01 0.560E+01   -.193E-01 0.182E-01 0.822E-02
   0.155E+03 0.626E+03 -.142E+04   -.156E+03 -.629E+03 0.142E+04   0.104E+01 0.171E+01 -.485E+01   -.523E-01 0.350E-01 0.371E-01
   -.854E+03 0.114E+01 0.206E+04   0.857E+03 -.116E+01 -.206E+04   -.169E+01 0.361E-01 0.529E+01   0.734E-02 0.129E-02 -.302E-03
   -.357E+03 0.284E+01 -.275E+04   0.360E+03 -.282E+01 0.275E+04   -.212E+01 -.224E-01 -.220E+00   -.217E-01 0.607E-02 0.953E-02
   0.477E+03 -.268E+01 0.351E+04   -.481E+03 0.270E+01 -.352E+04   0.240E+01 -.503E-01 0.505E+01   -.765E-04 0.439E-02 0.157E-02
   -.135E+03 -.168E+02 -.441E+03   0.137E+03 0.172E+02 0.441E+03   -.222E+01 -.329E+00 -.851E+00   -.673E-02 0.379E-02 -.712E-03
   -.688E+02 0.607E+01 -.406E+04   0.718E+02 -.571E+01 0.406E+04   -.317E+01 -.407E+00 0.196E+01   0.255E-02 -.629E-03 -.149E-01
   0.345E+03 -.258E+03 0.165E+04   -.348E+03 0.261E+03 -.165E+04   0.204E+01 -.209E+01 0.454E+01   -.797E-02 0.317E-01 0.290E-01
   0.245E+02 -.519E+02 -.319E+04   -.256E+02 0.537E+02 0.319E+04   0.887E+00 -.218E+01 0.153E+01   -.124E-01 0.619E-01 0.269E-01
   -.269E+03 -.557E+03 0.311E+04   0.270E+03 0.563E+03 -.312E+04   -.830E+00 -.599E+01 0.548E+01   0.903E-02 -.819E-03 0.193E-01
   0.861E+02 -.561E+03 -.144E+04   -.872E+02 0.564E+03 0.145E+04   0.861E+00 -.170E+01 -.402E+01   0.450E-01 -.413E-01 0.104E-01
   0.344E+03 0.258E+03 0.165E+04   -.348E+03 -.261E+03 -.165E+04   0.203E+01 0.209E+01 0.458E+01   -.377E-02 -.209E-01 0.152E-01
   0.238E+02 0.525E+02 -.319E+04   -.249E+02 -.542E+02 0.319E+04   0.920E+00 0.221E+01 0.153E+01   -.711E-02 -.466E-01 0.272E-01
   -.266E+03 0.561E+03 0.311E+04   0.267E+03 -.567E+03 -.312E+04   -.787E+00 0.595E+01 0.550E+01   0.156E-01 0.145E-02 0.281E-01
   0.788E+02 0.559E+03 -.144E+04   -.798E+02 -.561E+03 0.145E+04   0.806E+00 0.164E+01 -.400E+01   0.530E-01 0.250E-01 0.140E-01
   -.249E+03 -.549E+01 0.243E+04   0.253E+03 0.554E+01 -.244E+04   -.378E+01 -.271E-01 0.703E+01   -.320E-02 0.410E-03 0.705E-03
   -.676E+03 0.386E+01 -.248E+04   0.682E+03 -.392E+01 0.248E+04   -.452E+01 0.122E+00 -.161E+01   0.243E-01 0.705E-02 -.395E-02
   0.419E+03 0.334E-01 0.346E+04   -.423E+03 -.211E-01 -.346E+04   0.251E+01 -.141E-01 0.525E+01   -.101E-01 -.401E-03 0.324E-01
   -.195E+03 -.414E+00 -.462E+03   0.197E+03 0.426E+00 0.461E+03   -.273E+01 0.483E-02 -.824E+00   0.907E-02 -.139E-01 0.930E-01
   -.144E+03 -.115E+01 -.398E+04   0.150E+03 0.115E+01 0.398E+04   -.635E+01 0.342E-01 0.823E+00   0.417E-02 -.113E-01 0.121E-01
   -.634E+02 -.837E+02 0.154E+04   0.631E+02 0.844E+02 -.154E+04   0.938E+00 -.308E+00 0.340E+01   0.240E-02 -.486E-02 -.699E-02
   -.163E+03 0.134E+03 -.282E+03   0.165E+03 -.135E+03 0.284E+03   -.575E+00 -.445E+00 -.107E+01   -.258E-02 -.166E-01 0.517E-02
   0.465E+01 0.263E+03 0.852E+03   -.493E+01 -.265E+03 -.854E+03   0.383E+00 0.184E+01 0.152E+01   0.630E-03 0.303E-02 0.295E-02
   0.117E+03 0.211E+03 -.110E+04   -.117E+03 -.211E+03 0.110E+04   -.160E+00 -.480E+00 -.148E+01   -.876E-02 0.336E-02 0.566E-03
   -.632E+02 0.838E+02 0.154E+04   0.629E+02 -.846E+02 -.154E+04   0.952E+00 0.306E+00 0.342E+01   -.244E-02 0.103E-02 -.530E-02
   -.161E+03 -.133E+03 -.282E+03   0.163E+03 0.134E+03 0.284E+03   -.634E+00 0.510E+00 -.110E+01   -.122E-01 0.152E-01 0.107E-01
   0.415E+01 -.267E+03 0.842E+03   -.435E+01 0.269E+03 -.845E+03   0.419E+00 -.176E+01 0.155E+01   -.300E-02 -.141E-02 0.262E-02
   0.114E+03 -.216E+03 -.114E+04   -.114E+03 0.217E+03 0.114E+04   -.264E+00 0.265E+00 -.144E+01   -.117E-01 -.356E-02 -.892E-03
   0.290E+03 0.498E+01 -.494E+03   -.294E+03 -.506E+01 0.494E+03   0.597E+00 -.565E-01 -.139E+01   -.139E-02 -.511E-03 -.499E-02
   -.588E+02 0.651E-01 0.184E+04   0.591E+02 -.721E-01 -.185E+04   -.212E+00 0.835E-03 0.225E+01   -.697E-02 0.324E-02 -.744E-02
   0.446E+02 -.467E+00 0.184E+03   -.469E+02 0.489E+00 -.179E+03   0.136E+01 -.232E-01 -.192E+01   -.186E-01 0.320E-02 0.228E-01
   -.895E+02 -.156E+00 -.155E+04   0.908E+02 0.910E-01 0.155E+04   -.125E+01 0.804E-01 -.155E+01   -.474E-01 0.419E-03 0.120E-01
   0.126E+03 -.111E+03 0.152E+04   -.128E+03 0.110E+03 -.153E+04   0.790E+00 0.267E+00 0.341E+01   0.138E-02 0.672E-02 -.203E-02
   -.175E+03 0.118E+03 -.230E+03   0.178E+03 -.119E+03 0.230E+03   -.955E+00 0.433E+00 -.321E+00   0.957E-02 -.860E-02 -.753E-02
   -.125E+03 0.823E+01 -.183E+04   0.126E+03 -.828E+01 0.183E+04   -.374E+00 0.799E-02 -.420E+00   0.710E-02 0.982E-03 0.222E-01
   -.364E+02 0.216E+03 0.803E+03   0.372E+02 -.218E+03 -.805E+03   -.370E-01 0.163E+01 0.149E+01   0.302E-02 0.144E-01 0.231E-01
   0.101E+03 0.199E+03 -.124E+04   -.100E+03 -.201E+03 0.124E+04   -.767E+00 0.145E+01 -.172E+01   0.195E-01 0.323E-01 0.498E-02
   0.133E+03 0.111E+03 0.152E+04   -.135E+03 -.111E+03 -.152E+04   0.791E+00 -.289E+00 0.356E+01   0.303E-02 -.774E-02 -.243E-02
   -.180E+03 -.115E+03 -.227E+03   0.183E+03 0.117E+03 0.227E+03   -.876E+00 -.508E+00 -.344E+00   0.146E-01 0.127E-01 -.524E-02
   -.365E+02 -.216E+03 0.801E+03   0.373E+02 0.218E+03 -.804E+03   -.588E-01 -.162E+01 0.151E+01   0.320E-02 -.177E-01 0.171E-01
   0.102E+03 -.199E+03 -.124E+04   -.101E+03 0.202E+03 0.124E+04   -.759E+00 -.145E+01 -.170E+01   0.199E-01 -.414E-01 0.766E-02
   0.959E+02 -.303E+00 0.126E+04   -.961E+02 0.282E+00 -.127E+04   -.394E+00 0.272E-01 0.337E+01   -.101E-01 0.255E-02 -.207E-02
   0.182E+03 0.349E-01 -.640E+03   -.185E+03 -.407E-01 0.642E+03   0.985E+00 -.105E-01 -.166E+01   0.728E-03 0.868E-02 0.902E-02
   -.575E+02 0.262E+01 0.185E+04   0.579E+02 -.264E+01 -.185E+04   -.222E+00 0.818E-02 0.230E+01   0.979E-03 0.876E-03 -.132E-01
   0.429E+02 -.166E+01 0.192E+03   -.449E+02 0.165E+01 -.187E+03   0.911E+00 0.245E-01 -.200E+01   0.154E-01 -.189E-02 0.156E-01
   -.100E+03 -.609E+01 -.149E+04   0.101E+03 0.613E+01 0.149E+04   -.506E+00 -.340E-01 -.248E+01   0.311E-01 -.445E-02 -.130E-01
   0.745E+01 -.982E-01 -.466E+02   0.398E-12 0.779E-12 -.682E-12   -.720E+01 0.200E+00 0.462E+02   0.358E-01 0.143E-01 0.452E+00

 POSITION                                       TOTAL-FORCE (eV/Angst)
      5.01638      4.68838      3.17259        -0.622957     -0.465297     -0.160815
      5.44477      4.48301      5.60676        -0.438512      1.627634      0.571803
      1.77506      9.39634      1.77737         0.731597      0.046992     -0.250043
      2.42308      9.23251      4.34179         0.158403      1.021275     -1.578679
      5.02956      1.68225      3.13488        -0.652402      0.510335     -0.103662
      5.42213      1.83921      5.59247        -0.458888     -1.693179      0.501718
      1.77438      6.53752      1.77753         0.740248     -0.054105     -0.226501
      2.42308      6.70184      4.34179         0.079755     -1.102215     -1.674958
      1.39989      3.17784      2.67015         1.546683      0.011043      0.105398
      2.05622      3.17748      5.09125         0.372718      0.002185      1.001104
      5.12188      7.97436      1.63406        -1.074302     -0.020481     -0.221387
      4.57649      7.96718      3.93431        -0.316492      0.073788     -1.679697
      5.33927      7.92440      6.18437        -0.125858     -0.048558      1.223655
     10.57359      4.44331      2.79952        -1.208028      0.945013      1.364041
     10.92493      4.68338      5.37183        -0.214965     -0.371219      1.338601
      7.38167      9.42614      1.79905         0.935872      0.139071     -0.385322
      8.05131      9.23251      4.34179        -0.209393      0.928307     -1.213642
     10.57359      1.91264      2.79952        -1.204002     -0.944805      1.382256
     10.92462      1.67153      5.37124        -0.213373      0.376846      1.341833
      7.37741      6.50149      1.80406         0.920068     -0.148649     -0.387076
      8.05131      6.70184      4.34179        -0.175544     -0.934799     -1.218260
      7.09877      3.17797      2.39204         0.476894      0.017801      1.922714
      7.66948      3.17574      5.14438         1.728290      0.068643      0.354381
     10.74167      7.96761      1.63497        -1.000226     -0.004523     -0.100998
     10.20472      7.96718      3.93431        -0.608711      0.001169     -1.407517
     11.18118      7.96771      6.11139        -0.915019      0.016791      1.305287
      0.81995      1.62425      1.40468         0.625571      0.436496     -3.088851
      1.25497      1.56674      4.10795         1.093506     -1.702330      0.509799
      3.77725      6.35595      2.56568         0.098280     -0.517289     -1.192313
      4.36944      6.32029      5.29873        -0.352468     -0.615794      1.914368
      0.81963      4.73142      1.40465         0.624998     -0.452807     -3.064155
      1.25497      4.78920      4.10795         1.054013      1.677518      0.522071
      3.77725      9.57841      2.56568         0.212247      0.672124     -1.005366
      4.35999      9.55459      5.36194        -0.294341      0.768872      1.812849
      4.14113      3.17797      4.62682        -2.641179     -0.138923     -1.225782
      1.12392      7.96669      0.42807         0.130131     -0.005083     -3.884075
      1.03518      7.96718      3.08454        -0.986751     -0.000047      3.413897
      1.92648      7.96299      5.90342        -0.002752      0.014070      3.062374
      6.24423      1.54808      1.45494        -0.742490      0.060621     -2.656297
      6.88320      1.56674      4.10795         1.651254     -1.407807     -0.240104
      6.44232      3.14747      6.77981         0.704542     -0.046866      4.399671
      9.40548      6.35595      2.56568         0.733118     -0.619084     -0.810167
      9.89310      6.48956      5.44936         0.420299     -1.163226      1.725034
      6.22023      4.80946      1.47615        -0.778994     -0.057665     -2.642374
      6.88320      4.78920      4.10795         1.837608      1.307119     -0.230549
      9.40548      9.57841      2.56568         0.741524      0.639507     -0.824408
      9.89182      9.44456      5.44980         0.427416      1.156234      1.728801
      9.15501      3.17820      1.93582        -0.590685      0.006627     -2.543226
      9.76936      3.17797      4.62682        -1.476066     -0.009755      0.541815
      6.78213      7.96254      0.45056         0.138291     -0.015118     -3.709863
      6.66341      7.96718      3.08454        -1.106215      0.006052      2.821104
      7.32626      7.96642      5.83195         0.227288      0.007491      2.861511
    total drift:                                0.285179      0.116328      0.039020

  FREE ENERGIE OF THE ION-ELECTRON SYSTEM (eV)
  free  energy   TOTEN  =      -250.31054761 eV

  energy  without entropy=     -249.51172748  energy(sigma->0) =     -249.91113754