 vasp.5.4.4.18Apr17-6-g9f103f2a35 (build Aug 13 2019 17:33:20) gamma-only

 executed on             LinuxIFC date 2020.05.11  22:14:28

 INCAR:
 POTCAR:    PAW_PBE Ni_pv 06Sep2000
 POTCAR:    PAW_PBE S 06Sep2000
 POTCAR:    PAW_PBE Ni_pv 06Sep2000
   VRHFIN =Ni:

   TITEL  = PAW_PBE Ni_pv 06Sep2000
   POMASS =   58.690; ZVAL   =   16.000    mass and valenz
   ENMAX  =  367.986; ENMIN  =  275.989 eV

 POTCAR:    PAW_PBE S 06Sep2000
   VRHFIN =S : s2p4

   TITEL  = PAW_PBE S 06Sep2000
   POMASS =   32.066; ZVAL   =    6.000    mass and valenz
   ENMAX  =  258.689; ENMIN  =  194.016 eV

 Optimization of the real space projectors (new method)

 maximal supplied QI-value         = 18.90
 optimisation between [QCUT,QGAM] = [ 10.77, 21.73] = [ 32.49,132.25] Ry
 Optimized for a Real-space Cutoff    1.38 Angstroem

   l    n(q)    QCUT    max X(q) W(low)/X(q) W(high)/X(q)  e(spline)
   1      8    10.771     2.836    0.40E-04    0.29E-04    0.12E-06
   1      8    10.771     4.023    0.10E-03    0.48E-04    0.29E-06
   2      8    10.771    73.368    0.42E-03    0.97E-04    0.44E-06
   2      8    10.771    69.010    0.42E-03    0.99E-04    0.45E-06
   0      9    10.771    54.797    0.10E-03    0.56E-04    0.74E-07
   0      9    10.771    24.266    0.89E-04    0.49E-04    0.67E-07
 Optimization of the real space projectors (new method)

 maximal supplied QI-value         = 19.84
 optimisation between [QCUT,QGAM] = [ 10.71, 21.63] = [ 32.15,130.99] Ry
 Optimized for a Real-space Cutoff    1.19 Angstroem

   l    n(q)    QCUT    max X(q) W(low)/X(q) W(high)/X(q)  e(spline)
   0      8    10.715   187.594    0.41E-03    0.53E-04    0.66E-07
   0      8    10.715   164.243    0.41E-03    0.53E-04    0.65E-07
   1      7    10.715    67.533    0.19E-03    0.59E-03    0.68E-07
   1      7    10.715    50.729    0.19E-03    0.58E-03    0.67E-07
  PAW_PBE Ni_pv 06Sep2000               :
  PAW_PBE S 06Sep2000                   :

 POSCAR: Type_036 Type_136
  positions in cartesian coordinates
 exchange correlation table for  LEXCH =        8
   RHO(1)=    0.500       N(1)  =     2000
   RHO(2)=  100.500       N(2)  =     4000

 ion  position               nearest neighbor table
   1  0.780  0.145  0.097-  49 2.08  63 2.08  41 2.25  50 2.36  64 2.36
   2  0.795  0.145  0.260-  64 2.04  50 2.04  42 2.06
   3  0.217  0.645  0.072-  43 2.03  44 2.11  51 2.15  61 2.15   4 2.38
   4  0.297  0.645  0.193-  51 2.10  61 2.10  52 2.19  62 2.19  44 2.25   3 2.38  27 2.53  15 2.53

   5  0.444  0.145  0.065-  53 2.02  67 2.02  29 2.48  17 2.48
   6  0.470  0.145  0.224-  54 2.08  68 2.08  46 2.25  53 2.26  67 2.26  30 2.53  18 2.53
   7  0.952  0.645  0.129-  56 2.07  66 2.07  47 2.25  55 2.36  65 2.36  31 2.53  19 2.53
   8  0.977  0.645  0.298-  45 2.05  65 2.06  55 2.06  48 2.10
   9  0.125  0.145  0.161-  57 2.09  71 2.09  38 2.25  58 2.36  72 2.36  10 2.45
  10  0.121  0.145  0.312-  37 2.04  72 2.07  58 2.07   9 2.45
  11  0.564  0.645  0.137-  39 2.02  40 2.12  69 2.27  59 2.27  12 2.34
  12  0.642  0.645  0.256-  60 2.03  70 2.03  40 2.25  59 2.26  69 2.26  11 2.34  36 2.53  24 2.53

[...]

  37  0.001  0.145  0.330-  10 2.04  26 2.07  14 2.07  38 2.76
  38  0.991  0.145  0.159-  26 2.08  14 2.08  25 2.19  13 2.19   9 2.25  37 2.76
  39  0.461  0.645  0.074-  11 2.02  15 2.06  27 2.06
  40  0.509  0.645  0.254-  16 2.08  28 2.08  11 2.12  12 2.25  27 2.36  15 2.36
  41  0.647  0.145  0.095-  17 2.02  29 2.02   1 2.25  18 2.26  30 2.26  42 2.79
  42  0.673  0.145  0.265-   2 2.06  18 2.10  30 2.10  41 2.79
  43  0.113  0.645  0.009-   3 2.03  19 2.06  31 2.06
  44  0.164  0.645  0.191-  20 2.08  32 2.08   3 2.11   4 2.25  31 2.36  19 2.36
  45  0.080  0.645  0.365-  20 2.05  32 2.05   8 2.05
  46  0.336  0.145  0.223-  34 2.04  22 2.04   6 2.25  33 2.38  21 2.38
  47  0.819  0.645  0.127-  35 2.25  23 2.25   7 2.25  24 2.26  36 2.26  48 2.70
  48  0.852  0.645  0.291-   8 2.10  24 2.12  36 2.12  47 2.70
  49  0.817  0.294  0.012-  23 2.02  25 2.06   1 2.08
  50  0.829  0.314  0.191-   2 2.04  25 2.10  23 2.14  26 2.17  24 2.25   1 2.36
  51  0.305  0.800  0.101-   4 2.10  21 2.12   3 2.15  27 2.30  52 2.75
  52  0.342  0.820  0.266-  28 2.06  22 2.10  27 2.16   4 2.19  51 2.75
  53  0.484  0.314  0.127-  29 2.02   5 2.02  15 2.25   6 2.26  30 2.26
  54  0.521  0.297  0.300-  16 2.02  30 2.08   6 2.08
  55  0.001  0.814  0.223-  32 2.06   8 2.06  14 2.18  31 2.36   7 2.36  56 2.76
  56  0.968  0.822  0.056-   7 2.07  31 2.09  13 2.10  55 2.76
  57  0.146  0.325  0.091-  33 2.09   9 2.09  19 2.13  58 2.69
  58  0.174  0.314  0.255-  10 2.07  34 2.07  33 2.08  20 2.15   9 2.36  57 2.69
  59  0.657  0.814  0.159-  18 2.25  36 2.26  12 2.26  35 2.27  11 2.27
  60  0.696  0.789  0.329-  36 2.01  12 2.03  70 2.76
  61  0.305  0.490  0.101-   4 2.10  33 2.12   3 2.15  15 2.30  62 2.75
  62  0.342  0.471  0.266-  16 2.06  34 2.10  15 2.16   4 2.19  61 2.75
  63  0.817  0.997  0.012-  35 2.02  13 2.06   1 2.08
  64  0.829  0.977  0.191-   2 2.04  13 2.10  35 2.14  14 2.17  36 2.25   1 2.36
  65  0.001  0.477  0.223-  20 2.06   8 2.06  26 2.18  19 2.36   7 2.36  66 2.76
  66  0.968  0.469  0.056-   7 2.07  19 2.09  25 2.10  65 2.76
  67  0.484  0.977  0.127-  17 2.02   5 2.02  27 2.25   6 2.26  18 2.26
  68  0.521  0.993  0.300-  28 2.02  18 2.08   6 2.08
  69  0.657  0.477  0.159-  30 2.25  24 2.26  12 2.26  23 2.27  11 2.27
  70  0.696  0.501  0.329-  24 2.01  12 2.03  60 2.76
  71  0.146  0.965  0.091-  21 2.09   9 2.09  31 2.13  72 2.69
  72  0.174  0.977  0.255-  10 2.07  22 2.07  21 2.08  32 2.15   9 2.36  71 2.69

  LATTYP: Found a simple orthorhombic cell.
 ALAT       =     9.5784100000
 B/A-ratio  =     1.6880763216
 C/A-ratio  =     1.7627867312

  Lattice vectors:

 A1 = (   0.0000000000,   9.5784100000,   0.0000000000)
 A2 = (   0.0000000000,   0.0000000000, -16.1690871197)
 A3 = ( -16.8846940542,   0.0000000000,   0.0000000000)

Analysis of symmetry for initial positions (statically):
 Subroutine PRICEL returns:
 Original cell was already a primitive cell.

 Routine SETGRP: Setting up the symmetry group for a
 simple orthorhombic supercell.

 Subroutine GETGRP returns: Found  2 space group operations
 (whereof  1 operations were pure point group operations)
 out of a pool of  8 trial point group operations.

The static configuration has the point symmetry C_1 .
 The point group associated with its full space group is C_1h.

Analysis of symmetry for dynamics (positions and initial velocities):
 Subroutine PRICEL returns:
 Original cell was already a primitive cell.

 Routine SETGRP: Setting up the symmetry group for a
 simple orthorhombic supercell.

 Subroutine GETGRP returns: Found  2 space group operations
 (whereof  1 operations were pure point group operations)
 out of a pool of  8 trial point group operations.

The dynamic configuration has the point symmetry C_1 .
 The point group associated with its full space group is C_1h.

 Subroutine INISYM returns: Found  2 space group operations
 (whereof  1 operations are pure point group operations),
 and found     1 'primitive' translations

 KPOINTS: gamma-point-only calculation. no periodi

Automatic generation of k-mesh.
Space group operators:
 irot       det(A)        alpha          n_x          n_y          n_z        tau_x        tau_y        tau_z
    1     1.000000     0.000000     1.000000     0.000000     0.000000     0.000000     0.000000     0.000000
    2    -1.000000   180.000000     0.000000     1.000000     0.000000     0.000000     0.290594     0.000000

 Subroutine IBZKPT returns following result:

 Found      1 irreducible k-points:

 Following reciprocal coordinates:
            Coordinates               Weight
  0.000000  0.000000  0.000000      1.000000

 Following cartesian coordinates:
            Coordinates               Weight
  0.000000  0.000000  0.000000      1.000000

 SYSTEM =  "Millerite NiS"
 POSCAR =  Type_036 Type_136

 Startparameter for this run:
   NWRITE =      2    write-flag & timer
   PREC   = normal    normal or accurate (medium, high low for compatibility)
   ISTART =      0    job   : 0-new  1-cont  2-samecut
   ICHARG =      2    charge: 1-file 2-atom 10-const
   ISPIN  =      1    spin polarized calculation?
   LNONCOLLINEAR =      F non collinear calculations
   LSORBIT =      F    spin-orbit coupling
   INIWAV =      1    electr: 0-lowe 1-rand  2-diag
   LASPH  =      F    aspherical Exc in radial PAW
   METAGGA=      F    non-selfconsistent MetaGGA calc.

 Electronic Relaxation 1
   ENCUT  =  450.0 eV  33.07 Ry    5.75 a.u.  29.20 16.57 27.97*2*pi/ulx,y,z
   ENINI  =  450.0     initial cutoff
   ENAUG  =  703.4 eV  augmentation charge cutoff
   NELM   =    100;   NELMIN=  2; NELMDL= -5     # of ELM steps
   EDIFF  = 0.1E-03   stopping-criterion for ELM
   LREAL  =      T    real-space projection
   NLSPLINE    = F    spline interpolate recip. space projectors
   LCOMPAT=      F    compatible to vasp.4.4
   GGA_COMPAT  = T    GGA compatible to vasp.4.4-vasp.4.6
   LMAXPAW     = -100 max onsite density
   LMAXMIX     =    2 max onsite mixed and CHGCAR
   VOSKOWN=      0    Vosko Wilk Nusair interpolation
   ROPT   =   -0.00050  -0.00050
 Ionic relaxation
   EDIFFG = 0.1E-02   stopping-criterion for IOM
   NSW    =      0    number of steps for IOM
   NBLOCK =      1;   KBLOCK =      1    inner block; outer block
   IBRION =     -1    ionic relax: 0-MD 1-quasi-New 2-CG
   NFREE  =      0    steps in history (QN), initial steepest desc. (CG)
   ISIF   =      2    stress and relaxation
   IWAVPR =     10    prediction:  0-non 1-charg 2-wave 3-comb
   ISYM   =      2    0-nonsym 1-usesym 2-fastsym
   LCORR  =      T    Harris-Foulkes like correction to forces

   POTIM  = 0.5000    time-step for ionic-motion
   TEIN   =    0.0    initial temperature
   TEBEG  =    0.0;   TEEND  =   0.0 temperature during run
   SMASS  =  -3.00    Nose mass-parameter (am)
   estimated Nose-frequenzy (Omega)   =  0.10E-29 period in steps =****** mass=  -0.652E-26a.u.
   SCALEE = 1.0000    scale energy and forces
   NPACO  =    256;   APACO  = 16.0  distance and # of slots for P.C.
   PSTRESS=    0.0 pullay stress

  Mass of Ions in am
   POMASS =  58.69 32.07
  Ionic Valenz
   ZVAL   =  16.00  6.00
  Atomic Wigner-Seitz radii
  virtual crystal weights
   VCA    =   1.00  1.00
   NELECT =     792.0000    total number of electrons
   NUPDOWN=      -1.0000    fix difference up-down

 DOS related values:
   EMIN   =  10.00;   EMAX   =-10.00  energy-range for DOS
   EFERMI =   0.00
   ISMEAR =     0;   SIGMA  =   0.20  broadening in eV -4-tet -1-fermi 0-gaus

 Electronic relaxation 2 (details)
   IALGO  =     38    algorithm
   LDIAG  =      T    sub-space diagonalisation (order eigenvalues)
   LSUBROT=      F    optimize rotation matrix (better conditioning)
   TURBO    =      0    0=normal 1=particle mesh
   IRESTART =      0    0=no restart 2=restart with 2 vectors
   NREBOOT  =      0    no. of reboots
   NMIN     =      0    reboot dimension
   EREF     =   0.00    reference energy to select bands
   IMIX   =      4    mixing-type and parameters
     AMIX     =   0.40;   BMIX     =  1.00
[...]
  Fock        0.00000     0.00000     0.00000     0.00000     0.00000     0.00000
  Total     107.45336   107.80579   142.11235     0.00000     0.00000    -5.60581
  in kB      65.83524    66.05117    87.07035     0.00000     0.00000    -3.43461

 VOLUME and BASIS-vectors are now :
  energy-cutoff  :      450.00
  volume of cell :     2615.00
      direct lattice vectors                 reciprocal lattice vectors
    16.884694054  0.000000000  0.000000000     0.059225237  0.000000000  0.000000000
     0.000000000  9.578410000  0.000000000     0.000000000  0.104401461  0.000000000
     0.000000000  0.000000000 16.169087120     0.000000000  0.000000000  0.061846411

  length of vectors
    16.884694054  9.578410000 16.169087120     0.059225237  0.104401461  0.061846411

 FORCES acting on ions
    electron-ion (+dipol)            ewald-force                    non-local-force                 convergence-correction
   0.567E+03 -.100E-02 0.207E+04   -.571E+03 -.348E-07 -.207E+04   0.439E+01 0.000E+00 0.546E+01   0.145E+00 0.335E-05 0.688E-01
   0.365E+03 -.963E-03 -.284E+04   -.370E+03 0.260E-07 0.284E+04   0.475E+01 0.000E+00 0.167E+01   0.100E+00 0.181E-05 0.180E+00
   -.479E+03 -.711E-03 0.324E+04   0.478E+03 -.225E-07 -.325E+04   0.135E+01 0.000E+00 0.839E+01   -.759E-01 -.644E-06 -.175E-01
   0.142E+03 -.862E-03 -.572E+03   -.142E+03 -.487E-08 0.579E+03   0.194E+00 0.000E+00 -.566E+01   -.322E+00 -.331E-06 -.104E+00
   0.118E+04 -.704E-03 0.314E+04   -.117E+04 -.514E-07 -.314E+04   -.704E+01 0.000E+00 0.155E+01   -.477E-01 0.172E-05 -.134E+00
   0.500E+03 -.807E-03 -.139E+04   -.505E+03 -.194E-07 0.140E+04   0.400E+01 0.000E+00 -.512E+01   -.929E-01 -.129E-06 -.349E-01
   0.573E+03 -.761E-03 0.146E+04   -.578E+03 -.835E-10 -.146E+04   0.485E+01 0.000E+00 0.454E+01   0.136E+00 -.276E-05 0.851E-01
   0.641E+03 -.658E-03 -.312E+04   -.646E+03 0.650E-08 0.312E+04   0.304E+01 0.000E+00 -.374E+01   0.106E+00 -.230E-05 0.902E-01
   0.161E+03 -.825E-03 0.126E+04   -.166E+03 0.177E-07 -.126E+04   0.419E+01 0.000E+00 0.450E+01   0.659E-01 0.299E-05 0.722E-01
   0.144E+03 -.101E-02 -.331E+04   -.148E+03 0.337E-07 0.331E+04   0.490E+01 0.000E+00 0.786E+00   -.988E-02 0.331E-05 -.627E-01
   -.240E+03 -.729E-03 0.194E+04   0.241E+03 0.155E-07 -.195E+04   0.291E+00 0.000E+00 0.746E+01   -.706E-02 -.233E-06 -.116E+00
   0.260E+03 -.822E-03 -.215E+04   -.264E+03 0.295E-08 0.215E+04   0.254E+01 0.000E+00 -.597E+01   0.188E+00 0.677E-06 0.173E+00
   -.598E+03 0.214E+03 0.250E+04   0.604E+03 -.216E+03 -.250E+04   -.518E+01 0.260E+01 0.571E+01   0.141E+00 0.532E-02 0.505E-01
   0.223E+02 0.425E+03 -.216E+04   -.205E+02 -.428E+03 0.217E+04   -.278E+01 0.227E+01 -.388E+01   0.791E-01 0.270E-01 0.950E-01
   -.440E+01 0.448E+03 0.961E+03   0.524E+01 -.452E+03 -.965E+03   -.843E+00 0.338E+01 0.294E+01   -.278E+00 -.456E-01 -.123E+00
   -.129E+03 0.115E+03 -.341E+04   0.130E+03 -.118E+03 0.341E+04   -.145E+01 0.379E+01 0.254E+01   -.109E+00 -.324E-01 0.164E+00
   -.787E+02 0.841E+03 0.360E+04   0.760E+02 -.836E+03 -.360E+04   0.285E+01 -.588E+01 -.149E+00   -.889E-01 0.112E+00 -.129E+00
   -.340E+03 0.488E+03 -.830E+03   0.343E+03 -.493E+03 0.832E+03   -.312E+01 0.457E+01 -.369E+01   0.824E-01 0.633E-01 0.458E-01
   -.125E+03 0.686E+03 0.221E+04   0.125E+03 -.692E+03 -.221E+04   0.174E+00 0.481E+01 0.442E+01   0.183E+00 -.831E-02 0.489E-01
   -.349E+03 0.421E+03 -.247E+04   0.352E+03 -.426E+03 0.248E+04   -.175E+01 0.362E+01 -.373E+01   -.386E-04 0.652E-02 0.168E-01
   -.354E+03 -.108E+03 0.149E+04   0.356E+03 0.105E+03 -.149E+04   -.146E+01 0.400E+01 0.446E+01   -.213E+00 0.387E-01 -.327E-01
   -.258E+03 0.229E+03 -.316E+04   0.258E+03 -.228E+03 0.316E+04   0.669E+00 -.158E+01 0.108E+01   -.260E+00 0.232E-01 -.269E-01
   0.428E+03 -.494E+03 0.256E+04   -.430E+03 0.497E+03 -.257E+04   0.176E+01 -.182E+01 0.792E+01   0.127E+00 0.189E-01 -.795E-04
   -.132E+03 0.310E+03 -.163E+04   0.134E+03 -.313E+03 0.163E+04   -.146E+01 0.274E+01 -.561E+01   0.214E+00 -.274E-01 0.982E-01
   -.598E+03 -.214E+03 0.250E+04   0.604E+03 0.216E+03 -.250E+04   -.518E+01 -.260E+01 0.571E+01   0.141E+00 -.532E-02 0.505E-01
   0.223E+02 -.425E+03 -.216E+04   -.205E+02 0.428E+03 0.217E+04   -.278E+01 -.227E+01 -.388E+01   0.791E-01 -.270E-01 0.950E-01
   -.440E+01 -.448E+03 0.961E+03   0.524E+01 0.452E+03 -.965E+03   -.843E+00 -.338E+01 0.294E+01   -.278E+00 0.456E-01 -.123E+00
   -.129E+03 -.115E+03 -.341E+04   0.130E+03 0.118E+03 0.341E+04   -.145E+01 -.379E+01 0.254E+01   -.109E+00 0.324E-01 0.164E+00
   -.787E+02 -.841E+03 0.360E+04   0.760E+02 0.836E+03 -.360E+04   0.285E+01 0.588E+01 -.149E+00   -.889E-01 -.112E+00 -.129E+00
   -.340E+03 -.488E+03 -.830E+03   0.343E+03 0.493E+03 0.832E+03   -.312E+01 -.457E+01 -.369E+01   0.824E-01 -.633E-01 0.458E-01
   -.125E+03 -.686E+03 0.221E+04   0.125E+03 0.692E+03 -.221E+04   0.174E+00 -.481E+01 0.442E+01   0.183E+00 0.831E-02 0.489E-01
   -.349E+03 -.421E+03 -.247E+04   0.352E+03 0.426E+03 0.248E+04   -.175E+01 -.362E+01 -.373E+01   -.382E-04 -.652E-02 0.168E-01
   -.354E+03 0.108E+03 0.149E+04   0.356E+03 -.105E+03 -.149E+04   -.146E+01 -.400E+01 0.446E+01   -.213E+00 -.387E-01 -.327E-01
   -.258E+03 -.229E+03 -.316E+04   0.258E+03 0.228E+03 0.316E+04   0.669E+00 0.158E+01 0.108E+01   -.260E+00 -.232E-01 -.269E-01
   0.428E+03 0.494E+03 0.256E+04   -.430E+03 -.497E+03 -.257E+04   0.176E+01 0.182E+01 0.792E+01   0.127E+00 -.189E-01 -.789E-04
   -.132E+03 -.310E+03 -.163E+04   0.134E+03 0.313E+03 0.163E+04   -.146E+01 -.274E+01 -.561E+01   0.214E+00 0.274E-01 0.982E-01
   0.924E+02 -.165E-04 -.150E+04   -.919E+02 0.611E-08 0.151E+04   -.748E+00 0.000E+00 -.190E+01   0.485E-01 0.900E-06 0.163E-01
   -.306E+03 -.270E-04 0.424E+03   0.309E+03 -.160E-07 -.427E+03   -.527E+00 0.000E+00 0.521E+00   0.805E-01 0.118E-05 0.317E-01
   0.346E+02 -.352E-05 0.149E+04   -.349E+02 0.163E-07 -.150E+04   0.989E+00 0.000E+00 0.163E+01   -.102E+00 -.280E-06 -.117E+00
   -.140E+03 -.531E-05 -.793E+03   0.140E+03 0.118E-07 0.798E+03   0.551E+00 0.000E+00 -.344E+01   -.211E-01 0.322E-06 0.632E-01
   -.246E+03 0.404E-05 0.800E+03   0.247E+03 0.308E-07 -.803E+03   0.748E+00 0.000E+00 0.249E+01   -.253E-01 0.615E-06 -.263E-01
   -.576E+02 -.405E-05 -.113E+04   0.587E+02 0.130E-07 0.114E+04   -.259E+00 0.000E+00 -.245E+01   0.101E+00 0.751E-07 0.523E-01
   -.892E+01 0.709E-05 0.175E+04   0.879E+01 -.173E-08 -.175E+04   0.126E+00 0.000E+00 0.173E+01   0.609E-01 -.540E-06 0.147E-01
   -.188E+03 0.302E-04 -.148E+03   0.189E+03 -.591E-08 0.151E+03   0.272E+00 0.000E+00 -.277E+01   -.178E-01 -.775E-06 -.816E-02
   -.887E+02 0.431E-04 -.172E+04   0.891E+02 0.129E-07 0.172E+04   0.180E+00 0.000E+00 -.759E+00   0.162E-02 -.905E-06 -.131E-01
   -.185E+03 -.844E-05 -.122E+03   0.186E+03 -.128E-07 0.123E+03   -.113E-01 0.000E+00 -.173E+01   -.113E+00 0.236E-06 -.307E-01
   0.732E+00 -.445E-04 0.735E+03   0.805E-01 -.140E-07 -.739E+03   -.491E+00 0.000E+00 0.225E+01   0.354E-01 -.844E-06 0.182E-01
   -.176E+02 -.678E-05 -.121E+04   0.196E+02 0.523E-08 0.121E+04   -.119E+01 0.000E+00 -.174E+01   0.698E-01 -.534E-06 0.381E-01
   0.422E+02 -.110E+03 0.170E+04   -.423E+02 0.110E+03 -.171E+04   -.286E+00 -.600E-01 0.254E+01   0.423E-01 0.210E-01 -.633E-01
   0.845E+02 -.146E+03 -.336E+03   -.849E+02 0.147E+03 0.340E+03   -.480E+00 0.854E+00 -.223E+01   0.451E-01 -.287E-01 0.802E-01
   -.139E+03 -.214E+03 0.112E+04   0.140E+03 0.216E+03 -.112E+04   -.430E+00 -.629E+00 0.371E+01   -.109E+00 -.704E-02 -.321E-01
   0.141E+03 0.202E+02 -.896E+03   -.141E+03 -.204E+02 0.899E+03   -.282E+00 0.117E+00 -.138E+01   -.120E+00 0.802E-02 -.370E-02
   0.225E+03 -.282E+03 0.551E+03   -.227E+03 0.283E+03 -.554E+03   0.476E+00 0.688E+00 0.282E+01   -.398E-01 -.461E-01 -.590E-01
   -.131E+03 0.313E+02 -.133E+04   0.132E+03 -.304E+02 0.133E+04   -.253E-02 -.805E+00 -.235E+01   0.102E-01 -.250E-01 0.537E-01
   0.136E+03 -.198E+03 -.382E+03   -.137E+03 0.200E+03 0.382E+03   0.922E-01 -.747E+00 -.528E+00   0.637E-01 -.629E-03 0.509E-01
   0.403E+02 -.752E+02 0.136E+04   -.418E+02 0.748E+02 -.137E+04   0.104E+01 0.120E+01 0.414E+01   0.601E-01 0.218E-01 -.126E-01
   -.243E+02 0.116E+03 0.119E+04   0.242E+02 -.117E+03 -.120E+04   0.112E+00 0.523E+00 0.296E+01   0.133E-01 -.205E-01 0.336E-01
   0.687E+02 -.139E+03 -.674E+03   -.699E+02 0.141E+03 0.676E+03   0.985E-01 -.102E+01 -.928E+00   -.530E-01 -.267E-01 -.202E-01
   0.860E+02 -.213E+02 0.386E+03   -.879E+02 0.236E+02 -.388E+03   0.137E+01 -.166E+01 0.921E+00   0.679E-01 0.406E-01 0.272E-02
   0.320E+02 -.243E+03 -.152E+04   -.330E+02 0.247E+03 0.153E+04   0.490E+00 -.253E+01 -.703E+00   0.609E-01 0.244E-01 0.636E-01
   -.139E+03 0.214E+03 0.112E+04   0.140E+03 -.216E+03 -.112E+04   -.430E+00 0.629E+00 0.371E+01   -.109E+00 0.704E-02 -.321E-01
   0.141E+03 -.202E+02 -.896E+03   -.141E+03 0.204E+02 0.899E+03   -.282E+00 -.117E+00 -.138E+01   -.120E+00 -.802E-02 -.370E-02
   0.422E+02 0.110E+03 0.170E+04   -.423E+02 -.110E+03 -.171E+04   -.286E+00 0.600E-01 0.254E+01   0.423E-01 -.210E-01 -.633E-01
   0.845E+02 0.146E+03 -.336E+03   -.849E+02 -.147E+03 0.340E+03   -.480E+00 -.854E+00 -.223E+01   0.451E-01 0.287E-01 0.802E-01
   0.136E+03 0.198E+03 -.382E+03   -.137E+03 -.200E+03 0.382E+03   0.922E-01 0.747E+00 -.528E+00   0.637E-01 0.628E-03 0.509E-01
   0.403E+02 0.752E+02 0.136E+04   -.418E+02 -.748E+02 -.137E+04   0.104E+01 -.120E+01 0.414E+01   0.601E-01 -.218E-01 -.126E-01
   0.225E+03 0.282E+03 0.551E+03   -.227E+03 -.283E+03 -.554E+03   0.476E+00 -.688E+00 0.282E+01   -.398E-01 0.461E-01 -.590E-01
   -.131E+03 -.313E+02 -.133E+04   0.132E+03 0.304E+02 0.133E+04   -.253E-02 0.805E+00 -.235E+01   0.102E-01 0.250E-01 0.537E-01
   0.860E+02 0.213E+02 0.386E+03   -.879E+02 -.236E+02 -.388E+03   0.137E+01 0.166E+01 0.921E+00   0.679E-01 -.406E-01 0.272E-02
   0.320E+02 0.243E+03 -.152E+04   -.330E+02 -.247E+03 0.153E+04   0.490E+00 0.253E+01 -.703E+00   0.609E-01 -.244E-01 0.636E-01
   -.243E+02 -.116E+03 0.119E+04   0.242E+02 0.117E+03 -.120E+04   0.112E+00 -.523E+00 0.296E+01   0.133E-01 0.205E-01 0.336E-01
   0.687E+02 0.139E+03 -.674E+03   -.699E+02 -.141E+03 0.676E+03   0.985E-01 0.102E+01 -.928E+00   -.530E-01 0.267E-01 -.202E-01
   -.636E+01 -.120E-01 -.505E+02   0.146E-11 -.597E-12 -.989E-11   0.630E+01 0.400E-14 0.497E+02   0.142E+00 0.686E-05 0.841E+00

 POSITION                                       TOTAL-FORCE (eV/Angst)
     13.17084      1.39171      1.57080         0.019925      0.000000      1.008635
     13.42419      1.39171      4.20647         0.184834      0.000000      0.871382
      3.65587      6.18092      1.16775         0.907625      0.000000     -0.706219
      5.02033      6.18092      3.11308        -0.269265      0.000000      1.574515
      7.48997      1.39171      1.05547        -0.721477      0.000000     -0.690710
      7.93172      1.39171      3.62717        -1.009865      0.000000     -1.739631
     16.08224      6.18092      2.08489        -0.385549      0.000000      2.152990
     16.49073      6.18092      4.81713        -1.701887      0.000000      0.646079
      2.10894      1.39171      2.59898        -0.010201      0.000000      0.315370
      2.03487      1.39171      5.04896         0.644022      0.000000      1.142744
      9.52965      6.18092      2.20884         1.231906      0.000000     -0.327701
     10.84312      6.18092      4.14126        -0.870849      0.000000     -1.650324
     15.37303      0.04654      1.51968         0.937278      0.552373      0.071435
     15.92985      0.12357      4.00829        -0.863678     -0.858304      0.223152
      7.17375      4.91558      2.70560        -0.281260     -0.855803     -0.722405
      7.70349      4.53833      5.02830         0.062382      0.651833      1.007592
      9.59491      0.14436      0.67228         0.083529     -0.421212     -0.994595
     10.08514      0.12638      3.21969         0.280905     -0.510898     -1.423223
      1.35096      4.91558      1.67742         0.187214     -0.659637      1.728811
      1.88887      4.85523      4.43207         1.108544     -1.312118      0.368759
      4.26738      9.38333      2.51578         0.492947      1.004265     -0.802286
      4.83651      0.06229      4.89344         0.011813     -0.263532      1.152912
     13.05437      4.13101      1.53435        -0.723513      0.914128      0.263683
     12.99653      4.91558      3.73378         0.729279      0.015665     -1.270016
     15.37303      2.73689      1.51968         0.937278     -0.552373      0.071435
     15.92985      2.65986      4.00829        -0.863678      0.858304      0.223152
      7.17375      7.44626      2.70560        -0.281260      0.855803     -0.722405
      7.70349      7.82351      5.02830         0.062382     -0.651833      1.007592
      9.59491      2.63907      0.67228         0.083529      0.421212     -0.994595
     10.08514      2.65705      3.21969         0.280905      0.510898     -1.423223
      1.35096      7.44626      1.67742         0.187214      0.659637      1.728811
      1.88887      7.50661      4.43207         1.108544      1.312118      0.368759
      4.26738      2.97851      2.51578         0.492947     -1.004265     -0.802286
      4.83651      2.72114      4.89344         0.011813      0.263532      1.152912
     13.05437      8.23082      1.53435        -0.723513     -0.914128      0.263683
     12.99653      7.44626      3.73378         0.729279     -0.015665     -1.270016
      0.01136      1.39171      5.33015        -0.131048      0.000000      2.810744
     16.74052      1.39171      2.57045         1.940517      0.000000     -2.543501
      7.78007      6.18092      1.19341         0.601725      0.000000     -3.766885
      8.59001      6.18092      4.11272         0.565338      0.000000      1.678753
     10.91773      1.39171      1.54227         2.197078      0.000000     -0.987515
     11.36900      1.39171      4.29253         0.922723      0.000000      2.650756
      1.89955      6.18092      0.15344         0.057031      0.000000     -4.034412
      2.76722      6.18092      3.08454         0.808278      0.000000      0.032862
      1.35357      6.18092      5.89836         0.540515      0.000000      4.164002
      5.67861      1.39171      3.59863         1.559408      0.000000     -1.568112
     13.82913      6.18092      2.05636         0.355241      0.000000     -1.759846
     14.39314      6.18092      4.70190         0.897137      0.000000      2.464723
     13.79561      2.81525      0.19479        -0.354053      0.851500     -3.865562
     13.99844      3.00295      3.08932        -0.830900      1.181787      1.797846
      5.14420      7.66490      1.63876         0.648135      1.646476     -2.104756
      5.77758      7.85420      4.30419        -0.790046     -0.133225      2.116773
      8.17565      3.00295      2.06114        -1.420762      2.003057      0.038048
      8.79307      2.84853      4.84301         0.295398      0.081262      2.895614
      0.02514      7.79215      3.60341        -1.118692      1.629958     -0.577593
     16.34217      7.86881      0.90721        -0.440089      0.776373     -2.860721
      2.46813      3.11430      1.46852         0.070068     -0.214613     -2.541135
      2.93654      3.00295      4.11750        -1.249373      0.674167      1.818385
     11.08705      7.79215      2.57523        -0.541926      0.671312     -1.041596
     11.75307      7.56045      5.31376        -0.459784      1.150308      3.851530
      5.14420      4.69694      1.63876         0.648135     -1.646476     -2.104756
      5.77758      4.50764      4.30419        -0.790046      0.133225      2.116773
     13.79561      9.54659      0.19479        -0.354053     -0.851500     -3.865562
     13.99844      9.35889      3.08932        -0.830900     -1.181787      1.797846
      0.02514      4.56969      3.60341        -1.118692     -1.629958     -0.577593
     16.34217      4.49303      0.90721        -0.440089     -0.776373     -2.860721
      8.17565      9.35889      2.06114        -1.420762     -2.003057      0.038048
      8.79307      9.51330      4.84301         0.295398     -0.081262      2.895614
     11.08705      4.56969      2.57523        -0.541926     -0.671312     -1.041596
     11.75307      4.80138      5.31376        -0.459784     -1.150308      3.851530
      2.46813      9.24754      1.46852         0.070068      0.214613     -2.541135
      2.93654      9.35889      4.11750        -1.249373     -0.674167      1.818385
    total drift:                                0.083695     -0.011971      0.012553

  FREE ENERGIE OF THE ION-ELECTRON SYSTEM (eV)
  free  energy   TOTEN  =      -342.77762525 eV

  energy  without entropy=     -341.77941943  energy(sigma->0) =     -342.27852234