 vasp.5.4.4.18Apr17-6-g9f103f2a35 (build Aug 13 2019 17:33:20) gamma-only

 executed on             LinuxIFC date 2020.05.11  22:50:12

 INCAR:
 POTCAR:    PAW_PBE Ni_pv 06Sep2000
 POTCAR:    PAW_PBE S 06Sep2000
 POTCAR:    PAW_PBE Ni_pv 06Sep2000
   VRHFIN =Ni:

   TITEL  = PAW_PBE Ni_pv 06Sep2000
   POMASS =   58.690; ZVAL   =   16.000    mass and valenz
   ENMAX  =  367.986; ENMIN  =  275.989 eV

 POTCAR:    PAW_PBE S 06Sep2000
   VRHFIN =S : s2p4

   TITEL  = PAW_PBE S 06Sep2000
   POMASS =   32.066; ZVAL   =    6.000    mass and valenz
   ENMAX  =  258.689; ENMIN  =  194.016 eV

 Optimization of the real space projectors (new method)

 maximal supplied QI-value         = 18.90
 optimisation between [QCUT,QGAM] = [ 10.77, 21.73] = [ 32.49,132.25] Ry
 Optimized for a Real-space Cutoff    1.38 Angstroem

   l    n(q)    QCUT    max X(q) W(low)/X(q) W(high)/X(q)  e(spline)
   1      8    10.771     2.836    0.40E-04    0.29E-04    0.12E-06
   1      8    10.771     4.023    0.10E-03    0.48E-04    0.29E-06
   2      8    10.771    73.368    0.42E-03    0.97E-04    0.44E-06
   2      8    10.771    69.010    0.42E-03    0.99E-04    0.45E-06
   0      9    10.771    54.797    0.10E-03    0.56E-04    0.74E-07
   0      9    10.771    24.266    0.89E-04    0.49E-04    0.67E-07
 Optimization of the real space projectors (new method)

 maximal supplied QI-value         = 19.84
 optimisation between [QCUT,QGAM] = [ 10.71, 21.63] = [ 32.15,130.99] Ry
 Optimized for a Real-space Cutoff    1.19 Angstroem

   l    n(q)    QCUT    max X(q) W(low)/X(q) W(high)/X(q)  e(spline)
   0      8    10.715   187.594    0.41E-03    0.53E-04    0.66E-07
   0      8    10.715   164.243    0.41E-03    0.53E-04    0.65E-07
   1      7    10.715    67.533    0.19E-03    0.59E-03    0.68E-07
   1      7    10.715    50.729    0.19E-03    0.58E-03    0.67E-07
  PAW_PBE Ni_pv 06Sep2000               :
  PAW_PBE S 06Sep2000                   :

 POSCAR: Type_037 Type_137
  positions in cartesian coordinates
 exchange correlation table for  LEXCH =        8
   RHO(1)=    0.500       N(1)  =     2000
   RHO(2)=  100.500       N(2)  =     4000

 ion  position               nearest neighbor table
   1  0.780  0.145  0.118-  51 2.01  65 2.08  42 2.25  52 2.36  66 2.36
   2  0.800  0.147  0.278-  52 2.02  66 2.05  43 2.07
   3  0.215  0.672  0.093-  44 2.03  45 2.12  53 2.17   4 2.41  27 2.50  63 2.51
   4  0.297  0.645  0.211-  64 2.13  54 2.14  45 2.25  53 2.26  63 2.26   3 2.41  28 2.53  16 2.53

   5  0.386  0.168  0.123-  47 2.04  48 2.13  55 2.20   6 2.43  69 2.50  30 2.50
   6  0.470  0.145  0.242-  70 2.10  56 2.10  48 2.25  55 2.26  69 2.26   5 2.43  31 2.53  19 2.53

[...]

  13  0.909  0.009  0.114-  65 2.07  58 2.10  66 2.11  39 2.19
  14  0.944  0.013  0.265-  38 2.07  39 2.08  66 2.17  57 2.18
  15  0.414  0.406  0.058-  55 2.09  63 2.09  16 2.37  27 2.49  40 2.55
  16  0.425  0.513  0.186-  64 2.16  55 2.25  40 2.26  63 2.26  41 2.36  15 2.37  17 2.44   4 2.53
                            28 2.53
  17  0.465  0.465  0.325-  56 2.00  64 2.05  41 2.07  16 2.44
  18  0.625  0.941  0.083-  42 2.06  61 2.07  19 2.38  30 2.52  69 2.62
  19  0.597  0.013  0.217-  70 2.08  43 2.12  61 2.25  42 2.26  69 2.26  18 2.38  31 2.53   6 2.53

[...]

  38  0.993  0.146  0.349-  10 2.03  14 2.07  26 2.07
  39  0.991  0.145  0.178-  14 2.08  26 2.10  25 2.14  13 2.19   9 2.25
  40  0.474  0.645  0.085-  11 2.00  27 2.02  16 2.26  28 2.26  15 2.55
  41  0.509  0.645  0.271-  29 2.07  17 2.07  11 2.16  12 2.25  28 2.36  16 2.36
  42  0.647  0.145  0.116-  30 2.04  18 2.06   1 2.25  19 2.26  31 2.26  43 2.74
  43  0.678  0.147  0.278-   2 2.07  31 2.10  19 2.12  42 2.74
  44  0.112  0.645  0.032-   3 2.03  32 2.06  20 2.06
  45  0.164  0.645  0.209-  33 2.09  21 2.09   3 2.12   4 2.25  32 2.36  20 2.36
  46  0.077  0.645  0.378-  21 2.05  33 2.05   8 2.05
  47  0.282  0.145  0.062-   5 2.04  22 2.06  34 2.06
  48  0.336  0.145  0.240-  23 2.04  35 2.04   5 2.13   6 2.25  34 2.36  22 2.36
  49  0.821  0.668  0.152-  37 2.10  36 2.19   7 2.23  24 2.35  50 2.67
  50  0.849  0.642  0.310-  24 2.09   8 2.09  37 2.12  49 2.67
  51  0.824  0.282  0.037-  25 2.01   1 2.01  65 2.72
  52  0.829  0.314  0.210-   2 2.02  25 2.10  26 2.15  24 2.25   1 2.36
  53  0.312  0.814  0.116-  27 2.04   3 2.17  22 2.25   4 2.26  28 2.26
  54  0.349  0.797  0.289-  23 2.05  29 2.05   4 2.14  28 2.14
  55  0.484  0.314  0.147-  30 2.06  15 2.09   5 2.20  16 2.25   6 2.26  31 2.26
  56  0.527  0.287  0.320-  17 2.00  31 2.07   6 2.10  70 2.73
  57  0.001  0.814  0.241-  33 2.06   8 2.06  14 2.18  32 2.36   7 2.36  58 2.74
  58  0.967  0.824  0.079-   7 2.08  32 2.10  13 2.10  57 2.74
  59  0.140  0.322  0.108-   9 2.08  34 2.10  20 2.11  60 2.77
  60  0.174  0.314  0.272-  35 2.05  10 2.11  21 2.15   9 2.36  34 2.36  59 2.77
  61  0.657  0.814  0.179-  18 2.07  11 2.21  36 2.23  19 2.25  37 2.26  12 2.26
  62  0.695  0.793  0.343-  37 2.02  12 2.04  72 2.74
  63  0.312  0.477  0.116-  27 2.05  15 2.09  34 2.25   4 2.26  16 2.26   3 2.51
  64  0.350  0.499  0.292-  35 2.04  17 2.05   4 2.13  16 2.16
  65  0.816  0.999  0.032-  36 2.03  13 2.07   1 2.08  51 2.72
  66  0.829  0.977  0.210-   2 2.05  13 2.11  36 2.15  14 2.17  37 2.25   1 2.36
  67  0.001  0.477  0.241-   8 2.06  21 2.06  26 2.19  20 2.36   7 2.36  68 2.75
  68  0.968  0.470  0.078-   7 2.06  20 2.08  25 2.09  67 2.75
  69  0.484  0.977  0.147-  30 2.04  28 2.25   6 2.26  19 2.26   5 2.50  18 2.62
  70  0.526  0.002  0.319-  29 2.00  19 2.08   6 2.10  56 2.73
  71  0.652  0.480  0.191-  12 2.09  11 2.18  31 2.20  24 2.22  72 2.71
  72  0.700  0.508  0.347-  24 2.00  12 2.04  71 2.71  62 2.74
  73  0.141  0.967  0.107-  22 2.09   9 2.10  32 2.11  74 2.78
  74  0.174  0.977  0.272-  23 2.04  10 2.11  33 2.15   9 2.36  22 2.36  73 2.78

  LATTYP: Found a simple orthorhombic cell.
 ALAT       =     9.5784100000
 B/A-ratio  =     1.7276387782
 C/A-ratio  =     1.7627867312

  Lattice vectors:

 A1 = (   0.0000000000,   9.5784100000,   0.0000000000)
 A2 = (   0.0000000000,   0.0000000000, -16.5480325497)
 A3 = ( -16.8846940542,   0.0000000000,   0.0000000000)

Analysis of symmetry for initial positions (statically):
 Subroutine PRICEL returns:
 Original cell was already a primitive cell.

 Routine SETGRP: Setting up the symmetry group for a
 simple orthorhombic supercell.

 Subroutine GETGRP returns: Found  1 space group operations
 (whereof  1 operations were pure point group operations)
 out of a pool of  8 trial point group operations.

The static configuration has the point symmetry C_1 .

Analysis of symmetry for dynamics (positions and initial velocities):
 Subroutine PRICEL returns:
 Original cell was already a primitive cell.

 Routine SETGRP: Setting up the symmetry group for a
 simple orthorhombic supercell.

 Subroutine GETGRP returns: Found  1 space group operations
 (whereof  1 operations were pure point group operations)
 out of a pool of  8 trial point group operations.

The dynamic configuration has the point symmetry C_1 .

 Subroutine INISYM returns: Found  1 space group operations
 (whereof  1 operations are pure point group operations),
 and found     1 'primitive' translations

 KPOINTS: gamma-point-only calculation. no periodi

Automatic generation of k-mesh.
Space group operators:
 irot       det(A)        alpha          n_x          n_y          n_z        tau_x        tau_y        tau_z
    1     1.000000     0.000001     1.000000     0.000000     0.000000     0.000000     0.000000     0.000000

 Subroutine IBZKPT returns following result:

 Found      1 irreducible k-points:

 Following reciprocal coordinates:
            Coordinates               Weight
  0.000000  0.000000  0.000000      1.000000

 Following cartesian coordinates:
            Coordinates               Weight
  0.000000  0.000000  0.000000      1.000000

 SYSTEM =  "Millerite NiS"
 POSCAR =  Type_037 Type_137

 Startparameter for this run:
   NWRITE =      2    write-flag & timer
   PREC   = normal    normal or accurate (medium, high low for compatibility)
   ISTART =      0    job   : 0-new  1-cont  2-samecut
   ICHARG =      2    charge: 1-file 2-atom 10-const
   ISPIN  =      1    spin polarized calculation?
   LNONCOLLINEAR =      F non collinear calculations
   LSORBIT =      F    spin-orbit coupling
   INIWAV =      1    electr: 0-lowe 1-rand  2-diag
   LASPH  =      F    aspherical Exc in radial PAW
   METAGGA=      F    non-selfconsistent MetaGGA calc.

 Electronic Relaxation 1
   ENCUT  =  450.0 eV  33.07 Ry    5.75 a.u.  29.20 16.57 28.62*2*pi/ulx,y,z
   ENINI  =  450.0     initial cutoff
   ENAUG  =  703.4 eV  augmentation charge cutoff
   NELM   =    100;   NELMIN=  2; NELMDL= -5     # of ELM steps
   EDIFF  = 0.1E-03   stopping-criterion for ELM
   LREAL  =      T    real-space projection
   NLSPLINE    = F    spline interpolate recip. space projectors
   LCOMPAT=      F    compatible to vasp.4.4
   GGA_COMPAT  = T    GGA compatible to vasp.4.4-vasp.4.6
   LMAXPAW     = -100 max onsite density
   LMAXMIX     =    2 max onsite mixed and CHGCAR
   VOSKOWN=      0    Vosko Wilk Nusair interpolation
   ROPT   =   -0.00050  -0.00050
 Ionic relaxation
   EDIFFG = 0.1E-02   stopping-criterion for IOM
   NSW    =      0    number of steps for IOM
   NBLOCK =      1;   KBLOCK =      1    inner block; outer block
   IBRION =     -1    ionic relax: 0-MD 1-quasi-New 2-CG
   NFREE  =      0    steps in history (QN), initial steepest desc. (CG)
   ISIF   =      2    stress and relaxation
   IWAVPR =     10    prediction:  0-non 1-charg 2-wave 3-comb
   ISYM   =      2    0-nonsym 1-usesym 2-fastsym
   LCORR  =      T    Harris-Foulkes like correction to forces

   POTIM  = 0.5000    time-step for ionic-motion
   TEIN   =    0.0    initial temperature
   TEBEG  =    0.0;   TEEND  =   0.0 temperature during run
   SMASS  =  -3.00    Nose mass-parameter (am)
   estimated Nose-frequenzy (Omega)   =  0.10E-29 period in steps =****** mass=  -0.652E-26a.u.
   SCALEE = 1.0000    scale energy and forces
   NPACO  =    256;   APACO  = 16.0  distance and # of slots for P.C.
   PSTRESS=    0.0 pullay stress

  Mass of Ions in am
   POMASS =  58.69 32.07
  Ionic Valenz
   ZVAL   =  16.00  6.00
  Atomic Wigner-Seitz radii
  virtual crystal weights
   VCA    =   1.00  1.00
   NELECT =     814.0000    total number of electrons
   NUPDOWN=      -1.0000    fix difference up-down

 DOS related values:
   EMIN   =  10.00;   EMAX   =-10.00  energy-range for DOS
   EFERMI =   0.00
   ISMEAR =     0;   SIGMA  =   0.20  broadening in eV -4-tet -1-fermi 0-gaus

 Electronic relaxation 2 (details)
   IALGO  =     38    algorithm
   LDIAG  =      T    sub-space diagonalisation (order eigenvalues)
   LSUBROT=      F    optimize rotation matrix (better conditioning)
   TURBO    =      0    0=normal 1=particle mesh
   IRESTART =      0    0=no restart 2=restart with 2 vectors
   NREBOOT  =      0    no. of reboots
   NMIN     =      0    reboot dimension
   EREF     =   0.00    reference energy to select bands
   IMIX   =      4    mixing-type and parameters
     AMIX     =   0.40;   BMIX     =  1.00
[...]
     0.000000000  9.578410000  0.000000000     0.000000000  0.104401461  0.000000000
     0.000000000  0.000000000 16.548032550     0.000000000  0.000000000  0.060430145

  length of vectors
    16.884694054  9.578410000 16.548032550     0.059225237  0.104401461  0.060430145

 FORCES acting on ions
    electron-ion (+dipol)            ewald-force                    non-local-force                 convergence-correction
   0.543E+03 -.624E+03 0.211E+04   -.547E+03 0.627E+03 -.211E+04   0.375E+01 -.312E+01 0.500E+01   -.620E-05 -.389E-02 -.119E-02
   0.405E+03 -.148E+03 -.279E+04   -.408E+03 0.150E+03 0.279E+04   0.227E+01 -.218E+01 0.137E+01   0.120E-01 0.228E-02 -.657E-02
   0.209E+03 -.100E+03 0.299E+04   -.209E+03 0.101E+03 -.300E+04   0.106E+01 -.785E+00 0.712E+01   0.719E-02 0.564E-02 0.256E-02
   0.502E+03 -.417E+02 -.107E+04   -.504E+03 0.420E+02 0.108E+04   0.209E+01 -.243E+00 -.432E+01   -.218E-01 0.651E-02 -.138E-01
   0.211E+02 0.394E+03 0.234E+04   -.217E+02 -.395E+03 -.234E+04   0.123E+01 -.150E+00 0.802E+01   -.193E-02 -.282E-02 -.876E-02
   0.104E+03 0.599E+02 -.182E+04   -.107E+03 -.603E+02 0.183E+04   0.268E+01 0.138E+00 -.673E+01   -.260E-01 -.981E-03 -.321E-01
   0.880E+03 0.136E+03 0.150E+04   -.886E+03 -.136E+03 -.150E+04   0.541E+01 0.461E+00 0.420E+01   0.611E-02 0.114E-02 0.631E-02
   0.739E+03 0.306E+02 -.312E+04   -.744E+03 -.307E+02 0.313E+04   0.331E+01 -.860E-01 -.376E+01   0.146E-01 -.423E-02 -.822E-03
   0.629E+03 -.232E+01 0.939E+03   -.633E+03 0.223E+01 -.941E+03   0.387E+01 -.199E-01 0.283E+01   0.137E-02 -.819E-02 0.310E-02
   0.126E+03 -.894E+01 -.345E+04   -.130E+03 0.874E+01 0.345E+04   0.482E+01 0.230E+00 -.923E-01   -.718E-03 -.177E-02 -.405E-02
   -.679E+03 0.217E+03 0.184E+04   0.682E+03 -.219E+03 -.184E+04   -.229E+01 0.152E+01 0.369E+01   0.364E-02 0.114E-02 -.208E-01
   -.407E+02 0.126E+03 -.222E+04   0.368E+02 -.125E+03 0.223E+04   0.284E+01 -.545E+00 -.671E+01   0.627E-02 0.266E-02 -.741E-02
   -.465E+03 0.188E+03 0.254E+04   0.472E+03 -.190E+03 -.255E+04   -.526E+01 0.269E+01 0.561E+01   -.610E-03 0.114E-02 0.289E-02
   0.122E+03 0.444E+03 -.217E+04   -.120E+03 -.447E+03 0.218E+04   -.293E+01 0.203E+01 -.421E+01   0.956E-02 0.479E-02 0.195E-02
   -.441E+03 0.238E+03 0.397E+04   0.439E+03 -.239E+03 -.397E+04   0.233E+01 0.555E+00 -.152E+01   -.106E-01 -.175E-01 -.271E-02
   -.442E+03 0.271E+03 0.697E+02   0.443E+03 -.273E+03 -.679E+02   -.230E-01 0.228E+01 -.169E+01   -.150E-01 -.155E-01 -.352E-01
   -.313E+03 0.127E+03 -.367E+04   0.316E+03 -.131E+03 0.367E+04   -.265E+01 0.452E+01 0.203E+01   -.648E-02 -.146E-01 -.202E-02
   -.114E+03 0.494E+03 0.348E+04   0.116E+03 -.493E+03 -.348E+04   -.227E+01 -.249E+01 -.119E+01   0.210E-02 0.466E-02 -.600E-02
   -.527E+03 0.298E+03 -.109E+04   0.530E+03 -.302E+03 0.109E+04   -.202E+01 0.422E+01 -.467E+01   0.317E-02 0.709E-02 -.178E-01
   0.184E+03 0.654E+03 0.213E+04   -.183E+03 -.659E+03 -.214E+04   -.563E+00 0.491E+01 0.428E+01   0.553E-02 0.137E-02 0.100E-01
   -.184E+03 0.419E+03 -.264E+04   0.187E+03 -.425E+03 0.264E+04   -.162E+01 0.470E+01 -.396E+01   -.457E-02 0.141E-02 0.946E-03
   0.767E+02 0.427E+03 0.144E+04   -.778E+02 -.430E+03 -.144E+04   0.152E+01 0.244E+01 0.383E+01   0.143E-01 -.969E-03 0.531E-02
   -.429E+02 0.127E+03 -.324E+04   0.433E+02 -.131E+03 0.324E+04   -.184E+00 0.391E+01 0.234E+01   -.113E-01 0.723E-02 -.738E-02
   -.230E+03 0.571E+03 -.986E+03   0.233E+03 -.576E+03 0.985E+03   -.205E+01 0.481E+01 -.126E+01   0.134E-01 -.808E-02 -.692E-02
   -.750E+02 -.503E+03 0.247E+04   0.790E+02 0.506E+03 -.248E+04   -.316E+01 -.422E+01 0.553E+01   0.309E-02 -.169E-02 0.857E-02
   0.198E+03 -.532E+03 -.215E+04   -.198E+03 0.535E+03 0.215E+04   -.830E+00 -.243E+01 -.396E+01   0.101E-01 0.190E-02 0.185E-02
   -.117E+03 -.428E+03 0.406E+04   0.116E+03 0.429E+03 -.406E+04   0.633E+00 -.751E+00 0.500E+01   -.766E-02 -.354E-02 -.770E-02
   -.311E+03 -.596E+03 0.493E+03   0.311E+03 0.600E+03 -.494E+03   0.309E+00 -.332E+01 0.251E-01   -.196E-01 0.140E-01 -.288E-01
   -.243E+03 -.130E+03 -.365E+04   0.245E+03 0.134E+03 0.365E+04   -.199E+01 -.434E+01 0.200E+01   -.145E-01 0.162E-01 0.115E-03
   -.333E+03 -.188E+03 0.354E+04   0.332E+03 0.188E+03 -.355E+04   0.144E+00 0.443E+00 0.563E+01   -.234E-01 0.912E-03 -.287E-02
   -.829E+03 -.633E+03 -.586E+03   0.834E+03 0.639E+03 0.588E+03   -.334E+01 -.580E+01 -.408E+01   0.123E-03 -.105E-01 -.155E-01
   0.246E+03 -.628E+03 0.211E+04   -.246E+03 0.634E+03 -.211E+04   0.171E+00 -.486E+01 0.401E+01   0.111E-01 0.602E-02 0.718E-02
   -.199E+03 -.408E+03 -.265E+04   0.202E+03 0.414E+03 0.266E+04   -.160E+01 -.453E+01 -.361E+01   0.293E-02 -.697E-03 -.285E-02
   0.343E+03 -.355E+03 0.137E+04   -.345E+03 0.358E+03 -.137E+04   0.188E+01 -.208E+01 0.343E+01   0.209E-01 -.123E-01 -.724E-02
   0.669E+01 -.108E+03 -.326E+04   -.587E+01 0.112E+03 0.326E+04   -.665E+00 -.392E+01 0.217E+01   -.955E-02 -.175E-01 -.564E-02
   0.403E+02 0.665E+03 0.255E+04   -.428E+02 -.668E+03 -.256E+04   0.175E+01 0.200E+01 0.793E+01   0.108E-03 0.518E-02 -.574E-02
   -.264E+03 -.154E+03 -.163E+04   0.267E+03 0.158E+03 0.163E+04   -.136E+01 -.280E+01 -.688E+01   0.107E-01 0.126E-01 -.134E-01
   0.133E+03 -.777E+01 -.159E+04   -.132E+03 0.781E+01 0.159E+04   -.958E+00 -.373E-01 -.167E+01   -.153E-02 0.260E-02 -.615E-02
   -.211E+03 -.122E+02 0.405E+03   0.212E+03 0.123E+02 -.408E+03   0.434E+00 -.219E+00 0.131E+01   -.210E-02 0.233E-02 0.520E-02
   -.411E+03 -.114E+03 0.139E+04   0.415E+03 0.116E+03 -.139E+04   -.291E+01 -.289E+01 0.254E+01   -.539E-02 -.165E-02 -.706E-02
   -.210E+03 0.299E+01 -.881E+03   0.210E+03 -.298E+01 0.887E+03   0.912E+00 0.586E-01 -.401E+01   0.434E-02 -.804E-03 -.750E-02
   -.301E+03 -.352E+03 0.936E+03   0.303E+03 0.354E+03 -.940E+03   -.382E+00 -.144E+01 0.216E+01   -.631E-03 -.250E-02 -.292E-02
   -.136E+03 -.632E+02 -.108E+04   0.137E+03 0.631E+02 0.108E+04   -.506E+00 0.146E-01 -.220E+01   0.124E-02 -.947E-03 -.323E-02
   0.146E+03 0.353E+02 0.177E+04   -.146E+03 -.355E+02 -.177E+04   0.411E+00 0.393E-01 0.174E+01   0.309E-02 0.234E-02 0.577E-03
   -.863E+02 0.259E+02 -.234E+03   0.870E+02 -.260E+02 0.236E+03   0.798E+00 -.338E-01 -.306E+01   -.143E-02 0.988E-03 0.364E-02
   -.384E+02 0.214E+01 -.176E+04   0.387E+02 -.217E+01 0.176E+04   0.150E+00 0.549E-01 -.875E+00   0.692E-03 -.184E-02 -.741E-02
   0.152E+03 0.894E+02 0.167E+04   -.153E+03 -.897E+02 -.168E+04   0.151E+01 0.289E+00 0.209E+01   0.121E-01 -.140E-02 0.442E-02
   -.959E+02 0.538E+02 -.604E+03   0.967E+02 -.537E+02 0.610E+03   0.422E+00 -.347E-01 -.455E+01   -.940E-03 -.765E-02 -.719E-02
   0.329E+02 0.291E+03 0.752E+03   -.337E+02 -.293E+03 -.756E+03   0.134E+01 0.633E+00 0.210E+01   0.219E-03 0.428E-02 -.361E-02
   -.844E+01 0.360E+02 -.121E+04   0.998E+01 -.364E+02 0.122E+04   -.714E+00 0.373E+00 -.282E+01   0.871E-02 0.601E-03 0.446E-03
   0.177E+03 -.345E+03 0.154E+04   -.179E+03 0.349E+03 -.155E+04   0.359E+00 -.197E+01 0.150E+01   0.893E-03 -.105E-02 0.111E-02
   0.237E+03 -.322E+03 -.106E+03   -.239E+03 0.324E+03 0.108E+03   0.121E+01 0.175E+00 -.296E+00   0.764E-02 -.254E-02 -.968E-03
   0.881E+01 -.371E+03 0.923E+03   -.905E+01 0.374E+03 -.926E+03   -.399E+00 -.143E+01 0.267E+01   -.328E-02 0.238E-02 -.271E-02
   0.170E+03 0.265E+02 -.115E+04   -.172E+03 -.259E+02 0.115E+04   0.852E-01 -.154E+00 -.237E+01   -.188E-01 0.109E-01 -.282E-02
   -.296E+03 -.198E+03 0.505E+03   0.297E+03 0.202E+03 -.505E+03   -.147E+01 -.172E+01 0.256E+00   -.110E-01 -.945E-02 -.960E-02
   -.224E+03 0.424E+02 -.145E+04   0.224E+03 -.411E+02 0.145E+04   -.528E+00 -.105E+01 -.192E+01   0.947E-03 -.806E-02 -.319E-02
   0.193E+03 -.181E+03 -.409E+03   -.194E+03 0.183E+03 0.409E+03   -.353E-01 -.507E+00 -.677E+00   0.395E-02 0.894E-03 0.333E-02
   0.127E+03 -.479E+02 0.135E+04   -.129E+03 0.476E+02 -.136E+04   0.127E+01 0.104E+01 0.423E+01   0.184E-02 0.252E-02 0.799E-04
   0.185E+03 0.302E+02 0.116E+04   -.186E+03 -.311E+02 -.116E+04   0.497E+00 0.940E+00 0.368E+01   0.647E-03 0.323E-03 -.495E-03
   0.992E+02 -.122E+03 -.800E+03   -.997E+02 0.123E+03 0.802E+03   -.101E+00 -.125E+01 -.927E+00   -.255E-02 0.401E-02 0.208E-02
   -.594E+02 0.123E+03 0.220E+03   0.573E+02 -.121E+03 -.221E+03   0.130E+01 -.115E+01 -.351E+00   0.316E-02 0.455E-02 -.749E-02
   -.199E+02 -.231E+03 -.155E+04   0.188E+02 0.235E+03 0.155E+04   0.545E+00 -.231E+01 -.272E+00   0.239E-02 0.258E-02 0.389E-03
   0.307E+03 0.194E+03 0.825E+03   -.310E+03 -.196E+03 -.826E+03   0.119E+01 0.117E+01 0.388E+00   0.235E-02 -.547E-03 -.611E-02
   0.174E+03 -.631E+02 -.122E+04   -.176E+03 0.624E+02 0.122E+04   0.164E+00 0.622E-01 -.270E+01   -.126E-01 -.185E-02 -.428E-02
   0.538E+01 0.658E+02 0.173E+04   -.497E+01 -.674E+02 -.174E+04   -.674E+00 0.130E+01 0.259E+01   -.209E-02 -.156E-02 0.286E-02
   0.703E+02 0.134E+03 -.336E+03   -.701E+02 -.134E+03 0.339E+03   -.861E+00 -.129E+01 -.197E+01   0.212E-02 -.481E-03 -.354E-02
   0.219E+03 0.195E+03 -.392E+03   -.220E+03 -.198E+03 0.393E+03   -.175E-01 0.701E+00 -.764E+00   0.332E-02 -.325E-02 0.648E-02
   0.220E+03 0.765E+02 0.136E+04   -.222E+03 -.760E+02 -.137E+04   0.927E+00 -.116E+01 0.407E+01   -.436E-03 -.380E-02 0.219E-03
   0.826E+02 0.263E+03 0.644E+03   -.846E+02 -.266E+03 -.645E+03   0.104E+01 0.133E+01 0.804E+00   -.646E-02 0.980E-02 -.724E-02
   -.189E+03 -.514E+02 -.145E+04   0.190E+03 0.504E+02 0.146E+04   -.707E+00 0.950E+00 -.252E+01   0.949E-03 0.850E-02 -.357E-02
   -.214E+03 0.194E+03 0.401E+03   0.214E+03 -.196E+03 -.405E+03   0.166E+00 0.141E+00 0.240E+01   0.156E-03 -.239E-02 -.555E-02
   -.331E+02 0.252E+03 -.152E+04   0.326E+02 -.255E+03 0.153E+04   0.500E-01 0.256E+01 -.160E+01   0.177E-02 -.189E-02 0.233E-02
   0.170E+03 -.601E+02 0.116E+04   -.171E+03 0.615E+02 -.117E+04   0.398E+00 -.113E+01 0.376E+01   0.358E-02 -.288E-02 0.140E-02
   0.869E+02 0.123E+03 -.793E+03   -.875E+02 -.125E+03 0.795E+03   -.205E+00 0.126E+01 -.838E+00   0.845E-02 -.363E-02 0.102E-02
   -.120E+02 0.134E+02 -.290E+02   -.114E-11 -.313E-12 -.568E-12   0.120E+02 -.135E+02 0.293E+02   -.102E-01 -.215E-01 -.280E+00

 POSITION                                       TOTAL-FORCE (eV/Angst)
     13.17084      1.39171      1.94975        -0.127573     -0.278994      1.625461
     13.51027      1.40754      4.60753        -0.043260     -0.349738      1.019389
      3.62291      6.43233      1.54214         1.002790     -0.328711     -0.315576
      5.02033      6.18092      3.49202        -0.407236      0.096162     -0.105239
      6.52589      1.60982      2.03175         0.628943     -0.351033     -0.324529
      7.93172      1.39171      4.00611        -0.681947     -0.353779     -0.973140
     16.08224      6.18092      2.46384        -0.302150      0.330892      2.163768
     16.43256      6.17899      5.16956        -1.612563     -0.159808      0.499848
      2.10894      1.39171      2.97793        -0.715537     -0.117418      0.474163
      1.86736      1.39109      5.33462         0.997267      0.028297      0.999565
      9.62065      6.17742      2.59140         0.585792      0.163297     -0.433561
     10.84312      6.18092      4.52020        -0.966039      0.329657     -0.082503
     15.35041      0.08235      1.88098         1.161805      0.368501      0.055148
     15.93173      0.12300      4.38570        -0.930190     -1.076318     -0.010445
      6.99152      3.88618      0.96148         0.264575     -0.168387     -0.748050
      7.17375      4.91558      3.08454         0.484939      0.338967      0.074151
      7.85712      4.45582      5.38113        -0.099306      0.619277      0.811073
     10.54871      9.01540      1.37215        -0.164078     -0.553368     -0.940855
     10.08514      0.12638      3.59863         0.432910     -0.183618     -0.459856
      1.35096      4.91558      2.05636         0.270401     -0.373885      1.882096
      1.88755      4.84968      4.80958         1.167987     -1.164937      0.551422
      4.26235      0.12638      2.57045         0.477010     -0.647043      1.172799
      4.90125      9.40700      5.03422         0.192878     -0.040763      0.693379
     12.99653      4.91558      4.11272         0.938643     -0.395340     -2.901178
     15.42134      2.73575      1.94278         0.786076     -0.407345      0.008423
     15.90407      2.66326      4.39618        -0.655505      0.823451      0.204776
      6.03918      6.18858      0.93776        -0.316092     -0.042626     -1.574066
      7.17375      7.44626      3.08454         0.410251      0.210018     -1.149434
      7.83460      7.88896      5.39016        -0.035002     -0.503345      0.805101
      8.94171      1.38117      1.43344        -0.324690      0.184994     -1.821363
     10.08514      2.65705      3.59863         0.849458      0.477076     -1.450861
      1.35096      7.44626      2.05636        -0.054150      0.491051      1.576081
      1.88862      7.51144      4.80825         1.340974      1.201377      0.477935
      4.26235      2.65705      2.57045        -0.014923      0.887341      0.996682
      4.92287      2.99883      4.98975         0.142082      0.037449      0.829952
     12.97986      8.30287      1.89880        -0.807071     -0.676632     -0.029356
     12.99653      7.44626      4.11272         1.024115      0.437883     -0.641789
     16.77468      1.39651      5.77579        -0.086709      0.001282      3.140833
     16.74052      1.39171      2.94940         2.217391     -0.087664     -2.081854
      8.00634      6.18092      1.40713         0.932575     -0.347499     -2.821821
      8.59001      6.18092      4.49167         0.874023      0.066195      1.283506
     10.91773      1.39171      1.92122         1.720815      1.115066     -1.681078
     11.44522      1.41025      4.60693         0.801045     -0.085681      2.603424
      1.88359      6.18126      0.52529         0.158205     -0.152143     -3.827784
      2.76722      6.18092      3.46349         1.503566     -0.142181     -0.431898
      1.29236      6.18104      6.24741         0.500890      0.025129      4.198619
      4.76520      1.39059      1.01929         0.449184     -0.045958     -3.759095
      5.67861      1.39171      3.97758         1.179742      0.011037      0.993492
     13.86711      6.40147      2.51771         0.503344     -1.486328     -1.743553
     14.33976      6.15086      5.12881         0.828731      0.040176      2.446117
     13.91621      2.70562      0.61757        -0.812394      1.671506     -3.468990
     13.99844      3.00295      3.46826        -1.208542      2.121473      0.853111
      5.26426      7.79215      1.92599        -0.633704      1.899893     -0.258551
      5.89634      7.63750      4.78749        -1.110362      0.437639      1.933884
      8.17565      3.00295      2.44008        -0.177909      1.445774      0.019934
      8.89937      2.74749      5.28953        -0.004987      0.188624      2.849421
      0.02514      7.79215      3.98236        -1.076927      1.624280     -0.556425
     16.33028      7.88929      1.30608        -0.397254      0.758982     -2.773415
      2.35760      3.08396      1.78704        -0.595909      0.019512     -2.682752
      2.93654      3.00295      4.49645        -0.604804      0.197818      0.893512
     11.08705      7.79215      2.95417        -0.808631      0.434824     -0.589560
     11.72932      7.60005      5.68382        -0.644163      1.216516      3.785058
      5.26426      4.56969      1.92599        -1.709564     -1.095415     -0.510867
      5.90977      4.78214      4.83677        -1.163007     -0.631116      1.765759
     13.78387      9.57349      0.53557        -0.264199     -0.283106     -3.773087
     13.99844      9.35889      3.46826        -0.646413     -0.943839      1.799757
      0.02514      4.56969      3.98236        -1.153318     -1.754468     -0.579211
     16.34100      4.50024      1.29422        -0.838878     -0.755276     -2.940573
      8.17565      9.35889      2.44008        -0.961519     -1.436002     -0.250570
      8.87468      0.01902      5.28543         0.283607     -0.098534      2.739062
     11.01252      4.59983      3.16187         0.115948     -1.656765     -1.521269
     11.82251      4.86680      5.73548        -0.473229     -1.096849      3.683455
      2.37863      9.26367      1.77875        -0.828180      0.298682     -2.607485
      2.93654      9.35889      4.49645        -0.770052     -0.328187      0.911484
    total drift:                               -0.023051     -0.065066     -0.017674

  FREE ENERGIE OF THE ION-ELECTRON SYSTEM (eV)
  free  energy   TOTEN  =      -352.36905300 eV

  energy  without entropy=     -351.26174837  energy(sigma->0) =     -351.81540068