 vasp.5.4.4.18Apr17-6-g9f103f2a35 (build Aug 13 2019 17:33:20) gamma-only

 executed on             LinuxIFC date 2020.05.12  04:57:31

 INCAR:
 POTCAR:    PAW_PBE Ni_pv 06Sep2000
 POTCAR:    PAW_PBE S 06Sep2000
 POTCAR:    PAW_PBE Ni_pv 06Sep2000
   VRHFIN =Ni:

   TITEL  = PAW_PBE Ni_pv 06Sep2000
   POMASS =   58.690; ZVAL   =   16.000    mass and valenz
   ENMAX  =  367.986; ENMIN  =  275.989 eV

 POTCAR:    PAW_PBE S 06Sep2000
   VRHFIN =S : s2p4

   TITEL  = PAW_PBE S 06Sep2000
   POMASS =   32.066; ZVAL   =    6.000    mass and valenz
   ENMAX  =  258.689; ENMIN  =  194.016 eV

 Optimization of the real space projectors (new method)

 maximal supplied QI-value         = 18.90
 optimisation between [QCUT,QGAM] = [ 10.77, 21.73] = [ 32.49,132.25] Ry
 Optimized for a Real-space Cutoff    1.38 Angstroem

   l    n(q)    QCUT    max X(q) W(low)/X(q) W(high)/X(q)  e(spline)
   1      8    10.771     2.836    0.40E-04    0.29E-04    0.12E-06
   1      8    10.771     4.023    0.10E-03    0.48E-04    0.29E-06
   2      8    10.771    73.368    0.42E-03    0.97E-04    0.44E-06
   2      8    10.771    69.010    0.42E-03    0.99E-04    0.45E-06
   0      9    10.771    54.797    0.10E-03    0.56E-04    0.74E-07
   0      9    10.771    24.266    0.89E-04    0.49E-04    0.67E-07
 Optimization of the real space projectors (new method)

 maximal supplied QI-value         = 19.84
 optimisation between [QCUT,QGAM] = [ 10.71, 21.63] = [ 32.15,130.99] Ry
 Optimized for a Real-space Cutoff    1.19 Angstroem

   l    n(q)    QCUT    max X(q) W(low)/X(q) W(high)/X(q)  e(spline)
   0      8    10.715   187.594    0.41E-03    0.53E-04    0.66E-07
   0      8    10.715   164.243    0.41E-03    0.53E-04    0.65E-07
   1      7    10.715    67.533    0.19E-03    0.59E-03    0.68E-07
   1      7    10.715    50.729    0.19E-03    0.58E-03    0.67E-07
  PAW_PBE Ni_pv 06Sep2000               :
  PAW_PBE S 06Sep2000                   :

 POSCAR: Type_037 Type_137
  positions in cartesian coordinates
 exchange correlation table for  LEXCH =        8
   RHO(1)=    0.500       N(1)  =     2000
   RHO(2)=  100.500       N(2)  =     4000

 ion  position               nearest neighbor table
   1  0.771  0.112  0.122-  65 2.08  51 2.10  42 2.13  66 2.19   2 2.48  52 2.65
   2  0.807  0.122  0.267-  66 2.05  52 2.06  43 2.08   1 2.48
   3  0.253  0.646  0.073-  44 2.04  53 2.06  63 2.07   4 2.50
   4  0.297  0.645  0.216-  54 2.12  64 2.14  45 2.25  53 2.26  63 2.26   3 2.50  28 2.53  15 2.53

   5  0.389  0.157  0.130-  47 2.03  48 2.12  55 2.24   6 2.39  69 2.39  30 2.47
   6  0.470  0.145  0.247-  56 2.10  70 2.11  48 2.25  55 2.26  69 2.26   5 2.39  31 2.53  18 2.53

   7  0.952  0.645  0.154-  58 2.05  68 2.10  57 2.12  67 2.17  49 2.25  32 2.53  19 2.53
   8  0.079  0.150  0.054-  59 2.06  73 2.07  39 2.08   9 2.32
   9  0.125  0.145  0.185-  73 2.11  59 2.15  39 2.31   8 2.32  60 2.36  74 2.36  10 2.39  34 2.53
                            21 2.53
  10  0.116  0.145  0.329-  38 2.03  74 2.08  60 2.08   9 2.39
  11  0.571  0.643  0.162-  40 2.01  41 2.17  71 2.19  61 2.21  12 2.28
  12  0.642  0.645  0.278-  72 2.03  62 2.03  41 2.25  61 2.26  71 2.26  11 2.28  37 2.53  24 2.53

[...]

  38  0.998  0.102  0.321-  10 2.03  26 2.05  13 2.07
  39  0.995  0.175  0.144-   8 2.08  13 2.12  26 2.14  25 2.25   9 2.31
  40  0.474  0.645  0.091-  11 2.01  14 2.03  27 2.03  15 2.26  28 2.26
  41  0.509  0.645  0.276-  29 2.07  16 2.08  11 2.17  12 2.25  28 2.36  15 2.36
  42  0.647  0.145  0.122-  30 2.02  17 2.05   1 2.13  18 2.26  31 2.26  43 2.65  65 2.79
  43  0.685  0.143  0.276-   2 2.08  18 2.13  31 2.15  42 2.65
  44  0.134  0.646  0.048-   3 2.04  32 2.08  19 2.08
  45  0.164  0.645  0.214-  33 2.06  20 2.09   4 2.25  32 2.36  19 2.36
  46  0.086  0.638  0.365-  20 2.00  33 2.00
  47  0.285  0.145  0.068-   5 2.03  21 2.06  34 2.07
  48  0.336  0.145  0.245-  22 2.04  35 2.04   5 2.12   6 2.25  34 2.36  21 2.36
  49  0.819  0.645  0.153-  36 2.12   7 2.25  24 2.26  37 2.26  23 2.28
  50  0.836  0.645  0.320-  24 2.02  37 2.03
  51  0.825  0.274  0.058-  23 2.03   1 2.10  25 2.11  52 2.64
  52  0.829  0.314  0.215-   2 2.06  23 2.13  25 2.16  26 2.20  24 2.25  51 2.64   1 2.65
  53  0.312  0.814  0.122-  27 1.99   3 2.06  21 2.25   4 2.26  28 2.26
  54  0.349  0.795  0.294-  22 2.04  29 2.05   4 2.12  28 2.15
  55  0.484  0.314  0.153-  30 2.06   5 2.24  15 2.25   6 2.26  31 2.26
  56  0.530  0.282  0.325-  16 2.00  31 2.05   6 2.10  70 2.70
  57  0.999  0.806  0.228-  33 2.06  13 2.09   7 2.12  32 2.15  58 2.68
  58  0.977  0.793  0.069-  32 2.03   7 2.05  57 2.68  68 2.73
  59  0.140  0.315  0.103-   8 2.06   9 2.15  34 2.16  19 2.20
  60  0.174  0.314  0.276-  35 2.05  10 2.08  20 2.14   9 2.36  34 2.36
  61  0.657  0.814  0.184-  17 2.12  36 2.19  11 2.21  18 2.25  37 2.26  12 2.26
  62  0.695  0.792  0.348-  37 2.03  12 2.03
  63  0.312  0.477  0.122-  14 1.99   3 2.07  34 2.25   4 2.26  15 2.26
  64  0.351  0.499  0.296-  35 2.04  16 2.06   4 2.14  15 2.14
  65  0.745  0.979  0.027-  36 2.03  17 2.05   1 2.08  42 2.79
  66  0.833  0.955  0.195-   2 2.05  36 2.11  13 2.15   1 2.19  37 2.23
  67  0.991  0.462  0.220-  20 2.12  26 2.15   7 2.17  19 2.18  25 2.22  68 2.73
  68  0.978  0.509  0.059-  25 2.05  19 2.08   7 2.10  58 2.73  67 2.73
  69  0.484  0.977  0.153-  30 2.03  28 2.25   6 2.26  18 2.26   5 2.39
  70  0.526  0.001  0.323-  29 2.00  18 2.07   6 2.11  56 2.70
  71  0.657  0.477  0.184-  11 2.19  23 2.25  31 2.25  24 2.26  12 2.26  72 2.78
  72  0.693  0.495  0.346-  24 2.03  12 2.03  71 2.78
  73  0.137  0.979  0.103-   8 2.07   9 2.11  21 2.20  32 2.20
  74  0.174  0.977  0.276-  22 2.04  10 2.08  33 2.13   9 2.36  21 2.36

  LATTYP: Found a simple orthorhombic cell.
 ALAT       =     9.5784100000
 B/A-ratio  =     1.7387693453
 C/A-ratio  =     1.7627867312

  Lattice vectors:

 A1 = (   0.0000000000,   9.5784100000,   0.0000000000)
 A2 = (   0.0000000000,   0.0000000000, -16.6546456851)
 A3 = ( -16.8846940542,   0.0000000000,   0.0000000000)

Analysis of symmetry for initial positions (statically):
 Subroutine PRICEL returns:
 Original cell was already a primitive cell.

 Routine SETGRP: Setting up the symmetry group for a
 simple orthorhombic supercell.

 Subroutine GETGRP returns: Found  1 space group operations
 (whereof  1 operations were pure point group operations)
 out of a pool of  8 trial point group operations.

The static configuration has the point symmetry C_1 .

Analysis of symmetry for dynamics (positions and initial velocities):
 Subroutine PRICEL returns:
 Original cell was already a primitive cell.

 Routine SETGRP: Setting up the symmetry group for a
 simple orthorhombic supercell.

 Subroutine GETGRP returns: Found  1 space group operations
 (whereof  1 operations were pure point group operations)
 out of a pool of  8 trial point group operations.

The dynamic configuration has the point symmetry C_1 .

 Subroutine INISYM returns: Found  1 space group operations
 (whereof  1 operations are pure point group operations),
 and found     1 'primitive' translations

 KPOINTS: gamma-point-only calculation. no periodi

Automatic generation of k-mesh.
Space group operators:
 irot       det(A)        alpha          n_x          n_y          n_z        tau_x        tau_y        tau_z
    1     1.000000     0.000000     1.000000     0.000000     0.000000     0.000000     0.000000     0.000000

 Subroutine IBZKPT returns following result:

 Found      1 irreducible k-points:

 Following reciprocal coordinates:
            Coordinates               Weight
  0.000000  0.000000  0.000000      1.000000

 Following cartesian coordinates:
            Coordinates               Weight
  0.000000  0.000000  0.000000      1.000000

 SYSTEM =  "Millerite NiS"
 POSCAR =  Type_037 Type_137

 Startparameter for this run:
   NWRITE =      2    write-flag & timer
   PREC   = normal    normal or accurate (medium, high low for compatibility)
   ISTART =      0    job   : 0-new  1-cont  2-samecut
   ICHARG =      2    charge: 1-file 2-atom 10-const
   ISPIN  =      1    spin polarized calculation?
   LNONCOLLINEAR =      F non collinear calculations
   LSORBIT =      F    spin-orbit coupling
   INIWAV =      1    electr: 0-lowe 1-rand  2-diag
   LASPH  =      F    aspherical Exc in radial PAW
   METAGGA=      F    non-selfconsistent MetaGGA calc.

 Electronic Relaxation 1
   ENCUT  =  450.0 eV  33.07 Ry    5.75 a.u.  29.20 16.57 28.81*2*pi/ulx,y,z
   ENINI  =  450.0     initial cutoff
   ENAUG  =  703.4 eV  augmentation charge cutoff
   NELM   =    100;   NELMIN=  2; NELMDL= -5     # of ELM steps
   EDIFF  = 0.1E-03   stopping-criterion for ELM
   LREAL  =      T    real-space projection
   NLSPLINE    = F    spline interpolate recip. space projectors
   LCOMPAT=      F    compatible to vasp.4.4
   GGA_COMPAT  = T    GGA compatible to vasp.4.4-vasp.4.6
   LMAXPAW     = -100 max onsite density
   LMAXMIX     =    2 max onsite mixed and CHGCAR
   VOSKOWN=      0    Vosko Wilk Nusair interpolation
   ROPT   =   -0.00050  -0.00050
 Ionic relaxation
   EDIFFG = 0.1E-02   stopping-criterion for IOM
   NSW    =      0    number of steps for IOM
   NBLOCK =      1;   KBLOCK =      1    inner block; outer block
   IBRION =     -1    ionic relax: 0-MD 1-quasi-New 2-CG
   NFREE  =      0    steps in history (QN), initial steepest desc. (CG)
   ISIF   =      2    stress and relaxation
   IWAVPR =     10    prediction:  0-non 1-charg 2-wave 3-comb
   ISYM   =      2    0-nonsym 1-usesym 2-fastsym
   LCORR  =      T    Harris-Foulkes like correction to forces

   POTIM  = 0.5000    time-step for ionic-motion
   TEIN   =    0.0    initial temperature
   TEBEG  =    0.0;   TEEND  =   0.0 temperature during run
   SMASS  =  -3.00    Nose mass-parameter (am)
   estimated Nose-frequenzy (Omega)   =  0.10E-29 period in steps =****** mass=  -0.652E-26a.u.
   SCALEE = 1.0000    scale energy and forces
   NPACO  =    256;   APACO  = 16.0  distance and # of slots for P.C.
   PSTRESS=    0.0 pullay stress

  Mass of Ions in am
   POMASS =  58.69 32.07
  Ionic Valenz
   ZVAL   =  16.00  6.00
  Atomic Wigner-Seitz radii
  virtual crystal weights
   VCA    =   1.00  1.00
   NELECT =     814.0000    total number of electrons
   NUPDOWN=      -1.0000    fix difference up-down

 DOS related values:
   EMIN   =  10.00;   EMAX   =-10.00  energy-range for DOS
   EFERMI =   0.00
   ISMEAR =     0;   SIGMA  =   0.20  broadening in eV -4-tet -1-fermi 0-gaus

 Electronic relaxation 2 (details)
   IALGO  =     38    algorithm
   LDIAG  =      T    sub-space diagonalisation (order eigenvalues)
   LSUBROT=      F    optimize rotation matrix (better conditioning)
   TURBO    =      0    0=normal 1=particle mesh
   IRESTART =      0    0=no restart 2=restart with 2 vectors
   NREBOOT  =      0    no. of reboots
   NMIN     =      0    reboot dimension
   EREF     =   0.00    reference energy to select bands
   IMIX   =      4    mixing-type and parameters
     AMIX     =   0.40;   BMIX     =  1.00
     AMIX_MAG =   1.60;   BMIX_MAG =  1.00
     AMIN     =   0.10
     WC   =   100.;   INIMIX=   1;  MIXPRE=   1;  MAXMIX= -45

[...]
     0.000000000  9.578410000  0.000000000     0.000000000  0.104401461  0.000000000
     0.000000000  0.000000000 16.654645685     0.000000000  0.000000000  0.060043307

  length of vectors
    16.884694054  9.578410000 16.654645685     0.059225237  0.104401461  0.060043307

 FORCES acting on ions
    electron-ion (+dipol)            ewald-force                    non-local-force                 convergence-correction
   -.333E+03 -.242E+03 0.201E+04   0.336E+03 0.244E+03 -.202E+04   -.294E+01 -.257E+01 0.495E+01   0.502E-02 0.120E-01 -.304E-02
   -.156E+02 0.433E+02 -.269E+04   0.124E+02 -.444E+02 0.269E+04   0.303E+01 0.148E+01 0.245E+01   0.846E-02 0.117E-01 -.129E-01
   0.640E+03 -.199E+02 0.321E+04   -.645E+03 0.197E+02 -.322E+04   0.587E+01 0.192E+00 0.391E+01   0.319E-01 0.166E-02 -.155E-01
   0.717E+03 -.427E+00 -.117E+04   -.719E+03 0.355E+00 0.118E+04   0.262E+01 -.917E-02 -.231E+01   0.119E-01 0.309E-02 -.300E-01
   -.271E+02 -.238E+02 0.229E+04   0.269E+02 0.240E+02 -.230E+04   0.969E+00 -.462E+00 0.746E+01   0.231E-02 0.210E-02 -.242E-01
   0.124E+03 -.213E+02 -.192E+04   -.127E+03 0.214E+02 0.193E+04   0.256E+01 -.381E+00 -.613E+01   -.264E-02 0.752E-02 -.162E-01
   0.749E+03 -.293E+03 0.762E+03   -.755E+03 0.294E+03 -.760E+03   0.544E+01 -.192E+01 -.120E+01   0.363E-02 -.100E-02 -.767E-02
   0.521E+03 0.131E+03 0.389E+04   -.519E+03 -.132E+03 -.389E+04   -.332E+01 0.158E+01 -.894E+00   -.117E-02 -.131E-02 -.261E-02
   0.526E+03 0.673E+02 0.108E+03   -.527E+03 -.675E+02 -.104E+03   0.681E+00 0.586E+00 -.137E+01   -.163E-01 -.699E-02 -.266E-01
   0.374E+03 -.217E+02 -.377E+04   -.376E+03 0.207E+02 0.377E+04   0.284E+01 0.113E+01 0.347E+01   -.121E-01 -.876E-02 -.840E-02
   -.553E+03 0.227E+03 0.162E+04   0.556E+03 -.227E+03 -.163E+04   -.260E+01 0.761E+00 0.446E+01   -.199E-01 -.829E-02 -.105E-01
   -.602E+02 0.705E+02 -.246E+04   0.571E+02 -.706E+02 0.246E+04   0.218E+01 -.105E+00 -.686E+01   -.224E-01 -.187E-01 -.211E-01
   0.291E+03 0.525E+03 -.645E+03   -.290E+03 -.529E+03 0.644E+03   -.236E+01 0.315E+01 0.526E+00   0.216E-02 0.114E-01 -.116E-01
   -.382E+03 0.762E+03 0.400E+04   0.379E+03 -.758E+03 -.400E+04   0.316E+01 -.513E+01 -.120E+01   -.642E-02 0.225E-01 0.505E-03
   -.321E+03 0.492E+03 0.176E+03   0.320E+03 -.495E+03 -.176E+03   0.816E+00 0.302E+01 -.757E+00   -.420E-03 0.994E-02 -.301E-01
   -.263E+03 0.135E+03 -.367E+04   0.266E+03 -.139E+03 0.367E+04   -.289E+01 0.455E+01 0.150E+01   0.763E-02 0.703E-02 -.793E-02
   0.130E+03 0.388E+03 0.332E+04   -.128E+03 -.388E+03 -.332E+04   -.259E+01 -.246E+00 0.538E+01   -.821E-02 -.114E-02 -.661E-02
   -.551E+03 0.311E+03 -.123E+04   0.553E+03 -.316E+03 0.123E+04   -.158E+01 0.410E+01 -.609E+01   -.287E-02 0.126E-02 -.121E-01
   0.699E+01 0.295E+03 0.183E+04   -.375E+01 -.300E+03 -.183E+04   -.219E+01 0.401E+01 0.371E+01   0.401E-02 0.229E-02 -.170E-01
   0.282E+03 0.118E+03 -.269E+04   -.280E+03 -.121E+03 0.270E+04   -.154E+01 0.175E+01 -.514E+01   -.624E-02 0.110E-01 -.130E-01
   0.113E+03 0.519E+03 0.115E+04   -.114E+03 -.522E+03 -.116E+04   0.120E+01 0.250E+01 0.324E+01   0.607E-02 -.168E-01 -.226E-01
   0.675E+02 0.174E+03 -.337E+04   -.670E+02 -.179E+03 0.337E+04   -.426E+00 0.429E+01 0.246E+01   0.285E-02 -.162E-01 -.666E-02
   0.405E+03 -.215E+03 0.247E+04   -.408E+03 0.216E+03 -.248E+04   0.163E+01 -.185E+00 0.571E+01   0.139E-02 -.799E-02 -.443E-02
   -.479E+03 0.397E+03 -.187E+04   0.482E+03 -.401E+03 0.188E+04   -.262E+01 0.326E+01 -.493E+01   0.118E-02 -.130E-01 -.145E-01
   0.123E+03 0.424E+02 0.210E+04   -.122E+03 -.436E+02 -.211E+04   -.170E+00 0.454E+00 0.855E+01   0.260E-03 -.893E-02 0.192E-02
   0.240E+03 -.291E+03 -.226E+04   -.239E+03 0.291E+03 0.227E+04   -.152E+01 0.794E+00 -.635E+01   -.669E-02 -.148E-02 -.143E-01
   -.311E+03 -.728E+03 0.399E+04   0.308E+03 0.724E+03 -.399E+04   0.308E+01 0.505E+01 -.125E+01   -.103E-01 -.266E-01 -.869E-03
   -.255E+03 -.467E+03 0.120E+03   0.254E+03 0.470E+03 -.120E+03   0.852E+00 -.281E+01 -.721E+00   -.871E-02 -.164E-01 -.349E-01
   -.216E+03 -.113E+03 -.377E+04   0.218E+03 0.117E+03 0.377E+04   -.252E+01 -.396E+01 0.209E+01   -.499E-02 -.148E-01 -.884E-02
   -.219E+03 -.339E+03 0.345E+04   0.217E+03 0.340E+03 -.346E+04   0.140E+01 -.717E+00 0.525E+01   -.137E-01 0.385E-02 -.998E-02
   -.718E+03 -.566E+03 -.792E+03   0.721E+03 0.572E+03 0.794E+03   -.169E+01 -.568E+01 -.383E+01   -.833E-03 0.135E-01 -.647E-02
   0.163E+03 -.481E+03 0.183E+04   -.160E+03 0.487E+03 -.184E+04   -.168E+01 -.491E+01 0.446E+01   0.818E-02 0.150E-02 -.966E-02
   0.292E+03 -.155E+03 -.276E+04   -.291E+03 0.158E+03 0.277E+04   -.577E+00 -.261E+01 -.479E+01   0.109E-02 0.705E-03 -.132E-01
   0.121E+03 -.488E+03 0.114E+04   -.122E+03 0.492E+03 -.114E+04   0.704E+00 -.253E+01 0.275E+01   0.994E-02 0.898E-02 -.340E-01
   0.785E+02 -.189E+03 -.334E+04   -.774E+02 0.193E+03 0.334E+04   -.911E+00 -.478E+01 0.225E+01   0.135E-01 0.113E-01 -.107E-01
   -.560E+03 0.486E+03 0.253E+04   0.562E+03 -.489E+03 -.253E+04   -.138E+01 0.215E+01 0.704E+01   0.268E-02 0.190E-02 -.655E-02
   -.654E+03 -.374E+03 -.191E+04   0.657E+03 0.378E+03 0.192E+04   -.234E+01 -.313E+01 -.630E+01   0.967E-02 -.168E-02 -.171E-01
   0.225E+03 0.145E+03 -.145E+04   -.225E+03 -.147E+03 0.146E+04   -.299E+00 0.985E+00 -.202E+01   -.710E-02 0.195E-02 -.817E-02
   0.188E+03 0.944E+02 0.664E+03   -.190E+03 -.959E+02 -.667E+03   0.147E+01 0.695E+00 0.150E+01   -.135E-02 0.135E-02 -.647E-03
   -.463E+03 0.448E+02 0.118E+04   0.465E+03 -.449E+02 -.119E+04   -.159E+01 0.134E+00 0.160E+01   -.141E-01 -.234E-02 -.598E-02
   -.189E+03 0.110E+02 -.935E+03   0.189E+03 -.110E+02 0.940E+03   0.907E+00 -.415E-01 -.391E+01   -.354E-02 -.774E-02 -.642E-02
   -.224E+03 -.343E+03 0.861E+03   0.225E+03 0.348E+03 -.866E+03   -.949E+00 -.303E+01 0.368E+01   0.280E-02 0.388E-02 -.213E-02
   -.191E+03 -.589E+02 -.111E+04   0.193E+03 0.590E+02 0.112E+04   -.331E+00 -.136E+00 -.304E+01   0.233E-02 0.394E-02 -.353E-02
   0.110E+03 -.222E+02 0.155E+04   -.110E+03 0.224E+02 -.156E+04   0.341E+00 -.270E+00 0.323E+01   0.777E-02 0.744E-03 -.230E-02
   -.937E+02 -.807E+01 -.275E+03   0.961E+02 0.800E+01 0.274E+03   -.958E+00 -.119E+00 0.337E+00   0.465E-02 0.466E-02 -.662E-02
   0.198E+03 0.406E+01 -.163E+04   -.198E+03 -.407E+01 0.163E+04   -.284E-01 0.314E-01 -.915E+00   -.224E-04 0.429E-02 -.193E-02
   0.475E+02 0.170E+02 0.161E+04   -.480E+02 -.172E+02 -.162E+04   0.106E+01 0.150E+00 0.196E+01   0.531E-02 -.978E-03 -.634E-02
   -.856E+02 0.150E+02 -.654E+03   0.863E+02 -.148E+02 0.659E+03   0.318E+00 -.161E+00 -.451E+01   0.658E-02 -.632E-02 -.105E-01
   -.122E+03 -.110E+01 0.594E+03   0.124E+03 0.578E+00 -.597E+03   -.138E+01 -.319E+00 0.158E+01   0.140E-02 -.452E-02 -.350E-02
   -.410E+03 -.106E+02 -.139E+04   0.414E+03 0.105E+02 0.140E+04   -.209E+01 0.146E+00 -.765E+00   0.418E-02 -.286E-02 -.271E-02
   -.181E+02 0.608E+02 0.151E+04   0.184E+02 -.616E+02 -.152E+04   -.113E+00 0.484E+00 0.385E+01   0.623E-03 0.887E-03 0.321E-02
   0.668E+02 -.350E+02 -.428E+03   -.676E+02 0.352E+02 0.433E+03   0.188E+00 0.434E+00 -.256E+01   0.396E-02 -.193E-02 -.434E-02
   0.190E+03 -.286E+03 0.691E+03   -.192E+03 0.288E+03 -.693E+03   0.564E+00 -.304E-01 0.280E+01   0.659E-02 -.103E-01 -.121E-01
   0.219E+03 0.526E+02 -.120E+04   -.220E+03 -.516E+02 0.121E+04   0.150E+00 -.295E+00 -.233E+01   -.107E-02 -.438E-02 -.742E-02
   -.131E+03 -.271E+03 0.617E+03   0.131E+03 0.274E+03 -.619E+03   -.521E+00 -.150E+01 0.167E+01   -.550E-02 0.839E-02 -.549E-02
   -.224E+03 0.493E+02 -.150E+04   0.225E+03 -.480E+02 0.150E+04   -.101E+01 -.112E+01 -.159E+01   -.151E-02 0.919E-02 -.293E-03
   0.328E+03 -.204E+02 -.593E+03   -.330E+03 0.204E+02 0.595E+03   0.294E+00 0.892E+00 -.165E+01   0.237E-02 0.145E-02 -.261E-02
   0.295E+03 -.239E+03 0.138E+04   -.298E+03 0.242E+03 -.138E+04   0.110E+01 -.183E+01 0.154E+01   0.284E-02 0.752E-03 -.721E-03
   0.258E+02 -.197E+03 0.107E+04   -.257E+02 0.199E+03 -.107E+04   -.891E-02 -.859E+00 0.230E+01   -.273E-02 -.232E-03 -.715E-02
   0.121E+03 -.188E+03 -.917E+03   -.122E+03 0.190E+03 0.919E+03   0.468E+00 -.101E+01 -.145E+01   -.620E-02 0.283E-02 -.723E-02
   -.433E+02 0.578E+02 0.110E+03   0.418E+02 -.561E+02 -.109E+03   0.503E+00 -.149E+01 -.116E+01   -.585E-02 -.435E-02 -.530E-02
   -.910E+02 -.251E+03 -.160E+04   0.897E+02 0.255E+03 0.160E+04   0.101E+01 -.188E+01 -.124E+01   -.197E-02 -.135E-02 -.105E-02
   0.175E+03 0.277E+03 0.694E+03   -.177E+03 -.279E+03 -.697E+03   0.340E+00 0.742E-01 0.287E+01   0.102E-01 0.119E-01 -.137E-01
   0.209E+03 -.630E+02 -.124E+04   -.210E+03 0.622E+02 0.124E+04   -.489E-01 0.487E-01 -.260E+01   0.110E-01 0.991E-02 -.780E-02
   -.218E+03 -.179E+02 0.170E+04   0.220E+03 0.181E+02 -.171E+04   -.745E+00 -.556E+00 0.203E+01   0.116E-02 0.334E-02 -.110E-02
   -.229E+03 0.123E+03 -.560E+02   0.231E+03 -.122E+03 0.570E+02   -.175E+01 -.868E+00 -.490E+00   0.405E-02 0.499E-02 -.292E-02
   0.208E+03 -.633E+02 -.588E+03   -.209E+03 0.651E+02 0.592E+03   0.498E-01 -.142E+01 -.230E+01   -.477E-02 -.530E-02 -.399E-02
   0.156E+03 -.166E+02 0.156E+04   -.157E+03 0.153E+02 -.157E+04   0.748E-01 0.122E+01 0.361E+01   0.101E-02 -.181E-02 -.664E-03
   0.197E+02 0.219E+03 0.561E+03   -.211E+02 -.221E+03 -.562E+03   0.162E+00 0.129E+01 0.640E+00   -.668E-02 -.566E-02 -.753E-02
   -.203E+03 -.543E+02 -.149E+04   0.204E+03 0.533E+02 0.149E+04   -.960E+00 0.946E+00 -.227E+01   -.128E-02 -.103E-03 -.141E-02
   -.235E+02 0.135E+03 0.361E+03   0.217E+02 -.137E+03 -.363E+03   0.128E+01 0.103E+01 0.125E+01   -.366E-02 0.357E-03 -.406E-02
   -.819E+02 0.274E+03 -.157E+04   0.806E+02 -.278E+03 0.157E+04   0.953E+00 0.215E+01 -.114E+01   -.355E-02 -.390E-02 -.249E-02
   0.776E+02 0.224E+03 0.106E+04   -.777E+02 -.226E+03 -.107E+04   0.104E+00 0.139E+00 0.191E+01   -.122E-02 -.854E-03 -.492E-02
   0.134E+03 0.188E+03 -.888E+03   -.135E+03 -.191E+03 0.889E+03   0.342E+00 0.202E+01 -.111E+01   -.754E-03 -.826E-02 -.578E-02
   -.488E-01 0.139E+01 -.221E+02   -.119E-11 -.125E-11 0.193E-11   0.857E-01 -.143E+01 0.228E+02   -.398E-02 -.232E-01 -.657E+00

 POSITION                                       TOTAL-FORCE (eV/Angst)
     13.02216      1.07384      2.03875         0.889759      0.156093      0.694501
     13.62676      1.17180      4.44398        -0.140743      0.334994      0.300549
      4.26786      6.18370      1.20940         0.716608      0.046295     -1.059676
      5.02033      6.18092      3.59863        -0.264347     -0.077169     -0.386422
      6.56083      1.50430      2.16332         0.753866     -0.201558     -0.200669
      7.93172      1.39171      4.11272        -0.524634     -0.211034     -0.760449
     16.08224      6.18092      2.57045        -1.035967     -0.749713      0.900964
      1.33648      1.43200      0.89574        -0.534002      0.018349     -1.644546
      2.10894      1.39171      3.08454         0.223843      0.402370      1.927068
      1.95578      1.39005      5.47142         0.256818      0.126209      0.960371
      9.63457      6.16228      2.69433         0.429639      0.119859     -0.658123
     10.84312      6.18092      4.62682        -1.008064     -0.312927     -0.699907
     16.11539      0.09202      3.63660        -0.994559     -0.284494     -0.068659
      6.60377      5.00812      0.62196         0.240943     -0.423594     -1.001805
      7.17375      4.91558      3.19116         0.316540     -0.028916     -1.322399
      7.89259      4.40534      5.43251        -0.163079      0.758298      1.011176
     10.78173      9.03510      1.37647        -1.330990     -0.656767     -0.407462
     10.08514      0.12638      3.70525         0.460874     -0.387698     -1.305900
      1.35096      4.91558      2.16298         1.056513     -0.377962      0.664682
      1.69854      4.74894      4.64622         0.261223     -1.159070      0.461284
      4.26235      0.12638      2.67707        -0.026185     -0.869433      0.708817
      4.90645      9.39771      5.13151         0.066295     -0.065360      0.674637
     13.03128      4.10577      2.02949        -0.637457      0.915275      0.105516
     12.99653      4.91558      4.21934         0.219056     -0.444367     -1.476511
     15.49877      3.47831      2.09403         0.258564     -0.749000      0.135792
     16.03344      2.47764      4.22478        -0.876133      0.410022      0.288736
      6.63210      7.39783      0.63522         0.225569      0.416980     -1.000208
      7.17375      7.44626      3.19116         0.328089      0.074482     -1.159550
      7.82446      7.88365      5.50009        -0.108190     -0.571778      0.875138
      8.95099      1.37567      1.55936        -0.224398      0.057481     -1.859590
     10.08514      2.65705      3.70525         1.082487      0.429135     -1.571935
      1.35096      7.44626      2.16298         1.503301      0.458217      1.365348
      1.79941      7.56956      4.74890         0.583276      0.812925      0.885982
      4.26235      2.65705      2.67707         0.049842      0.825439      0.587691
      4.92732      3.00613      5.08663         0.172354      0.006456      0.807843
     12.93364      7.98986      1.89385         0.073737     -0.829621     -0.182717
     12.99653      7.44626      4.21934         0.444361      0.768453     -1.711971
     16.85608      0.97908      5.35287        -0.244097     -0.435060      2.629763
     16.80740      1.67341      2.40012        -0.201983     -0.887917     -1.536012
      8.00634      6.18092      1.51374         1.245397      0.011093     -1.874062
      8.59001      6.18092      4.59828         1.204916     -0.017694      1.336036
     10.91773      1.39171      2.02783         0.497524      1.977997     -0.822652
     11.56053      1.37401      4.59710         0.710298     -0.015022      2.320158
      2.27055      6.18594      0.79130         0.618891     -0.106547     -3.193466
      2.76722      6.18092      3.57010         1.409302     -0.189433     -0.730074
      1.45105      6.11574      6.08300        -0.462970      0.022627      2.907151
      4.80638      1.38493      1.13928         0.596130     -0.053806     -3.533234
      5.67861      1.39171      4.08419         1.006660      0.029817      0.908132
     13.82913      6.18092      2.54192         0.502292     -0.842152     -1.535129
     14.11587      6.18002      5.33575         2.353866     -0.038323      3.056417
     13.93527      2.62905      0.96128         0.193549     -0.290193     -3.476695
     13.99844      3.00295      3.57488        -0.608614      0.697777      1.993580
      5.26426      7.79215      2.03261        -1.382362      1.837451      0.269014
      5.88681      7.61846      4.90048        -1.063676      0.629007      1.977232
      8.17565      3.00295      2.54670        -0.807019      1.380476     -0.236497
      8.94319      2.70213      5.41117         0.106787      0.200630      3.036876
     16.86161      7.72286      3.79587        -1.039567      0.934661      1.003323
     16.48961      7.59288      1.14389        -1.720050      1.504325     -2.759901
      2.36918      3.02015      1.71174         0.131679      1.421741     -1.672640
      2.93654      3.00295      4.60306        -0.547798      0.549959      0.350524
     11.08705      7.79215      3.06079        -1.062494      0.168991      0.024253
     11.72680      7.58517      5.79446        -0.318544      1.473514      3.622882
      5.26426      4.56969      2.03261        -1.368258     -1.672841      0.363272
      5.93314      4.77769      4.92602        -1.205344     -0.717885      1.980884
     12.58473      9.37723      0.45768         0.641817     -0.360276     -3.799107
     14.06596      9.14598      3.24391         0.871644     -0.123470      0.532570
     16.73375      4.42923      3.67118        -0.123976      0.423683      2.146365
     16.51933      4.87110      0.98283        -0.360824     -0.081566     -3.678102
      8.17565      9.35889      2.54670        -1.229959     -1.368255     -0.226831
      8.87885      0.00493      5.38525         0.355868     -0.117320      2.674169
     11.08705      4.56969      3.06079        -0.550781     -1.119449     -1.200086
     11.69900      4.73824      5.76584        -0.307286     -1.489980      3.595253
      2.31113      9.37895      1.71668        -0.037060     -1.601373     -1.634105
      2.93654      9.35889      4.60306        -0.548766     -0.472064      0.303141
    total drift:                                0.032911     -0.060384      0.000024

  FREE ENERGIE OF THE ION-ELECTRON SYSTEM (eV)
  free  energy   TOTEN  =      -349.88642326 eV

  energy  without entropy=     -348.61835639  energy(sigma->0) =     -349.25238983