 vasp.5.4.4.18Apr17-6-g9f103f2a35 (build Aug 13 2019 17:33:20) gamma-only

 executed on             LinuxIFC date 2020.05.11  00:56:20

 INCAR:
 POTCAR:    PAW_PBE Ni_pv 06Sep2000
 POTCAR:    PAW_PBE S 06Sep2000
 POTCAR:    PAW_PBE Ni_pv 06Sep2000
   VRHFIN =Ni:

   TITEL  = PAW_PBE Ni_pv 06Sep2000
   POMASS =   58.690; ZVAL   =   16.000    mass and valenz
   ENMAX  =  367.986; ENMIN  =  275.989 eV

 POTCAR:    PAW_PBE S 06Sep2000
   VRHFIN =S : s2p4

   TITEL  = PAW_PBE S 06Sep2000
   POMASS =   32.066; ZVAL   =    6.000    mass and valenz
   ENMAX  =  258.689; ENMIN  =  194.016 eV

 Optimization of the real space projectors (new method)

 maximal supplied QI-value         = 18.90
 optimisation between [QCUT,QGAM] = [ 10.77, 21.73] = [ 32.49,132.25] Ry
 Optimized for a Real-space Cutoff    1.38 Angstroem

   l    n(q)    QCUT    max X(q) W(low)/X(q) W(high)/X(q)  e(spline)
   1      8    10.771     2.836    0.40E-04    0.29E-04    0.12E-06
   1      8    10.771     4.023    0.10E-03    0.48E-04    0.29E-06
   2      8    10.771    73.368    0.42E-03    0.97E-04    0.44E-06
   2      8    10.771    69.010    0.42E-03    0.99E-04    0.45E-06
   0      9    10.771    54.797    0.10E-03    0.56E-04    0.74E-07
   0      9    10.771    24.266    0.89E-04    0.49E-04    0.67E-07
 Optimization of the real space projectors (new method)

 maximal supplied QI-value         = 19.84
 optimisation between [QCUT,QGAM] = [ 10.71, 21.63] = [ 32.15,130.99] Ry
 Optimized for a Real-space Cutoff    1.19 Angstroem

   l    n(q)    QCUT    max X(q) W(low)/X(q) W(high)/X(q)  e(spline)
   0      8    10.715   187.594    0.41E-03    0.53E-04    0.66E-07
   0      8    10.715   164.243    0.41E-03    0.53E-04    0.65E-07
   1      7    10.715    67.533    0.19E-03    0.59E-03    0.68E-07
   1      7    10.715    50.729    0.19E-03    0.58E-03    0.67E-07
  PAW_PBE Ni_pv 06Sep2000               :
  PAW_PBE S 06Sep2000                   :

 POSCAR: Type_052 Type_152
  positions in cartesian coordinates
 exchange correlation table for  LEXCH =        8
   RHO(1)=    0.500       N(1)  =     2000
   RHO(2)=  100.500       N(2)  =     4000

 ion  position               nearest neighbor table
   1  0.261  0.479  0.291-  79 2.25  63 2.26  87 2.26  59 2.36  64 2.36   7 2.53  22 2.53
   2  0.355  0.385  0.419-  57 2.23  59 2.26  64 2.26  80 2.29  65 2.36  71 2.36   8 2.53  23 2.53

   3  0.448  0.291  0.532-  65 2.03  71 2.03  57 2.14  96 2.14
   4  0.167  0.073  0.162-  60 2.11  69 2.25  88 2.27  61 2.36  89 2.36  13 2.49  37 2.53  32 2.53

[...]

  52  0.715  0.528  0.057-  68 2.03  75 2.06  99 2.07  42 2.46  18 2.50  25 2.53
  53  0.073  0.167  0.306-  27 2.25  10 2.26  21 2.26   9 2.36  20 2.36
  54  0.167  0.073  0.435-  11 2.06   5 2.06  28 2.25  10 2.36  21 2.36
  55  0.383  0.356  0.061-  38 2.01   6 2.06  12 2.06
  56  0.479  0.261  0.178-  16 2.25   7 2.26  22 2.26   6 2.36  12 2.36
  57  0.263  0.452  0.507-  30 2.10   3 2.14   2 2.23  65 2.53  80 2.59
  58  0.017  0.390  0.463-  11 2.07  30 2.08  15 2.11  10 2.13  72 2.76
  59  0.436  0.472  0.350-  34 2.25   2 2.26  23 2.26   1 2.36  22 2.36
  60  0.260  0.157  0.107-  13 2.06  37 2.10   4 2.11   6 2.12
  61  0.342  0.066  0.221-   7 2.25  27 2.26  48 2.26   4 2.36  37 2.36
  62  0.082  0.482  0.106-  38 2.06  29 2.11   6 2.12  25 2.14
  63  0.174  0.397  0.221-   9 2.25   7 2.26   1 2.26   6 2.36  29 2.36
  64  0.268  0.303  0.350-  10 2.25   2 2.26   8 2.26   1 2.36   7 2.36
  65  0.362  0.209  0.478-   3 2.03  17 2.06  11 2.14   2 2.36   8 2.36  57 2.53
  66  0.573  0.167  0.306-  39 2.25  23 2.26   8 2.26  22 2.36   7 2.36
  67  0.667  0.073  0.435-  24 2.07  17 2.08  40 2.25  41 2.26  23 2.36   8 2.36
  68  0.882  0.352  0.057-  52 2.03  18 2.09  19 2.11  25 2.17
  69  0.979  0.261  0.178-   4 2.25  20 2.26   9 2.26  19 2.36  25 2.36
  70  0.605  0.640  0.555-  43 2.00  50 2.00
  71  0.530  0.378  0.478-   3 2.03  24 2.06  43 2.14  23 2.36   2 2.36
  72  0.936  0.472  0.350-  47 2.25  15 2.26  10 2.26  14 2.36   9 2.36  58 2.76
  73  0.765  0.157  0.095-  44 2.07  18 2.10  51 2.16  19 2.17  26 2.18  16 2.33
  74  0.842  0.066  0.221-  20 2.25  39 2.26  35 2.26  16 2.36  51 2.36
  75  0.589  0.459  0.092-  52 2.06  19 2.10  12 2.18  18 2.21  42 2.45
  76  0.674  0.397  0.221-  22 2.25  20 2.26  14 2.26  19 2.36  42 2.36
  77  0.768  0.303  0.350-  23 2.25  15 2.26  21 2.26  14 2.36  20 2.36
  78  0.855  0.226  0.464-   5 2.06  15 2.07  24 2.11  21 2.14
  79  0.073  0.667  0.306-   1 2.25  36 2.26  47 2.26  35 2.36  46 2.36  80 2.60
  80  0.164  0.580  0.410-  30 2.06  36 2.08  47 2.14   2 2.29  57 2.59  79 2.60
  81  0.364  0.856  0.054-  13 2.02  32 2.05  31 2.17  37 2.27
  82  0.479  0.761  0.178-  42 2.25  33 2.26  48 2.26  32 2.36  37 2.36
  83  0.099  0.142  0.554-  11 2.00   5 2.00
  84  0.962  0.922  0.484-  41 2.07  40 2.07   5 2.09
  85  0.436  0.972  0.350-   8 2.25  28 2.26  49 2.26  27 2.36  48 2.36
  86  0.253  0.664  0.099-  38 2.05  32 2.14  31 2.19  12 2.23  29 2.23
  87  0.342  0.566  0.221-  33 2.25   1 2.26  22 2.26  29 2.36  12 2.36
  88  0.078  0.983  0.098-  13 2.07  31 2.10  51 2.14  26 2.15  32 2.21   4 2.27
  89  0.174  0.897  0.221-  35 2.25  33 2.26  27 2.26  32 2.36   4 2.36
  90  0.268  0.803  0.350-  36 2.25  28 2.26  34 2.26  27 2.36  33 2.36
  91  0.365  0.721  0.463-  43 2.04  28 2.06  34 2.06
  92  0.573  0.667  0.306-  14 2.25  49 2.26  34 2.26  48 2.36  33 2.36
  93  0.667  0.573  0.435-  43 2.04  50 2.06  15 2.25  49 2.36  34 2.36
  94  0.889  0.865  0.055-  44 2.03  51 2.08  26 2.15  45 2.24
  95  0.979  0.761  0.178-  29 2.25  46 2.26  35 2.26  45 2.36  51 2.36
  96  0.621  0.117  0.560-  24 2.08  17 2.08  41 2.11   3 2.14
  97  0.517  0.881  0.464-  50 2.07  28 2.09  17 2.11  49 2.13
  98  0.936  0.972  0.350-  21 2.25  40 2.26  36 2.26  39 2.36  35 2.36
  99  0.758  0.657  0.107-  52 2.07  42 2.10  25 2.11  45 2.13
 100  0.842  0.566  0.221-  46 2.25  14 2.26   9 2.26  42 2.36  25 2.36
 101  0.582  0.980  0.107-  44 2.07  45 2.10  16 2.11  37 2.12
 102  0.674  0.897  0.221-  48 2.25  46 2.26  39 2.26  45 2.36  16 2.36
 103  0.768  0.803  0.350-  49 2.25  40 2.26  47 2.26  39 2.36  46 2.36
 104  0.862  0.709  0.478-  50 2.08  30 2.20  40 2.36  47 2.36

  LATTYP: Found a base centered orthorhombic cell.
 ALAT       =    11.8257374459
 B/A-ratio  =     1.6199260857
 C/A-ratio  =     1.9350716598

  Lattice vectors:

 A1 = (  11.2564630382,   0.0000000000,   0.0000000000)
 A2 = (  -5.0445621212, -10.0628203371,   0.0000000000)
 A3 = (   0.0000000000,   0.0000000000, -22.8836493875)

Analysis of symmetry for initial positions (statically):
 Subroutine PRICEL returns:
 Original cell was already a primitive cell.

 Routine SETGRP: Setting up the symmetry group for a
 base centered orthorhombic supercell.

 Subroutine GETGRP returns: Found  1 space group operations
 (whereof  1 operations were pure point group operations)
 out of a pool of  8 trial point group operations.

The static configuration has the point symmetry C_1 .

Analysis of symmetry for dynamics (positions and initial velocities):
 Subroutine PRICEL returns:
 Original cell was already a primitive cell.

 Routine SETGRP: Setting up the symmetry group for a
 base centered orthorhombic supercell.

 Subroutine GETGRP returns: Found  1 space group operations
 (whereof  1 operations were pure point group operations)
 out of a pool of  8 trial point group operations.

The dynamic configuration has the point symmetry C_1 .

 Subroutine INISYM returns: Found  1 space group operations
 (whereof  1 operations are pure point group operations),
 and found     1 'primitive' translations

 KPOINTS: gamma-point-only calculation. no periodi

Automatic generation of k-mesh.
Space group operators:
 irot       det(A)        alpha          n_x          n_y          n_z        tau_x        tau_y        tau_z
    1     1.000000     0.000001     1.000000     0.000000     0.000000     0.000000     0.000000     0.000000

 Subroutine IBZKPT returns following result:

 Found      1 irreducible k-points:

 Following reciprocal coordinates:
            Coordinates               Weight
  0.000000  0.000000  0.000000      1.000000

 Following cartesian coordinates:
            Coordinates               Weight
  0.000000  0.000000  0.000000      1.000000

 SYSTEM =  "Millerite NiS"
 POSCAR =  Type_052 Type_152

 Startparameter for this run:
   NWRITE =      2    write-flag & timer
   PREC   = normal    normal or accurate (medium, high low for compatibility)
   ISTART =      0    job   : 0-new  1-cont  2-samecut
   ICHARG =      2    charge: 1-file 2-atom 10-const
   ISPIN  =      1    spin polarized calculation?
   LNONCOLLINEAR =      F non collinear calculations
   LSORBIT =      F    spin-orbit coupling
   INIWAV =      1    electr: 0-lowe 1-rand  2-diag
   LASPH  =      F    aspherical Exc in radial PAW
   METAGGA=      F    non-selfconsistent MetaGGA calc.

 Electronic Relaxation 1
   ENCUT  =  450.0 eV  33.07 Ry    5.75 a.u.  19.47 19.47 39.58*2*pi/ulx,y,z
   ENINI  =  450.0     initial cutoff
   ENAUG  =  703.4 eV  augmentation charge cutoff
   NELM   =    100;   NELMIN=  2; NELMDL= -5     # of ELM steps
   EDIFF  = 0.1E-03   stopping-criterion for ELM
   LREAL  =      T    real-space projection
   NLSPLINE    = F    spline interpolate recip. space projectors
   LCOMPAT=      F    compatible to vasp.4.4
   GGA_COMPAT  = T    GGA compatible to vasp.4.4-vasp.4.6
   LMAXPAW     = -100 max onsite density
   LMAXMIX     =    2 max onsite mixed and CHGCAR
   VOSKOWN=      0    Vosko Wilk Nusair interpolation
   ROPT   =   -0.00050  -0.00050
 Ionic relaxation
   EDIFFG = 0.1E-02   stopping-criterion for IOM
   NSW    =      0    number of steps for IOM
   NBLOCK =      1;   KBLOCK =      1    inner block; outer block
   IBRION =     -1    ionic relax: 0-MD 1-quasi-New 2-CG
   NFREE  =      0    steps in history (QN), initial steepest desc. (CG)
   ISIF   =      2    stress and relaxation
   IWAVPR =     10    prediction:  0-non 1-charg 2-wave 3-comb
   ISYM   =      2    0-nonsym 1-usesym 2-fastsym
   LCORR  =      T    Harris-Foulkes like correction to forces

   POTIM  = 0.5000    time-step for ionic-motion
   TEIN   =    0.0    initial temperature
   TEBEG  =    0.0;   TEEND  =   0.0 temperature during run
   SMASS  =  -3.00    Nose mass-parameter (am)
   estimated Nose-frequenzy (Omega)   =  0.10E-29 period in steps =****** mass=  -0.290E-26a.u.
   SCALEE = 1.0000    scale energy and forces
   NPACO  =    256;   APACO  = 16.0  distance and # of slots for P.C.
   PSTRESS=    0.0 pullay stress

  Mass of Ions in am
   POMASS =  58.69 32.07
  Ionic Valenz
   ZVAL   =  16.00  6.00
  Atomic Wigner-Seitz radii
  virtual crystal weights
   VCA    =   1.00  1.00
   NELECT =    1144.0000    total number of electrons
   NUPDOWN=      -1.0000    fix difference up-down

 DOS related values:
   EMIN   =  10.00;   EMAX   =-10.00  energy-range for DOS
   EFERMI =   0.00
   ISMEAR =     0;   SIGMA  =   0.20  broadening in eV -4-tet -1-fermi 0-gaus

 Electronic relaxation 2 (details)
   IALGO  =     38    algorithm
   LDIAG  =      T    sub-space diagonalisation (order eigenvalues)
[...]
     0.000000000  0.000000000 22.883649388     0.000000000  0.000000000  0.043699324

  length of vectors
    11.256463038 11.256463038 22.883649388     0.099375718  0.099375718  0.043699324

 FORCES acting on ions
    electron-ion (+dipol)            ewald-force                    non-local-force                 convergence-correction
   0.231E+03 -.423E+03 -.369E+03   -.231E+03 0.424E+03 0.368E+03   0.390E+00 -.748E+00 0.620E+00   0.143E-01 -.150E+00 -.488E+00
   0.231E+03 -.661E+03 -.335E+04   -.230E+03 0.661E+03 0.335E+04   -.575E+00 -.869E-01 0.248E+01   -.188E+00 0.312E+00 0.606E+00
   0.306E+03 -.641E+03 -.610E+04   -.306E+03 0.642E+03 0.610E+04   -.222E+00 -.125E+01 -.223E+01   0.759E-01 -.969E-01 0.694E+00
   0.150E+03 -.573E+03 0.246E+04   -.152E+03 0.576E+03 -.246E+04   0.136E+01 -.268E+01 -.246E+01   -.127E+00 0.906E-01 -.213E+00
   -.999E+02 0.597E+03 -.539E+04   0.973E+02 -.601E+03 0.540E+04   0.183E+01 0.313E+01 -.370E+01   0.248E-01 -.551E-01 0.659E+00
   0.305E+03 0.667E+03 0.394E+04   -.307E+03 -.670E+03 -.394E+04   0.100E+01 0.275E+01 0.126E+01   0.608E-01 -.458E+00 0.253E+00
   0.259E+03 0.445E+03 0.736E+03   -.260E+03 -.446E+03 -.737E+03   0.881E+00 0.679E+00 0.761E+00   0.217E-01 0.488E-01 -.513E+00
   0.359E+03 0.409E+03 -.214E+04   -.360E+03 -.409E+03 0.214E+04   0.111E+01 0.341E+00 0.275E+01   -.215E+00 -.288E+00 0.689E-01
   -.534E+03 -.372E+02 0.692E+03   0.535E+03 0.378E+02 -.693E+03   -.779E+00 -.547E+00 0.109E+01   0.434E-01 -.195E-02 -.363E+00
   -.429E+03 0.158E+02 -.225E+04   0.432E+03 -.164E+02 0.225E+04   -.258E+01 0.367E+00 0.166E+01   0.703E-01 -.487E-01 0.991E-01
   -.148E+03 0.307E+02 -.539E+04   0.151E+03 -.302E+02 0.540E+04   -.148E+01 -.385E+00 -.374E+01   -.500E-01 -.131E+00 0.686E+00
   -.618E+03 0.838E+01 0.380E+04   0.622E+03 -.793E+01 -.380E+04   -.294E+01 0.853E-01 0.157E+00   0.384E+00 -.316E+00 0.145E+00
   -.463E+03 -.817E+03 0.598E+04   0.466E+03 0.820E+03 -.598E+04   -.336E+01 -.198E+01 0.524E+01   -.357E+00 0.383E-01 -.296E+00
   0.242E+03 -.431E+03 -.407E+03   -.242E+03 0.432E+03 0.407E+03   0.735E+00 -.134E+01 0.437E+00   0.786E-01 0.817E-01 -.398E+00
   0.229E+03 -.510E+03 -.372E+04   -.230E+03 0.513E+03 0.372E+04   0.843E+00 -.194E+01 -.235E+01   -.190E-01 0.162E+00 0.435E+00
   0.482E+03 -.506E+03 0.252E+04   -.484E+03 0.509E+03 -.252E+04   0.165E+01 -.240E+01 -.235E+01   0.608E-01 0.692E-01 -.312E+00
   0.748E+03 0.548E+03 -.515E+04   -.753E+03 -.554E+03 0.515E+04   0.292E+01 0.539E+01 -.460E+00   0.209E+00 -.152E+00 0.916E+00
   0.469E+03 -.946E+02 0.618E+04   -.468E+03 0.948E+02 -.618E+04   -.109E+01 0.373E-01 0.593E+00   -.608E-01 -.597E+00 -.478E+00
   0.118E+03 0.354E+03 0.321E+04   -.117E+03 -.356E+03 -.320E+04   -.197E+00 0.937E+00 -.360E+01   -.195E+00 -.363E+00 -.651E+00
   0.215E+03 0.420E+03 0.624E+03   -.216E+03 -.421E+03 -.625E+03   0.856E+00 0.751E+00 0.152E+01   0.438E-01 -.288E-01 -.441E+00
   0.128E+03 0.489E+03 -.227E+04   -.129E+03 -.491E+03 0.226E+04   0.120E+01 0.267E+01 0.200E+01   0.265E-01 -.193E+00 0.183E+00
   -.489E+03 -.515E+02 0.697E+03   0.490E+03 0.522E+02 -.697E+03   -.114E+01 -.699E+00 0.108E+01   -.140E+00 -.628E-01 -.544E+00
   -.512E+03 -.176E+03 -.216E+04   0.513E+03 0.177E+03 0.216E+04   -.652E+00 -.106E+01 0.289E+01   0.225E+00 0.830E-01 0.753E-01
   -.801E+03 -.425E+03 -.517E+04   0.807E+03 0.427E+03 0.517E+04   -.497E+01 -.135E+01 -.333E+00   -.138E+00 -.237E+00 0.926E+00
   -.841E+03 -.717E+02 0.389E+04   0.845E+03 0.715E+02 -.389E+04   -.278E+01 -.277E-01 0.897E-01   -.112E+00 -.177E+00 -.215E-01
   -.269E+03 -.113E+03 0.614E+04   0.269E+03 0.113E+03 -.614E+04   0.114E+00 0.401E+00 0.160E+01   -.113E+00 0.366E+00 -.391E+00
   0.246E+03 -.360E+03 -.453E+03   -.247E+03 0.361E+03 0.453E+03   0.778E+00 -.127E+01 0.590E+00   0.287E-01 0.537E-01 -.378E+00
   0.519E+03 -.333E+03 -.380E+04   -.521E+03 0.336E+03 0.380E+04   0.180E+01 -.188E+01 -.194E+01   0.698E-02 0.817E-01 0.393E+00
   0.347E+03 -.423E+03 0.258E+04   -.349E+03 0.427E+03 -.258E+04   0.156E+01 -.297E+01 -.174E+01   0.529E-03 -.790E-02 0.342E+00
   -.763E+02 -.196E+03 -.543E+04   0.731E+02 0.196E+03 0.543E+04   0.227E+01 0.969E-01 -.824E+00   -.832E-01 -.550E-02 0.683E+00
   0.132E+03 0.662E+03 0.611E+04   -.132E+03 -.663E+03 -.611E+04   -.293E+00 -.199E+00 0.122E+00   -.201E+00 0.532E+00 -.409E+00
   -.139E+03 0.695E+03 0.332E+04   0.141E+03 -.699E+03 -.331E+04   -.131E+01 0.315E+01 -.356E+01   -.832E-01 0.286E+00 -.279E+00
   0.224E+03 0.464E+03 0.634E+03   -.225E+03 -.465E+03 -.636E+03   0.792E+00 0.526E+00 0.183E+01   0.658E-01 0.131E+00 -.276E+00
   0.359E+03 0.353E+03 -.238E+04   -.360E+03 -.356E+03 0.238E+04   0.177E+01 0.224E+01 0.130E+01   0.716E-01 0.121E-01 0.229E+00
   -.522E+03 0.386E+02 0.588E+03   0.523E+03 -.381E+02 -.589E+03   -.925E+00 -.579E+00 0.145E+01   -.160E+00 0.149E+00 -.385E+00
   -.671E+03 -.470E+02 -.285E+04   0.673E+03 0.493E+02 0.285E+04   -.190E+01 -.138E+01 0.691E+00   0.434E-01 0.130E+00 0.875E-01
   -.827E+03 0.692E+02 0.395E+04   0.830E+03 -.708E+02 -.395E+04   -.275E+01 0.666E+00 0.235E+00   0.414E-01 0.135E+00 -.137E+00
   0.386E+03 -.972E+02 0.613E+04   -.388E+03 0.960E+02 -.614E+04   0.570E+00 0.218E+01 0.566E+01   0.842E-01 -.207E-01 -.164E+00
   0.244E+03 -.354E+03 -.368E+03   -.245E+03 0.355E+03 0.369E+03   0.709E+00 -.101E+01 0.226E+00   0.799E-02 -.104E+00 -.518E+00
   -.727E+02 0.446E+02 -.325E+04   0.730E+02 -.463E+02 0.325E+04   -.845E+00 0.118E+01 0.116E+01   -.246E+00 0.230E+00 0.627E+00
   -.406E+03 0.785E+03 -.589E+04   0.409E+03 -.785E+03 0.589E+04   -.369E+01 -.555E-01 -.218E+01   -.896E-01 -.498E-01 0.602E+00
   0.358E+03 -.621E+03 0.260E+04   -.361E+03 0.624E+03 -.260E+04   0.201E+01 -.227E+01 -.125E+01   -.153E-01 -.254E-01 -.121E-01
   0.323E+03 0.473E+02 -.541E+04   -.326E+03 -.500E+02 0.541E+04   0.206E+01 0.126E+01 -.393E+01   0.132E+00 0.212E-01 0.728E+00
   0.104E+04 -.125E+03 0.598E+04   -.104E+04 0.124E+03 -.599E+04   0.323E+01 0.178E+01 0.478E+01   0.425E+00 0.283E+00 -.286E+00
   0.430E+03 0.783E+03 0.390E+04   -.430E+03 -.787E+03 -.390E+04   0.887E+00 0.261E+01 0.154E+00   0.368E-01 0.360E+00 -.167E+00
   0.254E+03 0.484E+03 0.691E+03   -.255E+03 -.485E+03 -.692E+03   0.795E+00 0.387E+00 0.117E+01   -.496E-01 0.213E+00 -.323E+00
   0.234E+03 0.304E+03 -.240E+04   -.237E+03 -.305E+03 0.240E+04   0.309E+01 0.789E+00 0.418E+00   -.249E+00 -.470E-01 0.132E+00
   -.499E+03 0.867E+01 0.711E+03   0.500E+03 -.823E+01 -.712E+03   -.809E+00 -.492E+00 0.115E+01   0.401E-01 0.933E-01 -.290E+00
   -.386E+03 0.613E+02 -.225E+04   0.389E+03 -.613E+02 0.224E+04   -.300E+01 -.199E+00 0.197E+01   0.125E+00 -.881E-02 0.216E+00
   -.280E+03 0.187E+03 -.539E+04   0.285E+03 -.187E+03 0.539E+04   -.353E+01 0.487E+00 -.363E+01   -.379E-01 0.329E-01 0.673E+00
   -.373E+03 0.271E+03 0.316E+04   0.374E+03 -.275E+03 -.315E+04   -.133E+01 0.210E+01 -.389E+01   -.877E-01 0.374E+00 -.614E+00
   -.279E+02 -.978E+03 0.601E+04   0.290E+02 0.982E+03 -.601E+04   -.125E+01 -.249E+01 0.459E+01   -.177E+00 -.475E+00 -.323E+00
   -.812E+02 0.128E+03 -.117E+03   0.823E+02 -.130E+03 0.116E+03   -.982E+00 0.175E+01 0.172E+01   0.561E-01 -.527E-01 -.205E+00
   -.950E+02 0.275E+03 -.135E+04   0.960E+02 -.278E+03 0.135E+04   -.281E+00 0.168E+01 0.103E+01   -.183E-01 -.271E-01 0.261E+00
   -.123E+03 0.351E+03 0.232E+04   0.125E+03 -.354E+03 -.232E+04   -.674E+00 0.104E+01 0.852E+00   0.213E+00 -.271E+00 -.259E-01
   -.445E+02 0.130E+03 0.108E+04   0.450E+02 -.131E+03 -.108E+04   -.244E+00 0.851E+00 0.166E+01   0.395E-01 -.631E-01 -.308E-01
   0.358E+02 -.332E+03 -.218E+04   -.346E+02 0.337E+03 0.218E+04   -.122E+01 -.295E+01 -.158E+01   0.369E-01 -.736E-01 0.280E+00
   0.843E+02 -.189E+03 -.191E+04   -.848E+02 0.190E+03 0.192E+04   0.348E+00 0.152E+00 -.167E+01   0.375E-01 0.140E-01 0.286E+00
   -.710E+02 -.196E+03 -.586E+03   0.717E+02 0.199E+03 0.586E+03   -.420E+00 -.283E+01 -.380E+00   -.427E-01 0.107E+00 -.181E+00
   -.173E+03 -.298E+03 0.177E+04   0.173E+03 0.299E+03 -.177E+04   0.259E+00 0.100E+00 0.688E+00   -.525E-01 -.186E-01 -.435E-01
[...]
   0.415E+03 -.116E+03 -.199E+04   -.420E+03 0.116E+03 0.199E+04   0.200E+01 0.252E-01 -.687E+00   0.766E-01 -.402E-01 0.285E+00
   -.635E+02 0.117E+03 -.109E+03   0.647E+02 -.119E+03 0.108E+03   -.108E+01 0.173E+01 0.117E+01   0.482E-01 0.139E-01 -.160E+00
   -.113E+03 0.185E+03 -.133E+04   0.114E+03 -.188E+03 0.133E+04   -.814E+00 0.101E+01 0.913E+00   0.427E-04 0.689E-01 0.302E+00
   0.778E+02 0.575E+03 0.224E+04   -.775E+02 -.581E+03 -.225E+04   0.160E-01 0.313E+01 0.106E+01   0.513E-01 0.275E+00 -.167E+00
   -.422E+02 0.180E+03 0.104E+04   0.430E+02 -.181E+03 -.104E+04   -.516E+00 0.102E+01 0.173E+01   -.497E-01 0.947E-01 0.584E-02
   -.271E+02 0.483E+02 -.256E+04   0.273E+02 -.489E+02 0.257E+04   0.119E+00 -.109E+00 -.213E+01   -.385E-01 -.226E-01 0.103E+00
   0.160E+03 -.771E+02 -.187E+04   -.161E+03 0.783E+02 0.187E+04   0.493E+00 -.101E+00 -.904E+00   0.748E-01 -.588E-01 0.304E+00
   -.118E+03 -.106E+03 -.588E+03   0.119E+03 0.108E+03 0.588E+03   -.134E+01 -.256E+01 -.281E+00   -.771E-01 0.498E-01 -.142E+00
   -.105E+03 -.303E+03 0.179E+04   0.106E+03 0.305E+03 -.179E+04   0.807E-01 -.108E-01 0.109E+01   0.225E-01 0.586E-01 0.988E-02
   -.829E+02 -.164E+03 0.559E+03   0.838E+02 0.166E+03 -.560E+03   -.855E+00 -.214E+01 0.868E+00   0.407E-04 -.707E-02 -.543E-01
   0.345E+03 -.743E+01 0.178E+04   -.347E+03 0.814E+01 -.178E+04   0.737E-01 -.464E+00 0.781E+00   0.154E+00 0.802E-01 -.638E-01
   0.193E+03 0.159E+02 0.563E+03   -.195E+03 -.159E+02 -.562E+03   0.229E+01 -.212E+00 0.661E+00   0.501E-01 0.605E-01 -.744E-01
   0.157E+03 0.278E+02 -.558E+03   -.160E+03 -.279E+02 0.559E+03   0.280E+01 0.116E+00 -.735E+00   -.191E-01 0.650E-01 -.113E+00
   -.565E+02 0.106E+03 -.200E+04   0.555E+02 -.107E+03 0.200E+04   0.246E+01 0.148E+01 -.242E+01   -.101E+00 0.636E-01 0.289E+00
   0.106E+01 -.161E+01 -.212E+02   0.185E-12 0.345E-11 -.773E-11   -.425E+00 0.173E+01 0.201E+02   -.717E+00 -.360E-01 0.944E+00

 POSITION                                       TOTAL-FORCE (eV/Angst)
      5.35228      4.81788      6.64784         0.140030     -0.301901     -0.196861
      5.93595      3.87238      9.58390         0.059313      0.262266      0.254752
      6.51523      2.92688     12.17008        -0.117957     -0.147559      2.000478
      2.24633      0.73197      3.71178        -0.563497      0.486986      1.522586
      0.64614      0.68068     11.25238        -0.842004     -0.693245      0.408827
      4.76861      3.35453      2.93606        -0.459226     -1.209283      2.137975
      5.35228      2.40903      5.87212        -0.014484     -0.073508      0.079683
      5.93595      1.46353      8.80817         0.081003      0.036753     -0.189422
      1.87746      3.73836      5.87212        -0.053683      0.040672      0.077237
      2.46113      2.79286      8.80817         0.214513     -0.247571     -1.158748
      3.01051      2.15092     11.23081         1.534479     -0.010076      0.504837
      6.92203      4.68386      2.93606         1.075991      0.217623      1.609578
      2.53163      0.39255      1.26014        -0.468124      1.378415     -1.691920
     10.98051      4.81788      6.64784         0.133919     -0.208302     -0.090939
     11.56418      3.87238      9.58390        -0.472287      1.264603     -1.079405
      7.87456      0.73197      3.71178        -0.185030      0.722276      1.333860
      6.32000      0.47102     11.30293        -1.029544     -1.105530      0.199013
      9.74410      3.07710      0.73345        -0.796281     -0.389571     -1.243093
     10.39684      3.35453      2.93606         0.620421     -0.958691      3.786402
     10.98051      2.40903      5.87212         0.121247      0.146379      0.041969
     11.56418      1.46353      8.80817         0.053122     -0.042929     -1.097824
      7.50570      3.73836      5.87212        -0.086939     -0.049618      0.084242
      8.08937      2.79286      8.80817        -0.185036      0.023127     -0.178243
      8.78751      1.98945     11.32041         1.410394      0.486516      0.212052
     12.55026      4.68386      2.93606         0.946023     -0.389849      1.535095
     10.55174      0.34264      0.78019         0.551568      0.479705     -1.073220
      7.87456      9.84929      6.64784         0.144823     -0.137354     -0.039911
      8.45823      8.90379      9.58390        -0.392273      1.143488     -0.984241
      4.76861      5.76338      3.71178        -0.169190      0.864140      1.702317
      3.48560      5.48882     10.95140        -0.950456      0.299417      1.188154
      6.29459      8.36266      0.85825        -0.826496     -0.530601     -1.151350
      7.29089      8.38594      2.93606         0.335790     -0.528283      3.563543
      7.87456      7.44044      5.87212         0.040030      0.057360      0.029799
      8.45823      6.49494      8.80817         0.401289     -0.434383     -1.548860
      4.39975      8.76977      5.87212        -0.083159     -0.015440      0.149933
      4.98341      7.82427      8.80817         0.261366      1.042226     -0.872215
      9.44431      9.71527      2.93606         0.526446     -0.843008      0.907642
      5.03616      5.28174      1.30733        -0.742508      1.029241     -1.922327
     13.50279      9.84929      6.64784        -0.013222     -0.164985     -0.061319
     14.08646      8.90379      9.58390        -0.756643     -0.281064     -1.595780
     13.57444      9.66225     11.78322        -0.466242     -0.758594      0.270549
     10.39684      5.76338      3.71178        -0.714742      0.306169      1.372463
      8.84593      5.68055     11.27492        -1.047048     -1.428164      0.621136
      8.09106      0.24516      1.27315        -1.005309      0.945871     -1.615146
     12.91912      8.38594      2.93606         0.145658     -0.908772      1.157186
     13.50279      7.44044      5.87212        -0.040724     -0.091339      0.002242
     14.08646      6.49494      8.80817        -0.681865      0.508844     -1.104216
     10.02798      8.76977      5.87212        -0.017358      0.040077     -0.015108
     10.61165      7.82427      8.80817         0.157670     -0.157863     -1.147471
     11.22377      7.14154     11.24343         0.979381      0.283893      0.448606
     15.07254      9.71527      2.93606         0.318733     -0.675879      3.432429
     10.71049      5.31466      1.31082        -0.346936      1.316364     -1.629715
      1.66190      1.67871      7.01153         0.157879     -0.233314     -0.032365
      2.24556      0.73321      9.94759         0.672594     -1.190536     -1.937552
      6.10992      3.58577      1.39425         1.238886     -2.171376     -3.393781
      6.70646      2.62422      4.07548         0.349739     -0.042537      0.289323
      5.24600      4.54820     11.59332         0.085643      1.542122      1.607254
      2.16404      3.92481     10.59006        -0.090613      0.644481      1.490314
      7.29013      4.74605      7.99931         0.309494     -0.209788     -0.541166
      3.71445      1.57867      2.45236         0.409032      1.731526     -1.230760
[...]
      7.07033      8.08475      7.99931        -0.348293      0.209180     -0.253721
      7.74045      7.25334     10.58695        -2.994362      0.125491      1.761592
      9.81241      6.71012      7.01153         0.186731     -0.200374     -0.028950
     10.39608      5.76462      9.94759         0.926432     -1.131431     -2.206698
     14.37564      8.70696      1.26081         0.403367     -2.727529     -2.839916
     14.85697      7.65563      4.07548         0.150702     -0.017006      0.179769
      7.57695      1.17639     12.80739         0.359001     -0.701550      3.941763
     10.26760      8.86768     10.62867         0.315475      1.062597      1.291352
     15.44064      9.77746      7.99931         0.049150     -0.125994     -0.041100
     11.84519      6.61277      2.44853         0.465963      1.608428     -1.344322
     12.33469      5.69156      5.06325         0.065826     -0.165317      0.680549
     11.50077      9.86390      2.45407        -1.682881      0.317480     -1.345071
     12.11489      9.03025      5.06325         0.204349     -0.125547      0.798448
     12.69856      8.08475      7.99931        -0.023538      0.046053     -0.110014
     13.28223      7.13925     10.93537         1.366096      0.507474      0.442611
    total drift:                               -0.084473      0.077607     -0.145388

  FREE ENERGIE OF THE ION-ELECTRON SYSTEM (eV)
  free  energy   TOTEN  =      -511.69651572 eV

  energy  without entropy=     -510.40741830  energy(sigma->0) =     -511.05196701