 vasp.6.1.0 28Jan20 (build Mar 31 2020 17:42:31) gamma-only

 executed on             LinuxIFC date 2020.04.12  13:14:31

 INCAR:
 POTCAR:    PAW_PBE Ni_pv 06Sep2000
 POTCAR:    PAW_PBE S 06Sep2000
 POTCAR:    PAW_PBE Ni_pv 06Sep2000
   VRHFIN =Ni:

   TITEL  = PAW_PBE Ni_pv 06Sep2000
   POMASS =   58.690; ZVAL   =   16.000    mass and valenz
   ENMAX  =  367.986; ENMIN  =  275.989 eV

 POTCAR:    PAW_PBE S 06Sep2000
   VRHFIN =S : s2p4

   TITEL  = PAW_PBE S 06Sep2000
   POMASS =   32.066; ZVAL   =    6.000    mass and valenz
   ENMAX  =  258.689; ENMIN  =  194.016 eV

 Optimization of the real space projectors (new method)

 maximal supplied QI-value         = 18.90
 optimisation between [QCUT,QGAM] = [ 10.77, 21.73] = [ 32.49,132.25] Ry
 Optimized for a Real-space Cutoff    1.38 Angstroem

   l    n(q)    QCUT    max X(q) W(low)/X(q) W(high)/X(q)  e(spline)
   1      8    10.771     2.836    0.40E-04    0.29E-04    0.12E-06
   1      8    10.771     4.023    0.10E-03    0.48E-04    0.29E-06
   2      8    10.771    73.368    0.42E-03    0.97E-04    0.44E-06
   2      8    10.771    69.010    0.42E-03    0.99E-04    0.45E-06
   0      9    10.771    54.797    0.10E-03    0.56E-04    0.74E-07
   0      9    10.771    24.266    0.89E-04    0.49E-04    0.67E-07
 Optimization of the real space projectors (new method)

 maximal supplied QI-value         = 19.84
 optimisation between [QCUT,QGAM] = [ 10.71, 21.63] = [ 32.15,130.99] Ry
 Optimized for a Real-space Cutoff    1.19 Angstroem

   l    n(q)    QCUT    max X(q) W(low)/X(q) W(high)/X(q)  e(spline)
   0      8    10.715   187.594    0.41E-03    0.53E-04    0.66E-07
   0      8    10.715   164.243    0.41E-03    0.53E-04    0.65E-07
   1      7    10.715    67.533    0.19E-03    0.59E-03    0.68E-07
   1      7    10.715    50.729    0.19E-03    0.58E-03    0.67E-07
  PAW_PBE Ni_pv 06Sep2000               :
  PAW_PBE S 06Sep2000                   :

 POSCAR: Structure 10 made from -112-9.xsd file
  positions in direct lattice
 exchange correlation table for  LEXCH =        8
   RHO(1)=    0.500       N(1)  =     2000
   RHO(2)=  100.500       N(2)  =     4000

 ion  position               nearest neighbor table
   1  0.780  0.145  0.128-  43 2.25  51 2.26  66 2.26  52 2.36  67 2.36  26 2.53  13 2.53
   2  0.815  0.145  0.317-  44 2.25  52 2.26  67 2.26  27 2.53  14 2.53
   3  0.263  0.645  0.033-  45 2.25  53 2.36  64 2.36  28 2.53  15 2.53
   4  0.297  0.645  0.222-  46 2.25  53 2.26  64 2.26  54 2.36  65 2.36  29 2.53  16 2.53
   5  0.435  0.145  0.065-  47 2.25  55 2.36  70 2.36  31 2.53  18 2.53
   6  0.470  0.145  0.254-  48 2.25  55 2.26  70 2.26  56 2.36  71 2.36  32 2.53  19 2.53
   7  0.952  0.645  0.159-  49 2.25  58 2.26  69 2.26  57 2.36  68 2.36  33 2.53  20 2.53
   8  0.987  0.645  0.348-  50 2.25  57 2.26  68 2.26  34 2.53  21 2.53
   9  0.090  0.145  0.001-  59 2.36  75 2.36
  10  0.125  0.145  0.191-  40 2.25  59 2.26  75 2.26  60 2.36  76 2.36  35 2.53  22 2.53
  11  0.608  0.645  0.096-  41 2.25  61 2.26  72 2.26  62 2.36  73 2.36  37 2.53  24 2.53
  12  0.642  0.645  0.285-  42 2.25  62 2.26  73 2.26  63 2.36  74 2.36  38 2.53  25 2.53
  13  0.908  0.013  0.103-  58 2.25  66 2.26  67 2.36  40 2.36   1 2.53  26 2.53
  14  0.942  0.013  0.292-  57 2.25  67 2.26  40 2.26  39 2.36   2 2.53  27 2.53
  15  0.390  0.513  0.008-  64 2.36  41 2.36   3 2.53  28 2.53
  16  0.425  0.513  0.197-  55 2.25  41 2.26  64 2.26  42 2.36  65 2.36  29 2.53   4 2.53
  17  0.459  0.513  0.386-  56 2.25  42 2.26  65 2.26  30 2.53
  18  0.563  0.013  0.040-  61 2.25  70 2.36  43 2.36   5 2.53  31 2.53
  19  0.597  0.013  0.229-  62 2.25  70 2.26  43 2.26  71 2.36  44 2.36   6 2.53  32 2.53
  20  0.080  0.513  0.134-  59 2.25  45 2.26  69 2.26  46 2.36  68 2.36   7 2.53  33 2.53
  21  0.115  0.513  0.323-  60 2.25  46 2.26  68 2.26   8 2.53  34 2.53
  22  0.252  0.013  0.166-  53 2.25  47 2.26  75 2.26  48 2.36  76 2.36  10 2.53  35 2.53
  23  0.287  0.013  0.355-  54 2.25  48 2.26  76 2.26  36 2.53
  24  0.735  0.513  0.071-  51 2.25  72 2.26  73 2.36  49 2.36  11 2.53  37 2.53
  25  0.770  0.513  0.260-  52 2.25  73 2.26  49 2.26  74 2.36  50 2.36  12 2.53  38 2.53
  26  0.908  0.277  0.103-  69 2.25  51 2.26  52 2.36  40 2.36   1 2.53  13 2.53
  27  0.942  0.277  0.292-  68 2.25  52 2.26  40 2.26  39 2.36   2 2.53  14 2.53
  28  0.390  0.777  0.008-  53 2.36  41 2.36   3 2.53  15 2.53
  29  0.425  0.777  0.197-  70 2.25  41 2.26  53 2.26  42 2.36  54 2.36  16 2.53   4 2.53
  30  0.459  0.777  0.386-  71 2.25  42 2.26  54 2.26  17 2.53
  31  0.563  0.277  0.040-  72 2.25  55 2.36  43 2.36   5 2.53  18 2.53
  32  0.597  0.277  0.229-  73 2.25  55 2.26  43 2.26  56 2.36  44 2.36   6 2.53  19 2.53
  33  0.080  0.777  0.134-  75 2.25  45 2.26  58 2.26  46 2.36  57 2.36   7 2.53  20 2.53
  34  0.115  0.777  0.323-  76 2.25  46 2.26  57 2.26   8 2.53  21 2.53
  35  0.252  0.277  0.166-  64 2.25  47 2.26  59 2.26  48 2.36  60 2.36  10 2.53  22 2.53
  36  0.287  0.277  0.355-  65 2.25  48 2.26  60 2.26  23 2.53
  37  0.735  0.777  0.071-  66 2.25  61 2.26  62 2.36  49 2.36  11 2.53  24 2.53
  38  0.770  0.777  0.260-  67 2.25  62 2.26  49 2.26  63 2.36  50 2.36  12 2.53  25 2.53
  39  0.026  0.145  0.378-  14 2.36  27 2.36
  40  0.991  0.145  0.189-  10 2.25  14 2.26  27 2.26  26 2.36  13 2.36
  41  0.474  0.645  0.094-  11 2.25  16 2.26  29 2.26  28 2.36  15 2.36
  42  0.509  0.645  0.284-  12 2.25  17 2.26  30 2.26  29 2.36  16 2.36
  43  0.647  0.145  0.126-   1 2.25  19 2.26  32 2.26  31 2.36  18 2.36
  44  0.681  0.145  0.315-   2 2.25  19 2.36  32 2.36
  45  0.129  0.645  0.031-   3 2.25  20 2.26  33 2.26
  46  0.164  0.645  0.220-   4 2.25  21 2.26  34 2.26  33 2.36  20 2.36
  47  0.302  0.145  0.063-   5 2.25  22 2.26  35 2.26
  48  0.336  0.145  0.252-   6 2.25  23 2.26  36 2.26  35 2.36  22 2.36
  49  0.819  0.645  0.157-   7 2.25  25 2.26  38 2.26  37 2.36  24 2.36
  50  0.854  0.645  0.347-   8 2.25  25 2.36  38 2.36
  51  0.794  0.314  0.032-  24 2.25   1 2.26  26 2.26
  52  0.829  0.314  0.221-  25 2.25  27 2.26   2 2.26  26 2.36   1 2.36
  53  0.312  0.814  0.126-  22 2.25   4 2.26  29 2.26  28 2.36   3 2.36
  54  0.346  0.814  0.315-  23 2.25  30 2.26  29 2.36   4 2.36
  55  0.484  0.314  0.158-  16 2.25  32 2.26   6 2.26  31 2.36   5 2.36
  56  0.519  0.314  0.347-  17 2.25  32 2.36   6 2.36
  57  0.001  0.814  0.252-  14 2.25   8 2.26  34 2.26   7 2.36  33 2.36
  58  0.967  0.814  0.063-  13 2.25   7 2.26  33 2.26
  59  0.139  0.314  0.095-  20 2.25  10 2.26  35 2.26   9 2.36
  60  0.174  0.314  0.284-  21 2.25  36 2.26  10 2.36  35 2.36
  61  0.622  0.814  0.000-  18 2.25  37 2.26  11 2.26
  62  0.657  0.814  0.189-  19 2.25  38 2.26  12 2.26  37 2.36  11 2.36
  63  0.691  0.814  0.378-  38 2.36  12 2.36
  64  0.312  0.477  0.126-  35 2.25   4 2.26  16 2.26  15 2.36   3 2.36
  65  0.346  0.477  0.315-  36 2.25  17 2.26  16 2.36   4 2.36
  66  0.794  0.977  0.032-  37 2.25   1 2.26  13 2.26
  67  0.829  0.977  0.221-  38 2.25  14 2.26   2 2.26  13 2.36   1 2.36
  68  0.001  0.477  0.252-  27 2.25   8 2.26  21 2.26   7 2.36  20 2.36
  69  0.967  0.477  0.063-  26 2.25   7 2.26  20 2.26
  70  0.484  0.977  0.158-  29 2.25  19 2.26   6 2.26  18 2.36   5 2.36
  71  0.519  0.977  0.347-  30 2.25  19 2.36   6 2.36
  72  0.622  0.477  0.000-  31 2.25  24 2.26  11 2.26
  73  0.657  0.477  0.189-  32 2.25  25 2.26  12 2.26  24 2.36  11 2.36
  74  0.691  0.477  0.378-  25 2.36  12 2.36
  75  0.139  0.977  0.095-  33 2.25  10 2.26  22 2.26   9 2.36
  76  0.174  0.977  0.284-  34 2.25  23 2.26  10 2.36  22 2.36

  LATTYP: Found a simple orthorhombic cell.
 ALAT       =     9.5784100000
 B/A-ratio  =     1.7016870630
 C/A-ratio  =     1.7627867312

  Lattice vectors:

 A1 = (   0.0000000000,   9.5784100000,   0.0000000000)
 A2 = (   0.0000000000,   0.0000000000, -16.2994563815)
 A3 = ( -16.8846940542,   0.0000000000,   0.0000000000)

Analysis of symmetry for initial positions (statically):
 Subroutine PRICEL returns:
 Original cell was already a primitive cell.

 Routine SETGRP: Setting up the symmetry group for a
 simple orthorhombic supercell.

 Subroutine GETGRP returns: Found  2 space group operations
 (whereof  1 operations were pure point group operations)
 out of a pool of  8 trial point group operations.

The static configuration has the point symmetry C_1 .
 The point group associated with its full space group is C_1h.

Analysis of symmetry for dynamics (positions and initial velocities):
 Subroutine PRICEL returns:
 Original cell was already a primitive cell.

 Routine SETGRP: Setting up the symmetry group for a
 simple orthorhombic supercell.

 Subroutine GETGRP returns: Found  2 space group operations
 (whereof  1 operations were pure point group operations)
 out of a pool of  8 trial point group operations.

The dynamic configuration has the point symmetry C_1 .
 The point group associated with its full space group is C_1h.

 Subroutine INISYM returns: Found  2 space group operations
 (whereof  1 operations are pure point group operations),
 and found     1 'primitive' translations

                                     Primitive cell

  volume of cell :    2636.0870

  direct lattice vectors                    reciprocal lattice vectors
    16.884694054  0.000000000  0.000000000     0.059225237  0.000000000  0.000000000
     0.000000000  9.578410000  0.000000000     0.000000000  0.104401461  0.000000000
     0.000000000  0.000000000 16.299456382     0.000000000  0.000000000  0.061351739

  length of vectors
    16.884694054  9.578410000 16.299456382     0.059225237  0.104401461  0.061351739

  position of ions in fractional coordinates (direct lattice)
     0.780046307  0.145296954  0.127618888
     0.814614264  0.145296954  0.316861001
     0.262762328  0.645296954  0.032997832
     0.297330285  0.645296954  0.222239944
     0.435190321  0.145296954  0.064538184
     0.469758278  0.145296954  0.253780296
     0.952474300  0.645296954  0.159159240
     0.987042257  0.645296954  0.348401353
     0.090334335  0.145296954  0.001457480
     0.124902293  0.145296954  0.190699592
     0.607618314  0.645296954  0.096078536
     0.642186271  0.645296954  0.285320649
     0.907582776  0.013193954  0.102619437
     0.942150733  0.013193954  0.291861550
     0.390298797  0.513193954  0.007998381
     0.424866755  0.513193954  0.197240494
     0.459434712  0.513193954  0.386482606
     0.562726790  0.013193954  0.039538733
     0.597294747  0.013193954  0.228780846
     0.080010769  0.513193954  0.134159789
     0.114578726  0.513193954  0.323401902
     0.252438762  0.013193954  0.165700141
     0.287006719  0.013193954  0.354942254
     0.735154783  0.513193954  0.071079085
     0.769722740  0.513193954  0.260321198
     0.907582776  0.277399954  0.102619437
     0.942150733  0.277399954  0.291861550
     0.390298797  0.777399954  0.007998381
     0.424866755  0.777399954  0.197240494
     0.459434712  0.777399954  0.386482606
     0.562726790  0.277399954  0.039538733
     0.597294747  0.277399954  0.228780846
     0.080010769  0.777399954  0.134159789
     0.114578726  0.777399954  0.323401902
     0.252438762  0.277399954  0.165700141
[...]

  length of vectors
    16.884694054  9.578410000 16.299456382     0.059225237  0.104401461  0.061351739

 FORCES acting on ions
    electron-ion (+dipol)            ewald-force                    non-local-force                 convergence-correction
   0.289E+03 -.909E-03 0.132E+04   -.290E+03 -.941E-13 -.132E+04   0.118E+01 -.893E-20 0.401E+01   -.125E-01 -.203E-06 0.211E-01
   0.380E+03 -.910E-03 -.294E+04   -.381E+03 0.773E-13 0.293E+04   0.589E+00 -.672E-19 0.693E+01   -.672E-02 -.203E-06 -.134E-01
   0.818E+03 -.102E-02 0.296E+04   -.821E+03 -.355E-14 -.296E+04   0.204E+01 0.426E-19 -.204E+01   -.103E-01 -.167E-06 0.286E-01
   0.677E+03 -.871E-03 -.937E+03   -.678E+03 -.149E-12 0.938E+03   0.103E+01 -.979E-19 -.115E+01   0.276E-01 -.184E-06 0.316E-01
   0.644E+03 -.783E-03 0.257E+04   -.646E+03 0.888E-15 -.257E+04   0.125E+01 0.526E-20 -.184E+01   0.280E-01 0.294E-07 0.283E-01
   0.372E+03 -.797E-03 -.162E+04   -.373E+03 0.160E-12 0.163E+04   0.716E+00 -.216E-19 -.291E+01   0.146E-01 0.266E-07 0.142E-01
   0.472E+03 -.805E-03 0.871E+03   -.474E+03 0.155E-12 -.875E+03   0.192E+01 -.790E-19 0.354E+01   -.363E-01 0.965E-07 0.160E-01
   0.469E+03 -.820E-03 -.322E+04   -.469E+03 -.497E-13 0.321E+04   -.114E+01 0.485E-19 0.613E+01   -.279E-01 -.316E-07 -.684E-02
   0.163E+03 -.914E-03 0.332E+04   -.155E+03 -.266E-13 -.330E+04   -.702E+01 -.205E-18 -.128E+02   -.584E-02 -.228E-06 0.340E-01
   0.524E+03 -.836E-03 -.137E+03   -.525E+03 0.568E-13 0.137E+03   0.167E+01 0.173E-18 0.374E+00   0.237E-02 -.128E-06 0.714E-01
   0.296E+03 -.886E-03 0.180E+04   -.297E+03 0.646E-13 -.180E+04   0.991E+00 0.846E-20 0.390E+01   0.267E-01 -.158E-06 0.244E-01
   0.218E+03 -.836E-03 -.220E+04   -.218E+03 0.278E-13 0.220E+04   -.603E-01 0.684E-19 -.412E+01   0.108E-01 -.111E-06 0.270E-02
   -.381E+03 0.365E+03 0.213E+04   0.381E+03 -.368E+03 -.213E+04   0.471E+00 0.292E+01 0.253E+01   -.585E-01 -.730E-02 0.393E-01
   -.209E+03 0.401E+03 -.225E+04   0.212E+03 -.398E+03 0.226E+04   -.213E+01 -.298E+01 -.186E+01   -.278E-01 0.617E-02 0.785E-02
   -.330E+02 0.638E+03 0.333E+04   0.284E+02 -.628E+03 -.332E+04   0.448E+01 -.972E+01 -.659E+01   0.282E-01 -.172E-01 0.248E-01
   -.162E+03 0.484E+03 -.183E+03   0.162E+03 -.486E+03 0.183E+03   0.126E+00 0.140E+01 0.244E+00   0.201E-01 0.303E-02 0.389E-01
   -.740E+02 0.357E+03 -.340E+04   0.716E+02 -.357E+03 0.339E+04   0.217E+01 -.324E+00 0.868E+01   0.136E-01 0.461E-02 -.150E-01
   -.261E+03 0.292E+03 0.299E+04   0.262E+03 -.293E+03 -.299E+04   -.492E+00 0.798E+00 -.163E+01   0.214E-01 0.232E-02 0.230E-01
   -.427E+03 0.333E+03 -.108E+04   0.427E+03 -.334E+03 0.108E+04   -.632E+00 0.104E+01 -.215E+01   0.755E-02 -.251E-02 0.114E-01
   -.978E+02 0.446E+03 0.147E+04   0.977E+02 -.448E+03 -.147E+04   0.267E+00 0.156E+01 0.456E+01   -.269E-01 0.205E-01 0.314E-01
   -.242E+03 0.460E+03 -.277E+04   0.240E+03 -.457E+03 0.277E+04   0.214E+01 -.328E+01 0.503E+01   -.538E-03 -.771E-02 0.293E-02
   0.141E+01 0.345E+03 0.726E+03   -.125E+01 -.346E+03 -.729E+03   -.872E-01 0.649E+00 0.256E+01   0.313E-01 -.352E-02 0.431E-01
   0.178E+03 0.217E+03 -.315E+04   -.180E+03 -.215E+03 0.314E+04   0.220E+01 -.168E+01 0.837E+01   0.169E-01 0.139E-02 0.135E-03
   -.622E+03 0.336E+03 0.256E+04   0.621E+03 -.340E+03 -.256E+04   0.354E+00 0.343E+01 0.193E+01   -.833E-03 0.349E-02 0.252E-01
   -.417E+03 0.470E+03 -.163E+04   0.417E+03 -.471E+03 0.163E+04   -.423E-01 0.110E+01 -.365E+01   -.122E-01 0.589E-02 0.631E-03
   -.381E+03 -.365E+03 0.213E+04   0.381E+03 0.368E+03 -.213E+04   0.471E+00 -.292E+01 0.253E+01   -.585E-01 0.730E-02 0.393E-01
   -.209E+03 -.401E+03 -.225E+04   0.212E+03 0.398E+03 0.226E+04   -.213E+01 0.298E+01 -.186E+01   -.278E-01 -.617E-02 0.785E-02
   -.330E+02 -.638E+03 0.333E+04   0.284E+02 0.628E+03 -.332E+04   0.448E+01 0.972E+01 -.659E+01   0.282E-01 0.172E-01 0.248E-01
   -.162E+03 -.484E+03 -.183E+03   0.162E+03 0.486E+03 0.183E+03   0.126E+00 -.140E+01 0.244E+00   0.201E-01 -.303E-02 0.389E-01
   -.740E+02 -.357E+03 -.340E+04   0.716E+02 0.357E+03 0.339E+04   0.217E+01 0.324E+00 0.868E+01   0.136E-01 -.461E-02 -.150E-01
   -.261E+03 -.292E+03 0.299E+04   0.262E+03 0.293E+03 -.299E+04   -.492E+00 -.798E+00 -.163E+01   0.214E-01 -.232E-02 0.230E-01
   -.427E+03 -.333E+03 -.108E+04   0.427E+03 0.334E+03 0.108E+04   -.632E+00 -.104E+01 -.215E+01   0.755E-02 0.251E-02 0.114E-01
   -.978E+02 -.446E+03 0.147E+04   0.977E+02 0.448E+03 -.147E+04   0.267E+00 -.156E+01 0.456E+01   -.269E-01 -.205E-01 0.314E-01
   -.242E+03 -.460E+03 -.277E+04   0.240E+03 0.457E+03 0.277E+04   0.214E+01 0.328E+01 0.503E+01   -.538E-03 0.771E-02 0.293E-02
   0.141E+01 -.345E+03 0.726E+03   -.125E+01 0.346E+03 -.729E+03   -.872E-01 -.649E+00 0.256E+01   0.313E-01 0.352E-02 0.431E-01
   0.178E+03 -.217E+03 -.315E+04   -.180E+03 0.215E+03 0.314E+04   0.220E+01 0.168E+01 0.837E+01   0.169E-01 -.139E-02 0.135E-03
   -.622E+03 -.336E+03 0.256E+04   0.621E+03 0.340E+03 -.256E+04   0.354E+00 -.343E+01 0.193E+01   -.833E-03 -.349E-02 0.252E-01
   -.417E+03 -.470E+03 -.163E+04   0.417E+03 0.471E+03 0.163E+04   -.423E-01 -.110E+01 -.365E+01   -.122E-01 -.589E-02 0.631E-03
   -.155E+03 0.514E-06 -.132E+04   0.158E+03 -.604E-13 0.132E+04   -.496E+01 0.558E-20 -.339E+01   -.708E-02 -.558E-08 -.276E-02
   -.163E+03 -.131E-04 0.114E+03   0.166E+03 -.959E-13 -.116E+03   -.321E+01 -.308E-19 0.487E+00   -.193E-01 -.610E-07 0.207E-01
   -.160E+03 -.163E-04 0.769E+03   0.162E+03 -.733E-14 -.769E+03   -.264E+01 0.104E-18 -.718E+00   0.150E-01 -.458E-07 0.211E-01
   -.172E+03 -.189E-04 -.627E+03   0.174E+03 -.382E-13 0.626E+03   -.179E+01 0.105E-18 0.170E+01   0.329E-02 -.450E-07 0.409E-02
   -.234E+03 0.184E-04 0.552E+03   0.235E+03 -.107E-13 -.553E+03   -.210E+01 0.363E-19 0.123E+00   0.826E-02 0.115E-07 0.628E-02
   -.612E+02 -.133E-05 -.112E+04   0.606E+02 0.477E-14 0.113E+04   0.830E+00 -.124E-20 -.488E+01   0.193E-02 -.117E-07 -.246E-02
   0.116E+03 0.734E-05 0.133E+04   -.117E+03 0.711E-14 -.134E+04   0.221E+01 0.589E-19 0.503E+01   -.690E-02 0.284E-07 0.686E-02
   -.111E+03 0.227E-05 -.159E+03   0.113E+03 -.639E-13 0.158E+03   -.203E+01 -.113E-19 0.184E+01   0.452E-02 -.587E-08 0.656E-02
   0.108E+03 0.154E-04 0.118E+04   -.109E+03 -.107E-13 -.119E+04   0.231E+01 0.445E-19 0.468E+01   0.159E-01 0.361E-07 0.138E-01
   -.799E+02 0.149E-04 -.401E+03   0.818E+02 0.142E-13 0.400E+03   -.202E+01 -.279E-19 0.160E+01   0.952E-02 0.317E-07 0.735E-02
   -.240E+03 0.141E-04 0.385E+03   0.242E+03 -.155E-13 -.386E+03   -.226E+01 0.943E-20 -.193E+00   -.813E-02 0.467E-07 0.730E-02
   -.212E+02 0.146E-05 -.123E+04   0.211E+02 0.235E-13 0.124E+04   -.186E+00 0.548E-19 -.456E+01   -.127E-01 0.291E-07 -.756E-02
   -.540E+02 -.219E+02 0.132E+04   0.531E+02 0.211E+02 -.133E+04   0.137E+01 0.116E+01 0.537E+01   -.913E-02 0.561E-03 0.141E-01
   0.493E+02 -.137E+03 -.237E+03   -.508E+02 0.139E+03 0.237E+03   0.166E+01 -.185E+01 0.523E+00   -.789E-02 -.139E-03 0.289E-02
   0.192E+03 -.197E+03 0.534E+03   -.193E+03 0.199E+03 -.534E+03   0.964E+00 -.185E+01 -.116E+01   0.721E-02 0.164E-02 0.224E-01
   0.182E+03 -.295E+02 -.967E+03   -.184E+03 0.301E+02 0.968E+03   0.215E+01 -.598E+00 -.292E+00   0.945E-02 -.231E-02 0.412E-03
   0.927E+02 -.115E+03 0.261E+03   -.941E+02 0.116E+03 -.261E+03   0.132E+01 -.203E+01 -.127E+01   0.633E-02 -.718E-03 0.120E-01
   -.113E+03 0.796E+02 -.123E+04   0.114E+03 -.805E+02 0.123E+04   -.106E+01 0.660E+00 -.352E+01   0.198E-02 0.167E-02 -.269E-02
   0.992E+02 -.165E+03 -.432E+03   -.100E+03 0.167E+03 0.431E+03   0.133E+01 -.252E+01 0.135E+01   -.129E-01 0.188E-02 0.164E-02
   0.550E+02 -.471E+01 0.121E+04   -.560E+02 0.382E+01 -.122E+04   0.101E+01 0.155E+01 0.545E+01   -.171E-01 -.928E-02 0.136E-01
   0.569E+02 -.980E+02 0.915E+03   -.566E+02 0.996E+02 -.918E+03   -.108E+01 -.218E+01 0.174E+01   0.108E-01 0.224E-01 0.321E-01
   0.161E+03 -.125E+01 -.779E+03   -.163E+03 0.161E+01 0.780E+03   0.201E+01 -.355E+00 -.627E+00   0.345E-02 -.120E-02 0.767E-02
[...]
   -.520E+02 -.171E+03 -.138E+04   0.513E+02 0.173E+03 0.138E+04   0.937E+00 -.294E+01 -.469E+01   -.622E-03 -.249E-02 -.857E-02
   0.192E+03 0.197E+03 0.534E+03   -.193E+03 -.199E+03 -.534E+03   0.964E+00 0.185E+01 -.116E+01   0.721E-02 -.164E-02 0.224E-01
   0.182E+03 0.295E+02 -.967E+03   -.184E+03 -.301E+02 0.968E+03   0.215E+01 0.598E+00 -.292E+00   0.945E-02 0.231E-02 0.412E-03
   -.540E+02 0.219E+02 0.132E+04   0.531E+02 -.211E+02 -.133E+04   0.137E+01 -.116E+01 0.537E+01   -.913E-02 -.561E-03 0.141E-01
   0.493E+02 0.137E+03 -.237E+03   -.508E+02 -.139E+03 0.237E+03   0.166E+01 0.185E+01 0.523E+00   -.789E-02 0.139E-03 0.289E-02
   0.992E+02 0.165E+03 -.432E+03   -.100E+03 -.167E+03 0.431E+03   0.133E+01 0.252E+01 0.135E+01   -.129E-01 -.188E-02 0.164E-02
   0.550E+02 0.471E+01 0.121E+04   -.560E+02 -.382E+01 -.122E+04   0.101E+01 -.155E+01 0.545E+01   -.171E-01 0.928E-02 0.136E-01
   0.927E+02 0.115E+03 0.261E+03   -.941E+02 -.116E+03 -.261E+03   0.132E+01 0.203E+01 -.127E+01   0.633E-02 0.718E-03 0.120E-01
   -.113E+03 -.796E+02 -.123E+04   0.114E+03 0.805E+02 0.123E+04   -.106E+01 -.660E+00 -.352E+01   0.198E-02 -.167E-02 -.269E-02
   -.285E+02 0.405E+02 0.140E+04   0.279E+02 -.405E+02 -.141E+04   0.639E+00 -.688E+00 0.484E+01   0.857E-02 0.333E-03 0.957E-02
   0.157E+02 0.166E+03 -.599E+01   -.171E+02 -.168E+03 0.615E+01   0.144E+01 0.259E+01 0.274E+00   0.631E-02 0.283E-02 0.616E-02
   -.520E+02 0.171E+03 -.138E+04   0.513E+02 -.173E+03 0.138E+04   0.937E+00 0.294E+01 -.469E+01   -.622E-03 0.249E-02 -.857E-02
   0.569E+02 0.980E+02 0.915E+03   -.566E+02 -.996E+02 -.918E+03   -.108E+01 0.218E+01 0.174E+01   0.108E-01 -.224E-01 0.321E-01
   0.161E+03 0.125E+01 -.779E+03   -.163E+03 -.161E+01 0.780E+03   0.201E+01 0.355E+00 -.627E+00   0.345E-02 0.120E-02 0.767E-02
   -.305E+02 -.130E-01 -.548E+02   0.625E-12 0.726E-12 0.398E-11   0.303E+02 -.833E-15 0.538E+02   0.527E-01 -.922E-06 0.102E+01

 POSITION                                       TOTAL-FORCE (eV/Angst)
     13.17084      1.39171      2.08012         0.244968      0.000000     -0.422829
     13.75451      1.39171      5.16466        -0.993240      0.000000     -1.467189
      4.43666      6.18092      0.53785        -0.291562      0.000000      1.116444
      5.02033      6.18092      3.62239        -0.163941      0.000000      0.184791
      7.34806      1.39171      1.05194        -0.148802      0.000000      1.006510
      7.93172      1.39171      4.13648        -0.217182      0.000000      0.284289
     16.08224      6.18092      2.59421        -0.191332      0.000000     -0.038212
     16.66591      6.18092      5.67875        -0.869305      0.000000     -1.711538
      1.52527      1.39171      0.02376         0.770472      0.000000      2.238552
      2.10894      1.39171      3.10830         0.119499      0.000000      0.241045
     10.25945      6.18092      1.56603         0.378755      0.000000     -0.476637
     10.84312      6.18092      4.65057         0.109607      0.000000      0.771396
     15.32426      0.12638      1.67264        -0.213303     -0.804170      0.223422
     15.90793      0.12638      4.75718         0.730049      0.575378     -0.213505
      6.59008      4.91558      0.13037        -0.075264      0.675321      1.663589
      7.17375      4.91558      3.21491        -0.007903     -0.178721     -0.013581
      7.75741      4.91558      6.29946        -0.215689     -0.407753     -2.022096
      9.50147      0.12638      0.64446         0.285133     -0.485660      0.939000
     10.08514      0.12638      3.72900         0.114829      0.003533      0.135676
      1.35096      4.91558      2.18673         0.101150     -0.238644     -0.266235
      1.93463      4.91558      5.27128        -0.028557     -0.205513     -1.508239
      4.26235      0.12638      2.70082         0.098821     -0.125744     -0.183316
      4.84602      0.12638      5.78537        -0.180141     -0.261550     -1.907369
     12.41286      4.91558      1.15855        -0.352811     -0.683512      0.184555
     12.99653      4.91558      4.24309         0.107362      0.036511      0.609032
     15.32426      2.65705      1.67264        -0.213303      0.804170      0.223422
     15.90793      2.65705      4.75718         0.730049     -0.575378     -0.213505
      6.59008      7.44626      0.13037        -0.075264     -0.675321      1.663589
      7.17375      7.44626      3.21491        -0.007903      0.178721     -0.013581
      7.75741      7.44626      6.29946        -0.215689      0.407753     -2.022096
      9.50147      2.65705      0.64446         0.285133      0.485660      0.939000
     10.08514      2.65705      3.72900         0.114829     -0.003533      0.135676
      1.35096      7.44626      2.18673         0.101150      0.238644     -0.266235
      1.93463      7.44626      5.27128        -0.028557      0.205513     -1.508239
      4.26235      2.65705      2.70082         0.098821      0.125744     -0.183316
      4.84602      2.65705      5.78537        -0.180141      0.261550     -1.907369
     12.41286      7.44626      1.15855        -0.352811      0.683512      0.184555
     12.99653      7.44626      4.24309         0.107362     -0.036511      0.609032
      0.43949      1.39171      6.16431        -2.031362      0.000000     -1.166107
     16.74052      1.39171      3.07977        -0.315672      0.000000     -0.860373
      8.00634      6.18092      1.53750        -0.396573      0.000000     -0.875208
      8.59001      6.18092      4.62204        -0.057407      0.000000      1.264974
     10.91773      1.39171      2.05159        -0.526969      0.000000     -0.779862
     11.50140      1.39171      5.13613         0.263704      0.000000      0.486807
      2.18355      6.18092      0.50931         1.225094      0.000000      0.133788
      2.76722      6.18092      3.59386         0.068271      0.000000      1.113847
      5.09494      1.39171      1.02341         1.097780      0.000000      0.103759
      5.67861      1.39171      4.10795        -0.097694      0.000000      1.312155
     13.82913      6.18092      2.56568        -0.198898      0.000000     -0.917409
     14.41279      6.18092      5.65022        -0.271405      0.000000      0.181497
     13.41477      3.00295      0.51409         0.504952      0.358111      0.497642
     13.99844      3.00295      3.59863         0.154526     -0.469480      1.101304
      5.26426      7.79215      2.05636        -0.146756     -0.263864     -1.157923
      5.84793      7.79215      5.14091         0.419601      0.051179      0.868780
      8.17565      3.00295      2.57045        -0.108538     -0.519363     -0.780234
      8.75932      3.00295      5.65500         0.002759     -0.192249      0.024119
      0.02514      7.79215      4.11272         0.072830     -0.191537      0.967043
     16.32617      7.79215      1.02818        -0.020517      0.652644      0.396776
      2.35287      3.00295      1.54227        -0.752664     -0.635065     -0.586765
      2.93654      3.00295      4.62682         0.393464     -0.002556      0.648008
     10.50338      7.79215      0.00000         0.001820      0.672328      0.442445
     11.08705      7.79215      3.08454         0.034010     -0.452621      0.445471
     11.67072      7.79215      6.16909         0.327430     -0.851444     -1.369843
      5.26426      4.56969      2.05636        -0.146756      0.263864     -1.157923
      5.84793      4.56969      5.14091         0.419601     -0.051179      0.868780
     13.41477      9.35889      0.51409         0.504952     -0.358111      0.497642
     13.99844      9.35889      3.59863         0.154526      0.469480      1.101304
      0.02514      4.56969      4.11272         0.072830      0.191537      0.967043
     16.32617      4.56969      1.02818        -0.020517     -0.652644      0.396776
      8.17565      9.35889      2.57045        -0.108538      0.519363     -0.780234
      8.75932      9.35889      5.65500         0.002759      0.192249      0.024119
     10.50338      4.56969      0.00000         0.001820     -0.672328      0.442445
     11.08705      4.56969      3.08454         0.034010      0.452621      0.445471
     11.67072      4.56969      6.16909         0.327430      0.851444     -1.369843
      2.35287      9.35889      1.54227        -0.752664      0.635065     -0.586765
      2.93654      9.35889      4.62682         0.393464      0.002556      0.648008
    total drift:                               -0.083117     -0.012992      0.000538

  FREE ENERGIE OF THE ION-ELECTRON SYSTEM (eV)
  free  energy   TOTEN  =      -365.48135598 eV

  energy  without entropy=     -364.13265410  energy(sigma->0) =     -364.80700504