 vasp.5.4.4.18Apr17-6-g9f103f2a35 (build Aug 13 2019 17:33:20) gamma-only

 executed on             LinuxIFC date 2020.05.12  02:42:53

 INCAR:
 POTCAR:    PAW_PBE Ni_pv 06Sep2000
 POTCAR:    PAW_PBE S 06Sep2000
 POTCAR:    PAW_PBE Ni_pv 06Sep2000
   VRHFIN =Ni:

   TITEL  = PAW_PBE Ni_pv 06Sep2000
   POMASS =   58.690; ZVAL   =   16.000    mass and valenz
   ENMAX  =  367.986; ENMIN  =  275.989 eV

 POTCAR:    PAW_PBE S 06Sep2000
   VRHFIN =S : s2p4

   TITEL  = PAW_PBE S 06Sep2000
   POMASS =   32.066; ZVAL   =    6.000    mass and valenz
   ENMAX  =  258.689; ENMIN  =  194.016 eV

 Optimization of the real space projectors (new method)

 maximal supplied QI-value         = 18.90
 optimisation between [QCUT,QGAM] = [ 10.77, 21.73] = [ 32.49,132.25] Ry
 Optimized for a Real-space Cutoff    1.38 Angstroem

   l    n(q)    QCUT    max X(q) W(low)/X(q) W(high)/X(q)  e(spline)
   1      8    10.771     2.836    0.40E-04    0.29E-04    0.12E-06
   1      8    10.771     4.023    0.10E-03    0.48E-04    0.29E-06
   2      8    10.771    73.368    0.42E-03    0.97E-04    0.44E-06
   2      8    10.771    69.010    0.42E-03    0.99E-04    0.45E-06
   0      9    10.771    54.797    0.10E-03    0.56E-04    0.74E-07
   0      9    10.771    24.266    0.89E-04    0.49E-04    0.67E-07
 Optimization of the real space projectors (new method)

 maximal supplied QI-value         = 19.84
 optimisation between [QCUT,QGAM] = [ 10.71, 21.63] = [ 32.15,130.99] Ry
 Optimized for a Real-space Cutoff    1.19 Angstroem

   l    n(q)    QCUT    max X(q) W(low)/X(q) W(high)/X(q)  e(spline)
   0      8    10.715   187.594    0.41E-03    0.53E-04    0.66E-07
   0      8    10.715   164.243    0.41E-03    0.53E-04    0.65E-07
   1      7    10.715    67.533    0.19E-03    0.59E-03    0.68E-07
   1      7    10.715    50.729    0.19E-03    0.58E-03    0.67E-07
  PAW_PBE Ni_pv 06Sep2000               :
  PAW_PBE S 06Sep2000                   :

 POSCAR: Type_037 Type_137
  positions in cartesian coordinates
 exchange correlation table for  LEXCH =        8
   RHO(1)=    0.500       N(1)  =     2000
   RHO(2)=  100.500       N(2)  =     4000

 ion  position               nearest neighbor table
   1  0.780  0.145  0.123-  65 2.09  51 2.12  52 2.15  42 2.25   2 2.28  66 2.36  36 2.39  14 2.42

   2  0.732  0.098  0.249-  43 1.99  66 2.08   1 2.28  52 2.35  20 2.46  42 2.60
   3  0.217  0.630  0.099-  44 2.02  45 2.12  63 2.20   4 2.38  53 2.42  16 2.46
   4  0.297  0.645  0.216-  54 2.10  64 2.13  45 2.25  53 2.26  63 2.26   3 2.38  29 2.53  17 2.53

[...]

   8  0.972  0.629  0.304-  46 2.05  57 2.08  50 2.08  67 2.11  22 2.52   7 2.52
   9  0.062  0.157  0.059-  39 2.05  59 2.09  73 2.10  10 2.36  15 2.54
  10  0.125  0.145  0.185-  38 2.09  73 2.10  59 2.12   9 2.36  60 2.36  74 2.36  15 2.43  11 2.49
                            34 2.53  23 2.53
  11  0.129  0.145  0.335-  74 2.03  60 2.03  38 2.04  10 2.49
  12  0.580  0.649  0.149-  40 2.04  61 2.11  41 2.12  71 2.17  13 2.39
  13  0.642  0.645  0.278-  72 2.02  62 2.03  41 2.21  61 2.26  71 2.26  12 2.39  37 2.53  26 2.53

[...]

  18  0.469  0.502  0.333-  56 2.00  64 2.04  41 2.04  17 2.47
  19  0.594  0.918  0.091-  61 2.12  69 2.19  20 2.37  42 2.41  30 2.46
  20  0.597  0.013  0.222-  70 2.08  43 2.12  61 2.25  69 2.26  42 2.26  19 2.37   2 2.46  31 2.53
                             6 2.53
  21  0.080  0.513  0.130-  44 2.08  68 2.13  59 2.18  67 2.22  45 2.36   7 2.53  32 2.53  22 2.54

[...]

  70  0.512  0.980  0.311-   6 2.04  20 2.08  43 2.66  69 2.68
  71  0.657  0.477  0.184-  25 2.11  12 2.17  31 2.25  26 2.26  13 2.26
  72  0.695  0.499  0.348-  26 2.02  13 2.02  62 2.79
  73  0.125  0.983  0.101-   9 2.10  10 2.10  32 2.17  15 2.19  23 2.39
  74  0.174  0.977  0.276-  11 2.03  24 2.03  33 2.19  10 2.36  23 2.36

  LATTYP: Found a simple orthorhombic cell.
 ALAT       =     9.5784100000
 B/A-ratio  =     1.7387693453
 C/A-ratio  =     1.7627867312

  Lattice vectors:

 A1 = (   0.0000000000,   9.5784100000,   0.0000000000)
 A2 = (   0.0000000000,   0.0000000000, -16.6546456851)
 A3 = ( -16.8846940542,   0.0000000000,   0.0000000000)

Analysis of symmetry for initial positions (statically):
 Subroutine PRICEL returns:
 Original cell was already a primitive cell.

 Routine SETGRP: Setting up the symmetry group for a
 simple orthorhombic supercell.

 Subroutine GETGRP returns: Found  1 space group operations
 (whereof  1 operations were pure point group operations)
 out of a pool of  8 trial point group operations.

The static configuration has the point symmetry C_1 .

Analysis of symmetry for dynamics (positions and initial velocities):
 Subroutine PRICEL returns:
 Original cell was already a primitive cell.

 Routine SETGRP: Setting up the symmetry group for a
 simple orthorhombic supercell.

 Subroutine GETGRP returns: Found  1 space group operations
 (whereof  1 operations were pure point group operations)
 out of a pool of  8 trial point group operations.

The dynamic configuration has the point symmetry C_1 .

 Subroutine INISYM returns: Found  1 space group operations
 (whereof  1 operations are pure point group operations),
 and found     1 'primitive' translations

 KPOINTS: gamma-point-only calculation. no periodi

Automatic generation of k-mesh.
Space group operators:
 irot       det(A)        alpha          n_x          n_y          n_z        tau_x        tau_y        tau_z
    1     1.000000     0.000000     1.000000     0.000000     0.000000     0.000000     0.000000     0.000000

 Subroutine IBZKPT returns following result:

 Found      1 irreducible k-points:

 Following reciprocal coordinates:
            Coordinates               Weight
  0.000000  0.000000  0.000000      1.000000

 Following cartesian coordinates:
            Coordinates               Weight
  0.000000  0.000000  0.000000      1.000000

 SYSTEM =  "Millerite NiS"
 POSCAR =  Type_037 Type_137

 Startparameter for this run:
   NWRITE =      2    write-flag & timer
   PREC   = normal    normal or accurate (medium, high low for compatibility)
   ISTART =      0    job   : 0-new  1-cont  2-samecut
   ICHARG =      2    charge: 1-file 2-atom 10-const
   ISPIN  =      1    spin polarized calculation?
   LNONCOLLINEAR =      F non collinear calculations
   LSORBIT =      F    spin-orbit coupling
   INIWAV =      1    electr: 0-lowe 1-rand  2-diag
   LASPH  =      F    aspherical Exc in radial PAW
   METAGGA=      F    non-selfconsistent MetaGGA calc.

 Electronic Relaxation 1
   ENCUT  =  450.0 eV  33.07 Ry    5.75 a.u.  29.20 16.57 28.81*2*pi/ulx,y,z
   ENINI  =  450.0     initial cutoff
   ENAUG  =  703.4 eV  augmentation charge cutoff
   NELM   =    100;   NELMIN=  2; NELMDL= -5     # of ELM steps
   EDIFF  = 0.1E-03   stopping-criterion for ELM
   LREAL  =      T    real-space projection
   NLSPLINE    = F    spline interpolate recip. space projectors
   LCOMPAT=      F    compatible to vasp.4.4
   GGA_COMPAT  = T    GGA compatible to vasp.4.4-vasp.4.6
   LMAXPAW     = -100 max onsite density
   LMAXMIX     =    2 max onsite mixed and CHGCAR
   VOSKOWN=      0    Vosko Wilk Nusair interpolation
   ROPT   =   -0.00050  -0.00050
 Ionic relaxation
   EDIFFG = 0.1E-02   stopping-criterion for IOM
   NSW    =      0    number of steps for IOM
   NBLOCK =      1;   KBLOCK =      1    inner block; outer block
   IBRION =     -1    ionic relax: 0-MD 1-quasi-New 2-CG
   NFREE  =      0    steps in history (QN), initial steepest desc. (CG)
   ISIF   =      2    stress and relaxation
   IWAVPR =     10    prediction:  0-non 1-charg 2-wave 3-comb
   ISYM   =      2    0-nonsym 1-usesym 2-fastsym
   LCORR  =      T    Harris-Foulkes like correction to forces

   POTIM  = 0.5000    time-step for ionic-motion
   TEIN   =    0.0    initial temperature
   TEBEG  =    0.0;   TEEND  =   0.0 temperature during run
   SMASS  =  -3.00    Nose mass-parameter (am)
   estimated Nose-frequenzy (Omega)   =  0.10E-29 period in steps =****** mass=  -0.652E-26a.u.
   SCALEE = 1.0000    scale energy and forces
   NPACO  =    256;   APACO  = 16.0  distance and # of slots for P.C.
   PSTRESS=    0.0 pullay stress

  Mass of Ions in am
   POMASS =  58.69 32.07
  Ionic Valenz
   ZVAL   =  16.00  6.00
  Atomic Wigner-Seitz radii
  virtual crystal weights
   VCA    =   1.00  1.00
   NELECT =     814.0000    total number of electrons
   NUPDOWN=      -1.0000    fix difference up-down

 DOS related values:
   EMIN   =  10.00;   EMAX   =-10.00  energy-range for DOS
   EFERMI =   0.00
   ISMEAR =     0;   SIGMA  =   0.20  broadening in eV -4-tet -1-fermi 0-gaus

 Electronic relaxation 2 (details)
   IALGO  =     38    algorithm
   LDIAG  =      T    sub-space diagonalisation (order eigenvalues)
   LSUBROT=      F    optimize rotation matrix (better conditioning)
   TURBO    =      0    0=normal 1=particle mesh
   IRESTART =      0    0=no restart 2=restart with 2 vectors
   NREBOOT  =      0    no. of reboots
   NMIN     =      0    reboot dimension
   EREF     =   0.00    reference energy to select bands
   IMIX   =      4    mixing-type and parameters
     AMIX     =   0.40;   BMIX     =  1.00
     AMIX_MAG =   1.60;   BMIX_MAG =  1.00
     AMIN     =   0.10
     WC   =   100.;   INIMIX=   1;  MIXPRE=   1;  MAXMIX= -45

 Intra band minimization:
   WEIMIN = 0.0000     energy-eigenvalue tresh-hold
   EBREAK =  0.51E-07  absolut break condition
   DEPER  =   0.30     relativ break condition

   TIME   =   0.40     timestep for ELM

  volume/ion in A,a.u.               =      36.40       245.63
  Fermi-wavevector in a.u.,A,eV,Ry     =   1.098607  2.076066 16.421374  1.206937
  Thomas-Fermi vector in A             =   2.234987

 Write flags
   LWAVE        =      F    write WAVECAR
   LDOWNSAMPLE  =      F    k-point downsampling of WAVECAR
   LCHARG       =      F    write CHGCAR
   LVTOT        =      F    write LOCPOT, total local potential
   LVHAR        =      F    write LOCPOT, Hartree potential only
   LELF         =      F    write electronic localiz. function (ELF)
   LORBIT       =      0    0 simple, 1 ext, 2 COOP (PROOUT), +10 PAW based schemes

 Dipole corrections
   LMONO  =      F    monopole corrections only (constant potential shift)
   LDIPOL =      F    correct potential (dipole corrections)
   IDIPOL =      0    1-x, 2-y, 3-z, 4-all directions
   EPSILON=  1.0000000 bulk dielectric constant

 Exchange correlation treatment:
   GGA     =    --    GGA type
   VOSKOWN=      0    Vosko Wilk Nusair interpolation
   LHFCALC =     F    Hartree Fock is set to
   LHFONE  =     F    Hartree Fock one center treatment
   AEXX    =    0.0000 exact exchange contribution

 Linear response parameters
   LEPSILON=     F    determine dielectric tensor
   LRPA    =     F    only Hartree local field effects (RPA)
   LNABLA  =     F    use nabla operator in PAW spheres
   LVEL    =     F    velocity operator in full k-point grid
   LINTERFAST=   F  fast interpolation
   KINTER  =     0    interpolate to denser k-point grid
   CSHIFT  =0.1000    complex shift for real part using Kramers Kronig
   OMEGAMAX=  -1.0    maximum frequency
   DEG_THRESHOLD= 0.2000000E-02 threshold for treating states as degnerate
[...]
     0.000000000  9.578410000  0.000000000     0.000000000  0.104401461  0.000000000
     0.000000000  0.000000000 16.654645685     0.000000000  0.000000000  0.060043307

  length of vectors
    16.884694054  9.578410000 16.654645685     0.059225237  0.104401461  0.060043307

 FORCES acting on ions
    electron-ion (+dipol)            ewald-force                    non-local-force                 convergence-correction
   -.628E+02 -.536E+03 0.182E+04   0.608E+02 0.538E+03 -.182E+04   0.166E+01 -.995E+00 0.394E+01   -.286E-02 0.327E-01 0.920E-02
   -.696E+03 -.263E+03 -.257E+04   0.698E+03 0.264E+03 0.257E+04   -.808E+00 -.194E+00 -.322E+01   -.122E-01 0.162E-01 0.137E-01
   0.107E+03 0.874E+02 0.282E+04   -.107E+03 -.877E+02 -.282E+04   0.847E+00 0.521E+00 0.761E+01   0.623E-02 -.754E-03 0.408E-02
   0.398E+03 0.977E+01 -.136E+04   -.401E+03 -.936E+01 0.136E+04   0.263E+01 -.420E+00 -.516E+01   0.425E-02 0.295E-02 -.389E-03
   0.691E+02 -.301E+03 0.220E+04   -.701E+02 0.302E+03 -.221E+04   0.175E+01 -.742E+00 0.779E+01   -.148E-02 0.461E-03 0.803E-02
   0.231E+03 -.688E+02 -.216E+04   -.236E+03 0.698E+02 0.217E+04   0.329E+01 -.208E-01 -.866E+01   0.906E-02 0.159E-02 0.138E-01
   0.810E+03 -.886E+02 0.110E+04   -.814E+03 0.921E+02 -.111E+04   0.374E+01 -.225E+01 0.258E+01   0.626E-03 -.114E-01 -.788E-02
   0.778E+03 0.991E+02 -.331E+04   -.783E+03 -.101E+03 0.331E+04   0.408E+01 0.155E+01 -.473E+01   -.408E-03 -.117E-03 -.370E-02
   0.192E+03 -.292E+03 0.381E+04   -.193E+03 0.296E+03 -.381E+04   0.880E+00 -.347E+01 -.645E+00   0.449E-02 0.388E-02 0.773E-03
   0.349E+03 -.293E+03 -.444E+02   -.348E+03 0.296E+03 0.449E+02   0.692E+00 -.283E+01 0.148E+01   0.269E-02 0.121E-02 -.107E-01
   0.597E+03 -.921E+02 -.396E+04   -.599E+03 0.918E+02 0.396E+04   0.115E+01 0.313E+00 0.952E+00   0.681E-02 -.570E-02 -.748E-02
   -.411E+03 0.542E+03 0.178E+04   0.413E+03 -.543E+03 -.178E+04   -.875E+00 0.137E+01 0.360E+01   -.103E-01 -.522E-02 -.493E-03
   0.202E+03 0.637E+02 -.261E+04   -.205E+03 -.636E+02 0.262E+04   0.170E+01 -.471E-01 -.774E+01   -.909E-02 -.963E-02 0.837E-02
   -.147E+03 0.195E+03 0.238E+04   0.148E+03 -.197E+03 -.238E+04   -.487E-02 0.152E+01 0.403E+01   0.199E-01 0.120E-01 -.223E-02
   0.635E+03 -.166E+03 0.258E+02   -.637E+03 0.166E+03 -.232E+02   0.127E+01 -.483E+00 -.270E+01   0.166E-01 0.138E-01 -.379E-02
   -.226E+02 0.434E+03 0.391E+04   0.204E+02 -.435E+03 -.392E+04   0.184E+01 0.418E+00 0.558E+01   -.962E-02 -.258E-02 0.985E-02
   -.358E+03 0.627E+03 0.247E+03   0.357E+03 -.631E+03 -.248E+03   0.485E+00 0.389E+01 -.671E+00   -.991E-02 -.166E-02 0.398E-02
   -.248E+03 -.896E+02 -.384E+04   0.247E+03 0.879E+02 0.383E+04   0.107E+01 0.189E+01 0.327E+01   -.215E-02 -.104E-01 -.938E-02
   -.459E+03 0.367E+03 0.328E+04   0.457E+03 -.367E+03 -.328E+04   0.172E+01 -.357E+00 0.249E+01   -.156E-01 0.868E-02 -.297E-02
   -.234E+03 0.349E+03 -.151E+04   0.237E+03 -.353E+03 0.151E+04   -.244E+01 0.446E+01 -.419E+01   -.106E-01 0.121E-01 0.101E-01
   0.948E+02 0.616E+03 0.185E+04   -.942E+02 -.622E+03 -.185E+04   -.378E+00 0.475E+01 0.292E+01   0.516E-02 -.578E-02 -.923E-02
   -.453E+01 0.619E+03 -.269E+04   0.854E+01 -.624E+03 0.270E+04   -.344E+01 0.372E+01 -.446E+01   0.938E-02 -.208E-03 -.777E-02
   0.656E+02 0.466E+03 0.114E+04   -.673E+02 -.469E+03 -.114E+04   0.989E+00 0.129E+01 0.313E+01   -.604E-02 -.383E-02 0.542E-02
   -.233E+03 0.228E+03 -.347E+04   0.234E+03 -.233E+03 0.347E+04   -.586E+00 0.460E+01 0.319E+01   0.391E-02 -.741E-02 -.133E-02
   0.428E+03 -.290E+03 0.250E+04   -.429E+03 0.291E+03 -.251E+04   0.150E+00 -.733E+00 0.638E+01   0.494E-02 -.917E-02 -.737E-03
   -.421E+03 0.518E+03 -.203E+04   0.424E+03 -.520E+03 0.204E+04   -.249E+01 0.197E+01 -.579E+01   0.594E-03 -.229E-01 -.139E-01
   -.151E+03 0.200E+03 0.987E+03   0.153E+03 -.201E+03 -.987E+03   -.222E+01 0.411E+00 0.148E+01   -.843E-02 0.693E-04 -.424E-02
   -.232E+02 -.209E+03 0.393E+04   0.264E+02 0.207E+03 -.393E+04   -.339E+01 0.215E+01 0.561E-01   -.150E-02 0.637E-03 0.501E-02
   -.234E+03 -.324E+03 -.677E+03   0.233E+03 0.327E+03 0.682E+03   0.163E+00 -.294E+01 -.476E+01   -.120E-01 0.739E-03 0.124E-01
   -.169E+03 -.785E+03 0.345E+04   0.168E+03 0.787E+03 -.346E+04   0.354E+00 -.186E+01 0.549E+01   0.559E-02 0.928E-04 0.750E-02
   -.477E+03 -.737E+03 -.870E+03   0.480E+03 0.743E+03 0.870E+03   -.293E+01 -.527E+01 -.730E+00   -.248E-02 -.253E-02 0.999E-02
   -.101E+03 -.224E+03 0.186E+04   0.104E+03 0.223E+03 -.186E+04   -.191E+01 -.207E+00 0.387E+01   0.126E-01 0.870E-03 -.317E-02
   -.124E+03 -.398E+03 -.308E+04   0.126E+03 0.403E+03 0.309E+04   -.647E+00 -.334E+01 -.459E+01   0.155E-01 0.845E-02 -.300E-02
   -.457E+02 -.508E+03 0.120E+04   0.444E+02 0.510E+03 -.121E+04   0.131E+01 -.203E+01 0.282E+01   -.573E-02 0.330E-02 -.142E-02
   -.921E+02 -.183E+03 -.330E+04   0.931E+02 0.187E+03 0.330E+04   -.807E+00 -.446E+01 0.201E+01   0.640E-02 0.189E-02 -.434E-02
   -.781E+02 0.669E+03 0.212E+04   0.776E+02 -.672E+03 -.213E+04   0.657E+00 0.104E+01 0.627E+01   -.982E-02 0.742E-02 0.268E-02
   -.572E+03 -.306E+03 -.198E+04   0.577E+03 0.308E+03 0.199E+04   -.298E+01 -.255E+01 -.538E+01   0.207E-02 -.359E-02 0.110E-01
   0.585E+03 -.138E+03 -.103E+04   -.590E+03 0.141E+03 0.104E+04   0.276E+01 -.131E+01 -.889E+00   0.308E-02 0.109E-02 -.484E-02
   0.137E+03 -.206E+03 0.630E+03   -.136E+03 0.207E+03 -.630E+03   -.614E+00 -.398E+00 -.149E+00   0.499E-02 0.691E-02 -.113E-02
   -.314E+03 0.351E+03 0.125E+04   0.317E+03 -.354E+03 -.125E+04   -.104E+01 0.269E+01 0.253E+01   -.550E-02 -.159E-02 0.269E-02
   -.110E+03 -.132E+03 -.870E+03   0.109E+03 0.134E+03 0.875E+03   0.139E+01 -.145E+01 -.368E+01   -.814E-02 0.411E-03 0.115E-02
   -.187E+03 -.288E+03 0.959E+03   0.189E+03 0.292E+03 -.962E+03   -.321E+00 -.344E+01 0.284E+01   -.493E-02 0.401E-02 0.336E-02
   -.147E+03 -.778E+02 -.162E+04   0.151E+03 0.787E+02 0.163E+04   -.321E+01 -.928E+00 -.245E+01   -.294E-02 0.198E-02 -.125E-02
   0.765E+02 -.259E+01 0.175E+04   -.767E+02 0.282E+01 -.175E+04   0.449E+00 -.661E-01 0.175E+01   0.297E-02 -.186E-02 0.364E-03
   -.139E+03 -.313E+00 -.377E+03   0.140E+03 0.336E+00 0.380E+03   0.436E+00 -.249E+00 -.267E+01   0.726E-02 0.236E-02 -.279E-02
   0.421E+00 0.417E+02 -.179E+04   0.503E-01 -.417E+02 0.180E+04   0.237E+00 -.447E-01 -.111E+01   0.327E-02 0.285E-02 0.206E-02
   0.395E+02 -.583E+02 0.163E+04   -.404E+02 0.582E+02 -.163E+04   0.127E+01 0.691E-01 0.178E+01   -.558E-02 0.874E-03 -.255E-03
   -.126E+03 -.128E+02 -.704E+03   0.127E+03 0.132E+02 0.710E+03   0.505E+00 -.202E+00 -.451E+01   -.139E-02 -.221E-02 0.406E-02
   -.109E+02 -.797E+02 0.630E+03   0.116E+02 0.814E+02 -.634E+03   -.786E+00 -.146E+01 0.293E+01   0.191E-02 -.125E-01 -.345E-02
   -.789E+02 -.719E+01 -.135E+04   0.800E+02 0.685E+01 0.136E+04   -.283E+00 0.315E+00 -.357E+01   0.595E-03 -.346E-02 0.914E-03
   0.138E+02 -.621E+02 0.159E+04   -.131E+02 0.627E+02 -.159E+04   -.676E+00 -.365E+00 0.357E+01   0.221E-03 0.723E-02 0.513E-02
   -.174E+03 0.940E+02 -.663E+03   0.177E+03 -.953E+02 0.668E+03   -.180E+01 0.688E+00 -.307E+01   -.183E-02 0.350E-02 -.362E-02
   0.195E+03 -.264E+03 0.788E+03   -.197E+03 0.267E+03 -.790E+03   0.136E+01 -.149E+01 0.671E+00   -.181E-02 -.229E-02 0.460E-02
   -.743E+02 0.770E+01 -.131E+04   0.753E+02 -.717E+01 0.132E+04   -.743E+00 -.580E-01 -.278E+01   -.100E-02 0.101E-02 -.307E-02
   -.239E+02 -.333E+03 0.624E+03   0.238E+02 0.337E+03 -.626E+03   -.119E+01 -.255E+01 0.201E+01   0.129E-02 0.182E-02 0.436E-02
   -.107E+03 0.236E+02 -.140E+04   0.107E+03 -.223E+02 0.140E+04   0.531E+00 -.131E+01 -.242E+01   0.146E-02 -.313E-02 -.129E-02
   0.363E+03 -.284E+03 -.781E+03   -.367E+03 0.287E+03 0.784E+03   0.261E+01 -.173E+01 -.283E+01   0.368E-02 0.139E-02 -.278E-03
   0.197E+03 0.850E+02 0.134E+04   -.198E+03 -.858E+02 -.134E+04   0.275E+00 0.314E+00 0.497E+01   0.440E-02 -.159E-02 -.188E-02
   -.174E+02 -.161E+03 0.105E+04   0.175E+02 0.163E+03 -.106E+04   -.869E-01 -.615E+00 0.207E+01   -.700E-03 -.335E-02 0.257E-03
   0.138E+03 -.174E+03 -.918E+03   -.139E+03 0.176E+03 0.919E+03   0.498E+00 -.647E+00 -.120E+01   0.347E-02 -.288E-02 -.475E-02
   -.725E+02 0.134E+03 0.339E+02   0.712E+02 -.132E+03 -.342E+02   0.581E-01 -.133E+01 0.211E+00   -.100E-01 0.333E-02 0.184E-02
   -.234E+02 -.232E+03 -.165E+04   0.225E+02 0.235E+03 0.166E+04   0.142E+00 -.198E+01 -.683E+00   -.374E-02 0.329E-02 0.571E-02
   -.872E+01 0.356E+03 0.864E+03   0.849E+01 -.359E+03 -.866E+03   -.696E+00 0.140E+01 0.241E+01   -.102E-02 0.170E-02 0.354E-02
   0.140E+03 -.547E+02 -.126E+04   -.142E+03 0.531E+02 0.127E+04   0.643E+00 0.923E+00 -.157E+01   -.307E-03 0.198E-02 -.499E-02
   0.747E+02 0.406E+02 0.177E+04   -.752E+02 -.408E+02 -.178E+04   -.673E-01 -.375E+00 0.155E+01   0.994E-03 0.652E-02 -.873E-02
   -.380E+03 -.511E+02 -.724E+03   0.385E+03 0.520E+02 0.730E+03   -.374E+01 -.146E+01 -.392E+01   0.275E-02 0.784E-02 0.755E-02
   0.246E+03 0.445E+03 -.518E+03   -.247E+03 -.449E+03 0.521E+03   0.465E+00 0.206E+01 -.224E+01   -.261E-02 -.388E-02 -.664E-02
   0.139E+03 0.686E+02 0.149E+04   -.140E+03 -.693E+02 -.150E+04   0.119E+01 0.139E+00 0.386E+01   -.217E-03 -.411E-02 0.146E-02
   0.826E+02 0.776E+02 0.244E+03   -.847E+02 -.811E+02 -.243E+03   0.926E+00 0.223E+01 -.185E+01   0.215E-02 -.113E-02 0.436E-02
   0.312E+02 0.236E+03 -.151E+04   -.333E+02 -.240E+03 0.152E+04   0.208E+01 0.212E+01 -.712E+00   -.155E-02 0.194E-02 0.186E-03
   0.672E+02 0.131E+03 0.272E+03   -.697E+02 -.134E+03 -.275E+03   0.115E+01 0.149E+01 0.171E+01   0.424E-02 -.941E-02 -.200E-02
   -.528E+02 0.273E+03 -.160E+04   0.523E+02 -.276E+03 0.161E+04   0.142E+00 0.225E+01 -.868E+00   -.176E-02 -.549E-02 0.120E-02
   -.183E+03 0.149E+03 0.116E+04   0.185E+03 -.150E+03 -.117E+04   -.118E+01 0.288E+00 0.433E+01   0.171E-02 0.507E-02 0.382E-03
   0.103E+03 0.170E+03 -.918E+03   -.103E+03 -.173E+03 0.919E+03   0.300E+00 0.873E+00 -.846E+00   0.438E-02 -.104E-02 -.217E-02
   -.958E+01 0.486E+01 -.127E+02   0.455E-12 -.938E-12 0.114E-12   0.952E+01 -.496E+01 0.127E+02   0.644E-02 0.333E-01 0.398E-01

 POSITION                                       TOTAL-FORCE (eV/Angst)
     13.17084      1.39171      2.05636        -0.333396      1.148635     -0.587552
     12.36329      0.93764      4.14317         0.925103      0.451110      0.395042
      3.65689      6.02962      1.65161         0.981688      0.261129     -0.129363
      5.02033      6.18092      3.59863        -0.440505      0.000720     -0.353736
      6.53882      1.28239      2.15140         0.758496      0.213154     -0.405161
      7.93172      1.39171      4.11272        -1.097088      0.993982     -0.880653
     16.08224      6.18092      2.57045        -0.423382      1.235823      0.681973
     16.41958      6.02217      5.06168        -1.343980     -0.596995      0.186532
      1.04027      1.50067      0.98062        -0.249868      0.305742     -1.274320
      2.10894      1.39171      3.08454         1.601896      0.439618      1.918081
      2.18131      1.38943      5.57692        -0.136146     -0.033021      1.510617
      9.79953      6.21916      2.47754         0.932251     -0.346823     -0.725785
     10.84312      6.18092      4.62682        -1.059022      0.001029     -1.364899
     14.95960      9.39358      1.65395         0.505843      0.083481      0.025573
      0.21615      9.48020      2.76774        -0.601964     -0.299409     -0.035275
      6.03593      6.18541      1.04650        -0.344371     -0.053124     -1.707106
      7.17375      4.91558      3.19116         0.025916     -0.200006     -1.333921
      7.91839      4.80737      5.53872         0.198873      0.129447      1.079104
     10.02980      8.78895      1.52126         0.096901     -0.179211     -0.865850
     10.08514      0.12638      3.70525         0.496746     -0.056521     -0.236038
      1.35096      4.91558      2.16298         0.217740     -0.420650      0.624931
      1.68053      4.76154      4.67277         0.583002     -1.519364      0.071371
      4.26235      0.12638      2.67707        -0.736137     -0.814815      0.523064
      4.90279      9.38332      5.11486         0.069675      0.031310      0.760834
     12.87943      4.24759      1.98643        -0.671963      1.018640     -0.273266
     12.99653      4.91558      4.21934         0.402683      0.294307     -1.079153
     15.21198      3.53366      2.31470         0.480428     -0.543634      1.043705
      7.57511      8.16849      0.96090        -0.186276      0.349768     -0.851186
      7.17375      7.44626      3.19116        -0.060935     -0.034078      0.228329
      8.93420      1.41097      1.52469        -0.269925      0.023326     -1.692658
     10.08514      2.65705      3.70525        -0.107177      0.805682     -1.269062
      1.35096      7.44626      2.16298         1.020115     -0.329332      1.434394
      1.86941      7.47734      4.91644         1.201771      1.479239      0.490319
      4.26235      2.65705      2.67707        -0.065066      0.682341      0.375895
      4.93972      3.05438      5.03514         0.118555     -0.089204      0.883184
     12.65465      8.64131      2.07277         0.138262     -1.704463     -0.094011
     12.99653      7.44626      4.21934         1.673705      0.127008     -2.057790
      0.51493      1.17512      4.42506        -2.631126      1.176135      1.813206
     16.08484      1.58382      1.88457         0.181289      0.662095     -0.976651
      8.00634      6.18092      1.51374         1.426663     -0.493144     -2.992308
      8.66239      6.22030      4.26410        -0.085526      1.153477      1.779931
     10.91773      1.39171      2.02783         1.017481      0.092938     -0.889473
     10.77200      1.41829      5.23520         0.361103      0.015693      3.337959
      1.92704      6.18622      0.62244         0.250164      0.163821     -3.665873
      2.76722      6.18092      3.57010         1.455102     -0.223555     -0.115078
      1.22386      6.02471      6.21509         0.712817     -0.092843      4.319891
      4.77304      1.38574      1.14163         0.418853      0.000741     -3.729059
      5.67861      1.39171      4.08419         1.250079      0.208457      0.953414
     13.82913      6.18092      2.54192        -0.123755      0.155718     -0.838162
     14.34918      6.17418      5.21163         0.776486     -0.031173      2.673020
     13.87705      2.94795      0.81007        -0.047725      0.272444     -3.898507
     13.49719      2.90472      3.55313         0.625860     -0.560556      2.435874
      5.26426      7.79215      2.03261        -1.002604      1.502507     -0.634756
      5.89138      7.63972      4.83347         0.214383      0.466524      2.415441
      8.17565      3.00295      2.54670        -1.238400      1.295246     -0.548357
      8.66182      2.96949      5.25860         0.446529     -0.030311      2.342582
      0.02514      7.79215      4.08897        -1.466597      1.126576     -0.220817
     16.37358      7.92220      1.35681        -1.096078     -0.434308     -2.618951
      2.29309      3.00343      1.72217         0.030248      0.962682     -1.816244
      2.93654      3.00295      4.60306        -0.175297      1.705839      0.377559
     11.08705      7.79215      3.06079        -1.260976      0.433155     -0.072306
     11.75145      7.57084      5.80067        -0.734164      1.431149      3.921056
      5.26426      4.56969      2.03261        -0.922370     -1.789196     -0.155014
      5.96485      4.82132      4.94292        -1.246778     -0.638896      2.041754
     13.33560      0.08050      0.44013        -0.604235     -0.600492     -3.421779
     13.99844      9.35889      3.57488         0.742085     -0.537401      1.750206
     16.70359      4.44204      3.69896        -0.416174     -1.866999      0.723001
     16.40065      4.74542      1.10492        -0.175400     -0.524635     -3.089569
      8.17565      9.35889      2.54670        -1.115714     -1.225490     -0.712685
      8.65248      9.38882      5.18412         0.025940     -1.604920      3.205680
     11.08705      4.56969      3.06079        -1.297867     -0.932920     -0.892582
     11.73248      4.78328      5.79131        -0.363283     -1.262531      3.858842
      2.11634      9.41280      1.67383         1.492083     -0.963887     -1.991319
      2.93654      9.35889      4.60306         0.274455     -1.866777      0.313912
    total drift:                               -0.054784     -0.062917      0.024828

  FREE ENERGIE OF THE ION-ELECTRON SYSTEM (eV)
  free  energy   TOTEN  =      -349.95811401 eV

  energy  without entropy=     -348.75217906  energy(sigma->0) =     -349.35514654