 vasp.5.4.4.18Apr17-6-g9f103f2a35 (build Aug 13 2019 17:33:20) gamma-only

 executed on             LinuxIFC date 2020.05.12  16:32:39

 INCAR:
 POTCAR:    PAW_PBE Ni_pv 06Sep2000
 POTCAR:    PAW_PBE S 06Sep2000
 POTCAR:    PAW_PBE Ni_pv 06Sep2000
   VRHFIN =Ni:

   TITEL  = PAW_PBE Ni_pv 06Sep2000
   POMASS =   58.690; ZVAL   =   16.000    mass and valenz
   ENMAX  =  367.986; ENMIN  =  275.989 eV

 POTCAR:    PAW_PBE S 06Sep2000
   VRHFIN =S : s2p4

   TITEL  = PAW_PBE S 06Sep2000
   POMASS =   32.066; ZVAL   =    6.000    mass and valenz
   ENMAX  =  258.689; ENMIN  =  194.016 eV

 Optimization of the real space projectors (new method)

 maximal supplied QI-value         = 18.90
 optimisation between [QCUT,QGAM] = [ 10.77, 21.73] = [ 32.49,132.25] Ry
 Optimized for a Real-space Cutoff    1.38 Angstroem

   l    n(q)    QCUT    max X(q) W(low)/X(q) W(high)/X(q)  e(spline)
   1      8    10.771     2.836    0.40E-04    0.29E-04    0.12E-06
   1      8    10.771     4.023    0.10E-03    0.48E-04    0.29E-06
   2      8    10.771    73.368    0.42E-03    0.97E-04    0.44E-06
   2      8    10.771    69.010    0.42E-03    0.99E-04    0.45E-06
   0      9    10.771    54.797    0.10E-03    0.56E-04    0.74E-07
   0      9    10.771    24.266    0.89E-04    0.49E-04    0.67E-07
 Optimization of the real space projectors (new method)

 maximal supplied QI-value         = 19.84
 optimisation between [QCUT,QGAM] = [ 10.71, 21.63] = [ 32.15,130.99] Ry
 Optimized for a Real-space Cutoff    1.19 Angstroem

   l    n(q)    QCUT    max X(q) W(low)/X(q) W(high)/X(q)  e(spline)
   0      8    10.715   187.594    0.41E-03    0.53E-04    0.66E-07
   0      8    10.715   164.243    0.41E-03    0.53E-04    0.65E-07
   1      7    10.715    67.533    0.19E-03    0.59E-03    0.68E-07
   1      7    10.715    50.729    0.19E-03    0.58E-03    0.67E-07
  PAW_PBE Ni_pv 06Sep2000               :
  PAW_PBE S 06Sep2000                   :

 POSCAR: Type_036 Type_136
  positions in cartesian coordinates
 exchange correlation table for  LEXCH =        8
   RHO(1)=    0.500       N(1)  =     2000
   RHO(2)=  100.500       N(2)  =     4000

 ion  position               nearest neighbor table
   1  0.374  0.751  0.095-  61 2.05  50 2.09  41 2.25  62 2.36  51 2.36  26 2.44  14 2.53
   2  0.525  0.601  0.223-  42 2.25  51 2.26  62 2.26  63 2.36  52 2.36  15 2.53  27 2.53
   3  0.675  0.451  0.351-  43 2.25  63 2.26  52 2.26  64 2.36  53 2.36  32 2.42  28 2.53  16 2.53

   4  0.763  0.339  0.464-  65 2.04  64 2.05  44 2.07  53 2.07
   5  0.575  0.234  0.089-  54 2.04  46 2.10  47 2.11  34 2.35
   6  0.781  0.022  0.148-  45 2.09  55 2.12  68 2.19  54 2.21  47 2.42  29 2.44
   7  0.013  0.763  0.378-  66 2.02  56 2.05  49 2.12
   8  0.908  0.884  0.266-  48 2.25  55 2.26  68 2.26  56 2.36  66 2.36  30 2.53  17 2.53
   9  0.141  0.318  0.180-  69 2.07  40 2.25  57 2.26  70 2.36  58 2.36  34 2.53  21 2.53
  10  0.291  0.168  0.308-  37 2.25  58 2.26  70 2.26  59 2.36  71 2.36  35 2.53  22 2.53
  11  0.428  0.027  0.423-  71 2.04  38 2.09  59 2.10  72 2.22  23 2.51
  12  0.989  0.457  0.086-  57 2.06  60 2.12  39 2.14  69 2.21
  13  0.010  0.116  0.412-  65 2.05  38 2.14  56 2.25  64 2.26  37 2.26  25 2.49
  14  0.576  0.546  0.047-  62 2.03  61 2.05  39 2.10  26 2.47   1 2.53
  15  0.709  0.416  0.155-  54 2.11  39 2.26  62 2.26  40 2.36  63 2.36  27 2.53   2 2.53
  16  0.860  0.266  0.283-  55 2.25  63 2.26  40 2.26  37 2.36  64 2.36   3 2.53  28 2.53
  17  0.093  0.700  0.198-  57 2.25  41 2.26  68 2.26  42 2.36  66 2.36  20 2.37  30 2.53   8 2.53

  18  0.243  0.549  0.326-  67 2.09  58 2.25  66 2.26  42 2.26  43 2.36
  19  0.391  0.404  0.436-  43 2.02  67 2.08  59 2.08  44 2.09
  20  0.014  0.733  0.088-  60 2.08  45 2.09  41 2.19  68 2.23  57 2.28  17 2.37
  21  0.326  0.133  0.113-  50 2.12  46 2.14  69 2.19  70 2.36  47 2.36  34 2.53   9 2.53
  22  0.476  0.983  0.241-  51 2.25  70 2.26  47 2.26  48 2.36  71 2.36  35 2.53  10 2.53
  23  0.627  0.833  0.369-  72 2.08  49 2.18  52 2.25  71 2.26  48 2.26  24 2.42  11 2.51
  24  0.766  0.706  0.460-  49 2.04  72 2.07  53 2.08  23 2.42  32 2.46
  25  0.051  0.341  0.434-  37 2.05  65 2.08  38 2.19  67 2.19  53 2.24  13 2.49
  26  0.608  0.769  0.080-  51 2.02  50 2.11  39 2.11   1 2.44  14 2.47
  27  0.749  0.641  0.189-  68 2.25  51 2.26  39 2.26  40 2.36  52 2.36  15 2.53   2 2.53
  28  0.899  0.491  0.317-  66 2.25  52 2.26  40 2.26  53 2.36  37 2.36   3 2.53  16 2.53
  29  0.982  0.074  0.104-  45 2.05  54 2.07  69 2.22  41 2.36  55 2.36   6 2.44
  30  0.133  0.924  0.232-  70 2.25  55 2.26  41 2.26  56 2.36  42 2.36   8 2.53  17 2.53
  31  0.270  0.793  0.344-  42 2.03  56 2.06  71 2.16  43 2.64
  32  0.589  0.591  0.449-  44 2.08  43 2.12  72 2.13  53 2.30   3 2.42  24 2.46
  33  0.272  0.518  0.050-  61 2.06  57 2.08  60 2.13  46 2.19  34 2.52  62 2.61
  34  0.366  0.358  0.147-  46 2.06  62 2.25  57 2.26   5 2.35  47 2.36  58 2.36  33 2.52  21 2.53
                             9 2.53
  35  0.516  0.207  0.275-  63 2.25  58 2.26  47 2.26  48 2.36  59 2.36  10 2.53  22 2.53
  36  0.657  0.074  0.388-  48 2.05  59 2.11  49 2.15  64 2.15
  37  0.064  0.262  0.341-  25 2.05  10 2.25  13 2.26  16 2.36  28 2.36  38 2.57
  38  0.210  0.127  0.439-  11 2.09  13 2.14  25 2.19  37 2.57  65 2.61
  39  0.763  0.563  0.085-  14 2.10  26 2.11  12 2.14  15 2.26  27 2.26
  40  0.914  0.412  0.213-   9 2.25  16 2.26  28 2.26  27 2.36  15 2.36
  41  0.147  0.846  0.128-  20 2.19   1 2.25  17 2.26  30 2.26  29 2.36  45 2.75
  42  0.297  0.696  0.256-  31 2.03   2 2.25  18 2.26  30 2.36  17 2.36
  43  0.447  0.545  0.384-  19 2.02  32 2.12   3 2.25  18 2.36  44 2.62  31 2.64
  44  0.554  0.422  0.494-   4 2.07  32 2.08  19 2.09  43 2.62
  45  0.893  0.942  0.062-  29 2.05   6 2.09  20 2.09  41 2.75  68 2.76  54 2.79
  46  0.369  0.286  0.052-  34 2.06   5 2.10  21 2.14  33 2.19
  47  0.530  0.129  0.171-   5 2.11  22 2.26  35 2.26  34 2.36  21 2.36   6 2.42
  48  0.680  0.979  0.299-  36 2.05   8 2.25  23 2.26  35 2.36  22 2.36  49 2.74
  49  0.806  0.869  0.415-  24 2.04   7 2.12  36 2.15  23 2.18  48 2.74
  50  0.412  0.934  0.066-   1 2.09  26 2.11  21 2.12  51 2.61
  51  0.528  0.798  0.171-  26 2.02  22 2.25  27 2.26   2 2.26   1 2.36  50 2.61
  52  0.678  0.648  0.299-  23 2.25  28 2.26   3 2.26  27 2.36   2 2.36
  53  0.829  0.497  0.427-   4 2.07  24 2.08  25 2.24  32 2.30  28 2.36   3 2.36
  54  0.779  0.224  0.104-   5 2.04  29 2.07  15 2.11   6 2.21  55 2.76  45 2.79
  55  0.911  0.081  0.214-   6 2.12  16 2.25   8 2.26  30 2.26  29 2.36  54 2.76
  56  0.062  0.931  0.342-   7 2.05  31 2.06  13 2.25  30 2.36   8 2.36
  57  0.145  0.515  0.129-  12 2.06  33 2.08  17 2.25  34 2.26   9 2.26  20 2.28  60 2.44
  58  0.295  0.364  0.257-  18 2.25  10 2.26  35 2.26   9 2.36  34 2.36
  59  0.445  0.214  0.385-  19 2.08  11 2.10  36 2.11  35 2.36  10 2.36
  60  0.058  0.575  0.017-  20 2.08  12 2.12  33 2.13  57 2.44
  61  0.376  0.643  0.010-   1 2.05  14 2.05  33 2.06  62 2.77
  62  0.477  0.512  0.128-  14 2.03  34 2.25  15 2.26   2 2.26   1 2.36  33 2.61  61 2.77
  63  0.628  0.362  0.256-  35 2.25   3 2.26  16 2.26   2 2.36  15 2.36
  64  0.778  0.212  0.384-   4 2.05  36 2.15  13 2.26  16 2.36   3 2.36
  65  0.964  0.230  0.496-   4 2.04  13 2.05  25 2.08  38 2.61
  66  0.011  0.645  0.299-   7 2.02  28 2.25  18 2.26   8 2.36  17 2.36
  67  0.177  0.472  0.410-  19 2.08  18 2.09  25 2.19
  68  0.861  0.795  0.171-   6 2.19  20 2.23  27 2.25  17 2.26   8 2.26  45 2.76
  69  0.096  0.226  0.097-   9 2.07  21 2.19  12 2.21  29 2.22
  70  0.244  0.079  0.214-  30 2.25  22 2.26  10 2.26   9 2.36  21 2.36
  71  0.395  0.928  0.342-  11 2.04  31 2.16  23 2.26  10 2.36  22 2.36
  72  0.549  0.812  0.461-  24 2.07  23 2.08  32 2.13  11 2.22

  LATTYP: Found a base centered orthorhombic cell.
 ALAT       =    11.4527836704
 B/A-ratio  =     1.4485816945
 C/A-ratio  =     1.7908432109

  Lattice vectors:

 A1 = (  10.0797329849,   0.0000000000,   0.0000000000)
 A2 = (  -3.5732980427,  -9.4251025535,   0.0000000000)
 A3 = (   0.0000000000,   0.0000000000, -20.5101398818)

Analysis of symmetry for initial positions (statically):
 Subroutine PRICEL returns:
 Original cell was already a primitive cell.

 Routine SETGRP: Setting up the symmetry group for a
 base centered orthorhombic supercell.

 Subroutine GETGRP returns: Found  1 space group operations
 (whereof  1 operations were pure point group operations)
 out of a pool of  8 trial point group operations.

The static configuration has the point symmetry C_1 .

Analysis of symmetry for dynamics (positions and initial velocities):
 Subroutine PRICEL returns:
 Original cell was already a primitive cell.

 Routine SETGRP: Setting up the symmetry group for a
 base centered orthorhombic supercell.

 Subroutine GETGRP returns: Found  1 space group operations
 (whereof  1 operations were pure point group operations)
 out of a pool of  8 trial point group operations.

The dynamic configuration has the point symmetry C_1 .

 Subroutine INISYM returns: Found  1 space group operations
 (whereof  1 operations are pure point group operations),
 and found     1 'primitive' translations

 KPOINTS: gamma-point-only calculation. no periodi

Automatic generation of k-mesh.
Space group operators:
 irot       det(A)        alpha          n_x          n_y          n_z        tau_x        tau_y        tau_z
    1     1.000000     0.000000     1.000000     0.000000     0.000000     0.000000     0.000000     0.000000

 Subroutine IBZKPT returns following result:

 Found      1 irreducible k-points:

 Following reciprocal coordinates:
            Coordinates               Weight
  0.000000  0.000000  0.000000      1.000000

 Following cartesian coordinates:
            Coordinates               Weight
  0.000000  0.000000  0.000000      1.000000

 SYSTEM =  "Millerite NiS"
 POSCAR =  Type_036 Type_136

 Startparameter for this run:
   NWRITE =      2    write-flag & timer
   PREC   = normal    normal or accurate (medium, high low for compatibility)
   ISTART =      0    job   : 0-new  1-cont  2-samecut
   ICHARG =      2    charge: 1-file 2-atom 10-const
   ISPIN  =      1    spin polarized calculation?
   LNONCOLLINEAR =      F non collinear calculations
   LSORBIT =      F    spin-orbit coupling
   INIWAV =      1    electr: 0-lowe 1-rand  2-diag
   LASPH  =      F    aspherical Exc in radial PAW
   METAGGA=      F    non-selfconsistent MetaGGA calc.

 Electronic Relaxation 1
   ENCUT  =  450.0 eV  33.07 Ry    5.75 a.u.  17.43 17.43 35.48*2*pi/ulx,y,z
   ENINI  =  450.0     initial cutoff
   ENAUG  =  703.4 eV  augmentation charge cutoff
   NELM   =    100;   NELMIN=  2; NELMDL= -5     # of ELM steps
   EDIFF  = 0.1E-03   stopping-criterion for ELM
   LREAL  =      T    real-space projection
   NLSPLINE    = F    spline interpolate recip. space projectors
   LCOMPAT=      F    compatible to vasp.4.4
   GGA_COMPAT  = T    GGA compatible to vasp.4.4-vasp.4.6
   LMAXPAW     = -100 max onsite density
   LMAXMIX     =    2 max onsite mixed and CHGCAR
   VOSKOWN=      0    Vosko Wilk Nusair interpolation
   ROPT   =   -0.00050  -0.00050
 Ionic relaxation
[...]
  Fock        0.00000     0.00000     0.00000     0.00000     0.00000     0.00000
  Total      82.37486    72.20238    99.73047     3.18124     6.42187    -0.61733
  in kB      67.73319    59.36881    82.00394     2.61580     5.28042    -0.50760

 VOLUME and BASIS-vectors are now :
  energy-cutoff  :      450.00
  volume of cell :     1948.51
      direct lattice vectors                 reciprocal lattice vectors
    10.079732985  0.000000000  0.000000000     0.099208977 -0.037612667  0.000000000
     3.573298043  9.425102554  0.000000000     0.000000000  0.106099641  0.000000000
     0.000000000  0.000000000 20.510139882     0.000000000  0.000000000  0.048756372

  length of vectors
    10.079732985 10.079732985 20.510139882     0.106099641  0.106099641  0.048756372

 FORCES acting on ions
    electron-ion (+dipol)            ewald-force                    non-local-force                 convergence-correction
   0.420E+03 -.675E+03 0.373E+04   -.424E+03 0.678E+03 -.374E+04   0.328E+01 -.313E+01 0.345E+01   0.846E-02 -.139E-01 0.191E-02
   0.426E+03 -.222E+03 0.321E+03   -.427E+03 0.222E+03 -.320E+03   0.371E+00 -.629E+00 -.624E+00   0.401E-01 0.171E-01 0.423E-01
   0.459E+03 -.526E+01 -.215E+04   -.460E+03 0.558E+01 0.214E+04   0.145E+01 -.771E+00 0.312E+01   0.223E-01 0.163E-01 0.285E-01
   0.189E+03 0.520E+03 -.522E+04   -.193E+03 -.523E+03 0.522E+04   0.331E+01 0.399E+01 -.579E+01   0.340E-02 0.882E-02 -.976E-02
   -.322E+03 0.508E+03 0.462E+04   0.322E+03 -.509E+03 -.463E+04   0.825E+00 0.105E+01 0.453E+01   -.859E-02 0.104E-01 -.323E-01
   0.444E+03 0.821E+02 0.275E+04   -.449E+03 -.839E+02 -.275E+04   0.357E+01 0.242E+01 0.547E-01   -.213E-01 -.138E-01 0.104E-01
   -.161E+03 0.255E+02 -.398E+04   0.160E+03 -.235E+02 0.398E+04   0.132E+01 -.218E+01 0.554E+00   -.121E-01 -.156E-01 0.465E-01
   0.357E+03 -.196E+03 -.585E+03   -.358E+03 0.197E+03 0.585E+03   0.115E+01 -.541E+00 0.374E-01   -.284E-01 -.298E-01 0.608E-01
   0.393E+03 0.958E+02 0.139E+04   -.393E+03 -.970E+02 -.139E+04   0.718E+00 0.116E+01 -.200E+01   -.167E-01 0.278E-01 0.261E-01
   0.465E+03 -.127E+03 -.159E+04   -.466E+03 0.128E+03 0.159E+04   0.122E+01 -.137E+01 0.226E+01   0.207E-02 -.264E-02 0.452E-01
   0.386E+03 -.911E+02 -.482E+04   -.384E+03 0.914E+02 0.482E+04   -.153E+01 -.264E+00 -.179E+01   0.218E-01 -.192E-01 0.108E-01
   0.450E+03 0.273E+03 0.448E+04   -.454E+03 -.274E+03 -.449E+04   0.366E+01 0.126E+01 0.509E+01   -.146E-01 0.349E-01 0.382E-02
   0.428E+02 0.933E+03 -.396E+04   -.452E+02 -.939E+03 0.396E+04   0.152E+01 0.418E+01 0.737E+00   -.189E-01 -.864E-03 0.260E-01
   -.352E+03 0.435E+03 0.540E+04   0.351E+03 -.432E+03 -.540E+04   0.120E+01 -.326E+01 0.297E+01   0.430E-02 0.117E-01 -.228E-01
   -.212E+03 0.539E+03 0.249E+04   0.214E+03 -.541E+03 -.249E+04   -.168E+01 0.220E+01 -.117E+01   0.339E-01 0.389E-01 0.368E-01
   -.882E+02 0.576E+03 -.510E+03   0.879E+02 -.576E+03 0.509E+03   0.364E+00 0.432E+00 0.864E+00   -.599E-02 0.465E-01 0.514E-01
   -.907E+02 0.346E+03 0.117E+04   0.916E+02 -.346E+03 -.117E+04   -.526E+00 0.419E-01 -.180E+01   -.149E-01 -.313E-01 0.235E-01
   -.955E+01 0.174E+03 -.194E+04   0.792E+01 -.174E+03 0.194E+04   0.175E+01 0.115E+01 0.162E+01   0.102E-02 0.221E-01 0.392E-01
   0.396E+03 -.285E+02 -.473E+04   -.398E+03 0.268E+02 0.473E+04   0.365E+00 0.100E+01 -.157E+01   0.168E-01 0.572E-02 0.276E-02
   0.265E+03 -.396E+03 0.452E+04   -.268E+03 0.400E+03 -.453E+04   0.232E+01 -.399E+01 0.694E+01   -.210E-01 -.297E-01 -.723E-02
   0.231E+03 0.636E+03 0.394E+04   -.233E+03 -.639E+03 -.395E+04   0.950E+00 0.290E+01 0.259E+01   0.146E-01 -.293E-02 -.344E-02
   0.328E+02 0.472E+03 0.548E+03   -.335E+02 -.473E+03 -.548E+03   0.676E+00 0.471E+00 0.721E-01   0.654E-02 -.282E-01 0.376E-01
   0.577E+02 0.132E+03 -.251E+04   -.577E+02 -.135E+03 0.251E+04   -.214E+00 0.388E+01 0.247E+01   0.171E-01 -.319E-01 0.460E-01
   -.767E+03 -.162E+03 -.525E+04   0.769E+03 0.162E+03 0.525E+04   -.151E+01 -.941E+00 0.258E+00   0.701E-02 -.548E-02 0.460E-02
   -.681E+03 -.295E+03 -.461E+04   0.686E+03 0.300E+03 0.461E+04   -.342E+01 -.353E+01 -.260E+01   -.180E-01 0.181E-01 0.136E-01
   -.676E+03 -.731E+03 0.463E+04   0.676E+03 0.732E+03 -.463E+04   0.104E+01 -.213E+00 0.169E+01   0.176E-01 -.216E-01 0.252E-01
   -.448E+03 -.348E+03 0.141E+04   0.448E+03 0.348E+03 -.141E+04   -.361E+00 -.494E+00 -.168E+01   0.216E-01 -.388E-03 0.392E-01
   -.578E+03 -.247E+03 -.152E+04   0.579E+03 0.247E+03 0.152E+04   -.216E+00 -.830E+00 0.175E+01   -.305E-01 0.288E-01 0.188E-01
   -.482E+03 -.180E+03 0.421E+04   0.489E+03 0.181E+03 -.421E+04   -.514E+01 -.487E+00 0.332E+01   -.213E-02 0.773E-02 -.942E-02
   -.451E+03 -.376E+03 0.523E+03   0.451E+03 0.377E+03 -.524E+03   -.306E+00 -.115E+01 0.150E+01   0.261E-01 -.157E-01 0.496E-01
   -.228E+03 -.109E+03 -.293E+04   0.230E+03 0.111E+03 0.293E+04   -.306E+00 -.149E+01 -.206E+00   0.229E-02 -.186E-01 0.446E-01
   0.640E+03 -.550E+03 -.483E+04   -.643E+03 0.554E+03 0.483E+04   0.359E+01 -.241E+01 -.323E+01   0.345E-01 0.551E-02 -.740E-02
   0.539E+02 -.163E+02 0.512E+04   -.515E+02 0.173E+02 -.513E+04   -.254E+01 -.167E+01 0.872E+01   -.339E-02 0.267E-02 -.230E-01
   -.117E+03 -.138E+03 0.219E+04   0.117E+03 0.138E+03 -.219E+04   -.459E+00 0.771E+00 -.314E+01   0.647E-02 0.139E-01 0.248E-03
   -.361E+03 -.252E+03 -.562E+03   0.362E+03 0.254E+03 0.560E+03   -.487E+00 -.153E+01 0.129E+01   0.114E-01 0.510E-02 0.513E-01
   -.421E+03 -.137E+03 -.378E+04   0.423E+03 0.140E+03 0.379E+04   -.142E+01 -.247E+01 -.203E+01   -.996E-03 -.110E-01 0.379E-01
   -.127E+03 0.904E+02 -.650E+03   0.128E+03 -.898E+02 0.646E+03   -.170E+01 -.572E+00 0.104E+01   -.828E-02 0.728E-02 0.113E-01
   -.696E+02 0.174E+03 -.184E+04   0.704E+02 -.175E+03 0.185E+04   -.469E+00 0.715E+00 -.111E+01   -.234E-02 -.367E-02 0.721E-02
   -.226E+03 0.492E+02 0.177E+04   0.228E+03 -.492E+02 -.177E+04   -.129E+01 -.619E+00 0.218E+01   0.130E-01 0.105E-01 0.147E-01
   -.117E+03 0.739E+02 0.429E+03   0.118E+03 -.742E+02 -.429E+03   -.142E+01 0.548E+00 0.762E+00   -.786E-02 0.258E-01 0.199E-01
   -.172E+03 -.176E+03 0.133E+04   0.175E+03 0.176E+03 -.133E+04   -.150E+01 0.678E+00 0.191E+01   0.380E-02 -.118E-01 -.300E-02
   -.117E+03 0.529E+02 0.526E+02   0.119E+03 -.541E+02 -.539E+02   -.165E+01 0.238E-01 -.450E+00   0.288E-02 -.266E-02 0.256E-01
   0.169E+03 -.189E+03 -.114E+04   -.169E+03 0.192E+03 0.114E+04   -.290E+00 -.404E+00 0.138E+01   0.562E-02 -.483E-03 0.860E-02
   0.266E+03 0.716E+02 -.217E+04   -.267E+03 -.735E+02 0.218E+04   -.137E+00 0.947E+00 -.243E+01   0.360E-02 0.244E-02 -.171E-02
   0.132E+03 -.447E+02 0.211E+04   -.135E+03 0.458E+02 -.212E+04   0.139E+01 -.176E+01 0.377E+01   -.575E-02 -.105E-01 -.154E-01
   0.999E+02 0.233E+03 0.220E+04   -.100E+03 -.234E+03 -.221E+04   0.453E+00 0.619E+00 0.199E+01   0.308E-02 0.459E-02 -.146E-01
   -.819E+02 0.208E+03 0.802E+03   0.823E+02 -.210E+03 -.801E+03   -.224E+00 0.119E+01 -.249E+00   -.154E-02 -.348E-02 0.536E-02
   -.117E+03 0.661E+02 -.265E+03   0.118E+03 -.670E+02 0.263E+03   -.223E+01 0.291E+00 -.146E+00   -.565E-02 -.692E-02 0.248E-01
   -.304E+03 -.122E+03 -.168E+04   0.307E+03 0.122E+03 0.168E+04   -.151E+01 -.790E+00 -.121E+01   -.621E-02 -.166E-01 0.124E-01
   0.226E+02 -.239E+03 0.190E+04   -.227E+02 0.241E+03 -.191E+04   0.580E+00 -.344E+00 0.325E+01   0.394E-02 -.545E-02 -.715E-02
   0.357E+02 -.249E+03 0.634E+03   -.366E+02 0.250E+03 -.631E+03   0.452E+00 -.176E+01 -.578E+00   0.160E-01 -.145E-01 0.124E-01
   0.164E+02 -.195E+03 -.406E+03   -.166E+02 0.197E+03 0.407E+03   0.190E+00 -.247E+01 -.140E+01   0.122E-01 -.675E-02 0.828E-02
   -.294E+03 -.879E+02 -.161E+04   0.296E+03 0.909E+02 0.161E+04   -.128E+01 -.187E+01 -.655E+00   -.464E-02 0.169E-01 0.165E-02
   -.161E+03 -.141E+02 0.162E+04   0.161E+03 0.172E+02 -.163E+04   -.122E-01 -.192E+01 0.221E+01   -.321E-02 0.722E-02 -.615E-02
   -.602E+02 -.166E+03 0.302E+03   0.604E+02 0.168E+03 -.300E+03   0.856E+00 -.243E+01 0.286E+00   -.531E-03 0.137E-01 0.189E-01
   -.334E+02 -.179E+03 -.102E+04   0.342E+02 0.181E+03 0.102E+04   -.794E+00 -.436E+00 -.109E+01   0.333E-02 -.968E-02 0.290E-01
   0.338E+02 -.353E+02 0.996E+03   -.328E+02 0.352E+02 -.991E+03   -.499E+00 0.999E+00 -.149E+01   -.771E-02 0.633E-02 -.117E-02
   0.312E+02 -.159E+03 -.125E+03   -.313E+02 0.161E+03 0.126E+03   0.200E+00 -.216E+01 -.163E+01   -.414E-03 0.828E-02 0.192E-01
   0.451E+02 -.155E+03 -.134E+04   -.448E+02 0.157E+03 0.134E+04   0.332E-01 -.163E+01 -.158E+01   0.634E-02 -.270E-03 0.148E-01
   0.181E+03 -.375E+02 0.225E+04   -.183E+03 0.392E+02 -.226E+04   0.163E+01 -.144E+01 0.498E+01   -.307E-02 -.199E-03 -.114E-01
   0.764E+02 -.198E+03 0.226E+04   -.768E+02 0.200E+03 -.226E+04   0.107E+00 -.161E+01 0.136E+01   -.223E-02 -.731E-03 -.142E-01
   0.125E+03 0.193E+02 0.101E+04   -.127E+03 -.192E+02 -.101E+04   0.118E+01 -.263E+00 -.718E+00   -.473E-02 0.569E-02 0.702E-03
   0.145E+03 0.813E+02 -.164E+02   -.147E+03 -.831E+02 0.165E+02   0.194E+01 0.183E+01 0.389E-01   0.107E-01 0.626E-02 0.264E-01
   0.893E+02 0.254E+03 -.117E+04   -.915E+02 -.256E+03 0.117E+04   0.207E+01 0.112E+01 -.517E+00   0.674E-03 0.559E-02 0.119E-01
   -.946E+02 0.245E+03 -.226E+04   0.949E+02 -.246E+03 0.227E+04   -.250E+00 0.660E+00 -.206E+01   -.654E-02 0.289E-03 0.270E-02
   0.940E+02 0.128E+03 -.416E+03   -.956E+02 -.130E+03 0.417E+03   0.106E+01 0.686E+00 -.175E+01   -.946E-02 -.656E-02 0.225E-01
   0.747E+02 -.127E+03 -.163E+04   -.755E+02 0.129E+03 0.163E+04   -.764E-01 -.907E+00 -.288E+00   0.102E-02 0.738E-02 0.483E-02
   0.217E+03 -.214E+02 0.810E+03   -.220E+03 0.195E+02 -.810E+03   0.264E+01 0.126E+01 0.937E+00   -.240E-01 -.283E-01 0.554E-02
   0.165E+03 0.182E+03 0.173E+04   -.167E+03 -.182E+03 -.173E+04   0.408E+00 -.116E+01 0.902E+00   -.184E-03 0.111E-01 -.744E-02
   0.165E+03 0.889E+02 0.415E+03   -.166E+03 -.903E+02 -.416E+03   0.186E+01 0.112E+01 0.793E+00   0.417E-02 -.196E-02 0.149E-01
   0.205E+03 0.119E+03 -.810E+03   -.208E+03 -.122E+03 0.808E+03   0.201E+01 0.169E+01 -.593E+00   0.109E-02 -.105E-01 0.165E-01
   0.304E+03 -.189E+03 -.207E+04   -.305E+03 0.189E+03 0.208E+04   0.769E-01 0.281E+00 -.174E+01   0.154E-01 -.110E-01 0.203E-02
   -.183E+02 0.164E+02 -.354E+02   -.909E-12 0.398E-12 0.209E-10   0.183E+02 -.163E+02 0.343E+02   0.104E+00 0.167E-01 0.969E+00

 POSITION                                       TOTAL-FORCE (eV/Angst)
      6.45801      7.08167      1.95077        -0.854293      0.422182      1.783243
      7.43572      5.66537      4.57627        -0.018454     -0.112193      0.029581
      8.41343      4.24907      7.20177         0.055444     -0.438977     -0.994180
      8.90338      3.19328      9.51961        -0.914241      0.579924      0.793876
      6.63277      2.20830      1.83565         0.739943     -0.387925     -0.691505
      7.95586      0.20912      3.03126        -1.827008      0.631450      0.296089
      2.86214      7.19575      7.75776         0.299422     -0.188145      1.434668
     12.31264      8.33497      5.45144        -0.073276      0.143665     -0.042272
      2.55881      2.99577      3.70110         0.279322      0.033172      1.598339
      3.53652      1.57947      6.32660         0.266457     -0.285552     -0.384182
      4.41395      0.25803      8.68138         0.478388      0.037464      1.107105
     11.60053      4.30467      1.76214        -0.687968     -0.436455     -0.787074
      0.51382      1.09100      8.43993        -0.919703     -1.402959     -2.053357
      7.75814      5.14500      0.96876         0.919637     -0.929218     -0.907623
      8.63813      3.92359      3.18892        -0.027657      0.307203      0.638362
      9.61584      2.50729      5.81443         0.016013     -0.057119     -0.081880
      3.43531      6.59319      4.06409         0.364413     -0.194642      1.268329
      4.41302      5.17689      6.68959         0.118426      0.616364     -0.985379
      5.38200      3.81190      8.94783        -0.759449     -0.775923      0.996028
      2.76430      6.91002      1.80820        -0.012055     -0.379579     -0.311877
      3.76121      1.25399      2.31376        -0.451539     -0.304975      0.580204
      8.31222      9.26279      4.93926         0.034144     -0.155937     -0.081982
      9.28993      7.84650      7.56476        -0.172401      0.849404     -2.200717
     10.24769      6.65292      9.43371         0.369547     -0.367820      0.745136
      1.72914      3.21450      8.90223         1.618140      1.571304      0.818877
      8.87422      7.24494      1.64006         1.201393      0.776478     -0.842241
      9.84053      6.03956      3.88260        -0.194967      0.068626      0.242365
     10.81824      4.62327      6.50810         0.041018     -0.020497     -0.144342
     10.16643      0.70036      2.13226         2.244998     -0.009027      0.637338
      4.63771      8.70917      4.75776         0.150445      0.158886     -0.073823
      5.55082      7.47577      7.05562         0.915769     -0.234605      1.303881
      8.05141      5.56782      9.20031         0.463882      1.150718      0.401655
      4.59524      4.87880      1.02112        -0.123101     -0.701348     -0.293671
      4.96362      3.36996      3.00743        -0.529047      0.836294      2.201454
      5.94133      1.95367      5.63293         0.097408     -0.020486      0.010029
      6.89067      0.69508      7.96474         0.331209      0.574215      1.041337
      1.57981      2.47018      7.00134        -0.836251      0.116569     -2.927719
      2.57263      1.20103      8.99834         0.339795     -0.825760      2.254865
      9.70412      5.30277      1.75033         0.761669     -0.612663     -0.651404
     10.68183      3.88647      4.37584        -0.263479      0.247310      0.444897
      4.50130      7.97237      2.62550         1.217159      0.574306     -0.040085
      5.47901      6.55607      5.25100        -0.157172     -1.151322     -1.705877
      6.45673      5.13978      7.87651         0.170453      2.078814     -1.601232
      7.09437      3.97966     10.13705        -1.482475     -0.896016      2.533957
     12.36282      8.87431      1.27667        -1.185727     -0.634813     -3.304339
      4.74410      2.69721      1.06978         0.087054     -0.548079     -3.429064
      5.80492      1.21687      3.50067         0.184608     -0.752251      0.753141
     10.35593      9.22568      6.12617        -0.517994     -0.579270     -2.634683
     11.22739      8.19048      8.50990         1.526681     -0.270256      1.721484
      7.48525      8.79969      1.34775         0.453452      1.097918     -1.940233
      8.17302      7.52069      3.51693        -0.389361     -0.047075      2.452813
      9.15074      6.10439      6.14243        -0.022990     -0.132757     -0.510131
     10.12845      4.68809      8.76794         1.626370      1.153534     -0.476210
      8.64831      2.10714      2.12365         0.280327      1.262903     -1.334464
      9.47664      0.76519      4.39210         0.999824      0.111783      2.084786
      3.94792      8.77399      7.01760         0.017183      1.425719      0.115080
      3.29611      4.85108      2.64176         0.436706      0.871804      3.053690
      4.27382      3.43479      5.26727         0.107171      0.032284     -0.429925
      5.25153      2.01849      7.89277         0.322176      0.436024     -0.494035
      2.64423      5.42215      0.35864        -0.679544      0.185519     -2.919015
      6.08175      6.05800      0.21121        -0.251009      0.431062     -3.658000
      6.64193      4.82628      2.63363        -0.800078     -0.177195      2.244834
      7.61964      3.40999      5.25914        -0.029073      0.047669      0.194994
      8.59735      1.99369      7.88464        -0.120349     -1.193572     -1.258480
     10.53702      2.16987     10.17897         0.085467     -0.698671      3.908348
      2.41682      6.07959      6.13430        -0.511870     -1.119750     -1.648994
      3.47318      4.44813      8.41167        -0.941965      0.895868      1.859402
     11.51884      7.49589      3.50880        -0.879812     -0.668860      0.872359
      1.77781      2.12630      1.99329        -1.190171     -0.798072     -1.833973
      2.74272      0.74039      4.38397         0.178818     -0.288265      0.469833
      7.29374      8.74919      7.00947        -0.795366     -1.102471     -2.030422
      8.43047      7.65093      9.44837        -1.180486      0.174064      2.812008
    total drift:                                0.141523      0.106899     -0.084602

  FREE ENERGIE OF THE ION-ELECTRON SYSTEM (eV)
  free  energy   TOTEN  =      -352.83349207 eV

  energy  without entropy=     -351.89830616  energy(sigma->0) =     -352.36589912