 vasp.5.4.4.18Apr17-6-g9f103f2a35 (build Aug 13 2019 17:33:20) gamma-only

 executed on             LinuxIFC date 2020.05.10  12:18:18

 INCAR:
 POTCAR:    PAW_PBE Ni_pv 06Sep2000
 POTCAR:    PAW_PBE S 06Sep2000
 POTCAR:    PAW_PBE Ni_pv 06Sep2000
   VRHFIN =Ni:

   TITEL  = PAW_PBE Ni_pv 06Sep2000
   POMASS =   58.690; ZVAL   =   16.000    mass and valenz
   ENMAX  =  367.986; ENMIN  =  275.989 eV

 POTCAR:    PAW_PBE S 06Sep2000
   VRHFIN =S : s2p4

   TITEL  = PAW_PBE S 06Sep2000
   POMASS =   32.066; ZVAL   =    6.000    mass and valenz
   ENMAX  =  258.689; ENMIN  =  194.016 eV

 Optimization of the real space projectors (new method)

 maximal supplied QI-value         = 18.90
 optimisation between [QCUT,QGAM] = [ 10.77, 21.73] = [ 32.49,132.25] Ry
 Optimized for a Real-space Cutoff    1.38 Angstroem

   l    n(q)    QCUT    max X(q) W(low)/X(q) W(high)/X(q)  e(spline)
   1      8    10.771     2.836    0.40E-04    0.29E-04    0.12E-06
   1      8    10.771     4.023    0.10E-03    0.48E-04    0.29E-06
   2      8    10.771    73.368    0.42E-03    0.97E-04    0.44E-06
   2      8    10.771    69.010    0.42E-03    0.99E-04    0.45E-06
   0      9    10.771    54.797    0.10E-03    0.56E-04    0.74E-07
   0      9    10.771    24.266    0.89E-04    0.49E-04    0.67E-07
 Optimization of the real space projectors (new method)

 maximal supplied QI-value         = 19.84
 optimisation between [QCUT,QGAM] = [ 10.71, 21.63] = [ 32.15,130.99] Ry
 Optimized for a Real-space Cutoff    1.19 Angstroem

   l    n(q)    QCUT    max X(q) W(low)/X(q) W(high)/X(q)  e(spline)
   0      8    10.715   187.594    0.41E-03    0.53E-04    0.66E-07
   0      8    10.715   164.243    0.41E-03    0.53E-04    0.65E-07
   1      7    10.715    67.533    0.19E-03    0.59E-03    0.68E-07
   1      7    10.715    50.729    0.19E-03    0.58E-03    0.67E-07
  PAW_PBE Ni_pv 06Sep2000               :
  PAW_PBE S 06Sep2000                   :

 POSCAR: Type_026 Type_126
  positions in cartesian coordinates
 exchange correlation table for  LEXCH =        8
   RHO(1)=    0.500       N(1)  =     2000
   RHO(2)=  100.500       N(2)  =     4000

 ion  position               nearest neighbor table
   1  0.439  0.464  0.163-  45 2.07  37 2.10  30 2.25  38 2.36  46 2.36   5 2.53  22 2.53
   2  0.485  0.466  0.324-  47 2.01  46 2.06  38 2.07  31 2.13
   3  0.140  0.050  0.135-  27 2.01  28 2.12  35 2.27  39 2.29   4 2.34
   4  0.215  0.964  0.253-  40 2.19  36 2.19  28 2.25  39 2.26  35 2.26   3 2.34  26 2.46  12 2.53
                             8 2.53
   5  0.439  0.200  0.163-  41 2.07  37 2.10  35 2.25  38 2.36  42 2.36   1 2.53  22 2.53
   6  0.485  0.197  0.324-  43 2.01  42 2.06  38 2.07  36 2.13
   7  0.140  0.614  0.135-  32 2.01  33 2.12  30 2.27  39 2.29   8 2.34
   8  0.215  0.700  0.253-  40 2.19  31 2.19  33 2.25  39 2.26  30 2.26   7 2.34  26 2.46  12 2.53
                             4 2.53
   9  0.131  0.332  0.139-  27 2.08  32 2.08  37 2.10  28 2.36  33 2.36  18 2.53  14 2.53
  10  0.182  0.332  0.319-  29 2.03  34 2.03  38 2.25  28 2.26  33 2.26  19 2.53  15 2.53
  11  0.430  0.832  0.093-  51 2.06  30 2.16  35 2.16  52 2.35  12 2.35  16 2.48  20 2.48
  12  0.407  0.832  0.229-  31 2.18  36 2.18  52 2.25  30 2.26  35 2.26  11 2.35  13 2.45   8 2.53
                             4 2.53
  13  0.373  0.832  0.370-  40 2.01  36 2.03  31 2.03  12 2.45
  14  0.939  0.464  0.163-  32 2.05  49 2.09  44 2.25  50 2.36  33 2.36  18 2.53   9 2.53
  15  0.987  0.461  0.324-  34 2.00  50 2.06  33 2.06  19 2.48  10 2.53
  16  0.584  0.013  0.113-  41 2.01  52 2.08  51 2.23  24 2.47  11 2.48  42 2.62
  17  0.710  0.972  0.234-  48 2.05  52 2.11  42 2.14
  18  0.939  0.200  0.163-  27 2.05  49 2.09  48 2.25  50 2.36  28 2.36  14 2.53   9 2.53
  19  0.987  0.202  0.324-  29 2.00  50 2.06  28 2.06  15 2.48  10 2.53
  20  0.584  0.650  0.113-  45 2.01  52 2.08  51 2.23  24 2.47  11 2.48  46 2.62
  21  0.710  0.692  0.234-  44 2.05  52 2.11  46 2.14
  22  0.631  0.332  0.139-  41 2.08  45 2.08  49 2.10  42 2.36  46 2.36   5 2.53   1 2.53
  23  0.682  0.332  0.319-  43 2.02  47 2.02  50 2.25  42 2.26  46 2.26
  24  0.740  0.832  0.103-  44 2.10  48 2.10  51 2.11  52 2.12  20 2.47  16 2.47  25 2.53
  25  0.902  0.832  0.204-  48 2.01  44 2.01  39 2.18  26 2.29  24 2.53
  26  0.042  0.832  0.300-  40 1.97  39 2.15  25 2.29   8 2.46   4 2.46
  27  0.049  0.185  0.068-   3 2.01  18 2.05   9 2.08
  28  0.111  0.164  0.239-  19 2.06   3 2.12   4 2.25  10 2.26   9 2.36  18 2.36
  29  0.121  0.197  0.400-  19 2.00  10 2.03  34 2.58
  30  0.336  0.664  0.149-  11 2.16   1 2.25  12 2.26   8 2.26   7 2.27  31 2.77
  31  0.387  0.653  0.306-  13 2.03   2 2.13  12 2.18   8 2.19  30 2.77
  32  0.049  0.479  0.068-   7 2.01  14 2.05   9 2.08
  33  0.111  0.500  0.239-  15 2.06   7 2.12   8 2.25  10 2.26   9 2.36  14 2.36
  34  0.121  0.466  0.400-  15 2.00  10 2.03  29 2.58
  35  0.336  1.000  0.149-  11 2.16   5 2.25  12 2.26   4 2.26   3 2.27  36 2.77
  36  0.387  0.010  0.306-  13 2.03   6 2.13  12 2.18   4 2.19  35 2.77
  37  0.312  0.332  0.112-   9 2.10   5 2.10   1 2.10  38 2.77
  38  0.368  0.332  0.269-   2 2.07   6 2.07  10 2.25   1 2.36   5 2.36  37 2.77
  39  0.092  0.832  0.179-  26 2.15  25 2.18   4 2.26   8 2.26   7 2.29   3 2.29
  40  0.196  0.832  0.355-  26 1.97  13 2.01   4 2.19   8 2.19
  41  0.543  0.197  0.063-  16 2.01   5 2.07  22 2.08  45 2.58
  42  0.611  0.164  0.239-   6 2.06  17 2.14  23 2.26  22 2.36   5 2.36  16 2.62  43 2.78
  43  0.621  0.197  0.400-   6 2.01  23 2.02  47 2.58  42 2.78
  44  0.836  0.664  0.149-  25 2.01  21 2.05  24 2.10  14 2.25
  45  0.543  0.467  0.063-  20 2.01   1 2.07  22 2.08  41 2.58
  46  0.611  0.500  0.239-   2 2.06  21 2.14  23 2.26  22 2.36   1 2.36  20 2.62  47 2.78
  47  0.621  0.467  0.400-   2 2.01  23 2.02  43 2.58  46 2.78
  48  0.836  1.000  0.149-  25 2.01  17 2.05  24 2.10  18 2.25
  49  0.813  0.332  0.113-  14 2.09  18 2.09  22 2.10  50 2.75
  50  0.868  0.332  0.269-  15 2.06  19 2.06  23 2.25  14 2.36  18 2.36  49 2.75
  51  0.587  0.832  0.031-  11 2.06  24 2.11  16 2.23  20 2.23  52 2.54
  52  0.592  0.832  0.179-  20 2.08  16 2.08  17 2.11  21 2.11  24 2.12  12 2.25  11 2.35  51 2.54

  LATTYP: Found a simple orthorhombic cell.
 ALAT       =     9.5784100000
 B/A-ratio  =     1.1751911892
 C/A-ratio  =     1.7949213288

  Lattice vectors:

 A1 = (   0.0000000000,  -9.5784100000,   0.0000000000)
 A2 = ( -11.2564630382,   0.0000000000,   0.0000000000)
 A3 = (   0.0000000000,   0.0000000000, -17.1924924047)

Analysis of symmetry for initial positions (statically):
 Subroutine PRICEL returns:
 Original cell was already a primitive cell.

 Routine SETGRP: Setting up the symmetry group for a
 simple orthorhombic supercell.

 Subroutine GETGRP returns: Found  2 space group operations
 (whereof  1 operations were pure point group operations)
 out of a pool of  8 trial point group operations.

The static configuration has the point symmetry C_1 .
 The point group associated with its full space group is C_1h.

Analysis of symmetry for dynamics (positions and initial velocities):
 Subroutine PRICEL returns:
 Original cell was already a primitive cell.

 Routine SETGRP: Setting up the symmetry group for a
 simple orthorhombic supercell.

 Subroutine GETGRP returns: Found  2 space group operations
 (whereof  1 operations were pure point group operations)
 out of a pool of  8 trial point group operations.

The dynamic configuration has the point symmetry C_1 .
 The point group associated with its full space group is C_1h.

 Subroutine INISYM returns: Found  2 space group operations
 (whereof  1 operations are pure point group operations),
 and found     1 'primitive' translations

 KPOINTS: gamma-point-only calculation. no periodi

Automatic generation of k-mesh.
Space group operators:
 irot       det(A)        alpha          n_x          n_y          n_z        tau_x        tau_y        tau_z
    1     1.000000     0.000000     1.000000     0.000000     0.000000     0.000000     0.000000     0.000000
    2    -1.000000   180.000000     0.000000     1.000000     0.000000     0.000000    -0.336430     0.000000

 Subroutine IBZKPT returns following result:

 Found      1 irreducible k-points:

 Following reciprocal coordinates:
            Coordinates               Weight
  0.000000  0.000000  0.000000      1.000000

 Following cartesian coordinates:
            Coordinates               Weight
  0.000000  0.000000  0.000000      1.000000

 SYSTEM =  "Millerite NiS"
 POSCAR =  Type_026 Type_126

 Startparameter for this run:
   NWRITE =      2    write-flag & timer
   PREC   = normal    normal or accurate (medium, high low for compatibility)
   ISTART =      0    job   : 0-new  1-cont  2-samecut
   ICHARG =      2    charge: 1-file 2-atom 10-const
   ISPIN  =      1    spin polarized calculation?
   LNONCOLLINEAR =      F non collinear calculations
   LSORBIT =      F    spin-orbit coupling
   INIWAV =      1    electr: 0-lowe 1-rand  2-diag
   LASPH  =      F    aspherical Exc in radial PAW
   METAGGA=      F    non-selfconsistent MetaGGA calc.

 Electronic Relaxation 1
   ENCUT  =  450.0 eV  33.07 Ry    5.75 a.u.  19.47 16.57 29.74*2*pi/ulx,y,z
   ENINI  =  450.0     initial cutoff
   ENAUG  =  703.4 eV  augmentation charge cutoff
   NELM   =    100;   NELMIN=  2; NELMDL= -5     # of ELM steps
   EDIFF  = 0.1E-03   stopping-criterion for ELM
   LREAL  =      T    real-space projection
   NLSPLINE    = F    spline interpolate recip. space projectors
   LCOMPAT=      F    compatible to vasp.4.4
   GGA_COMPAT  = T    GGA compatible to vasp.4.4-vasp.4.6
   LMAXPAW     = -100 max onsite density
   LMAXMIX     =    2 max onsite mixed and CHGCAR
   VOSKOWN=      0    Vosko Wilk Nusair interpolation
   ROPT   =   -0.00050  -0.00050
 Ionic relaxation
   EDIFFG = 0.1E-02   stopping-criterion for IOM
   NSW    =      0    number of steps for IOM
   NBLOCK =      1;   KBLOCK =      1    inner block; outer block
   IBRION =     -1    ionic relax: 0-MD 1-quasi-New 2-CG
   NFREE  =      0    steps in history (QN), initial steepest desc. (CG)
   ISIF   =      2    stress and relaxation
   IWAVPR =     10    prediction:  0-non 1-charg 2-wave 3-comb
   ISYM   =      2    0-nonsym 1-usesym 2-fastsym
   LCORR  =      T    Harris-Foulkes like correction to forces

   POTIM  = 0.5000    time-step for ionic-motion
   TEIN   =    0.0    initial temperature
   TEBEG  =    0.0;   TEEND  =   0.0 temperature during run
   SMASS  =  -3.00    Nose mass-parameter (am)
   estimated Nose-frequenzy (Omega)   =  0.10E-29 period in steps =****** mass=  -0.290E-26a.u.
   SCALEE = 1.0000    scale energy and forces
   NPACO  =    256;   APACO  = 16.0  distance and # of slots for P.C.
   PSTRESS=    0.0 pullay stress

  Mass of Ions in am
   POMASS =  58.69 32.07
  Ionic Valenz
   ZVAL   =  16.00  6.00
  Atomic Wigner-Seitz radii
  virtual crystal weights
   VCA    =   1.00  1.00
   NELECT =     572.0000    total number of electrons
   NUPDOWN=      -1.0000    fix difference up-down

 DOS related values:
   EMIN   =  10.00;   EMAX   =-10.00  energy-range for DOS
   EFERMI =   0.00
[...]
      26 -87.0430      27 -92.4019      28 -93.4922      29 -92.2212      30 -93.1259
      31 -92.7171      32 -92.4019      33 -93.4922      34 -92.2212      35 -93.1258
      36 -92.7170      37 -92.3784      38 -93.0087      39 -93.3562      40 -92.9470
      41 -92.3893      42 -93.1408      43 -92.1312      44 -93.0973      45 -92.3893
      46 -93.1409      47 -92.1312      48 -93.0972      49 -92.3053      50 -92.9128
      51 -92.7774      52 -94.0077

 E-fermi :  -0.1027     XC(G=0):  -5.3679     alpha+bet : -5.1393

 k-point     1 :       0.0000    0.0000    0.0000
  band No.  band energies     occupation
      1     -64.8597      2.00000
      2     -64.8529      2.00000
      3     -64.8430      2.00000
      4     -64.7840      2.00000
      5     -64.7820      2.00000
      6     -64.7517      2.00000
      7     -64.7100      2.00000
      8     -64.7044      2.00000
      9     -64.6959      2.00000
     10     -64.6891      2.00000
     11     -64.6786      2.00000
     12     -64.6510      2.00000
     13     -64.6477      2.00000
     14     -64.6392      2.00000
     15     -64.6357      2.00000
     16     -64.6206      2.00000
     17     -64.6124      2.00000
     18     -64.6028      2.00000
     19     -64.5903      2.00000
     20     -64.5836      2.00000
     21     -64.5784      2.00000
     22     -64.5742      2.00000
     23     -64.5694      2.00000
     24     -64.5383      2.00000
     25     -64.5310      2.00000
     26     -64.5248      2.00000
     27     -64.5089      2.00000
     28     -64.5056      2.00000
     29     -64.5015      2.00000
     30     -64.4998      2.00000
     31     -64.4817      2.00000
     32     -64.4812      2.00000
     33     -64.4747      2.00000
     34     -64.4717      2.00000
     35     -64.4638      2.00000
     36     -64.4543      2.00000
     37     -64.4542      2.00000
     38     -64.4408      2.00000
     39     -64.3956      2.00000
     40     -64.3928      2.00000
     41     -64.3662      2.00000
     42     -64.3632      2.00000
     43     -64.3625      2.00000
     44     -64.3424      2.00000
     45     -64.3343      2.00000
     46     -64.3250      2.00000
     47     -64.3039      2.00000
     48     -64.2873      2.00000
     49     -64.2029      2.00000
     50     -64.2019      2.00000
     51     -64.1952      2.00000
     52     -64.1926      2.00000
     53     -64.1856      2.00000
     54     -64.1718      2.00000
     55     -64.1403      2.00000
     56     -64.1360      2.00000
     57     -64.1342      2.00000
     58     -64.1190      2.00000
     59     -64.1165      2.00000
     60     -64.1110      2.00000
[...]
    330       4.8242      0.00000
    331       4.8997      0.00000
    332       4.9287      0.00000
    333       5.0629      0.00000
    334       5.1610      0.00000
    335       5.3237      0.00000
    336       5.3922      0.00000
    337       5.4217      0.00000
    338       5.4580      0.00000
    339       5.5144      0.00000
    340       5.5951      0.00000
    341       5.6551      0.00000
    342       5.7294      0.00000
    343       5.7403      0.00000
    344       5.8017      0.00000

 soft charge-density along one line, spin component           1
         0         1         2         3         4         5         6         7         8         9
 total charge-density along one line

------------------------ aborting loop because EDIFF is reached ----------------------------------------

  FORCE on cell =-STRESS in cart. coord.  units (eV):
  Direction    XX          YY          ZZ          XY          YZ          ZX
  Alpha Z  1046.73971  1046.73971  1046.73971
  Ewald  158746.77810161097.75281************     0.00000    -0.00000   906.38237
  Hartree183583.80850185886.28905************    -0.00008     0.00207   420.03244
  E(xc)   -3651.29838 -3650.37291 -3654.86332     0.00003     0.00006     1.41527
  Local  ************************344217.21554     0.00209    -0.00364 -1305.67661
  n-local  -421.52057  -433.70216  -427.70151     0.03798    -0.00078    13.41994
  augment  4175.80973  4184.58903  4181.15643    -0.01865    -0.00206   -11.54955
  Kinetic  8029.66781  8006.23142  8064.00137    -0.00043     0.00055   -19.46720
  Fock        0.00000     0.00000     0.00000     0.00000     0.00000     0.00000
  Total      91.75290    81.62859   101.57235     0.00000     0.00000     4.55667
  in kB      79.30420    70.55352    87.79138     0.00000     0.00000     3.93844

 VOLUME and BASIS-vectors are now :
  energy-cutoff  :      450.00
  volume of cell :     1853.68
      direct lattice vectors                 reciprocal lattice vectors
    11.256463038  0.000000000  0.000000000     0.088837852  0.000000000  0.000000000
     0.000000000  9.578410000  0.000000000     0.000000000  0.104401461  0.000000000
     0.000000000  0.000000000 17.192492405     0.000000000  0.000000000  0.058164923

  length of vectors
    11.256463038  9.578410000 17.192492405     0.088837852  0.104401461  0.058164923

 FORCES acting on ions
    electron-ion (+dipol)            ewald-force                    non-local-force                 convergence-correction
   0.433E+03 -.182E+03 0.142E+04   -.435E+03 0.184E+03 -.142E+04   0.220E+01 -.211E+01 0.384E+01   0.896E-02 0.288E-02 0.683E-02
   0.144E+03 -.490E+03 -.309E+04   -.146E+03 0.493E+03 0.310E+04   0.695E+00 -.177E+01 -.542E+01   0.152E-01 -.552E-02 0.544E-02
   0.106E+03 0.335E+03 0.281E+04   -.106E+03 -.337E+03 -.282E+04   0.675E+00 0.108E+01 0.736E+01   -.683E-02 0.944E-02 0.706E-03
   0.178E+03 -.500E+03 -.117E+04   -.178E+03 0.504E+03 0.118E+04   0.418E-01 -.318E+01 -.305E+01   -.429E-02 0.172E-02 0.681E-02
   0.433E+03 0.182E+03 0.142E+04   -.435E+03 -.184E+03 -.142E+04   0.220E+01 0.211E+01 0.384E+01   0.896E-02 -.288E-02 0.683E-02
   0.144E+03 0.490E+03 -.309E+04   -.146E+03 -.493E+03 0.310E+04   0.695E+00 0.177E+01 -.542E+01   0.152E-01 0.552E-02 0.544E-02
   0.106E+03 -.335E+03 0.281E+04   -.106E+03 0.337E+03 -.282E+04   0.675E+00 -.108E+01 0.736E+01   -.683E-02 -.945E-02 0.707E-03
   0.178E+03 0.500E+03 -.117E+04   -.178E+03 -.504E+03 0.118E+04   0.418E-01 0.318E+01 -.305E+01   -.429E-02 -.172E-02 0.681E-02
   -.385E+03 0.410E-02 0.228E+04   0.389E+03 0.494E-07 -.229E+04   -.403E+01 0.000E+00 0.260E+01   -.132E-01 0.233E-05 0.506E-02
   -.556E+03 0.528E-02 -.263E+04   0.564E+03 0.614E-08 0.263E+04   -.557E+01 0.000E+00 -.264E+01   -.986E-02 0.247E-05 0.239E-03
   0.798E+03 0.428E-02 0.366E+04   -.801E+03 -.455E-07 -.366E+04   0.146E+01 0.000E+00 0.352E+01   0.965E-02 -.111E-06 0.547E-02
   -.456E+03 0.497E-02 -.631E+03   0.459E+03 -.295E-08 0.632E+03   -.274E+01 0.000E+00 -.109E+01   0.116E-01 0.576E-06 0.165E-01
   -.549E+03 0.448E-02 -.423E+04   0.550E+03 0.241E-08 0.423E+04   0.396E+00 0.000E+00 -.133E+01   0.328E-02 0.356E-06 0.175E-02
   0.564E+03 -.448E+03 0.147E+04   -.567E+03 0.450E+03 -.147E+04   0.241E+01 -.114E+01 0.437E+01   -.334E-02 -.941E-02 0.881E-02
   0.743E+03 -.754E+03 -.303E+04   -.744E+03 0.755E+03 0.303E+04   0.201E+00 -.306E+00 -.327E+01   -.116E-01 -.481E-02 -.439E-02
   -.230E+03 -.521E+03 0.278E+04   0.229E+03 0.525E+03 -.279E+04   0.812E+00 -.453E+01 0.727E+01   0.136E-01 -.489E-03 0.119E-01
   -.342E+03 -.272E+03 -.171E+04   0.345E+03 0.276E+03 0.171E+04   -.261E+01 -.331E+01 -.140E+01   -.418E-02 0.291E-02 0.752E-02
   0.564E+03 0.448E+03 0.147E+04   -.567E+03 -.450E+03 -.147E+04   0.241E+01 0.114E+01 0.437E+01   -.335E-02 0.941E-02 0.881E-02
   0.743E+03 0.754E+03 -.303E+04   -.744E+03 -.755E+03 0.303E+04   0.201E+00 0.306E+00 -.327E+01   -.116E-01 0.481E-02 -.439E-02
   -.230E+03 0.521E+03 0.278E+04   0.229E+03 -.525E+03 -.279E+04   0.812E+00 0.453E+01 0.727E+01   0.136E-01 0.488E-03 0.119E-01
   -.342E+03 0.272E+03 -.171E+04   0.345E+03 -.276E+03 0.171E+04   -.261E+01 0.331E+01 -.140E+01   -.418E-02 -.291E-02 0.752E-02
   -.771E+03 0.404E-02 0.210E+04   0.777E+03 0.230E-07 -.210E+04   -.538E+01 0.000E+00 0.149E+01   0.157E-01 0.531E-06 0.129E-01
   -.837E+03 0.508E-02 -.263E+04   0.844E+03 0.143E-07 0.263E+04   -.619E+01 0.000E+00 -.226E+01   0.526E-02 0.124E-05 -.787E-03
   -.911E+03 0.455E-02 0.344E+04   0.914E+03 0.555E-08 -.345E+04   -.145E+01 0.000E+00 0.728E+01   -.107E-01 0.253E-06 0.114E-01
   -.223E+03 0.435E-02 0.287E+02   0.226E+03 0.315E-07 -.218E+02   -.383E+01 0.000E+00 -.667E+01   -.966E-02 -.244E-06 0.145E-01
   0.971E+03 0.457E-02 -.293E+04   -.975E+03 0.898E-08 0.292E+04   0.239E+01 0.000E+00 0.513E+01   -.404E-02 -.111E-05 0.873E-02
   0.998E+02 0.106E+03 0.174E+04   -.101E+03 -.108E+03 -.175E+04   0.926E+00 0.677E+00 0.220E+01   -.174E-02 0.212E-02 0.361E-02
   -.243E+02 0.852E+02 -.292E+03   0.263E+02 -.854E+02 0.293E+03   -.120E+01 -.139E+00 -.109E+01   -.527E-02 0.249E-02 0.308E-03
   -.586E+02 0.244E+03 -.172E+04   0.594E+02 -.248E+03 0.172E+04   -.124E+00 0.288E+01 0.813E-01   -.284E-02 0.130E-03 -.960E-03
   0.126E+03 0.138E+03 0.861E+03   -.126E+03 -.141E+03 -.864E+03   -.775E+00 0.185E+01 0.160E+01   -.891E-03 -.862E-03 0.203E-02
   -.124E+03 0.193E+03 -.102E+04   0.125E+03 -.195E+03 0.103E+04   0.396E+00 0.917E+00 0.113E+00   0.351E-02 0.294E-02 0.399E-02
   0.998E+02 -.106E+03 0.174E+04   -.101E+03 0.108E+03 -.175E+04   0.926E+00 -.677E+00 0.220E+01   -.174E-02 -.212E-02 0.361E-02
   -.243E+02 -.852E+02 -.292E+03   0.263E+02 0.854E+02 0.293E+03   -.120E+01 0.139E+00 -.109E+01   -.527E-02 -.249E-02 0.308E-03
   -.586E+02 -.244E+03 -.172E+04   0.594E+02 0.248E+03 0.172E+04   -.124E+00 -.288E+01 0.813E-01   -.284E-02 -.130E-03 -.960E-03
   0.126E+03 -.138E+03 0.861E+03   -.126E+03 0.141E+03 -.864E+03   -.775E+00 -.185E+01 0.160E+01   -.890E-03 0.861E-03 0.203E-02
   -.124E+03 -.193E+03 -.102E+04   0.125E+03 0.195E+03 0.103E+04   0.396E+00 -.917E+00 0.113E+00   0.351E-02 -.294E-02 0.399E-02
   0.123E+03 -.388E-04 0.126E+04   -.124E+03 0.155E-07 -.127E+04   0.398E+00 0.000E+00 0.443E+01   -.503E-02 0.458E-06 -.170E-04
   0.236E+03 -.363E-04 -.540E+03   -.238E+03 0.452E-08 0.541E+03   0.279E+00 0.000E+00 -.208E+01   0.241E-02 0.269E-06 0.528E-02
   0.165E+03 0.207E-04 0.729E+03   -.167E+03 0.288E-07 -.734E+03   0.690E+00 0.000E+00 0.438E+01   -.232E-05 -.505E-06 0.238E-02
   0.192E+03 0.931E-04 -.165E+04   -.196E+03 0.167E-07 0.166E+04   0.302E+01 0.000E+00 -.312E+01   0.121E-02 -.374E-06 0.234E-02
   -.103E+02 -.709E+02 0.173E+04   0.925E+01 0.694E+02 -.173E+04   0.118E+01 0.128E+01 0.314E+01   0.423E-02 -.110E-02 0.562E-03
   -.239E+03 0.116E+03 -.317E+03   0.242E+03 -.116E+03 0.317E+03   -.154E+01 -.102E+00 -.900E+00   0.692E-02 0.422E-03 0.526E-02
   -.217E+03 0.295E+03 -.168E+04   0.218E+03 -.300E+03 0.169E+04   0.208E+00 0.342E+01 -.278E+00   0.228E-02 0.429E-02 -.556E-02
   -.210E+03 0.252E+03 0.811E+03   0.212E+03 -.253E+03 -.812E+03   -.751E+00 -.250E+01 0.435E+00   -.517E-02 -.561E-02 0.478E-02
   -.103E+02 0.709E+02 0.173E+04   0.925E+01 -.694E+02 -.173E+04   0.118E+01 -.128E+01 0.314E+01   0.423E-02 0.110E-02 0.562E-03
   -.239E+03 -.116E+03 -.317E+03   0.242E+03 0.116E+03 0.317E+03   -.154E+01 0.102E+00 -.900E+00   0.692E-02 -.422E-03 0.526E-02
   -.217E+03 -.295E+03 -.168E+04   0.218E+03 0.300E+03 0.169E+04   0.208E+00 -.342E+01 -.278E+00   0.228E-02 -.429E-02 -.556E-02
   -.210E+03 -.252E+03 0.811E+03   0.212E+03 0.253E+03 -.812E+03   -.751E+00 0.250E+01 0.435E+00   -.517E-02 0.561E-02 0.478E-02
   0.718E+02 -.958E-04 0.121E+04   -.731E+02 0.571E-08 -.121E+04   0.213E+00 0.000E+00 0.485E+01   0.181E-02 0.222E-06 0.554E-02
   0.290E+03 -.270E-04 -.547E+03   -.294E+03 0.139E-08 0.549E+03   0.788E+00 0.000E+00 -.224E+01   -.299E-02 0.455E-06 0.150E-02
   -.671E+02 0.695E-04 0.189E+04   0.669E+02 -.222E-07 -.190E+04   0.354E+00 0.000E+00 0.527E+01   0.362E-02 -.136E-06 0.104E-02
   0.460E+02 -.617E-04 -.232E+02   -.466E+02 -.348E-08 0.295E+02   -.158E+01 0.000E+00 -.239E+01   0.650E-02 0.134E-06 0.612E-02
   0.154E+02 0.575E-01 -.453E+02   0.568E-13 -.460E-12 0.313E-12   -.153E+02 -.222E-14 0.451E+02   0.226E-01 0.737E-05 0.215E+00

 POSITION                                       TOTAL-FORCE (eV/Angst)
      4.94536      4.44331      2.79952        -0.547027      0.426513      1.827650
      5.46268      4.46558      5.57042        -1.535884      0.371992     -0.266282
      1.57114      0.47632      2.31975         0.820112     -1.052984     -0.243965
      2.42308      9.23251      4.34179         0.000990      0.345712     -0.155060
      4.94536      1.91264      2.79952        -0.547027     -0.426513      1.827650
      5.46268      1.89036      5.57042        -1.535884     -0.371992     -0.266282
      1.57114      5.87962      2.31975         0.820112      1.052984     -0.243965
      2.42308      6.70184      4.34179         0.000990     -0.345712     -0.155060
      1.47054      3.17797      2.39204         0.716995      0.000000      1.355484
      2.05421      3.17797      5.47658         2.030385      0.000000     -2.623108
      4.84169      7.96718      1.59535        -0.871613      0.000000     -0.223675
      4.57649      7.96718      3.93431         0.256250      0.000000      0.325615
      4.19840      7.96718      6.35883         0.899181      0.000000      1.581565
     10.57359      4.44331      2.79952        -0.663686      0.709483      2.085180
     11.11233      4.41884      5.57241        -1.089781      0.625867     -0.119786
      6.57548      0.12628      1.94410         0.436912     -0.343658     -0.126590
      7.98957      9.31017      4.01739        -0.089214      0.157020      1.194060
     10.57359      1.91264      2.79952        -0.663686     -0.709483      2.085180
     11.11233      1.93710      5.57241        -1.089781     -0.625867     -0.119786
      6.57548      6.22967      1.94410         0.436912      0.343658     -0.126590
      7.98957      6.62419      4.01739        -0.089214     -0.157020      1.194060
      7.09877      3.17797      2.39204         0.470843      0.000000      1.311811
      7.68244      3.17797      5.47658         1.446115      0.000000     -2.466056
      8.32495      7.96718      1.76368         1.538744      0.000000     -1.270738
     10.15656      7.96718      3.50559        -0.072027      0.000000      0.249217
      0.47596      7.96718      5.16331        -1.433401      0.000000     -0.067233
      0.55332      1.77251      1.16584        -0.269308     -0.972178     -3.766080
      1.25497      1.56674      4.10795         0.872152     -0.398853     -0.129540
      1.36266      1.88845      6.88373         0.680502     -1.074640      3.423190
      3.77725      6.35595      2.56568        -0.452645     -0.642159     -1.271979
      4.35573      6.25800      5.26930         0.581318     -1.075605      1.543016
      0.55332      4.58344      1.16584        -0.269308      0.972178     -3.766080
      1.25497      4.78920      4.10795         0.872152      0.398853     -0.129540
      1.36266      4.46750      6.88373         0.680502      1.074640      3.423190
      3.77725      9.57841      2.56568        -0.452645      0.642159     -1.271979
      4.35573      0.09794      5.26930         0.581318      1.075605      1.543016
      3.51504      3.17797      1.93010        -0.537945      0.000000     -2.094447
      4.14113      3.17797      4.62682        -2.329421      0.000000     -0.407315
      1.03518      7.96718      3.08454        -0.793115      0.000000     -0.756858
      2.20763      7.96718      6.11091        -1.212092      0.000000      3.105364
      6.11604      1.88608      1.09040         0.134105     -0.212279     -3.516872
      6.88320      1.56674      4.10795         1.641714     -0.619570     -1.579281
      6.99394      1.88627      6.86917         1.244358     -0.960251      3.856308
      9.40548      6.35595      2.56568         0.983038     -2.781954     -0.702605
      6.11604      4.46987      1.09040         0.134105      0.212279     -3.516872
      6.88320      4.78920      4.10795         1.641714      0.619570     -1.579281
      6.99394      4.46968      6.86917         1.244358      0.960251      3.856308
      9.40548      9.57841      2.56568         0.983038      2.781954     -0.702605
      9.14890      3.17797      1.94655        -1.059561      0.000000     -2.127860
      9.76936      3.17797      4.62682        -2.588427      0.000000     -0.255582
      6.60796      7.96718      0.54046         0.207400      0.000000     -3.637115
      6.66341      7.96718      3.08454        -2.163619      0.000000      3.898202
    total drift:                                0.185246      0.057475      0.022662

  FREE ENERGIE OF THE ION-ELECTRON SYSTEM (eV)
  free  energy   TOTEN  =      -245.15324919 eV

  energy  without entropy=     -244.47993866  energy(sigma->0) =     -244.81659392