 vasp.5.4.4.18Apr17-6-g9f103f2a35 (build Aug 13 2019 17:33:20) gamma-only

 executed on             LinuxIFC date 2020.05.10  15:38:36

 INCAR:
 POTCAR:    PAW_PBE Ni_pv 06Sep2000
 POTCAR:    PAW_PBE S 06Sep2000
 POTCAR:    PAW_PBE Ni_pv 06Sep2000
   VRHFIN =Ni:

   TITEL  = PAW_PBE Ni_pv 06Sep2000
   POMASS =   58.690; ZVAL   =   16.000    mass and valenz
   ENMAX  =  367.986; ENMIN  =  275.989 eV

 POTCAR:    PAW_PBE S 06Sep2000
   VRHFIN =S : s2p4

   TITEL  = PAW_PBE S 06Sep2000
   POMASS =   32.066; ZVAL   =    6.000    mass and valenz
   ENMAX  =  258.689; ENMIN  =  194.016 eV

 Optimization of the real space projectors (new method)

 maximal supplied QI-value         = 18.90
 optimisation between [QCUT,QGAM] = [ 10.77, 21.73] = [ 32.49,132.25] Ry
 Optimized for a Real-space Cutoff    1.38 Angstroem

   l    n(q)    QCUT    max X(q) W(low)/X(q) W(high)/X(q)  e(spline)
   1      8    10.771     2.836    0.40E-04    0.29E-04    0.12E-06
   1      8    10.771     4.023    0.10E-03    0.48E-04    0.29E-06
   2      8    10.771    73.368    0.42E-03    0.97E-04    0.44E-06
   2      8    10.771    69.010    0.42E-03    0.99E-04    0.45E-06
   0      9    10.771    54.797    0.10E-03    0.56E-04    0.74E-07
   0      9    10.771    24.266    0.89E-04    0.49E-04    0.67E-07
 Optimization of the real space projectors (new method)

 maximal supplied QI-value         = 19.84
 optimisation between [QCUT,QGAM] = [ 10.71, 21.63] = [ 32.15,130.99] Ry
 Optimized for a Real-space Cutoff    1.19 Angstroem

   l    n(q)    QCUT    max X(q) W(low)/X(q) W(high)/X(q)  e(spline)
   0      8    10.715   187.594    0.41E-03    0.53E-04    0.66E-07
   0      8    10.715   164.243    0.41E-03    0.53E-04    0.65E-07
   1      7    10.715    67.533    0.19E-03    0.59E-03    0.68E-07
   1      7    10.715    50.729    0.19E-03    0.58E-03    0.67E-07
  PAW_PBE Ni_pv 06Sep2000               :
  PAW_PBE S 06Sep2000                   :

 POSCAR: Type_048 Type_148
  positions in cartesian coordinates
 exchange correlation table for  LEXCH =        8
   RHO(1)=    0.500       N(1)  =     2000
   RHO(2)=  100.500       N(2)  =     4000

 ion  position               nearest neighbor table
   1  0.261  0.479  0.253-  73 2.25  58 2.26  79 2.26  28 2.36  55 2.36  59 2.36   7 2.53  21 2.53

   2  0.355  0.385  0.388-  74 2.25  55 2.26  59 2.26  60 2.36  66 2.36   3 2.38   8 2.53  22 2.53

[...]

  46  0.594  0.778  0.353-  95 2.25  84 2.26  77 2.26  89 2.36  85 2.36  32 2.53  26 2.53
  47  0.689  0.689  0.473-  85 2.05  65 2.08  96 2.12  89 2.13  27 2.47
  48  0.906  0.965  0.083-  86 2.01  68 2.05  80 2.14  87 2.36  69 2.36  16 2.53  42 2.53
  49  0.073  0.167  0.270-  25 2.25  10 2.26  20 2.26   9 2.36  19 2.36
  50  0.167  0.073  0.405-  11 2.02   5 2.02  26 2.25  10 2.36  20 2.36
  51  0.259  0.359  0.049-   6 2.01  12 2.02
  52  0.479  0.261  0.135-  12 2.08   6 2.21  16 2.25   7 2.26  21 2.26
  53  0.210  0.529  0.527-   3 2.04  35 2.07  29 2.08  74 2.70
  54  0.030  0.378  0.451-  11 2.02  15 2.11  29 2.14  10 2.36  14 2.36
  55  0.436  0.472  0.315-  32 2.25   2 2.26  22 2.26   1 2.36  21 2.36
  56  0.284  0.086  0.051-   4 2.03  36 2.06   6 2.07
  57  0.342  0.066  0.180-  36 2.08   6 2.14   7 2.25  25 2.26  45 2.26   4 2.36
  58  0.174  0.397  0.180-  12 2.12   9 2.25   7 2.26   1 2.26   6 2.48  28 2.51
  59  0.268  0.303  0.315-  10 2.25   2 2.26   8 2.26   7 2.36   1 2.36
  60  0.362  0.209  0.451-  11 2.07   3 2.08  17 2.10   8 2.36   2 2.36
  61  0.573  0.167  0.270-  37 2.25  22 2.26   8 2.26  21 2.36   7 2.36
  62  0.667  0.073  0.405-  17 2.05  23 2.05  38 2.25  22 2.36   8 2.36  88 2.70
  63  0.757  0.366  0.050-  24 2.01  18 2.03  68 2.74
  64  0.979  0.261  0.135-  24 2.10  18 2.22   4 2.25  19 2.26   9 2.26
  65  0.707  0.533  0.529-  15 2.05  47 2.08  41 2.08  85 2.74
  66  0.530  0.378  0.451-   3 2.09  23 2.10  41 2.12  22 2.36   2 2.36
  67  0.936  0.472  0.315-  44 2.25  14 2.26  10 2.26  13 2.36   9 2.36
  68  0.748  0.127  0.046-  16 2.05  48 2.05  18 2.07  63 2.74
  69  0.842  0.066  0.180-  18 2.16  19 2.25  37 2.26  33 2.26  16 2.36  48 2.36
  70  0.674  0.397  0.180-  24 2.11  21 2.25  19 2.26  13 2.26  18 2.40  40 2.65
  71  0.768  0.303  0.315-  22 2.25  14 2.26  20 2.26  19 2.36  13 2.36
  72  0.862  0.209  0.451-   5 2.02  15 2.11  23 2.14  20 2.36  14 2.36
  73  0.073  0.667  0.270-  28 2.17   1 2.25  34 2.26  44 2.26  33 2.36  43 2.36
  74  0.167  0.573  0.405-  35 2.05  29 2.05   2 2.25  34 2.36  44 2.36  53 2.70
  75  0.479  0.761  0.135-  40 1.96  36 2.11  31 2.26  45 2.26  30 2.35  91 2.75
  76  0.030  0.878  0.451-   5 2.07  39 2.08  35 2.10  34 2.36  38 2.36
  77  0.436  0.972  0.315-   8 2.25  26 2.26  46 2.26  25 2.36  45 2.36
  78  0.224  0.634  0.084-  30 2.09  12 2.17  28 2.20  79 2.42  87 2.72
  79  0.342  0.566  0.180-  28 2.03  12 2.09  31 2.25   1 2.26  21 2.26  78 2.42
  80  0.098  0.956  0.068-   4 2.11  30 2.12  48 2.14  81 2.58
  81  0.174  0.897  0.180-  30 2.02  33 2.25  31 2.26  25 2.26   4 2.36  80 2.58
  82  0.268  0.803  0.315-  34 2.25  26 2.26  32 2.26  31 2.36  25 2.36
  83  0.362  0.709  0.451-  27 2.00  41 2.13  35 2.15  32 2.36  26 2.36
  84  0.573  0.667  0.270-  40 2.16  13 2.25  46 2.26  32 2.26  45 2.36  31 2.36
  85  0.667  0.573  0.405-  41 2.05  47 2.05  14 2.25  46 2.36  32 2.36  65 2.74
  86  0.881  0.857  0.015-  42 1.99  48 2.01
  87  0.979  0.761  0.135-  28 1.97  43 2.26  33 2.26  42 2.36  48 2.36  78 2.72
  88  0.710  0.030  0.527-  39 2.04  17 2.07  23 2.08  62 2.70
  89  0.530  0.878  0.451-  27 2.00  47 2.13  17 2.15  46 2.36  26 2.36
  90  0.936  0.972  0.315-  20 2.25  38 2.26  34 2.26  37 2.36  33 2.36
  91  0.731  0.666  0.088-  42 2.15  40 2.23  92 2.38  24 2.44  75 2.75
  92  0.842  0.566  0.180-  40 1.99  24 2.05  43 2.25  13 2.26   9 2.26  91 2.38
  93  0.588  0.980  0.060-  42 2.06  36 2.08  16 2.08
  94  0.674  0.897  0.180-  45 2.25  43 2.26  37 2.26  42 2.36  16 2.36
  95  0.768  0.803  0.315-  46 2.25  38 2.26  44 2.26  43 2.36  37 2.36
  96  0.862  0.709  0.451-  39 2.09  29 2.10  47 2.12  44 2.36  38 2.36

  LATTYP: Found a base centered orthorhombic cell.
 ALAT       =    11.8257374459
 B/A-ratio  =     1.6199260857
 C/A-ratio  =     1.8387210052

  Lattice vectors:

 A1 = (  11.2564630382,   0.0000000000,   0.0000000000)
 A2 = (  -5.0445621212, -10.0628203371,   0.0000000000)
 A3 = (   0.0000000000,   0.0000000000, -21.7442318436)

Analysis of symmetry for initial positions (statically):
 Subroutine PRICEL returns:
 Original cell was already a primitive cell.

 Routine SETGRP: Setting up the symmetry group for a
 base centered orthorhombic supercell.

 Subroutine GETGRP returns: Found  1 space group operations
 (whereof  1 operations were pure point group operations)
 out of a pool of  8 trial point group operations.

The static configuration has the point symmetry C_1 .

Analysis of symmetry for dynamics (positions and initial velocities):
 Subroutine PRICEL returns:
 Original cell was already a primitive cell.

 Routine SETGRP: Setting up the symmetry group for a
 base centered orthorhombic supercell.

 Subroutine GETGRP returns: Found  1 space group operations
 (whereof  1 operations were pure point group operations)
 out of a pool of  8 trial point group operations.

The dynamic configuration has the point symmetry C_1 .

 Subroutine INISYM returns: Found  1 space group operations
 (whereof  1 operations are pure point group operations),
 and found     1 'primitive' translations

 KPOINTS: gamma-point-only calculation. no periodi

Automatic generation of k-mesh.
Space group operators:
 irot       det(A)        alpha          n_x          n_y          n_z        tau_x        tau_y        tau_z
    1     1.000000     0.000000     1.000000     0.000000     0.000000     0.000000     0.000000     0.000000

 Subroutine IBZKPT returns following result:

 Found      1 irreducible k-points:

 Following reciprocal coordinates:
            Coordinates               Weight
  0.000000  0.000000  0.000000      1.000000

 Following cartesian coordinates:
            Coordinates               Weight
  0.000000  0.000000  0.000000      1.000000

 SYSTEM =  "Millerite NiS"
 POSCAR =  Type_048 Type_148

 Startparameter for this run:
   NWRITE =      2    write-flag & timer
   PREC   = normal    normal or accurate (medium, high low for compatibility)
   ISTART =      0    job   : 0-new  1-cont  2-samecut
   ICHARG =      2    charge: 1-file 2-atom 10-const
   ISPIN  =      1    spin polarized calculation?
   LNONCOLLINEAR =      F non collinear calculations
   LSORBIT =      F    spin-orbit coupling
   INIWAV =      1    electr: 0-lowe 1-rand  2-diag
   LASPH  =      F    aspherical Exc in radial PAW
   METAGGA=      F    non-selfconsistent MetaGGA calc.

 Electronic Relaxation 1
   ENCUT  =  450.0 eV  33.07 Ry    5.75 a.u.  19.47 19.47 37.61*2*pi/ulx,y,z
   ENINI  =  450.0     initial cutoff
   ENAUG  =  703.4 eV  augmentation charge cutoff
   NELM   =    100;   NELMIN=  2; NELMDL= -5     # of ELM steps
   EDIFF  = 0.1E-03   stopping-criterion for ELM
   LREAL  =      T    real-space projection
   NLSPLINE    = F    spline interpolate recip. space projectors
   LCOMPAT=      F    compatible to vasp.4.4
   GGA_COMPAT  = T    GGA compatible to vasp.4.4-vasp.4.6
   LMAXPAW     = -100 max onsite density
   LMAXMIX     =    2 max onsite mixed and CHGCAR
   VOSKOWN=      0    Vosko Wilk Nusair interpolation
   ROPT   =   -0.00050  -0.00050
 Ionic relaxation
   EDIFFG = 0.1E-02   stopping-criterion for IOM
   NSW    =      0    number of steps for IOM
   NBLOCK =      1;   KBLOCK =      1    inner block; outer block
   IBRION =     -1    ionic relax: 0-MD 1-quasi-New 2-CG
   NFREE  =      0    steps in history (QN), initial steepest desc. (CG)
   ISIF   =      2    stress and relaxation
   IWAVPR =     10    prediction:  0-non 1-charg 2-wave 3-comb
   ISYM   =      2    0-nonsym 1-usesym 2-fastsym
   LCORR  =      T    Harris-Foulkes like correction to forces

   POTIM  = 0.5000    time-step for ionic-motion
   TEIN   =    0.0    initial temperature
   TEBEG  =    0.0;   TEEND  =   0.0 temperature during run
   SMASS  =  -3.00    Nose mass-parameter (am)
   estimated Nose-frequenzy (Omega)   =  0.10E-29 period in steps =****** mass=  -0.290E-26a.u.
   SCALEE = 1.0000    scale energy and forces
   NPACO  =    256;   APACO  = 16.0  distance and # of slots for P.C.
   PSTRESS=    0.0 pullay stress

  Mass of Ions in am
   POMASS =  58.69 32.07
  Ionic Valenz
   ZVAL   =  16.00  6.00
  Atomic Wigner-Seitz radii
  virtual crystal weights
   VCA    =   1.00  1.00
   NELECT =    1056.0000    total number of electrons
   NUPDOWN=      -1.0000    fix difference up-down

 DOS related values:
   EMIN   =  10.00;   EMAX   =-10.00  energy-range for DOS
   EFERMI =   0.00
   ISMEAR =     0;   SIGMA  =   0.20  broadening in eV -4-tet -1-fermi 0-gaus

 Electronic relaxation 2 (details)
   IALGO  =     38    algorithm
   LDIAG  =      T    sub-space diagonalisation (order eigenvalues)
   LSUBROT=      F    optimize rotation matrix (better conditioning)
   TURBO    =      0    0=normal 1=particle mesh
[...]
     0.000000000  0.000000000 21.744231844     0.000000000  0.000000000  0.045989208

  length of vectors
    11.256463038 11.256463038 21.744231844     0.099375718  0.099375718  0.045989208

 FORCES acting on ions
    electron-ion (+dipol)            ewald-force                    non-local-force                 convergence-correction
   0.179E+03 -.146E+03 0.434E+03   -.179E+03 0.144E+03 -.429E+03   0.256E+00 0.107E+01 -.338E+01   0.524E-02 0.638E-02 0.757E-02
   0.243E+03 -.343E+03 -.243E+04   -.244E+03 0.344E+03 0.243E+04   0.618E+00 -.111E+01 -.252E-01   0.695E-02 0.830E-03 0.109E-01
   0.391E+02 0.753E+02 -.566E+04   -.416E+02 -.708E+02 0.566E+04   0.307E+01 -.524E+01 0.578E+00   0.525E-02 0.322E-02 0.268E-02
   0.332E+03 -.379E+03 0.441E+04   -.335E+03 0.381E+03 -.441E+04   0.279E+01 -.243E+01 0.457E+01   0.208E-02 -.853E-02 -.315E-02
   -.151E+03 0.312E+03 -.505E+04   0.151E+03 -.314E+03 0.505E+04   0.103E+01 0.133E+01 0.991E+00   -.114E-01 -.247E-02 0.421E-03
   0.219E+03 -.269E+03 0.489E+04   -.220E+03 0.269E+03 -.490E+04   0.449E+00 -.709E+00 0.634E+01   -.628E-04 -.965E-02 -.510E-03
   0.171E+03 0.406E+03 0.155E+04   -.170E+03 -.407E+03 -.155E+04   -.547E+00 0.110E+01 -.219E+01   0.559E-02 -.109E-02 0.573E-02
   0.287E+03 0.450E+03 -.147E+04   -.288E+03 -.450E+03 0.147E+04   0.119E+01 0.410E+00 0.207E+01   0.715E-02 -.519E-03 0.809E-02
   -.631E+03 -.254E+02 0.203E+04   0.633E+03 0.239E+02 -.203E+04   -.158E+01 0.132E+01 -.112E+01   0.849E-03 -.508E-03 0.909E-02
   -.493E+03 0.200E+02 -.143E+04   0.494E+03 -.193E+02 0.143E+04   -.718E+00 -.639E+00 0.156E+01   -.182E-02 0.354E-02 0.422E-02
   -.214E+03 0.276E+03 -.505E+04   0.216E+03 -.277E+03 0.505E+04   -.161E+01 -.432E+00 0.921E+00   -.272E-03 0.517E-02 0.112E-02
   -.236E+03 -.227E+03 0.505E+04   0.237E+03 0.228E+03 -.506E+04   0.555E-01 0.921E-01 0.865E+01   0.448E-02 0.517E-02 0.606E-02
   0.190E+03 -.144E+03 0.481E+03   -.191E+03 0.142E+03 -.477E+03   0.422E+00 0.916E+00 -.337E+01   -.633E-02 0.487E-02 0.111E-01
   0.194E+03 -.304E+03 -.242E+04   -.194E+03 0.305E+03 0.242E+04   0.617E+00 -.874E+00 -.315E+00   -.232E-02 0.941E-03 0.140E-01
   -.110E+03 0.182E+03 -.566E+04   0.108E+03 -.178E+03 0.566E+04   0.245E+01 -.411E+01 0.877E-01   -.480E-02 0.326E-02 0.754E-02
   0.363E+03 -.527E+03 0.412E+04   -.366E+03 0.529E+03 -.412E+04   0.257E+01 -.177E+01 0.145E+01   -.257E-02 0.305E-02 0.323E-02
   0.438E+03 0.215E+03 -.494E+04   -.441E+03 -.218E+03 0.495E+04   0.254E+01 0.345E+01 -.185E+01   0.106E-01 0.139E-02 0.178E-02
   0.690E+02 -.272E+03 0.478E+04   -.695E+02 0.272E+03 -.478E+04   0.311E+00 0.918E-01 0.411E+01   -.239E-02 -.125E-02 -.344E-04
   0.118E+03 0.435E+03 0.157E+04   -.118E+03 -.436E+03 -.157E+04   -.218E+00 0.153E+01 -.208E+01   -.532E-02 -.369E-02 0.489E-02
   0.206E+03 0.444E+03 -.144E+04   -.207E+03 -.444E+03 0.144E+04   0.116E+01 0.669E+00 0.193E+01   -.560E-02 -.178E-02 0.664E-02
   -.642E+03 -.585E+02 0.201E+04   0.643E+03 0.571E+02 -.201E+04   -.116E+01 0.130E+01 -.755E+00   0.184E-02 0.269E-02 0.853E-02
   -.492E+03 -.125E+02 -.142E+04   0.493E+03 0.131E+02 0.141E+04   -.458E+00 -.714E+00 0.177E+01   -.120E-02 0.585E-03 0.849E-02
   -.344E+03 -.137E+03 -.493E+04   0.349E+03 0.140E+03 0.493E+04   -.457E+01 -.151E+01 -.193E+01   -.227E-02 -.838E-03 0.373E-02
   -.236E+03 -.317E+03 0.506E+04   0.236E+03 0.319E+03 -.507E+04   0.773E+00 -.720E+00 0.866E+01   -.810E-02 -.419E-02 -.239E-03
   0.288E+03 -.450E+03 0.609E+03   -.289E+03 0.450E+03 -.607E+03   0.970E+00 -.614E+00 -.201E+01   0.125E-02 -.743E-02 0.379E-02
   0.323E+03 -.529E+03 -.276E+04   -.324E+03 0.531E+03 0.276E+04   0.663E+00 -.128E+01 0.128E+01   0.397E-02 -.111E-01 -.320E-03
   0.386E+03 -.625E+03 -.585E+04   -.384E+03 0.623E+03 0.584E+04   -.127E+01 0.218E+01 0.575E+01   -.546E-03 -.342E-02 -.755E-02
   0.275E+03 -.107E+02 0.333E+04   -.277E+03 0.104E+02 -.333E+04   0.164E+01 -.383E+00 -.986E+00   0.784E-02 0.411E-02 0.533E-02
   0.277E+03 0.251E+03 -.494E+04   -.281E+03 -.254E+03 0.494E+04   0.335E+01 0.326E+01 -.170E+01   0.151E-02 0.108E-01 0.130E-02
   -.172E+03 0.455E+03 0.527E+04   0.170E+03 -.457E+03 -.527E+04   0.370E+01 0.243E+01 0.342E+01   0.464E-02 -.546E-03 0.283E-02
   0.240E+03 0.479E+03 0.182E+04   -.241E+03 -.477E+03 -.182E+04   0.560E+00 -.171E+01 -.117E+01   0.466E-03 -.446E-02 0.718E-03
   0.306E+03 0.396E+03 -.145E+04   -.307E+03 -.396E+03 0.145E+04   0.161E+01 0.127E+00 0.106E+01   0.123E-02 0.354E-02 0.440E-02
   -.444E+03 -.251E+03 0.173E+04   0.445E+03 0.253E+03 -.173E+04   -.916E+00 -.141E+01 -.587E-01   0.534E-02 -.286E-02 0.700E-02
   -.541E+03 -.830E+02 -.152E+04   0.543E+03 0.843E+02 0.152E+04   -.132E+01 -.141E+01 0.114E+01   -.694E-02 -.334E-02 0.105E-01
   -.393E+03 -.294E+03 -.495E+04   0.398E+03 0.295E+03 0.496E+04   -.419E+01 -.879E+00 -.181E+01   -.766E-02 -.264E-03 0.114E-02
   -.781E+02 0.376E+03 0.512E+04   0.821E+02 -.379E+03 -.512E+04   -.413E+01 0.206E+01 0.504E+01   -.434E-02 -.308E-02 0.124E-02
   0.245E+03 -.427E+03 0.633E+03   -.247E+03 0.428E+03 -.631E+03   0.121E+01 -.336E+00 -.117E+01   -.105E-02 0.208E-02 0.108E-01
   0.211E+03 -.398E+03 -.244E+04   -.212E+03 0.399E+03 0.244E+04   0.576E+00 -.956E+00 0.187E+00   0.149E-02 -.760E-02 0.155E-01
   -.826E+02 -.614E+01 -.566E+04   0.797E+02 0.102E+02 0.566E+04   0.330E+01 -.493E+01 0.311E+00   -.460E-03 -.116E-02 -.974E-03
   0.175E+03 0.585E+02 0.337E+04   -.177E+03 -.582E+02 -.337E+04   0.139E+01 -.124E+01 0.316E+00   -.984E-02 0.822E-02 0.794E-02
   0.372E+03 0.412E+03 -.481E+04   -.376E+03 -.415E+03 0.482E+04   0.266E+01 0.344E+01 -.219E+01   -.217E-02 -.704E-02 -.493E-03
   0.247E+03 0.809E+03 0.520E+04   -.250E+03 -.813E+03 -.521E+04   0.195E+01 0.260E+01 0.556E+01   -.582E-02 0.240E-02 0.910E-03
   0.271E+03 0.465E+03 0.190E+04   -.271E+03 -.462E+03 -.190E+04   0.712E+00 -.242E+01 0.436E+00   0.140E-02 0.462E-03 0.117E-01
   0.250E+03 0.441E+03 -.146E+04   -.252E+03 -.442E+03 0.146E+04   0.178E+01 0.212E+00 0.731E+00   0.216E-02 0.656E-02 0.116E-01
   -.415E+03 -.218E+03 0.162E+04   0.416E+03 0.219E+03 -.162E+04   -.145E+01 -.989E+00 -.197E+01   0.285E-03 -.512E-02 0.205E-02
   -.474E+03 -.112E+03 -.148E+04   0.475E+03 0.113E+03 0.148E+04   -.101E+01 -.118E+01 0.175E+01   -.346E-02 -.824E-03 0.450E-02
   -.531E+03 -.148E+03 -.482E+04   0.535E+03 0.150E+03 0.482E+04   -.426E+01 -.969E+00 -.232E+01   0.804E-02 -.164E-02 -.133E-02
   -.571E+03 0.180E+03 0.515E+04   0.577E+03 -.181E+03 -.515E+04   -.476E+01 0.103E+01 0.375E+01   0.415E-02 0.410E-02 0.304E-02
   -.829E+02 0.117E+03 0.274E+03   0.842E+02 -.119E+03 -.275E+03   -.140E+01 0.175E+01 0.187E+01   -.174E-02 0.436E-03 0.364E-02
   -.116E+03 0.185E+03 -.104E+04   0.117E+03 -.187E+03 0.104E+04   -.150E+00 0.517E+00 -.174E+01   -.876E-03 -.346E-02 -.207E-02
   0.134E+03 -.186E+03 0.239E+04   -.135E+03 0.187E+03 -.239E+04   0.404E-01 -.590E+00 0.101E+01   0.834E-04 -.983E-03 -.155E-02
   -.275E+03 -.198E+02 0.171E+04   0.279E+03 0.194E+02 -.171E+04   -.249E+01 -.115E+01 0.384E+01   0.178E-02 -.936E-03 0.147E-02
   0.597E+00 0.791E+01 -.236E+04   -.288E+00 -.870E+01 0.236E+04   -.182E+00 0.413E+00 -.202E+01   0.218E-02 -.708E-03 -.138E-02
   -.112E+03 -.768E+02 -.162E+04   0.113E+03 0.775E+02 0.162E+04   -.177E+01 0.452E+00 -.167E+01   -.489E-02 0.431E-02 0.295E-02
   -.808E+02 -.139E+03 -.220E+03   0.824E+02 0.141E+03 0.220E+03   -.163E+01 -.252E+01 -.450E+00   0.181E-02 0.110E-02 0.287E-02
   0.997E+02 -.826E+02 0.246E+04   -.101E+03 0.826E+02 -.247E+04   0.123E+01 0.612E+00 0.308E+01   -.714E-04 -.339E-02 0.632E-03
   0.428E+02 -.109E+03 0.874E+03   -.422E+02 0.110E+03 -.872E+03   -.124E+01 -.103E+00 0.190E+00   0.141E-02 -.313E-02 -.298E-02
   0.354E+03 -.467E+02 0.118E+04   -.358E+03 0.483E+02 -.118E+04   0.256E+01 -.190E+01 0.247E+01   0.138E-02 0.130E-02 0.199E-02
   0.179E+03 0.138E+02 -.231E+03   -.182E+03 -.138E+02 0.231E+03   0.328E+01 0.713E-02 -.296E+00   0.137E-02 0.643E-03 0.333E-02
   0.175E+03 0.112E+03 -.162E+04   -.178E+03 -.113E+03 0.162E+04   0.221E+01 0.712E+00 -.187E+01   0.700E-02 0.281E-02 0.144E-02
[...]
   0.248E+03 -.691E+02 -.156E+04   -.251E+03 0.692E+02 0.156E+04   0.846E+00 0.241E+00 -.132E+01   -.162E-02 -.125E-02 -.351E-02
   0.402E+01 0.114E+03 0.121E+03   -.391E+01 -.116E+03 -.120E+03   -.313E+00 0.164E+01 -.308E+00   -.153E-02 0.144E-02 0.427E-02
   -.795E+02 0.134E+03 -.898E+03   0.806E+02 -.136E+03 0.894E+03   -.604E+00 0.106E+01 0.942E+00   -.139E-02 0.140E-02 0.229E-03
   -.897E+02 0.255E+03 0.237E+04   0.902E+02 -.257E+03 -.238E+04   -.301E-02 0.147E+01 0.731E+00   -.502E-04 -.495E-04 -.369E-02
   0.400E+02 0.202E+03 0.176E+04   -.410E+02 -.203E+03 -.177E+04   -.148E+01 0.304E+01 0.198E+01   0.352E-02 -.120E-02 0.158E-02
   -.650E+01 0.136E+01 -.236E+04   0.704E+01 -.208E+01 0.236E+04   -.246E+00 0.411E+00 -.199E+01   0.312E-02 -.421E-02 -.216E-02
   -.495E+02 -.255E+03 -.156E+04   0.505E+02 0.258E+03 0.156E+04   -.561E+00 -.765E+00 -.140E+01   0.166E-02 -.120E-03 -.382E-02
   -.821E+02 -.166E+03 -.234E+03   0.830E+02 0.168E+03 0.234E+03   -.873E+00 -.270E+01 0.379E-01   -.681E-03 -.149E-02 0.508E-02
   0.295E+02 0.163E+03 0.216E+04   -.301E+02 -.163E+03 -.216E+04   0.656E+00 -.136E+01 0.392E+01   -.217E-02 0.245E-02 -.818E-04
   -.345E+03 -.612E+02 0.122E+04   0.349E+03 0.627E+02 -.122E+04   -.940E-01 -.840E+00 0.113E+01   -.122E-02 0.224E-02 0.351E-02
   0.149E+03 -.538E+02 0.229E+04   -.151E+03 0.557E+02 -.230E+04   0.130E+01 -.164E+01 0.350E+01   -.328E-02 0.406E-03 0.276E-03
   0.100E+03 -.210E+02 0.101E+04   -.102E+03 0.206E+02 -.101E+04   0.205E+01 0.691E+00 0.139E+01   -.313E-02 0.136E-02 0.143E-02
   0.160E+03 -.183E+02 -.236E+03   -.162E+03 0.181E+02 0.236E+03   0.256E+01 0.208E+00 0.216E+00   -.650E-04 -.123E-02 0.704E-02
   0.125E+03 0.539E+02 -.158E+04   -.128E+03 -.545E+02 0.159E+04   0.187E+01 0.107E+01 -.173E+01   0.454E-02 0.492E-02 0.665E-03
   -.164E+02 0.131E+02 -.739E+02   -.132E-11 -.345E-11 0.159E-10   0.161E+02 -.130E+02 0.737E+02   0.911E-03 -.158E-01 0.280E+00

 POSITION                                       TOTAL-FORCE (eV/Angst)
      5.35228      4.81788      5.50842         0.062355     -0.728903      1.136370
      5.93595      3.87238      8.44448        -0.080304      0.156393     -0.968957
      6.05014      3.67953     10.81184         0.563332     -0.744894      0.825069
      2.24633      0.73197      2.57236        -0.635766      0.012981      1.683964
      0.73844      0.54535     10.13646         0.411589     -0.451733      0.949094
      4.61158      2.12893      2.42185        -0.415063     -0.260647      0.403650
      5.35228      2.40903      4.73270        -0.045283      0.010535      0.840018
      5.93595      1.46353      7.66876         0.227509     -0.072848     -0.011414
      1.87746      3.73836      4.73270         0.352096     -0.127552      0.178220
      2.46113      2.79286      7.66876        -0.114803      0.057398     -0.313166
      3.08889      1.99631     10.13648         0.215588     -0.529662      0.945585
      5.63627      4.39533      2.68280         0.994900      0.797723     -1.100792
     10.98051      4.81788      5.50842        -0.217653     -0.611158      0.931787
     11.56418      3.87238      8.44448        -0.128315      0.126425     -1.219884
     11.65164      3.73076     10.79879         0.506401     -0.860080      0.925605
      7.87456      0.73197      2.57236        -0.429791      0.033457      2.123489
      6.46104      0.55099     10.27652        -0.846040     -0.029165      0.515379
     10.20452      2.20043      2.45517        -0.253434     -0.323796      0.198134
     10.98051      2.40903      4.73270         0.059621      0.046630      0.932548
     11.56418      1.46353      7.66876         0.008204      0.019365     -0.245823
      7.50570      3.73836      4.73270         0.396043     -0.110430      0.327677
      8.08937      2.79286      7.66876        -0.023024     -0.108301     -0.083525
      8.67910      1.91787     10.27364         0.181228      0.614486      0.515887
     11.27226      4.42549      2.71249         0.941160      1.086883     -0.896522
      7.87456      9.84929      5.50842        -0.156521      0.064388      0.022572
      8.45823      8.90379      8.44448         0.012725     -0.113083      0.023692
      9.07384      7.90652     10.98109         0.001327     -0.046578      1.356156
      4.79474      6.36346      3.81389        -0.463080     -0.716883     -0.095306
      3.34804      5.57561     10.27469        -0.570895      0.073304      0.505788
      6.99291      7.96987      2.28156         1.494156     -0.541049     -0.885365
      7.87456      7.44044      4.73270        -0.022239      0.224123      0.306852
      8.45823      6.49494      7.66876        -0.124617     -0.218573      0.068101
      4.39975      8.76977      4.73270         0.124490      0.206017      0.267342
      4.98341      7.82427      7.66876         0.068933     -0.062759     -0.075162
      5.56377      6.94576     10.27761         0.441781      0.742144      0.559646
      9.73197      9.58587      2.25744        -0.117382     -0.755362     -0.336731
     13.50279      9.84929      5.50842        -0.282699     -0.030289      0.073732
     14.08646      8.90379      8.44448        -0.112551      0.001594     -0.987421
     14.20744      8.71572     10.81173         0.440815     -0.865679      0.736860
     10.50765      6.48136      3.84421        -0.311095     -0.909542     -0.026073
      8.97928      5.54066     10.27952        -0.814396      0.122173      0.466703
     12.91912      8.38594      1.79664        -0.830947     -1.283929      2.270020
     13.50279      7.44044      4.73270         0.093773      0.207897      0.484439
     14.08646      6.49494      7.66876        -0.139290     -0.157395      0.009055
     10.02798      8.76977      4.73270         0.161325      0.509550      0.200296
     10.61165      7.82427      7.66876         0.236053     -0.096388     -0.043155
     11.23122      6.93074     10.27965         0.332647      0.801588      0.421548
     15.07254      9.71527      1.79664         1.473269     -0.320657      2.089595
      1.66190      1.67871      5.87212        -0.107259     -0.178946      0.239604
      2.24556      0.73321      8.80817         0.875388     -1.355600     -1.469726
      4.72861      3.60916      1.06358        -1.090307      0.591402     -3.776166
      6.70646      2.62422      2.93606         2.017711     -1.610889      0.639717
      5.03469      5.32579     11.46090         0.132371     -0.378017      2.707124
      2.24556      3.80055      9.79595        -0.380525      1.242508      0.096050
      7.29013      4.74605      6.85989        -0.053546      0.042087     -0.062241
      3.63173      0.86752      1.10146        -0.213716      0.587990     -3.540949
      4.18418      0.66015      3.92384        -0.599199      0.399309      2.565929
      3.96438      3.99884      3.92384        -2.076613     -0.294276      1.496361
      4.54805      3.05334      6.85989         0.103517     -0.004427      0.008282
      5.13172      2.10784      9.79595        -0.748005      0.216240     -0.214103
[...]
      7.07033      8.08475      6.85989        -0.059678      0.080599      0.056213
      7.65400      7.13925      9.79595        -1.786237      0.356584     -0.641803
      9.81241      6.71012      5.87212        -0.194947      0.013714      0.981290
     10.39608      5.76462      8.80817         0.473568     -0.814240     -2.971999
     14.23934      8.62069      0.32728         0.456236     -0.828344     -4.168476
     14.85697      7.65563      2.93606        -2.501728      2.036727     -0.881969
      8.14619      0.29846     11.46049         0.299526     -0.313534      2.744141
     10.39608      8.83196      9.79595         0.465362      1.712657     -0.662586
     15.44064      9.77746      6.85989         0.024564      0.134138      0.036913
     11.59184      6.70370      1.90448         0.001372     -0.941908     -1.069873
     12.33469      5.69156      3.92384         4.212133      0.723839      1.957647
     11.55823      9.85961      1.30715        -0.854363      0.213832     -2.686304
     12.11489      9.03025      3.92384         0.609738      0.300264      0.805124
     12.69856      8.08475      6.85989        -0.062171      0.012887     -0.031763
     13.28223      7.13925      9.79595        -0.637604      0.431431     -0.054792
    total drift:                               -0.294916     -0.009988      0.063482

  FREE ENERGIE OF THE ION-ELECTRON SYSTEM (eV)
  free  energy   TOTEN  =      -469.41107159 eV

  energy  without entropy=     -468.12686485  energy(sigma->0) =     -468.76896822