 vasp.5.4.4.18Apr17-6-g9f103f2a35 (build Aug 13 2019 17:33:20) gamma-only

 executed on             LinuxIFC date 2020.05.11  10:40:03

 INCAR:
 POTCAR:    PAW_PBE Ni_pv 06Sep2000
 POTCAR:    PAW_PBE S 06Sep2000
 POTCAR:    PAW_PBE Ni_pv 06Sep2000
   VRHFIN =Ni:

   TITEL  = PAW_PBE Ni_pv 06Sep2000
   POMASS =   58.690; ZVAL   =   16.000    mass and valenz
   ENMAX  =  367.986; ENMIN  =  275.989 eV

 POTCAR:    PAW_PBE S 06Sep2000
   VRHFIN =S : s2p4

   TITEL  = PAW_PBE S 06Sep2000
   POMASS =   32.066; ZVAL   =    6.000    mass and valenz
   ENMAX  =  258.689; ENMIN  =  194.016 eV

 Optimization of the real space projectors (new method)

 maximal supplied QI-value         = 18.90
 optimisation between [QCUT,QGAM] = [ 10.77, 21.73] = [ 32.49,132.25] Ry
 Optimized for a Real-space Cutoff    1.38 Angstroem

   l    n(q)    QCUT    max X(q) W(low)/X(q) W(high)/X(q)  e(spline)
   1      8    10.771     2.836    0.40E-04    0.29E-04    0.12E-06
   1      8    10.771     4.023    0.10E-03    0.48E-04    0.29E-06
   2      8    10.771    73.368    0.42E-03    0.97E-04    0.44E-06
   2      8    10.771    69.010    0.42E-03    0.99E-04    0.45E-06
   0      9    10.771    54.797    0.10E-03    0.56E-04    0.74E-07
   0      9    10.771    24.266    0.89E-04    0.49E-04    0.67E-07
 Optimization of the real space projectors (new method)

 maximal supplied QI-value         = 19.84
 optimisation between [QCUT,QGAM] = [ 10.71, 21.63] = [ 32.15,130.99] Ry
 Optimized for a Real-space Cutoff    1.19 Angstroem

   l    n(q)    QCUT    max X(q) W(low)/X(q) W(high)/X(q)  e(spline)
   0      8    10.715   187.594    0.41E-03    0.53E-04    0.66E-07
   0      8    10.715   164.243    0.41E-03    0.53E-04    0.65E-07
   1      7    10.715    67.533    0.19E-03    0.59E-03    0.68E-07
   1      7    10.715    50.729    0.19E-03    0.58E-03    0.67E-07
  PAW_PBE Ni_pv 06Sep2000               :
  PAW_PBE S 06Sep2000                   :

 POSCAR: Type_048 Type_148
  positions in cartesian coordinates
 exchange correlation table for  LEXCH =        8
   RHO(1)=    0.500       N(1)  =     2000
   RHO(2)=  100.500       N(2)  =     4000

 ion  position               nearest neighbor table
   1  0.261  0.479  0.295-  73 2.25  58 2.26  80 2.26  59 2.36  54 2.36   8 2.53  22 2.53
   2  0.355  0.385  0.426-  60 2.08  65 2.11  74 2.23  54 2.26  59 2.26   9 2.53  23 2.53
   3  0.032  0.201  0.091-  63 2.00  64 2.13  81 2.17  55 2.25   4 2.28  30 2.46
   4  0.167  0.073  0.165-  55 2.11  64 2.25  81 2.26   3 2.28  56 2.36  82 2.36  36 2.53  31 2.53

   5  0.027  0.041  0.488-  77 2.01  72 2.04  50 2.05  21 2.43
   6  0.202  0.538  0.059-  51 2.01  57 2.05  79 2.05  28 2.42
   7  0.274  0.333  0.130-  51 2.13  57 2.13  55 2.19  52 2.36  58 2.36  13 2.53  28 2.53
   8  0.368  0.239  0.261-  56 2.25  58 2.26  52 2.26  59 2.36  61 2.36   1 2.53  22 2.53
   9  0.462  0.145  0.391-  60 2.05  62 2.16  78 2.25  59 2.26  61 2.26   2 2.53  23 2.53
  10  0.000  0.372  0.261-  58 2.25  64 2.26  92 2.26  49 2.36  66 2.36  20 2.53  14 2.53
  11  0.094  0.278  0.391-  53 2.14  59 2.25  49 2.26  66 2.26  50 2.36  12 2.44  15 2.53  21 2.53

[...]

  48  0.812  0.553  0.034-  91 2.01  63 2.03  18 2.40  25 2.42
  49  0.073  0.167  0.311-  26 2.25  11 2.26  21 2.26  10 2.36  20 2.36
  50  0.167  0.073  0.442-  12 2.05   5 2.05  27 2.25  11 2.36  21 2.36
  51  0.371  0.368  0.056-   6 2.01  16 2.04   7 2.13  13 2.13
  52  0.479  0.261  0.181-  16 2.12  17 2.25   8 2.26  22 2.26  13 2.36   7 2.36
  53  0.018  0.366  0.476-  29 2.03  12 2.04  15 2.09  11 2.14
  54  0.436  0.472  0.355-  33 2.25   2 2.26  23 2.26   1 2.36  22 2.36
  55  0.244  0.161  0.103-  30 2.08   4 2.11   7 2.19  36 2.23   3 2.25
  56  0.342  0.066  0.225-   8 2.25  26 2.26  44 2.26   4 2.36  36 2.36
  57  0.081  0.483  0.108-   6 2.05  25 2.12  28 2.12   7 2.13
  58  0.174  0.397  0.225-  10 2.25   1 2.26   8 2.26   7 2.36  28 2.36
  59  0.268  0.303  0.355-  11 2.25   9 2.26   2 2.26   8 2.36   1 2.36
  60  0.374  0.218  0.472-  12 2.01   9 2.05   2 2.08  65 2.71
  61  0.573  0.167  0.311-  37 2.25  23 2.26   9 2.26  22 2.36   8 2.36  62 2.74
  62  0.664  0.069  0.422-  24 2.03   9 2.16  38 2.22  23 2.23  61 2.74
  63  0.885  0.355  0.051-   3 2.00  48 2.03  18 2.04  19 2.26  25 2.26
  64  0.979  0.261  0.181-   3 2.13   4 2.25  20 2.26  10 2.26  25 2.36  19 2.36
  65  0.529  0.344  0.474-  23 2.03  24 2.06   2 2.11  60 2.71
  66  0.936  0.472  0.355-  43 2.25  15 2.26  11 2.26  14 2.36  10 2.36
  67  0.740  0.165  0.103-  40 2.07  17 2.11  19 2.18  16 2.26  47 2.27
  68  0.842  0.066  0.225-  20 2.25  37 2.26  34 2.26  17 2.36  47 2.36
  69  0.580  0.486  0.109-  18 2.01  39 2.09  13 2.12  19 2.15
  70  0.674  0.397  0.225-  22 2.25  14 2.26  20 2.26  19 2.36  39 2.36
  71  0.768  0.303  0.355-  23 2.25  21 2.26  15 2.26  20 2.36  14 2.36
  72  0.866  0.221  0.474-  24 2.03   5 2.04  15 2.10  21 2.13
  73  0.073  0.667  0.311-   1 2.25  35 2.26  43 2.26  34 2.36  42 2.36  74 2.75
  74  0.168  0.575  0.423-  29 2.04  35 2.17  43 2.21   2 2.23  73 2.75
  75  0.399  0.841  0.065-  30 2.01  36 2.06  31 2.06  76 2.78
  76  0.479  0.761  0.181-  39 2.25  32 2.26  44 2.26  36 2.36  31 2.36  75 2.78
  77  0.022  0.868  0.471-   5 2.01  35 2.05  38 2.08  96 2.76
  78  0.436  0.972  0.355-   9 2.25  27 2.26  45 2.26  26 2.36  44 2.36
  79  0.258  0.658  0.108-   6 2.05  28 2.11  13 2.12  31 2.12
  80  0.342  0.566  0.225-  32 2.25   1 2.26  22 2.26  28 2.36  13 2.36
  81  0.080  0.991  0.094-  30 2.05   3 2.17  47 2.25  31 2.26   4 2.26
  82  0.174  0.897  0.225-  34 2.25  26 2.26  32 2.26  31 2.36   4 2.36
  83  0.268  0.803  0.355-  35 2.25  33 2.26  27 2.26  32 2.36  26 2.36  84 2.71
  84  0.361  0.722  0.466-  33 2.01  27 2.02  83 2.71  89 2.73
  85  0.573  0.667  0.311-  14 2.25  45 2.26  33 2.26  44 2.36  32 2.36  86 2.77
  86  0.664  0.573  0.424-  46 2.04  33 2.18  45 2.21  15 2.24  85 2.77
  87  0.897  0.844  0.064-  40 2.01  47 2.06  41 2.07
  88  0.979  0.761  0.181-  28 2.25  42 2.26  34 2.26  47 2.36  41 2.36
  89  0.532  0.834  0.475-  45 2.02  46 2.08  27 2.13  84 2.73
  90  0.936  0.972  0.355-  21 2.25  38 2.26  35 2.26  37 2.36  34 2.36
  91  0.755  0.660  0.109-  48 2.01  39 2.10  41 2.11  25 2.14
  92  0.842  0.566  0.225-  42 2.25  14 2.26  10 2.26  39 2.36  25 2.36
  93  0.580  0.991  0.094-  40 2.05  16 2.21  36 2.25  41 2.26  17 2.26
  94  0.674  0.897  0.225-  44 2.25  37 2.26  42 2.26  41 2.36  17 2.36
  95  0.768  0.803  0.355-  45 2.25  43 2.26  38 2.26  42 2.36  37 2.36
  96  0.892  0.710  0.477-  46 2.03  29 2.09  43 2.09  38 2.16  77 2.76

  LATTYP: Found a base centered orthorhombic cell.
 ALAT       =    11.8257374459
 B/A-ratio  =     1.6199260857
 C/A-ratio  =     1.9043172636

  Lattice vectors:

 A1 = (  11.2564630382,   0.0000000000,   0.0000000000)
 A2 = (  -5.0445621212, -10.0628203371,   0.0000000000)
 A3 = (   0.0000000000,   0.0000000000, -22.5199559732)

Analysis of symmetry for initial positions (statically):
 Subroutine PRICEL returns:
 Original cell was already a primitive cell.

 Routine SETGRP: Setting up the symmetry group for a
 base centered orthorhombic supercell.

 Subroutine GETGRP returns: Found  1 space group operations
 (whereof  1 operations were pure point group operations)
 out of a pool of  8 trial point group operations.

The static configuration has the point symmetry C_1 .

Analysis of symmetry for dynamics (positions and initial velocities):
 Subroutine PRICEL returns:
 Original cell was already a primitive cell.

 Routine SETGRP: Setting up the symmetry group for a
 base centered orthorhombic supercell.

 Subroutine GETGRP returns: Found  1 space group operations
 (whereof  1 operations were pure point group operations)
 out of a pool of  8 trial point group operations.

The dynamic configuration has the point symmetry C_1 .

 Subroutine INISYM returns: Found  1 space group operations
 (whereof  1 operations are pure point group operations),
 and found     1 'primitive' translations

 KPOINTS: gamma-point-only calculation. no periodi

Automatic generation of k-mesh.
Space group operators:
 irot       det(A)        alpha          n_x          n_y          n_z        tau_x        tau_y        tau_z
    1     1.000000     0.000000     1.000000     0.000000     0.000000     0.000000     0.000000     0.000000

 Subroutine IBZKPT returns following result:

 Found      1 irreducible k-points:

 Following reciprocal coordinates:
            Coordinates               Weight
  0.000000  0.000000  0.000000      1.000000

 Following cartesian coordinates:
            Coordinates               Weight
  0.000000  0.000000  0.000000      1.000000

 SYSTEM =  "Millerite NiS"
 POSCAR =  Type_048 Type_148

 Startparameter for this run:
   NWRITE =      2    write-flag & timer
   PREC   = normal    normal or accurate (medium, high low for compatibility)
   ISTART =      0    job   : 0-new  1-cont  2-samecut
   ICHARG =      2    charge: 1-file 2-atom 10-const
   ISPIN  =      1    spin polarized calculation?
   LNONCOLLINEAR =      F non collinear calculations
   LSORBIT =      F    spin-orbit coupling
   INIWAV =      1    electr: 0-lowe 1-rand  2-diag
   LASPH  =      F    aspherical Exc in radial PAW
   METAGGA=      F    non-selfconsistent MetaGGA calc.

 Electronic Relaxation 1
   ENCUT  =  450.0 eV  33.07 Ry    5.75 a.u.  19.47 19.47 38.95*2*pi/ulx,y,z
   ENINI  =  450.0     initial cutoff
   ENAUG  =  703.4 eV  augmentation charge cutoff
   NELM   =    100;   NELMIN=  2; NELMDL= -5     # of ELM steps
   EDIFF  = 0.1E-03   stopping-criterion for ELM
   LREAL  =      T    real-space projection
   NLSPLINE    = F    spline interpolate recip. space projectors
   LCOMPAT=      F    compatible to vasp.4.4
   GGA_COMPAT  = T    GGA compatible to vasp.4.4-vasp.4.6
   LMAXPAW     = -100 max onsite density
   LMAXMIX     =    2 max onsite mixed and CHGCAR
   VOSKOWN=      0    Vosko Wilk Nusair interpolation
   ROPT   =   -0.00050  -0.00050
 Ionic relaxation
   EDIFFG = 0.1E-02   stopping-criterion for IOM
   NSW    =      0    number of steps for IOM
   NBLOCK =      1;   KBLOCK =      1    inner block; outer block
   IBRION =     -1    ionic relax: 0-MD 1-quasi-New 2-CG
   NFREE  =      0    steps in history (QN), initial steepest desc. (CG)
   ISIF   =      2    stress and relaxation
   IWAVPR =     10    prediction:  0-non 1-charg 2-wave 3-comb
   ISYM   =      2    0-nonsym 1-usesym 2-fastsym
   LCORR  =      T    Harris-Foulkes like correction to forces

   POTIM  = 0.5000    time-step for ionic-motion
   TEIN   =    0.0    initial temperature
   TEBEG  =    0.0;   TEEND  =   0.0 temperature during run
   SMASS  =  -3.00    Nose mass-parameter (am)
   estimated Nose-frequenzy (Omega)   =  0.10E-29 period in steps =****** mass=  -0.290E-26a.u.
   SCALEE = 1.0000    scale energy and forces
   NPACO  =    256;   APACO  = 16.0  distance and # of slots for P.C.
   PSTRESS=    0.0 pullay stress

  Mass of Ions in am
   POMASS =  58.69 32.07
  Ionic Valenz
   ZVAL   =  16.00  6.00
  Atomic Wigner-Seitz radii
  virtual crystal weights
   VCA    =   1.00  1.00
   NELECT =    1056.0000    total number of electrons
[...]
     0.000000000  0.000000000 22.519955973     0.000000000  0.000000000  0.044405060

  length of vectors
    11.256463038 11.256463038 22.519955973     0.099375718  0.099375718  0.044405060

 FORCES acting on ions
    electron-ion (+dipol)            ewald-force                    non-local-force                 convergence-correction
   0.173E+03 -.447E+03 -.100E+04   -.173E+03 0.448E+03 0.100E+04   0.572E+00 -.118E+01 0.626E+00   0.214E-01 -.235E-01 -.501E+00
   -.255E+02 -.589E+03 -.455E+04   0.237E+02 0.592E+03 0.456E+04   0.139E+01 -.220E+01 -.174E+01   0.145E+00 -.458E-01 -.368E+00
   0.737E+02 -.674E+02 0.505E+04   -.730E+02 0.652E+02 -.506E+04   -.416E+00 0.181E+01 0.513E+01   -.169E+00 0.369E+00 -.366E-01
   0.129E+03 -.616E+02 0.198E+04   -.129E+03 0.601E+02 -.197E+04   0.599E+00 0.547E+00 -.362E+01   0.376E-03 0.285E-01 -.157E-01
   -.116E+03 0.451E+03 -.587E+04   0.116E+03 -.454E+03 0.587E+04   0.586E+00 0.324E+01 0.284E+01   -.127E+00 -.678E-01 -.897E-01
   0.204E+03 -.581E+03 0.609E+04   -.207E+03 0.585E+03 -.610E+04   0.163E+01 -.272E+01 0.400E+01   -.857E-01 0.109E-01 -.909E-01
   0.416E+03 0.430E+03 0.360E+04   -.419E+03 -.433E+03 -.360E+04   0.282E+01 0.157E+01 0.452E+00   0.729E-02 0.223E+00 -.213E+00
   0.242E+03 0.458E+03 0.776E+02   -.244E+03 -.458E+03 -.773E+02   0.135E+01 0.716E+00 0.136E+00   0.937E-01 0.129E-01 -.388E+00
   0.204E+03 0.579E+03 -.333E+04   -.207E+03 -.583E+03 0.333E+04   0.287E+01 0.382E+01 -.111E+01   0.118E+00 -.506E-01 -.489E+00
   -.525E+03 -.644E+02 0.126E+03   0.526E+03 0.654E+02 -.125E+03   -.121E+01 -.930E+00 -.197E+00   0.369E-01 0.349E-01 -.425E+00
   -.457E+03 0.483E+02 -.286E+04   0.460E+03 -.481E+02 0.285E+04   -.250E+01 -.281E+00 0.186E+01   -.202E+00 -.152E-01 -.597E+00
   -.383E+03 0.330E+03 -.586E+04   0.387E+03 -.330E+03 0.586E+04   -.311E+01 0.877E+00 0.268E+01   -.846E-01 -.106E+00 -.966E-01
   -.618E+03 -.369E+03 0.360E+04   0.622E+03 0.370E+03 -.360E+04   -.400E+01 -.150E+01 0.906E+00   0.685E-01 0.425E-01 -.287E+00
   0.308E+03 -.451E+03 -.973E+03   -.309E+03 0.452E+03 0.973E+03   0.630E+00 -.928E+00 0.456E+00   0.253E-01 -.535E-01 -.499E+00
   0.495E+03 -.505E+03 -.441E+04   -.497E+03 0.508E+03 0.442E+04   0.114E+01 -.174E+01 -.154E+01   -.793E-01 -.250E+00 -.365E+00
   0.238E+03 -.104E+03 0.512E+04   -.238E+03 0.102E+03 -.513E+04   -.113E+00 0.139E+01 0.547E+01   0.280E-01 0.274E+00 0.561E-02
   0.191E+03 -.880E+02 0.198E+04   -.192E+03 0.864E+02 -.198E+04   0.483E+00 0.853E+00 -.354E+01   0.466E-01 -.149E-01 -.825E-01
   0.698E+03 -.127E+03 0.608E+04   -.697E+03 0.132E+03 -.608E+04   -.186E+01 -.497E+01 -.323E+01   0.889E-01 0.249E+00 -.154E+00
   0.357E+03 0.395E+03 0.331E+04   -.358E+03 -.397E+03 -.330E+04   0.205E+01 0.275E+00 -.197E+00   -.891E-01 0.345E+00 -.441E+00
   0.273E+03 0.448E+03 0.952E+02   -.275E+03 -.448E+03 -.948E+02   0.142E+01 0.713E+00 0.444E-01   -.568E-01 -.408E-01 -.374E+00
   0.196E+03 0.407E+03 -.287E+04   -.197E+03 -.409E+03 0.286E+04   0.122E+01 0.212E+01 0.192E+01   -.683E-01 -.195E-01 -.347E+00
   -.508E+03 -.993E+02 0.578E+02   0.509E+03 0.101E+03 -.571E+02   -.125E+01 -.128E+01 -.944E-01   0.258E-01 -.604E-01 -.455E+00
   -.346E+03 -.259E+03 -.308E+04   0.350E+03 0.261E+03 0.308E+04   -.378E+01 -.172E+01 0.134E+01   0.708E-02 -.702E-01 -.487E+00
   0.167E+03 0.786E+02 -.583E+04   -.166E+03 -.769E+02 0.583E+04   -.449E+00 -.228E+01 0.114E+01   0.720E-01 -.433E-02 -.115E+00
   -.635E+03 -.264E+03 0.336E+04   0.637E+03 0.265E+03 -.336E+04   -.151E+01 -.167E+01 -.968E-01   -.172E+00 0.288E+00 -.553E+00
   0.212E+03 -.301E+03 -.101E+04   -.213E+03 0.302E+03 0.101E+04   0.797E+00 -.138E+01 0.297E+00   -.438E-01 0.196E-01 -.409E+00
   0.182E+03 -.282E+03 -.456E+04   -.184E+03 0.287E+03 0.456E+04   0.258E+01 -.304E+01 -.252E+01   -.117E+00 0.899E-01 -.269E+00
   0.285E+03 -.628E+03 0.229E+04   -.287E+03 0.632E+03 -.229E+04   0.173E+01 -.267E+01 -.141E+01   -.346E-01 -.659E-01 -.419E+00
   -.384E+03 -.244E+01 -.580E+04   0.382E+03 0.165E+01 0.580E+04   0.245E+01 0.481E+00 0.119E+01   0.730E-01 0.151E+00 -.171E+00
   -.805E+02 0.180E+03 0.633E+04   0.822E+02 -.182E+03 -.633E+04   -.186E+01 0.291E+01 0.554E+01   0.531E-01 -.628E-01 -.150E+00
   0.315E+03 0.753E+03 0.369E+04   -.317E+03 -.756E+03 -.369E+04   0.150E+01 0.188E+01 0.476E+00   -.394E-01 -.224E+00 -.101E+00
   0.237E+03 0.462E+03 0.157E+03   -.238E+03 -.462E+03 -.158E+03   0.811E+00 0.407E+00 0.122E+01   -.348E-01 -.280E-01 -.433E+00
   0.337E+03 0.531E+03 -.347E+04   -.339E+03 -.535E+03 0.347E+04   0.248E+01 0.405E+01 -.207E+01   -.124E+00 -.418E-01 -.389E+00
   -.536E+03 0.453E+02 0.194E+03   0.537E+03 -.449E+02 -.195E+03   -.975E+00 -.394E+00 0.128E+01   -.751E-01 -.172E-01 -.318E+00
   -.688E+03 0.109E+03 -.331E+04   0.693E+03 -.109E+03 0.331E+04   -.395E+01 -.635E+00 -.132E+01   -.103E+00 0.996E-01 -.361E+00
   -.732E+03 0.222E+03 0.363E+04   0.736E+03 -.222E+03 -.363E+04   -.239E+01 -.243E-01 0.571E+00   0.139E+00 -.823E-01 -.582E-01
   0.269E+03 -.347E+03 -.971E+03   -.269E+03 0.348E+03 0.971E+03   0.816E+00 -.990E+00 0.612E+00   0.386E-01 -.638E-02 -.407E+00
   0.349E+03 -.376E+03 -.447E+04   -.351E+03 0.378E+03 0.447E+04   0.647E+00 -.159E+01 -.184E+01   0.173E+00 0.494E-01 -.390E+00
   0.360E+03 -.666E+03 0.243E+04   -.361E+03 0.668E+03 -.242E+04   0.140E+01 -.220E+01 0.107E+01   0.893E-01 -.113E+00 -.601E+00
   -.184E+02 0.158E+03 0.630E+04   0.201E+02 -.159E+03 -.630E+04   -.185E+01 0.276E+01 0.573E+01   0.389E-01 -.103E+00 -.556E-01
   0.330E+03 0.668E+03 0.364E+04   -.332E+03 -.671E+03 -.364E+04   0.153E+01 0.288E+01 0.639E+00   -.646E-01 -.293E+00 -.171E+00
   0.239E+03 0.432E+03 0.212E+03   -.240E+03 -.433E+03 -.213E+03   0.824E+00 0.446E+00 0.107E+01   0.240E-01 -.364E-03 -.419E+00
   0.147E+03 0.227E+03 -.291E+04   -.150E+03 -.229E+03 0.291E+04   0.270E+01 0.250E+01 0.138E+01   0.104E+00 0.137E+00 -.625E+00
   -.490E+03 0.300E+02 0.167E+03   0.490E+03 -.295E+02 -.168E+03   -.934E+00 -.586E+00 0.116E+01   0.613E-01 0.401E-02 -.408E+00
   -.270E+03 -.209E+03 -.308E+04   0.274E+03 0.211E+03 0.307E+04   -.385E+01 -.205E+01 0.145E+01   0.156E-02 0.220E+00 -.643E+00
   0.155E+03 0.287E+02 -.577E+04   -.153E+03 -.283E+02 0.577E+04   -.283E+01 -.543E+00 0.421E+00   -.336E-01 0.322E-01 -.676E-01
   -.743E+03 0.234E+03 0.362E+04   0.747E+03 -.234E+03 -.362E+04   -.238E+01 0.115E+00 0.476E+00   -.619E-01 -.798E-01 -.543E-01
   -.358E+03 -.747E+03 0.604E+04   0.354E+03 0.748E+03 -.603E+04   0.500E+01 -.561E+00 -.304E+01   -.106E+00 0.785E-01 -.182E+00
   -.825E+02 0.142E+03 -.334E+03   0.838E+02 -.143E+03 0.333E+03   -.114E+01 0.169E+01 0.128E+01   -.238E-01 -.892E-02 -.129E+00
   -.148E+03 0.249E+03 -.165E+04   0.149E+03 -.250E+03 0.165E+04   -.728E-01 0.624E+00 -.127E+01   -.128E+00 -.626E-01 -.152E+00
   -.401E+02 0.606E+02 0.243E+04   0.410E+02 -.620E+02 -.244E+04   -.296E+00 0.379E+00 0.233E+01   0.303E-02 0.102E+00 0.327E-02
   -.360E+02 0.641E+02 0.713E+03   0.366E+02 -.650E+02 -.711E+03   -.971E+00 0.105E+01 -.627E+00   0.233E-01 0.461E-01 -.827E-01
   0.116E+03 -.928E+02 -.222E+04   -.116E+03 0.930E+02 0.222E+04   0.442E-01 0.615E+00 -.225E+01   -.160E+00 -.912E-02 -.916E-01
   -.878E+02 -.191E+03 -.917E+03   0.889E+02 0.194E+03 0.917E+03   -.840E+00 -.260E+01 -.312E+00   0.305E-04 -.580E-01 -.201E+00
   -.242E+03 -.212E+03 0.176E+04   0.245E+03 0.214E+03 -.176E+04   -.162E+01 -.422E+00 0.778E+00   0.638E-01 0.118E+00 0.334E-01
   -.856E+02 -.113E+03 0.366E+03   0.865E+02 0.116E+03 -.366E+03   -.772E+00 -.270E+01 0.469E+00   0.252E-02 0.134E-01 -.104E+00
   0.203E+03 -.940E+02 0.170E+04   -.205E+03 0.939E+02 -.170E+04   0.461E+00 0.318E+00 0.845E+00   -.248E-01 0.485E-01 -.105E+00
   0.158E+03 -.260E+02 0.368E+03   -.160E+03 0.264E+02 -.369E+03   0.266E+01 -.588E+00 0.119E+01   0.635E-02 0.143E-01 -.171E+00
   0.118E+03 0.627E+01 -.820E+03   -.121E+03 -.613E+01 0.821E+03   0.274E+01 -.157E+00 -.898E+00   0.151E-01 -.362E-01 -.205E+00
   -.129E+03 0.148E+03 -.223E+04   0.129E+03 -.151E+03 0.223E+04   -.155E+00 0.164E+01 -.124E+01   0.146E+00 -.468E-01 -.807E-01
[...]
   0.154E+03 0.346E+02 -.887E+03   -.157E+03 -.342E+02 0.887E+03   0.292E+01 -.199E+00 -.237E+00   -.753E-01 0.358E-01 -.180E+00
   0.202E+03 0.178E+03 -.227E+04   -.205E+03 -.180E+03 0.227E+04   0.146E+01 0.543E+00 -.459E+00   -.777E-01 0.483E-02 0.372E-01
   -.401E+02 0.106E+03 -.343E+03   0.413E+02 -.108E+03 0.342E+03   -.127E+01 0.179E+01 0.227E+00   0.625E-02 0.219E-01 -.231E+00
   0.176E+03 0.204E+03 -.163E+04   -.176E+03 -.206E+03 0.163E+04   0.339E+00 0.454E+00 -.239E+00   -.669E-01 -.155E+00 -.182E+00
   -.242E+03 0.380E+03 0.225E+04   0.244E+03 -.383E+03 -.226E+04   -.580E+00 0.669E+00 0.724E+00   -.221E-01 -.148E+00 0.888E-02
   -.947E+02 0.131E+03 0.958E+03   0.955E+02 -.132E+03 -.959E+03   -.623E+00 0.139E+01 0.205E+01   -.451E-01 -.265E-01 -.113E+00
   0.300E+02 -.217E+03 -.231E+04   -.274E+02 0.221E+03 0.232E+04   -.234E+01 -.226E+01 -.172E+01   -.901E-01 0.141E+00 0.284E-02
   -.739E+02 -.111E+03 -.810E+03   0.750E+02 0.114E+03 0.810E+03   -.957E+00 -.273E+01 -.800E+00   0.334E-02 -.936E-03 -.137E+00
   0.400E+02 -.334E+03 0.159E+04   -.417E+02 0.336E+03 -.159E+04   0.152E+01 -.631E+00 0.182E+01   0.790E-02 -.112E+00 -.194E+00
   -.696E+02 -.190E+03 0.386E+03   0.707E+02 0.192E+03 -.386E+03   -.108E+01 -.241E+01 0.691E+00   0.159E-01 0.276E-01 -.219E+00
   0.345E+03 0.199E+03 0.186E+04   -.349E+03 -.200E+03 -.186E+04   0.134E+01 0.940E+00 0.284E+01   -.161E-01 -.788E-01 0.220E-01
   0.186E+03 0.292E+02 0.392E+03   -.189E+03 -.289E+02 -.392E+03   0.274E+01 -.318E+00 0.408E+00   0.381E-01 -.167E-01 -.144E+00
   0.180E+03 -.383E+02 -.825E+03   -.183E+03 0.386E+02 0.825E+03   0.283E+01 -.402E+00 -.680E+00   0.822E-01 0.138E-01 -.205E+00
   -.130E+02 -.164E+03 -.228E+04   0.110E+02 0.164E+03 0.228E+04   0.123E+01 0.515E-02 -.173E+01   0.195E+00 0.106E+00 -.852E-01
   -.581E+01 0.106E+02 -.181E+02   -.231E-12 -.179E-11 -.364E-11   0.603E+01 -.115E+02 0.381E+02   -.485E+00 0.954E+00 -.198E+02

 POSITION                                       TOTAL-FORCE (eV/Angst)
      5.35228      4.81788      6.64784         0.209784     -0.402738     -0.148814
      5.93595      3.87238      9.58390        -0.235239      0.913158     -1.333609
      1.37129      2.01854      2.05071         0.096184     -0.030049     -0.833735
      2.24633      0.73197      3.71178         0.042815     -0.915632      2.556629
      0.50528      0.41260     10.98504        -0.052438      0.049826      1.165855
      4.98542      5.41879      1.32584        -0.713512      1.143031     -1.763973
      4.76861      3.35453      2.93606        -0.246439     -1.096464      1.412153
      5.35228      2.40903      5.87212        -0.143492      0.113552      0.024001
      5.93595      1.46353      8.80817        -0.001840     -0.371079     -1.928408
      1.87746      3.73836      5.87212         0.103991      0.111498      0.095254
      2.46113      2.79286      8.80817        -0.082991     -0.083937     -1.668323
      3.33438      2.12387     10.98453         0.132619     -0.122926      1.194557
      6.92203      4.68386      2.93606         0.823532     -0.377935      1.711023
     10.98051      4.81788      6.64784         0.195465     -0.327054     -0.097167
     11.56418      3.87238      9.58390        -0.682432      0.775531     -1.331997
      6.96399      2.06972      2.04222         0.059781     -0.260100     -0.834623
      7.87456      0.73197      3.71178        -0.125013     -0.713164      2.331975
      9.88854      4.29876      0.76221        -0.370785      0.025098     -1.450447
     10.39684      3.35453      2.93606         0.320208     -0.769191      1.571700
     10.98051      2.40903      5.87212        -0.112197     -0.049321      0.021786
     11.56418      1.46353      8.80817         0.061502     -0.002475     -1.833206
      7.50570      3.73836      5.87212         0.055144      0.168810      0.083922
      8.08937      2.79286      8.80817         0.078368      0.252706     -2.990943
      8.88859      1.79368     10.84815         0.050087     -0.551750      1.324298
     12.55026      4.68386      2.93606         0.310251     -0.566990      1.681831
      7.87456      9.84929      6.64784         0.075836     -0.262349     -0.089853
      8.45823      8.90379      9.58390         0.067893      1.799737     -1.728243
      4.76861      5.76338      3.71178        -0.515174      0.554269      2.337113
      3.29729      5.27514     10.82041         0.694639     -0.158395      1.254691
      2.67944      0.11863      1.20480        -0.082452      0.781198     -2.040816
      7.29089      8.38594      2.93606        -0.718405     -0.641322      1.709626
      7.87456      7.44044      5.87212         0.059877      0.112056      0.023637
      8.45823      6.49494      8.80817         0.165481     -0.626488     -2.218724
      4.39975      8.76977      5.87212        -0.123590     -0.018890     -0.017696
      4.98341      7.82427      8.80817         0.286052     -0.225623     -1.855763
      9.44431      9.71527      2.93606         1.414994      0.247496      1.627608
     13.50279      9.84929      6.64784         0.244607     -0.443346     -0.127684
     14.08646      8.90379      9.58390        -0.749402      0.532136     -1.197975
     10.39684      5.76338      3.71178        -0.059648      0.267378      2.029163
      8.29936      0.15345      1.21015        -0.098164      0.844381     -1.965780
     12.91912      8.38594      2.93606        -0.575560     -0.473048      1.924324
     13.50279      7.44044      5.87212         0.020603      0.093203      0.044011
     14.08646      6.49494      8.80817        -0.231691      0.117235     -2.553029
     10.02798      8.76977      5.87212        -0.150494     -0.017458     -0.115265
     10.61165      7.82427      8.80817         0.071362      0.362819     -3.169554
     11.60566      6.87061     10.73748        -0.459158     -0.110992      1.414680
     15.07254      9.71527      2.93606         1.244944      0.449586      1.631194
     11.92578      5.56229      0.76683         0.165669      0.350115     -1.478227
      1.66190      1.67871      7.01153         0.089022     -0.121816     -0.070924
      2.24556      0.73321      9.94759         0.627439     -1.130036     -0.042443
      6.03729      3.70612      1.26228         0.669922     -0.944255     -3.475090
      6.70646      2.62422      4.07548        -0.264237      0.184816      1.237133
      2.05104      3.68222     10.71261         0.032631      0.762593      2.089926
      7.29013      4.74605      7.99931         0.247133      0.066118     -0.389622
      3.56574      1.62366      2.32565         1.090820      1.524397     -1.032736
      4.18418      0.66015      5.06325         0.157428     -0.084002      0.195678
      3.34571      4.85851      2.42312        -1.461020      0.265609     -1.204875
      3.96438      3.99884      5.06325         0.061586     -0.156291      0.470352
      4.54805      3.05334      7.99931        -0.311434     -0.056377     -0.606283
      5.30901      2.18956     10.62480        -0.117352     -0.974313      2.874719
[...]
      6.48666      9.03025      5.06325        -0.152173      0.020752      0.158678
      7.07033      8.08475      7.99931        -0.168987      0.205337     -0.555414
      7.70812      7.26825     10.50155        -1.503142     -0.914042      3.503956
      9.81241      6.71012      7.01153        -0.064999      0.031336     -0.926941
     10.36757      5.76102      9.54957         0.014273     -1.511378      1.194136
     14.35139      8.48964      1.45138         1.239026     -2.163765     -3.129934
     14.85697      7.65563      4.07548         0.111825      0.074435      0.627595
     10.19117      8.38871     10.70579         0.144822      1.022975      3.314497
     15.44064      9.77746      7.99931         0.123704      0.237943     -0.683767
     11.83242      6.64123      2.45575        -0.219543      1.702360     -1.337959
     12.33469      5.69156      5.06325         0.077665     -0.055266      0.626034
     11.53122      9.97575      2.12720        -1.984354     -0.325503     -0.101416
     12.11489      9.03025      5.06325        -0.158212     -0.012036      0.023378
     12.69856      8.08475      7.99931        -0.054093     -0.063047     -0.657864
     13.62034      7.14172     10.73883        -0.554381      0.186624      2.596566
    total drift:                               -0.261983      0.047078      0.132262

  FREE ENERGIE OF THE ION-ELECTRON SYSTEM (eV)
  free  energy   TOTEN  =      -470.24584846 eV

  energy  without entropy=     -468.84583767  energy(sigma->0) =     -469.54584306