 vasp.5.4.4.18Apr17-6-g9f103f2a35 (build Aug 13 2019 17:33:20) gamma-only

 executed on             LinuxIFC date 2020.05.10  22:10:37

 INCAR:
 POTCAR:    PAW_PBE Ni_pv 06Sep2000
 POTCAR:    PAW_PBE S 06Sep2000
 POTCAR:    PAW_PBE Ni_pv 06Sep2000
   VRHFIN =Ni:

   TITEL  = PAW_PBE Ni_pv 06Sep2000
   POMASS =   58.690; ZVAL   =   16.000    mass and valenz
   ENMAX  =  367.986; ENMIN  =  275.989 eV

 POTCAR:    PAW_PBE S 06Sep2000
   VRHFIN =S : s2p4

   TITEL  = PAW_PBE S 06Sep2000
   POMASS =   32.066; ZVAL   =    6.000    mass and valenz
   ENMAX  =  258.689; ENMIN  =  194.016 eV

 Optimization of the real space projectors (new method)

 maximal supplied QI-value         = 18.90
 optimisation between [QCUT,QGAM] = [ 10.77, 21.73] = [ 32.49,132.25] Ry
 Optimized for a Real-space Cutoff    1.38 Angstroem

   l    n(q)    QCUT    max X(q) W(low)/X(q) W(high)/X(q)  e(spline)
   1      8    10.771     2.836    0.40E-04    0.29E-04    0.12E-06
   1      8    10.771     4.023    0.10E-03    0.48E-04    0.29E-06
   2      8    10.771    73.368    0.42E-03    0.97E-04    0.44E-06
   2      8    10.771    69.010    0.42E-03    0.99E-04    0.45E-06
   0      9    10.771    54.797    0.10E-03    0.56E-04    0.74E-07
   0      9    10.771    24.266    0.89E-04    0.49E-04    0.67E-07
 Optimization of the real space projectors (new method)

 maximal supplied QI-value         = 19.84
 optimisation between [QCUT,QGAM] = [ 10.71, 21.63] = [ 32.15,130.99] Ry
 Optimized for a Real-space Cutoff    1.19 Angstroem

   l    n(q)    QCUT    max X(q) W(low)/X(q) W(high)/X(q)  e(spline)
   0      8    10.715   187.594    0.41E-03    0.53E-04    0.66E-07
   0      8    10.715   164.243    0.41E-03    0.53E-04    0.65E-07
   1      7    10.715    67.533    0.19E-03    0.59E-03    0.68E-07
   1      7    10.715    50.729    0.19E-03    0.58E-03    0.67E-07
  PAW_PBE Ni_pv 06Sep2000               :
  PAW_PBE S 06Sep2000                   :

 POSCAR: Type_052 Type_152
  positions in cartesian coordinates
 exchange correlation table for  LEXCH =        8
   RHO(1)=    0.500       N(1)  =     2000
   RHO(2)=  100.500       N(2)  =     4000

 ion  position               nearest neighbor table
   1  0.261  0.479  0.291-  79 2.25  63 2.26  87 2.26  59 2.36  64 2.36   7 2.53  23 2.53
   2  0.355  0.385  0.419-  71 2.09  80 2.25  59 2.26  64 2.26  65 2.36   3 2.50   8 2.53  24 2.53

   3  0.410  0.339  0.525-  96 2.05  65 2.07  71 2.09  57 2.12   2 2.50
   4  0.167  0.073  0.162-  88 2.11  69 2.25  60 2.26  61 2.36  89 2.36  32 2.49  39 2.53  33 2.53

[...]

  11  0.188  0.175  0.481-  54 2.07  83 2.09  65 2.16  58 2.17  10 2.48
  12  0.406  0.465  0.128-  86 2.11  75 2.13  55 2.25  56 2.36  87 2.36  30 2.53   6 2.53
  13  0.409  0.053  0.038-  60 2.11  81 2.18 101 2.18  39 2.30  32 2.48
  14  0.761  0.479  0.291-  92 2.25  76 2.26 100 2.26  72 2.36  77 2.36  21 2.53   9 2.53
  15  0.855  0.385  0.419-  78 2.21  70 2.24  72 2.26  77 2.26  93 2.26  58 2.36  16 2.45  22 2.53
                            10 2.53
  16  0.929  0.289  0.516-  58 2.02  78 2.03  70 2.05  15 2.45
  17  0.667  0.073  0.162-  73 2.11 101 2.24  56 2.25  74 2.36 102 2.36  44 2.47  51 2.53  45 2.53

[...]

  27  0.261  0.979  0.291-  53 2.25  89 2.26  61 2.26  85 2.36  90 2.36  34 2.53  48 2.53
  28  0.355  0.885  0.419-  91 2.20  83 2.25  85 2.26  90 2.26  54 2.26  97 2.36  29 2.47  35 2.53
                            49 2.53
  29  0.430  0.790  0.517-  97 2.01  91 2.03  83 2.04  28 2.47
  30  0.167  0.573  0.162-  86 2.11  95 2.25  62 2.33  87 2.36  63 2.36  40 2.50  12 2.53   6 2.53

[...]

  52  0.934  0.510  0.032-  68 2.09  62 2.10  99 2.21  26 2.32  19 2.51
  53  0.073  0.167  0.306-  27 2.25  10 2.26  22 2.26   9 2.36  21 2.36  54 2.59
  54  0.164  0.075  0.409-  11 2.07  22 2.12  10 2.12  28 2.26  83 2.56  53 2.59
  55  0.375  0.349  0.055-  40 2.03   6 2.07   5 2.15  12 2.25
  56  0.479  0.261  0.178-  17 2.25   7 2.26  23 2.26   6 2.36  12 2.36
  57  0.225  0.504  0.542-  38 2.08   3 2.12  31 2.12  80 2.56
  58  0.030  0.378  0.478-  16 2.02  31 2.14  11 2.17  10 2.36  15 2.36  70 2.61
  59  0.436  0.472  0.350-  35 2.25   2 2.26  24 2.26   1 2.36  23 2.36  71 2.76
  60  0.256  0.162  0.098-  32 2.07  13 2.11   5 2.14   6 2.15  39 2.21   4 2.26
  61  0.342  0.066  0.221-   7 2.25  27 2.26  48 2.26   4 2.36  39 2.36
  62  0.083  0.474  0.095-  40 2.07  52 2.10   6 2.16  26 2.18   5 2.18  30 2.33
  63  0.174  0.397  0.221-   9 2.25   7 2.26   1 2.26   6 2.36  30 2.36
  64  0.268  0.303  0.350-  10 2.25   2 2.26   8 2.26   1 2.36   7 2.36
  65  0.362  0.209  0.478-  18 2.04   3 2.07  11 2.16   2 2.36   8 2.36
  66  0.573  0.167  0.306-  41 2.25  24 2.26   8 2.26  23 2.36   7 2.36
  67  0.667  0.073  0.435-  18 2.05  25 2.06  42 2.25  24 2.36   8 2.36
  68  0.888  0.357  0.057-  19 2.03  52 2.09  26 2.11  20 2.17
  69  0.979  0.261  0.178-   4 2.25  21 2.26   9 2.26  20 2.36  26 2.36
  70  0.780  0.477  0.506-  16 2.05  50 2.09  15 2.24  93 2.56  58 2.61
  71  0.515  0.390  0.463-  25 2.06   2 2.09   3 2.09  24 2.13  59 2.76
  72  0.936  0.472  0.350-  47 2.25  15 2.26  10 2.26  14 2.36   9 2.36
  73  0.757  0.157  0.106-  44 2.06  17 2.11  51 2.12  20 2.14
  74  0.842  0.066  0.221-  21 2.25  41 2.26  36 2.26  17 2.36  51 2.36
  75  0.582  0.482  0.107-  19 2.07  43 2.10  20 2.11  12 2.13
  76  0.674  0.397  0.221-  23 2.25  21 2.26  14 2.26  20 2.36  43 2.36
  77  0.768  0.303  0.350-  24 2.25  15 2.26  22 2.26  14 2.36  21 2.36  78 2.70
  78  0.841  0.214  0.460-  16 2.03  22 2.11  25 2.15  15 2.21  77 2.70
  79  0.073  0.667  0.306-   1 2.25  37 2.26  47 2.26  36 2.36  46 2.36
  80  0.167  0.573  0.435-  38 2.03  31 2.03   2 2.25  37 2.36  47 2.36  57 2.56
  81  0.384  0.875  0.054-  32 2.02  39 2.05  13 2.18  33 2.26
  82  0.479  0.761  0.178-  43 2.25  34 2.26  48 2.26  33 2.36  39 2.36
  83  0.278  0.976  0.507-  29 2.04  11 2.09  28 2.25  54 2.56  97 2.63
  84  0.024  0.843  0.467-  37 2.05  42 2.07  38 2.08
  85  0.436  0.972  0.350-   8 2.25  28 2.26  49 2.26  27 2.36  48 2.36
  86  0.259  0.657  0.107-  40 2.06  12 2.11  30 2.11  33 2.12
  87  0.342  0.566  0.221-  34 2.25   1 2.26  23 2.26  30 2.36  12 2.36
  88  0.083  0.980  0.107-  32 2.06  33 2.10   4 2.11  51 2.12
  89  0.174  0.897  0.221-  36 2.25  34 2.26  27 2.26  33 2.36   4 2.36
  90  0.268  0.803  0.350-  37 2.25  28 2.26  35 2.26  27 2.36  34 2.36  91 2.71
  91  0.342  0.715  0.460-  29 2.03  35 2.11  38 2.12  28 2.20  90 2.71
  92  0.573  0.667  0.306-  14 2.25  49 2.26  35 2.26  48 2.36  34 2.36  93 2.59
  93  0.665  0.575  0.409-  50 2.07  49 2.12  35 2.12  15 2.26  70 2.56  92 2.59
  94  0.883  0.856  0.061-  44 2.01  51 2.06  45 2.06
  95  0.979  0.761  0.178-  30 2.25  46 2.26  36 2.26  45 2.36  51 2.36
  96  0.566  0.178  0.561-  25 2.04   3 2.05  18 2.06
  97  0.530  0.878  0.478-  29 2.01  18 2.18  50 2.18  49 2.36  28 2.36  83 2.63
  98  0.936  0.972  0.350-  22 2.25  42 2.26  37 2.26  41 2.36  36 2.36
  99  0.782  0.651  0.092-  19 2.06  26 2.10  45 2.18  52 2.21  43 2.47
 100  0.842  0.566  0.221-  46 2.25  14 2.26   9 2.26  43 2.36  26 2.36
 101  0.576  0.987  0.099-  44 2.05  39 2.14  13 2.18  45 2.23  17 2.24
 102  0.674  0.897  0.221-  48 2.25  46 2.26  41 2.26  45 2.36  17 2.36
 103  0.768  0.803  0.350-  49 2.25  42 2.26  47 2.26  41 2.36  46 2.36
 104  0.861  0.709  0.464-  47 2.09  31 2.12  50 2.13  42 2.21

  LATTYP: Found a base centered orthorhombic cell.
 ALAT       =    11.8257374459
 B/A-ratio  =     1.6199260857
 C/A-ratio  =     1.9350716598

  Lattice vectors:

 A1 = (  11.2564630382,   0.0000000000,   0.0000000000)
 A2 = (  -5.0445621212, -10.0628203371,   0.0000000000)
 A3 = (   0.0000000000,   0.0000000000, -22.8836493875)

Analysis of symmetry for initial positions (statically):
 Subroutine PRICEL returns:
 Original cell was already a primitive cell.

 Routine SETGRP: Setting up the symmetry group for a
 base centered orthorhombic supercell.

 Subroutine GETGRP returns: Found  1 space group operations
 (whereof  1 operations were pure point group operations)
 out of a pool of  8 trial point group operations.

The static configuration has the point symmetry C_1 .

Analysis of symmetry for dynamics (positions and initial velocities):
 Subroutine PRICEL returns:
 Original cell was already a primitive cell.

 Routine SETGRP: Setting up the symmetry group for a
 base centered orthorhombic supercell.

 Subroutine GETGRP returns: Found  1 space group operations
 (whereof  1 operations were pure point group operations)
 out of a pool of  8 trial point group operations.

The dynamic configuration has the point symmetry C_1 .

 Subroutine INISYM returns: Found  1 space group operations
 (whereof  1 operations are pure point group operations),
 and found     1 'primitive' translations

 KPOINTS: gamma-point-only calculation. no periodi

Automatic generation of k-mesh.
Space group operators:
 irot       det(A)        alpha          n_x          n_y          n_z        tau_x        tau_y        tau_z
    1     1.000000     0.000001     1.000000     0.000000     0.000000     0.000000     0.000000     0.000000

 Subroutine IBZKPT returns following result:

 Found      1 irreducible k-points:

 Following reciprocal coordinates:
            Coordinates               Weight
  0.000000  0.000000  0.000000      1.000000

 Following cartesian coordinates:
            Coordinates               Weight
  0.000000  0.000000  0.000000      1.000000

 SYSTEM =  "Millerite NiS"
 POSCAR =  Type_052 Type_152

 Startparameter for this run:
   NWRITE =      2    write-flag & timer
   PREC   = normal    normal or accurate (medium, high low for compatibility)
   ISTART =      0    job   : 0-new  1-cont  2-samecut
   ICHARG =      2    charge: 1-file 2-atom 10-const
   ISPIN  =      1    spin polarized calculation?
   LNONCOLLINEAR =      F non collinear calculations
   LSORBIT =      F    spin-orbit coupling
   INIWAV =      1    electr: 0-lowe 1-rand  2-diag
   LASPH  =      F    aspherical Exc in radial PAW
   METAGGA=      F    non-selfconsistent MetaGGA calc.

 Electronic Relaxation 1
   ENCUT  =  450.0 eV  33.07 Ry    5.75 a.u.  19.47 19.47 39.58*2*pi/ulx,y,z
   ENINI  =  450.0     initial cutoff
   ENAUG  =  703.4 eV  augmentation charge cutoff
   NELM   =    100;   NELMIN=  2; NELMDL= -5     # of ELM steps
   EDIFF  = 0.1E-03   stopping-criterion for ELM
   LREAL  =      T    real-space projection
   NLSPLINE    = F    spline interpolate recip. space projectors
   LCOMPAT=      F    compatible to vasp.4.4
   GGA_COMPAT  = T    GGA compatible to vasp.4.4-vasp.4.6
   LMAXPAW     = -100 max onsite density
   LMAXMIX     =    2 max onsite mixed and CHGCAR
   VOSKOWN=      0    Vosko Wilk Nusair interpolation
   ROPT   =   -0.00050  -0.00050
 Ionic relaxation
   EDIFFG = 0.1E-02   stopping-criterion for IOM
   NSW    =      0    number of steps for IOM
   NBLOCK =      1;   KBLOCK =      1    inner block; outer block
   IBRION =     -1    ionic relax: 0-MD 1-quasi-New 2-CG
   NFREE  =      0    steps in history (QN), initial steepest desc. (CG)
   ISIF   =      2    stress and relaxation
   IWAVPR =     10    prediction:  0-non 1-charg 2-wave 3-comb
[...]
     0.000000000  0.000000000 22.883649388     0.000000000  0.000000000  0.043699324

  length of vectors
    11.256463038 11.256463038 22.883649388     0.099375718  0.099375718  0.043699324

 FORCES acting on ions
    electron-ion (+dipol)            ewald-force                    non-local-force                 convergence-correction
   0.217E+03 -.447E+03 -.395E+03   -.217E+03 0.448E+03 0.395E+03   0.753E+00 -.107E+01 0.281E+00   -.260E-01 -.772E-01 -.219E+00
   0.271E+03 -.504E+03 -.321E+04   -.274E+03 0.505E+03 0.321E+04   0.216E+01 -.109E+01 0.197E+00   0.492E-01 -.112E+00 0.721E+00
   0.310E+02 -.408E+03 -.594E+04   -.343E+02 0.413E+03 0.595E+04   0.291E+01 -.314E+01 -.478E+01   0.445E-01 -.409E-01 0.682E+00
   0.461E+03 -.385E+03 0.247E+04   -.463E+03 0.388E+03 -.247E+04   0.185E+01 -.238E+01 -.255E+01   0.127E+00 -.746E-02 -.962E+00
   0.223E+03 0.182E+03 0.614E+04   -.223E+03 -.182E+03 -.614E+04   -.487E+00 0.140E+00 0.168E+01   -.307E-01 -.966E-01 -.364E+00
   -.778E+02 0.445E+03 0.317E+04   0.799E+02 -.448E+03 -.316E+04   -.137E+01 0.216E+01 -.401E+01   -.215E+00 -.281E-01 -.117E+01
   0.190E+03 0.453E+03 0.643E+03   -.190E+03 -.453E+03 -.644E+03   0.787E+00 0.664E+00 0.136E+01   -.777E-01 -.133E+00 -.384E+00
   0.194E+03 0.505E+03 -.223E+04   -.195E+03 -.505E+03 0.223E+04   0.123E+01 0.536E+00 0.218E+01   -.565E-01 -.150E+00 0.481E+00
   -.470E+03 -.166E+02 0.637E+03   0.471E+03 0.174E+02 -.639E+03   -.103E+01 -.745E+00 0.161E+01   -.915E-01 -.642E-01 -.195E+00
   -.400E+03 -.998E+02 -.226E+04   0.404E+03 0.103E+03 0.226E+04   -.295E+01 -.233E+01 0.120E+01   -.161E+00 -.632E-01 0.699E+00
   0.342E+02 0.245E+03 -.527E+04   -.323E+02 -.243E+03 0.527E+04   -.102E+01 -.111E+01 -.177E+01   -.351E+00 0.149E-01 0.795E+00
   -.890E+03 -.383E+02 0.391E+04   0.894E+03 0.373E+02 -.391E+04   -.273E+01 0.359E+00 0.124E+00   -.283E+00 0.573E-01 -.677E+00
   -.651E+03 0.182E+03 0.611E+04   0.652E+03 -.181E+03 -.611E+04   0.295E+00 0.106E+00 0.290E+00   -.471E+00 0.293E+00 -.354E+00
   0.270E+03 -.380E+03 -.353E+03   -.270E+03 0.380E+03 0.352E+03   0.343E+00 -.656E+00 0.105E+01   -.912E-01 -.341E-01 0.728E-01
   0.326E+03 -.366E+03 -.336E+04   -.325E+03 0.367E+03 0.336E+04   -.657E+00 -.232E+00 0.192E+01   -.161E-01 -.133E+00 0.100E+01
   0.211E+03 0.400E+03 -.610E+04   -.210E+03 -.406E+03 0.610E+04   -.673E+00 0.506E+01 -.138E+00   0.278E-01 -.102E-01 0.447E+00
   0.211E+03 -.495E+03 0.258E+04   -.213E+03 0.498E+03 -.258E+04   0.193E+01 -.269E+01 -.176E+01   -.890E-01 0.856E-01 -.376E+00
   -.232E+02 0.785E+03 -.538E+04   0.213E+02 -.789E+03 0.539E+04   0.164E+01 0.285E+01 -.264E+01   -.190E+00 -.127E+00 0.634E+00
   0.885E+03 -.415E+03 0.601E+04   -.889E+03 0.416E+03 -.602E+04   0.280E+01 0.149E-01 0.450E+01   0.200E+00 -.177E-01 -.467E+00
   0.443E+03 0.723E+03 0.389E+04   -.444E+03 -.726E+03 -.389E+04   0.135E+01 0.242E+01 0.132E+00   0.579E-01 -.395E-01 -.404E+00
   0.285E+03 0.490E+03 0.683E+03   -.286E+03 -.490E+03 -.684E+03   0.940E+00 0.413E+00 0.104E+01   -.270E-01 0.113E+00 -.168E+00
   0.334E+03 0.671E+03 -.260E+04   -.337E+03 -.675E+03 0.259E+04   0.189E+01 0.355E+01 -.121E+01   0.343E-01 0.228E+00 0.706E+00
   -.554E+03 -.259E+02 0.705E+03   0.555E+03 0.263E+02 -.706E+03   -.854E+00 -.426E+00 0.130E+01   0.128E+00 -.634E-01 -.347E+00
   -.604E+03 -.245E+01 -.220E+04   0.605E+03 0.212E+01 0.220E+04   -.137E+01 -.506E-01 0.241E+01   0.253E+00 -.279E-01 0.471E+00
   -.884E+03 0.194E+03 -.534E+04   0.889E+03 -.194E+03 0.534E+04   -.292E+01 -.141E+00 -.281E+01   0.208E+00 0.101E+00 0.633E+00
   -.371E+03 0.483E+02 0.322E+04   0.372E+03 -.497E+02 -.321E+04   -.699E+00 0.472E+00 -.354E+01   0.286E+00 -.119E+00 -.836E+00
   0.287E+03 -.338E+03 -.381E+03   -.288E+03 0.339E+03 0.380E+03   0.415E+00 -.733E+00 0.120E+01   -.104E+00 0.195E+00 -.750E-01
   0.373E+03 -.381E+03 -.337E+04   -.373E+03 0.382E+03 0.336E+04   -.413E+00 -.570E+00 0.199E+01   0.870E-01 -.107E+00 0.121E+01
   0.139E+03 0.288E+03 -.610E+04   -.138E+03 -.295E+03 0.610E+04   -.713E+00 0.520E+01 0.122E+00   0.899E-01 -.377E-01 0.580E+00
   0.236E+03 -.669E+03 0.252E+04   -.238E+03 0.672E+03 -.252E+04   0.143E+01 -.258E+01 -.218E+01   0.920E-01 -.152E+00 -.923E+00
   0.372E+03 -.879E+02 -.551E+04   -.376E+03 0.864E+02 0.551E+04   0.356E+01 0.139E+01 -.168E+01   -.268E+00 -.187E+00 0.715E+00
   0.943E+03 0.544E+02 0.599E+04   -.948E+03 -.557E+02 -.599E+04   0.324E+01 0.215E+01 0.539E+01   0.400E+00 0.156E+00 -.442E+00
   0.320E+03 0.776E+03 0.396E+04   -.320E+03 -.780E+03 -.396E+04   0.729E+00 0.272E+01 0.373E+00   0.293E-01 0.178E+00 -.776E+00
   0.259E+03 0.465E+03 0.712E+03   -.260E+03 -.465E+03 -.713E+03   0.101E+01 0.505E+00 0.129E+01   -.497E-01 -.159E+00 -.385E+00
   0.275E+03 0.516E+03 -.250E+04   -.278E+03 -.519E+03 0.250E+04   0.185E+01 0.315E+01 -.116E+01   0.183E+00 -.531E-01 0.704E+00
   -.512E+03 -.273E+02 0.672E+03   0.512E+03 0.278E+02 -.672E+03   -.851E+00 -.673E+00 0.998E+00   0.207E+00 0.196E+00 -.391E+00
   -.485E+03 -.195E+03 -.245E+04   0.487E+03 0.196E+03 0.244E+04   -.233E+01 -.173E+01 0.165E+01   0.209E+00 0.121E+00 0.554E+00
   -.276E+03 -.535E+03 -.557E+04   0.278E+03 0.536E+03 0.557E+04   -.216E+01 -.163E+00 -.286E+01   0.383E+00 0.130E+00 0.745E+00
   -.560E+03 0.440E+03 0.333E+04   0.563E+03 -.443E+03 -.333E+04   -.225E+01 0.242E+01 -.350E+01   -.262E+00 0.291E+00 -.109E+01
   -.355E+03 -.986E+03 0.599E+04   0.358E+03 0.990E+03 -.599E+04   -.304E+01 -.206E+01 0.477E+01   -.231E+00 -.378E+00 -.452E+00
   0.197E+03 -.387E+03 -.427E+03   -.197E+03 0.387E+03 0.427E+03   0.709E+00 -.111E+01 0.144E+00   -.116E+00 0.379E+00 0.291E-01
   0.109E+03 -.514E+03 -.386E+04   -.111E+03 0.517E+03 0.386E+04   0.141E+01 -.282E+01 -.191E+01   -.148E+00 0.193E+00 0.659E+00
   0.393E+03 -.597E+03 0.262E+04   -.394E+03 0.600E+03 -.262E+04   0.113E+01 -.283E+01 -.132E+01   -.101E+00 -.367E-01 -.377E+00
   -.910E+02 -.385E+03 0.614E+04   0.928E+02 0.386E+03 -.614E+04   -.221E+01 0.394E+00 0.558E+01   -.174E+00 0.154E-01 -.327E+00
   0.263E+03 0.557E+03 0.381E+04   -.264E+03 -.561E+03 -.380E+04   0.123E+01 0.261E+01 0.144E+00   -.431E-01 -.787E-01 -.521E+00
   0.220E+03 0.404E+03 0.676E+03   -.221E+03 -.405E+03 -.676E+03   0.107E+01 0.643E+00 0.131E+01   -.149E+00 -.922E-01 -.316E+00
   0.178E+03 0.308E+03 -.232E+04   -.179E+03 -.311E+03 0.232E+04   0.166E+01 0.229E+01 0.230E+01   -.280E+00 -.191E+00 0.560E+00
   -.517E+03 0.276E+02 0.691E+03   0.518E+03 -.268E+02 -.692E+03   -.103E+01 -.772E+00 0.170E+01   0.157E-01 0.144E-01 -.318E+00
   -.482E+03 -.146E+03 -.229E+04   0.485E+03 0.149E+03 0.228E+04   -.267E+01 -.238E+01 0.104E+01   0.673E-02 -.158E+00 0.798E+00
   -.219E+03 0.602E+02 -.536E+04   0.222E+03 -.581E+02 0.536E+04   -.212E+01 -.137E+01 -.820E+00   -.374E+00 -.176E-01 0.796E+00
   -.735E+03 0.294E+02 0.394E+04   0.739E+03 -.299E+02 -.394E+04   -.292E+01 0.319E+00 0.120E+01   0.295E+00 -.199E-01 -.436E+00
   -.125E+03 -.460E+03 0.619E+04   0.124E+03 0.459E+03 -.619E+04   0.428E+00 0.956E+00 0.644E+00   0.497E+00 -.287E+00 -.525E+00
   -.419E+02 0.131E+03 -.101E+03   0.427E+02 -.132E+03 0.985E+02   -.106E+01 0.168E+01 0.184E+01   -.112E-01 0.452E-01 0.438E-01
   0.861E+02 0.260E+03 -.118E+04   -.867E+02 -.261E+03 0.118E+04   0.415E+00 0.728E+00 0.259E+01   -.121E-01 0.979E-01 0.343E+00
   -.549E+03 0.185E+03 0.224E+04   0.555E+03 -.188E+03 -.225E+04   -.284E+01 0.146E+01 0.105E+01   -.276E+00 0.123E-02 -.202E+00
   -.145E+03 0.116E+03 0.105E+04   0.146E+03 -.117E+03 -.105E+04   -.795E+00 0.100E+01 0.148E+01   -.644E-01 0.100E-01 -.260E+00
   0.236E+02 -.245E+02 -.234E+04   -.234E+02 0.238E+02 0.235E+04   -.342E+00 0.321E+00 -.143E+01   0.542E-01 -.459E-01 0.216E+00
   -.109E+03 -.138E+03 -.188E+04   0.112E+03 0.140E+03 0.188E+04   -.149E+01 -.192E+01 -.144E+01   -.247E+00 -.198E+00 0.343E+00
   -.884E+02 -.174E+03 -.573E+03   0.897E+02 0.177E+03 0.572E+03   -.164E+01 -.302E+01 -.156E+00   0.117E+00 0.188E-01 0.123E+00
   0.749E+02 -.131E+03 0.150E+04   -.754E+02 0.133E+03 -.149E+04   0.198E+00 -.879E+00 -.223E+01   0.261E-01 0.159E-01 -.474E+00
[...]
   0.157E+03 0.121E+03 -.173E+04   -.159E+03 -.123E+03 0.173E+04   0.138E+01 0.526E-01 0.235E+00   0.204E+00 0.815E-01 0.474E+00
   -.583E+02 0.113E+03 -.839E+02   0.591E+02 -.115E+03 0.810E+02   -.109E+01 0.196E+01 0.197E+01   0.356E-01 -.146E+00 0.505E-01
   0.398E+02 0.222E+03 -.117E+04   -.407E+02 -.223E+03 0.117E+04   0.564E+00 0.971E+00 0.275E+01   0.280E-01 -.171E-01 0.306E+00
   -.260E+03 0.268E+03 0.232E+04   0.261E+03 -.271E+03 -.232E+04   -.634E+00 0.113E+01 0.836E+00   0.934E-01 -.129E+00 -.132E+00
   -.987E+02 0.968E+02 0.107E+04   0.991E+02 -.976E+02 -.107E+04   -.682E+00 0.539E+00 0.165E+01   0.867E-01 -.418E-01 -.373E+00
   -.152E+03 0.169E+03 -.249E+04   0.153E+03 -.170E+03 0.249E+04   -.360E+00 0.230E+00 -.135E+01   -.344E-01 0.249E-01 0.141E+00
   -.189E+03 -.111E+03 -.189E+04   0.193E+03 0.113E+03 0.189E+04   -.151E+01 -.218E+01 -.167E+01   -.178E+00 -.148E+00 0.402E+00
   -.796E+02 -.148E+03 -.649E+03   0.810E+02 0.151E+03 0.649E+03   -.151E+01 -.243E+01 -.568E+00   0.786E-02 0.133E+00 0.148E+00
   0.208E+02 -.415E+03 0.178E+04   -.214E+02 0.418E+03 -.178E+04   0.183E+00 -.656E+00 0.111E+01   0.915E-01 -.237E-01 -.246E+00
   -.603E+02 -.176E+03 0.536E+03   0.618E+02 0.179E+03 -.537E+03   -.136E+01 -.250E+01 0.682E+00   -.110E+00 -.101E+00 -.145E+00
   0.425E+02 0.729E+02 0.170E+04   -.427E+02 -.738E+02 -.170E+04   -.206E+00 0.792E+00 -.965E+00   -.266E+00 0.560E-01 -.233E+00
   0.158E+03 0.801E+01 0.552E+03   -.161E+03 -.792E+01 -.553E+03   0.286E+01 -.308E+00 0.888E+00   -.213E-01 0.101E+00 -.223E+00
   0.138E+03 -.315E+02 -.589E+03   -.141E+03 0.317E+02 0.589E+03   0.310E+01 0.247E+00 -.652E+00   -.108E+00 0.277E-01 0.202E+00
   0.752E+02 -.164E+03 -.194E+04   -.762E+02 0.165E+03 0.194E+04   0.297E+00 0.396E-01 -.176E+01   -.174E+00 -.330E-01 0.303E+00
   -.517E+01 0.153E+01 -.225E+02   0.924E-12 -.168E-11 0.250E-11   0.546E+01 -.532E+00 0.216E+02   -.499E+00 -.870E+00 0.788E+00

 POSITION                                       TOTAL-FORCE (eV/Angst)
      5.35228      4.81788      6.64784         0.107802     -0.122018     -0.025213
      5.93595      3.87238      9.58390        -1.040763     -0.217229     -1.470472
      6.32352      3.41038     12.01490        -0.306950      1.189671      1.017501
      2.24633      0.73197      3.71178        -0.180834      0.677826      1.476264
      3.91417      3.18543      0.77995        -0.676219     -0.269953     -1.065425
      4.76861      3.35453      2.93606         0.505148     -0.629991      3.420492
      5.35228      2.40903      5.87212         0.092161      0.084666      0.056400
      5.93595      1.46353      8.80817         0.052721     -0.173502     -0.106631
      1.87746      3.73836      5.87212        -0.155097     -0.035012      0.090132
      2.46113      2.79286      8.80817         0.280682      0.917422     -1.050882
      2.99816      1.76451     11.00368         0.470774      0.921068      1.134829
      6.92203      4.68386      2.93606         0.723616     -0.596114      1.077979
      4.86878      0.53586      0.86013         0.786875      0.522679     -1.098769
     10.98051      4.81788      6.64784         0.119320     -0.357675     -0.150947
     11.56418      3.87238      9.58390        -0.154062      0.433006     -0.603516
     11.91924      2.90557     11.81134         0.464277     -1.252635      1.956599
      7.87456      0.73197      3.71178        -0.738038      0.507894      1.689091
      6.42799      0.60246     11.39629        -0.414105     -2.004224      0.210428
     10.65913      5.28175      1.31206        -1.024665      0.925065     -1.612935
     10.39684      3.35453      2.93606        -0.061492     -1.034885      1.548999
     10.98051      2.40903      5.87212        -0.103065      0.041269      0.062124
     11.56418      1.46353      8.80817        -0.783785     -0.291823     -1.728935
      7.50570      3.73836      5.87212         0.049891     -0.015712      0.084744
      8.08937      2.79286      8.80817        -0.304803     -0.412676     -1.076200
      8.53876      2.14623     11.28559         1.955431     -0.100502      0.337894
     12.55026      4.68386      2.93606         0.551725     -0.979581      3.808411
      7.87456      9.84929      6.64784         0.041803     -0.301901     -0.103862
      8.45823      8.90379      9.58390        -0.091679      0.463557     -0.567036
      8.82395      7.94498     11.82813         0.475080     -1.134971      1.889937
      4.76861      5.76338      3.71178        -0.572923      0.478726      1.408879
      3.30900      5.61088     11.34924        -0.362876     -0.288991      0.999024
      2.42789      0.32116      1.26189        -1.097475      1.011281     -1.679241
      7.29089      8.38594      2.93606         0.501474     -0.870926      0.952715
      7.87456      7.44044      5.87212        -0.074929     -0.025954      0.055897
      8.45823      6.49494      8.80817        -0.609624     -0.187586     -1.537462
      4.39975      8.76977      5.87212        -0.023254     -0.002599      0.091144
      4.98341      7.82427      8.80817        -0.119100     -0.542698     -1.589490
      5.57871      6.85965     11.44632         0.385285      0.685233      0.825883
      9.44431      9.71527      2.93606         0.326705     -0.529009      3.615975
      5.10536      5.34765      1.27325        -0.353476      1.248152     -1.630399
     13.50279      9.84929      6.64784         0.193247     -0.196414     -0.107789
     14.08646      8.90379      9.58390        -1.112191      0.078137     -0.848209
     10.39684      5.76338      3.71178         0.056338      0.749477      1.315727
      8.18600      0.27740      1.30740        -0.551403      1.086737     -1.938981
     12.91912      8.38594      2.93606        -0.672480     -0.880646      1.589012
     13.50279      7.44044      5.87212         0.125126      0.149974      0.038599
     14.08646      6.49494      8.80817         0.152396     -0.313233     -1.352194
     10.02798      8.76977      5.87212        -0.145709      0.003545      0.085946
     10.61165      7.82427      8.80817         0.163371      0.921679     -1.179195
     11.19990      6.80413     10.97541         0.055188      0.716803      0.999125
     15.07254      9.71527      2.93606         1.265217     -0.150070      2.120686
     13.09355      5.13570      0.73051         0.725353      0.505027     -1.238016
      1.66190      1.67871      7.01153        -0.260076      0.218849     -0.851572
      2.22508      0.75608      9.36597        -0.217624     -0.596056      0.492558
      5.98023      3.51503      1.25924         2.241422     -1.493116     -2.807419
      6.70646      2.62422      4.07548        -0.099546     -0.094942      0.086226
      5.07221      5.07391     12.39391        -0.125658     -0.360095      2.580346
      2.24556      3.80055     10.93537         1.747501     -0.268257     -0.264985
      7.29013      4.74605      7.99931        -0.274162     -0.008099     -0.829671
      3.70044      1.62847      2.23972        -0.206061      1.360409      0.110132
[...]
      7.07033      8.08475      7.99931        -0.129387      0.013997     -1.191858
      7.45960      7.19036     10.52915        -0.040990     -1.595448      1.483800
      9.81241      6.71012      7.01153        -0.243359      0.274833     -0.867794
     10.38211      5.78919      9.36205        -0.324467     -0.634994      0.385961
     14.26559      8.61859      1.39442         1.371339     -2.029726     -3.341554
     14.85697      7.65563      4.07548        -0.128294     -0.301887      0.188375
      7.26972      1.79166     12.84632         0.581603     -0.900387      4.001748
     10.39608      8.83196     10.93537         2.239012     -0.269018     -0.141478
     15.44064      9.77746      7.99931        -0.154366      0.167658     -0.383348
     12.08636      6.54951      2.09679        -0.362107      2.290476     -0.588361
     12.33469      5.69156      5.06325         0.033936      0.169669     -0.106451
     11.45699      9.93107      2.25491        -0.679158     -0.057660     -0.437799
     12.11489      9.03025      5.06325        -0.087088     -0.120508      0.089932
     12.69856      8.08475      7.99931        -0.064933      0.474759     -0.703645
     13.27309      7.13266     10.62631        -0.869426      0.622141      2.064474
    total drift:                               -0.211052      0.125003     -0.156130

  FREE ENERGIE OF THE ION-ELECTRON SYSTEM (eV)
  free  energy   TOTEN  =      -509.15721820 eV

  energy  without entropy=     -507.92225280  energy(sigma->0) =     -508.53973550