 vasp.5.4.4.18Apr17-6-g9f103f2a35 (build Aug 13 2019 17:33:20) gamma-only

 executed on             LinuxIFC date 2020.05.12  18:54:03

 INCAR:
 POTCAR:    PAW_PBE Ni_pv 06Sep2000
 POTCAR:    PAW_PBE S 06Sep2000
 POTCAR:    PAW_PBE Ni_pv 06Sep2000
   VRHFIN =Ni:

   TITEL  = PAW_PBE Ni_pv 06Sep2000
   POMASS =   58.690; ZVAL   =   16.000    mass and valenz
   ENMAX  =  367.986; ENMIN  =  275.989 eV

 POTCAR:    PAW_PBE S 06Sep2000
   VRHFIN =S : s2p4

   TITEL  = PAW_PBE S 06Sep2000
   POMASS =   32.066; ZVAL   =    6.000    mass and valenz
   ENMAX  =  258.689; ENMIN  =  194.016 eV

 Optimization of the real space projectors (new method)

 maximal supplied QI-value         = 18.90
 optimisation between [QCUT,QGAM] = [ 10.77, 21.73] = [ 32.49,132.25] Ry
 Optimized for a Real-space Cutoff    1.38 Angstroem

   l    n(q)    QCUT    max X(q) W(low)/X(q) W(high)/X(q)  e(spline)
   1      8    10.771     2.836    0.40E-04    0.29E-04    0.12E-06
   1      8    10.771     4.023    0.10E-03    0.48E-04    0.29E-06
   2      8    10.771    73.368    0.42E-03    0.97E-04    0.44E-06
   2      8    10.771    69.010    0.42E-03    0.99E-04    0.45E-06
   0      9    10.771    54.797    0.10E-03    0.56E-04    0.74E-07
   0      9    10.771    24.266    0.89E-04    0.49E-04    0.67E-07
 Optimization of the real space projectors (new method)

 maximal supplied QI-value         = 19.84
 optimisation between [QCUT,QGAM] = [ 10.71, 21.63] = [ 32.15,130.99] Ry
 Optimized for a Real-space Cutoff    1.19 Angstroem

   l    n(q)    QCUT    max X(q) W(low)/X(q) W(high)/X(q)  e(spline)
   0      8    10.715   187.594    0.41E-03    0.53E-04    0.66E-07
   0      8    10.715   164.243    0.41E-03    0.53E-04    0.65E-07
   1      7    10.715    67.533    0.19E-03    0.59E-03    0.68E-07
   1      7    10.715    50.729    0.19E-03    0.58E-03    0.67E-07
  PAW_PBE Ni_pv 06Sep2000               :
  PAW_PBE S 06Sep2000                   :

 POSCAR: Type_036 Type_136
  positions in cartesian coordinates
 exchange correlation table for  LEXCH =        8
   RHO(1)=    0.500       N(1)  =     2000
   RHO(2)=  100.500       N(2)  =     4000

 ion  position               nearest neighbor table
   1  0.241  0.962  0.064-  41 2.01  61 2.10  42 2.22   2 2.26  49 2.30
   2  0.397  0.795  0.127-  49 1.99  61 2.12  42 2.25   1 2.26  50 2.36  62 2.36  26 2.39
   3  0.547  0.645  0.254-  43 2.25  62 2.26  50 2.26  63 2.36  51 2.36  27 2.53  14 2.53
   4  0.698  0.494  0.381-  64 2.08  52 2.24  44 2.25  51 2.26  63 2.26  15 2.53  28 2.53
   5  0.114  0.412  0.169-  53 2.11  45 2.25  68 2.26  65 2.36  54 2.36   8 2.38  29 2.53  17 2.53

   6  0.264  0.261  0.296-  46 2.25  65 2.26  54 2.26  55 2.36  66 2.36  18 2.53  30 2.53
   7  0.414  0.111  0.423-  56 2.11  67 2.12  55 2.26  66 2.26  47 2.32  31 2.53  19 2.53
   8  0.966  0.606  0.107-  48 2.06  45 2.10  68 2.23  53 2.37   5 2.38  21 2.45
   9  0.098  0.784  0.451-  58 2.04  59 2.08  72 2.10  37 2.12
  10  0.549  0.223  0.151-  69 2.03  70 2.12  38 2.12  54 2.14  14 2.37  36 2.49
  11  0.831  0.028  0.212-  70 2.10  39 2.25  60 2.26  57 2.36  71 2.36  23 2.53  33 2.53
  12  0.981  0.878  0.338-  40 2.25  57 2.26  71 2.26  58 2.36  72 2.36  34 2.53  24 2.53
  13  0.365  0.555  0.112-  62 2.04  53 2.15  38 2.20  61 2.27  26 2.47
  14  0.508  0.420  0.220-  54 2.25  62 2.26  38 2.26  39 2.36  63 2.36  10 2.37  27 2.53   3 2.53

[...]

  32  0.733  0.819  0.451-  56 2.04  44 2.05  72 2.06  31 2.42
  33  0.015  0.843  0.144-  48 2.10  61 2.12  60 2.26  45 2.36  57 2.36  23 2.53  11 2.53
  34  0.166  0.693  0.271-  62 2.25  57 2.26  45 2.26  46 2.36  58 2.36  12 2.53  24 2.53
  35  0.316  0.543  0.398-  59 2.06  47 2.13  63 2.25  58 2.26  46 2.26
  36  0.739  0.028  0.095-  48 2.07  70 2.08  60 2.09  69 2.22  10 2.49
  37  0.013  0.002  0.477-  16 2.09   9 2.12  25 2.13  40 2.56
  38  0.586  0.406  0.117-  26 2.08  10 2.12  13 2.20  14 2.26  27 2.26
  39  0.736  0.256  0.244-  11 2.25  28 2.26  15 2.26  14 2.36  27 2.36
  40  0.886  0.105  0.371-  16 2.02  25 2.03  12 2.25  15 2.36  28 2.36  37 2.56  64 2.79
  41  0.162  0.168  0.041-   1 2.01  21 2.01  29 2.11  17 2.14
  42  0.303  0.023  0.160-   1 2.22   2 2.25  30 2.26  18 2.26  17 2.36  29 2.36
  43  0.453  0.872  0.286-   3 2.25  19 2.26  31 2.26  18 2.36  30 2.36
  44  0.603  0.722  0.413-  32 2.05  20 2.09   4 2.25  31 2.36  19 2.36  67 2.79
  45  0.019  0.639  0.202-   8 2.10   5 2.25  24 2.26  34 2.26  23 2.36  33 2.36
  46  0.170  0.489  0.329-  22 2.01   6 2.25  35 2.26  34 2.36  24 2.36  47 2.56
  47  0.289  0.353  0.430-  35 2.13  22 2.15   7 2.32  46 2.56
  48  0.862  0.816  0.083-   8 2.06  36 2.07  33 2.10  23 2.11
  49  0.444  0.781  0.033-   2 1.99  26 2.11   1 2.30  61 2.69
  50  0.636  0.692  0.160-  26 2.06  23 2.25  27 2.26   3 2.26   2 2.36
  51  0.787  0.542  0.287-  24 2.25   4 2.26  28 2.26  27 2.36   3 2.36
  52  0.931  0.396  0.399-  28 2.11  25 2.12  22 2.18   4 2.24
  53  0.207  0.467  0.087-  21 2.05   5 2.11  13 2.15  29 2.28   8 2.37
  54  0.353  0.308  0.202-  10 2.14  14 2.25   6 2.26  30 2.26  29 2.36   5 2.36
  55  0.503  0.158  0.329-  15 2.25   7 2.26  31 2.26   6 2.36  30 2.36  56 2.75
  56  0.634  0.033  0.441-  32 2.04   7 2.11  16 2.12  31 2.16  55 2.75
  57  0.070  0.925  0.245-  18 2.25  34 2.26  12 2.26  11 2.36  33 2.36
  58  0.220  0.775  0.372-   9 2.04  19 2.25  35 2.26  34 2.36  12 2.36  59 2.73
  59  0.286  0.639  0.488-  20 2.02  35 2.06   9 2.08  58 2.73
  60  0.920  0.075  0.118-  36 2.09  17 2.25  11 2.26  33 2.26
  61  0.208  0.775  0.091-   1 2.10   2 2.12  33 2.12  13 2.27  49 2.69
  62  0.350  0.641  0.203-  13 2.04  34 2.25  14 2.26   3 2.26   2 2.36
  63  0.501  0.491  0.330-  35 2.25   4 2.26  15 2.26   3 2.36  14 2.36
  64  0.691  0.329  0.439-  15 2.05   4 2.08  16 2.09  40 2.79
  65  0.067  0.258  0.245-  28 2.25   6 2.26  18 2.26   5 2.36  17 2.36
  66  0.218  0.108  0.372-  25 2.13  19 2.26   7 2.26  18 2.36   6 2.36
  67  0.403  0.942  0.481-  19 2.02  20 2.09   7 2.12  44 2.79
  68  0.917  0.408  0.118-  21 2.05   8 2.23  27 2.25  17 2.26   5 2.26
  69  0.514  0.136  0.067-  10 2.03  29 2.17  36 2.22  70 2.77
  70  0.640  0.009  0.181-  30 2.06  36 2.08  23 2.09  11 2.10  10 2.12  71 2.72  69 2.77
  71  0.784  0.874  0.287-  31 2.25  24 2.26  12 2.26  23 2.36  11 2.36  70 2.72
  72  0.934  0.724  0.414-  32 2.06   9 2.10  22 2.16  12 2.36  24 2.36

  LATTYP: Found a base centered orthorhombic cell.
 ALAT       =    11.4527836704
 B/A-ratio  =     1.4485816945
 C/A-ratio  =     1.8059804630

  Lattice vectors:

 A1 = (  10.0797329849,   0.0000000000,   0.0000000000)
 A2 = (  -3.5732980427,  -9.4251025535,   0.0000000000)
 A3 = (   0.0000000000,   0.0000000000, -20.6835035552)

Analysis of symmetry for initial positions (statically):
 Subroutine PRICEL returns:
 Original cell was already a primitive cell.

 Routine SETGRP: Setting up the symmetry group for a
 base centered orthorhombic supercell.

 Subroutine GETGRP returns: Found  1 space group operations
 (whereof  1 operations were pure point group operations)
 out of a pool of  8 trial point group operations.

The static configuration has the point symmetry C_1 .

Analysis of symmetry for dynamics (positions and initial velocities):
 Subroutine PRICEL returns:
 Original cell was already a primitive cell.

 Routine SETGRP: Setting up the symmetry group for a
 base centered orthorhombic supercell.

 Subroutine GETGRP returns: Found  1 space group operations
 (whereof  1 operations were pure point group operations)
 out of a pool of  8 trial point group operations.

The dynamic configuration has the point symmetry C_1 .

 Subroutine INISYM returns: Found  1 space group operations
 (whereof  1 operations are pure point group operations),
 and found     1 'primitive' translations

 KPOINTS: gamma-point-only calculation. no periodi

Automatic generation of k-mesh.
Space group operators:
 irot       det(A)        alpha          n_x          n_y          n_z        tau_x        tau_y        tau_z
    1     1.000000     0.000000     1.000000     0.000000     0.000000     0.000000     0.000000     0.000000

 Subroutine IBZKPT returns following result:

 Found      1 irreducible k-points:

 Following reciprocal coordinates:
            Coordinates               Weight
  0.000000  0.000000  0.000000      1.000000

 Following cartesian coordinates:
            Coordinates               Weight
  0.000000  0.000000  0.000000      1.000000

 SYSTEM =  "Millerite NiS"
 POSCAR =  Type_036 Type_136

 Startparameter for this run:
   NWRITE =      2    write-flag & timer
   PREC   = normal    normal or accurate (medium, high low for compatibility)
   ISTART =      0    job   : 0-new  1-cont  2-samecut
   ICHARG =      2    charge: 1-file 2-atom 10-const
   ISPIN  =      1    spin polarized calculation?
   LNONCOLLINEAR =      F non collinear calculations
   LSORBIT =      F    spin-orbit coupling
   INIWAV =      1    electr: 0-lowe 1-rand  2-diag
   LASPH  =      F    aspherical Exc in radial PAW
   METAGGA=      F    non-selfconsistent MetaGGA calc.

 Electronic Relaxation 1
   ENCUT  =  450.0 eV  33.07 Ry    5.75 a.u.  17.43 17.43 35.78*2*pi/ulx,y,z
   ENINI  =  450.0     initial cutoff
   ENAUG  =  703.4 eV  augmentation charge cutoff
   NELM   =    100;   NELMIN=  2; NELMDL= -5     # of ELM steps
   EDIFF  = 0.1E-03   stopping-criterion for ELM
   LREAL  =      T    real-space projection
   NLSPLINE    = F    spline interpolate recip. space projectors
   LCOMPAT=      F    compatible to vasp.4.4
   GGA_COMPAT  = T    GGA compatible to vasp.4.4-vasp.4.6
   LMAXPAW     = -100 max onsite density
   LMAXMIX     =    2 max onsite mixed and CHGCAR
   VOSKOWN=      0    Vosko Wilk Nusair interpolation
   ROPT   =   -0.00050  -0.00050
 Ionic relaxation
   EDIFFG = 0.1E-02   stopping-criterion for IOM
   NSW    =      0    number of steps for IOM
   NBLOCK =      1;   KBLOCK =      1    inner block; outer block
   IBRION =     -1    ionic relax: 0-MD 1-quasi-New 2-CG
   NFREE  =      0    steps in history (QN), initial steepest desc. (CG)
   ISIF   =      2    stress and relaxation
   IWAVPR =     10    prediction:  0-non 1-charg 2-wave 3-comb
   ISYM   =      2    0-nonsym 1-usesym 2-fastsym
   LCORR  =      T    Harris-Foulkes like correction to forces

   POTIM  = 0.5000    time-step for ionic-motion
   TEIN   =    0.0    initial temperature
   TEBEG  =    0.0;   TEEND  =   0.0 temperature during run
   SMASS  =  -3.00    Nose mass-parameter (am)
   estimated Nose-frequenzy (Omega)   =  0.10E-29 period in steps =****** mass=  -0.232E-26a.u.
   SCALEE = 1.0000    scale energy and forces
   NPACO  =    256;   APACO  = 16.0  distance and # of slots for P.C.
   PSTRESS=    0.0 pullay stress

  Mass of Ions in am
   POMASS =  58.69 32.07
  Ionic Valenz
   ZVAL   =  16.00  6.00
  Atomic Wigner-Seitz radii
  virtual crystal weights
   VCA    =   1.00  1.00
   NELECT =     792.0000    total number of electrons
   NUPDOWN=      -1.0000    fix difference up-down

 DOS related values:
   EMIN   =  10.00;   EMAX   =-10.00  energy-range for DOS
   EFERMI =   0.00
   ISMEAR =     0;   SIGMA  =   0.20  broadening in eV -4-tet -1-fermi 0-gaus

[...]
  Fock        0.00000     0.00000     0.00000     0.00000     0.00000     0.00000
  Total      80.41910    78.91356   105.56380    -1.16510     0.33425    -0.05962
  in kB      65.57081    64.34325    86.07289    -0.94998     0.27253    -0.04861

 VOLUME and BASIS-vectors are now :
  energy-cutoff  :      450.00
  volume of cell :     1964.98
      direct lattice vectors                 reciprocal lattice vectors
    10.079732985  0.000000000  0.000000000     0.099208977 -0.037612667  0.000000000
     3.573298043  9.425102554  0.000000000     0.000000000  0.106099641  0.000000000
     0.000000000  0.000000000 20.683503555     0.000000000  0.000000000  0.048347708

  length of vectors
    10.079732985 10.079732985 20.683503555     0.106099641  0.106099641  0.048347708

 FORCES acting on ions
    electron-ion (+dipol)            ewald-force                    non-local-force                 convergence-correction
   0.246E+03 0.227E+02 0.524E+04   -.247E+03 -.232E+02 -.524E+04   0.143E+01 0.523E+00 0.363E+01   0.956E-01 -.221E+00 0.171E+00
   -.299E+03 -.248E+03 0.307E+04   0.302E+03 0.249E+03 -.307E+04   -.273E+01 -.117E+01 -.163E+01   0.113E+00 -.276E+00 0.168E+00
   -.643E+02 -.428E+03 -.186E+03   0.637E+02 0.430E+03 0.186E+03   0.621E+00 -.142E+01 0.215E+00   -.529E-01 -.283E-01 -.188E+00
   -.619E+02 -.377E+03 -.359E+04   0.624E+02 0.381E+03 0.359E+04   0.406E-01 -.316E+01 -.218E+01   0.624E-01 -.117E-01 -.140E+00
   0.243E+02 -.217E+03 0.165E+04   -.248E+02 0.216E+03 -.164E+04   0.423E+00 0.239E+00 -.292E+01   0.132E+00 0.906E-01 0.311E+00
   0.254E+02 -.428E+03 -.134E+04   -.263E+02 0.428E+03 0.134E+04   0.854E+00 -.105E+01 -.926E-01   0.131E-01 0.290E-01 -.491E-01
   0.526E+02 -.768E+03 -.456E+04   -.539E+02 0.771E+03 0.456E+04   0.805E+00 -.167E+01 -.239E+01   -.118E-01 0.193E+00 -.888E-01
   0.328E+03 -.322E+03 0.446E+04   -.332E+03 0.320E+03 -.446E+04   0.323E+01 0.112E+01 0.455E+01   -.177E-01 0.292E+00 0.256E+00
   0.122E+03 -.793E+02 -.504E+04   -.122E+03 0.828E+02 0.504E+04   -.807E-01 -.327E+01 -.355E+01   -.135E+00 0.216E-02 -.845E-01
   -.327E+03 -.248E+02 0.321E+04   0.328E+03 0.272E+02 -.321E+04   -.150E+01 -.236E+01 0.402E+01   0.435E-01 0.917E-01 0.899E-01
   -.267E+03 -.463E+03 0.904E+03   0.270E+03 0.466E+03 -.902E+03   -.282E+01 -.319E+01 -.911E+00   -.234E-01 -.396E-01 0.559E-01
   -.103E+02 -.441E+03 -.206E+04   0.101E+02 0.442E+03 0.206E+04   0.325E+00 -.145E+01 0.140E+01   0.165E-01 -.569E-01 -.105E+00
   0.323E+03 0.164E+03 0.425E+04   -.324E+03 -.165E+03 -.425E+04   0.877E+00 0.164E+01 0.110E+01   0.187E+00 -.140E-01 0.125E+00
   0.214E+03 0.406E+02 0.630E+03   -.213E+03 -.384E+02 -.627E+03   -.160E+00 -.143E+01 -.207E+01   -.258E-01 -.605E-02 -.123E+00
   0.459E+03 0.151E+03 -.233E+04   -.462E+03 -.151E+03 0.232E+04   0.331E+01 -.143E+00 0.274E+00   -.722E-01 -.620E-01 -.187E+00
   0.232E+03 -.177E+03 -.521E+04   -.234E+03 0.175E+03 0.521E+04   0.150E+01 0.291E+01 -.264E+01   0.560E-01 -.592E-01 0.788E-02
   0.844E+03 0.269E+03 0.301E+04   -.848E+03 -.270E+03 -.301E+04   0.272E+01 -.412E-01 -.957E+00   -.667E-01 -.790E-01 0.338E+00
   0.435E+03 0.306E+03 -.166E+03   -.436E+03 -.306E+03 0.166E+03   0.155E+01 0.965E-01 -.176E+00   -.504E-01 -.457E-01 -.158E-01
   0.391E+03 0.567E+02 -.299E+04   -.394E+03 -.572E+02 0.299E+04   0.219E+01 0.783E+00 0.751E+00   -.126E+00 0.142E+00 -.283E+00
   -.185E+03 0.514E+03 -.532E+04   0.181E+03 -.515E+03 0.533E+04   0.557E+01 0.104E+01 -.123E+01   -.814E-01 -.108E-01 -.276E-01
   0.436E+03 -.253E+03 0.586E+04   -.439E+03 0.255E+03 -.586E+04   0.180E+01 -.131E+01 0.499E+01   0.649E-01 0.645E-01 0.176E+00
   0.377E+03 0.400E+03 -.449E+04   -.380E+03 -.401E+03 0.449E+04   0.270E+01 0.144E+01 -.185E+00   0.367E-01 0.495E-01 -.637E-01
   0.611E+03 0.279E+03 0.208E+04   -.613E+03 -.284E+03 -.207E+04   0.182E+01 0.334E+01 -.405E+00   0.111E-01 0.341E-01 0.799E-01
   0.459E+03 0.344E+03 -.119E+04   -.461E+03 -.344E+03 0.119E+04   0.143E+01 0.149E+00 0.227E+00   0.926E-01 0.539E-01 -.649E-01
   -.481E+03 -.242E+03 -.442E+04   0.487E+03 0.242E+03 0.443E+04   -.509E+01 -.270E+00 -.616E-01   0.500E-01 -.308E-01 -.506E-01
   -.637E+03 0.286E+03 0.521E+04   0.635E+03 -.283E+03 -.521E+04   0.287E+01 -.341E+01 0.311E+00   -.104E+00 -.247E-01 0.125E+00
   -.500E+03 0.271E+03 0.213E+04   0.501E+03 -.271E+03 -.213E+04   -.412E+00 0.224E+00 -.820E+00   -.165E+00 0.448E-01 -.142E-01
   -.375E+03 0.111E+03 -.112E+04   0.377E+03 -.111E+03 0.112E+04   -.205E+01 0.540E-01 0.295E+01   0.626E-01 -.419E-01 -.141E+00
   -.567E+03 0.229E+03 0.437E+04   0.570E+03 -.230E+03 -.437E+04   -.211E+01 0.962E+00 0.364E+01   0.334E+00 -.395E-01 0.246E+00
   -.202E+03 0.363E+03 0.767E+03   0.199E+03 -.364E+03 -.763E+03   0.170E+01 0.589E+00 -.219E+01   0.586E-01 0.110E-01 -.385E-01
   -.289E+03 0.130E+03 -.204E+04   0.291E+03 -.130E+03 0.203E+04   -.180E+01 0.114E+01 0.241E+01   0.837E-01 0.790E-01 -.235E+00
   -.186E+03 0.404E+03 -.510E+04   0.187E+03 -.406E+03 0.510E+04   -.457E+00 0.979E+00 0.211E+01   0.191E+00 -.903E-02 -.734E-01
   -.475E+03 -.548E+02 0.330E+04   0.481E+03 0.566E+02 -.330E+04   -.490E+01 -.144E+01 0.232E+01   -.522E-01 -.402E-01 0.181E+00
   -.463E+03 0.168E+03 -.147E+03   0.465E+03 -.167E+03 0.146E+03   -.144E+01 -.451E+00 0.220E+00   -.500E-01 0.265E-01 -.336E-01
   -.390E+03 0.473E+03 -.351E+04   0.394E+03 -.476E+03 0.351E+04   -.447E+01 0.290E+01 -.166E+01   -.184E+00 -.378E-01 -.151E+00
   -.284E+02 -.174E+03 0.515E+04   0.276E+02 0.178E+03 -.516E+04   -.516E+00 -.368E+01 0.727E+01   -.486E-01 0.192E-01 0.122E+00
   -.138E+03 -.159E+02 -.208E+04   0.139E+03 0.151E+02 0.209E+04   -.740E-01 0.591E+00 -.174E+01   0.268E-02 -.419E-01 -.292E-02
   -.180E+03 0.228E+03 0.174E+04   0.182E+03 -.230E+03 -.174E+04   -.189E+01 0.199E+01 0.374E+01   -.273E-01 0.438E-01 0.335E-01
   -.770E+02 0.103E+03 0.232E+03   0.773E+02 -.104E+03 -.233E+03   -.137E+00 0.149E+01 0.998E+00   -.335E-01 -.942E-02 -.554E-01
   0.805E+01 0.844E+02 -.878E+03   -.915E+01 -.868E+02 0.872E+03   0.408E+00 0.144E+01 0.167E+01   0.218E-01 -.622E-01 -.586E-01
   0.134E+03 0.110E+03 0.229E+04   -.135E+03 -.111E+03 -.229E+04   0.181E+00 0.917E+00 0.174E+01   0.389E-01 -.632E-01 -.147E-01
   -.427E+02 0.137E+03 0.935E+03   0.441E+02 -.138E+03 -.933E+03   -.134E+01 0.823E+00 -.917E+00   0.469E-01 -.302E-01 0.999E-01
   0.187E+02 0.139E+03 -.135E+03   -.188E+02 -.142E+03 0.134E+03   0.518E-01 0.222E+01 0.843E+00   -.146E-01 0.132E-01 -.774E-01
   -.801E+02 0.258E+03 -.140E+04   0.814E+02 -.260E+03 0.140E+04   -.118E+01 0.314E+00 -.137E+01   0.620E-01 -.137E-01 -.814E-01
   -.246E+02 0.792E+02 0.475E+03   0.257E+02 -.803E+02 -.473E+03   -.694E+00 0.108E+01 -.107E+01   0.144E-01 0.337E-01 0.474E-01
   -.308E+02 0.147E+03 -.541E+03   0.310E+02 -.148E+03 0.536E+03   0.562E+00 0.140E+01 0.180E+01   -.110E-01 0.315E-01 -.163E-01
   -.457E+02 0.158E+03 -.180E+04   0.457E+02 -.159E+03 0.181E+04   0.405E+00 -.317E-01 -.411E+00   -.279E-01 0.429E-02 -.205E-01
   0.117E+03 0.525E+01 0.217E+04   -.118E+03 -.651E+01 -.217E+04   0.328E+00 0.454E+00 0.296E+01   -.728E-02 0.163E-01 0.365E-01
   -.181E+03 -.419E+02 0.229E+04   0.184E+03 0.419E+02 -.229E+04   -.128E+01 0.363E+00 0.150E+01   0.533E-01 -.105E+00 0.278E-01
   -.164E+03 -.173E+03 0.101E+04   0.166E+03 0.174E+03 -.101E+04   -.146E+01 -.955E+00 0.100E+01   -.378E-01 -.138E-01 -.216E-01
   -.102E+03 -.100E+03 -.244E+03   0.104E+03 0.102E+03 0.244E+03   -.227E+01 -.168E+01 -.192E+00   0.353E-01 0.188E-01 -.571E-01
   -.946E+02 -.125E+03 -.156E+04   0.955E+02 0.125E+03 0.157E+04   -.177E+00 -.172E+00 -.740E+00   0.643E-01 0.885E-02 -.126E-01
   -.264E+03 -.206E+03 0.187E+04   0.266E+03 0.207E+03 -.187E+04   -.129E+01 -.968E+00 0.711E+00   0.169E+00 0.644E-01 0.105E+00
   0.260E+02 -.169E+03 0.440E+03   -.266E+02 0.172E+03 -.440E+03   -.304E+00 -.278E+01 0.940E+00   0.571E-01 0.217E-01 0.161E-02
   -.103E+03 -.149E+03 -.684E+03   0.104E+03 0.151E+03 0.683E+03   -.131E+01 -.229E+01 -.153E+00   -.697E-02 0.117E-01 -.463E-01
   -.437E+02 -.218E+03 -.184E+04   0.451E+02 0.218E+03 0.185E+04   -.593E+00 -.428E-01 -.549E+00   0.430E-02 0.407E-01 -.193E-01
   -.125E+03 -.128E+03 0.176E+03   0.127E+03 0.131E+03 -.177E+03   -.157E+01 -.227E+01 0.106E+01   -.228E-01 -.211E-01 0.150E-01
   -.150E+03 -.578E+02 -.918E+03   0.153E+03 0.600E+02 0.916E+03   -.155E+01 -.211E+01 -.137E+00   -.102E+00 0.555E-02 -.564E-01
   0.375E+02 0.246E+03 -.219E+04   -.371E+02 -.247E+03 0.220E+04   -.227E+00 0.722E+00 -.203E+01   -.140E+00 -.205E-01 0.673E-02
   -.762E+02 -.222E+03 0.161E+04   0.779E+02 0.223E+03 -.161E+04   -.130E+00 -.989E+00 0.309E+01   -.716E-01 -.253E-01 0.649E-01
   0.223E+03 0.729E+02 0.179E+04   -.228E+03 -.737E+02 -.179E+04   0.299E+01 0.400E+00 0.287E+01   0.195E-02 -.988E-01 0.801E-01
   0.121E+03 -.136E+03 0.398E+03   -.123E+03 0.138E+03 -.397E+03   0.213E+01 -.175E+01 0.161E+01   0.431E-02 -.252E-01 -.340E-01
   0.139E+03 -.491E+02 -.762E+03   -.141E+03 0.503E+02 0.764E+03   0.231E+01 -.856E+00 -.140E+01   -.498E-01 -.108E-01 -.898E-01
   0.112E+03 -.178E+03 -.203E+04   -.115E+03 0.180E+03 0.203E+04   0.109E+01 -.120E+01 -.131E+01   -.195E-02 -.198E-01 0.167E-01
   0.180E+03 -.619E+02 0.715E+02   -.182E+03 0.630E+02 -.713E+02   0.248E+01 -.109E+01 -.482E+00   0.529E-02 -.106E-01 0.229E-01
   0.110E+03 -.100E+03 -.116E+04   -.112E+03 0.102E+03 0.116E+04   0.295E+01 -.138E+01 -.892E+00   -.129E-01 0.237E-01 -.454E-01
   0.304E+02 -.203E+03 -.224E+04   -.314E+02 0.204E+03 0.225E+04   0.140E+00 -.419E+00 -.164E+01   -.802E-04 0.111E+00 0.248E-01
   0.440E+03 0.961E+01 0.144E+04   -.444E+03 -.941E+01 -.144E+04   0.262E+01 0.326E+00 0.215E+01   -.125E+00 0.545E-01 0.138E+00
   -.545E+02 0.113E+03 0.217E+04   0.536E+02 -.113E+03 -.217E+04   0.765E+00 -.442E+00 0.316E+01   0.366E-01 0.170E-01 0.360E-01
   0.184E+03 0.125E+03 0.756E+03   -.186E+03 -.126E+03 -.753E+03   0.141E+01 0.152E+01 -.196E+01   0.172E-01 0.135E-01 0.187E-01
   0.145E+03 -.487E+02 -.300E+03   -.148E+03 0.492E+02 0.301E+03   0.283E+01 -.855E+00 -.907E+00   0.548E-01 -.851E-02 -.437E-01
   0.167E+03 0.101E+03 -.157E+04   -.169E+03 -.999E+02 0.157E+04   0.146E+01 -.106E+01 -.257E+01   0.856E-01 -.139E-01 -.469E-01
   -.152E+02 0.181E+02 -.280E+02   0.111E-11 -.213E-11 -.523E-11   0.149E+02 -.180E+02 0.277E+02   0.520E+00 0.281E-01 0.268E+00

 POSITION                                       TOTAL-FORCE (eV/Angst)
      5.86714      9.06609      1.33010         0.411652     -0.226131     -0.816402
      6.84285      7.49250      2.62550         0.469779     -0.355200      3.976521
      7.82056      6.07621      5.25100         0.038599     -0.190566      0.121202
      8.79827      4.65991      7.87651         0.584536      0.843166     -0.813988
      2.61774      3.87870      3.50067         0.059418     -0.757764      2.021857
      3.59545      2.46241      6.12617        -0.050971     -0.492801     -0.110470
      4.57317      1.04611      8.75167        -0.567529      1.213151     -0.770885
     11.90570      5.70919      2.20884         0.130939     -0.248007     -0.899787
      3.79141      7.39039      9.33427        -0.540692      0.179128      0.615761
      6.32733      2.09991      3.11380         0.245614      0.153357      0.389990
      8.47237      0.26490      4.37584         0.869049     -0.032625      0.992840
     13.02338      8.27371      7.00134         0.145499     -0.367217     -0.353346
      5.66378      5.23232      2.32305        -0.183743      0.056883     -1.530229
      6.61816      3.96023      4.55733         0.140271      0.733059      0.812666
      7.59587      2.54394      7.18283        -0.080119     -0.364169     -1.552156
      8.44847      1.07497      9.49662        -0.585604      0.434642      1.383487
      1.41534      1.76273      2.80700        -0.585234     -0.425665      0.978525
      2.39305      0.34643      5.43250         0.028932     -0.056033     -0.054670
      6.94406      8.35524      8.05800        -0.796315      0.402516     -2.829011
      6.99648      6.83551      9.82348         0.995687     -0.350255      0.892129
      2.05413      3.58575      1.00453        -0.472178      0.655068     -1.456063
      2.60924      4.77290      8.61998        -0.963051     -0.322749      1.261425
     10.84326      7.57403      3.68216        -0.295871     -1.150985      0.800646
     11.82097      6.15773      6.30767        -0.050954      0.146362     -0.039502
      0.83295      1.66927      8.72161         0.828325      0.071945      0.983598
      8.00810      5.64603      1.66382         0.422822     -0.172150     -1.227532
      9.02296      4.33443      3.86366         0.065335      0.162905      0.041862
     10.00068      2.91813      6.48916        -0.040259     -0.129446     -1.296195
      3.82015      2.13692      2.11332         1.159425     -0.380101      0.838617
      4.79786      0.72063      4.73883        -0.840861     -0.034915      1.267646
      9.34887      8.72943      7.36433        -0.344700      0.338818     -1.503775
     10.32010      7.72044      9.33852         0.435939     -0.786605      1.118192
      3.16834      7.94822      2.98849         0.642571      0.292096      1.227356
      4.14605      6.53193      5.61399         0.279801      0.200534     -0.103377
      5.12376      5.11563      8.23950        -0.009005      0.135713     -1.824413
      7.55083      0.26029      1.97093        -1.308651      0.691500     -0.872161
      0.13374      0.01810      9.86717         0.845681     -0.320777      2.056836
      7.35546      3.82659      2.42507         0.067467     -0.441211     -0.851173
      8.33317      2.41029      5.05057         0.123634      0.037136     -0.236915
      9.31088      0.99399      7.67607        -0.676462     -1.021809     -3.697439
      2.23329      1.58596      0.84066        -0.682855     -0.265324     -3.490497
      3.13035      0.21279      3.30024         0.105726     -0.123775      0.730404
      7.68136      8.22159      5.92574        -0.087704     -0.219768     -0.072336
      8.65907      6.80530      8.55124         0.228772     -1.643035     -0.197947
      2.47854      6.02409      4.17540         0.401970     -0.004180      1.556488
      3.45626      4.60779      6.80091         0.725853      0.263136     -2.961972
      4.17531      3.32357      8.89684         0.445041     -0.812719      2.095843
     11.60163      7.68706      1.71321        -0.695901     -0.788725     -3.435059
      7.26542      7.36361      0.68531         1.233079      0.332864     -3.565411
      8.88655      6.52099      3.30837         0.223041      0.654616      1.105284
      9.86427      5.10469      5.93387        -0.127408      0.270577     -0.345206
     10.80529      3.73704      8.25481         0.757147      0.695903      2.183899
      3.75458      4.39968      1.80634         1.371706      0.854605     -1.541605
      4.66145      2.90719      4.18354        -0.802284      0.504907      1.204532
      5.63916      1.49089      6.80904        -0.146321      0.240776     -0.741893
      6.51000      0.31020      9.13091         0.758460      0.036814      1.865756
      4.00964      8.71849      5.05870         0.168601      0.037111      0.328636
      4.98735      7.30220      7.68420         0.929292      0.018711     -2.029425
      5.16200      6.02225     10.08570         0.031693     -0.693355      3.446412
      9.53836      0.70969      2.43320         1.451054      0.571383      0.016574
      4.86512      7.30868      1.89204        -1.900882     -0.522739     -1.419456
      5.82436      6.04450      4.19167         0.202715      0.596263      2.758463
      6.80207      4.62821      6.81717        -0.080300      0.350137     -0.316008
      8.14025      3.10095      9.07804        -1.443496      1.212503      3.193526
      1.59925      2.43070      5.06683         0.114034      0.040630     -0.223502
      2.57697      1.01441      7.69234         0.252358     -0.019970     -0.618169
      7.42757      8.88124      9.95154        -0.933276      0.918182      3.559376
     10.70128      3.84700      2.44133        -1.811513      0.585647      0.396225
      5.67269      1.28475      1.37897        -0.055104     -0.652539     -3.282703
      6.47683      0.08088      3.73773        -0.775656      0.145024      0.552347
     11.02718      8.24201      5.94200         0.362879     -0.385959      0.450621
     12.00489      6.82571      8.56750        -0.819497     -0.318497     -0.144861
    total drift:                                0.202140      0.075413     -0.016478

  FREE ENERGIE OF THE ION-ELECTRON SYSTEM (eV)
  free  energy   TOTEN  =      -351.47535302 eV

  energy  without entropy=     -350.44880322  energy(sigma->0) =     -350.96207812