 vasp.6.1.0 28Jan20 (build Mar 31 2020 17:42:31) gamma-only

 executed on             LinuxIFC date 2020.04.12  00:38:18

 INCAR:
 POTCAR:    PAW_PBE Ni_pv 06Sep2000
 POTCAR:    PAW_PBE S 06Sep2000
 POTCAR:    PAW_PBE Ni_pv 06Sep2000
   VRHFIN =Ni:

   TITEL  = PAW_PBE Ni_pv 06Sep2000
   POMASS =   58.690; ZVAL   =   16.000    mass and valenz
   ENMAX  =  367.986; ENMIN  =  275.989 eV

 POTCAR:    PAW_PBE S 06Sep2000
   VRHFIN =S : s2p4

   TITEL  = PAW_PBE S 06Sep2000
   POMASS =   32.066; ZVAL   =    6.000    mass and valenz
   ENMAX  =  258.689; ENMIN  =  194.016 eV

 Optimization of the real space projectors (new method)

 maximal supplied QI-value         = 18.90
 optimisation between [QCUT,QGAM] = [ 10.77, 21.73] = [ 32.49,132.25] Ry
 Optimized for a Real-space Cutoff    1.38 Angstroem

   l    n(q)    QCUT    max X(q) W(low)/X(q) W(high)/X(q)  e(spline)
   1      8    10.771     2.836    0.40E-04    0.29E-04    0.12E-06
   1      8    10.771     4.023    0.10E-03    0.48E-04    0.29E-06
   2      8    10.771    73.368    0.42E-03    0.97E-04    0.44E-06
   2      8    10.771    69.010    0.42E-03    0.99E-04    0.45E-06
   0      9    10.771    54.797    0.10E-03    0.56E-04    0.74E-07
   0      9    10.771    24.266    0.89E-04    0.49E-04    0.67E-07
 Optimization of the real space projectors (new method)

 maximal supplied QI-value         = 19.84
 optimisation between [QCUT,QGAM] = [ 10.71, 21.63] = [ 32.15,130.99] Ry
 Optimized for a Real-space Cutoff    1.19 Angstroem

   l    n(q)    QCUT    max X(q) W(low)/X(q) W(high)/X(q)  e(spline)
   0      8    10.715   187.594    0.41E-03    0.53E-04    0.66E-07
   0      8    10.715   164.243    0.41E-03    0.53E-04    0.65E-07
   1      7    10.715    67.533    0.19E-03    0.59E-03    0.68E-07
   1      7    10.715    50.729    0.19E-03    0.58E-03    0.67E-07
  PAW_PBE Ni_pv 06Sep2000               :
  PAW_PBE S 06Sep2000                   :

 POSCAR: Structure 46 made from -111-5.xsd file
  positions in direct lattice
 exchange correlation table for  LEXCH =        8
   RHO(1)=    0.500       N(1)  =     2000
   RHO(2)=  100.500       N(2)  =     4000

 ion  position               nearest neighbor table
   1  0.261  0.479  0.253-  75 2.25  59 2.26  82 2.26  55 2.36  60 2.36   7 2.53  21 2.53
   2  0.355  0.385  0.388-  76 2.25  55 2.26  60 2.26  61 2.36  67 2.36   8 2.53  22 2.53
   3  0.449  0.291  0.523-  53 2.25  61 2.26  67 2.26  17 2.53  23 2.53
   4  0.167  0.073  0.118-  65 2.25  56 2.26  57 2.36  83 2.36  36 2.53  30 2.53
   5  0.056  0.051  0.488-  79 2.25  50 2.26  74 2.26  78 2.36  11 2.53  15 2.53
   6  0.274  0.333  0.083-  56 2.25  58 2.26  51 2.26  52 2.36  59 2.36  12 2.53  28 2.53
   7  0.368  0.239  0.218-  57 2.25  59 2.26  52 2.26  60 2.36  62 2.36   1 2.53  21 2.53
   8  0.462  0.145  0.353-  80 2.25  60 2.26  62 2.26  61 2.36  63 2.36   2 2.53  22 2.53
   9  0.000  0.372  0.218-  59 2.25  65 2.26  93 2.26  49 2.36  68 2.36  13 2.53  19 2.53
  10  0.094  0.278  0.353-  60 2.25  49 2.26  68 2.26  54 2.36  50 2.36  20 2.53  14 2.53
  11  0.188  0.184  0.488-  61 2.25  54 2.26  50 2.26  78 2.36   5 2.53  15 2.53
  12  0.406  0.465  0.083-  71 2.25  51 2.26  81 2.26  52 2.36  82 2.36  28 2.53   6 2.53
  13  0.761  0.479  0.253-  86 2.25  72 2.26  93 2.26  68 2.36  73 2.36  19 2.53   9 2.53
  14  0.855  0.385  0.388-  87 2.25  68 2.26  73 2.26  74 2.36  54 2.36  20 2.53  10 2.53
  15  0.949  0.291  0.523-  66 2.25  74 2.26  54 2.26   5 2.53  11 2.53
  16  0.667  0.073  0.118-  52 2.25  69 2.26  70 2.36  94 2.36  48 2.53  42 2.53
  17  0.556  0.051  0.488-  90 2.25  63 2.26  61 2.26  89 2.36  23 2.53   3 2.53
  18  0.774  0.333  0.083-  69 2.25  71 2.26  64 2.26  65 2.36  72 2.36  24 2.53  40 2.53
  19  0.868  0.239  0.218-  70 2.25  72 2.26  65 2.26  73 2.36  49 2.36  13 2.53   9 2.53
  20  0.962  0.145  0.353-  91 2.25  73 2.26  49 2.26  74 2.36  50 2.36  14 2.53  10 2.53
  21  0.500  0.372  0.218-  72 2.25  52 2.26  82 2.26  62 2.36  55 2.36   1 2.53   7 2.53
  22  0.594  0.278  0.353-  73 2.25  62 2.26  55 2.26  67 2.36  63 2.36   8 2.53   2 2.53
  23  0.688  0.184  0.488-  74 2.25  67 2.26  63 2.26  89 2.36  17 2.53   3 2.53
  24  0.906  0.465  0.083-  58 2.25  64 2.26  92 2.26  65 2.36  93 2.36  40 2.53  18 2.53
  25  0.261  0.979  0.253-  49 2.25  83 2.26  57 2.26  80 2.36  84 2.36  31 2.53  45 2.53
  26  0.355  0.885  0.388-  50 2.25  80 2.26  84 2.26  85 2.36  90 2.36  32 2.53  46 2.53
  27  0.449  0.791  0.523-  78 2.25  85 2.26  90 2.26  41 2.53  47 2.53
  28  0.167  0.573  0.118-  88 2.25  81 2.26  58 2.26  82 2.36  59 2.36  12 2.53   6 2.53
  29  0.056  0.551  0.488-  54 2.25  76 2.26  96 2.26  53 2.36  35 2.53  39 2.53
  30  0.274  0.833  0.083-  81 2.25  77 2.36  83 2.36  36 2.53   4 2.53
  31  0.368  0.739  0.218-  82 2.25  83 2.26  77 2.26  84 2.36  86 2.36  25 2.53  45 2.53
  32  0.462  0.645  0.353-  55 2.25  84 2.26  86 2.26  85 2.36  87 2.36  26 2.53  46 2.53
  33  0.000  0.872  0.218-  83 2.25  88 2.26  70 2.26  75 2.36  91 2.36  37 2.53  43 2.53
  34  0.094  0.778  0.353-  84 2.25  75 2.26  91 2.26  79 2.36  76 2.36  44 2.53  38 2.53
  35  0.188  0.684  0.488-  85 2.25  79 2.26  76 2.26  53 2.36  29 2.53  39 2.53
  36  0.406  0.965  0.083-  56 2.26  77 2.36  57 2.36   4 2.53  30 2.53
  37  0.761  0.979  0.253-  62 2.25  94 2.26  70 2.26  91 2.36  95 2.36  43 2.53  33 2.53
  38  0.855  0.885  0.388-  63 2.25  91 2.26  95 2.26  96 2.36  79 2.36  44 2.53  34 2.53
  39  0.949  0.791  0.523-  89 2.25  96 2.26  79 2.26  29 2.53  35 2.53
  40  0.667  0.573  0.118-  77 2.25  92 2.26  71 2.26  93 2.36  72 2.36  24 2.53  18 2.53
  41  0.556  0.551  0.488-  67 2.25  87 2.26  85 2.26  66 2.36  47 2.53  27 2.53
  42  0.774  0.833  0.083-  92 2.25  88 2.36  94 2.36  48 2.53  16 2.53
  43  0.868  0.739  0.218-  93 2.25  94 2.26  88 2.26  95 2.36  75 2.36  37 2.53  33 2.53
  44  0.962  0.645  0.353-  68 2.25  95 2.26  75 2.26  96 2.36  76 2.36  38 2.53  34 2.53
  45  0.500  0.872  0.218-  94 2.25  77 2.26  57 2.26  86 2.36  80 2.36  25 2.53  31 2.53
  46  0.594  0.778  0.353-  95 2.25  86 2.26  80 2.26  90 2.36  87 2.36  32 2.53  26 2.53
  47  0.688  0.684  0.488-  96 2.25  90 2.26  87 2.26  66 2.36  41 2.53  27 2.53
  48  0.906  0.965  0.083-  69 2.26  88 2.36  70 2.36  16 2.53  42 2.53
  49  0.073  0.167  0.270-  25 2.25  10 2.26  20 2.26   9 2.36  19 2.36
  50  0.167  0.073  0.405-  26 2.25  11 2.26   5 2.26  10 2.36  20 2.36
  51  0.385  0.355  0.000-  12 2.26   6 2.26
  52  0.479  0.261  0.135-  16 2.25   7 2.26  21 2.26   6 2.36  12 2.36
  53  0.261  0.479  0.540-   3 2.25  29 2.36  35 2.36
  54  0.030  0.378  0.451-  29 2.25  11 2.26  15 2.26  10 2.36  14 2.36
  55  0.436  0.472  0.315-  32 2.25   2 2.26  22 2.26   1 2.36  21 2.36
  56  0.248  0.160  0.045-   6 2.25   4 2.26  36 2.26
  57  0.342  0.066  0.180-   7 2.25  25 2.26  45 2.26   4 2.36  36 2.36
  58  0.080  0.491  0.045-  24 2.25   6 2.26  28 2.26
  59  0.174  0.397  0.180-   9 2.25   7 2.26   1 2.26   6 2.36  28 2.36
  60  0.268  0.303  0.315-  10 2.25   2 2.26   8 2.26   7 2.36   1 2.36
[...]
  82  0.342  0.566  0.180-  31 2.25   1 2.26  21 2.26  28 2.36  12 2.36
  83  0.174  0.897  0.180-  33 2.25  31 2.26  25 2.26  30 2.36   4 2.36
  84  0.268  0.803  0.315-  34 2.25  26 2.26  32 2.26  31 2.36  25 2.36
  85  0.362  0.709  0.451-  35 2.25  27 2.26  41 2.26  32 2.36  26 2.36
  86  0.573  0.667  0.270-  13 2.25  46 2.26  32 2.26  45 2.36  31 2.36
  87  0.667  0.573  0.405-  14 2.25  47 2.26  41 2.26  46 2.36  32 2.36
  88  0.979  0.761  0.135-  28 2.25  43 2.26  33 2.26  42 2.36  48 2.36
  89  0.761  0.979  0.540-  39 2.25  17 2.36  23 2.36
  90  0.530  0.878  0.451-  17 2.25  47 2.26  27 2.26  46 2.36  26 2.36
  91  0.936  0.972  0.315-  20 2.25  38 2.26  34 2.26  37 2.36  33 2.36
  92  0.748  0.660  0.045-  42 2.25  40 2.26  24 2.26
  93  0.842  0.566  0.180-  43 2.25  13 2.26   9 2.26  40 2.36  24 2.36
  94  0.674  0.897  0.180-  45 2.25  43 2.26  37 2.26  42 2.36  16 2.36
  95  0.768  0.803  0.315-  46 2.25  38 2.26  44 2.26  43 2.36  37 2.36
  96  0.862  0.709  0.451-  47 2.25  39 2.26  29 2.26  44 2.36  38 2.36

  LATTYP: Found a base centered orthorhombic cell.
 ALAT       =    11.8257374459
 B/A-ratio  =     1.6199260857
 C/A-ratio  =     1.8387210052

  Lattice vectors:

 A1 = (  10.0628203371,   5.0445621212,   0.0000000000)
 A2 = (   0.0000000000, -11.2564630382,   0.0000000000)
 A3 = (   0.0000000000,   0.0000000000, -21.7442318436)

Analysis of symmetry for initial positions (statically):
 Subroutine PRICEL returns following result:

  LATTYP: Found a simple monoclinic cell.
 ALAT       =    11.2564630382
 B/A-ratio  =     1.9317108553
 C/A-ratio  =     1.3031301026
 COS(beta)  =    -0.9393337087

[...]

   2 primitive cells build up your supercell.

 Routine SETGRP: Setting up the symmetry group for a
 base centered orthorhombic supercell.

 Subroutine GETGRP returns: Found  1 space group operations
 (whereof  1 operations were pure point group operations)
 out of a pool of  8 trial point group operations.

The static configuration has the point symmetry C_1 .

Analysis of symmetry for dynamics (positions and initial velocities):
 Subroutine PRICEL returns following result:

  LATTYP: Found a simple monoclinic cell.
 ALAT       =    11.2564630382
 B/A-ratio  =     1.9317108553
 C/A-ratio  =     1.3031301026
 COS(beta)  =    -0.9393337087

  Lattice vectors:

 A1 = (   0.0000000000, -11.2564630382,   0.0000000000)
 A2 = (   0.0000000000,   0.0000000000, -21.7442318436)
 A3 = (   5.0314101685,  13.7787440988,   0.0000000000)

   2 primitive cells build up your supercell.

 Routine SETGRP: Setting up the symmetry group for a
 base centered orthorhombic supercell.

 Subroutine GETGRP returns: Found  1 space group operations
 (whereof  1 operations were pure point group operations)
 out of a pool of  8 trial point group operations.

The dynamic configuration has the point symmetry C_1 .

 Subroutine INISYM returns: Found  1 space group operations
 (whereof  1 operations are pure point group operations),
 and found     2 'primitive' translations

                                     Primitive cell

  volume of cell :    1231.5038

  direct lattice vectors                    reciprocal lattice vectors
     0.000000000-11.256463038  0.000000000     0.243286473 -0.088837852  0.000000000
     0.000000000  0.000000000-21.744231844     0.000000000  0.000000000 -0.045989208
     5.031410169 13.778744099  0.000000000     0.198751437  0.000000000  0.000000000

  length of vectors
    11.256463038 21.744231844 14.668635834     0.258998980  0.045989208  0.198751437

  position of ions in fractional coordinates (direct lattice)
     0.043061032  0.746672012  0.521841392
     0.324940631  0.611645032  0.709761124
     0.606820229  0.476618052  0.897680856
     0.215119136  0.917373930  0.548478130
     0.496998734  0.782346950  0.736397862
     0.778878334  0.647319970  0.924317596
     0.192860959  0.512292990  0.376443350
     0.347222131  0.917373930  0.812684122
     0.261181417  0.881698992  0.333921658
     0.060757963  0.512292990  0.112237358
     0.629101760  0.782346950  0.000603884
     0.910981360  0.647319970  0.188523618
[...]
     0.000000000  0.000000000 21.744231844     0.000000000  0.000000000  0.045989208

  length of vectors
    11.256463038 11.256463038 21.744231844     0.099375718  0.099375718  0.045989208

 FORCES acting on ions
    electron-ion (+dipol)            ewald-force                    non-local-force                 convergence-correction
   0.401E+03 -.251E+03 0.654E+03   -.402E+03 0.252E+03 -.654E+03   0.106E+01 -.586E+00 0.407E+00   0.538E-02 0.661E-02 -.320E-01
   0.398E+03 -.245E+03 -.242E+04   -.400E+03 0.246E+03 0.242E+04   0.119E+01 -.706E+00 0.499E+00   -.102E-02 0.311E-02 -.920E-01
   0.262E+03 -.161E+03 -.527E+04   -.264E+03 0.162E+03 0.526E+04   0.148E+01 -.882E+00 0.595E+01   -.194E-02 0.607E-03 -.152E-01
   0.458E+03 -.707E+02 0.396E+04   -.458E+03 0.728E+02 -.396E+04   -.280E+00 -.145E+01 0.288E+01   -.230E-01 0.165E-01 0.553E-01
   0.244E+02 0.511E+03 -.450E+04   -.219E+02 -.510E+03 0.450E+04   -.172E+01 -.106E+01 -.131E+00   0.592E-02 -.160E-01 -.427E-01
   0.541E+01 0.549E+03 0.458E+04   -.638E+01 -.551E+03 -.459E+04   0.849E+00 0.191E+01 0.531E+01   -.318E-02 0.572E-02 0.133E-01
   -.618E+01 0.548E+03 0.176E+04   0.570E+01 -.549E+03 -.176E+04   0.432E+00 0.101E+01 0.104E+01   0.574E-02 0.197E-02 0.215E-03
   0.129E+02 0.520E+03 -.133E+04   -.132E+02 -.522E+03 0.133E+04   0.319E+00 0.998E+00 0.127E+01   0.200E-02 -.230E-02 -.884E-01
   -.460E+03 -.228E+03 0.173E+04   0.460E+03 0.229E+03 -.173E+04   -.575E+00 -.855E+00 0.122E+01   0.319E-02 0.450E-02 -.497E-02
   -.455E+03 -.240E+03 -.134E+04   0.456E+03 0.240E+03 0.134E+04   -.693E+00 -.704E+00 0.127E+01   0.573E-03 0.670E-03 -.917E-01
   -.446E+03 -.249E+03 -.450E+04   0.446E+03 0.247E+03 0.450E+04   0.105E+00 0.198E+01 -.117E+00   0.118E-01 -.161E-02 -.437E-01
   -.398E+03 -.284E+03 0.458E+04   0.401E+03 0.285E+03 -.459E+04   -.181E+01 -.156E+01 0.527E+01   0.356E-02 -.115E-02 0.191E-01
   0.401E+03 -.251E+03 0.654E+03   -.402E+03 0.252E+03 -.654E+03   0.106E+01 -.586E+00 0.407E+00   0.569E-02 0.657E-02 -.320E-01
   0.398E+03 -.245E+03 -.242E+04   -.400E+03 0.246E+03 0.242E+04   0.119E+01 -.706E+00 0.499E+00   -.102E-02 0.319E-02 -.918E-01
   0.262E+03 -.161E+03 -.527E+04   -.264E+03 0.162E+03 0.526E+04   0.148E+01 -.882E+00 0.595E+01   -.198E-02 0.584E-03 -.150E-01
   0.458E+03 -.707E+02 0.396E+04   -.458E+03 0.728E+02 -.396E+04   -.280E+00 -.145E+01 0.288E+01   -.234E-01 0.164E-01 0.556E-01
   0.244E+02 0.511E+03 -.450E+04   -.219E+02 -.510E+03 0.450E+04   -.172E+01 -.106E+01 -.131E+00   0.563E-02 -.163E-01 -.429E-01
   0.541E+01 0.549E+03 0.458E+04   -.638E+01 -.551E+03 -.459E+04   0.849E+00 0.191E+01 0.531E+01   -.222E-02 0.710E-02 0.135E-01
   -.618E+01 0.548E+03 0.176E+04   0.570E+01 -.549E+03 -.176E+04   0.432E+00 0.101E+01 0.104E+01   0.621E-02 0.271E-02 0.131E-04
   0.129E+02 0.520E+03 -.133E+04   -.132E+02 -.522E+03 0.133E+04   0.319E+00 0.998E+00 0.127E+01   0.227E-02 -.217E-02 -.883E-01
   -.460E+03 -.228E+03 0.173E+04   0.460E+03 0.229E+03 -.173E+04   -.575E+00 -.855E+00 0.122E+01   0.302E-02 0.467E-02 -.456E-02
   -.455E+03 -.240E+03 -.134E+04   0.456E+03 0.240E+03 0.134E+04   -.693E+00 -.704E+00 0.127E+01   0.560E-03 0.824E-03 -.917E-01
   -.446E+03 -.249E+03 -.450E+04   0.446E+03 0.247E+03 0.450E+04   0.105E+00 0.198E+01 -.117E+00   0.120E-01 -.118E-02 -.437E-01
   -.398E+03 -.284E+03 0.458E+04   0.401E+03 0.285E+03 -.459E+04   -.181E+01 -.156E+01 0.527E+01   0.359E-02 -.203E-02 0.190E-01
   0.398E+03 -.240E+03 0.702E+03   -.400E+03 0.241E+03 -.703E+03   0.912E+00 -.836E+00 0.328E+00   0.169E-01 -.177E-01 -.313E-01
   0.400E+03 -.248E+03 -.241E+04   -.401E+03 0.248E+03 0.241E+04   0.119E+01 -.813E+00 0.559E+00   -.142E-02 -.457E-03 -.996E-01
   0.263E+03 -.163E+03 -.527E+04   -.265E+03 0.164E+03 0.526E+04   0.142E+01 -.864E+00 0.584E+01   0.295E-02 0.244E-02 -.152E-01
   0.475E+03 -.341E+03 0.376E+04   -.477E+03 0.342E+03 -.376E+04   0.184E+01 -.119E+01 0.372E+01   -.518E-02 0.172E-02 0.336E-01
   0.252E+02 0.509E+03 -.450E+04   -.228E+02 -.508E+03 0.450E+04   -.169E+01 -.978E+00 -.233E+00   0.215E-02 0.143E-02 -.430E-01
   0.155E+03 0.279E+03 0.487E+04   -.154E+03 -.283E+03 -.487E+04   -.423E+00 0.336E+01 -.141E+01   -.314E-02 -.325E-01 0.473E-01
   0.336E+02 0.479E+03 0.178E+04   -.339E+02 -.480E+03 -.178E+04   0.165E+00 0.111E+01 0.991E+00   0.140E-02 0.192E-01 0.836E-02
   0.189E+02 0.509E+03 -.134E+04   -.191E+02 -.510E+03 0.133E+04   0.293E+00 0.827E+00 0.143E+01   -.531E-02 0.553E-02 -.941E-01
   -.448E+03 -.264E+03 0.181E+04   0.449E+03 0.265E+03 -.181E+04   -.514E+00 -.108E+01 0.151E+01   -.117E-01 -.176E-01 0.200E-01
   -.450E+03 -.250E+03 -.133E+04   0.451E+03 0.251E+03 0.133E+04   -.693E+00 -.672E+00 0.133E+01   -.190E-02 0.487E-02 -.929E-01
   -.444E+03 -.252E+03 -.450E+04   0.444E+03 0.249E+03 0.450E+04   0.161E+00 0.203E+01 -.249E+00   0.732E-02 0.700E-02 -.416E-01
   -.541E+03 -.212E+03 0.488E+04   0.531E+03 0.212E+03 -.488E+04   0.928E+01 0.465E+00 -.944E+00   -.444E-02 0.699E-02 0.488E-01
   0.398E+03 -.240E+03 0.702E+03   -.400E+03 0.241E+03 -.703E+03   0.912E+00 -.836E+00 0.328E+00   0.170E-01 -.179E-01 -.308E-01
   0.400E+03 -.248E+03 -.241E+04   -.401E+03 0.248E+03 0.241E+04   0.119E+01 -.813E+00 0.559E+00   -.131E-02 -.542E-03 -.998E-01
   0.263E+03 -.163E+03 -.527E+04   -.265E+03 0.164E+03 0.526E+04   0.142E+01 -.864E+00 0.584E+01   0.305E-02 0.239E-02 -.153E-01
   0.475E+03 -.341E+03 0.376E+04   -.477E+03 0.342E+03 -.376E+04   0.184E+01 -.119E+01 0.372E+01   -.437E-02 0.120E-02 0.333E-01
   0.252E+02 0.509E+03 -.450E+04   -.228E+02 -.508E+03 0.450E+04   -.169E+01 -.978E+00 -.233E+00   0.233E-02 0.184E-02 -.429E-01
   0.155E+03 0.279E+03 0.487E+04   -.154E+03 -.283E+03 -.487E+04   -.423E+00 0.336E+01 -.141E+01   -.296E-02 -.330E-01 0.476E-01
   0.336E+02 0.479E+03 0.178E+04   -.339E+02 -.480E+03 -.178E+04   0.165E+00 0.111E+01 0.991E+00   0.177E-02 0.189E-01 0.872E-02
   0.189E+02 0.509E+03 -.134E+04   -.191E+02 -.510E+03 0.133E+04   0.293E+00 0.827E+00 0.143E+01   -.532E-02 0.536E-02 -.944E-01
   -.448E+03 -.264E+03 0.181E+04   0.449E+03 0.265E+03 -.181E+04   -.514E+00 -.108E+01 0.151E+01   -.125E-01 -.175E-01 0.197E-01
   -.450E+03 -.250E+03 -.133E+04   0.451E+03 0.251E+03 0.133E+04   -.693E+00 -.672E+00 0.133E+01   -.198E-02 0.474E-02 -.927E-01
   -.444E+03 -.252E+03 -.450E+04   0.444E+03 0.249E+03 0.450E+04   0.161E+00 0.203E+01 -.249E+00   0.704E-02 0.662E-02 -.414E-01
   -.541E+03 -.212E+03 0.488E+04   0.531E+03 0.212E+03 -.488E+04   0.928E+01 0.465E+00 -.944E+00   -.370E-02 0.726E-02 0.491E-01
   -.124E+03 0.817E+02 0.291E+03   0.126E+03 -.828E+02 -.292E+03   -.150E+01 0.102E+01 0.147E+01   0.547E-02 -.241E-03 -.174E-01
   -.120E+03 0.746E+02 -.877E+03   0.122E+03 -.756E+02 0.875E+03   -.189E+01 0.110E+01 0.256E+01   0.143E-02 -.122E-02 -.348E-01
   -.109E+03 0.824E+02 0.207E+04   0.110E+03 -.832E+02 -.207E+04   -.137E+01 0.107E+01 0.526E+01   0.583E-03 0.867E-03 -.954E-03
   -.152E+03 0.121E+03 0.144E+04   0.153E+03 -.122E+03 -.144E+04   -.153E+01 0.788E+00 0.114E+01   0.352E-02 0.452E-02 0.158E-01
   -.253E+02 0.155E+02 -.201E+04   0.254E+02 -.155E+02 0.202E+04   -.889E+00 0.568E+00 -.362E+01   -.439E-02 0.585E-02 0.158E-02
   -.633E+01 -.174E+03 -.135E+04   0.613E+01 0.176E+03 0.135E+04   0.455E+00 -.285E+01 0.111E+01   0.668E-03 0.281E-02 -.304E-01
   0.272E+01 -.172E+03 -.195E+03   -.279E+01 0.174E+03 0.195E+03   0.600E-01 -.264E+01 0.999E-02   0.167E-02 -.464E-03 -.292E-01
   0.483E+02 0.634E+01 0.204E+04   -.496E+02 -.680E+01 -.204E+04   0.197E+01 -.479E+00 0.514E+01   -.137E-01 0.117E-01 0.173E-02
   -.736E+01 -.155E+03 0.984E+03   0.726E+01 0.158E+03 -.984E+03   0.322E+00 -.250E+01 -.188E+00   -.277E-02 -.519E-02 0.263E-01
   0.115E+03 -.663E+02 0.203E+04   -.116E+03 0.679E+02 -.204E+04   0.101E+01 -.188E+01 0.600E+01   0.964E-03 -.114E-02 0.507E-02
   0.152E+03 0.769E+02 0.947E+03   -.155E+03 -.780E+02 -.948E+03   0.276E+01 0.110E+01 0.382E+00   -.688E-02 -.225E-02 0.959E-02
   0.153E+03 0.773E+02 -.193E+03   -.155E+03 -.784E+02 0.194E+03   0.237E+01 0.111E+01 -.401E-01   -.146E-02 -.160E-02 -.248E-01
[...]
   0.164E+03 0.625E+02 0.100E+04   -.166E+03 -.635E+02 -.100E+04   0.194E+01 0.128E+01 -.805E+00   0.550E-02 -.272E-02 0.255E-01
   0.156E+03 0.715E+02 -.188E+03   -.158E+03 -.728E+02 0.188E+03   0.250E+01 0.124E+01 -.213E+00   0.184E-02 0.449E-02 -.363E-01
   0.153E+03 0.828E+02 -.135E+04   -.156E+03 -.839E+02 0.135E+04   0.283E+01 0.919E+00 0.121E+01   -.534E-02 -.233E-02 -.263E-01
   -.117E+03 0.678E+02 0.287E+03   0.119E+03 -.690E+02 -.289E+03   -.184E+01 0.112E+01 0.208E+01   -.974E-02 0.654E-02 -.209E-01
   -.119E+03 0.729E+02 -.879E+03   0.121E+03 -.739E+02 0.876E+03   -.188E+01 0.124E+01 0.223E+01   0.162E-02 0.294E-02 -.313E-01
   -.114E+03 0.452E+02 0.147E+04   0.116E+03 -.461E+02 -.147E+04   -.176E+01 0.128E+01 0.610E+00   0.356E-02 -.115E-01 0.341E-01
   -.255E+02 0.158E+02 -.201E+04   0.255E+02 -.159E+02 0.202E+04   -.890E+00 0.565E+00 -.356E+01   -.175E-02 -.258E-03 0.244E-02
   -.606E+01 -.174E+03 -.135E+04   0.588E+01 0.177E+03 0.135E+04   0.463E+00 -.292E+01 0.121E+01   0.367E-02 0.469E-03 -.264E-01
   0.206E+01 -.170E+03 -.187E+03   -.197E+01 0.173E+03 0.187E+03   -.433E-01 -.258E+01 0.238E+00   -.133E-02 -.631E-02 -.342E-01
   0.114E+03 -.143E+03 0.204E+04   -.116E+03 0.145E+03 -.205E+04   0.219E+01 -.239E+00 0.521E+01   0.193E-02 -.836E-02 0.508E-02
   0.115E+02 -.185E+03 0.953E+03   -.115E+02 0.187E+03 -.953E+03   0.483E-01 -.289E+01 0.297E+00   0.467E-02 0.622E-02 0.131E-01
   0.164E+03 0.625E+02 0.100E+04   -.166E+03 -.635E+02 -.100E+04   0.194E+01 0.128E+01 -.805E+00   0.532E-02 -.288E-02 0.256E-01
   0.156E+03 0.715E+02 -.188E+03   -.158E+03 -.728E+02 0.188E+03   0.250E+01 0.124E+01 -.213E+00   0.185E-02 0.441E-02 -.362E-01
   0.153E+03 0.828E+02 -.135E+04   -.156E+03 -.839E+02 0.135E+04   0.283E+01 0.919E+00 0.121E+01   -.542E-02 -.247E-02 -.264E-01
   -.409E+02 0.820E+01 -.132E+03   0.114E-11 0.217E-11 -.182E-11   0.407E+02 -.848E+01 0.133E+03   -.864E-02 0.450E-03 -.157E+01

 POSITION                                       TOTAL-FORCE (eV/Angst)
      2.62560      6.70560      5.50842         0.111690     -0.021474     -0.068190
      3.57110      6.12193      8.44448         0.135830     -0.078301      0.005013
      4.51660      5.53827     11.38054        -1.027637      0.635137     -1.303849
      1.68010      1.66104      2.57236         0.280082      0.586752      0.003534
      0.56471      0.86257     10.60481         0.756564      0.042814     -0.565239
      2.75962      5.13586      1.79664        -0.122451     -0.217468     -0.594845
      3.70512      4.55219      4.73270        -0.038919      0.040338     -0.031252
      4.65062      3.96852      7.66876         0.071000     -0.155087      0.046544
      0.00304      4.18332      4.73270        -0.052547     -0.011102      0.028599
      0.94854      3.59965      7.66876         0.174963     -0.019853      0.013840
      1.89404      3.01598     10.60481         0.298364     -0.666583     -0.561520
      4.08895      7.28927      1.79664         0.386266      0.260408     -0.657055
      7.65701      9.22789      5.50842         0.111690     -0.021474     -0.068190
      8.60251      8.64422      8.44448         0.135830     -0.078301      0.005013
      9.54801      8.06055     11.38054        -1.027637      0.635137     -1.303849
      6.71151      4.18332      2.57236         0.280082      0.586752      0.003534
      5.59612      3.38485     10.60481         0.756564      0.042814     -0.565239
      7.79103      7.65814      1.79664        -0.122451     -0.217468     -0.594845
      8.73653      7.07447      4.73270        -0.038919      0.040338     -0.031252
      9.68203      6.49080      7.66876         0.071000     -0.155087      0.046544
      5.03445      6.70560      4.73270        -0.052547     -0.011102      0.028599
      5.97995      6.12193      7.66876         0.174963     -0.019853      0.013840
      6.92545      5.53827     10.60481         0.298364     -0.666583     -0.561520
      9.12036      9.81155      1.79664         0.386266      0.260408     -0.657055
      2.62560     12.33384      5.50842        -0.097973     -0.023585     -0.150769
      3.57110     11.75017      8.44448         0.102805     -0.065936      0.010077
      4.51660     11.16650     11.38054        -1.029392      0.630655     -1.314350
      1.68010      7.28927      2.57236        -0.160651     -0.010797     -0.352594
      0.56471      6.49080     10.60481         0.717806      0.034424     -0.563439
      2.75962     10.76409      1.79664         0.193999     -1.021159      0.870086
      3.70512     10.18042      4.73270        -0.135691      0.195801     -0.187545
      4.65062      9.59675      7.66876         0.117593     -0.124781      0.042529
      0.00304      9.81155      4.73270        -0.009685      0.056865     -0.090356
      0.94854      9.22789      7.66876         0.113843     -0.085870      0.023295
      1.89404      8.64422     10.60481         0.316021     -0.659943     -0.574760
      4.08895     12.91750      1.79664        -0.856382      0.082190      0.872178
      7.65701     14.85612      5.50842        -0.097973     -0.023585     -0.150769
      8.60251     14.27245      8.44448         0.102805     -0.065936      0.010077
      9.54801     13.68878     11.38054        -1.029392      0.630655     -1.314350
      6.71151      9.81155      2.57236        -0.160651     -0.010797     -0.352594
      5.59612      9.01308     10.60481         0.717806      0.034424     -0.563439
      7.79103     13.28637      1.79664         0.193999     -1.021159      0.870086
      8.73653     12.70270      4.73270        -0.135691      0.195801     -0.187545
      9.68203     12.11903      7.66876         0.117593     -0.124781      0.042529
      5.03445     12.33384      4.73270        -0.009685      0.056865     -0.090356
      5.97995     11.75017      7.66876         0.113843     -0.085870      0.023295
      6.92545     11.16650     10.60481         0.316021     -0.659943     -0.574760
      9.12036     15.43979      1.79664        -0.856382      0.082190      0.872178
      0.73335      2.24548      5.87212         0.042200     -0.048072      0.034803
      1.67886      1.66181      8.80817        -0.186543      0.100942     -0.000018
      3.87376      5.93510      0.00000        -0.155881      0.220733      1.096734
      4.81926      5.35143      2.93606         0.094997     -0.361358     -0.501206
      2.62436      6.70637     11.74423        -0.794231      0.488172     -0.001357
      0.30423      4.40389      9.79595         0.259645     -0.166953      1.102712
      4.39014      7.50984      6.85989        -0.013416      0.003597      0.080415
      2.49914      3.04894      0.98778         0.643073     -0.921634      0.689213
      3.44464      2.46527      3.92384         0.215489     -0.163681      0.047422
      0.80642      5.93510      0.98778         0.013654     -0.253517      0.648860
      1.75192      5.35143      3.92384         0.016518     -0.019628     -0.126813
      2.69743      4.76776      6.85989        -0.009978     -0.026394      0.118244
[...]
      3.44464      8.09350      3.92384         0.027468     -0.085050     -0.130432
      1.75192     10.97966      3.92384        -0.186157      0.269752     -0.957740
      2.69743     10.39599      6.85989        -0.004409     -0.022395      0.042632
      3.64293      9.81232      9.79595         0.301619     -0.208100      1.150141
      5.76476     10.39599      5.87212         0.058870     -0.026539      0.008903
      6.71027      9.81232      8.80817        -0.182258      0.166391      0.054780
      9.85067     13.50194      2.93606        -0.301369      0.388202     -1.055124
      7.65577     14.85688     11.74423        -0.803154      0.484671     -0.005308
      5.33564     12.55440      9.79595         0.290533     -0.181612      1.099260
      9.42155     15.66035      6.85989         0.044220      0.131775      0.124986
      7.53055     11.19946      0.98778         0.111346      0.991168      0.499350
      8.47605     10.61579      3.92384         0.027468     -0.085050     -0.130432
      6.78333     13.50194      3.92384        -0.186157      0.269752     -0.957740
      7.72884     12.91827      6.85989        -0.004409     -0.022395      0.042632
      8.67434     12.33460      9.79595         0.301619     -0.208100      1.150141
    total drift:                               -0.161822     -0.280840      0.082308

  FREE ENERGIE OF THE ION-ELECTRON SYSTEM (eV)
  free  energy   TOTEN  =      -480.31803734 eV

  energy  without entropy=     -478.88669219  energy(sigma->0) =     -479.60236476