 vasp.5.4.4.18Apr17-6-g9f103f2a35 (build Aug 13 2019 17:33:20) gamma-only

 executed on             LinuxIFC date 2020.05.12  17:24:38

 INCAR:
 POTCAR:    PAW_PBE Ni_pv 06Sep2000
 POTCAR:    PAW_PBE S 06Sep2000
 POTCAR:    PAW_PBE Ni_pv 06Sep2000
   VRHFIN =Ni:

   TITEL  = PAW_PBE Ni_pv 06Sep2000
   POMASS =   58.690; ZVAL   =   16.000    mass and valenz
   ENMAX  =  367.986; ENMIN  =  275.989 eV

 POTCAR:    PAW_PBE S 06Sep2000
   VRHFIN =S : s2p4

   TITEL  = PAW_PBE S 06Sep2000
   POMASS =   32.066; ZVAL   =    6.000    mass and valenz
   ENMAX  =  258.689; ENMIN  =  194.016 eV

 Optimization of the real space projectors (new method)

 maximal supplied QI-value         = 18.90
 optimisation between [QCUT,QGAM] = [ 10.77, 21.73] = [ 32.49,132.25] Ry
 Optimized for a Real-space Cutoff    1.38 Angstroem

   l    n(q)    QCUT    max X(q) W(low)/X(q) W(high)/X(q)  e(spline)
   1      8    10.771     2.836    0.40E-04    0.29E-04    0.12E-06
   1      8    10.771     4.023    0.10E-03    0.48E-04    0.29E-06
   2      8    10.771    73.368    0.42E-03    0.97E-04    0.44E-06
   2      8    10.771    69.010    0.42E-03    0.99E-04    0.45E-06
   0      9    10.771    54.797    0.10E-03    0.56E-04    0.74E-07
   0      9    10.771    24.266    0.89E-04    0.49E-04    0.67E-07
 Optimization of the real space projectors (new method)

 maximal supplied QI-value         = 19.84
 optimisation between [QCUT,QGAM] = [ 10.71, 21.63] = [ 32.15,130.99] Ry
 Optimized for a Real-space Cutoff    1.19 Angstroem

   l    n(q)    QCUT    max X(q) W(low)/X(q) W(high)/X(q)  e(spline)
   0      8    10.715   187.594    0.41E-03    0.53E-04    0.66E-07
   0      8    10.715   164.243    0.41E-03    0.53E-04    0.65E-07
   1      7    10.715    67.533    0.19E-03    0.59E-03    0.68E-07
   1      7    10.715    50.729    0.19E-03    0.58E-03    0.67E-07
  PAW_PBE Ni_pv 06Sep2000               :
  PAW_PBE S 06Sep2000                   :

 POSCAR: Type_036 Type_136
  positions in cartesian coordinates
 exchange correlation table for  LEXCH =        8
   RHO(1)=    0.500       N(1)  =     2000
   RHO(2)=  100.500       N(2)  =     4000

 ion  position               nearest neighbor table
   1  0.253  0.953  0.071-  41 2.04  61 2.05  42 2.09  49 2.09   2 2.50
   2  0.402  0.782  0.154-  61 2.14  62 2.17  49 2.19  50 2.21  42 2.28  26 2.48   1 2.50
   3  0.547  0.645  0.256-  62 2.08  43 2.25  50 2.26  51 2.36  63 2.36  14 2.53  27 2.53
   4  0.698  0.494  0.384-  64 2.16  44 2.26  51 2.26  63 2.26  52 2.36  15 2.53  28 2.53
   5  0.825  0.342  0.488-  52 2.00  64 2.00  16 2.45  25 2.47
   6  0.114  0.412  0.171-  53 2.06  45 2.25  68 2.26   9 2.28  54 2.36  65 2.36  29 2.53  17 2.53

   7  0.264  0.261  0.299-  46 2.25  65 2.26  54 2.26  55 2.36  66 2.36  30 2.53  18 2.53
   8  0.414  0.111  0.427-  67 2.01  56 2.14  47 2.21  66 2.26  55 2.26  31 2.53  19 2.53
   9  0.979  0.594  0.106-  48 1.99  45 2.12  68 2.19  53 2.20   6 2.28  20 2.44
  10  0.082  0.807  0.453-  59 2.05  58 2.07  72 2.08  37 2.11  13 2.50
  11  0.697  0.219  0.147-  38 2.05  39 2.12  60 2.28  70 2.28  12 2.35  36 2.44
  12  0.831  0.028  0.213-  39 2.25  60 2.26  70 2.26  11 2.35  71 2.36  57 2.36  23 2.53  33 2.53

[...]

  32  0.728  0.799  0.451-  44 2.04  56 2.05  72 2.06  31 2.39
  33  0.015  0.843  0.146-  61 2.04  48 2.26  60 2.26  45 2.36  57 2.36  23 2.53  12 2.53
  34  0.166  0.693  0.274-  62 2.12  57 2.26  45 2.26  58 2.36  46 2.36  24 2.53  13 2.53
  35  0.316  0.543  0.402-  59 2.04  47 2.15  63 2.25  58 2.26  46 2.26  21 2.45
  36  0.766  0.000  0.084-  48 2.02  70 2.04  60 2.08  11 2.44
  37  0.989  0.015  0.490-  25 2.10  16 2.10  10 2.11  40 2.62
  38  0.577  0.426  0.127-  26 2.03  11 2.05  14 2.08  27 2.12
  39  0.736  0.256  0.246-  11 2.12  12 2.25  28 2.26  15 2.26  14 2.36  27 2.36
  40  0.886  0.105  0.374-  16 2.04  25 2.05  13 2.25  15 2.36  28 2.36  37 2.62
  41  0.165  0.159  0.041-  20 2.01   1 2.04  29 2.14  17 2.14
  42  0.303  0.023  0.161-   1 2.09  22 2.15  18 2.26  30 2.26   2 2.28  29 2.36  17 2.36
  43  0.453  0.872  0.289-   3 2.25  31 2.26  19 2.26  30 2.36  18 2.36  44 2.79
  44  0.591  0.730  0.400-  32 2.04  31 2.18  19 2.20   4 2.26  43 2.79
  45  0.019  0.639  0.204-   9 2.12   6 2.25  24 2.26  34 2.26  33 2.36  23 2.36
  46  0.170  0.489  0.332-  21 2.06   7 2.25  35 2.26  24 2.36  34 2.36  47 2.57
  47  0.301  0.343  0.430-  35 2.15  21 2.20   8 2.21  46 2.57  59 2.71
  48  0.869  0.789  0.076-   9 1.99  36 2.02  33 2.26  23 2.26
  49  0.455  0.805  0.052-  26 2.05   1 2.09  22 2.09   2 2.19  61 2.77
  50  0.636  0.692  0.161-  26 2.02   2 2.21  23 2.25  27 2.26   3 2.26
  51  0.787  0.542  0.289-  24 2.25  28 2.26   4 2.26   3 2.36  27 2.36
  52  0.937  0.391  0.417-   5 2.00  25 2.14  21 2.28   4 2.36  28 2.36
  53  0.199  0.456  0.086-  20 2.02   6 2.06  29 2.20   9 2.20
  54  0.353  0.308  0.204-  14 2.25   7 2.26  30 2.26  29 2.36   6 2.36
  55  0.503  0.158  0.332-  15 2.25   8 2.26  31 2.26  30 2.36   7 2.36
  56  0.635  0.017  0.448-  32 2.05  16 2.12  31 2.13   8 2.14
  57  0.070  0.925  0.247-  18 2.25  34 2.26  13 2.26  12 2.36  33 2.36
  58  0.220  0.775  0.375-  10 2.07  19 2.25  35 2.26  34 2.36  13 2.36
  59  0.197  0.606  0.484-  35 2.04  10 2.05  21 2.07  47 2.71
  60  0.920  0.075  0.119-  36 2.08  17 2.25  33 2.26  12 2.26  11 2.28
  61  0.214  0.780  0.106-  33 2.04   1 2.05   2 2.14  49 2.77
  62  0.358  0.635  0.220-   3 2.08  34 2.12  14 2.15   2 2.17
  63  0.501  0.491  0.333-  35 2.25   4 2.26  15 2.26  14 2.36   3 2.36
  64  0.646  0.344  0.445-   5 2.00  15 2.06  16 2.16   4 2.16
  65  0.067  0.258  0.247-  28 2.25   7 2.26  18 2.26  17 2.36   6 2.36
  66  0.218  0.108  0.375-  25 2.13   8 2.26  19 2.26  18 2.36   7 2.36
  67  0.391  0.957  0.483-  19 2.00   8 2.01
  68  0.917  0.408  0.119-  20 2.05   9 2.19  27 2.25  17 2.26   6 2.26
  69  0.489  0.145  0.054-  22 2.04  29 2.06  70 2.69
  70  0.634  0.025  0.162-  36 2.04  22 2.09  30 2.25  23 2.26  12 2.26  11 2.28  69 2.69
  71  0.784  0.874  0.290-  31 2.25  24 2.26  13 2.26  12 2.36  23 2.36
  72  0.934  0.724  0.418-  32 2.06  10 2.08  21 2.17  13 2.36  24 2.36

  LATTYP: Found a base centered orthorhombic cell.
 ALAT       =    11.4527836704
 B/A-ratio  =     1.4485816945
 C/A-ratio  =     1.7901333131

  Lattice vectors:

 A1 = (  10.0797329849,   0.0000000000,   0.0000000000)
 A2 = (  -3.5732980427,  -9.4251025535,   0.0000000000)
 A3 = (   0.0000000000,   0.0000000000, -20.5020095760)

Analysis of symmetry for initial positions (statically):
 Subroutine PRICEL returns:
 Original cell was already a primitive cell.

 Routine SETGRP: Setting up the symmetry group for a
 base centered orthorhombic supercell.

 Subroutine GETGRP returns: Found  1 space group operations
 (whereof  1 operations were pure point group operations)
 out of a pool of  8 trial point group operations.

The static configuration has the point symmetry C_1 .

Analysis of symmetry for dynamics (positions and initial velocities):
 Subroutine PRICEL returns:
 Original cell was already a primitive cell.

 Routine SETGRP: Setting up the symmetry group for a
 base centered orthorhombic supercell.

 Subroutine GETGRP returns: Found  1 space group operations
 (whereof  1 operations were pure point group operations)
 out of a pool of  8 trial point group operations.

The dynamic configuration has the point symmetry C_1 .

 Subroutine INISYM returns: Found  1 space group operations
 (whereof  1 operations are pure point group operations),
 and found     1 'primitive' translations

 KPOINTS: gamma-point-only calculation. no periodi

Automatic generation of k-mesh.
Space group operators:
 irot       det(A)        alpha          n_x          n_y          n_z        tau_x        tau_y        tau_z
    1     1.000000     0.000001     1.000000     0.000000     0.000000     0.000000     0.000000     0.000000

 Subroutine IBZKPT returns following result:

 Found      1 irreducible k-points:

 Following reciprocal coordinates:
            Coordinates               Weight
  0.000000  0.000000  0.000000      1.000000

 Following cartesian coordinates:
            Coordinates               Weight
  0.000000  0.000000  0.000000      1.000000

 SYSTEM =  "Millerite NiS"
 POSCAR =  Type_036 Type_136

 Startparameter for this run:
   NWRITE =      2    write-flag & timer
   PREC   = normal    normal or accurate (medium, high low for compatibility)
   ISTART =      0    job   : 0-new  1-cont  2-samecut
   ICHARG =      2    charge: 1-file 2-atom 10-const
   ISPIN  =      1    spin polarized calculation?
   LNONCOLLINEAR =      F non collinear calculations
   LSORBIT =      F    spin-orbit coupling
   INIWAV =      1    electr: 0-lowe 1-rand  2-diag
   LASPH  =      F    aspherical Exc in radial PAW
   METAGGA=      F    non-selfconsistent MetaGGA calc.

 Electronic Relaxation 1
   ENCUT  =  450.0 eV  33.07 Ry    5.75 a.u.  17.43 17.43 35.46*2*pi/ulx,y,z
   ENINI  =  450.0     initial cutoff
   ENAUG  =  703.4 eV  augmentation charge cutoff
   NELM   =    100;   NELMIN=  2; NELMDL= -5     # of ELM steps
   EDIFF  = 0.1E-03   stopping-criterion for ELM
   LREAL  =      T    real-space projection
   NLSPLINE    = F    spline interpolate recip. space projectors
   LCOMPAT=      F    compatible to vasp.4.4
   GGA_COMPAT  = T    GGA compatible to vasp.4.4-vasp.4.6
   LMAXPAW     = -100 max onsite density
   LMAXMIX     =    2 max onsite mixed and CHGCAR
   VOSKOWN=      0    Vosko Wilk Nusair interpolation
   ROPT   =   -0.00050  -0.00050
 Ionic relaxation
   EDIFFG = 0.1E-02   stopping-criterion for IOM
   NSW    =      0    number of steps for IOM
   NBLOCK =      1;   KBLOCK =      1    inner block; outer block
   IBRION =     -1    ionic relax: 0-MD 1-quasi-New 2-CG
   NFREE  =      0    steps in history (QN), initial steepest desc. (CG)
   ISIF   =      2    stress and relaxation
   IWAVPR =     10    prediction:  0-non 1-charg 2-wave 3-comb
   ISYM   =      2    0-nonsym 1-usesym 2-fastsym
   LCORR  =      T    Harris-Foulkes like correction to forces

   POTIM  = 0.5000    time-step for ionic-motion
   TEIN   =    0.0    initial temperature
   TEBEG  =    0.0;   TEEND  =   0.0 temperature during run
   SMASS  =  -3.00    Nose mass-parameter (am)
   estimated Nose-frequenzy (Omega)   =  0.10E-29 period in steps =****** mass=  -0.232E-26a.u.
   SCALEE = 1.0000    scale energy and forces
   NPACO  =    256;   APACO  = 16.0  distance and # of slots for P.C.
   PSTRESS=    0.0 pullay stress

  Mass of Ions in am
   POMASS =  58.69 32.07
  Ionic Valenz
   ZVAL   =  16.00  6.00
  Atomic Wigner-Seitz radii
  virtual crystal weights
   VCA    =   1.00  1.00
   NELECT =     792.0000    total number of electrons
   NUPDOWN=      -1.0000    fix difference up-down

 DOS related values:
   EMIN   =  10.00;   EMAX   =-10.00  energy-range for DOS
   EFERMI =   0.00
   ISMEAR =     0;   SIGMA  =   0.20  broadening in eV -4-tet -1-fermi 0-gaus

 Electronic relaxation 2 (details)
   IALGO  =     38    algorithm
   LDIAG  =      T    sub-space diagonalisation (order eigenvalues)
   LSUBROT=      F    optimize rotation matrix (better conditioning)
[...]
  Fock        0.00000     0.00000     0.00000     0.00000     0.00000     0.00000
  Total      89.52581    94.36547   103.53626    -1.70391    -2.82822    -1.89610
  in kB      73.64229    77.62330    85.16703    -1.40160    -2.32644    -1.55969

 VOLUME and BASIS-vectors are now :
  energy-cutoff  :      450.00
  volume of cell :     1947.74
      direct lattice vectors                 reciprocal lattice vectors
    10.079732985  0.000000000  0.000000000     0.099208977 -0.037612667  0.000000000
     3.573298043  9.425102554  0.000000000     0.000000000  0.106099641  0.000000000
     0.000000000  0.000000000 20.502009576     0.000000000  0.000000000  0.048775706

  length of vectors
    10.079732985 10.079732985 20.502009576     0.106099641  0.106099641  0.048775706

 FORCES acting on ions
    electron-ion (+dipol)            ewald-force                    non-local-force                 convergence-correction
   0.620E+03 0.308E+03 0.522E+04   -.627E+03 -.310E+03 -.523E+04   0.679E+01 0.129E+01 0.639E+01   -.327E-02 -.667E-02 0.127E-01
   0.386E+03 0.376E+03 0.254E+04   -.388E+03 -.380E+03 -.254E+04   0.214E+01 0.309E+01 -.312E+01   0.611E-02 -.458E-02 0.980E-02
   -.185E+02 -.275E+03 -.283E+03   0.201E+02 0.277E+03 0.285E+03   -.717E+00 -.172E+01 -.859E+00   0.829E-02 -.664E-02 -.740E-02
   0.134E+03 -.708E+03 -.337E+04   -.133E+03 0.710E+03 0.337E+04   -.516E+00 -.137E+01 0.380E+00   -.489E-02 -.538E-03 -.179E-01
   -.111E+03 -.615E+03 -.564E+04   0.111E+03 0.613E+03 0.563E+04   0.348E+00 0.210E+01 0.549E+01   -.809E-03 -.123E-02 -.925E-02
   -.282E+03 -.311E+03 0.167E+04   0.283E+03 0.309E+03 -.166E+04   -.561E+00 0.819E+00 -.382E+01   -.239E-02 -.925E-02 0.256E-01
   -.516E+02 -.494E+03 -.125E+04   0.511E+02 0.495E+03 0.125E+04   0.520E+00 -.133E+01 0.117E+01   0.450E-03 -.152E-02 -.925E-02
   0.696E+02 -.595E+03 -.453E+04   -.701E+02 0.598E+03 0.453E+04   0.704E+00 -.118E+01 -.414E+01   -.421E-02 0.760E-02 -.711E-02
   0.459E+02 -.352E+03 0.440E+04   -.480E+02 0.351E+03 -.441E+04   0.191E+01 0.480E+00 0.457E+01   -.417E-02 0.353E-02 0.215E-01
   -.313E+03 -.457E+02 -.500E+04   0.313E+03 0.506E+02 0.500E+04   -.615E+00 -.387E+01 -.423E+01   0.445E-02 0.194E-02 0.396E-02
   0.113E+03 -.449E+03 0.355E+04   -.113E+03 0.449E+03 -.356E+04   0.157E+00 -.106E+01 0.567E+01   0.638E-02 0.164E-02 0.176E-01
   -.181E+03 -.207E+03 0.716E+03   0.184E+03 0.205E+03 -.711E+03   -.225E+01 0.548E+00 -.334E+01   0.425E-03 0.138E-02 -.163E-02
   -.476E+02 -.360E+03 -.200E+04   0.469E+02 0.362E+03 0.200E+04   0.644E+00 -.194E+01 0.119E+01   -.175E-04 0.112E-01 -.143E-01
   0.652E+03 0.853E+02 0.105E+04   -.656E+03 -.846E+02 -.105E+04   0.337E+01 -.886E+00 0.361E+00   0.119E-01 0.318E-02 0.478E-02
   0.589E+03 0.128E+03 -.211E+04   -.592E+03 -.129E+03 0.210E+04   0.247E+01 0.787E+00 0.115E+01   0.163E-02 0.580E-02 -.151E-01
   0.523E+03 0.256E+03 -.496E+04   -.526E+03 -.258E+03 0.497E+04   0.199E+01 0.234E+01 -.345E+01   -.434E-03 0.115E-02 -.710E-02
   0.746E+03 0.193E+03 0.297E+04   -.749E+03 -.192E+03 -.297E+04   0.297E+01 -.126E+01 -.704E+00   -.481E-02 -.247E-02 0.220E-01
   0.436E+03 0.273E+03 -.284E+03   -.438E+03 -.273E+03 0.285E+03   0.161E+01 -.389E+00 -.925E+00   0.291E-02 0.580E-02 -.949E-02
   0.437E+03 0.486E+03 -.349E+04   -.440E+03 -.488E+03 0.349E+04   0.212E+01 0.183E+01 -.281E+01   0.839E-03 0.458E-02 -.757E-02
   0.348E+03 -.316E+03 0.581E+04   -.349E+03 0.319E+03 -.582E+04   -.197E+00 -.188E+01 0.473E+01   -.401E-02 -.604E-02 0.693E-02
   0.322E+03 0.385E+03 -.435E+04   -.328E+03 -.387E+03 0.435E+04   0.394E+01 0.120E+01 -.206E+01   0.491E-02 -.899E-02 -.581E-02
   -.495E+03 0.172E+03 0.431E+04   0.498E+03 -.174E+03 -.432E+04   -.308E+01 0.845E+00 0.761E+01   -.224E-02 -.885E-02 0.164E-01
   0.426E+03 0.371E+03 0.195E+04   -.427E+03 -.371E+03 -.195E+04   0.145E+01 -.556E-02 -.133E+01   -.497E-02 0.248E-02 0.100E-01
   0.386E+03 0.378E+03 -.115E+04   -.387E+03 -.378E+03 0.115E+04   0.132E+01 -.212E+00 0.384E+00   -.104E-01 -.772E-02 -.189E-01
   -.789E+03 0.140E+03 -.414E+04   0.794E+03 -.141E+03 0.415E+04   -.427E+01 0.121E+01 -.990E+00   0.396E-02 -.891E-03 -.736E-02
   0.333E+02 0.532E+03 0.520E+04   -.355E+02 -.532E+03 -.520E+04   0.214E+01 -.868E+00 -.365E+00   0.207E-02 0.537E-03 0.161E-01
   -.454E+03 0.772E+02 0.211E+04   0.456E+03 -.760E+02 -.211E+04   -.170E+01 -.113E+01 -.602E-01   -.265E-02 0.567E-02 0.109E-01
   -.470E+03 0.596E+02 -.106E+04   0.472E+03 -.593E+02 0.106E+04   -.161E+01 -.378E+00 0.189E+01   -.783E-02 0.412E-02 -.125E-01
   -.797E+03 -.392E+03 0.416E+04   0.802E+03 0.394E+03 -.416E+04   -.484E+01 -.192E+01 0.286E+01   -.191E-02 -.394E-02 0.212E-01
   -.431E+03 -.118E+01 0.647E+03   0.432E+03 0.307E+01 -.644E+03   -.285E+00 -.189E+01 -.246E+01   -.429E-03 0.271E-03 0.804E-03
   -.210E+03 0.105E+03 -.210E+04   0.213E+03 -.105E+03 0.210E+04   -.315E+01 0.102E+01 0.222E+01   -.101E-02 0.265E-02 -.141E-01
   0.569E+02 0.435E+03 -.506E+04   -.573E+02 -.436E+03 0.506E+04   0.826E+00 0.359E+00 0.110E+01   -.434E-02 -.413E-03 -.130E-02
   -.578E+03 0.221E+03 0.330E+04   0.581E+03 -.220E+03 -.331E+04   -.391E+01 -.834E+00 0.150E+01   0.262E-02 0.821E-02 0.146E-01
   -.473E+03 0.273E+03 -.746E+02   0.474E+03 -.273E+03 0.749E+02   -.167E+01 -.275E+00 0.363E+00   0.714E-02 -.382E-02 -.163E-01
   -.698E+03 0.141E+03 -.364E+04   0.704E+03 -.142E+03 0.364E+04   -.451E+01 0.577E+00 0.387E+00   0.765E-02 -.739E-02 -.111E-01
   -.483E+02 -.185E+03 0.541E+04   0.500E+02 0.187E+03 -.541E+04   -.236E+01 -.137E+01 0.518E+01   0.315E-02 -.617E-03 0.186E-01
   -.148E+03 0.127E+03 -.214E+04   0.149E+03 -.129E+03 0.214E+04   -.580E+00 0.120E+01 -.180E+01   0.889E-03 0.262E-02 0.213E-03
   0.261E+03 0.335E+02 0.171E+04   -.264E+03 -.342E+02 -.171E+04   0.135E+01 -.167E+00 0.166E+01   0.471E-02 0.329E-02 0.465E-02
   -.225E+02 0.600E+02 0.102E+03   0.231E+02 -.614E+02 -.101E+03   -.191E+00 0.104E+01 -.627E+00   0.107E-02 0.123E-03 -.105E-02
   -.369E+01 0.144E+03 -.818E+03   0.252E+01 -.146E+03 0.813E+03   0.784E+00 0.139E+01 0.151E+01   -.418E-03 0.512E-02 -.315E-02
   0.152E+03 0.980E+02 0.228E+04   -.153E+03 -.994E+02 -.229E+04   0.178E+00 0.940E+00 0.200E+01   -.176E-02 -.511E-02 0.263E-02
   0.116E+03 0.290E+02 0.797E+03   -.117E+03 -.280E+02 -.793E+03   0.624E+00 -.946E-01 -.302E+00   -.782E-03 -.779E-03 0.466E-02
   0.276E+02 0.137E+03 -.228E+03   -.279E+02 -.139E+03 0.227E+03   0.290E+00 0.260E+01 0.475E+00   0.717E-03 -.187E-02 -.732E-02
   0.172E+03 0.242E+03 -.140E+04   -.173E+03 -.244E+03 0.140E+04   0.602E+00 0.889E-01 -.709E+00   0.392E-03 -.594E-02 -.443E-02
   -.883E+02 0.107E+03 0.508E+03   0.893E+02 -.107E+03 -.506E+03   -.837E+00 0.444E+00 -.728E+00   -.987E-03 -.601E-03 0.114E-02
   -.410E+02 0.137E+03 -.507E+03   0.405E+02 -.138E+03 0.503E+03   0.480E+00 0.149E+01 0.106E+01   0.206E-02 -.543E-02 -.446E-02
   -.715E+02 0.108E+03 -.173E+04   0.711E+02 -.109E+03 0.173E+04   0.998E+00 -.157E+00 0.279E+00   0.650E-03 -.305E-02 -.409E-02
   0.418E+02 0.895E+02 0.214E+04   -.431E+02 -.910E+02 -.215E+04   0.104E+01 0.151E+01 0.352E+01   -.139E-02 0.278E-02 0.466E-02
   -.400E+02 0.208E+03 0.225E+04   0.423E+02 -.209E+03 -.226E+04   -.134E+01 -.830E-01 0.226E+01   -.161E-03 -.218E-02 0.344E-02
   -.187E+03 -.309E+02 0.988E+03   0.191E+03 0.316E+02 -.988E+03   -.210E+01 -.115E+00 0.185E+01   -.726E-03 -.284E-02 0.512E-02
   -.114E+03 -.108E+03 -.239E+03   0.115E+03 0.110E+03 0.239E+03   -.142E+01 -.199E+01 0.162E-01   -.710E-02 -.180E-02 -.489E-02
   -.254E+03 -.206E+03 -.142E+04   0.257E+03 0.207E+03 0.142E+04   -.535E+00 -.374E+00 -.891E+00   -.275E-02 -.159E-02 -.483E-02
   -.576E+03 -.321E+03 0.182E+04   0.582E+03 0.325E+03 -.182E+04   -.279E+01 -.158E+01 0.226E-01   0.356E-02 0.180E-04 0.710E-02
   -.153E+03 -.222E+03 0.590E+03   0.155E+03 0.223E+03 -.591E+03   -.202E+01 -.113E+01 0.773E+00   -.245E-02 -.136E-02 0.377E-02
   -.840E+02 -.153E+03 -.643E+03   0.857E+02 0.154E+03 0.643E+03   -.161E+01 -.159E+01 -.415E+00   -.361E-03 0.293E-02 -.448E-02
   0.478E+01 -.117E+03 -.189E+04   -.266E+01 0.116E+03 0.189E+04   -.113E+01 0.714E+00 -.611E+00   -.472E-03 0.226E-02 -.418E-03
   -.126E+03 -.857E+02 0.162E+03   0.128E+03 0.873E+02 -.162E+03   -.194E+01 -.171E+01 0.468E+00   -.108E-02 0.391E-02 -.712E-02
   -.251E+03 -.384E+01 -.103E+04   0.253E+03 0.575E+01 0.103E+04   -.121E+01 -.199E+01 -.465E+00   0.335E-02 -.155E-02 -.308E-02
   -.179E+03 0.103E+03 -.224E+04   0.180E+03 -.104E+03 0.224E+04   -.700E+00 0.669E+00 -.249E+01   0.166E-02 -.127E-02 0.104E-02
   -.183E+03 -.139E+03 0.162E+04   0.187E+03 0.139E+03 -.162E+04   -.214E+01 0.434E+00 0.305E+01   0.192E-02 -.172E-03 0.884E-02
   0.139E+03 0.357E+03 0.165E+04   -.142E+03 -.361E+03 -.165E+04   0.167E+01 0.284E+01 0.261E+01   0.671E-03 0.227E-02 0.428E-02
   0.240E+03 0.490E+02 0.479E+03   -.243E+03 -.491E+02 -.481E+03   0.151E+01 0.406E+00 0.122E+01   0.494E-02 0.366E-03 -.340E-03
   0.182E+03 -.971E+02 -.763E+03   -.184E+03 0.981E+02 0.764E+03   0.241E+01 -.113E+01 -.894E+00   0.487E-02 -.510E-03 -.356E-02
   0.451E+03 -.242E+03 -.187E+04   -.456E+03 0.245E+03 0.188E+04   0.284E+01 -.137E+01 -.131E+01   0.693E-03 0.137E-02 -.706E-02
   0.137E+03 -.874E+02 0.633E+02   -.140E+03 0.890E+02 -.633E+02   0.238E+01 -.147E+01 0.724E-01   0.896E-03 0.841E-03 -.354E-02
   0.783E+02 -.599E+02 -.114E+04   -.812E+02 0.612E+02 0.114E+04   0.287E+01 -.139E+01 -.102E+01   0.523E-03 0.324E-02 -.276E-02
   0.113E+03 0.112E+03 -.224E+04   -.114E+03 -.113E+03 0.224E+04   -.625E-01 0.423E+00 -.764E-01   0.305E-03 0.265E-02 0.135E-02
   0.397E+03 -.387E+02 0.143E+04   -.401E+03 0.392E+02 -.143E+04   0.273E+01 -.105E+00 0.215E+01   -.569E-02 -.248E-02 0.107E-01
   -.283E+03 -.252E+03 0.213E+04   0.284E+03 0.255E+03 -.214E+04   0.533E+00 -.158E+01 0.206E+01   0.879E-03 -.876E-03 0.204E-02
   0.106E+03 -.943E+02 0.865E+03   -.108E+03 0.952E+02 -.862E+03   0.124E+01 -.552E+00 -.485E+00   0.125E-02 -.148E-02 0.827E-02
   0.147E+03 -.469E+02 -.299E+03   -.149E+03 0.482E+02 0.300E+03   0.280E+01 -.976E+00 -.124E+01   -.242E-02 0.306E-02 -.970E-02
   0.154E+03 0.838E+02 -.154E+04   -.158E+03 -.823E+02 0.155E+04   0.285E+01 -.156E+01 -.217E+01   -.290E-02 -.541E-03 0.376E-03
   -.106E+02 0.123E+02 -.307E+02   -.148E-11 0.838E-12 0.387E-11   0.107E+02 -.122E+02 0.307E+02   0.146E-01 -.144E-01 0.382E-01

 POSITION                                       TOTAL-FORCE (eV/Angst)
      5.95673      8.98017      1.46128        -0.692289     -0.107895     -1.209817
      6.84619      7.36867      3.15324        -0.130683     -0.228017      0.325701
      7.82056      6.07621      5.25100         0.915946     -0.313993      1.061630
      8.79827      4.65991      7.87651         0.226417      0.451819     -0.242777
      9.53699      3.22010      9.99572         0.383286      0.093172      1.459764
      2.61774      3.87870      3.50067         0.321062     -1.142533      2.607480
      3.59545      2.46241      6.12617        -0.017763     -0.316366     -0.232357
      4.57317      1.04611      8.75167         0.186726      1.696241     -1.317083
     11.99535      5.59863      2.17210        -0.216879     -0.342033     -0.692911
      3.71320      7.60694      9.28280         0.047876      1.088674      0.971327
      7.80632      2.06550      3.02130        -0.128909     -0.318783     -0.678995
      8.47237      0.26490      4.37584         0.654644     -0.677047      1.068949
     13.02338      8.27371      7.00134        -0.065750     -0.109428     -0.437980
      6.61816      3.96023      4.55733        -0.413762     -0.151159      1.017624
      7.59587      2.54394      7.18283        -0.099065     -0.478376     -1.287865
      8.30431      1.18042      9.43619        -0.843917      0.264207      0.852228
      1.41534      1.76273      2.80700        -0.463335     -0.394760      0.881202
      2.39305      0.34643      5.43250         0.022175     -0.024131      0.026283
      6.94406      8.35524      8.05800        -1.223033     -0.733691     -2.180689
      1.96928      3.48834      0.94050        -0.775169      0.459009     -1.548851
      2.73456      4.81415      8.71627        -2.440417     -1.002388      0.868732
      8.41858      9.12085      2.11917         0.182865     -0.295301      0.083769
     10.84326      7.57403      3.68216        -0.018979     -0.052804      0.128591
     11.82097      6.15773      6.30767        -0.153595     -0.108307     -0.202620
      0.84420      1.56291      8.79787         0.858915      0.447728      0.510996
      7.97926      5.70723      1.69562        -0.096865     -0.461991     -1.336435
      9.02296      4.33443      3.86366         0.744406      0.050904      0.356212
     10.00068      2.91813      6.48916         0.243685      0.022717     -0.163965
      3.82015      2.13692      2.11332         0.579173      0.404583      1.055259
      4.79786      0.72063      4.73883        -0.128901     -0.008995      0.473870
      9.34887      8.72943      7.36433        -0.217610      0.700459     -2.445308
     10.19945      7.53473      9.25038         0.434588     -0.952387      1.118438
      3.16834      7.94822      2.98849        -0.811481      0.125889      0.952890
      4.14605      6.53193      5.61399         0.014092      0.205485      0.593279
      5.12376      5.11563      8.23950         1.557865      0.192945     -1.821279
      7.71897      0.00294      1.71905        -0.684044      0.664241     -1.447609
     10.02354      0.13874     10.04632         0.497528     -0.598741      2.115361
      7.34082      4.01479      2.60781        -1.321155     -0.854501     -2.564901
      8.33317      2.41029      5.05057         0.401986     -0.343655      0.972410
      9.31088      0.99399      7.67607        -0.388676     -0.836365     -3.401478
      2.22709      1.49714      0.84319        -0.750755     -0.463184     -3.368978
      3.13035      0.21279      3.30024        -0.482558      0.912936      2.899702
      7.68136      8.22159      5.92574        -0.000817      0.583434     -0.437243
      8.56825      6.87919      8.20711        -0.244586     -1.415501      1.362488
      2.47854      6.02409      4.17540         0.205992      0.175954      1.553690
      3.45626      4.60779      6.80091        -0.007431      0.311502     -2.606878
      4.26509      3.23605      8.81880         0.535076     -0.860887      1.737454
     11.58056      7.44039      1.54990        -0.202708      0.032750     -2.012467
      7.46330      7.58537      1.06241         1.010673     -0.730515     -3.304575
      8.88655      6.52099      3.30837         1.734475      0.566698      1.829046
      9.86427      5.10469      5.93387         0.354641      0.068452     -0.008072
     10.84198      3.68840      8.55937         1.590644      1.220076     -0.523102
      3.63692      4.29631      1.75617         2.674019      1.496368     -1.728037
      4.66145      2.90719      4.18354        -0.297184     -0.030396      0.353210
      5.63916      1.49089      6.80904         0.094680     -0.013276     -0.775884
      6.46379      0.15584      9.19012         0.997670      0.219120      2.218938
      4.00964      8.71849      5.05870        -0.059046     -0.047604      0.310025
      4.98735      7.30220      7.68420         1.218755     -0.081971     -0.910736
      4.15141      5.71084      9.92953         0.657874     -0.110072      3.803359
      9.53836      0.70969      2.43320         1.151370      1.120884     -0.165615
      4.94319      7.34924      2.17709        -1.083917     -1.593471     -1.289602
      5.88085      5.98117      4.51815        -1.350826      0.334292     -0.520368
      6.80207      4.62821      6.81717         0.036597     -0.115388     -0.284272
      7.74014      3.24220      9.11863        -2.309092      1.096156      2.406922
      1.59925      2.43070      5.06683        -0.065797      0.142871      0.035934
      2.57697      1.01441      7.69234        -0.010285     -0.098802     -0.661664
      7.36006      9.02305      9.89557        -0.831561     -0.671771      4.109862
     10.70128      3.84700      2.44133        -1.881805      0.397898      0.472170
      5.44524      1.36352      1.10086         2.039372      0.951738     -2.334481
      6.47617      0.23320      3.31650        -0.693258      0.388279      2.543125
     11.02718      8.24201      5.94200         0.300140      0.248371     -0.522240
     12.00489      6.82571      8.56750        -1.271311     -0.049368     -0.470787
    total drift:                                0.164646      0.080844      0.052159

  FREE ENERGIE OF THE ION-ELECTRON SYSTEM (eV)
  free  energy   TOTEN  =      -349.78807262 eV

  energy  without entropy=     -348.72598810  energy(sigma->0) =     -349.25703036