 vasp.5.4.4.18Apr17-6-g9f103f2a35 (build Aug 13 2019 17:33:20) gamma-only

 executed on             LinuxIFC date 2020.05.12  09:35:16

 INCAR:
 POTCAR:    PAW_PBE Ni_pv 06Sep2000
 POTCAR:    PAW_PBE S 06Sep2000
 POTCAR:    PAW_PBE Ni_pv 06Sep2000
   VRHFIN =Ni:

   TITEL  = PAW_PBE Ni_pv 06Sep2000
   POMASS =   58.690; ZVAL   =   16.000    mass and valenz
   ENMAX  =  367.986; ENMIN  =  275.989 eV

 POTCAR:    PAW_PBE S 06Sep2000
   VRHFIN =S : s2p4

   TITEL  = PAW_PBE S 06Sep2000
   POMASS =   32.066; ZVAL   =    6.000    mass and valenz
   ENMAX  =  258.689; ENMIN  =  194.016 eV

 Optimization of the real space projectors (new method)

 maximal supplied QI-value         = 18.90
 optimisation between [QCUT,QGAM] = [ 10.77, 21.73] = [ 32.49,132.25] Ry
 Optimized for a Real-space Cutoff    1.38 Angstroem

   l    n(q)    QCUT    max X(q) W(low)/X(q) W(high)/X(q)  e(spline)
   1      8    10.771     2.836    0.40E-04    0.29E-04    0.12E-06
   1      8    10.771     4.023    0.10E-03    0.48E-04    0.29E-06
   2      8    10.771    73.368    0.42E-03    0.97E-04    0.44E-06
   2      8    10.771    69.010    0.42E-03    0.99E-04    0.45E-06
   0      9    10.771    54.797    0.10E-03    0.56E-04    0.74E-07
   0      9    10.771    24.266    0.89E-04    0.49E-04    0.67E-07
 Optimization of the real space projectors (new method)

 maximal supplied QI-value         = 19.84
 optimisation between [QCUT,QGAM] = [ 10.71, 21.63] = [ 32.15,130.99] Ry
 Optimized for a Real-space Cutoff    1.19 Angstroem

   l    n(q)    QCUT    max X(q) W(low)/X(q) W(high)/X(q)  e(spline)
   0      8    10.715   187.594    0.41E-03    0.53E-04    0.66E-07
   0      8    10.715   164.243    0.41E-03    0.53E-04    0.65E-07
   1      7    10.715    67.533    0.19E-03    0.59E-03    0.68E-07
   1      7    10.715    50.729    0.19E-03    0.58E-03    0.67E-07
  PAW_PBE Ni_pv 06Sep2000               :
  PAW_PBE S 06Sep2000                   :

 POSCAR: Type_048 Type_148
  positions in cartesian coordinates
 exchange correlation table for  LEXCH =        8
   RHO(1)=    0.500       N(1)  =     2000
   RHO(2)=  100.500       N(2)  =     4000

 ion  position               nearest neighbor table
   1  0.256  0.016  0.152-  75 2.25  66 2.26  81 2.26  53 2.36  93 2.36   5 2.53   9 2.53
   2  0.256  0.016  0.481-  76 2.25  67 2.26  82 2.26  54 2.36  94 2.36  36 2.38  10 2.53   6 2.53

   3  0.006  0.266  0.317-  63 2.25  68 2.26  72 2.26  56 2.36  60 2.36   7 2.53  23 2.53
   4  0.014  0.263  0.638-  57 2.11  69 2.14  73 2.16  61 2.22   8 2.34  24 2.48
   5  0.256  0.016  0.066-  91 2.06  79 2.08  49 2.20  62 2.20  81 2.26  93 2.36   9 2.53   1 2.53

[...]

  18  0.756  0.016  0.394-  92 2.25  50 2.26  94 2.26  63 2.36  82 2.36  14 2.53  22 2.53
  19  0.506  0.266  0.230-  53 2.25  60 2.26  51 2.26  72 2.36  64 2.36  15 2.53  11 2.53
  20  0.506  0.266  0.558-  54 2.25  61 2.26  52 2.26  16 2.34  73 2.36  65 2.36  12 2.53
  21  0.690  0.215  0.109-  62 2.08  49 2.08  70 2.25  53 2.26  66 2.36  17 2.53  13 2.53
  22  0.690  0.215  0.438-  71 2.25  54 2.26  50 2.26  67 2.36  63 2.36  14 2.53  18 2.53
  23  0.940  0.465  0.273-  95 2.25  64 2.26  68 2.26  51 2.36  56 2.36   7 2.53   3 2.53
  24  0.940  0.465  0.602-  69 2.12  57 2.15  96 2.25  65 2.26  52 2.36   4 2.48   8 2.53
  25  0.256  0.516  0.152-  51 2.25  89 2.26  58 2.26  77 2.36  70 2.36  29 2.40  33 2.50
  26  0.256  0.516  0.481-  52 2.25  90 2.26  59 2.26  78 2.36  71 2.36  34 2.53  30 2.53
  27  0.006  0.766  0.317-  86 2.25  92 2.26  95 2.26  80 2.36  83 2.36  31 2.53  47 2.53
  28  0.040  0.701  0.641-  96 1.99  84 1.99  32 2.53
  29  0.212  0.526  0.071-  55 2.01  58 2.07  85 2.11  25 2.40  41 2.52  70 2.53
  30  0.256  0.516  0.394-  56 2.25  86 2.26  59 2.26  74 2.36  71 2.36  26 2.53  34 2.53
  31  0.006  0.766  0.230-  89 2.25  95 2.26  87 2.26  83 2.36  75 2.36  27 2.53  47 2.53
  32  0.006  0.766  0.558-  90 2.25  96 2.26  88 2.26  84 2.36  76 2.36  28 2.53
  33  0.184  0.726  0.120-  89 2.07  85 2.13  81 2.15  77 2.20  25 2.50
  34  0.190  0.715  0.438-  82 2.25  90 2.26  86 2.26  78 2.36  74 2.36  26 2.53  30 2.53
  35  0.440  0.965  0.273-  60 2.25  75 2.26  80 2.26  87 2.36  92 2.36  43 2.53  39 2.53
  36  0.441  0.048  0.550-  88 2.06  61 2.08  54 2.17  76 2.21   2 2.38
  37  0.756  0.516  0.152-  64 2.25  77 2.26  70 2.26  89 2.36  58 2.36  41 2.39  45 2.51
  38  0.756  0.516  0.481-  65 2.25  78 2.26  71 2.26  90 2.36  59 2.36  46 2.53  42 2.53
  39  0.506  0.766  0.317-  74 2.25  80 2.26  83 2.26  92 2.36  95 2.36  43 2.53  35 2.53
  40  0.540  0.701  0.641-  84 1.99  96 1.99  44 2.53
  41  0.812  0.524  0.071-  55 2.04  58 2.08  85 2.10  37 2.39  70 2.47  29 2.52
  42  0.756  0.516  0.394-  68 2.25  74 2.26  71 2.26  86 2.36  59 2.36  38 2.53  46 2.53
  43  0.506  0.766  0.230-  77 2.25  83 2.26  75 2.26  95 2.36  87 2.36  39 2.53  35 2.53
  44  0.506  0.766  0.558-  78 2.25  84 2.26  76 2.26  96 2.36  88 2.36  40 2.53
  45  0.706  0.728  0.121-  89 2.09  85 2.13  77 2.16  93 2.17  37 2.51
  46  0.690  0.715  0.438-  94 2.25  78 2.26  74 2.26  90 2.36  86 2.36  38 2.53  42 2.53
  47  0.940  0.965  0.273-  72 2.25  87 2.26  92 2.26  75 2.36  80 2.36  31 2.53  27 2.53
  48  0.941  0.048  0.550-  76 2.06  73 2.08  67 2.17  88 2.21  14 2.38
  49  0.460  0.155  0.068-   9 2.08  21 2.08   5 2.20  17 2.20  91 2.50
  50  0.468  0.167  0.382-  15 2.25  18 2.26  22 2.26   6 2.36  10 2.36
  51  0.218  0.417  0.218-  25 2.25  11 2.26  19 2.26  23 2.36   7 2.36
  52  0.218  0.417  0.547-  26 2.25  12 2.26  20 2.26  24 2.36   8 2.36
  53  0.468  0.167  0.164-  19 2.25  13 2.26  21 2.26   1 2.36   9 2.36
  54  0.468  0.167  0.493-  36 2.17  20 2.25  22 2.26  14 2.26  10 2.36   2 2.36
  55  0.031  0.474  0.020-  29 2.01  41 2.04  58 2.68  85 2.71
  56  0.218  0.417  0.329-  30 2.25  15 2.26  11 2.26   3 2.36  23 2.36
  57  0.218  0.391  0.643-   4 2.11  12 2.12  16 2.14  24 2.15  61 2.78
  58  0.053  0.414  0.109-  29 2.07  41 2.08   9 2.25  25 2.26  37 2.36  55 2.68
  59  0.053  0.414  0.438-  10 2.25  26 2.26  30 2.26  38 2.36  42 2.36
  60  0.303  0.164  0.273-  35 2.25  19 2.26  15 2.26   7 2.36   3 2.36
  61  0.303  0.164  0.602-  36 2.08  16 2.16   4 2.22  20 2.26   8 2.36  57 2.78
  62  0.960  0.155  0.068-  21 2.08   9 2.09  17 2.19   5 2.20  79 2.50
  63  0.968  0.167  0.382-   3 2.25   6 2.26  10 2.26  18 2.36  22 2.36
  64  0.718  0.417  0.218-  37 2.25  23 2.26   7 2.26  11 2.36  19 2.36
  65  0.718  0.417  0.547-  38 2.25  24 2.26   8 2.26  12 2.36  20 2.36
  66  0.968  0.167  0.164-   7 2.25   1 2.26   9 2.26  13 2.36  21 2.36
  67  0.968  0.167  0.493-  48 2.17   8 2.25  10 2.26   2 2.26  22 2.36  14 2.36
  68  0.718  0.417  0.329-  42 2.25   3 2.26  23 2.26  15 2.36  11 2.36
  69  0.718  0.391  0.643-  16 2.11  24 2.12   4 2.14  12 2.15  73 2.78
  70  0.553  0.414  0.109-  21 2.25  37 2.26  25 2.36  41 2.47  29 2.53
  71  0.553  0.414  0.438-  22 2.25  38 2.26  42 2.26  26 2.36  30 2.36
  72  0.803  0.164  0.273-  47 2.25   7 2.26   3 2.26  19 2.36  15 2.36
  73  0.803  0.164  0.602-  48 2.08   4 2.16  16 2.22   8 2.26  20 2.36  69 2.78
  74  0.468  0.667  0.382-  39 2.25  42 2.26  46 2.26  30 2.36  34 2.36
  75  0.218  0.917  0.218-   1 2.25  35 2.26  43 2.26  47 2.36  31 2.36
  76  0.218  0.917  0.547-  48 2.06  36 2.21   2 2.25  44 2.26  32 2.36
  77  0.468  0.667  0.164-  45 2.16  33 2.20  43 2.25  37 2.26  25 2.36
[...]
  82  0.053  0.914  0.438-  34 2.25   2 2.26   6 2.26  14 2.36  18 2.36
  83  0.303  0.664  0.273-  11 2.25  43 2.26  39 2.26  31 2.36  27 2.36
  84  0.303  0.664  0.602-  40 1.99  28 1.99  12 2.25  44 2.26  32 2.36
  85  0.959  0.677  0.072-  41 2.10  29 2.11  45 2.13  33 2.13  89 2.69  55 2.71
  86  0.968  0.667  0.382-  27 2.25  30 2.26  34 2.26  42 2.36  46 2.36
  87  0.718  0.917  0.218-  13 2.25  47 2.26  31 2.26  35 2.36  43 2.36
  88  0.718  0.917  0.547-  36 2.06  48 2.21  14 2.25  32 2.26  44 2.36
  89  0.968  0.667  0.164-  33 2.07  45 2.09  31 2.25  25 2.26  37 2.36  85 2.69
  90  0.968  0.667  0.493-  32 2.25  34 2.26  26 2.26  46 2.36  38 2.36
  91  0.523  0.960  0.024-   5 2.06  17 2.08  49 2.50  93 2.52
  92  0.718  0.917  0.329-  18 2.25  27 2.26  47 2.26  39 2.36  35 2.36
  93  0.553  0.914  0.109-  45 2.17  17 2.26  13 2.26   5 2.36   1 2.36  91 2.52
  94  0.553  0.914  0.438-  46 2.25  14 2.26  18 2.26   2 2.36   6 2.36
  95  0.803  0.664  0.273-  23 2.25  31 2.26  27 2.26  43 2.36  39 2.36
  96  0.803  0.664  0.602-  28 1.99  40 1.99  24 2.25  32 2.26  44 2.36

  LATTYP: Found a simple monoclinic cell.
 ALAT       =    13.8711386352
 B/A-ratio  =     2.1019774055
 C/A-ratio  =     1.3233367991
 COS(beta)  =    -0.9620914447

  Lattice vectors:

 A1 = (  -8.3714133957, -11.0601955134,   0.0000000000)
 A2 = (   0.0000000000,   0.0000000000, -29.1568200000)
 A3 = (  14.6499733957,  11.0601955134,   0.0000000000)

Analysis of symmetry for initial positions (statically):
 Subroutine PRICEL returns:
 Original cell was already a primitive cell.

 Routine SETGRP: Setting up the symmetry group for a
 simple monoclinic supercell.

 Subroutine GETGRP returns: Found  1 space group operations
 (whereof  1 operations were pure point group operations)
 out of a pool of  4 trial point group operations.

The static configuration has the point symmetry C_1 .

Analysis of symmetry for dynamics (positions and initial velocities):
 Subroutine PRICEL returns:
 Original cell was already a primitive cell.

 Routine SETGRP: Setting up the symmetry group for a
 simple monoclinic supercell.

 Subroutine GETGRP returns: Found  1 space group operations
 (whereof  1 operations were pure point group operations)
 out of a pool of  4 trial point group operations.

The dynamic configuration has the point symmetry C_1 .

 Subroutine INISYM returns: Found  1 space group operations
 (whereof  1 operations are pure point group operations),
 and found     1 'primitive' translations

 KPOINTS: gamma-point-only calculation. no periodi

Automatic generation of k-mesh.
Space group operators:
 irot       det(A)        alpha          n_x          n_y          n_z        tau_x        tau_y        tau_z
    1     1.000000     0.000000     1.000000     0.000000     0.000000     0.000000     0.000000     0.000000

 Subroutine IBZKPT returns following result:

 Found      1 irreducible k-points:

 Following reciprocal coordinates:
            Coordinates               Weight
  0.000000  0.000000  0.000000      1.000000

 Following cartesian coordinates:
            Coordinates               Weight
  0.000000  0.000000  0.000000      1.000000

 SYSTEM =  "Millerite NiS"
 POSCAR =  Type_048 Type_148

 Startparameter for this run:
   NWRITE =      2    write-flag & timer
   PREC   = normal    normal or accurate (medium, high low for compatibility)
   ISTART =      0    job   : 0-new  1-cont  2-samecut
   ICHARG =      2    charge: 1-file 2-atom 10-const
   ISPIN  =      1    spin polarized calculation?
   LNONCOLLINEAR =      F non collinear calculations
   LSORBIT =      F    spin-orbit coupling
   INIWAV =      1    electr: 0-lowe 1-rand  2-diag
   LASPH  =      F    aspherical Exc in radial PAW
   METAGGA=      F    non-selfconsistent MetaGGA calc.

[...]
     0.000000000  0.000000000 29.156820000     0.000000000  0.000000000  0.034297293

  length of vectors
     6.278560000 11.256463038 29.156820000     0.162098538  0.090414315  0.034297293

 FORCES acting on ions
    electron-ion (+dipol)            ewald-force                    non-local-force                 convergence-correction
   -.520E+02 0.232E+03 0.411E+04   0.509E+02 -.233E+03 -.410E+04   0.117E+01 0.123E+01 -.215E+01   0.995E-03 0.135E-01 0.528E+00
   0.143E+02 0.531E+03 -.319E+04   -.146E+02 -.533E+03 0.319E+04   0.366E-01 0.221E+01 -.144E+00   -.600E-02 -.352E-01 -.508E+00
   -.411E+02 0.241E+03 0.344E+03   0.402E+02 -.242E+03 -.343E+03   0.976E+00 0.706E+00 -.120E+01   -.672E-02 -.856E-01 0.315E+00
   -.135E+02 0.807E+03 -.750E+04   0.130E+02 -.808E+03 0.750E+04   0.470E+00 -.121E+00 0.101E+01   -.588E-02 -.165E+00 -.280E+00
   -.242E+02 0.320E+03 0.688E+04   0.246E+02 -.321E+03 -.688E+04   -.415E+00 0.218E+01 0.386E+01   -.243E-02 0.215E-01 0.427E+00
   -.411E+02 0.301E+03 -.513E+03   0.402E+02 -.302E+03 0.513E+03   0.996E+00 0.658E+00 0.774E+00   0.523E-02 -.947E-01 -.337E+00
   -.391E+02 0.238E+03 0.324E+04   0.383E+02 -.239E+03 -.324E+04   0.966E+00 0.671E+00 0.102E+01   -.446E-02 -.670E-01 0.568E+00
   -.724E+02 0.244E+02 -.460E+04   0.725E+02 -.226E+02 0.460E+04   0.108E+00 -.983E+00 0.121E+01   0.139E-02 -.734E-01 -.507E+00
   -.472E+02 -.708E+03 0.565E+04   0.473E+02 0.713E+03 -.565E+04   -.199E+00 -.403E+01 -.167E+00   0.125E-02 -.166E+00 0.495E+00
   -.394E+02 -.602E+03 -.191E+04   0.390E+02 0.603E+03 0.191E+04   0.496E+00 -.127E+01 0.711E+00   -.135E-01 -.170E+00 -.445E+00
   -.431E+02 -.509E+03 0.178E+04   0.423E+02 0.510E+03 -.178E+04   0.903E+00 -.116E+01 0.224E-01   -.542E-02 0.375E-01 0.527E+00
   -.197E+02 -.724E+03 -.597E+04   0.194E+02 0.727E+03 0.596E+04   0.511E+00 -.343E+01 -.264E+00   0.277E-02 -.143E+00 -.492E+00
   -.345E+02 0.198E+03 0.410E+04   0.333E+02 -.199E+03 -.409E+04   0.115E+01 0.926E+00 -.242E+01   -.333E-02 0.687E-03 0.554E+00
   0.143E+02 0.530E+03 -.319E+04   -.146E+02 -.533E+03 0.319E+04   0.370E-01 0.221E+01 -.146E+00   -.414E-02 -.309E-01 -.503E+00
   -.415E+02 0.241E+03 0.344E+03   0.406E+02 -.241E+03 -.344E+03   0.102E+01 0.712E+00 -.118E+01   -.889E-02 -.992E-01 0.334E+00
   -.135E+02 0.807E+03 -.750E+04   0.130E+02 -.808E+03 0.750E+04   0.469E+00 -.121E+00 0.101E+01   -.361E-02 -.164E+00 -.274E+00
   0.529E+01 0.267E+03 0.689E+04   -.511E+01 -.269E+03 -.689E+04   -.220E+00 0.227E+01 0.401E+01   0.295E-02 0.173E-01 0.377E+00
   -.410E+02 0.301E+03 -.513E+03   0.401E+02 -.302E+03 0.513E+03   0.990E+00 0.663E+00 0.774E+00   0.573E-03 -.903E-01 -.336E+00
   -.436E+02 0.233E+03 0.325E+04   0.426E+02 -.234E+03 -.325E+04   0.101E+01 0.562E+00 0.111E+01   -.441E-02 -.760E-01 0.580E+00
   -.724E+02 0.244E+02 -.460E+04   0.725E+02 -.226E+02 0.460E+04   0.107E+00 -.987E+00 0.121E+01   0.783E-02 -.721E-01 -.502E+00
   -.842E+01 -.781E+03 0.568E+04   0.825E+01 0.787E+03 -.568E+04   0.107E-01 -.559E+01 -.378E+00   0.763E-02 -.826E-01 0.479E+00
   -.393E+02 -.602E+03 -.191E+04   0.390E+02 0.603E+03 0.191E+04   0.490E+00 -.127E+01 0.718E+00   -.113E-01 -.161E+00 -.443E+00
   -.393E+02 -.507E+03 0.178E+04   0.385E+02 0.508E+03 -.178E+04   0.906E+00 -.119E+01 0.138E+00   -.124E-01 0.398E-01 0.511E+00
   -.197E+02 -.724E+03 -.597E+04   0.194E+02 0.727E+03 0.596E+04   0.512E+00 -.343E+01 -.263E+00   -.405E-02 -.146E+00 -.497E+00
   -.205E+03 0.335E+03 0.423E+04   0.205E+03 -.336E+03 -.423E+04   0.559E+00 0.112E+01 0.793E+00   0.180E-01 -.491E-01 0.695E+00
   -.414E+02 0.134E+03 -.356E+04   0.405E+02 -.134E+03 0.356E+04   0.100E+01 0.451E+00 -.102E+01   0.122E-01 -.143E+00 -.480E+00
   -.419E+02 0.273E+03 0.301E+03   0.410E+02 -.273E+03 -.301E+03   0.961E+00 0.522E+00 -.819E+00   -.401E-02 0.973E-01 0.279E+00
   -.165E+02 -.659E+03 -.720E+04   0.165E+02 0.660E+03 0.719E+04   0.225E-02 -.457E+00 0.302E+01   0.102E-02 0.968E-01 -.197E+00
   -.702E+03 0.124E+03 0.704E+04   0.708E+03 -.125E+03 -.704E+04   -.318E+01 0.645E+00 0.385E+01   0.701E-01 -.168E-01 0.333E+00
   -.414E+02 0.222E+03 -.601E+03   0.405E+02 -.222E+03 0.600E+03   0.966E+00 0.498E+00 0.113E+01   0.111E-01 -.533E-01 -.350E+00
   -.484E+02 0.267E+03 0.314E+04   0.474E+02 -.268E+03 -.315E+04   0.113E+01 0.761E+00 0.164E+01   -.436E-02 0.105E+00 0.651E+00
   -.337E+02 -.203E+03 -.511E+04   0.319E+02 0.203E+03 0.511E+04   0.179E+01 0.324E+00 0.827E+00   -.830E-04 0.104E+00 -.507E+00
   -.374E+03 -.369E+03 0.567E+04   0.378E+03 0.369E+03 -.567E+04   -.226E+01 -.752E+00 0.958E+00   0.191E-01 0.179E+00 0.528E+00
   -.412E+02 -.483E+03 -.212E+04   0.406E+02 0.484E+03 0.212E+04   0.815E+00 -.126E+01 -.555E-01   -.133E-01 0.100E+00 -.538E+00
   -.403E+02 -.523E+03 0.176E+04   0.394E+02 0.524E+03 -.176E+04   0.105E+01 -.102E+01 0.129E+00   -.162E-01 0.698E-03 0.531E+00
   -.134E+02 0.537E+03 -.571E+04   0.116E+02 -.538E+03 0.572E+04   0.114E+01 0.526E+00 -.216E+01   0.144E-01 0.120E+00 -.481E+00
   0.139E+03 0.326E+03 0.425E+04   -.142E+03 -.327E+03 -.425E+04   0.207E+01 0.129E+01 0.886E+00   -.104E-01 -.294E-01 0.669E+00
   -.414E+02 0.134E+03 -.356E+04   0.405E+02 -.134E+03 0.356E+04   0.995E+00 0.458E+00 -.102E+01   0.109E-01 -.137E+00 -.478E+00
   -.407E+02 0.273E+03 0.303E+03   0.397E+02 -.274E+03 -.303E+03   0.102E+01 0.496E+00 -.821E+00   0.143E-02 0.104E+00 0.276E+00
   -.165E+02 -.659E+03 -.720E+04   0.165E+02 0.660E+03 0.719E+04   0.216E-02 -.462E+00 0.302E+01   0.896E-03 0.965E-01 -.192E+00
   0.679E+03 0.132E+03 0.703E+04   -.685E+03 -.132E+03 -.704E+04   0.422E+01 -.130E+00 0.445E+01   -.105E+00 -.905E-02 0.380E+00
   -.412E+02 0.222E+03 -.601E+03   0.403E+02 -.222E+03 0.600E+03   0.952E+00 0.491E+00 0.110E+01   0.101E-01 -.466E-01 -.339E+00
   -.288E+02 0.275E+03 0.318E+04   0.278E+02 -.276E+03 -.318E+04   0.114E+01 0.739E+00 0.211E+01   -.558E-03 0.109E+00 0.642E+00
   -.337E+02 -.203E+03 -.511E+04   0.319E+02 0.203E+03 0.511E+04   0.179E+01 0.325E+00 0.831E+00   0.253E-02 0.994E-01 -.504E+00
   0.302E+03 -.363E+03 0.564E+04   -.307E+03 0.364E+03 -.565E+04   0.297E+01 -.123E+01 0.272E+01   -.283E-01 0.131E+00 0.525E+00
   -.411E+02 -.483E+03 -.212E+04   0.405E+02 0.484E+03 0.212E+04   0.814E+00 -.125E+01 -.480E-01   -.143E-01 0.954E-01 -.531E+00
   -.421E+02 -.525E+03 0.176E+04   0.413E+02 0.525E+03 -.176E+04   0.986E+00 -.101E+01 0.268E+00   -.590E-03 0.211E-02 0.535E+00
   -.134E+02 0.537E+03 -.571E+04   0.116E+02 -.538E+03 0.572E+04   0.114E+01 0.527E+00 -.217E+01   0.192E-01 0.124E+00 -.480E+00
   -.765E+01 -.280E+03 0.271E+04   0.722E+01 0.285E+03 -.272E+04   0.175E+00 -.342E+01 0.330E+01   -.180E-01 -.189E-01 0.138E+00
   0.394E+02 -.894E+02 -.112E+03   -.404E+02 0.908E+02 0.110E+03   0.916E+00 -.159E+01 0.227E+01   -.731E-03 -.103E+00 -.141E+00
   0.345E+02 -.777E+02 0.130E+04   -.351E+02 0.789E+02 -.130E+04   0.410E+00 -.141E+01 0.289E+01   -.119E-01 0.291E-01 0.202E+00
   0.395E+02 -.160E+03 -.159E+04   -.402E+02 0.161E+03 0.159E+04   0.544E+00 -.146E+01 0.220E+01   -.202E-02 -.721E-01 -.161E+00
   0.366E+02 -.113E+03 0.146E+04   -.379E+02 0.115E+03 -.146E+04   0.121E+01 -.180E+01 -.182E+01   -.251E-01 -.582E-01 0.166E+00
   0.185E+02 -.205E+03 -.125E+04   -.184E+02 0.208E+03 0.125E+04   -.332E+00 -.287E+01 -.112E+01   0.175E-02 -.422E-01 -.872E-01
   0.600E+01 0.149E+03 0.282E+04   -.591E+01 -.151E+03 -.282E+04   -.454E+00 0.948E+00 0.178E+01   -.105E-01 -.301E-01 -.409E-01
   0.394E+02 -.893E+02 0.437E+02   -.402E+02 0.903E+02 -.415E+02   0.700E+00 -.128E+01 -.268E+01   0.107E-02 -.662E-05 0.845E-01
   -.120E+01 -.151E+03 -.284E+04   0.832E+00 0.154E+03 0.285E+04   0.351E+00 -.210E+01 -.392E+01   0.290E-02 -.355E-01 -.825E-01
   0.221E+02 0.276E+03 0.207E+04   -.240E+02 -.279E+03 -.207E+04   0.216E+01 0.266E+01 -.138E+00   -.165E-01 -.793E-01 0.240E+00
   0.395E+02 0.130E+03 -.762E+03   -.404E+02 -.133E+03 0.762E+03   0.726E+00 0.249E+01 0.927E-01   -.103E-01 0.431E-01 -.192E+00
   0.392E+02 0.160E+03 0.669E+03   -.402E+02 -.163E+03 -.669E+03   0.751E+00 0.281E+01 0.129E+00   -.288E-02 -.604E-01 0.216E+00
[...]
   0.379E+02 0.175E+03 0.657E+03   -.388E+02 -.177E+03 -.657E+03   0.653E+00 0.282E+01 -.239E+00   -.148E-02 0.275E-01 0.215E+00
   0.293E+02 -.101E+03 -.217E+04   -.299E+02 0.992E+02 0.218E+04   0.600E+00 0.169E+01 -.256E+01   0.279E-02 -.144E-01 -.175E+00
   0.856E+01 -.267E+03 0.275E+04   -.886E+01 0.274E+03 -.276E+04   0.704E-01 -.478E+01 0.434E+01   -.213E-01 0.974E-01 0.112E+00
   0.398E+02 -.804E+02 -.151E+03   -.404E+02 0.815E+02 0.149E+03   0.461E+00 -.134E+01 0.261E+01   -.171E-02 -.135E-01 -.140E+00
   0.423E+02 -.983E+02 0.127E+04   -.431E+02 0.991E+02 -.127E+04   0.712E+00 -.122E+01 0.270E+01   -.538E-02 0.451E-01 0.225E+00
   0.390E+01 0.217E+03 -.205E+04   -.522E+01 -.217E+03 0.205E+04   0.266E+01 -.216E+01 -.206E+01   -.955E-03 0.715E-01 -.185E+00
   0.283E+02 -.248E+01 0.142E+04   -.293E+02 0.525E+01 -.141E+04   0.121E+01 -.351E+01 -.123E+00   -.255E-01 0.636E-03 0.223E+00
   0.399E+02 -.108E+03 -.146E+04   -.405E+02 0.109E+03 0.146E+04   0.499E+00 -.145E+01 -.297E+01   -.941E-02 0.675E-02 -.155E+00
   0.586E+01 0.234E+03 0.278E+04   -.623E+01 -.237E+03 -.278E+04   0.543E+00 0.159E+01 0.348E+01   -.169E-01 0.391E-02 0.555E-01
   0.397E+02 -.771E+02 0.415E+02   -.406E+02 0.784E+02 -.392E+02   0.731E+00 -.152E+01 -.283E+01   0.140E-02 0.219E-01 0.811E-01
   0.728E+02 0.228E+03 0.214E+04   -.738E+02 -.230E+03 -.214E+04   0.104E+01 0.135E+01 0.720E+00   -.248E-01 0.335E-01 0.188E+00
   0.386E+02 0.225E+03 -.750E+03   -.396E+02 -.227E+03 0.750E+03   0.862E+00 0.275E+01 0.119E+00   -.393E-02 0.959E-01 -.206E+00
   0.410E+02 0.175E+03 0.654E+03   -.419E+02 -.177E+03 -.654E+03   0.772E+00 0.282E+01 -.319E+00   -.965E-03 0.176E-01 0.213E+00
   0.293E+02 -.101E+03 -.217E+04   -.299E+02 0.992E+02 0.218E+04   0.601E+00 0.170E+01 -.256E+01   -.502E-02 -.143E-01 -.176E+00
   -.705E+02 0.189E+02 -.322E+02   0.192E-12 0.547E-11 -.423E-10   0.706E+02 -.179E+02 0.302E+02   -.130E+00 -.849E+00 0.223E+01

 POSITION                                       TOTAL-FORCE (eV/Angst)
      1.64370      0.18204      4.44331        -0.015515      0.119441      0.472972
      1.64370      0.18204     14.02172        -0.324917     -0.472922     -1.386547
      0.59727      2.94708      9.23251         0.077527      0.165353     -0.374133
      0.63675      2.90594     18.61603        -0.010661     -0.731246     -0.271412
      1.64370      0.18204      1.91264        -0.034773      0.262011      2.310281
      1.64370      0.18204     11.49105         0.114959      0.121564      0.231609
      0.59727      2.94708      6.70184         0.121415      0.160235      0.462171
      0.59727      2.94708     16.28025         0.289552      0.728159     -0.741566
      1.64370      2.37366      3.17797        -0.112296      0.368980      2.507181
      1.64370      2.37366     12.75638         0.158749     -0.281092     -0.120419
      3.73655      5.13871      7.96718         0.189450     -0.377474      0.053364
      3.73655      5.13871     17.54559         0.222929     -0.124594     -2.002870
      4.78298      0.18204      4.44331         0.008476      0.141939      0.408761
      4.78298      0.18204     14.02172        -0.323317     -0.473267     -1.386473
      3.73655      2.94708      9.23251         0.081876      0.176770     -0.376108
      3.77603      2.90594     18.61603        -0.011629     -0.730601     -0.271561
      4.78298      0.18204      1.91264        -0.037381      0.266648      2.385858
      4.78298      0.18204     11.49105         0.114309      0.124420      0.233393
      3.73655      2.94708      6.70184         0.084834      0.136387      0.419180
      3.73655      2.94708     16.28025         0.290487      0.727402     -0.740662
      4.78298      2.37366      3.17797        -0.148408      0.357477      2.436016
      4.78298      2.37366     12.75638         0.158473     -0.284034     -0.123275
      6.87583      5.13871      7.96718         0.163736     -0.412985      0.025300
      6.87583      5.13871     17.54559         0.223016     -0.125464     -2.004093
      2.69013      5.71213      4.44331         0.289068     -0.239850      0.581268
      2.69013      5.71213     14.02172         0.121099      0.104718     -0.398462
      1.64370      8.47718      9.23251         0.068910      0.217192     -0.365950
      1.71806      7.75433     18.70072         0.006160      0.228637     -0.019284
      2.43359      5.81219      2.05728         2.586895      0.008407      0.989232
      2.69013      5.71213     11.49105         0.082376      0.150692      0.300919
      1.64370      8.47718      6.70184         0.130667      0.027634      0.686998
      1.64370      8.47718     16.28025        -0.023119      0.577968     -0.401951
      2.67293      8.02945      3.49956         1.170340     -0.330553     -0.187495
      2.69013      7.90376     12.75638         0.185584     -0.356239     -0.052782
      4.78298     10.66881      7.96718         0.193172     -0.391263      0.077999
      2.86928      0.52540     16.03705        -0.621060     -0.355758      0.290509
      5.82941      5.71213      4.44331        -0.207037     -0.158417      0.562821
      5.82941      5.71213     14.02172         0.119299      0.105629     -0.393976
      4.78298      8.47718      9.23251         0.065357      0.208540     -0.376981
      4.85734      7.75433     18.70072         0.005596      0.228830     -0.021089
      6.19275      5.79378      2.08255        -2.222956     -0.185237      0.553674
      5.82941      5.71213     11.49105         0.090607      0.147356      0.297350
      4.78298      8.47718      6.70184         0.122812      0.128666      0.724977
      4.78298      8.47718     16.28025        -0.022962      0.577510     -0.403843
      5.95757      8.04686      3.52580        -1.415973     -0.182127     -0.276420
      5.82941      7.90376     12.75638         0.192610     -0.361389     -0.054596
      7.92226     10.66881      7.96718         0.200423     -0.375545      0.080442
      6.00856      0.52540     16.03705        -0.622192     -0.355517      0.290267
      3.21195      1.71883      1.97613        -0.272861      2.006144     -3.406285
      3.28961      1.84282     11.14515         0.000433     -0.267598      0.406741
      2.24318      4.60787      6.35595        -0.145137     -0.224946      0.214098
      2.24318      4.60787     15.93436        -0.076574     -0.219923     -0.171483
      3.28961      1.84282      4.78920        -0.109279     -0.106110      0.521066
      3.28961      1.84282     14.36761        -0.223537      0.483481     -0.701775
      1.18949      5.24604      0.58513        -0.375919     -1.635455     -3.555997
      2.24318      4.60787      9.57841        -0.080950     -0.272527     -0.426696
      2.18479      4.32765     18.74710        -0.010534      1.378051      3.782865
      1.19676      4.58218      3.17797         0.198780     -0.846196      1.490561
      1.19676      4.58218     12.75638        -0.158187      0.418475      0.057606
      2.24318      1.81714      7.96718        -0.160896      0.543394     -0.040530
[...]
      2.24318     10.11228     12.75638        -0.104935      0.563379     -0.081452
      3.28961      7.34723      7.96718        -0.174364      0.595776     -0.037062
      3.28961      7.34723     17.54559         0.036385      0.085081      0.453852
      7.43848      7.48822      2.09961        -0.247430      2.029974     -2.612100
      7.47532      7.37292     11.14515        -0.155733     -0.261581      0.439873
      6.42889     10.13797      6.35595        -0.119810     -0.358500      0.288208
      6.42889     10.13797     15.93436         1.340322     -1.352545      0.242477
      7.47532      7.37292      4.78920         0.108906     -0.736887      2.426716
      7.47532      7.37292     14.36761        -0.182850     -0.132691     -0.286780
      5.29317     10.62242      0.71001         0.154343     -1.791295     -3.826627
      6.42889     10.13797      9.57841        -0.115932     -0.227861     -0.394924
      5.38246     10.11228      3.17797         0.012246     -1.029121      1.221580
      5.38246     10.11228     12.75638        -0.105481      0.562588     -0.082799
      6.42889      7.34723      7.96718        -0.142294      0.579173     -0.135008
      6.42889      7.34723     17.54559         0.036712      0.085508      0.452928
    total drift:                               -0.021713      0.077203      0.199179

  FREE ENERGIE OF THE ION-ELECTRON SYSTEM (eV)
  free  energy   TOTEN  =      -475.03757560 eV

  energy  without entropy=     -473.73610448  energy(sigma->0) =     -474.38684004