 vasp.5.4.4.18Apr17-6-g9f103f2a35 (build Aug 13 2019 17:33:20) gamma-only

 executed on             LinuxIFC date 2020.05.11  01:19:10

 INCAR:
 POTCAR:    PAW_PBE Ni_pv 06Sep2000
 POTCAR:    PAW_PBE S 06Sep2000
 POTCAR:    PAW_PBE Ni_pv 06Sep2000
   VRHFIN =Ni:

   TITEL  = PAW_PBE Ni_pv 06Sep2000
   POMASS =   58.690; ZVAL   =   16.000    mass and valenz
   ENMAX  =  367.986; ENMIN  =  275.989 eV

 POTCAR:    PAW_PBE S 06Sep2000
   VRHFIN =S : s2p4

   TITEL  = PAW_PBE S 06Sep2000
   POMASS =   32.066; ZVAL   =    6.000    mass and valenz
   ENMAX  =  258.689; ENMIN  =  194.016 eV

 Optimization of the real space projectors (new method)

 maximal supplied QI-value         = 18.90
 optimisation between [QCUT,QGAM] = [ 10.77, 21.73] = [ 32.49,132.25] Ry
 Optimized for a Real-space Cutoff    1.38 Angstroem

   l    n(q)    QCUT    max X(q) W(low)/X(q) W(high)/X(q)  e(spline)
   1      8    10.771     2.836    0.40E-04    0.29E-04    0.12E-06
   1      8    10.771     4.023    0.10E-03    0.48E-04    0.29E-06
   2      8    10.771    73.368    0.42E-03    0.97E-04    0.44E-06
   2      8    10.771    69.010    0.42E-03    0.99E-04    0.45E-06
   0      9    10.771    54.797    0.10E-03    0.56E-04    0.74E-07
   0      9    10.771    24.266    0.89E-04    0.49E-04    0.67E-07
 Optimization of the real space projectors (new method)

 maximal supplied QI-value         = 19.84
 optimisation between [QCUT,QGAM] = [ 10.71, 21.63] = [ 32.15,130.99] Ry
 Optimized for a Real-space Cutoff    1.19 Angstroem

   l    n(q)    QCUT    max X(q) W(low)/X(q) W(high)/X(q)  e(spline)
   0      8    10.715   187.594    0.41E-03    0.53E-04    0.66E-07
   0      8    10.715   164.243    0.41E-03    0.53E-04    0.65E-07
   1      7    10.715    67.533    0.19E-03    0.59E-03    0.68E-07
   1      7    10.715    50.729    0.19E-03    0.58E-03    0.67E-07
  PAW_PBE Ni_pv 06Sep2000               :
  PAW_PBE S 06Sep2000                   :

 POSCAR: Type_052 Type_152
  positions in cartesian coordinates
 exchange correlation table for  LEXCH =        8
   RHO(1)=    0.500       N(1)  =     2000
   RHO(2)=  100.500       N(2)  =     4000

 ion  position               nearest neighbor table
   1  0.261  0.479  0.291-  79 2.25  63 2.26  87 2.26  59 2.36  64 2.36   9 2.53  26 2.53
   2  0.355  0.385  0.419-  71 2.11  80 2.21  59 2.26  64 2.26  57 2.26  65 2.36  10 2.53  27 2.53

   3  0.456  0.299  0.523-  65 2.04  57 2.06  71 2.13  96 2.20  28 2.36
   4  0.034  0.203  0.089-  68 2.00  69 2.14  88 2.21  60 2.23   5 2.28  15 2.44
   5  0.167  0.073  0.162-  88 2.12  69 2.25  60 2.26   4 2.28  61 2.36  89 2.36  40 2.53  35 2.53

[...]

  49  0.500  0.872  0.257- 102 2.25  82 2.26  61 2.26  92 2.36  85 2.36  31 2.53  36 2.53
  50  0.594  0.778  0.385-  97 2.08  93 2.10 103 2.25  92 2.26  85 2.26  37 2.53  32 2.53
  51  0.906  0.965  0.128-  94 2.10  88 2.17  73 2.26  95 2.36  74 2.36  20 2.53  46 2.53
  52  0.715  0.530  0.057-  68 2.05  99 2.06  75 2.07  44 2.48  22 2.50  29 2.54
  53  0.073  0.167  0.306-  31 2.25  12 2.26  25 2.26  11 2.36  24 2.36
  54  0.167  0.073  0.435-  13 2.05   6 2.07  32 2.25  12 2.36  25 2.36
  55  0.375  0.362  0.056-   7 2.02  19 2.03   8 2.11  14 2.14
  56  0.479  0.261  0.178-  19 2.23  20 2.25   9 2.26  26 2.26   8 2.36  14 2.36
  57  0.275  0.461  0.509-  34 2.04   3 2.06   2 2.26  65 2.65  80 2.69  71 2.70
  58  0.030  0.378  0.478-  18 2.05  13 2.06  34 2.08  12 2.36  17 2.36  70 2.60
  59  0.436  0.472  0.350-  37 2.25   2 2.26  27 2.26   1 2.36  26 2.36  71 2.68
  60  0.248  0.160  0.093-  15 2.05   4 2.23   8 2.25   5 2.26  40 2.26
  61  0.342  0.066  0.221-   9 2.25  31 2.26  49 2.26   5 2.36  40 2.36
  62  0.082  0.482  0.106-   7 2.06  33 2.12   8 2.12  29 2.13
  63  0.174  0.397  0.221-  11 2.25   9 2.26   1 2.26   8 2.36  33 2.36
  64  0.268  0.303  0.350-  12 2.25   2 2.26  10 2.26   1 2.36   9 2.36
  65  0.362  0.209  0.478-   3 2.04  21 2.09  13 2.14   2 2.36  10 2.36  57 2.65
  66  0.573  0.167  0.306-  41 2.25  27 2.26  10 2.26  26 2.36   9 2.36
  67  0.667  0.073  0.435-  21 2.04  28 2.13  43 2.23  42 2.25  27 2.36  10 2.36  96 2.77
  68  0.885  0.355  0.050-   4 2.00  52 2.05  22 2.21  29 2.26  23 2.26
  69  0.979  0.261  0.178-   4 2.14   5 2.25  24 2.26  11 2.26  23 2.36  29 2.36
  70  0.780  0.459  0.502-  18 2.03  17 2.10  93 2.59  78 2.59  58 2.60
  71  0.514  0.402  0.460-  28 2.05   2 2.11   3 2.13  27 2.15  59 2.68  57 2.70
  72  0.936  0.472  0.350-  48 2.25  17 2.26  12 2.26  16 2.36  11 2.36
  73  0.748  0.160  0.093-  30 2.00  22 2.10  19 2.15  23 2.25  20 2.26  51 2.26
  74  0.842  0.066  0.221-  24 2.25  41 2.26  38 2.26  20 2.36  51 2.36
  75  0.587  0.467  0.095-  52 2.07  23 2.11  14 2.18  22 2.19  44 2.35
  76  0.674  0.397  0.221-  26 2.25  24 2.26  16 2.26  23 2.36  44 2.36
  77  0.768  0.303  0.350-  27 2.25  17 2.26  25 2.26  16 2.36  24 2.36
  78  0.862  0.209  0.478-  18 2.06  28 2.06   6 2.06  17 2.36  25 2.36  70 2.59  43 2.63
  79  0.073  0.667  0.306-   1 2.25  39 2.26  48 2.26  38 2.36  47 2.36  80 2.54
  80  0.177  0.576  0.405-  34 2.05  39 2.09   2 2.21  48 2.23  79 2.54  57 2.69
  81  0.399  0.841  0.064-  15 2.01  40 2.05  35 2.06  82 2.78
  82  0.479  0.761  0.178-  44 2.25  36 2.26  49 2.26  35 2.36  40 2.36  81 2.78
  83  0.102  0.135  0.565-  18 2.05  13 2.05   6 2.05
  84  0.004  0.899  0.468-  42 2.08   6 2.09  43 2.13  39 2.29 104 2.73
  85  0.436  0.972  0.350-  10 2.25  32 2.26  50 2.26  31 2.36  49 2.36  97 2.72
  86  0.258  0.658  0.106-   7 2.05  14 2.12  33 2.12  35 2.12
  87  0.342  0.566  0.221-  36 2.25   1 2.26  26 2.26  33 2.36  14 2.36
  88  0.079  0.992  0.102-  15 2.08   5 2.12  51 2.17  35 2.21   4 2.21
  89  0.174  0.897  0.221-  38 2.25  36 2.26  31 2.26  35 2.36   5 2.36
  90  0.268  0.803  0.350-  39 2.25  32 2.26  37 2.26  31 2.36  36 2.36
  91  0.394  0.719  0.464-  37 2.00  32 2.00
  92  0.573  0.667  0.306-  16 2.25  50 2.26  37 2.26  49 2.36  36 2.36  93 2.53
  93  0.667  0.575  0.406-  50 2.10  37 2.13  17 2.25  92 2.53  70 2.59
  94  0.886  0.855  0.058-  45 2.02  30 2.04  51 2.10  46 2.12
  95  0.979  0.761  0.178-  33 2.25  47 2.26  38 2.26  46 2.36  51 2.36
  96  0.636  0.126  0.554-  28 2.08  21 2.08  43 2.13   3 2.20  67 2.77
  97  0.520  0.890  0.460-  50 2.08  32 2.10  21 2.11  85 2.72
  98  0.936  0.972  0.350-  25 2.25  42 2.26  39 2.26  41 2.36  38 2.36
  99  0.757  0.659  0.107-  52 2.06  44 2.11  46 2.12  29 2.13
 100  0.842  0.566  0.221-  47 2.25  16 2.26  11 2.26  44 2.36  29 2.36
 101  0.580  0.991  0.093-  45 2.00  40 2.25  19 2.25  46 2.26  20 2.26
 102  0.674  0.897  0.221-  49 2.25  47 2.26  41 2.26  46 2.36  20 2.36
 103  0.768  0.803  0.350-  50 2.25  42 2.26  48 2.26  41 2.36  47 2.36
 104  0.917  0.708  0.469-  48 2.03  34 2.09  42 2.13  84 2.73

  LATTYP: Found a base centered orthorhombic cell.
 ALAT       =    11.8257374459
 B/A-ratio  =     1.6199260857
 C/A-ratio  =     1.9350716598

  Lattice vectors:

 A1 = (  11.2564630382,   0.0000000000,   0.0000000000)
 A2 = (  -5.0445621212, -10.0628203371,   0.0000000000)
 A3 = (   0.0000000000,   0.0000000000, -22.8836493875)

Analysis of symmetry for initial positions (statically):
 Subroutine PRICEL returns:
 Original cell was already a primitive cell.

 Routine SETGRP: Setting up the symmetry group for a
 base centered orthorhombic supercell.

 Subroutine GETGRP returns: Found  1 space group operations
 (whereof  1 operations were pure point group operations)
 out of a pool of  8 trial point group operations.

The static configuration has the point symmetry C_1 .

Analysis of symmetry for dynamics (positions and initial velocities):
 Subroutine PRICEL returns:
 Original cell was already a primitive cell.

 Routine SETGRP: Setting up the symmetry group for a
 base centered orthorhombic supercell.

 Subroutine GETGRP returns: Found  1 space group operations
 (whereof  1 operations were pure point group operations)
 out of a pool of  8 trial point group operations.

The dynamic configuration has the point symmetry C_1 .

 Subroutine INISYM returns: Found  1 space group operations
 (whereof  1 operations are pure point group operations),
 and found     1 'primitive' translations

 KPOINTS: gamma-point-only calculation. no periodi

Automatic generation of k-mesh.
Space group operators:
 irot       det(A)        alpha          n_x          n_y          n_z        tau_x        tau_y        tau_z
    1     1.000000     0.000001     1.000000     0.000000     0.000000     0.000000     0.000000     0.000000

 Subroutine IBZKPT returns following result:

 Found      1 irreducible k-points:

 Following reciprocal coordinates:
            Coordinates               Weight
  0.000000  0.000000  0.000000      1.000000

 Following cartesian coordinates:
            Coordinates               Weight
  0.000000  0.000000  0.000000      1.000000

 SYSTEM =  "Millerite NiS"
 POSCAR =  Type_052 Type_152

 Startparameter for this run:
   NWRITE =      2    write-flag & timer
   PREC   = normal    normal or accurate (medium, high low for compatibility)
   ISTART =      0    job   : 0-new  1-cont  2-samecut
   ICHARG =      2    charge: 1-file 2-atom 10-const
   ISPIN  =      1    spin polarized calculation?
   LNONCOLLINEAR =      F non collinear calculations
   LSORBIT =      F    spin-orbit coupling
   INIWAV =      1    electr: 0-lowe 1-rand  2-diag
   LASPH  =      F    aspherical Exc in radial PAW
   METAGGA=      F    non-selfconsistent MetaGGA calc.

 Electronic Relaxation 1
   ENCUT  =  450.0 eV  33.07 Ry    5.75 a.u.  19.47 19.47 39.58*2*pi/ulx,y,z
   ENINI  =  450.0     initial cutoff
   ENAUG  =  703.4 eV  augmentation charge cutoff
   NELM   =    100;   NELMIN=  2; NELMDL= -5     # of ELM steps
   EDIFF  = 0.1E-03   stopping-criterion for ELM
   LREAL  =      T    real-space projection
   NLSPLINE    = F    spline interpolate recip. space projectors
   LCOMPAT=      F    compatible to vasp.4.4
   GGA_COMPAT  = T    GGA compatible to vasp.4.4-vasp.4.6
   LMAXPAW     = -100 max onsite density
   LMAXMIX     =    2 max onsite mixed and CHGCAR
   VOSKOWN=      0    Vosko Wilk Nusair interpolation
   ROPT   =   -0.00050  -0.00050
 Ionic relaxation
   EDIFFG = 0.1E-02   stopping-criterion for IOM
   NSW    =      0    number of steps for IOM
   NBLOCK =      1;   KBLOCK =      1    inner block; outer block
   IBRION =     -1    ionic relax: 0-MD 1-quasi-New 2-CG
   NFREE  =      0    steps in history (QN), initial steepest desc. (CG)
   ISIF   =      2    stress and relaxation
   IWAVPR =     10    prediction:  0-non 1-charg 2-wave 3-comb
   ISYM   =      2    0-nonsym 1-usesym 2-fastsym
   LCORR  =      T    Harris-Foulkes like correction to forces

   POTIM  = 0.5000    time-step for ionic-motion
   TEIN   =    0.0    initial temperature
   TEBEG  =    0.0;   TEEND  =   0.0 temperature during run
   SMASS  =  -3.00    Nose mass-parameter (am)
   estimated Nose-frequenzy (Omega)   =  0.10E-29 period in steps =****** mass=  -0.290E-26a.u.
   SCALEE = 1.0000    scale energy and forces
   NPACO  =    256;   APACO  = 16.0  distance and # of slots for P.C.
   PSTRESS=    0.0 pullay stress

  Mass of Ions in am
   POMASS =  58.69 32.07
  Ionic Valenz
[...]
     0.000000000  0.000000000 22.883649388     0.000000000  0.000000000  0.043699324

  length of vectors
    11.256463038 11.256463038 22.883649388     0.099375718  0.099375718  0.043699324

 FORCES acting on ions
    electron-ion (+dipol)            ewald-force                    non-local-force                 convergence-correction
   0.216E+03 -.481E+03 -.567E+03   -.216E+03 0.481E+03 0.567E+03   0.329E+00 -.472E+00 0.880E+00   0.154E+00 -.188E+00 -.568E+00
   0.191E+03 -.711E+03 -.347E+04   -.192E+03 0.709E+03 0.347E+04   0.679E+00 0.128E+01 0.315E+01   -.889E-02 0.111E+00 0.194E+00
   0.186E+03 -.728E+03 -.614E+04   -.183E+03 0.729E+03 0.614E+04   -.190E+01 -.488E+00 -.327E+01   0.359E-01 -.115E+00 0.486E+00
   -.175E+03 -.193E+03 0.510E+04   0.177E+03 0.191E+03 -.511E+04   -.862E+00 0.119E+01 0.471E+01   -.371E+00 0.320E+00 -.316E+00
   0.894E+01 -.122E+03 0.211E+04   -.700E+01 0.121E+03 -.210E+04   -.885E+00 -.321E+00 -.339E+01   -.156E+00 0.249E+00 -.299E+00
   -.190E+03 0.110E+04 -.528E+04   0.190E+03 -.111E+04 0.529E+04   -.917E+00 0.420E+01 -.266E+01   -.286E-01 0.162E+00 0.509E+00
   0.286E+03 -.552E+03 0.618E+04   -.288E+03 0.556E+03 -.619E+04   0.163E+01 -.288E+01 0.400E+01   0.948E-01 -.201E+00 -.153E+00
   0.451E+03 0.451E+03 0.373E+04   -.454E+03 -.454E+03 -.373E+04   0.267E+01 0.149E+01 0.516E+00   0.292E+00 -.907E-01 -.221E+00
   0.278E+03 0.455E+03 0.447E+03   -.280E+03 -.456E+03 -.447E+03   0.145E+01 0.816E+00 0.270E+00   0.232E+00 0.183E+00 -.624E+00
   0.358E+03 0.564E+03 -.236E+04   -.360E+03 -.564E+03 0.236E+04   0.147E+01 0.133E+00 0.324E+01   0.382E-01 0.488E-01 -.809E-01
   -.538E+03 -.100E+03 0.413E+03   0.540E+03 0.101E+03 -.413E+03   -.131E+01 -.104E+01 -.922E-01   -.187E+00 0.865E-01 -.426E+00
   -.483E+03 -.443E+02 -.238E+04   0.484E+03 0.443E+02 0.238E+04   -.879E+00 -.461E+00 0.271E+01   -.182E+00 0.171E+00 -.792E-01
   -.650E+03 0.294E+03 -.529E+04   0.657E+03 -.295E+03 0.529E+04   -.419E+01 0.122E+01 -.254E+01   -.184E+00 0.105E-01 0.520E+00
   -.547E+03 -.426E+03 0.367E+04   0.550E+03 0.428E+03 -.367E+04   -.242E+01 -.194E+01 0.580E+00   0.285E+00 -.434E+00 -.297E+00
   -.759E+02 0.209E+03 0.637E+04   0.768E+02 -.211E+03 -.638E+04   -.145E+01 0.255E+01 0.549E+01   -.159E+00 0.242E+00 -.108E+00
   0.253E+03 -.519E+03 -.666E+03   -.253E+03 0.519E+03 0.666E+03   0.260E+00 -.401E+00 0.102E+01   0.209E-01 -.111E+00 -.446E+00
   0.321E+03 -.856E+03 -.356E+04   -.321E+03 0.856E+03 0.355E+04   0.108E+00 0.344E+00 0.232E+01   -.626E-01 0.532E-01 0.646E-01
   0.214E+03 -.758E+03 -.606E+04   -.214E+03 0.758E+03 0.607E+04   0.425E+00 -.258E-01 -.638E+01   -.122E-01 -.138E+00 0.351E+00
   0.488E+03 -.798E+02 0.509E+04   -.489E+03 0.775E+02 -.509E+04   0.580E+00 0.175E+01 0.335E+01   0.429E+00 0.143E+00 -.236E+00
   0.245E+03 -.699E+02 0.215E+04   -.245E+03 0.675E+02 -.215E+04   0.357E+00 0.116E+01 -.272E+01   0.154E-01 0.420E+00 -.612E+00
   0.588E+03 0.110E+04 -.538E+04   -.592E+03 -.110E+04 0.539E+04   0.254E+01 0.371E+01 -.186E+01   0.115E+00 0.109E+00 0.604E+00
   0.290E+03 -.177E+03 0.630E+04   -.290E+03 0.176E+03 -.631E+04   -.124E+01 0.138E+01 0.611E-01   -.635E-01 0.144E-01 0.512E-01
   0.198E+03 0.281E+03 0.307E+04   -.199E+03 -.283E+03 -.307E+04   0.145E+01 0.797E+00 -.260E+01   -.264E+00 0.495E-01 -.868E+00
   0.237E+03 0.429E+03 0.370E+03   -.238E+03 -.431E+03 -.370E+03   0.158E+01 0.100E+01 0.108E+00   -.741E-01 0.226E+00 -.453E+00
   0.146E+03 0.488E+03 -.233E+04   -.146E+03 -.489E+03 0.233E+04   0.793E+00 0.304E+00 0.321E+01   -.104E+00 0.162E+00 -.174E-01
   -.499E+03 -.127E+03 0.406E+03   0.500E+03 0.128E+03 -.405E+03   -.123E+01 -.864E+00 0.209E+00   0.320E-01 -.845E-01 -.599E+00
   -.484E+03 -.230E+03 -.221E+04   0.487E+03 0.229E+03 0.221E+04   -.255E+01 0.527E+00 0.189E+01   0.206E+00 0.133E+00 -.217E+00
   -.486E+03 -.656E+03 -.504E+04   0.490E+03 0.660E+03 0.504E+04   -.326E+01 -.339E+01 -.735E+00   -.203E-01 -.685E-01 0.518E+00
   -.819E+03 -.355E+03 0.368E+04   0.822E+03 0.356E+03 -.368E+04   -.229E+01 -.171E+01 -.449E+00   -.326E+00 -.880E-01 -.395E+00
   -.439E+03 0.146E+03 0.620E+04   0.435E+03 -.148E+03 -.620E+04   0.429E+01 0.184E+01 -.238E+00   -.614E-01 0.579E+00 0.106E+00
   0.216E+03 -.273E+03 -.670E+03   -.217E+03 0.274E+03 0.670E+03   0.858E+00 -.113E+01 0.494E+00   -.186E-01 -.712E-02 -.417E+00
   0.246E+03 0.963E+01 -.410E+04   -.249E+03 -.559E+01 0.410E+04   0.244E+01 -.197E+01 -.446E+01   -.545E-01 0.396E-01 0.689E-01
   0.320E+03 -.609E+03 0.248E+04   -.323E+03 0.613E+03 -.248E+04   0.181E+01 -.279E+01 -.104E+01   0.283E-01 -.147E+00 -.222E+00
   0.294E+02 -.423E+03 -.533E+04   -.319E+02 0.423E+03 0.533E+04   0.190E+01 0.205E+00 -.321E+01   -.818E-01 -.101E+00 0.329E+00
   0.286E+03 0.807E+03 0.378E+04   -.288E+03 -.810E+03 -.378E+04   0.107E+01 0.264E+01 0.577E+00   -.421E-01 -.134E+00 -.110E+00
   0.226E+03 0.456E+03 0.428E+03   -.227E+03 -.456E+03 -.429E+03   0.895E+00 0.153E+00 0.181E+01   0.569E-01 -.131E+00 -.414E+00
   0.204E+03 0.342E+03 -.310E+04   -.208E+03 -.345E+03 0.310E+04   0.366E+01 0.297E+01 -.237E+01   0.742E-01 -.805E-01 -.226E+00
   -.534E+03 0.825E+02 0.460E+03   0.534E+03 -.818E+02 -.461E+03   -.618E+00 -.687E+00 0.146E+01   -.141E+00 0.653E-01 -.429E+00
   -.701E+03 0.609E+02 -.294E+04   0.705E+03 -.581E+02 0.294E+04   -.396E+01 -.141E+01 -.263E+00   0.349E-01 0.528E-01 -.144E+00
   -.665E+03 0.146E+03 0.370E+04   0.670E+03 -.145E+03 -.370E+04   -.341E+01 -.670E+00 0.107E+01   0.217E+00 0.879E-01 -.121E+00
   0.271E+03 -.278E+03 -.608E+03   -.272E+03 0.279E+03 0.608E+03   0.916E+00 -.121E+01 0.501E+00   0.555E-01 0.227E-01 -.540E+00
   0.386E+03 0.208E+03 -.357E+04   -.390E+03 -.207E+03 0.357E+04   0.287E+01 -.620E+00 0.486E+00   -.586E-01 0.153E+00 0.144E+00
   -.131E+03 0.904E+03 -.581E+04   0.133E+03 -.904E+03 0.581E+04   -.180E+01 -.757E+00 0.630E-01   0.939E-02 0.111E+00 0.417E+00
   0.388E+03 -.697E+03 0.240E+04   -.390E+03 0.700E+03 -.239E+04   0.171E+01 -.195E+01 -.114E+01   -.200E-01 -.237E+00 -.492E+00
   0.660E+03 0.572E+03 0.610E+04   -.657E+03 -.568E+03 -.610E+04   -.462E+01 -.541E+01 -.242E+01   0.231E+00 0.304E+00 0.281E-01
   0.229E+03 0.731E+03 0.347E+04   -.230E+03 -.732E+03 -.347E+04   0.698E+00 0.824E+00 -.688E+00   -.460E-02 0.120E+00 -.187E+00
   0.255E+03 0.471E+03 0.455E+03   -.256E+03 -.471E+03 -.456E+03   0.103E+01 0.694E-01 0.169E+01   -.450E-01 0.263E-02 -.409E+00
   0.452E+03 0.247E+03 -.267E+04   -.456E+03 -.250E+03 0.267E+04   0.466E+01 0.209E+01 0.320E+00   -.145E+00 -.115E+00 -.176E+00
   -.489E+03 0.623E+02 0.432E+03   0.489E+03 -.616E+02 -.433E+03   -.841E+00 -.659E+00 0.169E+01   0.630E-01 -.776E-01 -.419E+00
   -.461E+03 0.191E+03 -.308E+04   0.467E+03 -.189E+03 0.308E+04   -.537E+01 -.645E+00 -.221E+01   0.582E-01 -.124E+00 -.180E+00
   -.653E+03 0.375E+03 0.348E+04   0.655E+03 -.376E+03 -.348E+04   -.158E+01 0.546E+00 -.137E+01   -.202E+00 0.351E+00 -.363E+00
   0.479E+02 -.994E+03 0.603E+04   -.480E+02 0.100E+04 -.603E+04   0.539E-01 -.417E+01 0.322E+01   -.220E+00 -.499E+00 -.179E+00
   -.872E+02 0.139E+03 -.191E+03   0.883E+02 -.141E+03 0.189E+03   -.105E+01 0.189E+01 0.215E+01   -.352E-01 0.532E-01 -.238E+00
   -.153E+03 0.321E+03 -.130E+04   0.155E+03 -.323E+03 0.130E+04   -.917E+00 0.952E+00 -.734E+00   -.445E-01 -.293E-01 0.144E+00
   0.417E+02 0.407E+02 0.243E+04   -.415E+02 -.420E+02 -.244E+04   -.778E-01 0.736E+00 0.206E+01   0.193E+00 -.155E+00 -.992E-03
   -.398E+01 0.734E+02 0.802E+03   0.428E+01 -.743E+02 -.801E+03   -.481E+00 0.770E+00 -.670E+00   0.959E-01 0.969E-02 -.177E+00
   -.597E+02 -.423E+03 -.224E+04   0.604E+02 0.428E+03 0.224E+04   -.542E+00 -.326E+01 -.247E+01   0.402E-01 -.914E-01 0.153E+00
   -.473E+02 -.368E+03 -.184E+04   0.504E+02 0.371E+03 0.184E+04   -.197E+01 -.141E+01 -.162E+01   -.113E+00 -.931E-02 0.167E+00
   -.105E+03 -.245E+03 -.686E+03   0.105E+03 0.248E+03 0.685E+03   -.456E+00 -.347E+01 -.170E+00   0.122E-01 -.231E-01 -.218E+00
   -.255E+03 -.224E+03 0.189E+04   0.258E+03 0.226E+03 -.190E+04   -.215E+01 -.624E+00 0.267E+01   0.808E-02 0.124E+00 -.608E-01
[...]
   0.967E+02 0.145E+03 -.223E+04   -.981E+02 -.146E+03 0.223E+04   0.316E+00 0.498E+00 -.598E+00   -.774E-03 0.696E-02 0.105E+00
   -.615E+02 0.909E+02 -.236E+03   0.623E+02 -.925E+02 0.234E+03   -.943E+00 0.194E+01 0.102E+01   0.485E-01 -.899E-01 -.188E+00
   -.487E+02 -.103E+02 -.148E+04   0.487E+02 0.106E+02 0.148E+04   0.285E+00 -.752E+00 0.128E+01   0.723E-01 -.100E+00 -.497E-01
   -.328E+03 0.521E+03 0.210E+04   0.331E+03 -.527E+03 -.210E+04   -.171E+01 0.267E+01 0.104E+01   0.119E-01 0.147E+00 -.784E-01
   -.924E+02 0.158E+03 0.102E+04   0.931E+02 -.159E+03 -.102E+04   -.557E+00 0.147E+01 0.205E+01   -.309E-01 0.230E-01 -.645E-01
   0.215E+02 0.140E+03 -.255E+04   -.215E+02 -.142E+03 0.255E+04   0.164E+00 0.585E+00 -.286E+01   -.373E-01 0.274E-01 0.963E-01
   -.102E+02 0.266E+03 -.201E+04   0.113E+02 -.268E+03 0.201E+04   -.663E+00 0.879E+00 -.125E+01   0.258E-01 0.871E-02 0.131E+00
   -.973E+02 -.830E+02 -.627E+03   0.983E+02 0.858E+02 0.627E+03   -.815E+00 -.246E+01 -.844E+00   -.459E-01 0.206E-01 -.168E+00
   -.929E+02 -.255E+03 0.170E+04   0.935E+02 0.257E+03 -.170E+04   -.452E-01 -.221E+00 -.112E+00   -.107E+00 -.148E+00 -.123E+00
   -.832E+02 -.193E+03 0.463E+03   0.841E+02 0.195E+03 -.463E+03   -.780E+00 -.221E+01 0.663E+00   -.508E-01 -.612E-01 -.990E-01
   0.344E+03 0.390E+02 0.173E+04   -.348E+03 -.389E+02 -.173E+04   0.136E+01 0.507E+00 0.344E+01   0.125E+00 0.211E+00 -.502E-01
   0.188E+03 0.388E+02 0.467E+03   -.191E+03 -.387E+02 -.467E+03   0.273E+01 -.518E-01 0.183E+00   0.442E-01 0.199E-01 -.128E+00
   0.209E+03 0.489E+02 -.725E+03   -.212E+03 -.489E+02 0.725E+03   0.298E+01 0.215E+00 -.197E-01   -.141E-01 -.910E-02 -.165E+00
   0.255E+03 -.758E+01 -.218E+04   -.259E+03 0.711E+01 0.218E+04   0.216E+01 0.768E+00 -.228E+01   -.233E-01 -.175E-01 0.146E+00
   -.401E+00 0.137E+02 -.120E+02   0.466E-11 -.453E-12 0.864E-11   0.811E+00 -.151E+02 0.225E+02   -.511E+00 0.146E+01 -.106E+02

 POSITION                                       TOTAL-FORCE (eV/Angst)
      5.35228      4.81788      6.64784         0.129140     -0.322486     -0.230592
      5.93595      3.87238      9.58390        -0.663074     -0.193445     -0.315240
      6.63616      3.00646     11.97834         0.296774     -0.289152      1.504598
      1.40947      2.03950      2.04805         0.347746     -0.123024     -0.791487
      2.24633      0.73197      3.71178         0.897885     -0.444020      2.529562
      0.75983      0.53427     11.37421        -0.909430     -1.529086     -0.284599
      5.01565      5.38269      1.33650        -0.641442      0.831923     -1.867910
      4.76861      3.35453      2.93606        -0.392387     -1.297945      1.550917
      5.35228      2.40903      5.87212        -0.103643      0.053940      0.114809
      5.93595      1.46353      8.80817         0.016152      0.004402     -0.266979
      1.87746      3.73836      5.87212         0.120991      0.142816      0.119978
      2.46113      2.79286      8.80817         0.004343     -0.309931     -0.088129
      3.04646      1.95195     11.38731         2.100080      0.098350      0.070701
      6.92203      4.68386      2.93606         1.008914     -0.434047      1.479666
      2.58949      0.06839      1.21243        -0.670042      0.529587     -1.974286
     10.98051      4.81788      6.64784         0.234247     -0.334706     -0.164982
     11.56418      3.87238      9.58390         0.495584     -0.044620     -0.756903
     12.10357      3.00411     12.20902        -0.020801      0.233406      1.903682
      7.13674      2.06452      1.95593         0.046530     -0.356044     -0.763620
      7.87456      0.73197      3.71178         0.118076     -0.757556      1.203366
      6.39399      0.49555     11.33505        -1.239302     -1.081648      0.257931
      9.61312      3.15504      0.76725        -0.349112     -0.080166     -1.214076
     10.39684      3.35453      2.93606         0.773466     -1.096741      2.668877
     10.98051      2.40903      5.87212        -0.108322     -0.020837      0.051572
     11.56418      1.46353      8.80817         0.280998     -0.024305     -0.262314
      7.50570      3.73836      5.87212         0.088938      0.123765      0.070722
      8.08937      2.79286      8.80817         0.101933     -0.156858     -1.308132
      8.71953      2.30297     11.12079         0.830233      0.631752     -0.107693
     12.55026      4.68386      2.93606         0.647765     -0.371285      1.155853
      9.31234      0.41625      0.52622         0.154886      0.619192     -1.298889
      7.87456      9.84929      6.64784         0.091205     -0.273383     -0.042066
      8.45823      8.90379      9.58390        -0.610878      2.109226     -2.019621
      4.76861      5.76338      3.71178        -0.499766      0.573961      2.327224
      3.66979      5.31088     10.84832        -0.651017      0.028984      0.831717
      7.29089      8.38594      2.93606        -0.641526     -0.833134      1.924017
      7.87456      7.44044      5.87212         0.023261      0.099214      0.046686
      8.45823      6.49494      8.80817        -0.359191     -0.491105     -2.471262
      4.39975      8.76977      5.87212        -0.082124      0.045146      0.012678
      4.98341      7.82427      8.80817         0.305596      1.443404     -1.098507
      9.44431      9.71527      2.93606         1.312614      0.418143      1.753965
     13.50279      9.84929      6.64784         0.100830     -0.211918      0.002752
     14.08646      8.90379      9.58390        -0.993387      0.279535     -2.047816
      9.21491      0.08444     11.61227         0.092527     -0.365500      0.364276
     10.39684      5.76338      3.71178        -0.658849      0.167123      1.371302
     12.44829      9.03065      0.61868        -0.621107     -0.308291     -1.546213
     12.91912      8.38594      2.93606        -0.211805      0.026558      1.948339
     13.50279      7.44044      5.87212        -0.059252     -0.074820     -0.014147
     14.08646      6.49494      8.80817        -0.105041     -0.374626     -2.447809
     10.02798      8.76977      5.87212        -0.166180     -0.050455     -0.071628
     10.61165      7.82427      8.80817         0.692284      0.774486     -1.795414
     15.07254      9.71527      2.93606         0.329811      0.227314      1.317838
     10.72416      5.33259      1.29639        -0.309669      0.958570     -1.428664
      1.66190      1.67871      7.01153         0.043547      0.000586     -0.033578
      2.24556      0.73321      9.94759         0.592004     -1.136110     -2.362208
      6.05153      3.64557      1.28076         0.271531     -0.710792     -3.422141
      6.70646      2.62422      4.07548        -0.083585     -0.055915      0.511767
      5.42596      4.64051     11.64800         0.203348      1.790470      2.153412
      2.24556      3.80055     10.93537         1.019744      1.507478     -1.469859
      7.29013      4.74605      7.99931         0.137753     -0.037421     -1.372151
      3.60051      1.60565      2.12720         0.937417      1.279757     -0.101824
[...]
      7.07033      8.08475      7.99931        -0.235121      0.332981     -0.063403
      8.06537      7.23978     10.61955        -1.130788     -1.218646      4.069107
      9.81241      6.71012      7.01153        -0.061331      0.235057     -0.945132
     10.41096      5.78414      9.28406         0.388226     -0.526350      1.061045
     14.28728      8.60628      1.33673         1.743008     -2.296886     -2.265644
     14.85697      7.65563      4.07548         0.117649      0.046702      0.451118
      7.79291      1.27102     12.66800         0.187198     -0.514919      4.026746
     10.33663      8.95192     10.53271         0.435014     -0.624534      2.840263
     15.44064      9.77746      7.99931         0.050008      0.360744     -0.807851
     11.84584      6.63072      2.43900         0.381716      1.429876     -1.212967
     12.33469      5.69156      5.06325         0.002306     -0.181703      0.592034
     11.53122      9.97575      2.12720        -1.760686      0.814043      0.476311
     12.11489      9.03025      5.06325        -0.052881      0.068612      0.138830
     12.69856      8.08475      7.99931        -0.100355      0.269505     -0.028688
     13.89525      7.12252     10.72767        -2.003010      0.273176      3.140147
    total drift:                               -0.102036      0.066310     -0.045113

  FREE ENERGIE OF THE ION-ELECTRON SYSTEM (eV)
  free  energy   TOTEN  =      -507.29531154 eV

  energy  without entropy=     -505.83604140  energy(sigma->0) =     -506.56567647