 vasp.5.4.4.18Apr17-6-g9f103f2a35 (build Aug 13 2019 17:33:20) gamma-only

 executed on             LinuxIFC date 2020.05.11  16:08:43

 INCAR:
 POTCAR:    PAW_PBE Ni_pv 06Sep2000
 POTCAR:    PAW_PBE S 06Sep2000
 POTCAR:    PAW_PBE Ni_pv 06Sep2000
   VRHFIN =Ni:

   TITEL  = PAW_PBE Ni_pv 06Sep2000
   POMASS =   58.690; ZVAL   =   16.000    mass and valenz
   ENMAX  =  367.986; ENMIN  =  275.989 eV

 POTCAR:    PAW_PBE S 06Sep2000
   VRHFIN =S : s2p4

   TITEL  = PAW_PBE S 06Sep2000
   POMASS =   32.066; ZVAL   =    6.000    mass and valenz
   ENMAX  =  258.689; ENMIN  =  194.016 eV

 Optimization of the real space projectors (new method)

 maximal supplied QI-value         = 18.90
 optimisation between [QCUT,QGAM] = [ 10.77, 21.73] = [ 32.49,132.25] Ry
 Optimized for a Real-space Cutoff    1.38 Angstroem

   l    n(q)    QCUT    max X(q) W(low)/X(q) W(high)/X(q)  e(spline)
   1      8    10.771     2.836    0.40E-04    0.29E-04    0.12E-06
   1      8    10.771     4.023    0.10E-03    0.48E-04    0.29E-06
   2      8    10.771    73.368    0.42E-03    0.97E-04    0.44E-06
   2      8    10.771    69.010    0.42E-03    0.99E-04    0.45E-06
   0      9    10.771    54.797    0.10E-03    0.56E-04    0.74E-07
   0      9    10.771    24.266    0.89E-04    0.49E-04    0.67E-07
 Optimization of the real space projectors (new method)

 maximal supplied QI-value         = 19.84
 optimisation between [QCUT,QGAM] = [ 10.71, 21.63] = [ 32.15,130.99] Ry
 Optimized for a Real-space Cutoff    1.19 Angstroem

   l    n(q)    QCUT    max X(q) W(low)/X(q) W(high)/X(q)  e(spline)
   0      8    10.715   187.594    0.41E-03    0.53E-04    0.66E-07
   0      8    10.715   164.243    0.41E-03    0.53E-04    0.65E-07
   1      7    10.715    67.533    0.19E-03    0.59E-03    0.68E-07
   1      7    10.715    50.729    0.19E-03    0.58E-03    0.67E-07
  PAW_PBE Ni_pv 06Sep2000               :
  PAW_PBE S 06Sep2000                   :

 POSCAR: Type_048 Type_148
  positions in cartesian coordinates
 exchange correlation table for  LEXCH =        8
   RHO(1)=    0.500       N(1)  =     2000
   RHO(2)=  100.500       N(2)  =     4000

 ion  position               nearest neighbor table
   1  0.261  0.479  0.295-  73 2.25  58 2.26  80 2.26  59 2.36  54 2.36   8 2.53  22 2.53
   2  0.355  0.385  0.426-  65 2.07  74 2.19  54 2.26  59 2.26   3 2.35  60 2.43  12 2.51   9 2.53
                            23 2.53
   3  0.392  0.344  0.528-  60 2.00  65 2.02   2 2.35
   4  0.026  0.202  0.092-  63 1.98  64 2.09  81 2.16   5 2.29  55 2.33  30 2.41
   5  0.167  0.073  0.165-  64 2.25  55 2.26  81 2.26   4 2.29  56 2.36  82 2.36  36 2.53  31 2.53

   6  0.220  0.531  0.054-  51 2.03  57 2.04  79 2.08  27 2.52
   7  0.274  0.333  0.130-  51 2.05  55 2.25  57 2.26  52 2.36  58 2.36  13 2.53  28 2.53
   8  0.368  0.239  0.261-  56 2.25  58 2.26  52 2.26  59 2.36  61 2.36   1 2.53  22 2.53
   9  0.462  0.145  0.391-  60 2.06  62 2.20  78 2.25  59 2.26  61 2.26   2 2.53  23 2.53
  10  0.000  0.372  0.261-  58 2.25  64 2.26  92 2.26  49 2.36  66 2.36  20 2.53  15 2.53
  11  0.094  0.278  0.391-  53 2.10  50 2.11  59 2.25  49 2.26  66 2.26  12 2.33  16 2.53  21 2.53

[...]

  48  0.920  0.653  0.056-  91 2.09  57 2.09  87 2.12  27 2.42
  49  0.073  0.167  0.311-  25 2.25  11 2.26  21 2.26  10 2.36  20 2.36
  50  0.210  0.095  0.434-  11 2.11  12 2.14  26 2.20
  51  0.384  0.355  0.063-   6 2.03   7 2.05  13 2.05
  52  0.479  0.261  0.181-  17 2.25   8 2.26  22 2.26  13 2.36   7 2.36
  53  0.027  0.356  0.476-  29 2.05  11 2.10  12 2.14  16 2.14
  54  0.436  0.472  0.355-  33 2.25   2 2.26  23 2.26   1 2.36  22 2.36
  55  0.248  0.160  0.094-  30 2.04   7 2.25   5 2.26  36 2.26   4 2.33  14 2.52
  56  0.342  0.066  0.225-   8 2.25  25 2.26  45 2.26   5 2.36  36 2.36
  57  0.080  0.491  0.094-   6 2.04  48 2.09  24 2.25   7 2.26  28 2.26
  58  0.174  0.397  0.225-  10 2.25   1 2.26   8 2.26   7 2.36  28 2.36
  59  0.268  0.303  0.355-  11 2.25   9 2.26   2 2.26   8 2.36   1 2.36  12 2.64
  60  0.438  0.178  0.481-   3 2.00  12 2.03   9 2.06   2 2.43  65 2.71
  61  0.573  0.167  0.311-  37 2.25  23 2.26   9 2.26  22 2.36   8 2.36  62 2.59
  62  0.674  0.072  0.414-  23 2.14  38 2.19   9 2.20  61 2.59
  63  0.885  0.355  0.051-   4 1.98  18 1.99  19 2.26  24 2.26
  64  0.979  0.261  0.181-   4 2.09   5 2.25  20 2.26  10 2.26  24 2.36  19 2.36
  65  0.519  0.370  0.472-   3 2.02   2 2.07  23 2.09  60 2.71
  66  0.936  0.472  0.355-  44 2.25  16 2.26  11 2.26  15 2.36  10 2.36
  67  0.760  0.157  0.113-  17 2.07  47 2.08  19 2.10  68 2.72
  68  0.842  0.066  0.225-  20 2.25  37 2.26  34 2.26  17 2.36  47 2.36  67 2.72
  69  0.580  0.491  0.094-  18 2.04  13 2.25  19 2.26  40 2.26  39 2.35
  70  0.674  0.397  0.225-  22 2.25  15 2.26  20 2.26  19 2.36  40 2.36
  71  0.768  0.303  0.355-  23 2.25  21 2.26  16 2.26  20 2.36  15 2.36  72 2.73
  72  0.867  0.221  0.467-  21 1.98  16 2.01  71 2.73
  73  0.073  0.667  0.311-   1 2.25  35 2.26  44 2.26  34 2.36  43 2.36  74 2.72
  74  0.179  0.578  0.421-  29 2.03  35 2.12   2 2.19  44 2.30  73 2.72
  75  0.385  0.855  0.051-  39 1.98  30 2.02  14 2.10  36 2.26  31 2.26
  76  0.479  0.761  0.181-  39 2.12  40 2.25  32 2.26  45 2.26  36 2.36  31 2.36
  77  0.014  0.893  0.463-  35 2.02  38 2.02  90 2.60  96 2.71
  78  0.436  0.972  0.355-   9 2.25  26 2.26  46 2.26  25 2.36  45 2.36
  79  0.262  0.659  0.106-   6 2.08  27 2.10  31 2.10  13 2.13  28 2.18
  80  0.342  0.566  0.225-  32 2.25   1 2.26  22 2.26  28 2.36  13 2.36
  81  0.080  0.991  0.094-  30 2.05   4 2.16  47 2.25  31 2.26   5 2.26
  82  0.174  0.897  0.225-  34 2.25  25 2.26  32 2.26  31 2.36   5 2.36
  83  0.268  0.803  0.355-  35 2.25  33 2.26  26 2.26  32 2.36  25 2.36
  84  0.375  0.720  0.469-  33 2.00  26 2.01  89 2.72
  85  0.573  0.667  0.311-  15 2.25  46 2.26  33 2.26  45 2.36  32 2.36  86 2.64
  86  0.665  0.575  0.418-  33 2.14  46 2.14  16 2.25  85 2.64
  87  0.863  0.860  0.054-  42 2.08  48 2.12  27 2.14  47 2.26  41 2.28
  88  0.979  0.761  0.181-  27 2.14  28 2.25  43 2.26  34 2.26  47 2.36  42 2.36
  89  0.521  0.859  0.470-  46 1.99  26 2.02  84 2.72
  90  0.936  0.972  0.355-  21 2.25  38 2.26  35 2.26  37 2.36  34 2.36  77 2.60
  91  0.748  0.660  0.094-  18 2.06  48 2.09  41 2.13  39 2.13  42 2.25  40 2.26  24 2.26
  92  0.842  0.566  0.225-  43 2.25  15 2.26  10 2.26  40 2.36  24 2.36
  93  0.580  0.987  0.099-  14 2.11  41 2.11  36 2.19  42 2.21  17 2.22
  94  0.674  0.897  0.225-  45 2.25  37 2.26  43 2.26  42 2.36  17 2.36
  95  0.768  0.803  0.355-  46 2.25  44 2.26  38 2.26  43 2.36  37 2.36
  96  0.928  0.705  0.476-  44 2.01  29 2.12  38 2.14  77 2.71

  LATTYP: Found a base centered orthorhombic cell.
 ALAT       =    11.8257374459
 B/A-ratio  =     1.6199260857
 C/A-ratio  =     1.9043172636

  Lattice vectors:

 A1 = (  11.2564630382,   0.0000000000,   0.0000000000)
 A2 = (  -5.0445621212, -10.0628203371,   0.0000000000)
 A3 = (   0.0000000000,   0.0000000000, -22.5199559732)

Analysis of symmetry for initial positions (statically):
 Subroutine PRICEL returns:
 Original cell was already a primitive cell.

 Routine SETGRP: Setting up the symmetry group for a
 base centered orthorhombic supercell.

 Subroutine GETGRP returns: Found  1 space group operations
 (whereof  1 operations were pure point group operations)
 out of a pool of  8 trial point group operations.

The static configuration has the point symmetry C_1 .

Analysis of symmetry for dynamics (positions and initial velocities):
 Subroutine PRICEL returns:
 Original cell was already a primitive cell.

 Routine SETGRP: Setting up the symmetry group for a
 base centered orthorhombic supercell.

 Subroutine GETGRP returns: Found  1 space group operations
 (whereof  1 operations were pure point group operations)
 out of a pool of  8 trial point group operations.

The dynamic configuration has the point symmetry C_1 .

 Subroutine INISYM returns: Found  1 space group operations
 (whereof  1 operations are pure point group operations),
 and found     1 'primitive' translations

 KPOINTS: gamma-point-only calculation. no periodi

Automatic generation of k-mesh.
Space group operators:
 irot       det(A)        alpha          n_x          n_y          n_z        tau_x        tau_y        tau_z
    1     1.000000     0.000000     1.000000     0.000000     0.000000     0.000000     0.000000     0.000000

 Subroutine IBZKPT returns following result:

 Found      1 irreducible k-points:

 Following reciprocal coordinates:
            Coordinates               Weight
  0.000000  0.000000  0.000000      1.000000

 Following cartesian coordinates:
            Coordinates               Weight
  0.000000  0.000000  0.000000      1.000000

 SYSTEM =  "Millerite NiS"
 POSCAR =  Type_048 Type_148

 Startparameter for this run:
   NWRITE =      2    write-flag & timer
   PREC   = normal    normal or accurate (medium, high low for compatibility)
   ISTART =      0    job   : 0-new  1-cont  2-samecut
   ICHARG =      2    charge: 1-file 2-atom 10-const
   ISPIN  =      1    spin polarized calculation?
   LNONCOLLINEAR =      F non collinear calculations
   LSORBIT =      F    spin-orbit coupling
   INIWAV =      1    electr: 0-lowe 1-rand  2-diag
   LASPH  =      F    aspherical Exc in radial PAW
   METAGGA=      F    non-selfconsistent MetaGGA calc.

 Electronic Relaxation 1
   ENCUT  =  450.0 eV  33.07 Ry    5.75 a.u.  19.47 19.47 38.95*2*pi/ulx,y,z
   ENINI  =  450.0     initial cutoff
   ENAUG  =  703.4 eV  augmentation charge cutoff
   NELM   =    100;   NELMIN=  2; NELMDL= -5     # of ELM steps
   EDIFF  = 0.1E-03   stopping-criterion for ELM
   LREAL  =      T    real-space projection
   NLSPLINE    = F    spline interpolate recip. space projectors
   LCOMPAT=      F    compatible to vasp.4.4
   GGA_COMPAT  = T    GGA compatible to vasp.4.4-vasp.4.6
   LMAXPAW     = -100 max onsite density
   LMAXMIX     =    2 max onsite mixed and CHGCAR
   VOSKOWN=      0    Vosko Wilk Nusair interpolation
   ROPT   =   -0.00050  -0.00050
 Ionic relaxation
   EDIFFG = 0.1E-02   stopping-criterion for IOM
   NSW    =      0    number of steps for IOM
   NBLOCK =      1;   KBLOCK =      1    inner block; outer block
   IBRION =     -1    ionic relax: 0-MD 1-quasi-New 2-CG
   NFREE  =      0    steps in history (QN), initial steepest desc. (CG)
   ISIF   =      2    stress and relaxation
   IWAVPR =     10    prediction:  0-non 1-charg 2-wave 3-comb
   ISYM   =      2    0-nonsym 1-usesym 2-fastsym
   LCORR  =      T    Harris-Foulkes like correction to forces

   POTIM  = 0.5000    time-step for ionic-motion
   TEIN   =    0.0    initial temperature
   TEBEG  =    0.0;   TEEND  =   0.0 temperature during run
   SMASS  =  -3.00    Nose mass-parameter (am)
   estimated Nose-frequenzy (Omega)   =  0.10E-29 period in steps =****** mass=  -0.290E-26a.u.
   SCALEE = 1.0000    scale energy and forces
   NPACO  =    256;   APACO  = 16.0  distance and # of slots for P.C.
   PSTRESS=    0.0 pullay stress

  Mass of Ions in am
   POMASS =  58.69 32.07
  Ionic Valenz
   ZVAL   =  16.00  6.00
  Atomic Wigner-Seitz radii
  virtual crystal weights
   VCA    =   1.00  1.00
[...]
     0.000000000  0.000000000 22.519955973     0.000000000  0.000000000  0.044405060

  length of vectors
    11.256463038 11.256463038 22.519955973     0.099375718  0.099375718  0.044405060

 FORCES acting on ions
    electron-ion (+dipol)            ewald-force                    non-local-force                 convergence-correction
   0.140E+03 -.404E+03 -.130E+04   -.141E+03 0.405E+03 0.130E+04   0.791E+00 -.935E+00 0.937E+00   0.171E-01 0.109E-01 -.470E-01
   -.309E+03 -.620E+03 -.412E+04   0.307E+03 0.623E+03 0.412E+04   0.825E+00 -.215E+01 -.160E+01   0.432E-01 0.271E-01 -.880E-01
   -.461E+03 -.178E+03 -.616E+04   0.463E+03 0.176E+03 0.615E+04   -.188E+01 0.261E+01 0.835E+01   0.440E-01 0.374E-02 0.371E-01
   0.310E+03 -.185E+03 0.482E+04   -.310E+03 0.183E+03 -.482E+04   -.163E+00 0.133E+01 0.489E+01   -.344E-02 0.280E-01 0.109E-01
   0.163E+03 -.288E+03 0.161E+04   -.162E+03 0.286E+03 -.160E+04   -.470E+00 0.779E+00 -.362E+01   -.137E-01 0.208E-01 0.414E-01
   -.307E+03 0.232E+03 0.621E+04   0.308E+03 -.233E+03 -.622E+04   -.196E+01 0.229E+01 0.591E+01   0.576E-02 -.159E-02 -.602E-02
   0.624E+02 0.675E+03 0.337E+04   -.632E+02 -.679E+03 -.337E+04   -.118E+00 0.252E+01 -.309E-01   0.193E-01 0.791E-01 -.212E-01
   0.143E+03 0.481E+03 -.150E+03   -.144E+03 -.481E+03 0.149E+03   0.699E+00 0.348E+00 0.144E+01   0.314E-01 0.108E-01 -.128E-01
   -.601E+02 0.817E+03 -.345E+04   0.584E+02 -.820E+03 0.345E+04   0.217E+01 0.283E+01 0.112E+01   0.338E-01 -.482E-01 -.820E-01
   -.455E+03 0.112E+02 -.310E+03   0.456E+03 -.991E+01 0.309E+03   -.148E+01 -.126E+01 0.265E+00   0.177E-03 0.340E-02 -.892E-03
   0.877E+02 0.201E+03 -.321E+04   -.875E+02 -.201E+03 0.321E+04   -.762E+00 -.124E+00 0.250E+01   -.449E-01 -.138E-01 -.742E-01
   0.344E+03 0.632E+03 -.558E+04   -.343E+03 -.633E+03 0.559E+04   -.132E+01 0.729E+00 -.395E+01   -.330E-01 -.429E-01 -.294E-01
   -.800E+03 0.366E+03 0.341E+04   0.804E+03 -.367E+03 -.341E+04   -.274E+01 0.161E+01 0.674E+00   -.789E-01 0.166E-01 -.264E-01
   -.456E+03 -.844E+03 0.615E+04   0.458E+03 0.841E+03 -.615E+04   -.158E+01 0.356E+01 -.247E-01   0.263E-02 0.347E-01 -.240E-01
   0.318E+03 -.365E+03 -.151E+04   -.318E+03 0.365E+03 0.151E+04   0.636E+00 -.910E+00 0.111E+01   -.259E-02 -.579E-02 0.124E-02
   0.595E+03 -.487E+03 -.491E+04   -.597E+03 0.491E+03 0.492E+04   0.169E+01 -.213E+01 -.322E+01   -.306E-01 -.604E-02 -.311E-01
   0.231E+03 -.711E+03 0.233E+04   -.232E+03 0.714E+03 -.232E+04   0.117E+01 -.280E+01 0.724E+00   0.459E-02 0.133E-01 0.939E-01
   0.417E+03 0.523E+03 0.625E+04   -.419E+03 -.523E+03 -.625E+04   0.208E+01 0.131E+01 0.427E+01   -.671E-02 -.243E-01 -.246E-01
   0.745E+03 0.639E+03 0.340E+04   -.748E+03 -.642E+03 -.340E+04   0.378E+01 0.264E+01 -.121E+00   -.312E-02 -.191E-01 0.250E-01
   0.346E+03 0.473E+03 -.341E+03   -.347E+03 -.473E+03 0.341E+03   0.161E+01 0.363E+00 0.279E+00   -.212E-01 -.212E-01 0.170E-01
   0.264E+03 0.649E+03 -.385E+04   -.264E+03 -.652E+03 0.385E+04   0.127E+01 0.220E+01 -.604E+00   -.272E-01 -.128E-01 -.378E-01
   -.575E+03 0.424E+02 -.187E+03   0.576E+03 -.420E+02 0.186E+03   -.874E+00 -.424E+00 0.105E+01   -.583E-02 -.936E-02 -.526E-02
   -.816E+03 0.605E+02 -.369E+04   0.820E+03 -.602E+02 0.369E+04   -.418E+01 -.266E+00 -.172E+01   0.388E-01 -.185E-01 -.695E-01
   -.525E+03 0.221E+03 0.306E+04   0.526E+03 -.222E+03 -.306E+04   -.640E+00 0.980E+00 -.238E+01   0.328E-01 -.240E-01 0.247E-01
   0.284E+03 -.350E+03 -.152E+04   -.285E+03 0.351E+03 0.152E+04   0.752E+00 -.128E+01 0.504E+00   -.766E-02 -.121E-01 -.488E-02
   0.374E+03 -.285E+03 -.492E+04   -.377E+03 0.289E+03 0.492E+04   0.233E+01 -.281E+01 -.481E+01   -.205E-03 -.219E-01 -.409E-01
   -.478E+03 -.387E+03 0.471E+04   0.478E+03 0.386E+03 -.472E+04   0.227E+00 0.101E+01 0.363E+01   0.527E-01 -.119E+00 -.812E-02
   0.992E+02 -.446E+02 0.163E+04   -.101E+03 0.441E+02 -.163E+04   0.175E+01 0.141E+00 -.270E+01   0.195E-01 -.175E-01 -.515E-01
   0.233E+03 -.458E+03 -.577E+04   -.234E+03 0.455E+03 0.577E+04   0.216E+01 0.231E+01 -.107E+01   -.302E-01 0.473E-01 -.207E-01
   0.510E+03 -.182E+03 0.620E+04   -.511E+03 0.183E+03 -.621E+04   0.111E+01 -.138E+01 0.555E+01   -.234E-01 0.255E-01 -.146E-01
   0.433E+03 0.476E+03 0.319E+04   -.435E+03 -.476E+03 -.319E+04   0.201E+01 0.450E+00 -.190E+01   -.381E-01 -.371E-01 0.307E-01
   0.253E+03 0.471E+03 -.428E+03   -.254E+03 -.471E+03 0.427E+03   0.155E+01 0.483E+00 0.270E+00   -.151E-01 -.652E-03 0.235E-01
   0.132E+03 0.457E+03 -.385E+04   -.134E+03 -.461E+03 0.385E+04   0.187E+01 0.429E+01 -.251E+01   0.117E-01 0.120E-02 -.371E-01
   -.506E+03 -.117E+03 -.421E+03   0.508E+03 0.118E+03 0.420E+03   -.134E+01 -.681E+00 0.896E+00   -.688E-01 0.259E-01 0.352E-01
   -.636E+03 -.222E+03 -.379E+04   0.641E+03 0.222E+03 0.379E+04   -.498E+01 -.560E+00 -.202E+01   0.947E-03 0.209E-01 -.648E-01
   -.495E+03 -.393E+03 0.267E+04   0.498E+03 0.395E+03 -.266E+04   -.301E+01 -.197E+01 -.264E+01   0.424E-02 0.184E-01 0.517E-01
   0.228E+03 -.442E+03 -.148E+04   -.228E+03 0.442E+03 0.147E+04   0.888E+00 -.379E+00 0.159E+01   0.134E-01 -.402E-02 -.235E-01
   0.392E+03 -.557E+03 -.500E+04   -.395E+03 0.559E+03 0.501E+04   0.134E+01 -.235E+01 -.290E+01   -.469E-02 0.203E-01 -.769E-01
   0.544E+03 0.186E+03 0.454E+04   -.545E+03 -.189E+03 -.455E+04   0.106E+01 0.222E+01 0.370E+01   -.260E-01 -.212E-01 0.609E-02
   0.323E+03 0.347E+02 0.154E+04   -.324E+03 -.369E+02 -.153E+04   0.101E+01 0.132E+01 -.432E+01   -.329E-02 -.217E-01 0.433E-01
   -.130E+03 -.385E+03 0.619E+04   0.128E+03 0.390E+03 -.619E+04   0.182E+01 -.444E+01 0.140E+01   0.949E-02 -.324E-02 -.192E-01
   0.105E+03 -.179E+03 0.271E+04   -.105E+03 0.181E+03 -.271E+04   0.619E+00 -.127E+01 -.324E+01   0.200E-01 0.435E-02 0.804E-01
   0.269E+03 0.377E+03 -.441E+03   -.271E+03 -.378E+03 0.441E+03   0.167E+01 0.601E+00 0.193E+00   0.222E-01 0.845E-01 0.307E-01
   0.500E+03 0.474E+02 -.344E+04   -.504E+03 -.502E+02 0.343E+04   0.426E+01 0.237E+01 0.149E+01   -.143E-01 0.336E-01 -.765E-01
   -.527E+03 -.499E+02 -.451E+03   0.529E+03 0.511E+02 0.451E+03   -.141E+01 -.100E+01 0.375E+00   0.184E-01 0.106E-01 0.359E-01
   -.581E+03 0.592E+02 -.390E+04   0.587E+03 -.595E+02 0.390E+04   -.551E+01 0.606E-01 -.247E+01   0.572E-02 -.567E-02 -.433E-01
   -.301E+03 -.657E+03 0.346E+04   0.302E+03 0.660E+03 -.346E+04   -.597E+00 -.254E+01 0.155E+01   -.453E-02 -.109E-02 0.645E-01
   -.219E+03 0.424E+03 0.577E+04   0.224E+03 -.423E+03 -.577E+04   -.477E+01 -.163E+01 0.206E+01   0.816E-01 -.529E-01 -.163E-02
   -.271E+02 0.152E+03 -.528E+03   0.284E+02 -.154E+03 0.526E+03   -.127E+01 0.190E+01 0.117E+01   -.564E-02 -.714E-02 -.104E-01
   0.171E+03 0.322E+03 -.186E+04   -.173E+03 -.323E+03 0.187E+04   0.101E+01 0.104E-01 -.120E+01   -.151E-01 -.158E-01 -.183E-01
   -.302E+03 0.385E+03 0.225E+04   0.304E+03 -.389E+03 -.225E+04   -.626E+00 0.112E+01 0.896E+00   -.278E-01 0.540E-01 -.495E-02
   -.132E+03 0.140E+03 0.866E+03   0.133E+03 -.142E+03 -.868E+03   -.882E+00 0.971E+00 0.167E+01   0.456E-02 0.531E-02 0.149E-01
   0.350E+03 0.164E+02 -.233E+04   -.350E+03 -.152E+02 0.234E+04   0.594E-01 -.282E+00 -.276E+01   -.321E-01 -.469E-02 -.376E-02
   -.158E+03 -.180E+03 -.100E+04   0.159E+03 0.183E+03 0.100E+04   -.120E+01 -.288E+01 -.326E+00   0.725E-02 0.667E-02 -.293E-01
   -.212E+03 -.375E+03 0.166E+04   0.214E+03 0.378E+03 -.166E+04   -.218E+00 -.228E+01 0.448E+00   0.510E-03 0.234E-01 0.538E-02
   -.101E+03 -.177E+03 0.205E+03   0.102E+03 0.180E+03 -.205E+03   -.132E+01 -.271E+01 0.442E+00   0.387E-02 0.754E-03 0.171E-01
   0.120E+03 0.279E+03 0.167E+04   -.122E+03 -.282E+03 -.168E+04   0.109E+01 0.208E+01 0.186E+01   0.575E-01 0.336E-02 -.164E-01
   0.141E+03 0.266E+02 0.241E+03   -.144E+03 -.264E+02 -.241E+03   0.280E+01 -.292E+00 0.357E+00   0.586E-02 0.727E-02 -.610E-03
   0.129E+03 0.262E+02 -.822E+03   -.131E+03 -.258E+02 0.822E+03   0.231E+01 -.349E+00 0.402E+00   0.476E-03 0.145E-02 -.371E-01
   -.210E+03 0.553E+03 -.219E+04   0.209E+03 -.559E+03 0.220E+04   0.251E+00 0.380E+01 -.215E+01   0.160E-01 -.300E-01 -.747E-02
[...]
   0.167E+03 -.222E+02 -.108E+04   -.170E+03 0.224E+02 0.108E+04   0.301E+01 0.964E-01 -.641E+00   -.588E-03 0.785E-03 -.190E-01
   0.135E+03 0.859E+02 -.234E+04   -.138E+03 -.877E+02 0.234E+04   0.159E+01 0.975E+00 -.245E-01   0.411E-02 -.241E-02 -.912E-02
   -.675E+02 0.120E+03 -.563E+03   0.683E+02 -.121E+03 0.562E+03   -.111E+01 0.176E+01 0.656E-01   -.827E-03 0.216E-02 -.388E-03
   -.579E+02 0.954E+02 -.186E+04   0.582E+02 -.958E+02 0.186E+04   0.301E+00 -.446E+00 -.645E+00   -.410E-02 0.378E-02 -.134E-01
   -.183E+03 -.425E+03 0.236E+04   0.185E+03 0.429E+03 -.236E+04   -.166E+01 -.301E+01 0.300E+01   0.135E-01 -.310E-02 -.327E-02
   -.324E+02 0.600E+02 0.520E+03   0.322E+02 -.621E+02 -.519E+03   0.595E-02 0.212E+01 -.188E+00   0.519E-02 -.334E-02 0.258E-01
   -.217E+03 -.749E+01 -.235E+04   0.221E+03 0.885E+01 0.236E+04   -.179E+01 -.917E+00 -.488E+00   0.400E-02 -.879E-02 -.805E-02
   -.847E+02 -.178E+03 -.107E+04   0.858E+02 0.181E+03 0.107E+04   -.613E+00 -.289E+01 -.218E+00   -.234E-01 0.215E-02 -.415E-01
   -.512E+02 0.208E+02 0.148E+04   0.520E+02 -.189E+02 -.148E+04   -.120E+00 -.104E+01 -.140E+01   0.572E-02 -.102E-01 0.820E-02
   -.606E+02 -.129E+03 0.158E+03   0.617E+02 0.131E+03 -.158E+03   -.106E+01 -.276E+01 0.174E+00   0.110E-01 0.848E-03 0.139E-01
   -.155E+03 -.444E+03 0.150E+04   0.153E+03 0.448E+03 -.150E+04   0.848E+00 -.281E+01 -.822E+00   0.971E-02 0.150E-01 0.198E-01
   0.150E+03 -.658E+02 0.175E+03   -.153E+03 0.658E+02 -.176E+03   0.264E+01 -.235E+00 0.624E+00   0.287E-01 0.169E-01 0.403E-01
   0.197E+03 -.208E+02 -.109E+04   -.199E+03 0.207E+02 0.109E+04   0.241E+01 -.211E+00 0.169E+00   0.793E-02 0.242E-01 -.378E-01
   0.221E+03 -.198E+03 -.237E+04   -.226E+03 0.198E+03 0.238E+04   0.359E+01 0.631E+00 -.218E+01   -.767E-02 0.126E-01 -.532E-02
   -.113E+02 0.385E+01 -.253E+02   -.114E-12 -.625E-12 0.118E-10   0.111E+02 -.375E+01 0.262E+02   0.326E-01 -.304E-01 -.627E+00

 POSITION                                       TOTAL-FORCE (eV/Angst)
      5.35228      4.81788      6.64784         0.289526     -0.387570     -0.195340
      5.93595      3.87238      9.58390        -1.057702      0.666385     -2.120023
      6.15005      3.45817     11.88746        -0.512712      0.344992      1.229155
      1.30660      2.02832      2.08149         0.429317     -0.044359     -0.735030
      2.24633      0.73197      3.71178         0.515519     -0.687361      1.614422
      5.15523      5.34129      1.20938        -0.369507      1.084177     -1.742184
      4.76861      3.35453      2.93606        -0.873411     -0.895634      1.676336
      5.35228      2.40903      5.87212         0.021359      0.106047     -0.096465
      5.93595      1.46353      8.80817         0.518657     -0.262755     -1.977242
      1.87746      3.73836      5.87212        -0.041488      0.079755     -0.018988
      2.46113      2.79286      8.80817        -0.555007      0.072303     -3.085281
      3.99741      2.59853     10.54451        -0.419769     -0.035268      0.882383
      6.92203      4.68386      2.93606         1.566603     -0.204623      1.914422
      5.00040      0.04427      0.73133         0.223920      0.556778     -1.111195
     10.98051      4.81788      6.64784         0.210784     -0.482977     -0.058989
     11.56418      3.87238      9.58390        -0.113963      1.844289     -1.820254
      7.87456      0.73197      3.71178        -0.424065      0.133489      1.219047
     10.69848      5.25178      1.02401        -0.220000      0.719124     -1.591043
     10.39684      3.35453      2.93606        -0.000620      0.024101      0.694245
     10.98051      2.40903      5.87212        -0.057297     -0.074888      0.071449
     11.56418      1.46353      8.80817         0.815477     -0.671931     -2.091927
      7.50570      3.73836      5.87212        -0.109898     -0.058262     -0.019266
      8.08937      2.79286      8.80817         0.256483     -0.021418     -1.574323
     12.55026      4.68386      2.93606         0.500261     -0.175888      0.205533
      7.87456      9.84929      6.64784         0.204090     -0.403137     -0.244913
      8.45823      8.90379      9.58390        -1.131207      1.998105     -2.432588
      4.42645      7.58648      2.09715         0.666808     -0.118083     -1.041843
      4.76861      5.76338      3.71178        -0.425101     -0.436463      1.453987
      3.46742      5.10657     10.69691         0.626393      0.080719      1.088183
      2.54766      0.25419      1.02003        -0.328649      0.299500     -1.614808
      7.29089      8.38594      2.93606         0.214538      0.474948      0.800828
      7.87456      7.44044      5.87212        -0.004215      0.077515     -0.056532
      8.45823      6.49494      8.80817        -0.084589     -0.631589     -2.601483
      4.39975      8.76977      5.87212        -0.017985      0.025903     -0.060885
      4.98341      7.82427      8.80817         0.459440      0.055789     -2.409189
      9.44431      9.71527      2.93606        -0.092035     -0.112632      2.160621
     13.50279      9.84929      6.64784         0.211276     -0.237194     -0.074576
     14.08646      8.90379      9.58390        -1.513708      0.137673     -1.517889
      9.69127      7.19412      2.05781         0.025959     -0.705795     -0.671137
     10.39684      5.76338      3.71178        -0.036366     -0.877900      1.600357
     11.82712      8.35367      0.86300        -0.295761     -0.085013     -1.118238
     12.91912      8.38594      2.93606         0.146881     -0.007696      2.972744
     13.50279      7.44044      5.87212        -0.126706      0.099703      0.151014
     14.08646      6.49494      8.80817         0.031829     -0.321087     -2.692669
     10.02798      8.76977      5.87212         0.059433      0.145261     -0.060884
     10.61165      7.82427      8.80817         0.637933     -0.195909     -2.581374
     15.07254      9.71527      2.93606         0.442200      0.234185      0.926031
     13.65152      6.57444      1.26755        -0.076214     -0.684371     -0.610279
      1.66190      1.67871      7.01153         0.006945     -0.206747     -0.209180
      2.84618      0.96086      9.78008        -0.964259     -1.324559      1.654949
      6.11694      3.56916      1.41102         1.272115     -2.111766     -3.397563
      6.70646      2.62422      4.07548        -0.048011     -0.208644      0.248856
      2.10257      3.57994     10.71689        -0.648536      0.884855      3.320925
      7.29013      4.74605      7.99931         0.116243     -0.102885     -0.675980
      3.60051      1.60565      2.12720         1.246033      1.466604      0.170938
      4.18418      0.66015      5.06325         0.002100      0.057195     -0.002306
      3.38071      4.94434      2.12720        -1.175523     -0.826653      0.485820
      3.96438      3.99884      5.06325        -0.144723     -0.085650     -0.068833
      4.54805      3.05334      7.99931         0.085213      0.066591     -0.594768
      5.83215      1.78925     10.83837        -0.312245     -2.219819      2.439753
[...]
      6.48666      9.03025      5.06325        -0.094320      0.086371      0.208959
      7.07033      8.08475      7.99931        -0.055452      0.323030     -0.366855
      7.85933      7.24882     10.55984        -0.941141     -0.848990      3.933000
      9.81241      6.71012      7.01153        -0.258382      0.190465     -0.971561
     10.38328      5.78422      9.41168         0.641814     -0.824422      2.030708
     14.05617      8.65203      1.21574         0.740109      0.993492     -3.033205
     14.85697      7.65563      4.07548        -0.128293     -0.012677      0.877249
     10.19366      8.64519     10.57687         1.389494      0.429290      4.121303
     15.44064      9.77746      7.99931         0.394280      0.156543     -0.942888
     11.75102      6.63706      2.12720         0.692799      0.789849      0.511452
     12.33469      5.69156      5.06325         0.056786      0.057312     -0.108662
     11.50624      9.92930      2.23671        -0.392598      1.174409     -0.247447
     12.11489      9.03025      5.06325        -0.305598     -0.237916      0.077197
     12.69856      8.08475      7.99931        -0.200819     -0.280636      0.076276
     14.00212      7.09526     10.72276        -1.216564      0.177536      3.659896
    total drift:                               -0.211014      0.074013      0.234792

  FREE ENERGIE OF THE ION-ELECTRON SYSTEM (eV)
  free  energy   TOTEN  =      -466.92713268 eV

  energy  without entropy=     -465.63093546  energy(sigma->0) =     -466.27903407