 vasp.5.4.4.18Apr17-6-g9f103f2a35 (build Aug 13 2019 17:33:20) gamma-only

 executed on             LinuxIFC date 2020.05.12  00:09:40

 INCAR:
 POTCAR:    PAW_PBE Ni_pv 06Sep2000
 POTCAR:    PAW_PBE S 06Sep2000
 POTCAR:    PAW_PBE Ni_pv 06Sep2000
   VRHFIN =Ni:

   TITEL  = PAW_PBE Ni_pv 06Sep2000
   POMASS =   58.690; ZVAL   =   16.000    mass and valenz
   ENMAX  =  367.986; ENMIN  =  275.989 eV

 POTCAR:    PAW_PBE S 06Sep2000
   VRHFIN =S : s2p4

   TITEL  = PAW_PBE S 06Sep2000
   POMASS =   32.066; ZVAL   =    6.000    mass and valenz
   ENMAX  =  258.689; ENMIN  =  194.016 eV

 Optimization of the real space projectors (new method)

 maximal supplied QI-value         = 18.90
 optimisation between [QCUT,QGAM] = [ 10.77, 21.73] = [ 32.49,132.25] Ry
 Optimized for a Real-space Cutoff    1.38 Angstroem

   l    n(q)    QCUT    max X(q) W(low)/X(q) W(high)/X(q)  e(spline)
   1      8    10.771     2.836    0.40E-04    0.29E-04    0.12E-06
   1      8    10.771     4.023    0.10E-03    0.48E-04    0.29E-06
   2      8    10.771    73.368    0.42E-03    0.97E-04    0.44E-06
   2      8    10.771    69.010    0.42E-03    0.99E-04    0.45E-06
   0      9    10.771    54.797    0.10E-03    0.56E-04    0.74E-07
   0      9    10.771    24.266    0.89E-04    0.49E-04    0.67E-07
 Optimization of the real space projectors (new method)

 maximal supplied QI-value         = 19.84
 optimisation between [QCUT,QGAM] = [ 10.71, 21.63] = [ 32.15,130.99] Ry
 Optimized for a Real-space Cutoff    1.19 Angstroem

   l    n(q)    QCUT    max X(q) W(low)/X(q) W(high)/X(q)  e(spline)
   0      8    10.715   187.594    0.41E-03    0.53E-04    0.66E-07
   0      8    10.715   164.243    0.41E-03    0.53E-04    0.65E-07
   1      7    10.715    67.533    0.19E-03    0.59E-03    0.68E-07
   1      7    10.715    50.729    0.19E-03    0.58E-03    0.67E-07
  PAW_PBE Ni_pv 06Sep2000               :
  PAW_PBE S 06Sep2000                   :

 POSCAR: Type_037 Type_137
  positions in cartesian coordinates
 exchange correlation table for  LEXCH =        8
   RHO(1)=    0.500       N(1)  =     2000
   RHO(2)=  100.500       N(2)  =     4000

 ion  position               nearest neighbor table
   1  0.759  0.068  0.077-  65 2.05  51 2.06  42 2.17  66 2.18   2 2.41  36 2.54
   2  0.752  0.133  0.216-  43 2.00  66 2.07  52 2.17  24 2.35  42 2.38   1 2.41
   3  0.217  0.620  0.091-  44 2.04  45 2.05  63 2.16  15 2.45   4 2.49  53 2.50
   4  0.297  0.645  0.216-  54 2.07  46 2.20  53 2.26  63 2.26  45 2.30   3 2.49  35 2.50  16 2.53
                            29 2.53
   5  0.383  0.207  0.133-  55 2.02  47 2.05  48 2.10  34 2.34  28 2.38   6 2.47
   6  0.470  0.145  0.247-  56 2.08  70 2.12  48 2.25  55 2.26  69 2.26   5 2.47  32 2.53  19 2.53

   7  0.952  0.645  0.154-  58 2.11  68 2.12  57 2.16  49 2.25  67 2.36   8 2.44  33 2.53  20 2.53

   8  0.959  0.652  0.300-  50 2.02  67 2.04  57 2.04   7 2.44
   9  0.074  0.150  0.049-  39 2.04  59 2.08  73 2.09  10 2.42  14 2.53
  10  0.125  0.145  0.185-  38 2.09  73 2.12  59 2.13  74 2.24  11 2.36  60 2.36   9 2.42  27 2.45
                            14 2.53  34 2.53  22 2.53
  11  0.114  0.147  0.326-  60 2.06  74 2.06  38 2.06  10 2.36
  12  0.569  0.643  0.162-  40 2.00  41 2.16  71 2.19  61 2.23  13 2.29
  13  0.642  0.645  0.278-  62 2.02  72 2.05  41 2.25  61 2.26  71 2.26  12 2.29  17 2.49  37 2.53
                            25 2.53
  14  0.008  0.992  0.151-  39 2.11  58 2.14  38 2.15  57 2.18  73 2.21  33 2.42  10 2.53   9 2.53

[...]

  20  0.080  0.513  0.130-  44 2.07  59 2.13  68 2.14  45 2.33  67 2.36  27 2.44  21 2.51   7 2.53
                            33 2.53
  21  0.125  0.510  0.274-  60 2.05  45 2.07  46 2.11  67 2.16  20 2.51
  22  0.252  0.013  0.161-  47 2.08  74 2.12  53 2.25  73 2.33  48 2.36  23 2.38  10 2.53  34 2.53

[...]

  34  0.252  0.277  0.161-  47 2.23  63 2.25  59 2.27  35 2.33   5 2.34  48 2.36  60 2.36  10 2.53
                            22 2.53
  35  0.298  0.402  0.271-  46 2.03  64 2.05  60 2.26  34 2.33   4 2.50  48 2.58  63 2.60
  36  0.754  0.808  0.104-  65 2.04  49 2.07  66 2.08  61 2.11  37 2.52  18 2.53   1 2.54
  37  0.770  0.777  0.253-  62 2.02  50 2.09  66 2.20  61 2.26  49 2.26  36 2.52  13 2.53  25 2.53

  38  0.019  0.135  0.250-  11 2.06  10 2.09  14 2.15  27 2.15
  39  0.957  0.150  0.080-   9 2.04  26 2.08  14 2.11  27 2.15
  40  0.474  0.645  0.091-  15 1.99  12 2.00  16 2.26  29 2.26
  41  0.509  0.645  0.276-  17 2.01  30 2.06  12 2.16  13 2.25  29 2.36  16 2.36  64 2.68
  42  0.647  0.145  0.122-  31 2.09  18 2.12   1 2.17  19 2.26  32 2.26  24 2.27   2 2.38
  43  0.665  0.140  0.298-   2 2.00  19 2.09  32 2.16  56 2.55
  44  0.111  0.644  0.036-   3 2.04  20 2.07  33 2.09
  45  0.163  0.667  0.198-   3 2.05  21 2.07  33 2.09   4 2.30  20 2.33  46 2.61
  46  0.236  0.561  0.322-  35 2.03  21 2.11   4 2.20  45 2.61  60 2.70  54 2.75
  47  0.292  0.132  0.064-   5 2.05  22 2.08  28 2.15  34 2.23
  48  0.336  0.145  0.245-  23 2.05   5 2.10   6 2.25  22 2.36  34 2.36  35 2.58
  49  0.819  0.645  0.153-  36 2.07   7 2.25  25 2.26  37 2.26
  50  0.841  0.642  0.320-   8 2.02  25 2.05  37 2.09  62 2.79
  51  0.781  0.261  0.027-  26 2.04  24 2.05   1 2.06
  52  0.829  0.314  0.215-  26 2.07  24 2.14   2 2.17  25 2.25
  53  0.312  0.814  0.122-  15 2.04  28 2.06  22 2.25   4 2.26  29 2.26   3 2.50
  54  0.355  0.754  0.306-  30 2.01  23 2.01   4 2.07  29 2.24  46 2.75
  55  0.484  0.314  0.153-   5 2.02  31 2.05  16 2.25   6 2.26  32 2.26
  56  0.533  0.252  0.335-  17 2.01   6 2.08  32 2.18  43 2.55  70 2.55  64 2.66
  57  0.001  0.809  0.229-   8 2.04  33 2.15   7 2.16  14 2.18  58 2.55
  58  0.970  0.819  0.079-  33 2.07   7 2.11  14 2.14  57 2.55
  59  0.133  0.316  0.104-   9 2.08  10 2.13  20 2.13  34 2.27  27 2.28
  60  0.174  0.314  0.276-  21 2.05  11 2.06  35 2.26  10 2.36  34 2.36  46 2.70
  61  0.657  0.814  0.184-  36 2.11  18 2.12  12 2.23  19 2.25  37 2.26  13 2.26
  62  0.699  0.780  0.351-  37 2.02  13 2.02  50 2.79
  63  0.312  0.477  0.122-  15 2.06   3 2.16  34 2.25   4 2.26  16 2.26  35 2.60
  64  0.414  0.427  0.306-  35 2.05  16 2.09  17 2.27  56 2.66  41 2.68
  65  0.716  0.913  0.004-  18 2.04  36 2.04   1 2.05
  66  0.808  0.953  0.178-   2 2.07  36 2.08   1 2.18  37 2.20
  67  0.001  0.477  0.246-   8 2.04  21 2.16  27 2.23  20 2.36   7 2.36  68 2.74
  68  0.965  0.460  0.085-  26 2.12   7 2.12  20 2.14  27 2.15  67 2.74
  69  0.484  0.977  0.153-  31 2.03  28 2.10  29 2.25   6 2.26  19 2.26
  70  0.521  0.987  0.320-  30 1.98  19 2.09   6 2.12  56 2.55
  71  0.657  0.477  0.184-  24 2.09  12 2.19  32 2.25  25 2.26  13 2.26  72 2.56
  72  0.673  0.465  0.337-  13 2.05  17 2.17  25 2.20  71 2.56
  73  0.129  0.978  0.103-   9 2.09  10 2.12  33 2.14  14 2.21  22 2.33
  74  0.191  0.009  0.272-  11 2.06  22 2.12  23 2.15  10 2.24

  LATTYP: Found a simple orthorhombic cell.
 ALAT       =     9.5784100000
 B/A-ratio  =     1.7387693453
 C/A-ratio  =     1.7627867312

  Lattice vectors:

 A1 = (   0.0000000000,   9.5784100000,   0.0000000000)
 A2 = (   0.0000000000,   0.0000000000, -16.6546456851)
 A3 = ( -16.8846940542,   0.0000000000,   0.0000000000)

Analysis of symmetry for initial positions (statically):
 Subroutine PRICEL returns:
 Original cell was already a primitive cell.

 Routine SETGRP: Setting up the symmetry group for a
 simple orthorhombic supercell.

 Subroutine GETGRP returns: Found  1 space group operations
 (whereof  1 operations were pure point group operations)
 out of a pool of  8 trial point group operations.

The static configuration has the point symmetry C_1 .

Analysis of symmetry for dynamics (positions and initial velocities):
 Subroutine PRICEL returns:
 Original cell was already a primitive cell.

 Routine SETGRP: Setting up the symmetry group for a
 simple orthorhombic supercell.

 Subroutine GETGRP returns: Found  1 space group operations
 (whereof  1 operations were pure point group operations)
 out of a pool of  8 trial point group operations.

The dynamic configuration has the point symmetry C_1 .

 Subroutine INISYM returns: Found  1 space group operations
 (whereof  1 operations are pure point group operations),
 and found     1 'primitive' translations

 KPOINTS: gamma-point-only calculation. no periodi

Automatic generation of k-mesh.
Space group operators:
 irot       det(A)        alpha          n_x          n_y          n_z        tau_x        tau_y        tau_z
    1     1.000000     0.000000     1.000000     0.000000     0.000000     0.000000     0.000000     0.000000

 Subroutine IBZKPT returns following result:

 Found      1 irreducible k-points:

 Following reciprocal coordinates:
            Coordinates               Weight
  0.000000  0.000000  0.000000      1.000000

 Following cartesian coordinates:
            Coordinates               Weight
  0.000000  0.000000  0.000000      1.000000

 SYSTEM =  "Millerite NiS"
 POSCAR =  Type_037 Type_137

 Startparameter for this run:
   NWRITE =      2    write-flag & timer
   PREC   = normal    normal or accurate (medium, high low for compatibility)
   ISTART =      0    job   : 0-new  1-cont  2-samecut
   ICHARG =      2    charge: 1-file 2-atom 10-const
   ISPIN  =      1    spin polarized calculation?
   LNONCOLLINEAR =      F non collinear calculations
   LSORBIT =      F    spin-orbit coupling
   INIWAV =      1    electr: 0-lowe 1-rand  2-diag
   LASPH  =      F    aspherical Exc in radial PAW
   METAGGA=      F    non-selfconsistent MetaGGA calc.

 Electronic Relaxation 1
   ENCUT  =  450.0 eV  33.07 Ry    5.75 a.u.  29.20 16.57 28.81*2*pi/ulx,y,z
   ENINI  =  450.0     initial cutoff
   ENAUG  =  703.4 eV  augmentation charge cutoff
   NELM   =    100;   NELMIN=  2; NELMDL= -5     # of ELM steps
   EDIFF  = 0.1E-03   stopping-criterion for ELM
   LREAL  =      T    real-space projection
   NLSPLINE    = F    spline interpolate recip. space projectors
   LCOMPAT=      F    compatible to vasp.4.4
   GGA_COMPAT  = T    GGA compatible to vasp.4.4-vasp.4.6
   LMAXPAW     = -100 max onsite density
   LMAXMIX     =    2 max onsite mixed and CHGCAR
   VOSKOWN=      0    Vosko Wilk Nusair interpolation
   ROPT   =   -0.00050  -0.00050
 Ionic relaxation
   EDIFFG = 0.1E-02   stopping-criterion for IOM
   NSW    =      0    number of steps for IOM
   NBLOCK =      1;   KBLOCK =      1    inner block; outer block
   IBRION =     -1    ionic relax: 0-MD 1-quasi-New 2-CG
   NFREE  =      0    steps in history (QN), initial steepest desc. (CG)
   ISIF   =      2    stress and relaxation
   IWAVPR =     10    prediction:  0-non 1-charg 2-wave 3-comb
   ISYM   =      2    0-nonsym 1-usesym 2-fastsym
   LCORR  =      T    Harris-Foulkes like correction to forces

   POTIM  = 0.5000    time-step for ionic-motion
   TEIN   =    0.0    initial temperature
   TEBEG  =    0.0;   TEEND  =   0.0 temperature during run
   SMASS  =  -3.00    Nose mass-parameter (am)
   estimated Nose-frequenzy (Omega)   =  0.10E-29 period in steps =****** mass=  -0.652E-26a.u.
   SCALEE = 1.0000    scale energy and forces
   NPACO  =    256;   APACO  = 16.0  distance and # of slots for P.C.
   PSTRESS=    0.0 pullay stress

[...]
     0.000000000  9.578410000  0.000000000     0.000000000  0.104401461  0.000000000
     0.000000000  0.000000000 16.654645685     0.000000000  0.000000000  0.060043307

  length of vectors
    16.884694054  9.578410000 16.654645685     0.059225237  0.104401461  0.060043307

 FORCES acting on ions
    electron-ion (+dipol)            ewald-force                    non-local-force                 convergence-correction
   -.812E+03 0.793E+01 0.300E+04   0.816E+03 -.707E+01 -.300E+04   -.316E+01 -.105E+01 0.631E+01   0.366E-02 0.539E-02 0.140E-02
   -.111E+04 0.166E+03 -.180E+04   0.112E+04 -.167E+03 0.180E+04   -.426E+01 0.217E+00 -.480E+01   -.101E-01 -.253E-02 -.327E-02
   0.271E+03 -.293E+02 0.300E+04   -.272E+03 0.285E+02 -.300E+04   0.152E+01 0.628E+00 0.680E+01   -.139E-01 -.131E-02 -.712E-03
   0.647E+03 -.256E+03 -.120E+04   -.647E+03 0.254E+03 0.120E+04   -.985E-01 0.169E+01 -.310E+01   -.153E-01 -.246E-02 -.106E-01
   -.828E+02 -.505E+03 0.204E+04   0.830E+02 0.505E+03 -.204E+04   0.495E+00 0.226E+00 0.320E+01   0.456E-02 0.134E-01 0.104E-01
   0.302E+03 -.257E+01 -.211E+04   -.307E+03 0.228E+01 0.211E+04   0.390E+01 -.305E+00 -.339E+01   0.186E-01 0.399E-02 0.245E-02
   0.817E+03 -.136E+03 0.949E+03   -.823E+03 0.135E+03 -.951E+03   0.529E+01 0.452E+00 0.239E+01   0.665E-02 0.146E-02 -.255E-01
   0.378E+02 -.247E+03 -.339E+04   -.421E+02 0.247E+03 0.339E+04   0.458E+01 0.224E+00 0.649E+00   -.101E-02 0.241E-02 -.143E-01
   0.121E+03 0.804E+02 0.407E+04   -.121E+03 -.786E+02 -.407E+04   -.187E+00 -.179E+01 0.315E+01   -.806E-02 -.149E-02 0.699E-02
   0.282E+03 0.234E+03 -.353E+03   -.279E+03 -.234E+03 0.354E+03   -.539E+00 -.222E+00 0.195E+00   0.206E-02 -.198E-02 -.546E-02
   0.691E+03 0.264E+03 -.405E+04   -.692E+03 -.264E+03 0.405E+04   0.696E+00 0.576E+00 0.298E+01   0.355E-02 -.767E-03 -.113E-01
   -.462E+03 0.166E+03 0.177E+04   0.464E+03 -.165E+03 -.177E+04   -.178E+01 -.329E+00 0.426E+01   0.962E-02 -.682E-03 0.545E-02
   -.402E+03 -.266E+03 -.248E+04   0.403E+03 0.270E+03 0.248E+04   -.754E+00 -.365E+01 -.703E+01   -.136E-02 0.710E-02 -.207E-02
   0.104E+04 0.284E+03 0.344E+03   -.104E+04 -.284E+03 -.342E+03   0.460E+01 -.482E+00 -.781E+00   -.534E-02 -.799E-02 -.562E-02
   -.243E+03 0.162E+03 0.404E+04   0.242E+03 -.162E+03 -.405E+04   0.683E+00 -.565E+00 0.517E+01   -.206E-01 -.103E-01 0.249E-02
   -.318E+03 0.387E+03 0.247E+03   0.317E+03 -.389E+03 -.248E+03   0.155E+01 0.195E+01 -.157E+00   0.397E-02 -.965E-02 0.323E-02
   -.569E+02 0.742E+02 -.339E+04   0.600E+02 -.764E+02 0.340E+04   -.278E+01 0.250E+01 -.418E+01   0.215E-02 -.845E-02 -.825E-02
   0.237E+03 0.535E+03 0.321E+04   -.238E+03 -.536E+03 -.321E+04   -.745E+00 0.326E+00 0.655E+01   -.115E-02 0.653E-02 0.151E-01
   -.528E+03 0.463E+03 -.139E+04   0.531E+03 -.468E+03 0.139E+04   -.273E+01 0.418E+01 -.497E+01   0.456E-02 0.643E-02 0.109E-02
   0.265E+03 0.532E+02 0.167E+04   -.263E+03 -.537E+02 -.167E+04   -.170E+01 0.581E+00 0.289E+01   0.820E-02 0.122E-01 -.148E-01
   0.550E+03 -.240E+03 -.301E+04   -.552E+03 0.239E+03 0.301E+04   0.881E+00 0.152E+01 -.643E+00   0.865E-02 0.372E-02 -.182E-01
   0.553E+03 0.481E+03 0.859E+03   -.556E+03 -.482E+03 -.861E+03   0.174E+01 0.870E+00 0.208E+01   -.129E-01 -.229E-02 0.469E-02
   0.486E+03 -.156E+02 -.319E+04   -.486E+03 0.112E+02 0.319E+04   -.237E-01 0.496E+01 -.171E+01   -.199E-02 0.288E-02 -.172E-02
   -.944E+02 -.769E+03 0.181E+04   0.953E+02 0.773E+03 -.182E+04   -.132E+01 -.247E+01 0.357E+01   0.554E-02 -.332E-02 -.342E-02
   -.842E+03 0.463E+03 -.178E+04   0.846E+03 -.468E+03 0.178E+04   -.438E+01 0.326E+01 -.268E+01   -.634E-02 -.183E-02 -.602E-02
   -.347E+02 -.236E+03 0.216E+04   0.336E+02 0.238E+03 -.216E+04   0.164E+01 -.183E+01 0.195E+01   0.424E-02 -.185E-03 -.419E-02
   0.826E+03 -.373E+02 0.597E+01   -.829E+03 0.367E+02 -.247E+01   0.129E+01 0.138E+01 -.306E+01   -.143E-01 0.388E-02 -.117E-01
   -.118E+03 0.230E+03 0.352E+04   0.117E+03 -.226E+03 -.352E+04   0.108E+01 -.381E+01 0.107E+01   -.143E-02 0.983E-03 0.163E-02
   -.316E+03 -.274E+03 0.683E+02   0.316E+03 0.275E+03 -.687E+02   -.409E+00 -.161E+01 -.168E+00   0.390E-02 -.394E-02 0.648E-02
   -.131E+03 -.101E+03 -.403E+04   0.134E+03 0.103E+03 0.403E+04   -.284E+01 -.314E+01 0.287E+01   0.814E-02 0.317E-02 -.630E-03
   -.163E+03 -.450E+03 0.352E+04   0.162E+03 0.451E+03 -.353E+04   0.402E+00 -.962E+00 0.467E+01   0.173E-01 0.338E-02 0.114E-01
   -.556E+03 -.360E+03 -.760E+03   0.557E+03 0.364E+03 0.761E+03   -.329E+00 -.367E+01 -.930E+00   -.327E-02 -.103E-01 0.116E-03
   0.914E+02 -.315E+03 0.135E+04   -.882E+02 0.316E+03 -.135E+04   -.264E+01 -.114E+00 0.152E+01   0.515E-02 -.732E-02 -.818E-02
   0.343E+03 -.273E+03 0.106E+04   -.345E+03 0.274E+03 -.106E+04   0.105E+01 -.104E+01 0.241E+01   -.660E-02 0.709E-02 -.353E-02
   0.177E+03 0.245E+03 -.288E+04   -.179E+03 -.246E+03 0.288E+04   0.150E+01 -.481E+00 -.454E+01   0.274E-02 0.391E-03 -.887E-02
   -.700E+03 0.747E+03 0.251E+04   0.703E+03 -.751E+03 -.252E+04   -.278E+01 0.301E+01 0.694E+01   -.188E-02 0.400E-02 0.797E-02
   -.920E+03 -.590E+03 -.199E+04   0.923E+03 0.595E+03 0.199E+04   -.294E+01 -.413E+01 -.658E+01   -.117E-01 0.687E-02 -.274E-02
   0.591E+03 0.122E+03 -.107E+04   -.596E+03 -.122E+03 0.107E+04   0.294E+01 0.255E+00 -.108E+01   -.327E-02 -.151E-02 -.711E-02
   0.358E+03 0.187E+03 0.110E+04   -.359E+03 -.190E+03 -.110E+04   0.715E+00 0.159E+01 0.267E+01   -.916E-02 0.289E-02 0.310E-02
   -.325E+03 0.886E+02 0.140E+04   0.328E+03 -.891E+02 -.141E+04   -.134E+01 0.335E+00 0.290E+01   0.338E-02 -.310E-02 0.140E-02
   -.170E+02 -.576E+02 -.951E+03   0.161E+02 0.578E+02 0.955E+03   0.111E+01 0.155E+01 -.423E+01   0.396E-02 -.302E-02 -.776E-03
   -.969E+02 -.229E+03 0.859E+03   0.956E+02 0.231E+03 -.863E+03   0.131E+01 -.720E+00 0.299E+01   -.432E-02 -.251E-02 0.431E-02
   -.373E+03 0.369E+02 -.151E+04   0.377E+03 -.381E+02 0.152E+04   -.315E+01 0.141E+01 -.187E+01   -.735E-02 -.180E-02 -.381E-02
   0.159E+03 -.542E+02 0.171E+04   -.160E+03 0.539E+02 -.171E+04   0.612E+00 0.483E+00 0.247E+01   0.362E-02 -.329E-03 0.665E-02
   0.118E+03 -.292E+03 -.442E+03   -.119E+03 0.297E+03 0.445E+03   0.825E+00 -.439E+01 -.188E+01   0.953E-03 0.321E-03 -.113E-01
   0.199E+03 -.205E+03 -.159E+04   -.198E+03 0.207E+03 0.160E+04   -.346E+00 -.113E+01 -.368E+01   0.211E-03 0.254E-02 -.271E-02
   0.194E+03 -.902E+02 0.165E+04   -.196E+03 0.911E+02 -.166E+04   0.146E+01 -.384E+00 0.281E+01   -.654E-02 0.387E-02 0.585E-03
   0.793E+02 -.685E+02 -.941E+03   -.784E+02 0.692E+02 0.947E+03   -.332E+00 0.858E+00 -.444E+01   0.379E-03 0.858E-04 0.139E-02
   -.157E+03 0.134E+03 0.573E+03   0.157E+03 -.137E+03 -.576E+03   0.458E+00 0.157E+01 0.271E+01   0.610E-03 0.139E-03 -.255E-02
   -.200E+03 -.759E+01 -.140E+04   0.202E+03 0.639E+01 0.141E+04   -.125E+01 0.155E+01 -.174E+01   -.953E-02 0.188E-02 -.836E-03
   -.117E+02 -.210E+03 0.166E+04   0.113E+02 0.212E+03 -.166E+04   0.119E+00 -.405E+00 0.177E+01   0.698E-02 0.572E-04 0.358E-02
   -.367E+03 0.423E+02 -.713E+03   0.371E+03 -.433E+02 0.717E+03   -.424E+01 0.116E+01 -.122E+01   0.428E-02 -.978E-03 -.821E-02
   0.280E+03 -.906E+02 0.790E+03   -.284E+03 0.918E+02 -.792E+03   0.238E+01 -.571E+00 0.144E+01   -.113E-01 -.612E-02 0.135E-02
   0.263E+03 0.102E+03 -.143E+04   -.264E+03 -.102E+03 0.143E+04   -.158E+00 -.460E+00 -.223E+01   -.331E-02 -.110E-02 0.114E-04
   -.136E+03 -.346E+03 0.653E+03   0.136E+03 0.348E+03 -.655E+03   0.931E+00 0.369E+00 0.206E+01   0.592E-02 -.100E-03 0.400E-02
   -.401E+02 0.131E+03 -.168E+04   0.392E+02 -.131E+03 0.168E+04   0.396E+00 -.458E+00 -.363E+01   0.241E-02 -.177E-02 -.542E-02
   0.126E+03 -.287E+03 -.817E+03   -.125E+03 0.287E+03 0.823E+03   -.649E+00 0.566E+00 -.384E+01   0.457E-02 0.676E-02 -.118E-01
   0.373E+03 -.564E+02 0.126E+04   -.376E+03 0.575E+02 -.126E+04   0.113E+01 -.645E+00 0.399E+01   0.353E-02 0.178E-03 0.151E-02
   -.986E+02 -.167E+03 0.107E+04   0.101E+03 0.168E+03 -.107E+04   -.168E+01 -.122E+01 0.361E+01   0.212E-02 0.759E-02 0.184E-02
   0.118E+03 -.996E+01 -.112E+04   -.119E+03 0.970E+01 0.113E+04   0.215E+01 0.729E-01 -.185E+01   0.177E-02 0.120E-02 -.538E-02
   -.942E+02 0.677E+02 0.232E+02   0.930E+02 -.658E+02 -.219E+02   -.666E+00 -.224E+01 -.409E+00   -.191E-02 0.440E-02 0.240E-02
   -.186E+03 -.273E+03 -.164E+04   0.186E+03 0.276E+03 0.165E+04   0.881E+00 -.115E+01 -.102E+01   -.242E-02 0.154E-02 -.294E-02
   0.268E+02 0.253E+03 0.938E+03   -.277E+02 -.254E+03 -.942E+03   -.185E+00 -.172E+00 0.451E+01   -.735E-02 0.207E-02 -.616E-03
   0.495E+02 0.949E+02 -.143E+04   -.513E+02 -.961E+02 0.143E+04   0.210E+01 0.962E+00 -.219E+01   0.402E-02 -.101E-02 -.168E-02
   -.120E+03 0.199E+03 0.179E+04   0.120E+03 -.200E+03 -.179E+04   -.403E-01 0.322E+00 0.103E+01   -.642E-03 0.223E-02 0.249E-02
   -.555E+03 -.123E+02 -.166E+03   0.561E+03 0.149E+02 0.168E+03   -.342E+01 -.168E+01 -.354E+00   0.663E-03 -.422E-03 -.168E-02
   0.300E+03 0.204E+03 -.898E+03   -.302E+03 -.206E+03 0.903E+03   0.204E+01 0.113E+01 -.388E+01   0.206E-02 -.629E-02 -.968E-02
   0.255E+03 -.121E+03 0.122E+04   -.257E+03 0.123E+03 -.123E+04   0.544E+00 -.416E+00 0.466E+01   -.231E-02 -.307E-02 -.882E-03
   -.679E+02 0.232E+03 0.440E+03   0.666E+02 -.235E+03 -.440E+03   0.128E+01 0.562E+00 -.804E+00   0.121E-01 0.459E-02 0.526E-02
   -.154E+03 -.323E+02 -.147E+04   0.156E+03 0.310E+02 0.148E+04   -.688E+00 0.124E+01 -.304E+01   0.658E-02 0.457E-02 -.529E-02
   -.134E+03 -.347E+02 0.407E+03   0.132E+03 0.341E+02 -.412E+03   0.936E+00 0.768E+00 0.372E+01   -.366E-02 -.166E-02 0.112E-02
   -.356E+03 0.250E+03 -.156E+04   0.357E+03 -.253E+03 0.156E+04   -.675E+00 0.137E+01 -.336E+01   -.315E-02 -.995E-03 -.140E-02
   -.910E+02 0.246E+03 0.996E+03   0.938E+02 -.247E+03 -.100E+04   -.105E+01 0.962E+00 0.383E+01   -.125E-02 -.817E-02 0.293E-02
   0.245E+03 0.311E+03 -.113E+04   -.248E+03 -.317E+03 0.113E+04   0.191E+01 0.356E+01 -.184E+01   0.223E-02 -.246E-02 -.475E-02
   -.279E+01 -.352E+01 -.213E+02   0.284E-12 0.568E-12 -.159E-11   0.287E+01 0.351E+01 0.215E+02   -.192E-01 0.190E-01 -.135E+00

 POSITION                                       TOTAL-FORCE (eV/Angst)
     12.81172      0.65344      1.27882         1.157658     -0.185036      0.208086
     12.69371      1.27314      3.60483         1.204088     -0.023022     -0.084918
      3.66976      5.93964      1.51873         1.256714     -0.229973     -0.644170
      5.02033      6.18092      3.59863        -0.699010     -0.009802     -0.604920
      6.46097      1.98384      2.22239         0.723909      0.109703     -0.822337
      7.93172      1.39171      4.11272        -0.654708     -0.590003     -0.629688
     16.08224      6.18092      2.57045        -0.441276     -0.330547      0.433673
     16.19704      6.24301      5.00407         0.323052      0.183426      0.982462
      1.24820      1.43226      0.82204         0.185887      0.009965     -1.488744
      2.10894      1.39171      3.08454         2.292020      0.040157      0.721582
      1.93129      1.41079      5.43443         0.076924     -0.115859      1.525892
      9.61403      6.15538      2.69648         0.608528      0.553175     -0.552436
     10.84312      6.18092      4.62682        -0.466364      0.525070     -0.746422
      0.12910      9.50525      2.51832        -1.112585     -0.936758      0.811097
      6.06691      6.19313      1.05579        -0.541963     -0.165743     -1.507592
      7.17375      4.91558      3.19116         0.874782      0.026280     -0.808970
      9.23781      4.35798      5.16074         0.387851      0.308390      1.183165
     10.55281      8.97984      1.38685        -1.905100     -0.533899     -0.117997
     10.08514      0.12638      3.70525         0.238756     -0.746240     -0.566107
      1.35096      4.91558      2.16298         0.357874      0.083255      0.811842
      2.10644      4.88075      4.55895        -1.285484      0.383264      0.762629
      4.26235      0.12638      2.67707        -0.764946     -0.458741     -0.211385
      5.26967      9.06459      4.73578        -0.367912      0.610234      0.913311
     12.35126      3.14148      2.21566        -0.421143      0.953336     -0.151268
     12.99653      4.91558      4.21934        -0.753404     -1.056785     -1.507386
     14.77123      2.95496      1.66040         0.540958      0.086159     -0.134130
      0.17450      2.84546      2.68004        -0.867004      0.843999      0.434372
      6.43797      9.34479      1.37092         0.372097     -0.152441     -0.710458
      7.17375      7.44626      3.19116         0.233114     -0.002740     -0.612424
      7.83672      7.75562      5.69080         0.191784     -0.328016      0.702855
      8.88794      1.37745      1.51957        -0.225977      0.017845     -1.771336
     10.08514      2.65705      3.70525         0.056559     -0.014088     -0.788354
      1.35096      7.44626      2.16298         0.572364      0.142464     -0.135314
      4.26235      2.65705      2.67707        -0.990934     -0.164432     -0.481771
      5.03241      3.85351      4.51786         0.062018     -1.513342      0.283463
     12.72470      7.73559      1.73016         0.446703     -0.788922     -0.331888
     12.99653      7.44626      4.21934         0.643170      0.252386     -2.297066
      0.31562      1.29388      4.16117        -2.355227      0.045280      2.069842
     16.15686      1.43825      1.32529        -0.962411     -0.755338     -1.993054
      8.00634      6.18092      1.51374         1.247463     -0.119846     -2.088629
      8.59001      6.18092      4.59828         0.176685      1.766928      0.125073
     10.91773      1.39171      2.02783         0.003698      1.090015     -0.867249
     11.23299      1.34030      4.96868         0.766750      0.271148      3.253352
      1.86635      6.16656      0.59139         0.153381      0.159354     -3.700559
      2.75258      6.38997      3.30112         0.013553      0.940958      1.548111
      3.98974      5.37466      5.36307        -0.231265      0.781918      2.362252
      4.92979      1.26233      1.06983        -0.592403      0.583721     -3.276730
      5.67861      1.39171      4.08419         0.529531      1.511882      1.241222
     13.82913      6.18092      2.54192         0.799174     -1.523776     -0.744360
     14.20759      6.14842      5.32130         0.460103      0.349711      2.974448
     13.18932      2.50462      0.45474        -0.250423      1.014168     -3.506452
     13.99844      3.00295      3.57488        -0.013828      0.138815      2.582276
      5.26426      7.79215      2.03261        -1.529087      0.561796     -0.427496
      5.99931      7.22459      5.08859        -1.251278      0.132891      1.950604
      8.17565      3.00295      2.54670         1.226826      2.426793     -0.292268
      8.99780      2.41008      5.57295        -0.520815     -0.574744      2.509340
      0.00967      7.75051      3.81207        -0.223423      1.094218      2.082394
     16.38551      7.84871      1.31520        -2.093179      0.510993     -2.817466
      2.24097      3.02645      1.72420         1.239229      0.524273     -2.134733
      2.93654      3.00295      4.60306         1.004785     -0.184531      0.761699
     11.08705      7.79215      3.06079        -1.867773     -0.384645      0.842699
     11.80861      7.46975      5.85301        -0.037760      1.658228      3.755684
      5.26426      4.56969      2.03261        -1.006895     -2.033914     -0.217872
      6.98768      4.09421      5.10189         0.283708     -0.243084      2.464196
     12.08931      8.74061      0.06725         0.046017     -0.803204     -3.829611
     13.65106      9.13057      2.96736         2.393999      0.974831      1.463840
      0.02514      4.56969      4.08897         0.351563     -0.768951      1.057623
     16.28812      4.41029      1.42162        -1.173082      0.707790     -2.596832
      8.17565      9.35889      2.54670        -0.055493     -1.990750     -0.281314
      8.79197      9.45619      5.32622         0.708718     -0.033138      2.249464
     11.08705      4.56969      3.06079        -0.799454      0.188432     -1.762007
     11.35595      4.45070      5.60746         0.879564     -1.702927      3.158540
      2.17475      9.36388      1.70733         1.828759     -0.659628     -1.913482
      3.22068      0.08629      4.52654        -0.458707     -2.438389      1.930106
    total drift:                                0.067540      0.016483      0.036413

  FREE ENERGIE OF THE ION-ELECTRON SYSTEM (eV)
  free  energy   TOTEN  =      -348.63324567 eV

  energy  without entropy=     -347.48023076  energy(sigma->0) =     -348.05673822