 vasp.5.4.4.18Apr17-6-g9f103f2a35 (build Aug 13 2019 17:33:20) gamma-only

 executed on             LinuxIFC date 2020.05.11  18:53:07

 INCAR:
 POTCAR:    PAW_PBE Ni_pv 06Sep2000
 POTCAR:    PAW_PBE S 06Sep2000
 POTCAR:    PAW_PBE Ni_pv 06Sep2000
   VRHFIN =Ni:

   TITEL  = PAW_PBE Ni_pv 06Sep2000
   POMASS =   58.690; ZVAL   =   16.000    mass and valenz
   ENMAX  =  367.986; ENMIN  =  275.989 eV

 POTCAR:    PAW_PBE S 06Sep2000
   VRHFIN =S : s2p4

   TITEL  = PAW_PBE S 06Sep2000
   POMASS =   32.066; ZVAL   =    6.000    mass and valenz
   ENMAX  =  258.689; ENMIN  =  194.016 eV

 Optimization of the real space projectors (new method)

 maximal supplied QI-value         = 18.90
 optimisation between [QCUT,QGAM] = [ 10.77, 21.73] = [ 32.49,132.25] Ry
 Optimized for a Real-space Cutoff    1.38 Angstroem

   l    n(q)    QCUT    max X(q) W(low)/X(q) W(high)/X(q)  e(spline)
   1      8    10.771     2.836    0.40E-04    0.29E-04    0.12E-06
   1      8    10.771     4.023    0.10E-03    0.48E-04    0.29E-06
   2      8    10.771    73.368    0.42E-03    0.97E-04    0.44E-06
   2      8    10.771    69.010    0.42E-03    0.99E-04    0.45E-06
   0      9    10.771    54.797    0.10E-03    0.56E-04    0.74E-07
   0      9    10.771    24.266    0.89E-04    0.49E-04    0.67E-07
 Optimization of the real space projectors (new method)

 maximal supplied QI-value         = 19.84
 optimisation between [QCUT,QGAM] = [ 10.71, 21.63] = [ 32.15,130.99] Ry
 Optimized for a Real-space Cutoff    1.19 Angstroem

   l    n(q)    QCUT    max X(q) W(low)/X(q) W(high)/X(q)  e(spline)
   0      8    10.715   187.594    0.41E-03    0.53E-04    0.66E-07
   0      8    10.715   164.243    0.41E-03    0.53E-04    0.65E-07
   1      7    10.715    67.533    0.19E-03    0.59E-03    0.68E-07
   1      7    10.715    50.729    0.19E-03    0.58E-03    0.67E-07
  PAW_PBE Ni_pv 06Sep2000               :
  PAW_PBE S 06Sep2000                   :

 POSCAR: Type_036 Type_136
  positions in cartesian coordinates
 exchange correlation table for  LEXCH =        8
   RHO(1)=    0.500       N(1)  =     2000
   RHO(2)=  100.500       N(2)  =     4000

 ion  position               nearest neighbor table
   1  0.780  0.145  0.121-  63 2.06  49 2.06  41 2.25  50 2.41  64 2.41
   2  0.222  0.645  0.095-  43 2.03  44 2.16  61 2.25  51 2.25   3 2.34
   3  0.297  0.645  0.216-  62 2.13  52 2.13  44 2.25  51 2.26  61 2.26   2 2.34  27 2.53  14 2.53

   4  0.393  0.145  0.126-  45 2.04  46 2.17  67 2.27  53 2.27   5 2.36
   5  0.470  0.145  0.248-  68 2.09  54 2.09  46 2.25  53 2.26  67 2.26   4 2.36  30 2.53  17 2.53

[...]

   9  0.101  0.145  0.326-  37 2.01  72 2.17  58 2.17   8 2.32
  10  0.642  0.645  0.280-  60 2.01  70 2.01  40 2.25  59 2.32  69 2.32  36 2.53  23 2.53
  11  0.909  0.002  0.121-  63 2.06  64 2.09  56 2.10  38 2.20  12 2.50
  12  0.947  0.010  0.271-  37 2.05  38 2.07  55 2.14  64 2.20  11 2.50
  13  0.402  0.518  0.042-  61 2.01  39 2.02  26 2.43  14 2.44
  14  0.425  0.513  0.191-  39 2.14  62 2.15  53 2.25  61 2.26  40 2.36  13 2.44  15 2.47  27 2.53
                             3 2.53
  15  0.465  0.473  0.335-  54 2.01  40 2.04  62 2.05  14 2.47
  16  0.566  0.018  0.066-  67 1.99  41 2.02  29 2.43
  17  0.597  0.013  0.223-  42 2.03  68 2.08  59 2.20  67 2.26  41 2.26   5 2.53  30 2.53
  18  0.080  0.513  0.127-  43 2.06  66 2.09  57 2.11  44 2.36  65 2.36   6 2.53  31 2.53
  19  0.113  0.501  0.291-  65 2.03  44 2.05  58 2.09
  20  0.252  0.013  0.159-  45 2.06  71 2.09  51 2.25  46 2.36  72 2.36  21 2.53   8 2.53  33 2.53

[...]

  24  0.909  0.289  0.121-  49 2.06  50 2.09  66 2.10  38 2.20  25 2.50
  25  0.947  0.281  0.271-  37 2.05  38 2.07  65 2.14  50 2.20  24 2.50
  26  0.402  0.772  0.042-  51 2.01  39 2.02  13 2.43  27 2.44
  27  0.425  0.777  0.191-  39 2.14  52 2.15  67 2.25  51 2.26  40 2.36  26 2.44  28 2.47  14 2.53
                             3 2.53
  28  0.465  0.818  0.335-  68 2.01  40 2.04  52 2.05  27 2.47
  29  0.566  0.272  0.066-  53 1.99  41 2.02  16 2.43
  30  0.597  0.277  0.223-  42 2.03  54 2.08  69 2.20  53 2.26  41 2.26   5 2.53  17 2.53
  31  0.080  0.777  0.127-  43 2.06  56 2.09  71 2.11  44 2.36  55 2.36   6 2.53  18 2.53
  32  0.113  0.789  0.291-  55 2.03  44 2.05  72 2.09
  33  0.252  0.277  0.159-  45 2.06  57 2.09  61 2.25  46 2.36  58 2.36  34 2.53   8 2.53  20 2.53

[...]

  37  0.986  0.145  0.360-   9 2.01  12 2.05  25 2.05
  38  0.991  0.145  0.182-  12 2.07  25 2.07  11 2.20  24 2.20   8 2.25
  39  0.479  0.645  0.101-  13 2.02  26 2.02  14 2.14  27 2.14
  40  0.509  0.645  0.278-  15 2.04  28 2.04  10 2.25  27 2.36  14 2.36
  41  0.647  0.145  0.119-  16 2.02  29 2.02   1 2.25  30 2.26  17 2.26  42 2.77
  42  0.667  0.145  0.289-  17 2.03  30 2.03  41 2.77
  43  0.116  0.645  0.034-   2 2.03  31 2.06  18 2.06
  44  0.164  0.645  0.214-  19 2.05  32 2.05   2 2.16   3 2.25  31 2.36  18 2.36
  45  0.287  0.145  0.065-   4 2.04  20 2.06  33 2.06
  46  0.336  0.145  0.246-  21 2.04  34 2.04   4 2.17   5 2.25  33 2.36  20 2.36
  47  0.819  0.645  0.151-   6 2.25  36 2.26  23 2.26  22 2.26  35 2.26  48 2.78
  48  0.847  0.645  0.320-   7 2.05  23 2.11  36 2.11  47 2.78
  49  0.818  0.291  0.036-  22 2.02  24 2.06   1 2.06
  50  0.828  0.316  0.218-  24 2.09  22 2.11  25 2.20  23 2.21   1 2.41
  51  0.312  0.814  0.119-  26 2.01   2 2.25  20 2.25   3 2.26  27 2.26
  52  0.350  0.793  0.298-  21 2.04  28 2.05   3 2.13  27 2.15
  53  0.484  0.314  0.151-  29 1.99  14 2.25  30 2.26   5 2.26   4 2.27
  54  0.524  0.292  0.325-  15 2.01  30 2.08   5 2.09
  55  0.001  0.814  0.246-  32 2.03   7 2.03  12 2.14   6 2.36  31 2.36  56 2.76
  56  0.967  0.822  0.080-   6 2.08  31 2.09  11 2.10  55 2.76
  57  0.140  0.323  0.110-   8 2.09  33 2.09  18 2.11  58 2.77
  58  0.174  0.314  0.278-  34 2.04  19 2.09   9 2.17   8 2.36  33 2.36  57 2.77
  59  0.667  0.827  0.189-  36 2.09  35 2.17  17 2.20  10 2.32  60 2.72
  60  0.695  0.787  0.353-  10 2.01  36 2.03  70 2.71  59 2.72
  61  0.312  0.477  0.119-  13 2.01   2 2.25  33 2.25   3 2.26  14 2.26
  62  0.350  0.498  0.298-  34 2.04  15 2.05   3 2.13  14 2.15
  63  0.818  0.999  0.036-  35 2.02  11 2.06   1 2.06
  64  0.828  0.975  0.218-  11 2.09  35 2.11  12 2.20  36 2.21   1 2.41
  65  0.001  0.477  0.246-  19 2.03   7 2.03  25 2.14   6 2.36  18 2.36  66 2.76
  66  0.967  0.469  0.080-   6 2.08  18 2.09  24 2.10  65 2.76
  67  0.484  0.977  0.151-  16 1.99  27 2.25  17 2.26   5 2.26   4 2.27
  68  0.524  0.999  0.325-  28 2.01  17 2.08   5 2.09
  69  0.667  0.463  0.189-  23 2.09  22 2.17  30 2.20  10 2.32  70 2.72
  70  0.695  0.504  0.353-  10 2.01  23 2.03  60 2.71  69 2.72
  71  0.140  0.968  0.110-   8 2.09  20 2.09  31 2.11  72 2.77
  72  0.174  0.977  0.278-  21 2.04  32 2.09   9 2.17   8 2.36  20 2.36  71 2.77

  LATTYP: Found a simple orthorhombic cell.
 ALAT       =     9.5784100000
 B/A-ratio  =     1.6880763216
 C/A-ratio  =     1.7627867312

  Lattice vectors:

 A1 = (   0.0000000000,   9.5784100000,   0.0000000000)
 A2 = (   0.0000000000,   0.0000000000, -16.1690871197)
 A3 = ( -16.8846940542,   0.0000000000,   0.0000000000)

Analysis of symmetry for initial positions (statically):
 Subroutine PRICEL returns:
 Original cell was already a primitive cell.

 Routine SETGRP: Setting up the symmetry group for a
 simple orthorhombic supercell.

 Subroutine GETGRP returns: Found  2 space group operations
 (whereof  1 operations were pure point group operations)
 out of a pool of  8 trial point group operations.

The static configuration has the point symmetry C_1 .
 The point group associated with its full space group is C_1h.

Analysis of symmetry for dynamics (positions and initial velocities):
 Subroutine PRICEL returns:
 Original cell was already a primitive cell.

 Routine SETGRP: Setting up the symmetry group for a
 simple orthorhombic supercell.

 Subroutine GETGRP returns: Found  2 space group operations
 (whereof  1 operations were pure point group operations)
 out of a pool of  8 trial point group operations.

The dynamic configuration has the point symmetry C_1 .
 The point group associated with its full space group is C_1h.

 Subroutine INISYM returns: Found  2 space group operations
 (whereof  1 operations are pure point group operations),
 and found     1 'primitive' translations

 KPOINTS: gamma-point-only calculation. no periodi

Automatic generation of k-mesh.
Space group operators:
 irot       det(A)        alpha          n_x          n_y          n_z        tau_x        tau_y        tau_z
    1     1.000000     0.000000     1.000000     0.000000     0.000000     0.000000     0.000000     0.000000
    2    -1.000000   180.000000     0.000000     1.000000     0.000000     0.000000     0.290594     0.000000

 Subroutine IBZKPT returns following result:

 Found      1 irreducible k-points:

 Following reciprocal coordinates:
            Coordinates               Weight
  0.000000  0.000000  0.000000      1.000000

 Following cartesian coordinates:
            Coordinates               Weight
  0.000000  0.000000  0.000000      1.000000

 SYSTEM =  "Millerite NiS"
 POSCAR =  Type_036 Type_136

 Startparameter for this run:
   NWRITE =      2    write-flag & timer
   PREC   = normal    normal or accurate (medium, high low for compatibility)
   ISTART =      0    job   : 0-new  1-cont  2-samecut
   ICHARG =      2    charge: 1-file 2-atom 10-const
   ISPIN  =      1    spin polarized calculation?
   LNONCOLLINEAR =      F non collinear calculations
   LSORBIT =      F    spin-orbit coupling
   INIWAV =      1    electr: 0-lowe 1-rand  2-diag
   LASPH  =      F    aspherical Exc in radial PAW
   METAGGA=      F    non-selfconsistent MetaGGA calc.

 Electronic Relaxation 1
   ENCUT  =  450.0 eV  33.07 Ry    5.75 a.u.  29.20 16.57 27.97*2*pi/ulx,y,z
   ENINI  =  450.0     initial cutoff
   ENAUG  =  703.4 eV  augmentation charge cutoff
   NELM   =    100;   NELMIN=  2; NELMDL= -5     # of ELM steps
   EDIFF  = 0.1E-03   stopping-criterion for ELM
   LREAL  =      T    real-space projection
   NLSPLINE    = F    spline interpolate recip. space projectors
   LCOMPAT=      F    compatible to vasp.4.4
   GGA_COMPAT  = T    GGA compatible to vasp.4.4-vasp.4.6
   LMAXPAW     = -100 max onsite density
   LMAXMIX     =    2 max onsite mixed and CHGCAR
   VOSKOWN=      0    Vosko Wilk Nusair interpolation
   ROPT   =   -0.00050  -0.00050
 Ionic relaxation
   EDIFFG = 0.1E-02   stopping-criterion for IOM
   NSW    =      0    number of steps for IOM
   NBLOCK =      1;   KBLOCK =      1    inner block; outer block
   IBRION =     -1    ionic relax: 0-MD 1-quasi-New 2-CG
   NFREE  =      0    steps in history (QN), initial steepest desc. (CG)
   ISIF   =      2    stress and relaxation
   IWAVPR =     10    prediction:  0-non 1-charg 2-wave 3-comb
   ISYM   =      2    0-nonsym 1-usesym 2-fastsym
   LCORR  =      T    Harris-Foulkes like correction to forces

   POTIM  = 0.5000    time-step for ionic-motion
   TEIN   =    0.0    initial temperature
   TEBEG  =    0.0;   TEEND  =   0.0 temperature during run
   SMASS  =  -3.00    Nose mass-parameter (am)
[...]
  Fock        0.00000     0.00000     0.00000     0.00000     0.00000     0.00000
  Total     115.02669   109.72592   134.10282     0.00000     0.00000     0.18877
  in kB      70.47533    67.22762    82.16302     0.00000     0.00000     0.11566

 VOLUME and BASIS-vectors are now :
  energy-cutoff  :      450.00
  volume of cell :     2615.00
      direct lattice vectors                 reciprocal lattice vectors
    16.884694054  0.000000000  0.000000000     0.059225237  0.000000000  0.000000000
     0.000000000  9.578410000  0.000000000     0.000000000  0.104401461  0.000000000
     0.000000000  0.000000000 16.169087120     0.000000000  0.000000000  0.061846411

  length of vectors
    16.884694054  9.578410000 16.169087120     0.059225237  0.104401461  0.061846411

 FORCES acting on ions
    electron-ion (+dipol)            ewald-force                    non-local-force                 convergence-correction
   0.542E+03 -.712E-03 0.152E+04   -.546E+03 -.430E-07 -.152E+04   0.392E+01 0.000E+00 0.279E+01   0.319E-01 0.137E-07 0.271E-02
   0.801E+02 -.685E-03 0.293E+04   -.800E+02 -.962E-08 -.293E+04   0.969E+00 0.000E+00 0.705E+01   -.696E-02 0.322E-07 0.123E-01
   0.404E+03 -.784E-03 -.102E+04   -.405E+03 0.243E-07 0.102E+04   0.126E+01 0.000E+00 -.272E+01   -.710E-02 0.121E-06 -.243E-02
   -.137E+03 -.727E-03 0.234E+04   0.136E+03 -.235E-07 -.234E+04   0.141E+01 0.000E+00 0.600E+01   -.511E-01 -.141E-06 0.684E-02
   0.779E+01 -.891E-03 -.172E+04   -.101E+02 -.108E-07 0.172E+04   0.179E+01 0.000E+00 -.505E+01   -.249E-01 -.176E-06 0.151E-02
   0.735E+03 -.906E-03 0.134E+04   -.740E+03 0.191E-07 -.134E+04   0.479E+01 0.000E+00 0.472E+01   0.703E-02 -.168E-06 0.738E-02
   0.421E+03 -.802E-03 -.327E+04   -.423E+03 0.135E-07 0.327E+04   0.187E+01 0.000E+00 0.546E+00   0.263E-02 -.143E-06 -.709E-02
   0.570E+03 -.833E-03 0.884E+03   -.574E+03 -.131E-07 -.887E+03   0.351E+01 0.000E+00 0.324E+01   0.112E-01 -.207E-06 -.453E-02
   0.100E+03 -.101E-02 -.337E+04   -.102E+03 0.957E-08 0.337E+04   0.356E+01 0.000E+00 -.163E+01   -.550E-02 -.234E-06 -.201E-01
   0.362E+03 -.823E-03 -.167E+04   -.370E+03 -.294E-07 0.167E+04   0.608E+01 0.000E+00 -.226E+01   0.274E-01 -.638E-07 0.724E-02
   -.332E+03 0.116E+03 0.216E+04   0.338E+03 -.118E+03 -.216E+04   -.516E+01 0.312E+01 0.431E+01   0.141E-01 0.286E-02 0.540E-02
   0.503E+03 0.278E+03 -.226E+04   -.503E+03 -.281E+03 0.226E+04   -.129E+01 0.233E+01 -.397E+01   0.126E-01 0.337E-02 -.413E-02
   -.306E+03 0.529E+03 0.381E+04   0.305E+03 -.523E+03 -.381E+04   0.942E+00 -.669E+01 -.165E+01   -.182E-01 0.936E-03 0.148E-01
   -.634E+03 0.355E+03 0.177E+03   0.635E+03 -.359E+03 -.177E+03   -.939E+00 0.316E+01 0.301E+00   -.205E-01 0.106E-01 -.552E-02
   -.380E+03 0.102E+03 -.348E+04   0.383E+03 -.104E+03 0.348E+04   -.277E+01 0.294E+01 0.232E+01   -.676E-02 0.777E-02 -.109E-01
   -.346E+03 0.700E+03 0.338E+04   0.344E+03 -.695E+03 -.338E+04   0.140E+01 -.550E+01 -.156E+01   -.419E-02 -.275E-01 -.250E-02
   -.705E+03 0.550E+03 -.885E+03   0.708E+03 -.555E+03 0.887E+03   -.333E+01 0.469E+01 -.357E+01   0.505E-02 -.197E-01 0.181E-01
   0.130E+03 0.616E+03 0.203E+04   -.131E+03 -.621E+03 -.203E+04   0.538E+00 0.450E+01 0.478E+01   0.236E-02 -.638E-02 0.729E-02
   -.919E+02 0.159E+03 -.279E+04   0.920E+02 -.161E+03 0.280E+04   0.205E+00 0.253E+01 -.370E+00   -.125E-02 -.150E-02 -.101E-01
   0.113E+03 0.378E+03 0.135E+04   -.113E+03 -.382E+03 -.135E+04   0.705E+00 0.294E+01 0.433E+01   -.166E-01 0.155E-01 -.285E-02
   -.271E+02 0.111E+03 -.317E+04   0.277E+02 -.115E+03 0.317E+04   -.558E+00 0.427E+01 0.192E+01   -.227E-01 0.336E-02 -.225E-01
   0.493E+03 -.456E+03 0.233E+04   -.496E+03 0.458E+03 -.234E+04   0.189E+01 -.967E+00 0.678E+01   0.200E-01 0.683E-02 0.144E-01
   -.912E+02 0.417E+03 -.167E+04   0.952E+02 -.419E+03 0.168E+04   -.268E+01 0.269E+01 -.500E+01   0.555E-02 0.177E-01 0.120E-01
   -.332E+03 -.116E+03 0.216E+04   0.338E+03 0.118E+03 -.216E+04   -.516E+01 -.312E+01 0.431E+01   0.141E-01 -.286E-02 0.540E-02
   0.503E+03 -.278E+03 -.226E+04   -.503E+03 0.281E+03 0.226E+04   -.129E+01 -.233E+01 -.397E+01   0.126E-01 -.337E-02 -.413E-02
   -.306E+03 -.529E+03 0.381E+04   0.305E+03 0.523E+03 -.381E+04   0.942E+00 0.669E+01 -.165E+01   -.183E-01 -.936E-03 0.148E-01
   -.634E+03 -.355E+03 0.177E+03   0.635E+03 0.359E+03 -.177E+03   -.939E+00 -.316E+01 0.301E+00   -.205E-01 -.106E-01 -.552E-02
   -.380E+03 -.102E+03 -.348E+04   0.383E+03 0.104E+03 0.348E+04   -.277E+01 -.294E+01 0.232E+01   -.676E-02 -.777E-02 -.109E-01
   -.346E+03 -.700E+03 0.338E+04   0.344E+03 0.695E+03 -.338E+04   0.140E+01 0.550E+01 -.156E+01   -.419E-02 0.275E-01 -.250E-02
   -.705E+03 -.550E+03 -.885E+03   0.708E+03 0.555E+03 0.887E+03   -.333E+01 -.469E+01 -.357E+01   0.506E-02 0.197E-01 0.181E-01
   0.130E+03 -.616E+03 0.203E+04   -.131E+03 0.621E+03 -.203E+04   0.538E+00 -.450E+01 0.478E+01   0.236E-02 0.638E-02 0.729E-02
   -.919E+02 -.159E+03 -.279E+04   0.920E+02 0.161E+03 0.280E+04   0.205E+00 -.253E+01 -.370E+00   -.125E-02 0.150E-02 -.101E-01
   0.113E+03 -.378E+03 0.135E+04   -.113E+03 0.382E+03 -.135E+04   0.705E+00 -.294E+01 0.433E+01   -.166E-01 -.155E-01 -.285E-02
   -.271E+02 -.111E+03 -.317E+04   0.277E+02 0.115E+03 0.317E+04   -.558E+00 -.427E+01 0.192E+01   -.227E-01 -.336E-02 -.225E-01
   0.493E+03 0.456E+03 0.233E+04   -.496E+03 -.458E+03 -.234E+04   0.189E+01 0.967E+00 0.678E+01   0.200E-01 -.683E-02 0.144E-01
   -.912E+02 -.417E+03 -.167E+04   0.952E+02 0.419E+03 0.168E+04   -.268E+01 -.269E+01 -.500E+01   0.555E-02 -.177E-01 0.120E-01
   0.245E+03 -.133E-04 -.159E+04   -.245E+03 0.203E-07 0.160E+04   -.876E+00 0.000E+00 -.769E+00   0.481E-02 -.412E-08 -.371E-02
   -.142E+03 -.254E-05 0.373E+03   0.143E+03 0.147E-07 -.377E+03   0.325E+00 0.000E+00 0.120E+01   0.611E-02 0.109E-07 -.994E-03
   -.745E+03 -.169E-04 0.913E+03   0.752E+03 0.443E-07 -.915E+03   -.336E+01 0.000E+00 0.340E+00   -.503E-02 -.137E-08 0.940E-02
   -.362E+03 0.743E-05 -.627E+03   0.364E+03 0.121E-08 0.630E+03   0.395E+00 0.000E+00 -.202E+01   0.483E-02 0.297E-07 -.920E-02
   -.347E+03 0.518E-04 0.717E+03   0.349E+03 -.433E-07 -.719E+03   0.373E+00 0.000E+00 0.149E+01   0.194E-01 0.383E-07 0.836E-02
   -.439E+03 0.181E-04 -.115E+04   0.443E+03 0.706E-08 0.115E+04   -.142E+01 0.000E+00 -.963E+00   0.624E-02 0.945E-08 0.227E-02
   0.109E+03 -.542E-05 0.170E+04   -.110E+03 0.102E-07 -.171E+04   0.289E+00 0.000E+00 0.192E+01   -.162E-02 0.101E-07 0.326E-02
   -.982E+02 -.148E-04 -.272E+03   0.980E+02 0.307E-07 0.276E+03   0.182E+01 0.000E+00 -.366E+01   -.318E-02 0.380E-07 0.263E-02
   0.106E+03 -.544E-05 0.160E+04   -.107E+03 0.132E-08 -.160E+04   0.907E+00 0.000E+00 0.169E+01   -.104E-01 -.347E-07 0.109E-01
   -.116E+03 -.302E-04 -.585E+03   0.117E+03 0.211E-08 0.590E+03   0.515E+00 0.000E+00 -.443E+01   -.118E-01 -.762E-07 -.873E-02
   0.639E+02 -.153E-04 0.694E+03   -.628E+02 0.747E-08 -.697E+03   -.597E+00 0.000E+00 0.174E+01   0.170E-02 -.309E-07 0.848E-02
   0.102E+01 -.123E-04 -.128E+04   0.476E+00 0.916E-08 0.128E+04   -.390E+00 0.000E+00 -.227E+01   -.208E-02 -.325E-07 -.438E-02
   0.570E+02 -.950E+02 0.163E+04   -.568E+02 0.962E+02 -.164E+04   -.579E+00 -.440E+00 0.232E+01   0.840E-02 -.887E-03 0.333E-02
   0.187E+03 0.120E+03 -.584E+03   -.189E+03 -.123E+03 0.589E+03   0.718E+00 0.215E+01 -.281E+01   0.584E-02 0.376E-02 0.651E-03
   0.153E+03 -.219E+03 0.816E+03   -.154E+03 0.222E+03 -.819E+03   -.848E+00 -.159E+01 0.288E+01   -.677E-02 0.438E-02 0.659E-02
   0.151E+03 0.460E+02 -.115E+04   -.152E+03 -.451E+02 0.115E+04   -.908E-01 -.290E+00 -.219E+01   -.105E-01 -.209E-02 -.914E-02
   -.444E+02 -.204E+03 0.493E+03   0.433E+02 0.206E+03 -.495E+03   -.775E+00 -.599E+00 0.158E+01   -.163E-01 0.755E-02 0.940E-02
   -.225E+03 0.315E+02 -.137E+04   0.225E+03 -.304E+02 0.138E+04   -.168E+00 -.887E+00 -.235E+01   0.733E-04 -.186E-02 -.551E-03
   0.185E+03 -.169E+03 -.479E+03   -.185E+03 0.171E+03 0.481E+03   -.556E+00 -.983E+00 -.155E+01   0.433E-02 -.887E-03 0.230E-03
   0.117E+03 -.789E+02 0.132E+04   -.118E+03 0.786E+02 -.133E+04   0.108E+01 0.958E+00 0.393E+01   0.330E-02 0.260E-02 0.277E-02
   0.158E+03 0.413E+02 0.112E+04   -.159E+03 -.426E+02 -.113E+04   0.176E+00 0.126E+01 0.402E+01   0.373E-02 -.562E-02 0.634E-02
   0.782E+02 -.990E+02 -.834E+03   -.788E+02 0.100E+03 0.837E+03   -.246E+00 -.203E+01 -.145E+01   -.342E-02 -.155E-02 -.801E-02
   0.184E+03 0.844E+02 0.284E+03   -.187E+03 -.848E+02 -.288E+03   0.964E+00 0.321E+00 0.209E+01   0.774E-02 -.953E-02 0.896E-02
   -.115E+02 -.274E+03 -.148E+04   0.104E+02 0.277E+03 0.148E+04   0.696E+00 -.244E+01 -.116E+01   0.541E-02 -.801E-02 -.566E-02
   0.153E+03 0.219E+03 0.816E+03   -.154E+03 -.222E+03 -.819E+03   -.848E+00 0.159E+01 0.288E+01   -.677E-02 -.438E-02 0.659E-02
   0.151E+03 -.460E+02 -.115E+04   -.152E+03 0.451E+02 0.115E+04   -.908E-01 0.290E+00 -.219E+01   -.105E-01 0.209E-02 -.914E-02
   0.570E+02 0.950E+02 0.163E+04   -.568E+02 -.962E+02 -.164E+04   -.579E+00 0.440E+00 0.232E+01   0.840E-02 0.887E-03 0.333E-02
   0.187E+03 -.120E+03 -.584E+03   -.189E+03 0.123E+03 0.589E+03   0.718E+00 -.215E+01 -.281E+01   0.584E-02 -.376E-02 0.651E-03
   0.185E+03 0.169E+03 -.479E+03   -.185E+03 -.171E+03 0.481E+03   -.556E+00 0.983E+00 -.155E+01   0.433E-02 0.887E-03 0.230E-03
   0.117E+03 0.789E+02 0.132E+04   -.118E+03 -.786E+02 -.133E+04   0.108E+01 -.958E+00 0.393E+01   0.330E-02 -.260E-02 0.277E-02
   -.444E+02 0.204E+03 0.493E+03   0.433E+02 -.206E+03 -.495E+03   -.775E+00 0.599E+00 0.158E+01   -.163E-01 -.755E-02 0.940E-02
   -.225E+03 -.315E+02 -.137E+04   0.225E+03 0.304E+02 0.138E+04   -.168E+00 0.887E+00 -.235E+01   0.732E-04 0.186E-02 -.551E-03
   0.184E+03 -.844E+02 0.284E+03   -.187E+03 0.848E+02 -.288E+03   0.964E+00 -.321E+00 0.209E+01   0.774E-02 0.953E-02 0.896E-02
   -.115E+02 0.274E+03 -.148E+04   0.104E+02 -.277E+03 0.148E+04   0.696E+00 0.244E+01 -.116E+01   0.541E-02 0.801E-02 -.566E-02
   0.158E+03 -.413E+02 0.112E+04   -.159E+03 0.426E+02 -.113E+04   0.176E+00 -.126E+01 0.402E+01   0.373E-02 0.562E-02 0.634E-02
   0.782E+02 0.990E+02 -.834E+03   -.788E+02 -.100E+03 0.837E+03   -.246E+00 0.203E+01 -.145E+01   -.342E-02 0.155E-02 -.801E-02
   -.575E+01 -.320E-02 -.349E+02   0.540E-12 -.526E-12 -.114E-12   0.580E+01 0.888E-15 0.348E+02   -.640E-01 0.982E-08 0.787E-01

 POSITION                                       TOTAL-FORCE (eV/Angst)
     13.17084      1.39171      1.94975        -0.115607     -0.000000      1.666072
      3.74001      6.18092      1.53073         1.032998     -0.000000     -0.015091
      5.02033      6.18092      3.49202        -0.009788     -0.000000     -0.190307
      6.63723      1.39171      2.02941         0.986272     -0.000000     -0.330286
      7.93172      1.39171      4.00611        -0.568361     -0.000000     -0.853700
     16.08224      6.18092      2.46384        -0.523971     -0.000000      1.955650
     16.35319      6.18092      5.08765         0.366927     -0.000000      0.670627
      2.10894      1.39171      2.97793        -0.450093     -0.000000      0.291044
      1.69736      1.39171      5.26571         1.656243     -0.000000      0.660973
     10.84312      6.18092      4.52020        -1.612549     -0.000000     -2.965085
     15.34180      0.01846      1.96080         0.874922      0.623603     -0.190864
     15.98268      0.09654      4.37969        -1.004208     -0.625926     -0.308217
      6.79272      4.96447      0.67536        -0.001161     -0.641411     -1.315547
      7.17375      4.91558      3.08454         0.080876     -0.549483      0.004588
      7.84563      4.52610      5.42461         0.029689      0.205936      1.051308
      9.55880      0.17637      1.06283         0.052304     -0.505771     -1.302873
     10.08514      0.12638      3.59863         0.155877     -0.846434     -1.818948
      1.35096      4.91558      2.05636         0.260017     -0.485971      1.665064
      1.90398      4.80192      4.70805         0.312645      0.556280      1.146508
      4.26235      0.12638      2.57045         0.295366     -0.941647      1.340920
      4.91912      9.36685      4.99044         0.028242      0.171791      0.748808
     13.09513      4.09703      1.93703        -0.469720      1.113166     -0.043412
     12.99653      4.91558      4.11272         1.283913     -0.040632     -0.516150
     15.34180      2.76496      1.96080         0.874922     -0.623603     -0.190864
     15.98268      2.68688      4.37969        -1.004208      0.625926     -0.308217
      6.79272      7.39736      0.67536        -0.001161      0.641411     -1.315547
      7.17375      7.44626      3.08454         0.080876      0.549483      0.004588
      7.84563      7.83574      5.42461         0.029689     -0.205936      1.051308
      9.55880      2.60706      1.06283         0.052304      0.505771     -1.302873
     10.08514      2.65705      3.59863         0.155877      0.846434     -1.818948
      1.35096      7.44626      2.05636         0.260017      0.485971      1.665064
      1.90398      7.55992      4.70805         0.312645     -0.556280      1.146508
      4.26235      2.65705      2.57045         0.295366      0.941647      1.340920
      4.91912      2.99499      4.99044         0.028242     -0.171791      0.748808
     13.09513      8.26481      1.93703        -0.469720     -1.113166     -0.043412
     12.99653      7.44626      4.11272         1.283913      0.040632     -0.516150
     16.65206      1.39171      5.82506        -0.682240     -0.000000      3.691166
     16.74052      1.39171      2.94940         1.724846     -0.000000     -2.285383
      8.09257      6.18092      1.63047         3.392649     -0.000000     -1.649698
      8.59001      6.18092      4.49167         2.033594     -0.000000      0.342172
     10.91773      1.39171      1.92122         2.260546     -0.000000     -0.938776
     11.26080      1.39171      4.66504         2.886450     -0.000000      2.909152
      1.96371      6.18092      0.55293         0.043422     -0.000000     -4.036480
      2.76722      6.18092      3.46349         1.599383     -0.000000      0.253443
      4.84877      1.39171      1.05832         0.513907     -0.000000     -3.877411
      5.67861      1.39171      3.97758         1.182335     -0.000000      0.472466
     13.82913      6.18092      2.43531         0.499817     -0.000000     -1.941992
     14.30446      6.18092      5.17305         1.101685     -0.000000      2.536813
     13.81535      2.78974      0.57928        -0.322957      0.797375     -3.780186
     13.97904      3.02610      3.52732        -0.632881     -0.841479      2.492578
      5.26426      7.79215      1.92599        -1.538837      0.681420     -0.579428
      5.90872      7.59465      4.81211        -1.145233      0.604972      1.801581
      8.17565      3.00295      2.44008        -1.926276      1.152696     -0.129909
      8.84471      2.79237      5.26165         0.148573      0.195572      2.851225
      0.02514      7.79215      3.98236        -0.740810      1.083835      0.493975
     16.33530      7.87347      1.28881        -0.286471      0.612979     -2.858839
      2.37138      3.08983      1.78330        -0.759303     -0.082502     -2.707849
      2.93654      3.00295      4.49645        -0.850623     -0.565872      1.140607
     11.26209      7.92319      3.05355        -2.071617     -0.087452     -1.134637
     11.73759      7.53818      5.70200        -0.431558      1.261043      3.767013
      5.26426      4.56969      1.92599        -1.538837     -0.681420     -0.579428
      5.90872      4.76719      4.81211        -1.145233     -0.604972      1.801581
     13.81535      9.57210      0.57928        -0.322957     -0.797375     -3.780186
     13.97904      9.33574      3.52732        -0.632881      0.841479      2.492578
      0.02514      4.56969      3.98236        -0.740810     -1.083835      0.493975
     16.33530      4.48836      1.28881        -0.286471     -0.612979     -2.858839
      8.17565      9.35889      2.44008        -1.926276     -1.152696     -0.129909
      8.84471      9.56947      5.26165         0.148573     -0.195572      2.851225
     11.26209      4.43865      3.05355        -2.071617      0.087452     -1.134637
     11.73759      4.82366      5.70200        -0.431558     -1.261043      3.767013
      2.37138      9.27201      1.78330        -0.759303      0.082502     -2.707849
      2.93654      9.35889      4.49645        -0.850623      0.565872      1.140607
    total drift:                               -0.012628     -0.003204      0.021050

  FREE ENERGIE OF THE ION-ELECTRON SYSTEM (eV)
  free  energy   TOTEN  =      -340.77782720 eV

  energy  without entropy=     -339.64312000  energy(sigma->0) =     -340.21047360