 vasp.5.4.4.18Apr17-6-g9f103f2a35 (build Aug 13 2019 17:33:20) gamma-only

 executed on             LinuxIFC date 2020.05.11  18:47:06

 INCAR:
 POTCAR:    PAW_PBE Ni_pv 06Sep2000
 POTCAR:    PAW_PBE S 06Sep2000
 POTCAR:    PAW_PBE Ni_pv 06Sep2000
   VRHFIN =Ni:

   TITEL  = PAW_PBE Ni_pv 06Sep2000
   POMASS =   58.690; ZVAL   =   16.000    mass and valenz
   ENMAX  =  367.986; ENMIN  =  275.989 eV

 POTCAR:    PAW_PBE S 06Sep2000
   VRHFIN =S : s2p4

   TITEL  = PAW_PBE S 06Sep2000
   POMASS =   32.066; ZVAL   =    6.000    mass and valenz
   ENMAX  =  258.689; ENMIN  =  194.016 eV

 Optimization of the real space projectors (new method)

 maximal supplied QI-value         = 18.90
 optimisation between [QCUT,QGAM] = [ 10.77, 21.73] = [ 32.49,132.25] Ry
 Optimized for a Real-space Cutoff    1.38 Angstroem

   l    n(q)    QCUT    max X(q) W(low)/X(q) W(high)/X(q)  e(spline)
   1      8    10.771     2.836    0.40E-04    0.29E-04    0.12E-06
   1      8    10.771     4.023    0.10E-03    0.48E-04    0.29E-06
   2      8    10.771    73.368    0.42E-03    0.97E-04    0.44E-06
   2      8    10.771    69.010    0.42E-03    0.99E-04    0.45E-06
   0      9    10.771    54.797    0.10E-03    0.56E-04    0.74E-07
   0      9    10.771    24.266    0.89E-04    0.49E-04    0.67E-07
 Optimization of the real space projectors (new method)

 maximal supplied QI-value         = 19.84
 optimisation between [QCUT,QGAM] = [ 10.71, 21.63] = [ 32.15,130.99] Ry
 Optimized for a Real-space Cutoff    1.19 Angstroem

   l    n(q)    QCUT    max X(q) W(low)/X(q) W(high)/X(q)  e(spline)
   0      8    10.715   187.594    0.41E-03    0.53E-04    0.66E-07
   0      8    10.715   164.243    0.41E-03    0.53E-04    0.65E-07
   1      7    10.715    67.533    0.19E-03    0.59E-03    0.68E-07
   1      7    10.715    50.729    0.19E-03    0.58E-03    0.67E-07
  PAW_PBE Ni_pv 06Sep2000               :
  PAW_PBE S 06Sep2000                   :

 POSCAR: Type_036 Type_136
  positions in cartesian coordinates
 exchange correlation table for  LEXCH =        8
   RHO(1)=    0.500       N(1)  =     2000
   RHO(2)=  100.500       N(2)  =     4000

 ion  position               nearest neighbor table
   1  0.780  0.145  0.121-  63 2.01  49 2.08  41 2.25  50 2.36  64 2.36
   2  0.801  0.144  0.285-  64 2.02  50 2.05  42 2.06
   3  0.297  0.645  0.216-  61 2.14  52 2.14  62 2.15  44 2.25  51 2.37  14 2.50  28 2.53  15 2.53

   4  0.385  0.107  0.125-  45 2.05  67 2.13  46 2.15  21 2.47   5 2.47  53 2.63
   5  0.470  0.145  0.248-  54 2.10  68 2.11  46 2.25  53 2.26  67 2.26   4 2.47  31 2.53  18 2.53

[...]

  16  0.467  0.465  0.333-  54 2.00  62 2.04  40 2.07  15 2.45
  17  0.529  0.147  0.089-  53 2.03  41 2.04  67 2.06
  18  0.597  0.013  0.223-  68 2.07  42 2.11  59 2.20  67 2.26  41 2.26   5 2.53  31 2.53
  19  0.080  0.513  0.127-  43 2.00  66 2.09  57 2.10  44 2.36  65 2.36   6 2.53  32 2.53
  20  0.113  0.503  0.290-  44 2.03  65 2.03  58 2.09
  21  0.252  0.013  0.159-  45 2.07  71 2.10  51 2.16  46 2.36  72 2.36   4 2.47  22 2.49   8 2.53
                            34 2.53
  22  0.293  0.973  0.305-  52 2.03  46 2.05  72 2.05  21 2.49
  23  0.771  0.426  0.117-  49 2.03  50 2.15  47 2.19  69 2.26  24 2.37
  24  0.770  0.513  0.254-  70 2.03  47 2.10  48 2.12  50 2.25  69 2.26  23 2.37  11 2.53  36 2.53

  25  0.909  0.282  0.116-  49 2.07  66 2.10  50 2.11  38 2.19
  26  0.944  0.278  0.271-  37 2.06  38 2.08  50 2.17  65 2.18
  27  0.425  0.864  0.056-  51 2.11  67 2.12  39 2.31  28 2.33  14 2.48
  28  0.425  0.777  0.191-  51 2.16  52 2.17  67 2.25  39 2.26  27 2.33  40 2.36  29 2.44  15 2.53
                             3 2.53
  29  0.467  0.828  0.332-  68 2.00  52 2.05  40 2.08  28 2.44
  30  0.629  0.348  0.084-  41 2.04  69 2.07  31 2.40
  31  0.597  0.277  0.223-  54 2.07  42 2.13  69 2.25  53 2.26  41 2.26  30 2.40   5 2.53  18 2.53

[...]

  35  0.293  0.320  0.304-  62 2.03  58 2.05  46 2.06  34 2.47
  36  0.770  0.777  0.254-  60 2.01  48 2.08  59 2.22  64 2.25  47 2.32  11 2.53  24 2.53
  37  0.993  0.145  0.358-   9 2.02  13 2.06  26 2.06
  38  0.991  0.145  0.182-  26 2.08  13 2.10  12 2.14  25 2.19   8 2.25
  39  0.474  0.645  0.087-  10 2.00  14 2.05  28 2.26  15 2.26  27 2.31
  40  0.509  0.645  0.278-  16 2.07  29 2.08  10 2.16  11 2.25  28 2.36  15 2.36
  41  0.647  0.145  0.119-  17 2.04  30 2.04   1 2.25  31 2.26  18 2.26  42 2.73
  42  0.678  0.143  0.284-   2 2.06  18 2.11  31 2.13  41 2.73
  43  0.103  0.645  0.035-  19 2.00  32 2.00
  44  0.164  0.645  0.214-  33 2.03  20 2.03   3 2.25  32 2.36  19 2.36
  45  0.282  0.146  0.063-   4 2.05  34 2.06  21 2.07
  46  0.336  0.145  0.246-  22 2.05  35 2.06   4 2.15   5 2.25  34 2.36  21 2.36
  47  0.822  0.625  0.157-  24 2.10  23 2.19   6 2.21  36 2.32  48 2.69
  48  0.846  0.648  0.321-   7 2.05  36 2.08  24 2.12  47 2.69
  49  0.816  0.291  0.033-  23 2.03  25 2.07   1 2.08  63 2.72
  50  0.829  0.314  0.214-   2 2.05  25 2.11  23 2.15  26 2.17  24 2.25   1 2.36
  51  0.319  0.831  0.123-  14 2.08  27 2.11  28 2.16  21 2.16   3 2.37
  52  0.351  0.788  0.301-  22 2.03  29 2.05   3 2.14  28 2.17  62 2.72
  53  0.484  0.314  0.151-  17 2.03  15 2.25  31 2.26   5 2.26   4 2.63
  54  0.527  0.286  0.328-  16 2.00  31 2.07   5 2.10  68 2.68
  55  0.001  0.814  0.246-   7 2.03  33 2.03  13 2.19   6 2.36  32 2.36  56 2.75
  56  0.968  0.821  0.080-   6 2.07  32 2.08  12 2.09  55 2.75
  57  0.140  0.323  0.111-   8 2.09  34 2.10  19 2.10  58 2.76
  58  0.174  0.314  0.278-  35 2.05  20 2.09   9 2.11   8 2.36  34 2.36  57 2.76
  59  0.652  0.811  0.195-  11 2.10  10 2.17  18 2.20  36 2.22  60 2.69
  60  0.699  0.785  0.354-  36 2.01  11 2.04  59 2.69  70 2.76
  61  0.312  0.469  0.136-  14 2.06  34 2.12   3 2.14  15 2.15  62 2.78
  62  0.352  0.504  0.302-  35 2.03  16 2.04   3 2.15  15 2.18  52 2.72  61 2.78
  63  0.824  0.008  0.039-  12 2.00   1 2.01  49 2.72
  64  0.829  0.977  0.214-   2 2.02  12 2.10  13 2.15  36 2.25   1 2.36
  65  0.001  0.477  0.246-  20 2.03   7 2.03  26 2.18   6 2.36  19 2.36  66 2.74
  66  0.967  0.467  0.081-   6 2.08  19 2.09  25 2.10  65 2.74
  67  0.484  0.977  0.151-  17 2.06  27 2.12   4 2.13  28 2.25  18 2.26   5 2.26
  68  0.528  0.006  0.328-  29 2.00  18 2.07   5 2.11  54 2.68
  69  0.657  0.477  0.183-  30 2.07  10 2.22  31 2.25  23 2.26  24 2.26  11 2.26
  70  0.694  0.497  0.351-  24 2.03  11 2.04  60 2.76
  71  0.140  0.968  0.111-   8 2.09  32 2.10  21 2.10  72 2.76
  72  0.174  0.977  0.278-  22 2.05  33 2.09   9 2.11   8 2.36  21 2.36  71 2.76

  LATTYP: Found a simple orthorhombic cell.
 ALAT       =     9.5784100000
 B/A-ratio  =     1.6880763216
 C/A-ratio  =     1.7627867312

  Lattice vectors:

 A1 = (   0.0000000000,   9.5784100000,   0.0000000000)
 A2 = (   0.0000000000,   0.0000000000, -16.1690871197)
 A3 = ( -16.8846940542,   0.0000000000,   0.0000000000)

Analysis of symmetry for initial positions (statically):
 Subroutine PRICEL returns:
 Original cell was already a primitive cell.

 Routine SETGRP: Setting up the symmetry group for a
 simple orthorhombic supercell.

 Subroutine GETGRP returns: Found  1 space group operations
 (whereof  1 operations were pure point group operations)
 out of a pool of  8 trial point group operations.

The static configuration has the point symmetry C_1 .

Analysis of symmetry for dynamics (positions and initial velocities):
 Subroutine PRICEL returns:
 Original cell was already a primitive cell.

 Routine SETGRP: Setting up the symmetry group for a
 simple orthorhombic supercell.

 Subroutine GETGRP returns: Found  1 space group operations
 (whereof  1 operations were pure point group operations)
 out of a pool of  8 trial point group operations.

The dynamic configuration has the point symmetry C_1 .

 Subroutine INISYM returns: Found  1 space group operations
 (whereof  1 operations are pure point group operations),
 and found     1 'primitive' translations

 KPOINTS: gamma-point-only calculation. no periodi

Automatic generation of k-mesh.
Space group operators:
 irot       det(A)        alpha          n_x          n_y          n_z        tau_x        tau_y        tau_z
    1     1.000000     0.000000     1.000000     0.000000     0.000000     0.000000     0.000000     0.000000

 Subroutine IBZKPT returns following result:

 Found      1 irreducible k-points:

 Following reciprocal coordinates:
            Coordinates               Weight
  0.000000  0.000000  0.000000      1.000000

 Following cartesian coordinates:
            Coordinates               Weight
  0.000000  0.000000  0.000000      1.000000

 SYSTEM =  "Millerite NiS"
 POSCAR =  Type_036 Type_136

 Startparameter for this run:
   NWRITE =      2    write-flag & timer
   PREC   = normal    normal or accurate (medium, high low for compatibility)
   ISTART =      0    job   : 0-new  1-cont  2-samecut
   ICHARG =      2    charge: 1-file 2-atom 10-const
   ISPIN  =      1    spin polarized calculation?
   LNONCOLLINEAR =      F non collinear calculations
   LSORBIT =      F    spin-orbit coupling
   INIWAV =      1    electr: 0-lowe 1-rand  2-diag
   LASPH  =      F    aspherical Exc in radial PAW
   METAGGA=      F    non-selfconsistent MetaGGA calc.

 Electronic Relaxation 1
   ENCUT  =  450.0 eV  33.07 Ry    5.75 a.u.  29.20 16.57 27.97*2*pi/ulx,y,z
   ENINI  =  450.0     initial cutoff
   ENAUG  =  703.4 eV  augmentation charge cutoff
   NELM   =    100;   NELMIN=  2; NELMDL= -5     # of ELM steps
   EDIFF  = 0.1E-03   stopping-criterion for ELM
   LREAL  =      T    real-space projection
   NLSPLINE    = F    spline interpolate recip. space projectors
   LCOMPAT=      F    compatible to vasp.4.4
   GGA_COMPAT  = T    GGA compatible to vasp.4.4-vasp.4.6
   LMAXPAW     = -100 max onsite density
   LMAXMIX     =    2 max onsite mixed and CHGCAR
   VOSKOWN=      0    Vosko Wilk Nusair interpolation
   ROPT   =   -0.00050  -0.00050
 Ionic relaxation
   EDIFFG = 0.1E-02   stopping-criterion for IOM
   NSW    =      0    number of steps for IOM
   NBLOCK =      1;   KBLOCK =      1    inner block; outer block
   IBRION =     -1    ionic relax: 0-MD 1-quasi-New 2-CG
   NFREE  =      0    steps in history (QN), initial steepest desc. (CG)
   ISIF   =      2    stress and relaxation
   IWAVPR =     10    prediction:  0-non 1-charg 2-wave 3-comb
   ISYM   =      2    0-nonsym 1-usesym 2-fastsym
   LCORR  =      T    Harris-Foulkes like correction to forces

   POTIM  = 0.5000    time-step for ionic-motion
   TEIN   =    0.0    initial temperature
   TEBEG  =    0.0;   TEEND  =   0.0 temperature during run
   SMASS  =  -3.00    Nose mass-parameter (am)
   estimated Nose-frequenzy (Omega)   =  0.10E-29 period in steps =****** mass=  -0.652E-26a.u.
   SCALEE = 1.0000    scale energy and forces
   NPACO  =    256;   APACO  = 16.0  distance and # of slots for P.C.
   PSTRESS=    0.0 pullay stress

  Mass of Ions in am
   POMASS =  58.69 32.07
  Ionic Valenz
   ZVAL   =  16.00  6.00
  Atomic Wigner-Seitz radii
  virtual crystal weights
   VCA    =   1.00  1.00
   NELECT =     792.0000    total number of electrons
   NUPDOWN=      -1.0000    fix difference up-down

 DOS related values:
[...]
  Fock        0.00000     0.00000     0.00000     0.00000     0.00000     0.00000
  Total     115.78147   121.31517   137.42217     0.17500     1.13873    -1.40396
  in kB      70.93777    74.32819    84.19674     0.10722     0.69768    -0.86019

 VOLUME and BASIS-vectors are now :
  energy-cutoff  :      450.00
  volume of cell :     2615.00
      direct lattice vectors                 reciprocal lattice vectors
    16.884694054  0.000000000  0.000000000     0.059225237  0.000000000  0.000000000
     0.000000000  9.578410000  0.000000000     0.000000000  0.104401461  0.000000000
     0.000000000  0.000000000 16.169087120     0.000000000  0.000000000  0.061846411

  length of vectors
    16.884694054  9.578410000 16.169087120     0.059225237  0.104401461  0.061846411

 FORCES acting on ions
    electron-ion (+dipol)            ewald-force                    non-local-force                 convergence-correction
   0.498E+03 0.622E+03 0.206E+04   -.502E+03 -.625E+03 -.207E+04   0.355E+01 0.315E+01 0.505E+01   0.185E-02 -.480E-02 0.551E-02
   0.347E+03 0.145E+03 -.277E+04   -.349E+03 -.146E+03 0.277E+04   0.200E+01 0.222E+01 0.129E+01   -.566E-02 -.458E-02 -.111E-01
   0.976E+03 0.427E+02 -.655E+03   -.982E+03 -.427E+02 0.656E+03   0.490E+01 -.137E-01 -.866E+00   -.574E-02 0.843E-02 0.169E-01
   0.108E+03 -.371E+03 0.236E+04   -.109E+03 0.372E+03 -.237E+04   0.147E+01 -.831E+00 0.725E+01   0.207E-02 -.406E-02 0.531E-02
   0.220E+03 -.917E+02 -.175E+04   -.223E+03 0.927E+02 0.175E+04   0.267E+01 -.461E+00 -.640E+01   0.124E-02 -.542E-02 0.436E-02
   0.672E+03 -.131E+03 0.149E+04   -.678E+03 0.131E+03 -.149E+04   0.561E+01 -.450E+00 0.392E+01   -.736E-02 0.585E-02 0.916E-02
   0.281E+03 -.327E+02 -.314E+04   -.283E+03 0.326E+02 0.314E+04   0.218E+01 0.602E-01 0.348E+00   0.585E-03 0.656E-02 -.451E-02
   0.553E+03 -.111E+02 0.955E+03   -.558E+03 0.111E+02 -.957E+03   0.406E+01 0.771E-02 0.268E+01   -.185E-02 -.711E-02 0.739E-02
   0.588E+02 0.537E+00 -.337E+04   -.625E+02 -.549E+00 0.337E+04   0.500E+01 0.207E-01 -.658E+00   0.100E-02 -.754E-02 -.220E-02
   -.624E+03 -.176E+03 0.184E+04   0.627E+03 0.178E+03 -.184E+04   -.214E+01 -.171E+01 0.340E+01   0.801E-02 0.172E-02 0.840E-02
   -.306E+02 -.114E+03 -.218E+04   0.269E+02 0.113E+03 0.219E+04   0.267E+01 0.547E+00 -.663E+01   -.694E-04 0.593E-02 0.131E-02
   -.179E+03 0.513E+03 0.243E+04   0.183E+03 -.517E+03 -.243E+04   -.340E+01 0.442E+01 0.512E+01   -.804E-02 0.108E-02 0.559E-02
   0.823E+02 0.564E+03 -.213E+04   -.816E+02 -.568E+03 0.214E+04   -.155E+01 0.273E+01 -.367E+01   -.694E-03 -.535E-02 -.433E-02
   0.615E+03 0.498E+03 0.379E+04   -.619E+03 -.500E+03 -.380E+04   0.333E+01 0.178E+01 0.313E+01   0.448E-02 0.652E-02 -.203E-02
   -.171E+03 0.614E+03 0.540E+03   0.171E+03 -.618E+03 -.541E+03   0.732E+00 0.372E+01 0.931E+00   0.103E-01 -.652E-02 0.106E-01
   -.164E+03 0.137E+03 -.355E+04   0.166E+03 -.141E+03 0.355E+04   -.253E+01 0.454E+01 0.177E+01   0.676E-02 -.258E-03 0.525E-02
   -.207E+03 0.130E+03 0.350E+04   0.206E+03 -.130E+03 -.351E+04   0.254E+00 -.490E+00 0.538E+01   0.453E-02 -.832E-03 0.621E-02
   -.791E+03 0.616E+03 -.560E+03   0.795E+03 -.622E+03 0.563E+03   -.328E+01 0.587E+01 -.398E+01   0.549E-02 0.940E-03 0.529E-02
   -.273E+03 0.421E+03 0.217E+04   0.276E+03 -.426E+03 -.217E+04   -.262E+01 0.335E+01 0.476E+01   -.585E-02 -.149E-02 0.747E-02
   -.172E+03 0.108E+03 -.260E+04   0.173E+03 -.109E+03 0.260E+04   -.800E+00 0.104E+01 -.434E-01   -.308E-02 0.464E-02 0.553E-02
   0.455E+03 0.457E+03 0.142E+04   -.458E+03 -.460E+03 -.143E+04   0.184E+01 0.234E+01 0.323E+01   0.491E-02 0.116E-02 0.131E-01
   0.130E+03 0.119E+03 -.312E+04   -.129E+03 -.122E+03 0.312E+04   -.149E+01 0.399E+01 0.167E+01   -.414E-03 0.350E-02 0.961E-03
   -.141E+01 -.685E+03 0.252E+04   -.119E+01 0.687E+03 -.253E+04   0.172E+01 -.209E+01 0.783E+01   -.348E-02 -.583E-02 0.320E-02
   -.307E+03 0.163E+03 -.161E+04   0.309E+03 -.167E+03 0.161E+04   -.125E+01 0.316E+01 -.642E+01   0.406E-03 0.116E-02 -.280E-03
   -.577E+03 -.195E+03 0.250E+04   0.584E+03 0.197E+03 -.250E+04   -.555E+01 -.297E+01 0.505E+01   -.532E-02 -.949E-02 0.316E-02
   0.244E+01 -.480E+03 -.216E+04   -.119E+00 0.483E+03 0.216E+04   -.342E+01 -.254E+01 -.404E+01   -.163E-02 -.469E-02 -.348E-02
   -.357E+03 -.195E+03 0.402E+04   0.356E+03 0.195E+03 -.402E+04   0.156E+01 0.353E+00 -.117E+01   0.530E-02 0.148E-01 0.303E-02
   -.254E+03 -.242E+03 0.654E+02   0.255E+03 0.244E+03 -.628E+02   0.438E+00 -.216E+01 -.175E+01   0.829E-02 0.180E-01 0.154E-01
   -.225E+03 -.122E+03 -.358E+04   0.227E+03 0.125E+03 0.358E+04   -.304E+01 -.424E+01 0.198E+01   0.300E-02 0.554E-02 0.136E-02
   -.361E+02 -.480E+03 0.344E+04   0.384E+02 0.479E+03 -.344E+04   -.254E+01 0.207E+01 -.143E+01   0.320E-02 -.642E-02 0.889E-02
   -.471E+03 -.312E+03 -.103E+04   0.473E+03 0.317E+03 0.104E+04   -.183E+01 -.446E+01 -.447E+01   0.767E-02 -.254E-02 0.244E-02
   -.220E+03 -.429E+03 0.216E+04   0.223E+03 0.433E+03 -.216E+04   -.288E+01 -.341E+01 0.477E+01   -.517E-02 0.795E-02 0.134E-01
   -.149E+03 -.109E+03 -.260E+04   0.150E+03 0.110E+03 0.260E+04   -.984E+00 -.846E+00 0.246E+00   -.181E-02 0.682E-02 0.532E-02
   0.166E+03 -.561E+03 0.156E+04   -.167E+03 0.564E+03 -.156E+04   0.106E+01 -.227E+01 0.392E+01   0.303E-02 -.112E-01 0.822E-02
   0.819E+02 -.139E+03 -.300E+04   -.806E+02 0.143E+03 0.300E+04   -.132E+01 -.442E+01 0.686E+00   0.173E-03 -.114E-01 0.365E-02
   -.283E+03 -.573E+03 -.971E+03   0.286E+03 0.578E+03 0.969E+03   -.206E+01 -.496E+01 -.101E+01   0.169E-02 0.772E-02 -.242E-03
   0.974E+02 0.663E+01 -.157E+04   -.966E+02 -.677E+01 0.157E+04   -.858E+00 0.125E+00 -.167E+01   0.103E-02 -.240E-02 -.242E-02
   -.251E+03 0.103E+02 0.401E+03   0.252E+03 -.103E+02 -.405E+03   0.566E+00 0.185E+00 0.141E+01   -.345E-02 -.300E-02 -.269E-04
   -.342E+03 0.170E+03 0.140E+04   0.345E+03 -.173E+03 -.140E+04   -.292E+01 0.312E+01 0.202E+01   0.586E-02 0.237E-02 0.108E-02
   -.173E+03 0.102E+01 -.861E+03   0.173E+03 -.113E+01 0.867E+03   0.108E+01 0.175E+00 -.412E+01   0.197E-02 0.435E-02 0.437E-02
   -.281E+03 0.352E+03 0.924E+03   0.284E+03 -.355E+03 -.927E+03   -.467E+00 0.119E+01 0.213E+01   0.218E-02 0.684E-03 0.331E-02
   -.137E+03 0.613E+02 -.106E+04   0.138E+03 -.611E+02 0.106E+04   -.582E+00 -.134E+00 -.231E+01   -.127E-02 -.340E-03 -.169E-02
   -.143E+03 0.195E+01 0.161E+04   0.145E+03 -.193E+01 -.162E+04   -.137E+00 -.134E-02 0.864E+00   -.797E-03 0.938E-03 -.975E-03
   -.195E+03 0.407E+01 -.185E+01   0.196E+03 -.410E+01 0.302E+01   0.696E+00 0.140E+00 -.199E+01   -.396E-02 0.420E-02 0.634E-02
   0.167E+03 -.110E+03 0.165E+04   -.168E+03 0.110E+03 -.166E+04   0.110E+01 -.661E-01 0.182E+01   0.205E-02 -.241E-02 0.236E-02
   -.521E+02 -.681E+02 -.601E+03   0.529E+02 0.682E+02 0.607E+03   0.424E+00 -.416E-01 -.474E+01   -.147E-02 -.457E-02 0.328E-02
   0.693E+01 -.288E+03 0.730E+03   -.772E+01 0.290E+03 -.734E+03   0.126E+01 -.674E+00 0.231E+01   -.435E-03 0.266E-02 0.219E-02
   -.543E+02 -.346E+02 -.125E+04   0.561E+02 0.350E+02 0.126E+04   -.742E+00 -.376E+00 -.335E+01   0.113E-03 0.259E-02 -.222E-02
   -.150E+02 -.623E+02 0.171E+04   0.154E+02 0.639E+02 -.171E+04   -.714E+00 -.122E+01 0.266E+01   -.476E-04 -.296E-02 0.291E-02
   0.447E+02 -.134E+03 -.338E+03   -.445E+02 0.133E+03 0.341E+03   -.644E+00 0.140E+01 -.192E+01   -.108E-02 -.232E-02 -.150E-02
   0.440E+03 -.586E+02 0.851E+03   -.443E+03 0.585E+02 -.853E+03   0.139E+01 0.121E+00 0.794E+00   -.128E-03 0.859E-02 0.354E-02
   0.230E+03 0.848E+02 -.120E+04   -.232E+03 -.841E+02 0.120E+04   0.255E+00 -.128E+00 -.264E+01   0.187E-02 0.759E-02 0.360E-02
   0.134E+03 -.260E+03 0.660E+03   -.136E+03 0.262E+03 -.661E+03   0.101E+01 -.607E+00 0.117E+01   0.369E-02 -.366E-02 0.129E-02
   -.163E+03 0.555E+02 -.143E+04   0.164E+03 -.542E+02 0.144E+04   -.762E+00 -.111E+01 -.259E+01   0.289E-02 -.136E-02 -.360E-03
   0.143E+03 -.161E+03 -.423E+03   -.144E+03 0.163E+03 0.425E+03   -.485E+00 -.466E+00 -.144E+01   0.105E-02 0.140E-02 0.308E-02
   0.155E+03 -.613E+02 0.133E+04   -.157E+03 0.610E+02 -.134E+04   0.154E+01 0.110E+01 0.385E+01   -.404E-02 0.423E-02 0.319E-02
   0.107E+03 -.458E+02 0.115E+04   -.109E+03 0.444E+02 -.116E+04   0.837E+00 0.152E+01 0.401E+01   -.134E-02 -.227E-02 0.190E-02
   0.774E+02 -.139E+03 -.785E+03   -.781E+02 0.140E+03 0.788E+03   0.114E-01 -.148E+01 -.183E+01   0.480E-03 -.171E-02 0.261E-02
   -.214E+03 -.193E+03 0.405E+03   0.214E+03 0.195E+03 -.409E+03   0.365E+00 -.701E-01 0.233E+01   0.211E-02 0.226E-02 0.271E-02
   -.400E+02 -.254E+03 -.150E+04   0.395E+02 0.258E+03 0.150E+04   0.144E+00 -.241E+01 -.171E+01   -.110E-03 0.189E-02 -.241E-02
   0.234E+03 0.194E+03 0.855E+03   -.235E+03 -.194E+03 -.859E+03   0.428E+00 -.192E+00 0.228E+01   -.213E-02 -.602E-02 0.236E-02
   0.223E+03 -.627E+02 -.118E+04   -.224E+03 0.621E+02 0.118E+04   -.119E+00 0.300E+00 -.324E+01   0.178E-03 -.195E-02 0.456E-02
   0.156E+03 0.348E+03 0.152E+04   -.157E+03 -.351E+03 -.152E+04   0.240E+00 0.195E+01 0.155E+01   0.156E-02 0.170E-02 0.529E-02
   0.208E+03 0.322E+03 -.107E+03   -.211E+03 -.324E+03 0.108E+03   0.134E+01 -.263E+00 -.423E+00   0.172E-03 -.992E-03 -.225E-02
   0.113E+03 0.148E+03 -.436E+03   -.113E+03 -.150E+03 0.438E+03   -.608E+00 0.334E+00 -.116E+01   -.104E-02 0.138E-02 0.199E-02
   0.543E+02 0.345E+02 0.133E+04   -.565E+02 -.344E+02 -.133E+04   0.170E+01 -.964E+00 0.389E+01   -.324E-02 -.220E-02 0.159E-02
   -.253E+03 0.180E+03 0.508E+03   0.254E+03 -.182E+03 -.508E+03   -.124E+01 0.663E+00 -.148E+00   -.594E-04 0.850E-03 0.177E-02
   -.200E+03 -.482E+02 -.143E+04   0.200E+03 0.467E+02 0.144E+04   -.478E+00 0.122E+01 -.211E+01   0.301E-04 -.303E-02 0.861E-03
   -.466E+02 -.119E+03 0.224E+03   0.444E+02 0.118E+03 -.224E+03   0.148E+01 0.967E+00 -.478E+00   -.166E-03 -.266E-02 0.120E-02
   -.266E+02 0.232E+03 -.153E+04   0.255E+02 -.236E+03 0.153E+04   0.588E+00 0.201E+01 -.426E+00   -.111E-02 -.480E-04 -.146E-02
   0.139E+03 0.398E+02 0.115E+04   -.140E+03 -.385E+02 -.115E+04   0.693E+00 -.144E+01 0.412E+01   -.473E-03 0.884E-03 0.374E-02
   0.921E+02 0.138E+03 -.791E+03   -.929E+02 -.139E+03 0.794E+03   0.801E-01 0.150E+01 -.180E+01   0.163E-02 -.292E-02 0.280E-02
   -.886E+01 -.135E+02 -.292E+02   -.173E-11 0.117E-11 -.148E-11   0.882E+01 0.134E+02 0.290E+02   0.303E-01 0.106E-01 0.217E+00

 POSITION                                       TOTAL-FORCE (eV/Angst)
     13.17084      1.39171      1.94975        -0.136718      0.250411      1.599128
     13.51859      1.37586      4.61088        -0.037083      0.364269      1.057253
      5.02033      6.18092      3.49202        -0.979354      0.060703     -0.188100
      6.49810      1.02556      2.02713         0.886208      0.527935     -0.426116
      7.93172      1.39171      4.00611        -0.824179      0.521229     -0.971890
     16.08224      6.18092      2.46384        -0.408798     -0.340331      2.104663
     16.32770      6.18254      5.06939         0.305456      0.056353      0.779923
      2.10894      1.39171      2.97793        -0.574730     -0.035446      0.685515
      1.84815      1.39215      5.32553         1.261423      0.003213      0.853348
      9.62325      6.20015      2.58989         0.617422     -0.349533     -0.436322
     10.84312      6.18092      4.52020        -0.981901     -0.298016     -0.008693
     15.42225      0.04496      1.94307         0.715286      0.456345     -0.080403
     15.90716      0.11815      4.39751        -0.794347     -0.652175      0.120353
      5.97391      6.13152      1.17829        -0.705928      0.054381     -1.548060
      7.17375      4.91558      3.08454         0.847960     -0.515938     -0.373977
      7.88647      4.45554      5.38817        -0.055901      0.476874      0.752406
      8.93929      1.41054      1.43829        -0.390570     -0.204288     -1.860617
     10.08514      0.12638      3.59863         0.900857     -0.441004     -1.475156
      1.35096      4.91558      2.05636         0.307066     -0.776445      2.230511
      1.90982      4.81639      4.69089         0.286537      0.259506      1.361042
      4.26235      0.12638      2.57045        -0.432069     -0.595935      1.009545
      4.93925      9.31549      4.93541        -0.068730      0.263565      1.025062
     13.01967      4.08345      1.89313        -0.882894      0.682262     -0.018992
     12.99653      4.91558      4.11272         0.867350     -0.446752     -0.743870
     15.34939      2.70047      1.87855         1.060460     -0.395014     -0.025903
     15.93460      2.66302      4.38574        -1.099425      0.892961     -0.128113
      7.18130      8.27985      0.90871         0.346802      0.284317     -0.645972
      7.17375      7.44626      3.08454         0.901583     -0.254742      0.914744
      7.88836      7.92911      5.36486        -0.273727     -0.642031      0.764139
     10.62697      3.33683      1.36121        -0.220152      0.619841     -0.955441
     10.08514      2.65705      3.59863         0.468412      0.200787     -0.710418
      1.35096      7.44626      2.05636         0.374079      0.744366      2.375806
      1.90936      7.54531      4.69065         0.183869     -0.317620      1.360225
      4.26235      2.65705      2.57045         0.104128      0.475323      1.151986
      4.94393      3.06949      4.91291        -0.056790     -0.435109      0.870679
     12.99653      7.44626      4.11272         0.862756      0.404180     -2.968871
     16.76062      1.38788      5.78228        -0.131974     -0.021447      3.188040
     16.74052      1.39171      2.94940         2.144549      0.089941     -1.941609
      8.00634      6.18092      1.40713         0.493052      0.357737     -3.312071
      8.59001      6.18092      4.49167         1.101750      0.067676      1.103074
     10.91773      1.39171      1.92122         1.731038     -1.313449     -1.581128
     11.45437      1.37406      4.59949         0.764169      0.063598      2.561858
      1.74122      6.17951      0.55894         1.395255      0.022563     -3.924895
      2.76722      6.18092      3.46349         2.393773      0.111815     -0.819796
      4.75879      1.40045      1.01667         0.349476      0.195627     -3.736624
      5.67861      1.39171      3.97758         1.168402      0.086825      1.203947
     13.87844      5.98674      2.53984         0.473382      1.363150     -1.751595
     14.27928      6.20790      5.19127         1.092323     -0.005665      2.504176
     13.78060      2.78611      0.53387        -0.322789      0.359960     -3.809899
     13.99844      3.00295      3.46826        -0.482730      1.004451      1.784522
      5.39203      7.96247      1.98163        -1.661937     -0.035004     -1.160936
      5.93388      7.55208      4.85881        -1.160870      0.607956      1.795255
      8.17565      3.00295      2.44008        -0.900315      1.450474     -0.066074
      8.89928      2.73699      5.29907         0.273804      0.141892      2.746391
      0.02514      7.79215      3.98236        -0.964173      1.662128      0.553157
     16.34225      7.86270      1.28974        -0.868660      0.750521     -3.028538
      2.36335      3.09371      1.79655        -0.785509      0.110575     -2.790436
      2.93654      3.00295      4.49645        -0.725085     -0.061103      1.181333
     11.01678      7.76404      3.15736         0.087201      1.583983     -1.500565
     11.80062      7.52075      5.72366        -0.426196      1.280718      3.636389
      5.26454      4.49121      2.20108        -0.784234     -0.437771     -1.461927
      5.94588      4.82917      4.87999        -1.077199     -0.336690      1.953624
     13.91560      0.07305      0.62262        -0.814995     -1.672045     -3.419483
     13.99844      9.35889      3.46826        -1.055902     -2.147190      0.822456
      0.02514      4.56969      3.98236        -0.926314     -1.590728      0.636521
     16.33374      4.46887      1.30530        -0.471094     -0.801105     -2.909382
      8.17565      9.35889      2.44008         0.246353     -1.738352     -0.200868
      8.92160      0.05926      5.30346         0.001965     -0.271575      2.833234
     11.08705      4.56969      2.95417        -0.664635     -0.310341     -0.574725
     11.72342      4.75913      5.68206        -0.588201     -1.420873      3.715893
      2.35801      9.27014      1.79485        -0.613684     -0.167385     -2.791953
      2.93654      9.35889      4.49645        -0.664356      0.120693      1.113221
    total drift:                               -0.009642     -0.107627     -0.011386

  FREE ENERGIE OF THE ION-ELECTRON SYSTEM (eV)
  free  energy   TOTEN  =      -340.79847951 eV

  energy  without entropy=     -339.80837578  energy(sigma->0) =     -340.30342765