 vasp.5.4.4.18Apr17-6-g9f103f2a35 (build Aug 13 2019 17:33:20) gamma-only

 executed on             LinuxIFC date 2020.05.12  07:48:28

 INCAR:
 POTCAR:    PAW_PBE Ni_pv 06Sep2000
 POTCAR:    PAW_PBE S 06Sep2000
 POTCAR:    PAW_PBE Ni_pv 06Sep2000
   VRHFIN =Ni:

   TITEL  = PAW_PBE Ni_pv 06Sep2000
   POMASS =   58.690; ZVAL   =   16.000    mass and valenz
   ENMAX  =  367.986; ENMIN  =  275.989 eV

 POTCAR:    PAW_PBE S 06Sep2000
   VRHFIN =S : s2p4

   TITEL  = PAW_PBE S 06Sep2000
   POMASS =   32.066; ZVAL   =    6.000    mass and valenz
   ENMAX  =  258.689; ENMIN  =  194.016 eV

 Optimization of the real space projectors (new method)

 maximal supplied QI-value         = 18.90
 optimisation between [QCUT,QGAM] = [ 10.77, 21.73] = [ 32.49,132.25] Ry
 Optimized for a Real-space Cutoff    1.38 Angstroem

   l    n(q)    QCUT    max X(q) W(low)/X(q) W(high)/X(q)  e(spline)
   1      8    10.771     2.836    0.40E-04    0.29E-04    0.12E-06
   1      8    10.771     4.023    0.10E-03    0.48E-04    0.29E-06
   2      8    10.771    73.368    0.42E-03    0.97E-04    0.44E-06
   2      8    10.771    69.010    0.42E-03    0.99E-04    0.45E-06
   0      9    10.771    54.797    0.10E-03    0.56E-04    0.74E-07
   0      9    10.771    24.266    0.89E-04    0.49E-04    0.67E-07
 Optimization of the real space projectors (new method)

 maximal supplied QI-value         = 19.84
 optimisation between [QCUT,QGAM] = [ 10.71, 21.63] = [ 32.15,130.99] Ry
 Optimized for a Real-space Cutoff    1.19 Angstroem

   l    n(q)    QCUT    max X(q) W(low)/X(q) W(high)/X(q)  e(spline)
   0      8    10.715   187.594    0.41E-03    0.53E-04    0.66E-07
   0      8    10.715   164.243    0.41E-03    0.53E-04    0.65E-07
   1      7    10.715    67.533    0.19E-03    0.59E-03    0.68E-07
   1      7    10.715    50.729    0.19E-03    0.58E-03    0.67E-07
  PAW_PBE Ni_pv 06Sep2000               :
  PAW_PBE S 06Sep2000                   :

 POSCAR: Type_048 Type_148
  positions in cartesian coordinates
 exchange correlation table for  LEXCH =        8
   RHO(1)=    0.500       N(1)  =     2000
   RHO(2)=  100.500       N(2)  =     4000

 ion  position               nearest neighbor table
   1  0.256  0.016  0.152-  75 2.25  66 2.26  80 2.26  53 2.36  93 2.36   5 2.41   9 2.53
   2  0.256  0.016  0.481-  76 2.25  67 2.26  81 2.26  54 2.36  94 2.36  10 2.53   6 2.53
   3  0.006  0.266  0.317-  63 2.25  68 2.26  71 2.26  56 2.36  60 2.36   7 2.53  23 2.53
   4  0.049  0.267  0.637-  61 2.06  57 2.06   8 2.31  72 2.34
   5  0.294  0.013  0.070-  90 2.06  93 2.12  49 2.13  62 2.23  80 2.33   1 2.41   9 2.51
   6  0.256  0.016  0.394-  79 2.25  63 2.26  81 2.26  50 2.36  94 2.36   2 2.53  10 2.53
   7  0.006  0.266  0.230-  66 2.25  71 2.26  64 2.26  60 2.36  51 2.36   3 2.53  23 2.53
   8  0.006  0.266  0.558-  67 2.25  72 2.26  65 2.26   4 2.31  61 2.36  52 2.36  24 2.49
   9  0.190  0.215  0.109-  62 2.10  49 2.11  58 2.25  66 2.26  53 2.36   5 2.51   1 2.53
  10  0.190  0.215  0.438-  59 2.25  67 2.26  63 2.26  54 2.36  50 2.36   2 2.53   6 2.53
  11  0.440  0.465  0.273-  82 2.25  51 2.26  56 2.26  64 2.36  68 2.36  19 2.53  15 2.53
  12  0.420  0.475  0.593-  52 2.05  83 2.13  57 2.15  65 2.31  20 2.53
  13  0.756  0.016  0.152-  86 2.25  53 2.26  93 2.26  66 2.36  80 2.36  17 2.53  21 2.53
  14  0.756  0.016  0.481-  87 2.25  54 2.26  94 2.26  67 2.36  81 2.36  22 2.53  18 2.53
  15  0.506  0.266  0.317-  50 2.25  56 2.26  60 2.26  68 2.36  71 2.36  19 2.53  11 2.53
  16  0.466  0.275  0.638-  61 2.05  57 2.06  20 2.33  72 2.48
  17  0.756  0.016  0.066-  90 2.04  62 2.11  49 2.21  93 2.26  80 2.36  21 2.53  13 2.53
  18  0.756  0.016  0.394-  91 2.25  50 2.26  94 2.26  63 2.36  81 2.36  14 2.53  22 2.53
  19  0.506  0.266  0.230-  53 2.25  60 2.26  51 2.26  71 2.36  64 2.36  15 2.53  11 2.53
  20  0.506  0.266  0.558-  54 2.25  61 2.26  52 2.26  16 2.33  72 2.36  65 2.36  12 2.53
  21  0.690  0.215  0.109-  49 2.06  62 2.17  69 2.25  53 2.26  66 2.36  17 2.53  13 2.53
  22  0.690  0.215  0.438-  70 2.25  54 2.26  50 2.26  67 2.36  63 2.36  14 2.53  18 2.53
  23  0.940  0.465  0.273-  95 2.25  64 2.26  68 2.26  51 2.36  56 2.36   7 2.53   3 2.53
  24  0.959  0.474  0.591-  52 2.09  57 2.13  65 2.18  96 2.21   8 2.49
  25  0.256  0.516  0.152-  51 2.25  88 2.26  58 2.26  77 2.36  69 2.36  29 2.53  33 2.53
  26  0.256  0.516  0.481-  52 2.25  89 2.26  59 2.26  78 2.36  70 2.36  34 2.53  30 2.53
  27  0.006  0.766  0.317-  85 2.25  91 2.26  95 2.26  79 2.36  82 2.36  31 2.53  47 2.53
  28  0.966  0.775  0.638-  96 2.05  92 2.06  32 2.33  83 2.48
  29  0.256  0.516  0.066-  55 2.04  73 2.11  84 2.21  58 2.26  69 2.36  33 2.53  25 2.53
  30  0.256  0.516  0.394-  56 2.25  85 2.26  59 2.26  74 2.36  70 2.36  26 2.53  34 2.53
  31  0.006  0.766  0.230-  88 2.25  95 2.26  86 2.26  82 2.36  75 2.36  27 2.53  47 2.53
  32  0.006  0.766  0.558-  89 2.25  96 2.26  87 2.26  28 2.33  83 2.36  76 2.36  48 2.53
  33  0.190  0.715  0.109-  84 2.06  73 2.17  80 2.25  88 2.26  77 2.36  29 2.53  25 2.53
  34  0.190  0.715  0.438-  81 2.25  89 2.26  85 2.26  78 2.36  74 2.36  26 2.53  30 2.53
  35  0.440  0.965  0.273-  60 2.25  75 2.26  79 2.26  86 2.36  91 2.36  43 2.53  39 2.53
  36  0.459  0.974  0.591-  87 2.09  92 2.13  76 2.18  61 2.21  44 2.49
  37  0.756  0.516  0.152-  64 2.25  77 2.26  69 2.26  88 2.36  58 2.36  41 2.41  45 2.53
  38  0.756  0.516  0.481-  65 2.25  78 2.26  70 2.26  89 2.36  59 2.36  46 2.53  42 2.53
  39  0.506  0.766  0.317-  74 2.25  79 2.26  82 2.26  91 2.36  95 2.36  43 2.53  35 2.53
  40  0.549  0.767  0.637-  96 2.06  92 2.06  44 2.31  83 2.34
  41  0.794  0.513  0.070-  55 2.06  58 2.12  84 2.13  73 2.23  69 2.33  37 2.41  45 2.51
  42  0.756  0.516  0.394-  68 2.25  74 2.26  70 2.26  85 2.36  59 2.36  38 2.53  46 2.53
  43  0.506  0.766  0.230-  77 2.25  82 2.26  75 2.26  95 2.36  86 2.36  39 2.53  35 2.53
  44  0.506  0.766  0.558-  78 2.25  83 2.26  76 2.26  40 2.31  96 2.36  87 2.36  36 2.49
  45  0.690  0.715  0.109-  73 2.10  84 2.11  93 2.25  77 2.26  88 2.36  41 2.51  37 2.53
  46  0.690  0.715  0.438-  94 2.25  78 2.26  74 2.26  89 2.36  85 2.36  38 2.53  42 2.53
  47  0.940  0.965  0.273-  71 2.25  86 2.26  91 2.26  75 2.36  79 2.36  31 2.53  27 2.53
  48  0.920  0.975  0.593-  87 2.05  72 2.13  92 2.15  76 2.31  32 2.53
  49  0.464  0.160  0.067-  21 2.06   9 2.11   5 2.13  17 2.21  90 2.56
  50  0.468  0.167  0.382-  15 2.25  18 2.26  22 2.26   6 2.36  10 2.36
  51  0.218  0.417  0.218-  25 2.25  11 2.26  19 2.26  23 2.36   7 2.36
  52  0.218  0.417  0.547-  12 2.05  24 2.09  26 2.25  20 2.26   8 2.36  57 2.76
  53  0.468  0.167  0.164-  19 2.25  13 2.26  21 2.26   1 2.36   9 2.36
  54  0.468  0.167  0.493-  20 2.25  22 2.26  14 2.26  10 2.36   2 2.36
  55  0.038  0.459  0.023-  29 2.04  41 2.06  58 2.55  84 2.56
  56  0.218  0.417  0.329-  30 2.25  15 2.26  11 2.26   3 2.36  23 2.36
  57  0.202  0.414  0.641-  16 2.06   4 2.06  24 2.13  12 2.15  52 2.76
  58  0.053  0.414  0.109-  41 2.12   9 2.25  29 2.26  25 2.26  37 2.36  55 2.55
  59  0.053  0.414  0.438-  10 2.25  26 2.26  30 2.26  38 2.36  42 2.36
  60  0.303  0.164  0.273-  35 2.25  19 2.26  15 2.26   7 2.36   3 2.36
[...]
  82  0.303  0.664  0.273-  11 2.25  43 2.26  39 2.26  31 2.36  27 2.36
  83  0.303  0.664  0.602-  12 2.13  44 2.26  40 2.34  32 2.36  28 2.48
  84  0.964  0.660  0.067-  33 2.06  45 2.11  41 2.13  29 2.21  55 2.56
  85  0.968  0.667  0.382-  27 2.25  30 2.26  34 2.26  42 2.36  46 2.36
  86  0.718  0.917  0.218-  13 2.25  47 2.26  31 2.26  35 2.36  43 2.36
  87  0.718  0.917  0.547-  48 2.05  36 2.09  14 2.25  32 2.26  44 2.36  92 2.76
  88  0.968  0.667  0.164-  31 2.25  25 2.26  33 2.26  37 2.36  45 2.36
  89  0.968  0.667  0.493-  32 2.25  34 2.26  26 2.26  46 2.36  38 2.36
  90  0.538  0.959  0.023-  17 2.04   5 2.06  93 2.55  49 2.56
  91  0.718  0.917  0.329-  18 2.25  27 2.26  47 2.26  39 2.36  35 2.36
  92  0.702  0.914  0.641-  28 2.06  40 2.06  36 2.13  48 2.15  87 2.76
  93  0.553  0.914  0.109-   5 2.12  45 2.25  17 2.26  13 2.26   1 2.36  90 2.55
  94  0.553  0.914  0.438-  46 2.25  14 2.26  18 2.26   2 2.36   6 2.36
  95  0.803  0.664  0.273-  23 2.25  31 2.26  27 2.26  43 2.36  39 2.36
  96  0.803  0.664  0.602-  28 2.05  40 2.06  24 2.21  32 2.26  44 2.36

  LATTYP: Found a simple monoclinic cell.
 ALAT       =    13.8711386352
 B/A-ratio  =     2.1019774055
 C/A-ratio  =     1.3233367991
 COS(beta)  =    -0.9620914447

  Lattice vectors:

 A1 = (  -8.3714133957, -11.0601955134,   0.0000000000)
 A2 = (   0.0000000000,   0.0000000000, -29.1568200000)
 A3 = (  14.6499733957,  11.0601955134,   0.0000000000)

Analysis of symmetry for initial positions (statically):
 Subroutine PRICEL returns following result:

[...]

   2 primitive cells build up your supercell.

 Routine SETGRP: Setting up the symmetry group for a
 simple monoclinic supercell.

 Subroutine GETGRP returns: Found  1 space group operations
 (whereof  1 operations were pure point group operations)
 out of a pool of  4 trial point group operations.

The static configuration has the point symmetry C_1 .

Analysis of symmetry for dynamics (positions and initial velocities):
 Subroutine PRICEL returns following result:

  LATTYP: Found a simple monoclinic cell.
 ALAT       =    10.0330724044
 B/A-ratio  =     2.9060709247
 C/A-ratio  =     1.5175735465
 COS(beta)  =    -0.9738277425

  Lattice vectors:

 A1 = (  -8.3714133020,   5.5300977567,   0.0000000000)
 A2 = (   0.0000000000,   0.0000000000, -29.1568200000)
 A3 = (  10.4642666041, -11.0601955134,   0.0000000000)

   2 primitive cells build up your supercell.

 Routine SETGRP: Setting up the symmetry group for a
 simple monoclinic supercell.

 Subroutine GETGRP returns: Found  1 space group operations
 (whereof  1 operations were pure point group operations)
 out of a pool of  4 trial point group operations.

The dynamic configuration has the point symmetry C_1 .

 Subroutine INISYM returns: Found  1 space group operations
 (whereof  1 operations are pure point group operations),
 and found     2 'primitive' translations

 KPOINTS: gamma-point-only calculation. no periodi

Automatic generation of k-mesh.
Space group operators:
 irot       det(A)        alpha          n_x          n_y          n_z        tau_x        tau_y        tau_z
    1     1.000000     0.000000     1.000000     0.000000     0.000000     0.000000     0.000000     0.000000

 Subroutine IBZKPT returns following result:

 Found      1 irreducible k-points:

 Following reciprocal coordinates:
            Coordinates               Weight
  0.000000  0.000000  0.000000      1.000000

 Following cartesian coordinates:
            Coordinates               Weight
  0.000000  0.000000  0.000000      1.000000

 SYSTEM =  "Millerite NiS"
 POSCAR =  Type_048 Type_148

 Startparameter for this run:
   NWRITE =      2    write-flag & timer
   PREC   = normal    normal or accurate (medium, high low for compatibility)
   ISTART =      0    job   : 0-new  1-cont  2-samecut
   ICHARG =      2    charge: 1-file 2-atom 10-const
   ISPIN  =      1    spin polarized calculation?
[...]
     0.000000000  0.000000000 29.156820000     0.000000000  0.000000000  0.034297293

  length of vectors
     6.278560000 11.256463038 29.156820000     0.162098538  0.090414315  0.034297293

 FORCES acting on ions
    electron-ion (+dipol)            ewald-force                    non-local-force                 convergence-correction
   0.106E+02 0.277E+03 0.402E+04   -.115E+02 -.278E+03 -.401E+04   0.914E+00 0.133E+01 -.148E+01   0.698E-02 0.146E-01 -.107E+01
   -.237E+02 0.258E+03 -.348E+04   0.227E+02 -.259E+03 0.348E+04   0.108E+01 0.862E+00 -.203E+01   -.401E-02 -.111E-01 0.908E-01
   -.411E+02 0.258E+03 0.295E+03   0.402E+02 -.258E+03 -.294E+03   0.978E+00 0.501E+00 -.109E+01   0.291E-02 -.478E-01 0.164E+00
   0.449E+03 0.275E+03 -.735E+04   -.451E+03 -.273E+03 0.734E+04   0.578E+00 -.205E+01 0.309E+01   0.882E-01 -.145E-01 0.640E+00
   0.280E+03 0.367E+03 0.696E+04   -.284E+03 -.371E+03 -.697E+04   0.175E+01 0.320E+01 0.662E+01   0.244E-01 0.246E-01 -.259E+00
   -.403E+02 0.258E+03 -.593E+03   0.394E+02 -.258E+03 0.592E+03   0.988E+00 0.564E+00 0.755E+00   -.442E-02 -.412E-01 0.171E+00
   -.399E+02 0.257E+03 0.318E+04   0.389E+02 -.258E+03 -.318E+04   0.115E+01 0.693E+00 0.122E+01   -.446E-03 -.556E-01 -.843E+00
   0.117E+03 0.291E+03 -.446E+04   -.119E+03 -.291E+03 0.446E+04   0.189E+01 0.544E+00 -.186E+00   0.275E-01 -.385E-01 0.575E+00
   0.197E+02 -.631E+03 0.563E+04   -.196E+02 0.634E+03 -.563E+04   -.672E-02 -.277E+01 0.103E+01   0.208E-01 -.926E-01 -.713E+00
   -.384E+02 -.515E+03 -.204E+04   0.376E+02 0.515E+03 0.204E+04   0.983E+00 -.932E+00 -.318E+00   0.100E-01 -.309E-01 0.141E+00
   -.413E+02 -.515E+03 0.174E+04   0.406E+02 0.516E+03 -.174E+04   0.841E+00 -.133E+01 -.102E+00   -.125E-01 0.160E+00 -.317E+00
   -.382E+03 -.525E+03 -.601E+04   0.386E+03 0.527E+03 0.601E+04   -.285E+01 -.193E+01 -.220E+01   -.816E-02 -.137E+00 0.581E+00
   -.746E+02 0.277E+03 0.407E+04   0.731E+02 -.278E+03 -.406E+04   0.159E+01 0.124E+01 -.173E+01   0.348E-02 0.151E-01 -.109E+01
   -.545E+02 0.246E+03 -.345E+04   0.535E+02 -.246E+03 0.345E+04   0.113E+01 0.680E+00 -.159E+01   -.911E-04 0.317E-01 0.384E-01
   -.415E+02 0.258E+03 0.295E+03   0.406E+02 -.258E+03 -.294E+03   0.956E+00 0.511E+00 -.115E+01   0.507E-02 -.221E-01 0.156E+00
   -.479E+03 0.218E+03 -.736E+04   0.479E+03 -.216E+03 0.736E+04   0.106E+01 -.181E+01 0.422E+01   -.878E-01 -.564E-01 0.565E+00
   -.290E+03 0.338E+03 0.700E+04   0.292E+03 -.343E+03 -.700E+04   -.126E+01 0.394E+01 0.791E+01   -.181E-01 0.181E-01 -.225E+00
   -.423E+02 0.257E+03 -.591E+03   0.414E+02 -.257E+03 0.591E+03   0.941E+00 0.607E+00 0.692E+00   0.746E-02 -.612E-02 0.172E+00
   -.429E+02 0.255E+03 0.319E+04   0.420E+02 -.255E+03 -.319E+04   0.977E+00 0.512E+00 0.928E+00   0.185E-02 -.260E-01 -.856E+00
   -.194E+03 0.249E+03 -.446E+04   0.194E+03 -.250E+03 0.446E+04   0.470E+00 0.549E+00 -.666E-01   -.169E-01 -.522E-01 0.550E+00
   -.803E+02 -.651E+03 0.565E+04   0.807E+02 0.654E+03 -.565E+04   0.170E+00 -.326E+01 -.161E+00   -.898E-02 -.136E+00 -.719E+00
   -.439E+02 -.519E+03 -.204E+04   0.432E+02 0.520E+03 0.204E+04   0.901E+00 -.894E+00 -.418E+00   -.720E-02 -.517E-01 0.132E+00
   -.410E+02 -.515E+03 0.174E+04   0.402E+02 0.515E+03 -.174E+04   0.947E+00 -.126E+01 0.213E-01   0.246E-02 0.142E+00 -.303E+00
   0.305E+03 -.495E+03 -.594E+04   -.310E+03 0.497E+03 0.594E+04   0.307E+01 -.129E+01 -.211E+01   0.355E-02 -.458E-01 0.604E+00
   -.746E+02 0.277E+03 0.407E+04   0.731E+02 -.278E+03 -.406E+04   0.159E+01 0.124E+01 -.173E+01   0.364E-02 0.153E-01 -.109E+01
   -.545E+02 0.246E+03 -.345E+04   0.535E+02 -.246E+03 0.345E+04   0.113E+01 0.680E+00 -.159E+01   -.451E-03 0.306E-01 0.380E-01
   -.415E+02 0.258E+03 0.295E+03   0.406E+02 -.258E+03 -.294E+03   0.956E+00 0.511E+00 -.115E+01   0.524E-02 -.254E-01 0.156E+00
   -.479E+03 0.218E+03 -.736E+04   0.479E+03 -.216E+03 0.736E+04   0.106E+01 -.181E+01 0.422E+01   -.870E-01 -.561E-01 0.565E+00
   -.290E+03 0.338E+03 0.700E+04   0.292E+03 -.343E+03 -.700E+04   -.126E+01 0.394E+01 0.791E+01   -.175E-01 0.193E-01 -.224E+00
   -.423E+02 0.257E+03 -.591E+03   0.414E+02 -.257E+03 0.591E+03   0.941E+00 0.607E+00 0.692E+00   0.739E-02 -.830E-02 0.171E+00
   -.429E+02 0.255E+03 0.319E+04   0.420E+02 -.255E+03 -.319E+04   0.977E+00 0.512E+00 0.928E+00   0.245E-02 -.290E-01 -.856E+00
   -.194E+03 0.249E+03 -.446E+04   0.194E+03 -.250E+03 0.446E+04   0.470E+00 0.549E+00 -.666E-01   -.165E-01 -.519E-01 0.551E+00
   -.803E+02 -.651E+03 0.565E+04   0.807E+02 0.654E+03 -.565E+04   0.170E+00 -.326E+01 -.161E+00   -.884E-02 -.137E+00 -.719E+00
   -.439E+02 -.519E+03 -.204E+04   0.432E+02 0.520E+03 0.204E+04   0.901E+00 -.894E+00 -.418E+00   -.673E-02 -.524E-01 0.132E+00
   -.410E+02 -.515E+03 0.174E+04   0.402E+02 0.515E+03 -.174E+04   0.947E+00 -.126E+01 0.213E-01   0.167E-02 0.143E+00 -.302E+00
   0.305E+03 -.495E+03 -.594E+04   -.310E+03 0.497E+03 0.594E+04   0.307E+01 -.129E+01 -.211E+01   0.374E-02 -.455E-01 0.605E+00
   0.106E+02 0.277E+03 0.402E+04   -.115E+02 -.278E+03 -.401E+04   0.914E+00 0.133E+01 -.148E+01   0.693E-02 0.145E-01 -.107E+01
   -.237E+02 0.258E+03 -.348E+04   0.227E+02 -.259E+03 0.348E+04   0.108E+01 0.862E+00 -.203E+01   -.432E-02 -.122E-01 0.905E-01
   -.411E+02 0.258E+03 0.295E+03   0.402E+02 -.258E+03 -.294E+03   0.978E+00 0.501E+00 -.109E+01   0.257E-02 -.513E-01 0.164E+00
   0.449E+03 0.275E+03 -.735E+04   -.451E+03 -.273E+03 0.734E+04   0.578E+00 -.205E+01 0.309E+01   0.881E-01 -.152E-01 0.640E+00
   0.280E+03 0.367E+03 0.696E+04   -.284E+03 -.371E+03 -.697E+04   0.175E+01 0.320E+01 0.662E+01   0.237E-01 0.257E-01 -.258E+00
   -.403E+02 0.258E+03 -.593E+03   0.394E+02 -.258E+03 0.592E+03   0.988E+00 0.564E+00 0.755E+00   -.463E-02 -.432E-01 0.169E+00
   -.399E+02 0.257E+03 0.318E+04   0.389E+02 -.258E+03 -.318E+04   0.115E+01 0.693E+00 0.122E+01   -.129E-02 -.589E-01 -.844E+00
   0.117E+03 0.291E+03 -.446E+04   -.119E+03 -.291E+03 0.446E+04   0.189E+01 0.544E+00 -.186E+00   0.272E-01 -.390E-01 0.577E+00
   0.197E+02 -.631E+03 0.563E+04   -.196E+02 0.634E+03 -.563E+04   -.672E-02 -.277E+01 0.103E+01   0.208E-01 -.927E-01 -.714E+00
   -.384E+02 -.515E+03 -.204E+04   0.376E+02 0.515E+03 0.204E+04   0.983E+00 -.932E+00 -.318E+00   0.946E-02 -.321E-01 0.140E+00
   -.413E+02 -.515E+03 0.174E+04   0.406E+02 0.516E+03 -.174E+04   0.841E+00 -.133E+01 -.102E+00   -.127E-01 0.160E+00 -.318E+00
   -.382E+03 -.525E+03 -.601E+04   0.386E+03 0.527E+03 0.601E+04   -.285E+01 -.193E+01 -.220E+01   -.779E-02 -.138E+00 0.582E+00
   -.204E+01 -.265E+03 0.273E+04   0.149E+01 0.273E+03 -.274E+04   0.479E+00 -.556E+01 0.428E+01   0.163E-01 -.534E-01 -.934E-01
   0.395E+02 -.835E+02 -.144E+03   -.403E+02 0.847E+02 0.141E+03   0.677E+00 -.142E+01 0.277E+01   0.247E-01 -.691E-01 0.104E+00
   0.383E+02 -.820E+02 0.127E+04   -.389E+02 0.831E+02 -.127E+04   0.517E+00 -.146E+01 0.248E+01   0.144E-01 0.109E+00 -.415E+00
   0.216E+02 -.317E+02 -.151E+04   -.230E+02 0.342E+02 0.151E+04   0.145E+01 -.315E+01 -.978E-01   0.112E-01 -.395E-01 0.125E+00
   0.355E+02 -.964E+02 0.144E+04   -.360E+02 0.975E+02 -.144E+04   0.478E+00 -.135E+01 -.201E+01   0.237E-02 -.885E-01 -.472E+00
   0.380E+02 -.918E+02 -.138E+04   -.386E+02 0.928E+02 0.139E+04   0.431E+00 -.125E+01 -.300E+01   0.159E-01 0.135E-01 0.789E-01
   0.172E+02 0.198E+03 0.280E+04   -.173E+02 -.201E+03 -.280E+04   -.200E+00 0.113E+01 0.381E+01   0.235E-01 0.338E-01 0.388E-01
   0.397E+02 -.834E+02 0.315E+02   -.403E+02 0.844E+02 -.294E+02   0.513E+00 -.135E+01 -.267E+01   0.779E-02 0.574E-01 0.115E+00
   0.144E+02 -.290E+03 -.284E+04   -.147E+02 0.292E+03 0.285E+04   0.421E+00 -.106E+01 -.348E+01   -.604E-02 -.144E+00 0.251E+00
   0.406E+01 0.244E+03 0.205E+04   -.433E+01 -.247E+03 -.204E+04   0.822E+00 0.275E+01 -.161E+01   0.180E-01 0.613E-01 -.260E+00
   0.408E+02 0.168E+03 -.761E+03   -.418E+02 -.170E+03 0.761E+03   0.765E+00 0.287E+01 0.218E+00   0.947E-02 0.448E-01 0.883E-02
   0.396E+02 0.167E+03 0.652E+03   -.405E+02 -.169E+03 -.652E+03   0.756E+00 0.271E+01 0.272E-01   -.149E-01 -.568E-01 -.900E-01
[...]
   0.275E+02 0.898E+02 -.237E+04   -.287E+02 -.919E+02 0.237E+04   0.136E+01 0.402E+01 0.602E+00   -.170E-01 0.921E-01 0.257E+00
   -.204E+01 -.265E+03 0.273E+04   0.149E+01 0.273E+03 -.274E+04   0.479E+00 -.556E+01 0.428E+01   0.163E-01 -.532E-01 -.930E-01
   0.395E+02 -.835E+02 -.144E+03   -.403E+02 0.847E+02 0.141E+03   0.677E+00 -.142E+01 0.277E+01   0.247E-01 -.700E-01 0.104E+00
   0.383E+02 -.820E+02 0.127E+04   -.389E+02 0.831E+02 -.127E+04   0.517E+00 -.146E+01 0.248E+01   0.145E-01 0.108E+00 -.415E+00
   0.216E+02 -.317E+02 -.151E+04   -.230E+02 0.342E+02 0.151E+04   0.145E+01 -.315E+01 -.978E-01   0.112E-01 -.393E-01 0.125E+00
   0.355E+02 -.964E+02 0.144E+04   -.360E+02 0.975E+02 -.144E+04   0.478E+00 -.135E+01 -.201E+01   0.245E-02 -.890E-01 -.473E+00
   0.380E+02 -.918E+02 -.138E+04   -.386E+02 0.928E+02 0.139E+04   0.431E+00 -.125E+01 -.300E+01   0.160E-01 0.132E-01 0.791E-01
   0.172E+02 0.198E+03 0.280E+04   -.173E+02 -.201E+03 -.280E+04   -.200E+00 0.113E+01 0.381E+01   0.236E-01 0.335E-01 0.389E-01
   0.397E+02 -.834E+02 0.315E+02   -.403E+02 0.844E+02 -.294E+02   0.513E+00 -.135E+01 -.267E+01   0.783E-02 0.573E-01 0.115E+00
   0.144E+02 -.290E+03 -.284E+04   -.147E+02 0.292E+03 0.285E+04   0.421E+00 -.106E+01 -.348E+01   -.593E-02 -.144E+00 0.251E+00
   0.406E+01 0.244E+03 0.205E+04   -.433E+01 -.247E+03 -.204E+04   0.822E+00 0.275E+01 -.161E+01   0.181E-01 0.607E-01 -.261E+00
   0.408E+02 0.168E+03 -.761E+03   -.418E+02 -.170E+03 0.761E+03   0.765E+00 0.287E+01 0.218E+00   0.933E-02 0.451E-01 0.927E-02
   0.396E+02 0.167E+03 0.652E+03   -.405E+02 -.169E+03 -.652E+03   0.756E+00 0.271E+01 0.272E-01   -.146E-01 -.583E-01 -.900E-01
   0.508E+02 0.305E+03 -.225E+04   -.517E+02 -.308E+03 0.225E+04   0.105E+01 0.146E+01 -.145E+01   0.115E-01 0.121E+00 0.291E+00
   -.723E+02 0.124E+02 -.245E+02   0.123E-11 0.426E-11 -.159E-10   0.722E+02 -.113E+02 0.303E+02   0.362E-01 -.948E+00 -.563E+01

 POSITION                                       TOTAL-FORCE (eV/Angst)
      1.64370      0.18204      4.44331         0.024596      0.110855      0.570071
      1.64370      0.18204     14.02172         0.089255      0.152310     -0.637291
      0.59727      2.94708      9.23251         0.100015      0.127571     -0.358632
      0.86528      2.95750     18.57414        -1.384554     -0.765866      0.410704
      1.87231      0.14575      2.04320        -2.068016     -0.064818      1.141934
      1.64370      0.18204     11.49105         0.062316      0.188509      0.303212
      0.59727      2.94708      6.70184         0.141384      0.160389      0.458692
      0.59727      2.94708     16.28025        -0.120886      0.012174     -1.131259
      1.64370      2.37366      3.17797         0.076254      0.001121      2.469658
      1.64370      2.37366     12.75638         0.201688     -0.362011     -0.091271
      3.73655      5.13871      7.96718         0.141929     -0.384159      0.003453
      3.63452      5.25779     17.29848         1.220786     -0.528598      0.126905
      4.78298      0.18204      4.44331         0.068192      0.099365      0.092688
      4.78298      0.18204     14.02172         0.149277      0.013857     -0.553795
      3.73655      2.94708      9.23251         0.102206      0.133807     -0.376477
      3.49845      3.04234     18.60069         1.406940     -0.571733      0.313271
      4.78298      0.18204      1.91264         0.934315     -0.377797      2.467000
      4.78298      0.18204     11.49105         0.072063      0.215559      0.286929
      3.73655      2.94708      6.70184         0.092780      0.128809      0.381773
      3.73655      2.94708     16.28025         0.218249      0.297201     -0.934932
      4.78298      2.37366      3.17797         0.555420     -0.042588      2.123311
      4.78298      2.37366     12.75638         0.202904     -0.312282     -0.112053
      6.87583      5.13871      7.96718         0.177819     -0.387643     -0.005151
      7.01465      5.24302     17.23002        -1.664134     -0.025358      0.219899
      2.69013      5.71213      4.44331         0.068192      0.099365      0.092688
      2.69013      5.71213     14.02172         0.149277      0.013857     -0.553795
      1.64370      8.47718      9.23251         0.102206      0.133807     -0.376477
      7.68415      8.57244     18.60069         1.406940     -0.571733      0.313271
      2.69013      5.71213      1.91264         0.934315     -0.377797      2.467000
      2.69013      5.71213     11.49105         0.072063      0.215559      0.286929
      1.64370      8.47718      6.70184         0.092780      0.128809      0.381773
      1.64370      8.47718     16.28025         0.218249      0.297201     -0.934932
      2.69013      7.90376      3.17797         0.555420     -0.042588      2.123311
      2.69013      7.90376     12.75638         0.202904     -0.312282     -0.112053
      4.78298     10.66881      7.96718         0.177819     -0.387643     -0.005151
      4.92180     10.77312     17.23002        -1.664134     -0.025358      0.219899
      5.82941      5.71213      4.44331         0.024596      0.110855      0.570071
      5.82941      5.71213     14.02172         0.089255      0.152310     -0.637291
      4.78298      8.47718      9.23251         0.100015      0.127571     -0.358632
      5.05099      8.48760     18.57414        -1.384554     -0.765866      0.410704
      6.05802      5.67585      2.04320        -2.068016     -0.064818      1.141934
      5.82941      5.71213     11.49105         0.062316      0.188509      0.303212
      4.78298      8.47718      6.70184         0.141384      0.160389      0.458692
      4.78298      8.47718     16.28025        -0.120886      0.012174     -1.131259
      5.82941      7.90376      3.17797         0.076254      0.001121      2.469658
      5.82941      7.90376     12.75638         0.201688     -0.362011     -0.091271
      7.92226     10.66881      7.96718         0.141929     -0.384159      0.003453
      7.82022     10.78789     17.29848         1.220786     -0.528598      0.126905
      3.24551      1.76815      1.95378        -0.054578      1.890762     -3.231867
      3.28961      1.84282     11.14515        -0.119128     -0.278055      0.417108
      2.24318      4.60787      6.35595        -0.102796     -0.214026      0.326905
      2.24318      4.60787     15.93436         0.089567     -0.659752     -2.450025
      3.28961      1.84282      4.78920        -0.066860     -0.301502      0.151745
      3.28961      1.84282     14.36761        -0.103056     -0.291761     -0.269730
      1.19723      5.07819      0.67672        -0.307719     -2.170561     -4.037983
      2.24318      4.60787      9.57841        -0.086416     -0.251590     -0.427698
      2.13547      4.58043     18.68794         0.088295      1.432525      3.099193
      1.19676      4.58218      3.17797         0.568109     -0.305916      1.301306
      1.19676      4.58218     12.75638        -0.140396      0.567762      0.126157
      2.24318      1.81714      7.96718        -0.134435      0.532964     -0.020758
[...]
      3.28961      7.34723      7.96718        -0.089632      0.543330     -0.023955
      3.28961      7.34723     17.54559         0.172362      2.023709      0.985293
      7.43121      7.29824      1.95378        -0.054578      1.890762     -3.231867
      7.47532      7.37292     11.14515        -0.119128     -0.278055      0.417108
      6.42889     10.13797      6.35595        -0.102796     -0.214026      0.326905
      6.42889     10.13797     15.93436         0.089567     -0.659752     -2.450025
      7.47532      7.37292      4.78920        -0.066860     -0.301502      0.151745
      7.47532      7.37292     14.36761        -0.103056     -0.291761     -0.269730
      5.38293     10.60829      0.67672        -0.307719     -2.170561     -4.037983
      6.42889     10.13797      9.57841        -0.086416     -0.251590     -0.427698
      6.32117     10.11053     18.68794         0.088295      1.432525      3.099193
      5.38246     10.11228      3.17797         0.568109     -0.305916      1.301306
      5.38246     10.11228     12.75638        -0.140396      0.567762      0.126157
      6.42889      7.34723      7.96718        -0.134435      0.532964     -0.020758
      6.42889      7.34723     17.54559         0.123019     -1.416395     -0.515203
    total drift:                               -0.059154      0.115280      0.142566

  FREE ENERGIE OF THE ION-ELECTRON SYSTEM (eV)
  free  energy   TOTEN  =      -478.77898842 eV

  energy  without entropy=     -477.52287877  energy(sigma->0) =     -478.15093360