 vasp.5.4.4.18Apr17-6-g9f103f2a35 (build Aug 13 2019 17:33:20) gamma-only

 executed on             LinuxIFC date 2020.05.11  23:55:17

 INCAR:
 POTCAR:    PAW_PBE Ni_pv 06Sep2000
 POTCAR:    PAW_PBE S 06Sep2000
 POTCAR:    PAW_PBE Ni_pv 06Sep2000
   VRHFIN =Ni:

   TITEL  = PAW_PBE Ni_pv 06Sep2000
   POMASS =   58.690; ZVAL   =   16.000    mass and valenz
   ENMAX  =  367.986; ENMIN  =  275.989 eV

 POTCAR:    PAW_PBE S 06Sep2000
   VRHFIN =S : s2p4

   TITEL  = PAW_PBE S 06Sep2000
   POMASS =   32.066; ZVAL   =    6.000    mass and valenz
   ENMAX  =  258.689; ENMIN  =  194.016 eV

 Optimization of the real space projectors (new method)

 maximal supplied QI-value         = 18.90
 optimisation between [QCUT,QGAM] = [ 10.77, 21.73] = [ 32.49,132.25] Ry
 Optimized for a Real-space Cutoff    1.38 Angstroem

   l    n(q)    QCUT    max X(q) W(low)/X(q) W(high)/X(q)  e(spline)
   1      8    10.771     2.836    0.40E-04    0.29E-04    0.12E-06
   1      8    10.771     4.023    0.10E-03    0.48E-04    0.29E-06
   2      8    10.771    73.368    0.42E-03    0.97E-04    0.44E-06
   2      8    10.771    69.010    0.42E-03    0.99E-04    0.45E-06
   0      9    10.771    54.797    0.10E-03    0.56E-04    0.74E-07
   0      9    10.771    24.266    0.89E-04    0.49E-04    0.67E-07
 Optimization of the real space projectors (new method)

 maximal supplied QI-value         = 19.84
 optimisation between [QCUT,QGAM] = [ 10.71, 21.63] = [ 32.15,130.99] Ry
 Optimized for a Real-space Cutoff    1.19 Angstroem

   l    n(q)    QCUT    max X(q) W(low)/X(q) W(high)/X(q)  e(spline)
   0      8    10.715   187.594    0.41E-03    0.53E-04    0.66E-07
   0      8    10.715   164.243    0.41E-03    0.53E-04    0.65E-07
   1      7    10.715    67.533    0.19E-03    0.59E-03    0.68E-07
   1      7    10.715    50.729    0.19E-03    0.58E-03    0.67E-07
  PAW_PBE Ni_pv 06Sep2000               :
  PAW_PBE S 06Sep2000                   :

 POSCAR: Type_037 Type_137
  positions in cartesian coordinates
 exchange correlation table for  LEXCH =        8
   RHO(1)=    0.500       N(1)  =     2000
   RHO(2)=  100.500       N(2)  =     4000

 ion  position               nearest neighbor table
   1  0.780  0.145  0.123-  65 2.06  51 2.09  42 2.15  52 2.36  66 2.36
   2  0.804  0.145  0.286-  66 2.05  52 2.05  43 2.07
   3  0.217  0.681  0.093-  44 2.03  45 2.06  53 2.10  27 2.46   4 2.49  63 2.57
   4  0.297  0.645  0.216-  64 2.13  46 2.20  53 2.26  63 2.26  45 2.33  22 2.43   3 2.49  28 2.53
                            17 2.53
   5  0.387  0.179  0.131-  47 2.03  48 2.11  55 2.11   6 2.40  34 2.51
   6  0.470  0.145  0.247-  70 2.11  69 2.14  56 2.15  48 2.25  55 2.26   5 2.40  31 2.53  19 2.53

   7  0.952  0.645  0.154-  68 2.08  58 2.10  67 2.17  49 2.25  57 2.36   8 2.40  32 2.53  20 2.53

   8  0.956  0.635  0.298-  50 2.02  57 2.07  67 2.08   7 2.40
   9  0.171  0.147  0.047-  47 2.01  59 2.05  73 2.05  10 2.44
  10  0.125  0.145  0.185-  60 2.08  59 2.13  73 2.18  39 2.25  11 2.32  74 2.36   9 2.44  34 2.53
                            21 2.53
  11  0.071  0.116  0.312-  38 2.03  60 2.14  74 2.26  10 2.32  15 2.52  39 2.55
  12  0.569  0.654  0.163-  40 2.01  41 2.14  61 2.15  71 2.27  13 2.28
  13  0.642  0.645  0.278-  72 2.02  62 2.03  41 2.25  61 2.26  71 2.26  12 2.28  37 2.53  24 2.53

  14  0.910  0.003  0.120-  65 2.06  58 2.08  66 2.10  39 2.20  15 2.53
  15  0.942  0.007  0.269-  38 2.05  39 2.11  66 2.13  57 2.14  11 2.52  14 2.53
  16  0.417  0.412  0.063-  55 2.10  63 2.12  17 2.35  27 2.45  40 2.47
  17  0.425  0.513  0.192-  64 2.18  55 2.25  40 2.26  63 2.26  16 2.35  41 2.36  18 2.49   4 2.53
                            28 2.53
  18  0.456  0.483  0.337-  56 2.00  64 2.03  41 2.07  17 2.49
  19  0.597  0.013  0.222-  70 2.12  69 2.13  43 2.19  42 2.21  61 2.25  29 2.32  30 2.50  31 2.53
                             6 2.53
  20  0.080  0.513  0.130-  45 2.07  68 2.10  44 2.11  59 2.12  67 2.24   7 2.53  32 2.53
  21  0.252  0.013  0.161-  47 2.13  73 2.14  53 2.25  22 2.36  48 2.36  74 2.36  10 2.53  34 2.53

[...]

  29  0.520  0.854  0.292-  70 2.01  41 2.02  54 2.08  19 2.32  69 2.38  28 2.43
  30  0.534  0.134  0.106-  42 2.05  55 2.07  69 2.09  19 2.50
  31  0.597  0.277  0.222-  56 2.07  43 2.12  42 2.19  71 2.25  55 2.26  19 2.53   6 2.53
  32  0.080  0.777  0.130-  44 2.07  58 2.10  73 2.13  45 2.30  57 2.36   7 2.53  20 2.53
  33  0.127  0.780  0.276-  74 2.05  45 2.06  46 2.10  57 2.20
  34  0.252  0.277  0.161-  59 2.12  47 2.16  63 2.25  48 2.36  35 2.43   5 2.51  10 2.53  21 2.53
                            60 2.56
  35  0.280  0.306  0.303-  48 2.05  60 2.05  64 2.05  34 2.43
  36  0.779  0.856  0.120-  65 2.01  66 2.13  49 2.20  37 2.35  61 2.35
  37  0.770  0.777  0.253-  62 2.06  50 2.08  66 2.25  61 2.26  49 2.26  36 2.35  13 2.53  24 2.53

  38  0.963  0.137  0.364-  11 2.03  26 2.05  15 2.05
  39  0.991  0.145  0.183-  26 2.09  15 2.11  14 2.20  10 2.25  11 2.55  25 2.64
  40  0.474  0.645  0.091-  12 2.01  27 2.02  17 2.26  28 2.26  16 2.47
  41  0.509  0.645  0.276-  29 2.02  18 2.07  12 2.14  13 2.25  28 2.36  17 2.36  54 2.76
  42  0.653  0.148  0.130-  30 2.05   1 2.15  31 2.19  19 2.21  43 2.59
  43  0.682  0.152  0.283-   2 2.07  31 2.12  19 2.19  42 2.59  70 2.73
  44  0.112  0.649  0.035-   3 2.03  32 2.07  20 2.11  68 2.69
  45  0.161  0.624  0.198-   3 2.06  33 2.06  20 2.07  32 2.30   4 2.33  46 2.58
  46  0.233  0.708  0.325-  22 2.02  33 2.10   4 2.20  45 2.58
  47  0.289  0.143  0.063-   9 2.01   5 2.03  21 2.13  34 2.16
  48  0.336  0.145  0.245-  35 2.05   5 2.11   6 2.25  34 2.36  21 2.36
  49  0.819  0.645  0.153-  36 2.20   7 2.25  24 2.26  37 2.26  23 2.27
  50  0.839  0.646  0.324-   8 2.02  37 2.08  24 2.09
  51  0.834  0.298  0.053-  23 2.03   1 2.09  25 2.10  52 2.71
  52  0.829  0.314  0.215-   2 2.05  25 2.10  23 2.16  26 2.17  24 2.25   1 2.36  51 2.71
  53  0.312  0.814  0.122-  27 2.04   3 2.10  21 2.25   4 2.26  28 2.26  22 2.65
  54  0.398  0.848  0.309-  22 2.03  29 2.08  28 2.13  41 2.76
  55  0.484  0.314  0.153-  30 2.07  16 2.10   5 2.11  17 2.25   6 2.26  31 2.26
  56  0.520  0.311  0.317-  18 2.00  31 2.07   6 2.15  70 2.58
  57  0.001  0.814  0.246-   8 2.07  15 2.14  33 2.20  32 2.36   7 2.36  58 2.78
  58  0.968  0.823  0.082-  14 2.08   7 2.10  32 2.10  57 2.78
  59  0.140  0.323  0.109-   9 2.05  20 2.12  34 2.12  10 2.13
  60  0.162  0.262  0.284-  35 2.05  10 2.08  11 2.14  34 2.56  74 2.74
  61  0.657  0.814  0.184-  12 2.15  19 2.25  37 2.26  13 2.26  36 2.35  62 2.66
  62  0.686  0.810  0.341-  13 2.03  37 2.06  61 2.66
  63  0.312  0.477  0.122-  27 2.06  16 2.12  34 2.25   4 2.26  17 2.26   3 2.57
  64  0.344  0.486  0.292-  18 2.03  35 2.05   4 2.13  17 2.18
  65  0.817  1.000  0.040-  36 2.01   1 2.06  14 2.06
  66  0.829  0.977  0.215-   2 2.05  14 2.10  36 2.13  15 2.13  37 2.25   1 2.36
  67  0.991  0.469  0.226-   8 2.08  25 2.16   7 2.17  26 2.18  20 2.24
  68  0.976  0.509  0.060-  25 2.04   7 2.08  20 2.10  44 2.69
  69  0.485  0.968  0.170-  30 2.09  28 2.12  19 2.13   6 2.14  29 2.38
  70  0.540  0.046  0.334-  29 2.01   6 2.11  19 2.12  56 2.58  43 2.73
  71  0.657  0.477  0.184-  23 2.22  31 2.25  24 2.26  13 2.26  12 2.27
  72  0.694  0.499  0.348-  13 2.02  24 2.03
  73  0.141  0.967  0.106-   9 2.05  32 2.13  21 2.14  10 2.18
  74  0.174  0.977  0.276-  33 2.05  22 2.09  11 2.26  10 2.36  21 2.36  60 2.74

  LATTYP: Found a simple orthorhombic cell.
 ALAT       =     9.5784100000
 B/A-ratio  =     1.7387693453
 C/A-ratio  =     1.7627867312

  Lattice vectors:

 A1 = (   0.0000000000,   9.5784100000,   0.0000000000)
 A2 = (   0.0000000000,   0.0000000000, -16.6546456851)
 A3 = ( -16.8846940542,   0.0000000000,   0.0000000000)

Analysis of symmetry for initial positions (statically):
 Subroutine PRICEL returns:
 Original cell was already a primitive cell.

 Routine SETGRP: Setting up the symmetry group for a
 simple orthorhombic supercell.

 Subroutine GETGRP returns: Found  1 space group operations
 (whereof  1 operations were pure point group operations)
 out of a pool of  8 trial point group operations.

The static configuration has the point symmetry C_1 .

Analysis of symmetry for dynamics (positions and initial velocities):
 Subroutine PRICEL returns:
 Original cell was already a primitive cell.

 Routine SETGRP: Setting up the symmetry group for a
 simple orthorhombic supercell.

 Subroutine GETGRP returns: Found  1 space group operations
 (whereof  1 operations were pure point group operations)
 out of a pool of  8 trial point group operations.

The dynamic configuration has the point symmetry C_1 .

 Subroutine INISYM returns: Found  1 space group operations
 (whereof  1 operations are pure point group operations),
 and found     1 'primitive' translations

 KPOINTS: gamma-point-only calculation. no periodi

Automatic generation of k-mesh.
Space group operators:
 irot       det(A)        alpha          n_x          n_y          n_z        tau_x        tau_y        tau_z
    1     1.000000     0.000000     1.000000     0.000000     0.000000     0.000000     0.000000     0.000000

 Subroutine IBZKPT returns following result:

 Found      1 irreducible k-points:

 Following reciprocal coordinates:
            Coordinates               Weight
  0.000000  0.000000  0.000000      1.000000

 Following cartesian coordinates:
            Coordinates               Weight
  0.000000  0.000000  0.000000      1.000000

 SYSTEM =  "Millerite NiS"
 POSCAR =  Type_037 Type_137

 Startparameter for this run:
   NWRITE =      2    write-flag & timer
   PREC   = normal    normal or accurate (medium, high low for compatibility)
   ISTART =      0    job   : 0-new  1-cont  2-samecut
   ICHARG =      2    charge: 1-file 2-atom 10-const
   ISPIN  =      1    spin polarized calculation?
   LNONCOLLINEAR =      F non collinear calculations
   LSORBIT =      F    spin-orbit coupling
   INIWAV =      1    electr: 0-lowe 1-rand  2-diag
   LASPH  =      F    aspherical Exc in radial PAW
   METAGGA=      F    non-selfconsistent MetaGGA calc.

 Electronic Relaxation 1
   ENCUT  =  450.0 eV  33.07 Ry    5.75 a.u.  29.20 16.57 28.81*2*pi/ulx,y,z
   ENINI  =  450.0     initial cutoff
   ENAUG  =  703.4 eV  augmentation charge cutoff
   NELM   =    100;   NELMIN=  2; NELMDL= -5     # of ELM steps
   EDIFF  = 0.1E-03   stopping-criterion for ELM
   LREAL  =      T    real-space projection
   NLSPLINE    = F    spline interpolate recip. space projectors
   LCOMPAT=      F    compatible to vasp.4.4
   GGA_COMPAT  = T    GGA compatible to vasp.4.4-vasp.4.6
   LMAXPAW     = -100 max onsite density
   LMAXMIX     =    2 max onsite mixed and CHGCAR
   VOSKOWN=      0    Vosko Wilk Nusair interpolation
   ROPT   =   -0.00050  -0.00050
 Ionic relaxation
   EDIFFG = 0.1E-02   stopping-criterion for IOM
   NSW    =      0    number of steps for IOM
   NBLOCK =      1;   KBLOCK =      1    inner block; outer block
   IBRION =     -1    ionic relax: 0-MD 1-quasi-New 2-CG
   NFREE  =      0    steps in history (QN), initial steepest desc. (CG)
   ISIF   =      2    stress and relaxation
[...]
     0.000000000  9.578410000  0.000000000     0.000000000  0.104401461  0.000000000
     0.000000000  0.000000000 16.654645685     0.000000000  0.000000000  0.060043307

  length of vectors
    16.884694054  9.578410000 16.654645685     0.059225237  0.104401461  0.060043307

 FORCES acting on ions
    electron-ion (+dipol)            ewald-force                    non-local-force                 convergence-correction
   0.567E+03 -.767E+02 0.221E+04   -.569E+03 0.779E+02 -.221E+04   0.215E+01 -.982E+00 0.600E+01   -.808E-02 -.894E-02 0.619E-02
   0.440E+03 -.186E+02 -.292E+04   -.443E+03 0.177E+02 0.292E+04   0.346E+01 0.824E+00 0.729E+00   -.151E-01 -.786E-02 -.939E-02
   0.175E+03 0.120E+02 0.302E+04   -.174E+03 -.117E+02 -.303E+04   0.571E+00 -.372E+00 0.584E+01   0.839E-02 -.855E-02 0.749E-02
   0.425E+03 0.318E+03 -.114E+04   -.425E+03 -.317E+03 0.114E+04   -.474E+00 -.986E+00 -.440E+01   0.812E-02 -.290E-01 -.732E-02
   -.179E+03 0.382E+03 0.215E+04   0.180E+03 -.381E+03 -.215E+04   -.483E+00 -.126E+01 0.398E+01   0.177E-01 0.881E-02 0.103E-01
   0.291E+03 -.179E+02 -.195E+04   -.296E+03 0.178E+02 0.196E+04   0.428E+01 0.365E+00 -.555E+01   -.104E-02 0.556E-02 -.160E-01
   0.541E+03 -.155E+03 0.126E+04   -.547E+03 0.158E+03 -.127E+04   0.506E+01 -.248E+01 0.232E+01   -.105E-01 0.656E-02 -.364E-03
   -.174E+03 0.139E+03 -.329E+04   0.170E+03 -.138E+03 0.329E+04   0.395E+01 -.125E+01 0.165E+01   -.147E-01 0.474E-02 -.268E-02
   0.513E+03 -.441E+02 0.416E+04   -.517E+03 0.438E+02 -.417E+04   0.316E+01 0.158E+00 0.356E+01   0.802E-02 0.199E-02 0.182E-01
   0.635E+03 -.199E+03 0.210E+03   -.638E+03 0.198E+03 -.212E+03   0.308E+01 -.244E+00 0.120E+01   -.109E-01 0.549E-02 0.458E-01
   -.222E+03 -.105E+03 -.344E+04   0.221E+03 0.107E+03 0.344E+04   0.143E+01 -.152E+01 -.544E+01   0.543E-02 0.373E-02 -.413E-02
   -.604E+03 0.579E+02 0.197E+04   0.608E+03 -.589E+02 -.197E+04   -.322E+01 0.442E+00 0.421E+01   0.636E-02 -.102E-02 0.500E-03
   -.612E+01 0.189E+03 -.230E+04   0.483E+01 -.191E+03 0.230E+04   0.714E+00 0.172E+01 -.687E+01   0.228E-01 -.362E-02 0.586E-02
   -.351E+03 -.365E+02 0.249E+04   0.357E+03 0.346E+02 -.250E+04   -.580E+01 0.253E+01 0.550E+01   -.148E-01 -.273E-03 0.602E-02
   0.128E+03 0.564E+03 -.221E+04   -.126E+03 -.568E+03 0.221E+04   -.202E+01 0.386E+01 -.399E+01   -.528E-02 -.480E-02 -.421E-02
   -.591E+03 0.284E+03 0.396E+04   0.589E+03 -.284E+03 -.396E+04   0.259E+01 -.519E-01 -.215E+01   0.364E-02 -.163E-01 0.107E-01
   -.434E+03 0.312E+03 -.857E+02   0.434E+03 -.314E+03 0.878E+02   0.270E+00 0.250E+01 -.171E+01   -.640E-02 -.132E-01 -.806E-02
   -.109E+03 0.955E+02 -.389E+04   0.109E+03 -.976E+02 0.389E+04   0.714E+00 0.274E+01 0.194E+01   -.167E-03 -.104E-01 -.541E-02
   -.820E+03 0.248E+03 -.448E+03   0.827E+03 -.252E+03 0.447E+03   -.438E+01 0.425E+01 0.932E-01   0.119E-01 0.134E-01 -.644E-02
   -.454E+02 0.641E+03 0.154E+04   0.446E+02 -.646E+03 -.154E+04   0.257E+00 0.410E+01 0.225E+00   0.309E-03 0.456E-02 0.903E-02
   -.203E+03 0.304E+03 0.985E+03   0.204E+03 -.307E+03 -.986E+03   0.531E+00 0.244E+01 0.123E+01   0.212E-01 0.153E-01 0.516E-02
   -.764E+02 -.331E+03 -.276E+04   0.778E+02 0.332E+03 0.276E+04   -.926E+00 0.192E+00 -.468E+01   0.148E-01 -.249E-02 -.562E-02
   0.638E+03 -.286E+03 0.270E+04   -.640E+03 0.288E+03 -.271E+04   0.987E+00 -.134E+01 0.649E+01   -.650E-02 -.210E-02 0.116E-01
   -.132E+03 0.356E+03 -.171E+04   0.134E+03 -.359E+03 0.171E+04   -.179E+01 0.274E+01 -.488E+01   -.978E-02 0.840E-02 0.103E-01
   -.150E+03 0.154E+03 0.204E+04   0.151E+03 -.155E+03 -.204E+04   -.888E+00 -.209E+00 0.771E+01   -.969E-02 -.190E-03 0.468E-03
   -.105E+03 -.599E+03 -.239E+04   0.106E+03 0.600E+03 0.240E+04   -.159E+01 -.408E+00 -.536E+01   -.158E-02 -.678E-02 -.532E-03
   -.248E+03 -.412E+03 0.403E+04   0.246E+03 0.412E+03 -.404E+04   0.101E+01 0.201E+00 0.623E+01   0.564E-02 -.896E-02 0.800E-02
   -.246E+03 -.492E+03 0.453E+03   0.243E+03 0.492E+03 -.454E+03   0.308E+01 -.679E+00 0.650E-01   -.438E-03 -.174E-02 -.118E-01
   -.191E+03 0.111E+02 -.297E+04   0.193E+03 -.966E+01 0.298E+04   -.846E+00 -.191E+01 -.519E+01   0.996E-02 0.170E-01 -.118E-01
   -.523E+03 0.234E+03 0.350E+04   0.524E+03 -.234E+03 -.351E+04   -.709E+00 0.312E+00 0.453E+01   -.851E-02 -.324E-03 0.154E-01
   -.633E+03 -.548E+03 -.667E+03   0.638E+03 0.555E+03 0.669E+03   -.396E+01 -.601E+01 -.295E+01   -.228E-02 -.133E-01 0.170E-02
   0.291E+03 -.461E+03 0.185E+04   -.293E+03 0.466E+03 -.185E+04   0.178E+01 -.401E+01 0.297E+01   -.928E-02 -.427E-02 0.339E-02
   0.358E+03 0.275E+03 -.280E+04   -.361E+03 -.274E+03 0.280E+04   0.128E+01 -.213E+01 -.245E+01   -.123E-01 -.630E-02 0.315E-03
   0.189E+03 -.608E+03 0.785E+03   -.189E+03 0.612E+03 -.786E+03   0.548E+00 -.321E+01 0.602E+00   0.325E-01 0.114E-01 0.309E-01
   0.245E+03 -.113E+03 -.345E+04   -.245E+03 0.115E+03 0.344E+04   0.194E-01 -.182E+01 0.344E+01   0.385E-02 0.172E-02 -.810E-02
   0.544E+03 0.379E+03 0.267E+04   -.546E+03 -.382E+03 -.268E+04   0.152E+01 0.218E+01 0.708E+01   -.370E-02 0.760E-02 0.137E-01
   -.197E+03 -.339E+03 -.168E+04   0.200E+03 0.341E+03 0.168E+04   -.265E+01 -.217E+01 -.526E+01   -.790E-02 -.350E-03 0.480E-02
   0.106E+03 -.451E+02 -.177E+04   -.106E+03 0.453E+02 0.177E+04   -.122E+01 -.496E-01 -.171E+01   0.299E-02 -.355E-02 0.880E-03
   -.978E+02 -.789E+02 0.430E+03   0.986E+02 0.799E+02 -.435E+03   0.675E+00 -.131E+01 0.292E+01   0.145E-03 -.470E-02 0.102E-02
   -.450E+03 -.152E+03 0.140E+04   0.454E+03 0.154E+03 -.140E+04   -.285E+01 -.306E+01 0.249E+01   -.667E-03 -.225E-02 0.907E-03
   -.871E+02 0.925E+02 -.960E+03   0.875E+02 -.934E+02 0.966E+03   0.133E+00 -.119E+01 -.463E+01   0.163E-02 -.644E-02 -.311E-02
   -.177E+03 -.111E+02 0.986E+03   0.178E+03 0.115E+02 -.991E+03   -.305E+00 -.205E+00 0.311E+01   0.117E-02 -.440E-02 0.468E-02
   -.982E+02 -.295E+02 -.106E+04   0.991E+02 0.298E+02 0.107E+04   -.782E+00 -.606E+00 -.215E+01   -.377E-02 -.406E-02 -.369E-02
   0.127E+03 0.504E+02 0.173E+04   -.127E+03 -.500E+02 -.174E+04   -.474E+00 -.668E+00 0.291E+01   0.597E-03 0.290E-03 0.109E-02
   0.529E+02 0.310E+03 -.367E+03   -.541E+02 -.314E+03 0.369E+03   0.162E+01 0.347E+01 -.605E+00   0.457E-02 -.430E-02 0.295E-03
   0.110E+03 0.259E+03 -.158E+04   -.110E+03 -.261E+03 0.159E+04   -.921E+00 0.120E+01 -.377E+01   -.154E-02 -.148E-01 0.270E-02
   -.209E+03 0.933E+02 0.159E+04   0.211E+03 -.941E+02 -.159E+04   -.612E+00 0.698E+00 0.289E+01   0.312E-01 0.321E-02 0.113E-01
   -.407E+02 0.134E+03 -.831E+03   0.406E+02 -.136E+03 0.836E+03   0.360E+00 0.794E+00 -.438E+01   0.887E-02 0.996E-02 -.707E-02
   0.512E+02 -.108E+02 0.727E+03   -.497E+02 0.106E+02 -.731E+03   -.149E+01 0.261E+00 0.237E+01   -.219E-02 0.249E-02 0.550E-02
   -.730E+02 -.783E+01 -.145E+04   0.754E+02 0.823E+01 0.146E+04   -.156E+01 -.550E+00 -.208E+01   -.916E-02 0.124E-02 -.279E-02
   0.193E+02 0.247E+01 0.164E+04   -.181E+02 -.214E+01 -.165E+04   -.726E+00 -.107E+00 0.382E+01   -.390E-02 -.515E-02 0.230E-02
   0.130E+03 -.486E+02 -.309E+03   -.131E+03 0.488E+02 0.312E+03   -.529E+00 0.889E+00 -.150E+01   -.810E-02 -.590E-03 -.353E-03
   -.903E+02 -.341E+03 0.930E+03   0.904E+02 0.344E+03 -.934E+03   -.518E+00 -.512E+00 0.453E+01   0.546E-02 -.329E-02 -.111E-02
   0.570E+02 -.100E+03 -.143E+04   -.590E+02 0.992E+02 0.144E+04   0.149E+01 0.634E+00 -.319E+01   0.690E-02 -.397E-03 0.195E-03
   -.295E+03 -.182E+03 0.518E+03   0.296E+03 0.185E+03 -.519E+03   -.108E+01 -.150E+01 0.374E+00   -.797E-02 -.563E-02 -.141E-02
   -.154E+03 0.197E+02 -.138E+04   0.155E+03 -.181E+02 0.138E+04   -.945E+00 -.170E+01 -.153E+01   0.135E-02 -.556E-02 -.341E-02
   0.542E+02 -.668E+02 -.631E+03   -.553E+02 0.682E+02 0.633E+03   0.198E+01 -.166E+01 -.568E+00   -.413E-02 0.219E-02 -.120E-02
   0.131E+03 -.721E+02 0.135E+04   -.132E+03 0.717E+02 -.136E+04   0.931E+00 0.961E+00 0.367E+01   -.535E-02 0.778E-03 0.302E-02
   0.233E+03 -.228E+03 0.912E+03   -.234E+03 0.229E+03 -.915E+03   -.873E-01 0.158E-01 0.176E+01   -.187E-02 0.135E-01 0.175E-01
   0.123E+03 -.325E+03 -.112E+04   -.124E+03 0.329E+03 0.113E+04   0.875E+00 -.239E+01 -.117E+01   0.680E-03 -.840E-03 -.282E-03
   -.429E+02 -.101E+03 0.503E+03   0.411E+02 0.103E+03 -.507E+03   0.217E+01 -.117E+01 0.226E+01   0.363E-02 0.588E-02 0.352E-02
   -.537E+02 -.246E+03 -.154E+04   0.533E+02 0.249E+03 0.154E+04   0.240E-01 -.134E+01 -.198E+01   0.463E-02 -.795E-03 -.424E-02
   0.288E+03 0.185E+03 0.758E+03   -.291E+03 -.188E+03 -.759E+03   0.230E+01 0.799E+00 0.175E+00   0.562E-02 -.296E-02 0.483E-02
   0.220E+03 0.143E+02 -.120E+04   -.221E+03 -.158E+02 0.120E+04   0.248E+00 0.916E+00 -.198E+01   -.415E-02 -.302E-02 -.523E-02
   0.121E+03 0.443E+02 0.173E+04   -.121E+03 -.452E+02 -.173E+04   -.528E+00 0.513E+00 0.209E+01   -.178E-02 0.245E-02 0.548E-02
   0.132E+03 0.111E+03 -.320E+03   -.133E+03 -.111E+03 0.323E+03   -.547E+00 -.123E+01 -.197E+01   -.434E-02 -.140E-02 -.181E-02
   -.206E+03 0.115E+03 -.575E+03   0.209E+03 -.115E+03 0.579E+03   -.181E+01 -.895E+00 -.203E+01   0.490E-03 0.242E-02 -.599E-03
   0.123E+03 0.590E+02 0.160E+04   -.124E+03 -.600E+02 -.161E+04   0.112E+01 0.432E+00 0.325E+01   -.320E-02 0.322E-02 0.125E-02
   0.189E+02 0.175E+03 0.633E+03   -.197E+02 -.176E+03 -.637E+03   -.846E-01 0.193E+00 0.260E+01   0.163E-02 0.826E-02 -.180E-02
   -.105E+03 -.132E+03 -.166E+04   0.106E+03 0.131E+03 0.166E+04   -.460E-01 0.160E+01 -.301E+01   0.467E-02 0.953E-02 -.544E-02
   0.557E+02 0.948E+02 0.428E+03   -.573E+02 -.965E+02 -.431E+03   0.939E+00 0.124E+01 0.196E+01   0.159E-02 -.400E-03 0.449E-02
   0.276E+01 0.257E+03 -.157E+04   -.375E+01 -.260E+03 0.158E+04   0.725E+00 0.165E+01 -.103E+01   0.155E-02 0.164E-02 -.350E-02
   0.235E+03 0.135E+03 0.104E+04   -.235E+03 -.136E+03 -.104E+04   -.670E+00 0.400E+00 0.145E+01   -.550E-02 -.132E-01 0.135E-01
   0.441E+02 -.868E+02 -.107E+04   -.437E+02 0.868E+02 0.107E+04   -.127E+01 0.125E+01 -.250E+01   -.124E-01 0.117E-01 0.112E-02
   -.925E+01 0.372E+01 -.197E+02   0.313E-12 0.172E-11 0.273E-11   0.923E+01 -.372E+01 0.196E+02   0.310E-01 -.435E-01 0.162E+00

 POSITION                                       TOTAL-FORCE (eV/Angst)
     13.17084      1.39171      2.05636         0.095045      0.169376      1.168008
     13.58032      1.38977      4.77135         0.215187     -0.067905      0.786651
      3.65892      6.52071      1.54548         1.116661     -0.037931     -0.899907
      5.02033      6.18092      3.59863        -0.608968     -0.429577     -0.311402
      6.53911      1.71522      2.18375         0.521814     -0.267114     -0.429291
      7.93172      1.39171      4.11272        -0.726928      0.306057      0.499412
     16.08224      6.18092      2.57045        -0.801653      0.816187      0.521799
     16.14101      6.08549      4.96888         0.522486     -0.014646      0.872529
      2.89043      1.41155      0.77465        -0.740234     -0.089774     -1.928424
      2.10894      1.39171      3.08454        -0.496317     -0.717447     -0.443414
      1.20177      1.10741      5.19860         0.750133     -0.201318      0.097107
      9.61099      6.26430      2.71616         0.504172     -0.548644     -0.670216
     10.84312      6.18092      4.62682        -0.556367     -0.491045     -0.981121
     15.36326      0.03115      2.00092         0.681134      0.621516      0.027510
     15.91132      0.06771      4.47342        -0.251105     -0.490300     -0.347895
      7.04758      3.95089      1.05696         0.233795     -0.087224     -0.690097
      7.17375      4.91558      3.19116         0.613495      0.597263      0.349022
      7.69126      4.62173      5.61353         0.243293      0.557418      0.780294
     10.08514      0.12638      3.70525         2.112748      0.128641     -0.891241
      1.35096      4.91558      2.16298        -0.506098     -1.004069     -0.216590
      4.26235      0.12638      2.67707         0.748211     -0.175256      0.563139
      4.79260      8.39742      4.56695         0.560224      1.476286     -0.147409
     12.99870      4.12808      2.02358        -0.921302      0.908287      0.109847
     12.99653      4.91558      4.21934         0.310938     -0.019672     -1.329676
     15.50911      3.57214      2.23422         0.560892     -1.076417      0.578726
     15.91231      2.61880      4.52446        -0.272952      0.996284     -0.102102
      6.04799      6.18946      1.03842        -0.531526      0.081148     -1.393706
      7.17375      7.44626      3.19116        -0.318111     -0.460354     -0.712129
      8.78010      8.17579      4.85650         0.621210     -0.497416      0.345123
      9.01487      1.28565      1.76287        -0.277340     -0.126568     -1.623296
     10.08514      2.65705      3.70525         0.962448      1.211736     -1.242239
      1.35096      7.44626      2.16298        -0.073692      0.322286      1.226677
      2.13877      7.47252      4.59380        -1.632722     -0.387447      0.521335
      4.26235      2.65705      2.67707         0.568437      0.596281      0.319573
      4.72246      2.92732      5.04367        -0.489137      0.203266      0.556785
     13.14727      8.20345      2.00035        -1.063371     -0.908302      0.424208
     12.99653      7.44626      4.21934        -0.013073      0.205984     -1.147843
     16.26749      1.31568      6.06441        -0.797330      0.151431      4.184978
     16.74052      1.39171      3.05601         1.446760     -0.365987     -2.096137
      8.00634      6.18092      1.51374         1.247045     -0.547088     -2.751291
      8.59001      6.18092      4.59828         0.608771     -2.149015      1.225166
     11.02319      1.41339      2.16766         0.557818      0.104285     -1.676241
     11.51118      1.45317      4.71564         0.173283     -0.337817      2.593868
      1.89815      6.21260      0.58969        -0.000867     -0.272531     -3.481582
      2.72191      5.98138      3.29354         0.370653     -0.800664      1.750946
      3.94150      6.77755      5.42032        -0.301179     -1.024797      2.500683
      4.88223      1.36840      1.05588         1.448417     -0.153432     -2.997005
      5.67861      1.39171      4.08419         0.231273     -0.867728      0.947761
     13.82913      6.18092      2.54192         0.019881     -0.026245     -1.427347
     14.17014      6.19100      5.39211         0.768154     -0.139912      2.712686
     14.08039      2.85526      0.87463         0.496835      0.221591     -3.746194
     13.99844      3.00295      3.57488        -1.405918      1.133283      1.333712
      5.26426      7.79215      2.03261        -0.376871      2.487989      0.227711
      6.71990      8.12622      5.15399        -0.515125     -0.240814      2.573056
      8.17565      3.00295      2.54670         0.029290      1.522180     -0.910955
      8.78083      2.97950      5.28344         0.001353     -0.134115      2.419621
      0.02514      7.79215      4.08897         0.812359     -0.295792      1.505858
     16.33987      7.88676      1.37322        -0.131963      0.590267     -2.727201
      2.36935      3.09022      1.82210        -0.763795      0.945325     -1.184105
      2.74298      2.50789      4.72636        -0.460452      1.885155      1.996885
     11.08705      7.79215      3.06079         0.456047      0.865341     -1.588178
     11.57540      7.75805      5.67921        -0.320679      1.967271      3.474144
      5.26426      4.56969      2.03261        -1.168059     -1.450176     -0.939887
      5.80631      4.65675      4.86576        -0.502275     -0.625994      1.767286
     13.78834      9.57452      0.67406        -0.275776     -0.464862     -4.181477
     13.99844      9.35889      3.57488        -0.908274     -1.482045      1.497599
     16.73171      4.49373      3.76296         1.329906     -0.469095      2.217337
     16.48434      4.87565      1.00014        -0.396986     -0.613688     -3.608113
      8.19283      9.27127      2.83142        -0.927327     -0.348551     -1.887224
      9.12597      0.44191      5.56430         0.404683      1.004577      3.483152
     11.08705      4.56969      3.06079        -0.706019     -0.491264     -0.973171
     11.72208      4.77539      5.78805        -0.271828     -1.536311      3.823377
      2.38168      9.26231      1.75884        -0.996091     -0.412769     -1.404378
      2.93654      9.35889      4.60306        -0.837141      1.272409      1.104915
    total drift:                                0.014816     -0.048388      0.025117

  FREE ENERGIE OF THE ION-ELECTRON SYSTEM (eV)
  free  energy   TOTEN  =      -349.56312987 eV

  energy  without entropy=     -348.43044646  energy(sigma->0) =     -348.99678817