 vasp.5.4.4.18Apr17-6-g9f103f2a35 (build Aug 13 2019 17:33:20) gamma-only

 executed on             LinuxIFC date 2020.05.12  21:32:28

 INCAR:
 POTCAR:    PAW_PBE Ni_pv 06Sep2000
 POTCAR:    PAW_PBE S 06Sep2000
 POTCAR:    PAW_PBE Ni_pv 06Sep2000
   VRHFIN =Ni:

   TITEL  = PAW_PBE Ni_pv 06Sep2000
   POMASS =   58.690; ZVAL   =   16.000    mass and valenz
   ENMAX  =  367.986; ENMIN  =  275.989 eV

 POTCAR:    PAW_PBE S 06Sep2000
   VRHFIN =S : s2p4

   TITEL  = PAW_PBE S 06Sep2000
   POMASS =   32.066; ZVAL   =    6.000    mass and valenz
   ENMAX  =  258.689; ENMIN  =  194.016 eV

 Optimization of the real space projectors (new method)

 maximal supplied QI-value         = 18.90
 optimisation between [QCUT,QGAM] = [ 10.77, 21.73] = [ 32.49,132.25] Ry
 Optimized for a Real-space Cutoff    1.38 Angstroem

   l    n(q)    QCUT    max X(q) W(low)/X(q) W(high)/X(q)  e(spline)
   1      8    10.771     2.836    0.40E-04    0.29E-04    0.12E-06
   1      8    10.771     4.023    0.10E-03    0.48E-04    0.29E-06
   2      8    10.771    73.368    0.42E-03    0.97E-04    0.44E-06
   2      8    10.771    69.010    0.42E-03    0.99E-04    0.45E-06
   0      9    10.771    54.797    0.10E-03    0.56E-04    0.74E-07
   0      9    10.771    24.266    0.89E-04    0.49E-04    0.67E-07
 Optimization of the real space projectors (new method)

 maximal supplied QI-value         = 19.84
 optimisation between [QCUT,QGAM] = [ 10.71, 21.63] = [ 32.15,130.99] Ry
 Optimized for a Real-space Cutoff    1.19 Angstroem

   l    n(q)    QCUT    max X(q) W(low)/X(q) W(high)/X(q)  e(spline)
   0      8    10.715   187.594    0.41E-03    0.53E-04    0.66E-07
   0      8    10.715   164.243    0.41E-03    0.53E-04    0.65E-07
   1      7    10.715    67.533    0.19E-03    0.59E-03    0.68E-07
   1      7    10.715    50.729    0.19E-03    0.58E-03    0.67E-07
  PAW_PBE Ni_pv 06Sep2000               :
  PAW_PBE S 06Sep2000                   :

 POSCAR: Type_036 Type_136
  positions in cartesian coordinates
 exchange correlation table for  LEXCH =        8
   RHO(1)=    0.500       N(1)  =     2000
   RHO(2)=  100.500       N(2)  =     4000

 ion  position               nearest neighbor table
   1  0.235  0.965  0.067-  41 2.01  61 2.10  42 2.18   2 2.27  49 2.38
   2  0.397  0.795  0.127-  49 1.99  61 2.12  42 2.25   1 2.27  50 2.36  62 2.36  27 2.39
   3  0.547  0.645  0.254-  43 2.25  62 2.26  50 2.26  63 2.36  51 2.36  28 2.53  15 2.53
   4  0.698  0.494  0.381-  64 2.17  44 2.25  51 2.26  63 2.26  52 2.36  16 2.53  29 2.53
   5  0.826  0.345  0.485-  52 1.99  64 2.00  17 2.46  26 2.49
   6  0.114  0.412  0.169-  53 2.11  45 2.25  68 2.26  65 2.36  54 2.36   9 2.38  30 2.53  18 2.53

   7  0.264  0.261  0.296-  46 2.25  65 2.26  54 2.26  55 2.36  66 2.36  19 2.53  31 2.53
   8  0.414  0.111  0.423-  56 2.10  67 2.13  55 2.26  66 2.26  47 2.30  32 2.53  20 2.53
   9  0.964  0.606  0.107-  48 2.04  45 2.09  68 2.22  53 2.36   6 2.38  22 2.46
  10  0.098  0.783  0.451-  58 2.04  59 2.07  72 2.09  37 2.13
  11  0.541  0.223  0.146-  69 2.01  70 2.09  54 2.13  38 2.13  15 2.44
  12  0.831  0.028  0.212-  60 2.09  70 2.09  39 2.25  57 2.36  71 2.36  24 2.53  34 2.53
  13  0.981  0.878  0.338-  40 2.25  57 2.26  71 2.26  58 2.36  72 2.36  35 2.53  25 2.53
  14  0.366  0.553  0.113-  62 2.04  53 2.14  38 2.19  61 2.27  27 2.48
  15  0.508  0.420  0.220-  54 2.25  62 2.26  38 2.26  39 2.36  63 2.36  11 2.44  28 2.53   3 2.53

[...]

  33  0.734  0.818  0.452-  56 2.04  44 2.05  72 2.06  32 2.43
  34  0.015  0.843  0.144-  48 2.05  60 2.08  61 2.13  45 2.36  57 2.36  24 2.53  12 2.53
  35  0.166  0.693  0.271-  62 2.25  57 2.26  45 2.26  46 2.36  58 2.36  13 2.53  25 2.53
  36  0.316  0.543  0.398-  59 2.06  47 2.13  63 2.25  58 2.26  46 2.26  23 2.51
  37  0.001  0.998  0.481-  17 2.11  26 2.12  10 2.13  40 2.60
  38  0.586  0.406  0.117-  27 2.08  11 2.13  14 2.19  15 2.26  28 2.26
  39  0.736  0.256  0.244-  12 2.25  29 2.26  16 2.26  15 2.36  28 2.36
  40  0.886  0.105  0.371-  17 2.03  26 2.04  13 2.25  16 2.36  29 2.36  37 2.60
  41  0.160  0.169  0.040-   1 2.01  22 2.01  30 2.13  18 2.15
  42  0.303  0.023  0.160-   1 2.18   2 2.25  31 2.26  19 2.26  18 2.36  30 2.36
  43  0.453  0.872  0.286-   3 2.25  20 2.26  32 2.26  19 2.36  31 2.36
  44  0.603  0.722  0.413-  33 2.05  21 2.10   4 2.25  32 2.36  20 2.36  67 2.78
  45  0.019  0.639  0.202-   9 2.09   6 2.25  25 2.26  35 2.26  24 2.36  34 2.36
  46  0.170  0.489  0.329-  23 2.03   7 2.25  36 2.26  35 2.36  25 2.36  47 2.57
  47  0.292  0.351  0.430-  36 2.13  23 2.15   8 2.30  46 2.57
  48  0.862  0.815  0.086-   9 2.04  24 2.05  34 2.05
  49  0.448  0.780  0.034-   2 1.99  27 2.09   1 2.38  61 2.71
  50  0.636  0.692  0.160-  27 2.05  24 2.25  28 2.26   3 2.26   2 2.36
  51  0.787  0.542  0.287-  25 2.25   4 2.26  29 2.26  28 2.36   3 2.36
  52  0.937  0.391  0.414-   5 1.99  26 2.14  23 2.20   4 2.36  29 2.36
  53  0.205  0.470  0.087-  22 2.05   6 2.11  14 2.14  30 2.32   9 2.36
  54  0.353  0.308  0.202-  11 2.13  15 2.25   7 2.26  31 2.26  30 2.36   6 2.36
  55  0.503  0.158  0.329-  16 2.25   8 2.26  32 2.26   7 2.36  31 2.36  56 2.76
  56  0.633  0.031  0.442-  33 2.04   8 2.10  17 2.12  32 2.15  55 2.76
  57  0.070  0.925  0.245-  19 2.25  35 2.26  13 2.26  12 2.36  34 2.36  60 2.75
  58  0.220  0.775  0.372-  10 2.04  20 2.25  36 2.26  35 2.36  13 2.36  59 2.75
  59  0.284  0.636  0.488-  21 2.03  36 2.06  10 2.07  58 2.75
  60  0.946  0.063  0.133-  34 2.08  18 2.09  12 2.09  57 2.75
  61  0.209  0.774  0.091-   1 2.10   2 2.12  34 2.13  14 2.27  49 2.71  62 2.79
  62  0.350  0.641  0.203-  14 2.04  35 2.25  15 2.26   3 2.26   2 2.36  61 2.79
  63  0.501  0.491  0.330-  36 2.25   4 2.26  16 2.26   3 2.36  15 2.36
  64  0.651  0.340  0.441-   5 2.00  16 2.06  17 2.17   4 2.17
  65  0.067  0.258  0.245-  29 2.25   7 2.26  19 2.26   6 2.36  18 2.36
  66  0.218  0.108  0.372-  26 2.13  20 2.26   8 2.26  19 2.36   7 2.36
  67  0.403  0.940  0.481-  20 2.02  21 2.11   8 2.13  44 2.78
  68  0.917  0.408  0.118-  22 2.04   9 2.22  28 2.25  18 2.26   6 2.26
  69  0.487  0.172  0.058-  30 2.00  11 2.01
  70  0.641  0.014  0.177-  12 2.09  11 2.09  31 2.11  24 2.12
  71  0.784  0.874  0.287-  32 2.25  25 2.26  13 2.26  24 2.36  12 2.36
  72  0.934  0.724  0.414-  33 2.06  10 2.09  23 2.16  13 2.36  25 2.36

  LATTYP: Found a base centered orthorhombic cell.
 ALAT       =    11.4527836704
 B/A-ratio  =     1.4485816945
 C/A-ratio  =     1.8059804630

  Lattice vectors:

 A1 = (  10.0797329849,   0.0000000000,   0.0000000000)
 A2 = (  -3.5732980427,  -9.4251025535,   0.0000000000)
 A3 = (   0.0000000000,   0.0000000000, -20.6835035552)

Analysis of symmetry for initial positions (statically):
 Subroutine PRICEL returns:
 Original cell was already a primitive cell.

 Routine SETGRP: Setting up the symmetry group for a
 base centered orthorhombic supercell.

 Subroutine GETGRP returns: Found  1 space group operations
 (whereof  1 operations were pure point group operations)
 out of a pool of  8 trial point group operations.

The static configuration has the point symmetry C_1 .

Analysis of symmetry for dynamics (positions and initial velocities):
 Subroutine PRICEL returns:
 Original cell was already a primitive cell.

 Routine SETGRP: Setting up the symmetry group for a
 base centered orthorhombic supercell.

 Subroutine GETGRP returns: Found  1 space group operations
 (whereof  1 operations were pure point group operations)
 out of a pool of  8 trial point group operations.

The dynamic configuration has the point symmetry C_1 .

 Subroutine INISYM returns: Found  1 space group operations
 (whereof  1 operations are pure point group operations),
 and found     1 'primitive' translations

 KPOINTS: gamma-point-only calculation. no periodi

Automatic generation of k-mesh.
Space group operators:
 irot       det(A)        alpha          n_x          n_y          n_z        tau_x        tau_y        tau_z
    1     1.000000     0.000000     1.000000     0.000000     0.000000     0.000000     0.000000     0.000000

 Subroutine IBZKPT returns following result:

 Found      1 irreducible k-points:

 Following reciprocal coordinates:
            Coordinates               Weight
  0.000000  0.000000  0.000000      1.000000

 Following cartesian coordinates:
            Coordinates               Weight
  0.000000  0.000000  0.000000      1.000000

 SYSTEM =  "Millerite NiS"
 POSCAR =  Type_036 Type_136

 Startparameter for this run:
   NWRITE =      2    write-flag & timer
   PREC   = normal    normal or accurate (medium, high low for compatibility)
   ISTART =      0    job   : 0-new  1-cont  2-samecut
   ICHARG =      2    charge: 1-file 2-atom 10-const
   ISPIN  =      1    spin polarized calculation?
   LNONCOLLINEAR =      F non collinear calculations
   LSORBIT =      F    spin-orbit coupling
   INIWAV =      1    electr: 0-lowe 1-rand  2-diag
   LASPH  =      F    aspherical Exc in radial PAW
   METAGGA=      F    non-selfconsistent MetaGGA calc.

 Electronic Relaxation 1
   ENCUT  =  450.0 eV  33.07 Ry    5.75 a.u.  17.43 17.43 35.78*2*pi/ulx,y,z
   ENINI  =  450.0     initial cutoff
   ENAUG  =  703.4 eV  augmentation charge cutoff
   NELM   =    100;   NELMIN=  2; NELMDL= -5     # of ELM steps
   EDIFF  = 0.1E-03   stopping-criterion for ELM
   LREAL  =      T    real-space projection
   NLSPLINE    = F    spline interpolate recip. space projectors
   LCOMPAT=      F    compatible to vasp.4.4
   GGA_COMPAT  = T    GGA compatible to vasp.4.4-vasp.4.6
   LMAXPAW     = -100 max onsite density
   LMAXMIX     =    2 max onsite mixed and CHGCAR
   VOSKOWN=      0    Vosko Wilk Nusair interpolation
   ROPT   =   -0.00050  -0.00050
 Ionic relaxation
   EDIFFG = 0.1E-02   stopping-criterion for IOM
   NSW    =      0    number of steps for IOM
   NBLOCK =      1;   KBLOCK =      1    inner block; outer block
   IBRION =     -1    ionic relax: 0-MD 1-quasi-New 2-CG
   NFREE  =      0    steps in history (QN), initial steepest desc. (CG)
   ISIF   =      2    stress and relaxation
   IWAVPR =     10    prediction:  0-non 1-charg 2-wave 3-comb
   ISYM   =      2    0-nonsym 1-usesym 2-fastsym
   LCORR  =      T    Harris-Foulkes like correction to forces

   POTIM  = 0.5000    time-step for ionic-motion
   TEIN   =    0.0    initial temperature
   TEBEG  =    0.0;   TEEND  =   0.0 temperature during run
   SMASS  =  -3.00    Nose mass-parameter (am)
   estimated Nose-frequenzy (Omega)   =  0.10E-29 period in steps =****** mass=  -0.232E-26a.u.
   SCALEE = 1.0000    scale energy and forces
   NPACO  =    256;   APACO  = 16.0  distance and # of slots for P.C.
   PSTRESS=    0.0 pullay stress

  Mass of Ions in am
   POMASS =  58.69 32.07
  Ionic Valenz
   ZVAL   =  16.00  6.00
  Atomic Wigner-Seitz radii
  virtual crystal weights
   VCA    =   1.00  1.00
   NELECT =     792.0000    total number of electrons
   NUPDOWN=      -1.0000    fix difference up-down

 DOS related values:
   EMIN   =  10.00;   EMAX   =-10.00  energy-range for DOS
   EFERMI =   0.00
   ISMEAR =     0;   SIGMA  =   0.20  broadening in eV -4-tet -1-fermi 0-gaus

 Electronic relaxation 2 (details)
[...]
  Fock        0.00000     0.00000     0.00000     0.00000     0.00000     0.00000
  Total      83.68794    76.89845   104.35749    -0.27642    -0.76025    -1.84192
  in kB      68.23611    62.70021    85.08931    -0.22538    -0.61988    -1.50183

 VOLUME and BASIS-vectors are now :
  energy-cutoff  :      450.00
  volume of cell :     1964.98
      direct lattice vectors                 reciprocal lattice vectors
    10.079732985  0.000000000  0.000000000     0.099208977 -0.037612667  0.000000000
     3.573298043  9.425102554  0.000000000     0.000000000  0.106099641  0.000000000
     0.000000000  0.000000000 20.683503555     0.000000000  0.000000000  0.048347708

  length of vectors
    10.079732985 10.079732985 20.683503555     0.106099641  0.106099641  0.048347708

 FORCES acting on ions
    electron-ion (+dipol)            ewald-force                    non-local-force                 convergence-correction
   0.272E+03 0.494E+02 0.522E+04   -.273E+03 -.507E+02 -.523E+04   0.124E+01 0.101E+01 0.366E+01   0.621E-01 0.327E-01 -.322E-01
   -.365E+03 -.292E+03 0.320E+04   0.368E+03 0.293E+03 -.320E+04   -.267E+01 -.144E+01 -.152E+01   0.581E-01 0.113E+00 -.676E-01
   -.847E+02 -.460E+03 0.672E+02   0.841E+02 0.461E+03 -.670E+02   0.650E+00 -.151E+01 0.160E+00   0.475E-01 -.556E-01 -.178E+00
   -.187E+02 -.560E+03 -.304E+04   0.194E+02 0.563E+03 0.304E+04   -.180E+00 -.282E+01 0.295E+00   -.130E+00 0.212E+00 -.809E-01
   -.189E+03 -.512E+03 -.562E+04   0.189E+03 0.508E+03 0.562E+04   0.641E+00 0.351E+01 0.605E+01   -.851E-01 0.264E+00 0.432E-01
   0.333E+02 -.222E+03 0.180E+04   -.336E+02 0.221E+03 -.179E+04   0.240E+00 0.611E+00 -.276E+01   0.704E-01 -.399E-01 0.127E+00
   0.544E+01 -.405E+03 -.110E+04   -.659E+01 0.406E+03 0.110E+04   0.948E+00 -.119E+01 0.180E+00   0.890E-01 0.118E+00 -.276E+00
   0.701E+02 -.712E+03 -.439E+04   -.714E+02 0.715E+03 0.439E+04   0.774E+00 -.155E+01 -.239E+01   -.155E-01 0.288E-01 0.476E-01
   0.378E+03 -.452E+03 0.453E+04   -.381E+03 0.455E+03 -.453E+04   0.336E+01 -.287E+01 0.656E+01   -.459E-01 -.220E-01 0.147E+00
   0.993E+02 -.931E+02 -.492E+04   -.100E+03 0.972E+02 0.492E+04   -.228E-01 -.352E+01 -.371E+01   0.178E+00 -.227E+00 0.487E-01
   -.678E+03 0.428E+03 0.364E+04   0.681E+03 -.429E+03 -.365E+04   -.242E+01 0.135E+01 0.530E+01   -.470E-01 -.372E-01 -.105E-01
   0.491E+01 -.472E+03 0.154E+04   -.470E+01 0.476E+03 -.154E+04   0.357E+00 -.382E+01 0.995E+00   -.155E+00 0.851E-01 -.160E+00
   0.129E+02 -.432E+03 -.179E+04   -.133E+02 0.434E+03 0.179E+04   0.514E+00 -.136E+01 0.129E+01   -.422E-01 -.916E-01 -.378E+00
   0.290E+03 0.163E+03 0.432E+04   -.291E+03 -.164E+03 -.432E+04   0.102E+01 0.191E+01 0.137E+01   0.538E-01 -.691E-01 0.211E-01
   0.181E+03 0.166E+03 0.894E+03   -.181E+03 -.165E+03 -.891E+03   -.236E+00 -.116E+01 -.216E+01   0.114E-01 -.890E-01 -.145E+00
   0.522E+03 0.232E+03 -.187E+04   -.524E+03 -.233E+03 0.187E+04   0.209E+01 0.383E+00 0.188E+01   -.206E+00 0.121E+00 -.276E+00
   0.464E+03 0.265E+03 -.494E+04   -.466E+03 -.266E+03 0.494E+04   0.140E+01 0.189E+01 -.353E+01   -.218E+00 0.898E-01 0.721E-01
   0.924E+03 0.256E+03 0.316E+04   -.928E+03 -.258E+03 -.316E+04   0.397E+01 0.107E+01 -.178E+01   0.836E-01 -.317E-01 0.679E-02
   0.414E+03 0.314E+03 0.600E+02   -.416E+03 -.314E+03 -.595E+02   0.136E+01 0.347E-01 -.229E+00   0.122E+00 0.646E-01 -.293E+00
   0.374E+03 0.379E+02 -.280E+04   -.378E+03 -.379E+02 0.280E+04   0.225E+01 0.621E+00 0.829E+00   0.985E-01 -.231E+00 0.141E+00
   -.139E+03 0.401E+03 -.523E+04   0.134E+03 -.403E+03 0.523E+04   0.531E+01 0.843E+00 -.152E+01   0.139E+00 -.907E-01 0.175E+00
   0.472E+03 -.249E+03 0.584E+04   -.474E+03 0.251E+03 -.584E+04   0.171E+01 -.121E+01 0.472E+01   0.148E-01 -.732E-01 0.203E-01
   0.287E+03 0.354E+03 -.427E+04   -.291E+03 -.356E+03 0.427E+04   0.279E+01 0.149E+01 0.169E+00   0.526E-01 -.101E+00 -.114E+00
   0.600E+03 -.935E+02 0.247E+04   -.602E+03 0.924E+02 -.247E+04   0.223E+01 0.548E+00 0.982E+00   -.150E+00 0.862E-02 -.453E-01
   0.458E+03 0.305E+03 -.925E+03   -.459E+03 -.305E+03 0.925E+03   0.159E+01 0.360E+00 0.793E-01   -.157E-01 -.131E+00 -.258E+00
   -.753E+03 0.101E+03 -.403E+04   0.758E+03 -.102E+03 0.404E+04   -.438E+01 0.131E+01 -.121E+01   0.176E+00 0.930E-01 -.639E-01
   -.673E+03 0.274E+03 0.523E+04   0.671E+03 -.270E+03 -.524E+04   0.248E+01 -.360E+01 0.701E+00   0.710E-01 -.367E-01 0.316E-01
   -.471E+03 0.335E+03 0.234E+04   0.472E+03 -.335E+03 -.234E+04   -.379E+00 0.182E+00 -.117E+01   -.240E-01 0.271E-01 -.118E+00
   -.433E+03 0.124E+03 -.779E+03   0.433E+03 -.124E+03 0.777E+03   -.314E+00 -.813E+00 0.282E+01   -.134E-02 0.148E+00 -.382E+00
   -.591E+03 0.319E+03 0.440E+04   0.594E+03 -.320E+03 -.440E+04   -.342E+01 0.138E+01 0.450E+01   0.119E+00 -.113E+00 0.124E+00
   -.364E+03 0.402E+03 0.108E+04   0.364E+03 -.404E+03 -.108E+04   -.936E+00 0.178E+01 -.118E+01   0.472E-01 0.100E+00 -.252E+00
   -.295E+03 0.121E+03 -.178E+04   0.296E+03 -.122E+03 0.178E+04   -.196E+01 0.127E+01 0.280E+01   -.580E-01 -.509E-01 -.204E+00
   -.183E+03 0.331E+03 -.497E+04   0.184E+03 -.333E+03 0.497E+04   -.313E+00 0.118E+01 0.199E+01   -.252E+00 -.143E+00 0.117E+00
   -.184E+03 -.230E+03 0.356E+04   0.188E+03 0.230E+03 -.356E+04   -.328E+01 -.101E+01 0.418E+01   0.915E-02 0.222E-02 -.549E-01
   -.439E+03 0.142E+03 0.866E+02   0.441E+03 -.141E+03 -.864E+02   -.146E+01 -.313E+00 -.882E-01   0.415E-01 -.185E+00 -.179E+00
   -.357E+03 0.433E+03 -.329E+04   0.361E+03 -.435E+03 0.329E+04   -.428E+01 0.271E+01 -.148E+01   0.115E+00 -.735E-01 -.957E-01
   -.116E+03 0.926E+02 -.207E+04   0.117E+03 -.937E+02 0.207E+04   -.208E+00 0.758E+00 -.178E+01   0.378E-01 -.118E-01 0.139E+00
   -.206E+03 0.314E+03 0.176E+04   0.208E+03 -.316E+03 -.177E+04   -.158E+01 0.981E+00 0.342E+01   0.350E-01 -.460E-01 0.138E-01
   -.467E+02 0.148E+03 0.387E+03   0.465E+02 -.149E+03 -.388E+03   0.530E+00 0.153E+01 0.148E+01   -.493E-01 0.347E-01 -.119E+00
   0.865E+01 0.143E+03 -.729E+03   -.971E+01 -.145E+03 0.725E+03   0.693E+00 0.155E+01 0.144E+01   -.555E-01 0.612E-02 -.149E+00
   0.150E+03 0.126E+03 0.228E+04   -.151E+03 -.127E+03 -.229E+04   0.415E+00 0.980E+00 0.232E+01   0.189E-01 -.109E+00 -.118E-01
   -.859E+02 0.142E+03 0.989E+03   0.875E+02 -.142E+03 -.987E+03   -.125E+01 0.579E+00 -.799E+00   0.319E-01 0.139E-01 -.598E-01
   0.185E+01 0.128E+03 -.373E+02   -.203E+01 -.130E+03 0.367E+02   0.166E+00 0.228E+01 0.664E+00   0.951E-02 -.138E-01 -.110E+00
   -.689E+02 0.198E+03 -.132E+04   0.705E+02 -.200E+03 0.133E+04   -.134E+01 0.426E+00 -.135E+01   -.105E+00 -.276E-01 0.758E-01
   -.111E+02 0.463E+02 0.555E+03   0.124E+02 -.469E+02 -.552E+03   -.102E+01 0.606E+00 -.938E+00   0.510E-04 -.716E-01 -.724E-02
   -.222E+02 0.147E+03 -.449E+03   0.225E+02 -.148E+03 0.445E+03   0.119E+00 0.127E+01 0.126E+01   0.231E-01 -.352E-01 -.905E-01
   -.458E+02 0.162E+03 -.174E+04   0.456E+02 -.163E+03 0.174E+04   0.714E+00 -.148E+00 -.494E+00   0.129E-01 0.260E-01 -.209E-01
   0.196E+03 -.308E+03 0.215E+04   -.198E+03 0.309E+03 -.216E+04   0.422E+00 -.113E+01 0.158E+01   -.457E-01 0.206E-01 -.328E-01
   -.204E+03 -.846E+02 0.226E+04   0.207E+03 0.847E+02 -.227E+04   -.132E+01 0.475E+00 0.140E+01   -.318E-02 0.220E-01 -.164E-01
   -.193E+03 -.219E+03 0.107E+04   0.195E+03 0.220E+03 -.107E+04   -.155E+01 -.795E+00 0.866E+00   -.587E-02 -.244E-01 -.152E-01
   -.111E+03 -.112E+03 -.134E+03   0.114E+03 0.114E+03 0.135E+03   -.201E+01 -.172E+01 -.214E+00   -.133E-01 0.296E-01 -.117E+00
   -.251E+03 -.177E+03 -.137E+04   0.252E+03 0.179E+03 0.137E+04   -.475E-02 -.262E+00 -.142E+01   0.489E-01 0.114E+00 -.289E-01
   -.253E+03 -.214E+03 0.188E+04   0.256E+03 0.216E+03 -.188E+04   -.129E+01 -.111E+01 0.928E+00   0.202E-01 -.294E-01 0.485E-01
   -.646E+01 -.138E+03 0.507E+03   0.616E+01 0.142E+03 -.506E+03   -.498E+00 -.290E+01 0.656E+00   -.776E-02 -.319E-01 -.366E-01
   -.999E+02 -.128E+03 -.565E+03   0.101E+03 0.131E+03 0.564E+03   -.136E+01 -.232E+01 -.308E-01   -.246E-01 0.594E-01 -.121E+00
   -.207E+02 -.174E+03 -.179E+04   0.221E+02 0.173E+03 0.179E+04   -.351E+00 0.435E+00 -.823E+00   -.838E-01 -.120E-01 0.370E-01
   -.972E+02 -.130E+03 0.268E+03   0.988E+02 0.131E+03 -.269E+03   -.110E+01 -.183E+01 0.124E+01   0.274E-01 -.144E-01 -.779E-01
   -.147E+03 -.661E+02 -.839E+03   0.150E+03 0.684E+02 0.838E+03   -.155E+01 -.214E+01 -.567E+00   0.107E+00 -.827E-01 -.103E+00
   0.449E+02 0.227E+03 -.219E+04   -.447E+02 -.228E+03 0.219E+04   -.215E+00 0.688E+00 -.194E+01   0.192E+00 -.474E-01 0.876E-01
   0.200E+03 -.188E+03 0.156E+04   -.203E+03 0.191E+03 -.157E+04   0.201E+01 -.122E+01 0.237E+01   0.140E-02 0.441E-01 -.367E-01
   0.246E+03 0.569E+02 0.182E+04   -.251E+03 -.577E+02 -.182E+04   0.282E+01 0.152E+00 0.297E+01   0.532E-01 0.554E-01 -.441E-01
   0.118E+03 -.140E+03 0.469E+03   -.120E+03 0.142E+03 -.468E+03   0.217E+01 -.152E+01 0.175E+01   0.894E-02 -.585E-02 0.100E-01
   0.157E+03 -.589E+02 -.639E+03   -.159E+03 0.604E+02 0.640E+03   0.219E+01 -.101E+01 -.173E+01   -.230E-01 0.106E-01 -.576E-01
   0.423E+03 -.149E+03 -.182E+04   -.429E+03 0.152E+03 0.182E+04   0.306E+01 -.192E+01 -.135E+01   -.891E-01 0.104E+00 -.210E-02
   0.184E+03 -.581E+02 0.155E+03   -.187E+03 0.592E+02 -.154E+03   0.248E+01 -.100E+01 -.215E+00   0.705E-01 0.454E-01 -.104E+00
   0.911E+02 -.919E+02 -.106E+04   -.939E+02 0.935E+02 0.106E+04   0.278E+01 -.172E+01 -.990E+00   0.894E-01 0.235E-01 -.941E-01
   0.243E+02 -.196E+03 -.222E+04   -.253E+02 0.197E+03 0.222E+04   0.812E-01 -.530E+00 -.168E+01   0.120E-01 -.125E+00 0.104E+00
   0.466E+03 0.275E+02 0.147E+04   -.470E+03 -.270E+02 -.148E+04   0.245E+01 0.120E-03 0.220E+01   -.565E-01 0.517E-02 0.712E-01
   -.330E+03 0.223E+03 0.218E+04   0.331E+03 -.224E+03 -.218E+04   0.541E+00 -.101E+00 0.146E+01   0.137E-01 0.277E-03 0.337E-01
   0.242E+02 0.955E+02 0.112E+04   -.254E+02 -.955E+02 -.112E+04   0.641E+00 0.162E+00 0.502E+00   -.487E-01 0.530E-01 -.381E-01
   0.151E+03 -.700E+02 -.166E+03   -.154E+03 0.708E+02 0.167E+03   0.293E+01 -.938E+00 -.556E+00   -.392E-01 -.155E-01 -.119E+00
   0.160E+03 0.740E+02 -.149E+04   -.163E+03 -.732E+02 0.149E+04   0.159E+01 -.101E+01 -.251E+01   -.919E-01 -.915E-01 -.452E-01
   -.230E+02 0.158E+02 -.324E+02   0.625E-12 -.611E-12 0.409E-11   0.228E+02 -.152E+02 0.359E+02   0.286E+00 -.512E+00 -.358E+01

 POSITION                                       TOTAL-FORCE (eV/Angst)
      5.82120      9.09451      1.38114         0.391942     -0.259727     -0.799992
      6.84285      7.49250      2.62550         0.415641     -0.357908      3.897806
      7.82056      6.07621      5.25100         0.003118     -0.205795      0.127157
      8.79827      4.65991      7.87651         0.359917      0.431161     -0.265481
      9.56299      3.25249     10.02627         0.394830      0.057726      1.487243
      2.61774      3.87870      3.50067        -0.001990     -0.625434      1.920020
      3.59545      2.46241      6.12617        -0.111956     -0.402829     -0.007423
      4.57317      1.04611      8.75167        -0.585464      1.169071     -0.787944
     11.87987      5.71503      2.21814         0.188200     -0.526435     -0.999970
      3.78929      7.37677      9.33718        -0.685610      0.277034      0.647148
      6.25012      2.10489      3.01765         0.567291     -0.164950     -0.022662
      8.47237      0.26490      4.37584         0.411245     -0.117753      1.675705
     13.02338      8.27371      7.00134         0.049568     -0.404590     -0.296357
      5.66765      5.21457      2.32931        -0.111846      0.341133     -1.484848
      6.61816      3.96023      4.55733         0.097584      0.478859      0.663625
      7.59587      2.54394      7.18283         0.196599     -0.481768     -1.509486
      8.39336      1.15810      9.48093        -0.695150      0.412050      1.079493
      1.41534      1.76273      2.80700         0.126777     -0.164154      1.110071
      2.39305      0.34643      5.43250         0.025594     -0.077202     -0.034882
      6.94406      8.35524      8.05800        -0.737172      0.426166     -2.874347
      6.96254      6.81468      9.79665         0.975628     -0.333689      0.820621
      2.05106      3.59434      1.00366        -0.479142      0.708512     -1.422018
      2.66400      4.79984      8.65686        -1.136094     -0.428110      1.364632
     10.84326      7.57403      3.68216        -0.670633     -0.553840      1.116976
     11.82097      6.15773      6.30767        -0.026882      0.093970     -0.081804
      0.83878      1.56033      8.80502         0.826044      0.251063      0.640480
      8.01942      5.64788      1.66691         0.360576     -0.403997     -1.136191
      9.02296      4.33443      3.86366         0.104951      0.087362     -0.017529
     10.00068      2.91813      6.48916         0.151671     -0.059612     -0.130157
      3.82015      2.13692      2.11332        -0.467667      0.245145      1.036814
      4.79786      0.72063      4.73883        -0.369862     -0.270140      1.110558
      9.34887      8.72943      7.36433        -0.365596      0.343435     -1.481971
     10.31812      7.70521      9.34584         0.397595     -0.803304      1.068117
      3.16834      7.94822      2.98849         1.149293     -0.633807      1.597194
      4.14605      6.53193      5.61399         0.274045      0.177492     -0.045547
      5.12376      5.11563      8.23950         0.126123      0.128727     -1.824412
      3.57734      9.40608      9.94000         0.623244     -0.387086      1.905369
      7.35546      3.82659      2.42507         0.095275     -0.778956     -0.705670
      8.33317      2.41029      5.05057         0.182801      0.182865     -0.142775
      9.31088      0.99399      7.67607        -0.417780     -0.645583     -3.413508
      2.21843      1.59754      0.82199        -0.501638     -0.272251     -3.337004
      3.13035      0.21279      3.30024         0.420619     -0.120917      0.926901
      7.68136      8.22159      5.92574        -0.010744     -0.232918     -0.109478
      8.65907      6.80530      8.55124         0.112420     -1.664461     -0.259567
      2.47854      6.02409      4.17540         0.264531     -0.149301      1.703264
      3.45626      4.60779      6.80091         0.414816      0.217194     -2.827558
      4.19476      3.31039      8.89759         0.512567     -0.791828      2.105046
     11.60677      7.68539      1.78278        -1.130124      0.626094     -3.727311
      7.29947      7.35455      0.69738         1.110172      0.658798     -3.626229
      8.88655      6.52099      3.30837         0.223965      0.738650      1.217889
      9.86427      5.10469      5.93387         0.117696      0.007353      0.176663
     10.84198      3.68840      8.55937         1.394643      1.139001     -0.415183
      3.74376      4.43317      1.80392         1.176868      0.688639     -1.484631
      4.66145      2.90719      4.18354        -0.804441      0.475151      1.414086
      5.63916      1.49089      6.80904        -0.226440      0.116016     -0.771540
      6.49008      0.29113      9.14123         0.961295      0.058354      1.923484
      4.00964      8.71849      5.05870         0.474051     -0.222665      0.817418
      4.98735      7.30220      7.68420         0.925685      0.102218     -2.011320
      5.13194      5.99560     10.09855         0.103320     -0.714665      3.528689
      9.76204      0.59272      2.76098        -0.650931      1.525648     -1.864522
      4.86889      7.29502      1.88557        -1.901064     -0.657844     -1.518900
      5.82436      6.04450      4.19167         0.251630      0.646700      2.761844
      6.80207      4.62821      6.81717        -0.007248      0.481658     -0.716458
      7.78088      3.20727      9.12577        -2.309201      0.883897      2.356421
      1.59925      2.43070      5.06683         0.191785      0.151786      0.022656
      2.57697      1.01441      7.69234         0.093824     -0.140102     -0.561437
      7.42103      8.86402      9.95333        -0.952814      0.863189      3.568251
     10.70128      3.84700      2.44133        -1.853888      0.495127      0.499065
      5.52577      1.62190      1.20325         1.374596     -1.335300     -3.035569
      6.51058      0.12778      3.65909        -0.673779      0.218174     -0.633266
     11.02718      8.24201      5.94200         0.135979     -0.222382      0.321013
     12.00489      6.82571      8.56750        -0.870862     -0.294112     -0.226768
    total drift:                                0.167669      0.119873     -0.021793

  FREE ENERGIE OF THE ION-ELECTRON SYSTEM (eV)
  free  energy   TOTEN  =      -351.26740618 eV

  energy  without entropy=     -350.26181653  energy(sigma->0) =     -350.76461135