 vasp.5.4.4.18Apr17-6-g9f103f2a35 (build Aug 13 2019 17:33:20) gamma-only

 executed on             LinuxIFC date 2020.05.12  06:41:31

 INCAR:
 POTCAR:    PAW_PBE Ni_pv 06Sep2000
 POTCAR:    PAW_PBE S 06Sep2000
 POTCAR:    PAW_PBE Ni_pv 06Sep2000
   VRHFIN =Ni:

   TITEL  = PAW_PBE Ni_pv 06Sep2000
   POMASS =   58.690; ZVAL   =   16.000    mass and valenz
   ENMAX  =  367.986; ENMIN  =  275.989 eV

 POTCAR:    PAW_PBE S 06Sep2000
   VRHFIN =S : s2p4

   TITEL  = PAW_PBE S 06Sep2000
   POMASS =   32.066; ZVAL   =    6.000    mass and valenz
   ENMAX  =  258.689; ENMIN  =  194.016 eV

 Optimization of the real space projectors (new method)

 maximal supplied QI-value         = 18.90
 optimisation between [QCUT,QGAM] = [ 10.77, 21.73] = [ 32.49,132.25] Ry
 Optimized for a Real-space Cutoff    1.38 Angstroem

   l    n(q)    QCUT    max X(q) W(low)/X(q) W(high)/X(q)  e(spline)
   1      8    10.771     2.836    0.40E-04    0.29E-04    0.12E-06
   1      8    10.771     4.023    0.10E-03    0.48E-04    0.29E-06
   2      8    10.771    73.368    0.42E-03    0.97E-04    0.44E-06
   2      8    10.771    69.010    0.42E-03    0.99E-04    0.45E-06
   0      9    10.771    54.797    0.10E-03    0.56E-04    0.74E-07
   0      9    10.771    24.266    0.89E-04    0.49E-04    0.67E-07
 Optimization of the real space projectors (new method)

 maximal supplied QI-value         = 19.84
 optimisation between [QCUT,QGAM] = [ 10.71, 21.63] = [ 32.15,130.99] Ry
 Optimized for a Real-space Cutoff    1.19 Angstroem

   l    n(q)    QCUT    max X(q) W(low)/X(q) W(high)/X(q)  e(spline)
   0      8    10.715   187.594    0.41E-03    0.53E-04    0.66E-07
   0      8    10.715   164.243    0.41E-03    0.53E-04    0.65E-07
   1      7    10.715    67.533    0.19E-03    0.59E-03    0.68E-07
   1      7    10.715    50.729    0.19E-03    0.58E-03    0.67E-07
  PAW_PBE Ni_pv 06Sep2000               :
  PAW_PBE S 06Sep2000                   :

 POSCAR: Type_048 Type_148
  positions in cartesian coordinates
 exchange correlation table for  LEXCH =        8
   RHO(1)=    0.500       N(1)  =     2000
   RHO(2)=  100.500       N(2)  =     4000

 ion  position               nearest neighbor table
   1  0.256  0.016  0.088-  75 2.25  65 2.26  81 2.26  53 2.36  93 2.36   5 2.45
   2  0.256  0.016  0.420-  76 2.25  66 2.26  82 2.26  54 2.36  94 2.36  10 2.53   6 2.53
   3  0.006  0.266  0.254-  61 2.25  71 2.26  67 2.26  59 2.36  55 2.36   7 2.53  23 2.53
   4  0.006  0.266  0.587-  50 2.07  62 2.07  56 2.20  68 2.20  72 2.26  60 2.36  24 2.53   8 2.53

   5  0.286  0.965  0.005-  81 2.00  93 2.01   1 2.45
   6  0.256  0.016  0.332-  79 2.25  61 2.26  82 2.26  49 2.36  94 2.36  10 2.53   2 2.53
   7  0.006  0.266  0.166-  65 2.25  63 2.26  71 2.26  51 2.36  59 2.36   9 2.39   3 2.53  23 2.53

[...]

  44  0.506  0.766  0.499-  78 2.25  76 2.26  84 2.26  88 2.36  96 2.36  36 2.53  40 2.53
  45  0.692  0.799  0.096-  89 2.07  93 2.08  87 2.16  77 2.23  43 2.39
  46  0.690  0.715  0.376-  94 2.25  78 2.26  73 2.26  90 2.36  85 2.36  42 2.53  38 2.53
  47  0.940  0.965  0.210-  71 2.25  91 2.26  87 2.26  79 2.36  75 2.36  27 2.53  31 2.53
  48  0.940  0.965  0.543-  80 2.08  92 2.08  72 2.25  88 2.26  76 2.36  32 2.53  28 2.53
  49  0.468  0.167  0.320-  15 2.25  18 2.26  22 2.26   6 2.36  10 2.36
  50  0.274  0.213  0.629-   4 2.07  16 2.07  56 2.48  60 2.55
  51  0.218  0.417  0.154-   9 2.16  25 2.25  19 2.26  11 2.26   7 2.36  23 2.36
  52  0.218  0.417  0.487-  26 2.25  12 2.26  20 2.26  24 2.36   8 2.36
  53  0.468  0.167  0.100-   9 2.07  21 2.23  19 2.25  13 2.26   1 2.36
  54  0.468  0.167  0.432-  20 2.25  22 2.26  14 2.26  10 2.36   2 2.36
  55  0.218  0.417  0.266-  30 2.25  11 2.26  15 2.26  23 2.36   3 2.36
  56  0.209  0.406  0.584-  24 2.08  12 2.08   4 2.20  16 2.20  50 2.48
  57  0.053  0.414  0.044-  29 2.00  41 2.01   9 2.08  25 2.26  37 2.36
  58  0.053  0.414  0.376-  10 2.25  26 2.26  30 2.26  38 2.36  42 2.36
  59  0.303  0.164  0.210-  35 2.25  15 2.26  19 2.26   3 2.36   7 2.36
  60  0.303  0.164  0.543-  36 2.25  20 2.26  16 2.26   8 2.36   4 2.36  50 2.55
  61  0.968  0.167  0.320-   3 2.25   6 2.26  10 2.26  18 2.36  22 2.36
  62  0.774  0.213  0.629-  16 2.07   4 2.07  68 2.48  72 2.55
  63  0.718  0.417  0.154-  21 2.16  37 2.25   7 2.26  23 2.26  19 2.36  11 2.36
  64  0.718  0.417  0.487-  38 2.25  24 2.26   8 2.26  12 2.36  20 2.36
  65  0.968  0.167  0.100-  21 2.07   9 2.23   7 2.25   1 2.26  13 2.36
  66  0.968  0.167  0.432-   8 2.25  10 2.26   2 2.26  22 2.36  14 2.36
  67  0.718  0.417  0.266-  42 2.25  23 2.26   3 2.26  11 2.36  15 2.36
  68  0.709  0.406  0.584-  12 2.08  24 2.08  16 2.20   4 2.20  62 2.48
  69  0.553  0.414  0.044-  41 2.00  29 2.01  21 2.08  37 2.26  25 2.36
  70  0.553  0.414  0.376-  22 2.25  38 2.26  42 2.26  26 2.36  30 2.36
  71  0.803  0.164  0.210-  47 2.25   3 2.26   7 2.26  15 2.36  19 2.36
  72  0.803  0.164  0.543-  48 2.25   8 2.26   4 2.26  20 2.36  16 2.36  62 2.55
  73  0.468  0.667  0.320-  39 2.25  42 2.26  46 2.26  30 2.36  34 2.36
  74  0.274  0.713  0.629-  28 2.07  40 2.07  80 2.48  84 2.55
  75  0.218  0.917  0.154-  33 2.16   1 2.25  43 2.26  35 2.26  31 2.36  47 2.36
  76  0.218  0.917  0.487-   2 2.25  36 2.26  44 2.26  48 2.36  32 2.36
  77  0.468  0.667  0.100-  33 2.07  45 2.23  43 2.25  37 2.26  25 2.36
  78  0.468  0.667  0.432-  44 2.25  46 2.26  38 2.26  34 2.36  26 2.36
  79  0.218  0.917  0.266-   6 2.25  35 2.26  39 2.26  47 2.36  27 2.36
  80  0.209  0.906  0.584-  48 2.08  36 2.08  28 2.20  40 2.20  74 2.48
  81  0.053  0.914  0.044-   5 2.00  17 2.01  33 2.08   1 2.26  13 2.36
  82  0.053  0.914  0.376-  34 2.25   6 2.26   2 2.26  18 2.36  14 2.36
  83  0.303  0.664  0.210-  11 2.25  39 2.26  43 2.26  27 2.36  31 2.36
  84  0.303  0.664  0.543-  12 2.25  40 2.26  44 2.26  28 2.36  32 2.36  74 2.55
  85  0.968  0.667  0.320-  27 2.25  30 2.26  34 2.26  42 2.36  46 2.36
  86  0.774  0.713  0.629-  40 2.07  28 2.07  92 2.48  96 2.55
  87  0.718  0.917  0.154-  45 2.16  13 2.25  31 2.26  47 2.26  43 2.36  35 2.36
  88  0.718  0.917  0.487-  14 2.25  48 2.26  32 2.26  36 2.36  44 2.36
  89  0.968  0.667  0.100-  45 2.07  33 2.23  31 2.25  25 2.26  37 2.36
  90  0.968  0.667  0.432-  32 2.25  34 2.26  26 2.26  46 2.36  38 2.36
  91  0.718  0.917  0.266-  18 2.25  47 2.26  27 2.26  35 2.36  39 2.36
  92  0.709  0.906  0.584-  36 2.08  48 2.08  40 2.20  28 2.20  86 2.48
  93  0.553  0.914  0.044-  17 2.00   5 2.01  45 2.08  13 2.26   1 2.36
  94  0.553  0.914  0.376-  46 2.25  18 2.26  14 2.26   6 2.36   2 2.36
  95  0.803  0.664  0.210-  23 2.25  27 2.26  31 2.26  39 2.36  43 2.36
  96  0.803  0.664  0.543-  24 2.25  28 2.26  32 2.26  40 2.36  44 2.36  86 2.55

  LATTYP: Found a simple monoclinic cell.
 ALAT       =    13.8711386352
 B/A-ratio  =     2.0770410574
 C/A-ratio  =     1.3233367991
 COS(beta)  =    -0.9620914447

  Lattice vectors:

 A1 = (  -8.3714133957, -11.0601955134,   0.0000000000)
 A2 = (   0.0000000000,   0.0000000000, -28.8109244581)
 A3 = (  14.6499733957,  11.0601955134,   0.0000000000)

Analysis of symmetry for initial positions (statically):
 Subroutine PRICEL returns following result:

[...]

   4 primitive cells build up your supercell.

 Routine SETGRP: Setting up the symmetry group for a
 simple monoclinic supercell.

 Subroutine GETGRP returns: Found  1 space group operations
 (whereof  1 operations were pure point group operations)
 out of a pool of  4 trial point group operations.

The static configuration has the point symmetry C_1 .

Analysis of symmetry for dynamics (positions and initial velocities):
 Subroutine PRICEL returns following result:

  LATTYP: Found a simple monoclinic cell.
 ALAT       =     6.9355693176
 B/A-ratio  =     4.1540821148
 C/A-ratio  =     1.3233367991
 COS(beta)  =    -0.9620914447

  Lattice vectors:

 A1 = (  -4.1857066979,  -5.5300977567,   0.0000000000)
 A2 = (   0.0000000000,   0.0000000000, -28.8109244581)
 A3 = (   7.3249866979,   5.5300977567,   0.0000000000)

   4 primitive cells build up your supercell.

 Routine SETGRP: Setting up the symmetry group for a
 simple monoclinic supercell.

 Subroutine GETGRP returns: Found  1 space group operations
 (whereof  1 operations were pure point group operations)
 out of a pool of  4 trial point group operations.

The dynamic configuration has the point symmetry C_1 .

 Subroutine INISYM returns: Found  1 space group operations
 (whereof  1 operations are pure point group operations),
 and found     4 'primitive' translations

 KPOINTS: gamma-point-only calculation. no periodi

Automatic generation of k-mesh.
Space group operators:
 irot       det(A)        alpha          n_x          n_y          n_z        tau_x        tau_y        tau_z
    1     1.000000     0.000000     1.000000     0.000000     0.000000     0.000000     0.000000     0.000000

 Subroutine IBZKPT returns following result:

 Found      1 irreducible k-points:

 Following reciprocal coordinates:
            Coordinates               Weight
  0.000000  0.000000  0.000000      1.000000

 Following cartesian coordinates:
            Coordinates               Weight
  0.000000  0.000000  0.000000      1.000000

 SYSTEM =  "Millerite NiS"
 POSCAR =  Type_048 Type_148

 Startparameter for this run:
   NWRITE =      2    write-flag & timer
   PREC   = normal    normal or accurate (medium, high low for compatibility)
   ISTART =      0    job   : 0-new  1-cont  2-samecut
   ICHARG =      2    charge: 1-file 2-atom 10-const
   ISPIN  =      1    spin polarized calculation?
   LNONCOLLINEAR =      F non collinear calculations
   LSORBIT =      F    spin-orbit coupling
   INIWAV =      1    electr: 0-lowe 1-rand  2-diag
   LASPH  =      F    aspherical Exc in radial PAW
   METAGGA=      F    non-selfconsistent MetaGGA calc.

 Electronic Relaxation 1
   ENCUT  =  450.0 eV  33.07 Ry    5.75 a.u.  10.86 19.47 49.83*2*pi/ulx,y,z
   ENINI  =  450.0     initial cutoff
   ENAUG  =  703.4 eV  augmentation charge cutoff
   NELM   =    100;   NELMIN=  2; NELMDL= -5     # of ELM steps
   EDIFF  = 0.1E-03   stopping-criterion for ELM
   LREAL  =      T    real-space projection
   NLSPLINE    = F    spline interpolate recip. space projectors
   LCOMPAT=      F    compatible to vasp.4.4
   GGA_COMPAT  = T    GGA compatible to vasp.4.4-vasp.4.6
   LMAXPAW     = -100 max onsite density
   LMAXMIX     =    2 max onsite mixed and CHGCAR
   VOSKOWN=      0    Vosko Wilk Nusair interpolation
   ROPT   =   -0.00050  -0.00050
 Ionic relaxation
   EDIFFG = 0.1E-02   stopping-criterion for IOM
   NSW    =      0    number of steps for IOM
   NBLOCK =      1;   KBLOCK =      1    inner block; outer block
   IBRION =     -1    ionic relax: 0-MD 1-quasi-New 2-CG
   NFREE  =      0    steps in history (QN), initial steepest desc. (CG)
   ISIF   =      2    stress and relaxation
   IWAVPR =     10    prediction:  0-non 1-charg 2-wave 3-comb
   ISYM   =      2    0-nonsym 1-usesym 2-fastsym
   LCORR  =      T    Harris-Foulkes like correction to forces

   POTIM  = 0.5000    time-step for ionic-motion
   TEIN   =    0.0    initial temperature
[...]
     0.000000000  0.000000000 28.810924458     0.000000000  0.000000000  0.034709056

  length of vectors
     6.278560000 11.256463038 28.810924458     0.162098538  0.090414315  0.034709056

 FORCES acting on ions
    electron-ion (+dipol)            ewald-force                    non-local-force                 convergence-correction
   -.686E+02 -.450E+03 0.540E+04   0.684E+02 0.452E+03 -.540E+04   0.344E+00 -.150E+01 0.305E+00   -.303E-03 0.266E-02 0.117E-01
   -.413E+02 0.256E+03 -.305E+04   0.404E+02 -.256E+03 0.305E+04   0.100E+01 0.755E+00 -.114E+01   -.783E-03 -.559E-02 0.832E-01
   -.411E+02 0.266E+03 0.631E+03   0.402E+02 -.266E+03 -.631E+03   0.987E+00 0.698E+00 -.785E+00   -.550E-03 -.953E-03 0.397E-01
   -.125E+02 0.280E+03 -.672E+04   0.131E+02 -.282E+03 0.672E+04   -.545E+00 0.258E+01 -.333E+01   -.461E-03 0.159E-02 -.189E-01
   -.147E+02 -.133E+03 0.732E+04   0.133E+02 0.131E+03 -.732E+04   0.147E+01 0.203E+01 -.536E+01   -.178E-02 0.363E-02 -.557E-01
   -.413E+02 0.257E+03 -.203E+03   0.404E+02 -.257E+03 0.202E+03   0.997E+00 0.630E+00 0.118E+01   -.106E-02 -.169E-02 0.266E-01
   0.129E+02 0.411E+03 0.334E+04   -.132E+02 -.414E+03 -.334E+04   -.492E-01 0.232E+01 0.347E+00   -.124E-02 -.277E-02 0.587E-01
   -.411E+02 0.276E+03 -.388E+04   0.399E+02 -.277E+03 0.388E+04   0.115E+01 0.848E+00 0.250E+01   -.115E-02 0.595E-02 0.642E-01
   -.722E+01 0.312E+03 0.582E+04   0.508E+01 -.313E+03 -.582E+04   0.128E+01 0.800E+00 0.310E+01   -.106E-02 0.777E-02 0.136E-01
   -.412E+02 -.515E+03 -.162E+04   0.404E+02 0.515E+03 0.162E+04   0.952E+00 -.127E+01 0.126E+00   -.823E-03 0.164E-01 0.520E-01
   -.394E+02 -.571E+03 0.209E+04   0.392E+02 0.572E+03 -.208E+04   0.388E+00 -.127E+01 -.547E+00   -.834E-03 0.354E-02 0.452E-01
   -.274E+02 -.625E+03 -.542E+04   0.273E+02 0.630E+03 0.542E+04   0.592E-01 -.483E+01 0.111E+01   -.108E-02 0.443E-02 0.212E-01
   -.686E+02 -.450E+03 0.540E+04   0.684E+02 0.452E+03 -.540E+04   0.344E+00 -.150E+01 0.305E+00   -.324E-03 0.250E-02 0.119E-01
   -.413E+02 0.256E+03 -.305E+04   0.404E+02 -.256E+03 0.305E+04   0.100E+01 0.755E+00 -.114E+01   -.747E-03 -.563E-02 0.833E-01
   -.411E+02 0.266E+03 0.631E+03   0.402E+02 -.266E+03 -.631E+03   0.987E+00 0.698E+00 -.785E+00   -.511E-03 -.910E-03 0.397E-01
   -.125E+02 0.280E+03 -.672E+04   0.131E+02 -.282E+03 0.672E+04   -.545E+00 0.258E+01 -.333E+01   -.453E-03 0.157E-02 -.189E-01
   -.147E+02 -.133E+03 0.732E+04   0.133E+02 0.131E+03 -.732E+04   0.147E+01 0.203E+01 -.536E+01   -.195E-02 0.371E-02 -.559E-01
   -.413E+02 0.257E+03 -.203E+03   0.404E+02 -.257E+03 0.202E+03   0.997E+00 0.630E+00 0.118E+01   -.107E-02 -.174E-02 0.268E-01
   0.129E+02 0.411E+03 0.334E+04   -.132E+02 -.414E+03 -.334E+04   -.492E-01 0.232E+01 0.347E+00   -.133E-02 -.278E-02 0.587E-01
   -.411E+02 0.276E+03 -.388E+04   0.399E+02 -.277E+03 0.388E+04   0.115E+01 0.848E+00 0.250E+01   -.950E-03 0.598E-02 0.639E-01
   -.722E+01 0.312E+03 0.582E+04   0.508E+01 -.313E+03 -.582E+04   0.128E+01 0.800E+00 0.310E+01   -.112E-02 0.796E-02 0.136E-01
   -.412E+02 -.515E+03 -.162E+04   0.404E+02 0.515E+03 0.162E+04   0.952E+00 -.127E+01 0.126E+00   -.847E-03 0.165E-01 0.521E-01
   -.394E+02 -.571E+03 0.209E+04   0.392E+02 0.572E+03 -.208E+04   0.388E+00 -.127E+01 -.547E+00   -.866E-03 0.357E-02 0.451E-01
   -.274E+02 -.625E+03 -.542E+04   0.273E+02 0.630E+03 0.542E+04   0.592E-01 -.483E+01 0.111E+01   -.111E-02 0.441E-02 0.212E-01
   -.686E+02 -.450E+03 0.540E+04   0.684E+02 0.452E+03 -.540E+04   0.344E+00 -.150E+01 0.305E+00   -.261E-03 0.255E-02 0.116E-01
   -.413E+02 0.256E+03 -.305E+04   0.404E+02 -.256E+03 0.305E+04   0.100E+01 0.755E+00 -.114E+01   -.490E-03 -.154E-02 0.830E-01
   -.411E+02 0.266E+03 0.631E+03   0.402E+02 -.266E+03 -.631E+03   0.987E+00 0.698E+00 -.785E+00   -.506E-03 -.104E-02 0.397E-01
   -.125E+02 0.280E+03 -.672E+04   0.131E+02 -.282E+03 0.672E+04   -.545E+00 0.258E+01 -.333E+01   -.693E-03 0.867E-03 -.229E-01
   -.147E+02 -.133E+03 0.732E+04   0.133E+02 0.131E+03 -.732E+04   0.147E+01 0.203E+01 -.536E+01   -.180E-02 0.411E-02 -.560E-01
   -.413E+02 0.257E+03 -.203E+03   0.404E+02 -.257E+03 0.202E+03   0.997E+00 0.630E+00 0.118E+01   -.102E-02 -.103E-02 0.263E-01
   0.129E+02 0.411E+03 0.334E+04   -.132E+02 -.414E+03 -.334E+04   -.492E-01 0.232E+01 0.347E+00   -.131E-02 -.288E-02 0.587E-01
   -.411E+02 0.276E+03 -.388E+04   0.399E+02 -.277E+03 0.388E+04   0.115E+01 0.848E+00 0.250E+01   -.151E-02 0.484E-02 0.706E-01
   -.722E+01 0.312E+03 0.582E+04   0.508E+01 -.313E+03 -.582E+04   0.128E+01 0.800E+00 0.310E+01   -.115E-02 0.785E-02 0.136E-01
   -.412E+02 -.515E+03 -.162E+04   0.404E+02 0.515E+03 0.162E+04   0.952E+00 -.127E+01 0.126E+00   -.834E-03 0.172E-01 0.540E-01
   -.394E+02 -.571E+03 0.209E+04   0.392E+02 0.572E+03 -.208E+04   0.388E+00 -.127E+01 -.547E+00   -.852E-03 0.351E-02 0.451E-01
   -.274E+02 -.625E+03 -.542E+04   0.273E+02 0.630E+03 0.542E+04   0.592E-01 -.483E+01 0.111E+01   -.114E-02 -.109E-01 0.229E-01
   -.686E+02 -.450E+03 0.540E+04   0.684E+02 0.452E+03 -.540E+04   0.344E+00 -.150E+01 0.305E+00   -.353E-03 0.258E-02 0.117E-01
   -.413E+02 0.256E+03 -.305E+04   0.404E+02 -.256E+03 0.305E+04   0.100E+01 0.755E+00 -.114E+01   -.459E-03 -.149E-02 0.831E-01
   -.411E+02 0.266E+03 0.631E+03   0.402E+02 -.266E+03 -.631E+03   0.987E+00 0.698E+00 -.785E+00   -.510E-03 -.996E-03 0.397E-01
   -.125E+02 0.280E+03 -.672E+04   0.131E+02 -.282E+03 0.672E+04   -.545E+00 0.258E+01 -.333E+01   -.390E-03 0.952E-03 -.229E-01
   -.147E+02 -.133E+03 0.732E+04   0.133E+02 0.131E+03 -.732E+04   0.147E+01 0.203E+01 -.536E+01   -.191E-02 0.396E-02 -.559E-01
   -.413E+02 0.257E+03 -.203E+03   0.404E+02 -.257E+03 0.202E+03   0.997E+00 0.630E+00 0.118E+01   -.937E-03 -.115E-02 0.263E-01
   0.129E+02 0.411E+03 0.334E+04   -.132E+02 -.414E+03 -.334E+04   -.492E-01 0.232E+01 0.347E+00   -.136E-02 -.281E-02 0.587E-01
   -.411E+02 0.276E+03 -.388E+04   0.399E+02 -.277E+03 0.388E+04   0.115E+01 0.848E+00 0.250E+01   -.139E-02 0.497E-02 0.706E-01
   -.722E+01 0.312E+03 0.582E+04   0.508E+01 -.313E+03 -.582E+04   0.128E+01 0.800E+00 0.310E+01   -.114E-02 0.783E-02 0.136E-01
   -.412E+02 -.515E+03 -.162E+04   0.404E+02 0.515E+03 0.162E+04   0.952E+00 -.127E+01 0.126E+00   -.816E-03 0.173E-01 0.541E-01
   -.394E+02 -.571E+03 0.209E+04   0.392E+02 0.572E+03 -.208E+04   0.388E+00 -.127E+01 -.547E+00   -.873E-03 0.350E-02 0.452E-01
   -.274E+02 -.625E+03 -.542E+04   0.273E+02 0.630E+03 0.542E+04   0.592E-01 -.483E+01 0.111E+01   -.116E-02 -.109E-01 0.229E-01
   0.396E+02 -.826E+02 0.344E+00   -.404E+02 0.839E+02 -.262E+01   0.690E+00 -.148E+01 0.265E+01   0.724E-04 0.448E-02 0.115E-01
   0.687E+00 0.186E+03 -.276E+04   -.109E+01 -.190E+03 0.277E+04   0.363E+00 0.163E+01 -.343E+01   -.524E-04 0.326E-03 -.126E-01
   0.185E+02 -.232E+03 0.135E+04   -.184E+02 0.235E+03 -.135E+04   -.330E+00 -.299E+01 0.171E+01   0.442E-03 0.451E-02 0.169E-01
   0.386E+02 -.899E+02 -.138E+04   -.400E+02 0.914E+02 0.138E+04   0.126E+01 -.142E+01 0.154E+01   -.746E-03 -.480E-02 0.334E-01
   0.276E+01 0.146E+03 0.209E+04   -.406E+01 -.146E+03 -.210E+04   0.262E+01 -.186E+01 0.152E+01   0.289E-03 -.899E-02 0.560E-02
   0.397E+02 -.822E+02 -.122E+04   -.404E+02 0.834E+02 0.122E+04   0.566E+00 -.134E+01 -.214E+01   -.399E-04 0.959E-02 0.324E-01
   0.394E+02 -.867E+02 0.163E+03   -.404E+02 0.880E+02 -.161E+03   0.868E+00 -.152E+01 -.250E+01   -.329E-03 -.289E-02 0.130E-01
   -.145E+00 -.230E+03 -.265E+04   -.265E+00 0.236E+03 0.266E+04   0.173E+00 -.399E+01 -.286E+01   0.633E-04 0.543E-03 -.677E-02
   0.501E+02 0.147E+03 0.253E+04   -.504E+02 -.149E+03 -.253E+04   0.182E+00 0.290E+01 0.270E+01   -.417E-03 0.418E-02 -.996E-02
   0.395E+02 0.166E+03 -.609E+03   -.404E+02 -.169E+03 0.609E+03   0.746E+00 0.276E+01 0.117E+00   -.334E-03 -.900E-02 0.173E-01
   0.387E+02 0.189E+03 0.781E+03   -.396E+02 -.191E+03 -.781E+03   0.809E+00 0.250E+01 0.485E-02   -.154E-03 0.535E-03 0.180E-01
   0.383E+02 0.208E+03 -.200E+04   -.391E+02 -.209E+03 0.200E+04   0.109E+01 0.628E-01 -.175E+01   0.105E-03 0.685E-03 0.814E-02
[...]
   0.387E+02 0.189E+03 0.781E+03   -.396E+02 -.191E+03 -.781E+03   0.809E+00 0.250E+01 0.485E-02   -.170E-03 0.553E-03 0.180E-01
   0.383E+02 0.208E+03 -.200E+04   -.391E+02 -.209E+03 0.200E+04   0.109E+01 0.628E-01 -.175E+01   0.183E-03 0.380E-02 0.894E-02
   0.396E+02 -.826E+02 0.344E+00   -.404E+02 0.839E+02 -.262E+01   0.690E+00 -.148E+01 0.265E+01   0.933E-04 0.468E-02 0.117E-01
   0.687E+00 0.186E+03 -.276E+04   -.109E+01 -.190E+03 0.277E+04   0.363E+00 0.163E+01 -.343E+01   -.272E-04 0.161E-02 -.150E-01
   0.185E+02 -.232E+03 0.135E+04   -.184E+02 0.235E+03 -.135E+04   -.330E+00 -.299E+01 0.171E+01   0.428E-03 0.451E-02 0.169E-01
   0.386E+02 -.899E+02 -.138E+04   -.400E+02 0.914E+02 0.138E+04   0.126E+01 -.142E+01 0.154E+01   -.719E-03 -.760E-02 0.346E-01
   0.276E+01 0.146E+03 0.209E+04   -.406E+01 -.146E+03 -.210E+04   0.262E+01 -.186E+01 0.152E+01   0.297E-03 -.900E-02 0.565E-02
   0.397E+02 -.822E+02 -.122E+04   -.404E+02 0.834E+02 0.122E+04   0.566E+00 -.134E+01 -.214E+01   -.117E-03 0.107E-01 0.338E-01
   0.394E+02 -.867E+02 0.163E+03   -.404E+02 0.880E+02 -.161E+03   0.868E+00 -.152E+01 -.250E+01   -.319E-03 -.292E-02 0.131E-01
   -.145E+00 -.230E+03 -.265E+04   -.265E+00 0.236E+03 0.266E+04   0.173E+00 -.399E+01 -.286E+01   0.765E-04 -.342E-02 -.748E-02
   0.501E+02 0.147E+03 0.253E+04   -.504E+02 -.149E+03 -.253E+04   0.182E+00 0.290E+01 0.270E+01   -.437E-03 0.415E-02 -.992E-02
   0.395E+02 0.166E+03 -.609E+03   -.404E+02 -.169E+03 0.609E+03   0.746E+00 0.276E+01 0.117E+00   -.308E-03 -.930E-02 0.178E-01
   0.387E+02 0.189E+03 0.781E+03   -.396E+02 -.191E+03 -.781E+03   0.809E+00 0.250E+01 0.485E-02   -.140E-03 0.551E-03 0.180E-01
   0.383E+02 0.208E+03 -.200E+04   -.391E+02 -.209E+03 0.200E+04   0.109E+01 0.628E-01 -.175E+01   0.186E-03 0.380E-02 0.898E-02
   -.684E+02 0.120E+02 0.178E+02   0.199E-12 -.162E-11 0.225E-10   0.683E+02 -.118E+02 -.197E+02   -.491E-01 0.111E+00 0.189E+01

 POSITION                                       TOTAL-FORCE (eV/Angst)
      1.64370      0.18204      2.53067         0.134907      1.023787      0.400795
      1.64370      0.18204     12.10908         0.116574      0.125846     -0.357141
      0.59727      2.94708      7.31988         0.087477      0.105419     -0.258231
      0.59727      2.94708     16.89829         0.124113      0.050999     -2.161663
      3.81193     10.67189      0.15101         0.054728     -0.143569      0.204090
      1.64370      0.18204      9.57841         0.092843      0.177916      0.353279
      0.59727      2.94708      4.78920        -0.327215     -0.419320      1.399438
      0.59727      2.94708     14.36761        -0.053195     -0.187713     -0.499847
      1.83185      3.30335      2.77531        -0.859343     -0.405826     -0.132525
      1.64370      2.37366     10.84375         0.140501     -0.385484      0.014947
      3.73655      5.13871      6.05454         0.168343     -0.363228      0.204531
      3.73655      5.13871     15.63295        -0.004710      0.439739     -2.461428
      4.78298      0.18204      2.53067         0.134907      1.023787      0.400795
      4.78298      0.18204     12.10908         0.116574      0.125846     -0.357141
      3.73655      2.94708      7.31988         0.087477      0.105419     -0.258231
      3.73655      2.94708     16.89829         0.124113      0.050999     -2.161663
      6.95121     10.67189      0.15101         0.054728     -0.143569      0.204090
      4.78298      0.18204      9.57841         0.092843      0.177916      0.353279
      3.73655      2.94708      4.78920        -0.327215     -0.419320      1.399438
      3.73655      2.94708     14.36761        -0.053195     -0.187713     -0.499847
      4.97113      3.30335      2.77531        -0.859343     -0.405826     -0.132525
      4.78298      2.37366     10.84375         0.140501     -0.385484      0.014947
      6.87583      5.13871      6.05454         0.168343     -0.363228      0.204531
      6.87583      5.13871     15.63295        -0.004710      0.439739     -2.461428
      2.69013      5.71213      2.53067         0.134907      1.023787      0.400795
      2.69013      5.71213     12.10908         0.116574      0.125846     -0.357141
      1.64370      8.47718      7.31988         0.087477      0.105419     -0.258231
      1.64370      8.47718     16.89829         0.124113      0.050999     -2.161663
      2.76550      5.14180      0.15101         0.054728     -0.143569      0.204090
      2.69013      5.71213      9.57841         0.092843      0.177916      0.353279
      1.64370      8.47718      4.78920        -0.327215     -0.419320      1.399438
      1.64370      8.47718     14.36761        -0.053195     -0.187713     -0.499847
      2.87827      8.83345      2.77531        -0.859343     -0.405826     -0.132525
      2.69013      7.90376     10.84375         0.140501     -0.385484      0.014947
      4.78298     10.66881      6.05454         0.168343     -0.363228      0.204531
      4.78298     10.66881     15.63295        -0.004710      0.439739     -2.461428
      5.82941      5.71213      2.53067         0.134907      1.023787      0.400795
      5.82941      5.71213     12.10908         0.116574      0.125846     -0.357141
      4.78298      8.47718      7.31988         0.087477      0.105419     -0.258231
      4.78298      8.47718     16.89829         0.124113      0.050999     -2.161663
      5.90478      5.14180      0.15101         0.054728     -0.143569      0.204090
      5.82941      5.71213      9.57841         0.092843      0.177916      0.353279
      4.78298      8.47718      4.78920        -0.327215     -0.419320      1.399438
      4.78298      8.47718     14.36761        -0.053195     -0.187713     -0.499847
      6.01755      8.83345      2.77531        -0.859343     -0.405826     -0.132525
      5.82941      7.90376     10.84375         0.140501     -0.385484      0.014947
      7.92226     10.66881      6.05454         0.168343     -0.363228      0.204531
      7.92226     10.66881     15.63295        -0.004710      0.439739     -2.461428
      3.28961      1.84282      9.23251        -0.092846     -0.228898      0.384977
      2.16666      2.36048     18.12030        -0.042446     -1.595671      3.667689
      2.24318      4.60787      4.44331        -0.249251      0.619040      0.707881
      2.24318      4.60787     14.02172        -0.145297      0.034361     -0.626779
      3.28961      1.84282      2.87657         1.318580     -1.388637     -0.202559
      3.28961      1.84282     12.45498        -0.132458     -0.229458     -0.292427
      2.24318      4.60787      7.66577        -0.053697     -0.248139     -0.464556
      2.16405      4.48617     16.83514        -0.234614      1.973064      3.343806
      1.19676      4.58218      1.26534        -0.156634      0.754588     -2.193734
      1.19676      4.58218     10.84375        -0.124663      0.533346      0.038535
      2.24318      1.81714      6.05454        -0.117659      0.461227      0.055016
      2.24318      1.81714     15.63295         0.355963     -0.703388     -1.124094
[...]
      2.24318     10.11228     10.84375        -0.124663      0.533346      0.038535
      3.28961      7.34723      6.05454        -0.117659      0.461227      0.055016
      3.28961      7.34723     15.63295         0.355963     -0.703388     -1.124094
      7.47532      7.37292      9.23251        -0.092846     -0.228898      0.384977
      6.35237      7.89058     18.12030        -0.042446     -1.595671      3.667689
      6.42889     10.13797      4.44331        -0.249251      0.619040      0.707881
      6.42889     10.13797     14.02172        -0.145297      0.034361     -0.626779
      7.47532      7.37292      2.87657         1.318580     -1.388637     -0.202559
      7.47532      7.37292     12.45498        -0.132458     -0.229458     -0.292427
      6.42889     10.13797      7.66577        -0.053697     -0.248139     -0.464556
      6.34976     10.01627     16.83514        -0.234614      1.973064      3.343806
      5.38246     10.11228      1.26534        -0.156634      0.754588     -2.193734
      5.38246     10.11228     10.84375        -0.124663      0.533346      0.038535
      6.42889      7.34723      6.05454        -0.117659      0.461227      0.055016
      6.42889      7.34723     15.63295         0.355963     -0.703388     -1.124094
    total drift:                               -0.204415      0.236942      0.005581

  FREE ENERGIE OF THE ION-ELECTRON SYSTEM (eV)
  free  energy   TOTEN  =      -470.31880596 eV

  energy  without entropy=     -468.92071044  energy(sigma->0) =     -469.61975820