 vasp.5.4.4.18Apr17-6-g9f103f2a35 (build Aug 13 2019 17:33:20) gamma-only

 executed on             LinuxIFC date 2020.05.10  21:37:13

 INCAR:
 POTCAR:    PAW_PBE Ni_pv 06Sep2000
 POTCAR:    PAW_PBE S 06Sep2000
 POTCAR:    PAW_PBE Ni_pv 06Sep2000
   VRHFIN =Ni:

   TITEL  = PAW_PBE Ni_pv 06Sep2000
   POMASS =   58.690; ZVAL   =   16.000    mass and valenz
   ENMAX  =  367.986; ENMIN  =  275.989 eV

 POTCAR:    PAW_PBE S 06Sep2000
   VRHFIN =S : s2p4

   TITEL  = PAW_PBE S 06Sep2000
   POMASS =   32.066; ZVAL   =    6.000    mass and valenz
   ENMAX  =  258.689; ENMIN  =  194.016 eV

 Optimization of the real space projectors (new method)

 maximal supplied QI-value         = 18.90
 optimisation between [QCUT,QGAM] = [ 10.77, 21.73] = [ 32.49,132.25] Ry
 Optimized for a Real-space Cutoff    1.38 Angstroem

   l    n(q)    QCUT    max X(q) W(low)/X(q) W(high)/X(q)  e(spline)
   1      8    10.771     2.836    0.40E-04    0.29E-04    0.12E-06
   1      8    10.771     4.023    0.10E-03    0.48E-04    0.29E-06
   2      8    10.771    73.368    0.42E-03    0.97E-04    0.44E-06
   2      8    10.771    69.010    0.42E-03    0.99E-04    0.45E-06
   0      9    10.771    54.797    0.10E-03    0.56E-04    0.74E-07
   0      9    10.771    24.266    0.89E-04    0.49E-04    0.67E-07
 Optimization of the real space projectors (new method)

 maximal supplied QI-value         = 19.84
 optimisation between [QCUT,QGAM] = [ 10.71, 21.63] = [ 32.15,130.99] Ry
 Optimized for a Real-space Cutoff    1.19 Angstroem

   l    n(q)    QCUT    max X(q) W(low)/X(q) W(high)/X(q)  e(spline)
   0      8    10.715   187.594    0.41E-03    0.53E-04    0.66E-07
   0      8    10.715   164.243    0.41E-03    0.53E-04    0.65E-07
   1      7    10.715    67.533    0.19E-03    0.59E-03    0.68E-07
   1      7    10.715    50.729    0.19E-03    0.58E-03    0.67E-07
  PAW_PBE Ni_pv 06Sep2000               :
  PAW_PBE S 06Sep2000                   :

 POSCAR: Type_052 Type_152
  positions in cartesian coordinates
 exchange correlation table for  LEXCH =        8
   RHO(1)=    0.500       N(1)  =     2000
   RHO(2)=  100.500       N(2)  =     4000

 ion  position               nearest neighbor table
   1  0.261  0.479  0.266-  79 2.25  63 2.26  87 2.26  59 2.36  64 2.36   8 2.53  23 2.53
   2  0.355  0.385  0.398-  80 2.25  59 2.26  64 2.26  65 2.36  71 2.36   3 2.38   9 2.53  24 2.53

   3  0.376  0.364  0.506-  57 2.04  71 2.08  65 2.08   2 2.38
   4  0.027  0.213  0.058-  68 2.03  69 2.09  88 2.20  60 2.20   5 2.34
   5  0.167  0.073  0.133-  60 2.07  88 2.07  69 2.25   4 2.34  61 2.36  89 2.36  39 2.53  33 2.53

[...]

  45  0.549  0.555  0.481-  93 2.05  70 2.08  91 2.10  71 2.15
  46  0.774  0.833  0.098-  94 2.04  99 2.16 101 2.29  95 2.36 102 2.36  52 2.53  18 2.53
  47  0.868  0.739  0.231- 100 2.25 102 2.26  95 2.26 103 2.36  79 2.36  40 2.53  36 2.53
  48  0.962  0.645  0.363-  72 2.25 103 2.26  79 2.26 104 2.36  80 2.36  41 2.53  37 2.53
  49  0.500  0.872  0.231- 102 2.25  82 2.26  61 2.26  92 2.36  85 2.36  27 2.53  34 2.53
  50  0.594  0.778  0.363- 103 2.25  92 2.26  85 2.26  97 2.36  93 2.36  35 2.53  28 2.53
  51  0.685  0.691  0.481-  93 2.05  70 2.08  97 2.10 104 2.15
  52  0.906  0.965  0.098-  94 2.04  88 2.16  73 2.29  95 2.36  74 2.36  18 2.53  46 2.53
  53  0.073  0.167  0.282-  27 2.25  11 2.26  22 2.26  10 2.36  21 2.36
  54  0.167  0.073  0.415-  12 2.05   6 2.05  28 2.25  11 2.36  22 2.36  83 2.69
  55  0.366  0.374  0.027-  17 2.03  13 2.04   7 2.04
  56  0.479  0.261  0.149-  17 2.09  18 2.25   8 2.26  23 2.26   7 2.36  13 2.36
  57  0.211  0.528  0.534-   3 2.04  38 2.08  32 2.08  80 2.69
  58  0.030  0.378  0.460-  16 2.08  12 2.10  32 2.15  11 2.36  15 2.36
  59  0.436  0.472  0.327-  35 2.25   2 2.26  24 2.26   1 2.36  23 2.36
  60  0.236  0.168  0.073-   5 2.07   7 2.16   4 2.20  39 2.29
  61  0.342  0.066  0.194-   8 2.25  27 2.26  49 2.26   5 2.36  39 2.36
  62  0.072  0.504  0.073-  31 2.07  26 2.16  30 2.20   7 2.29
  63  0.174  0.397  0.194-  10 2.25   8 2.26   1 2.26   7 2.36  31 2.36
  64  0.268  0.303  0.327-  11 2.25   2 2.26   9 2.26   8 2.36   1 2.36
  65  0.362  0.209  0.460-   3 2.08  19 2.10  12 2.15   9 2.36   2 2.36
  66  0.573  0.167  0.282-  40 2.25  24 2.26   9 2.26  23 2.36   8 2.36
  67  0.667  0.073  0.415-  25 2.05  19 2.05  41 2.25  24 2.36   9 2.36  96 2.69
  68  0.866  0.374  0.027-   4 2.03  26 2.04  20 2.04
  69  0.979  0.261  0.149-   4 2.09   5 2.25  21 2.26  10 2.26  20 2.36  26 2.36
  70  0.711  0.528  0.534-  16 2.04  51 2.08  45 2.08  93 2.69
  71  0.530  0.378  0.460-   3 2.08  25 2.10  45 2.15  24 2.36   2 2.36
  72  0.936  0.472  0.327-  48 2.25  15 2.26  11 2.26  14 2.36  10 2.36
  73  0.736  0.168  0.073-  18 2.07  20 2.16  17 2.20  52 2.29
  74  0.842  0.066  0.194-  21 2.25  40 2.26  36 2.26  18 2.36  52 2.36
  75  0.572  0.504  0.073-  44 2.07  13 2.16  43 2.20  20 2.29
  76  0.674  0.397  0.194-  23 2.25  21 2.26  14 2.26  20 2.36  44 2.36
  77  0.768  0.303  0.327-  24 2.25  15 2.26  22 2.26  21 2.36  14 2.36
  78  0.862  0.209  0.460-  16 2.08   6 2.10  25 2.15  22 2.36  15 2.36
  79  0.073  0.667  0.282-   1 2.25  37 2.26  48 2.26  36 2.36  47 2.36
  80  0.167  0.573  0.415-  38 2.05  32 2.05   2 2.25  37 2.36  48 2.36  57 2.69
  81  0.366  0.874  0.027-  43 2.03  39 2.04  33 2.04
  82  0.479  0.761  0.149-  43 2.09  44 2.25  34 2.26  49 2.26  33 2.36  39 2.36
  83  0.211  0.028  0.534-  29 2.04  12 2.08   6 2.08  54 2.69
  84  0.030  0.878  0.460-  42 2.08  38 2.10   6 2.15  37 2.36  41 2.36
  85  0.436  0.972  0.327-   9 2.25  28 2.26  50 2.26  27 2.36  49 2.36
  86  0.236  0.668  0.073-  31 2.07  33 2.16  30 2.20  13 2.29
  87  0.342  0.566  0.194-  34 2.25   1 2.26  23 2.26  31 2.36  13 2.36
  88  0.072  0.004  0.073-   5 2.07  52 2.16   4 2.20  33 2.29
  89  0.174  0.897  0.194-  36 2.25  34 2.26  27 2.26  33 2.36   5 2.36
  90  0.268  0.803  0.327-  37 2.25  28 2.26  35 2.26  34 2.36  27 2.36
  91  0.362  0.709  0.460-  29 2.08  45 2.10  38 2.15  35 2.36  28 2.36
  92  0.573  0.667  0.282-  14 2.25  50 2.26  35 2.26  49 2.36  34 2.36
  93  0.667  0.573  0.415-  51 2.05  45 2.05  15 2.25  50 2.36  35 2.36  70 2.69
  94  0.866  0.874  0.027-  30 2.03  52 2.04  46 2.04
  95  0.979  0.761  0.149-  30 2.09  31 2.25  47 2.26  36 2.26  46 2.36  52 2.36
  96  0.711  0.028  0.534-  42 2.04  25 2.08  19 2.08  67 2.69
  97  0.530  0.878  0.460-  29 2.08  51 2.10  19 2.15  50 2.36  28 2.36
  98  0.936  0.972  0.327-  22 2.25  41 2.26  37 2.26  40 2.36  36 2.36
  99  0.736  0.668  0.073-  44 2.07  46 2.16  43 2.20  26 2.29
 100  0.842  0.566  0.194-  47 2.25  14 2.26  10 2.26  44 2.36  26 2.36
 101  0.572  0.004  0.073-  18 2.07  39 2.16  17 2.20  46 2.29
 102  0.674  0.897  0.194-  49 2.25  47 2.26  40 2.26  46 2.36  18 2.36
 103  0.768  0.803  0.327-  50 2.25  41 2.26  48 2.26  47 2.36  40 2.36
 104  0.862  0.709  0.460-  42 2.08  32 2.10  51 2.15  48 2.36  41 2.36

  LATTYP: Found a base centered orthorhombic cell.
 ALAT       =    11.8257374459
 B/A-ratio  =     1.6199260857
 C/A-ratio  =     1.8694754013

  Lattice vectors:

 A1 = (  11.2564630382,   0.0000000000,   0.0000000000)
 A2 = (  -5.0445621212, -10.0628203371,   0.0000000000)
 A3 = (   0.0000000000,   0.0000000000, -22.1079252579)

Analysis of symmetry for initial positions (statically):
 Subroutine PRICEL returns following result:

[...]

   4 primitive cells build up your supercell.

 Routine SETGRP: Setting up the symmetry group for a
 base centered orthorhombic supercell.

 Subroutine GETGRP returns: Found  2 space group operations
 (whereof  1 operations were pure point group operations)
 out of a pool of  8 trial point group operations.

The static configuration has the point symmetry C_1 .
 The point group associated with its full space group is C_1h.

Analysis of symmetry for dynamics (positions and initial velocities):
 Subroutine PRICEL returns following result:

  LATTYP: Found a base centered orthorhombic cell.
 ALAT       =     5.9128687229
 B/A-ratio  =     1.6199260857
 C/A-ratio  =     3.7389508028

  Lattice vectors:

 A1 = (   5.6282315191,   0.0000000000,   0.0000000000)
 A2 = (  -2.5222810607,  -5.0314101685,   0.0000000000)
 A3 = (   0.0000000000,   0.0000000000, -22.1079252579)

   4 primitive cells build up your supercell.

 Routine SETGRP: Setting up the symmetry group for a
 base centered orthorhombic supercell.

 Subroutine GETGRP returns: Found  2 space group operations
 (whereof  1 operations were pure point group operations)
 out of a pool of  8 trial point group operations.

The dynamic configuration has the point symmetry C_1 .
 The point group associated with its full space group is C_1h.

 Subroutine INISYM returns: Found  2 space group operations
 (whereof  1 operations are pure point group operations),
 and found     4 'primitive' translations

 KPOINTS: gamma-point-only calculation. no periodi

Automatic generation of k-mesh.
Space group operators:
 irot       det(A)        alpha          n_x          n_y          n_z        tau_x        tau_y        tau_z
    1     1.000000     0.000000     1.000000     0.000000     0.000000     0.000000     0.000000     0.000000
    2    -1.000000   180.000000     0.850925     0.525287     0.000000     0.239701    -0.260299     0.000000

 Subroutine IBZKPT returns following result:

 Found      1 irreducible k-points:

 Following reciprocal coordinates:
            Coordinates               Weight
  0.000000  0.000000  0.000000      1.000000

 Following cartesian coordinates:
            Coordinates               Weight
  0.000000  0.000000  0.000000      1.000000

 SYSTEM =  "Millerite NiS"
 POSCAR =  Type_052 Type_152

 Startparameter for this run:
   NWRITE =      2    write-flag & timer
   PREC   = normal    normal or accurate (medium, high low for compatibility)
   ISTART =      0    job   : 0-new  1-cont  2-samecut
   ICHARG =      2    charge: 1-file 2-atom 10-const
   ISPIN  =      1    spin polarized calculation?
   LNONCOLLINEAR =      F non collinear calculations
   LSORBIT =      F    spin-orbit coupling
   INIWAV =      1    electr: 0-lowe 1-rand  2-diag
   LASPH  =      F    aspherical Exc in radial PAW
   METAGGA=      F    non-selfconsistent MetaGGA calc.

 Electronic Relaxation 1
   ENCUT  =  450.0 eV  33.07 Ry    5.75 a.u.  19.47 19.47 38.24*2*pi/ulx,y,z
   ENINI  =  450.0     initial cutoff
   ENAUG  =  703.4 eV  augmentation charge cutoff
   NELM   =    100;   NELMIN=  2; NELMDL= -5     # of ELM steps
   EDIFF  = 0.1E-03   stopping-criterion for ELM
   LREAL  =      T    real-space projection
   NLSPLINE    = F    spline interpolate recip. space projectors
   LCOMPAT=      F    compatible to vasp.4.4
   GGA_COMPAT  = T    GGA compatible to vasp.4.4-vasp.4.6
   LMAXPAW     = -100 max onsite density
   LMAXMIX     =    2 max onsite mixed and CHGCAR
   VOSKOWN=      0    Vosko Wilk Nusair interpolation
   ROPT   =   -0.00050  -0.00050
 Ionic relaxation
   EDIFFG = 0.1E-02   stopping-criterion for IOM
   NSW    =      0    number of steps for IOM
   NBLOCK =      1;   KBLOCK =      1    inner block; outer block
   IBRION =     -1    ionic relax: 0-MD 1-quasi-New 2-CG
[...]
     0.000000000  0.000000000 22.107925258     0.000000000  0.000000000  0.045232648

  length of vectors
    11.256463038 11.256463038 22.107925258     0.099375718  0.099375718  0.045232648

 FORCES acting on ions
    electron-ion (+dipol)            ewald-force                    non-local-force                 convergence-correction
   0.244E+03 -.396E+03 0.135E+03   -.245E+03 0.397E+03 -.135E+03   0.611E+00 -.990E+00 0.121E+00   -.334E-02 0.541E-02 0.121E+00
   0.233E+03 -.378E+03 -.264E+04   -.234E+03 0.379E+03 0.264E+04   0.656E+00 -.106E+01 0.312E+00   0.891E-04 -.144E-03 0.141E+00
   -.105E+02 0.170E+02 -.570E+04   0.788E+01 -.128E+02 0.570E+04   0.301E+01 -.488E+01 0.840E+00   -.455E-02 0.737E-02 0.703E-01
   -.712E+02 0.115E+03 0.565E+04   0.714E+02 -.116E+03 -.566E+04   0.252E+00 -.409E+00 0.851E+01   0.525E-03 -.851E-03 -.396E-01
   0.844E+02 -.137E+03 0.306E+04   -.834E+02 0.135E+03 -.306E+04   -.539E+00 0.873E+00 -.157E+01   -.283E-03 0.458E-03 0.572E-01
   0.303E+03 0.234E+03 -.501E+04   -.307E+03 -.237E+03 0.501E+04   0.355E+01 0.344E+01 -.229E+01   0.120E-02 0.102E-02 0.713E-01
   0.457E+03 0.296E+03 0.440E+04   -.462E+03 -.297E+03 -.440E+04   0.405E+01 0.175E+01 0.287E+01   -.653E-02 -.459E-02 0.182E-01
   0.262E+03 0.447E+03 0.115E+04   -.264E+03 -.448E+03 -.115E+04   0.150E+01 0.479E+00 -.209E+00   -.827E-02 -.708E-02 0.104E+00
   0.256E+03 0.436E+03 -.172E+04   -.257E+03 -.436E+03 0.171E+04   0.116E+01 0.406E+00 0.212E+01   -.196E-02 0.793E-02 0.120E+00
   -.517E+03 -.341E+02 0.115E+04   0.518E+03 0.353E+02 -.115E+04   -.110E+01 -.112E+01 -.209E+00   0.100E-01 0.422E-02 0.104E+00
   -.504E+03 -.340E+02 -.172E+04   0.505E+03 0.348E+02 0.171E+04   -.883E+00 -.856E+00 0.212E+01   -.621E-02 0.530E-02 0.120E+00
   -.345E+03 -.166E+03 -.501E+04   0.350E+03 0.168E+03 0.501E+04   -.467E+01 -.163E+01 -.229E+01   -.145E-02 -.621E-03 0.713E-01
   -.469E+03 -.276E+03 0.440E+04   0.473E+03 0.280E+03 -.440E+04   -.338E+01 -.283E+01 0.287E+01   0.703E-02 0.378E-02 0.182E-01
   0.244E+03 -.396E+03 0.135E+03   -.245E+03 0.397E+03 -.135E+03   0.611E+00 -.990E+00 0.121E+00   -.334E-02 0.541E-02 0.121E+00
   0.233E+03 -.378E+03 -.264E+04   -.234E+03 0.379E+03 0.264E+04   0.656E+00 -.106E+01 0.312E+00   0.891E-04 -.144E-03 0.141E+00
   -.105E+02 0.170E+02 -.570E+04   0.788E+01 -.128E+02 0.570E+04   0.301E+01 -.488E+01 0.840E+00   -.455E-02 0.737E-02 0.703E-01
   -.712E+02 0.115E+03 0.565E+04   0.714E+02 -.116E+03 -.566E+04   0.252E+00 -.409E+00 0.851E+01   0.525E-03 -.851E-03 -.396E-01
   0.844E+02 -.137E+03 0.306E+04   -.834E+02 0.135E+03 -.306E+04   -.539E+00 0.873E+00 -.157E+01   -.283E-03 0.458E-03 0.572E-01
   0.303E+03 0.234E+03 -.501E+04   -.307E+03 -.237E+03 0.501E+04   0.355E+01 0.344E+01 -.229E+01   0.120E-02 0.102E-02 0.713E-01
   0.457E+03 0.296E+03 0.440E+04   -.462E+03 -.297E+03 -.440E+04   0.405E+01 0.175E+01 0.287E+01   -.653E-02 -.459E-02 0.182E-01
   0.262E+03 0.447E+03 0.115E+04   -.264E+03 -.448E+03 -.115E+04   0.150E+01 0.479E+00 -.209E+00   -.827E-02 -.708E-02 0.104E+00
   0.256E+03 0.436E+03 -.172E+04   -.257E+03 -.436E+03 0.171E+04   0.116E+01 0.406E+00 0.212E+01   -.196E-02 0.793E-02 0.120E+00
   -.517E+03 -.341E+02 0.115E+04   0.518E+03 0.353E+02 -.115E+04   -.110E+01 -.112E+01 -.209E+00   0.100E-01 0.422E-02 0.104E+00
   -.504E+03 -.340E+02 -.172E+04   0.505E+03 0.348E+02 0.171E+04   -.883E+00 -.856E+00 0.212E+01   -.621E-02 0.530E-02 0.120E+00
   -.345E+03 -.166E+03 -.501E+04   0.350E+03 0.168E+03 0.501E+04   -.467E+01 -.163E+01 -.229E+01   -.145E-02 -.621E-03 0.713E-01
   -.469E+03 -.276E+03 0.440E+04   0.473E+03 0.280E+03 -.440E+04   -.338E+01 -.283E+01 0.287E+01   0.703E-02 0.378E-02 0.182E-01
   0.244E+03 -.396E+03 0.135E+03   -.245E+03 0.397E+03 -.135E+03   0.611E+00 -.990E+00 0.121E+00   -.334E-02 0.541E-02 0.121E+00
   0.233E+03 -.378E+03 -.264E+04   -.234E+03 0.379E+03 0.264E+04   0.656E+00 -.106E+01 0.312E+00   0.891E-04 -.144E-03 0.141E+00
   -.105E+02 0.170E+02 -.570E+04   0.788E+01 -.128E+02 0.570E+04   0.301E+01 -.488E+01 0.840E+00   -.455E-02 0.737E-02 0.703E-01
   -.712E+02 0.115E+03 0.565E+04   0.714E+02 -.116E+03 -.566E+04   0.252E+00 -.409E+00 0.851E+01   0.525E-03 -.851E-03 -.396E-01
   0.844E+02 -.137E+03 0.306E+04   -.834E+02 0.135E+03 -.306E+04   -.539E+00 0.873E+00 -.157E+01   -.283E-03 0.458E-03 0.572E-01
   0.303E+03 0.234E+03 -.501E+04   -.307E+03 -.237E+03 0.501E+04   0.355E+01 0.344E+01 -.229E+01   0.120E-02 0.102E-02 0.713E-01
   0.457E+03 0.296E+03 0.440E+04   -.462E+03 -.297E+03 -.440E+04   0.405E+01 0.175E+01 0.287E+01   -.653E-02 -.459E-02 0.182E-01
   0.262E+03 0.447E+03 0.115E+04   -.264E+03 -.448E+03 -.115E+04   0.150E+01 0.479E+00 -.209E+00   -.827E-02 -.708E-02 0.104E+00
   0.256E+03 0.436E+03 -.172E+04   -.257E+03 -.436E+03 0.171E+04   0.116E+01 0.406E+00 0.212E+01   -.196E-02 0.793E-02 0.120E+00
   -.517E+03 -.341E+02 0.115E+04   0.518E+03 0.353E+02 -.115E+04   -.110E+01 -.112E+01 -.209E+00   0.100E-01 0.422E-02 0.104E+00
   -.504E+03 -.340E+02 -.172E+04   0.505E+03 0.348E+02 0.171E+04   -.883E+00 -.856E+00 0.212E+01   -.621E-02 0.530E-02 0.120E+00
   -.345E+03 -.166E+03 -.501E+04   0.350E+03 0.168E+03 0.501E+04   -.467E+01 -.163E+01 -.229E+01   -.145E-02 -.621E-03 0.713E-01
   -.469E+03 -.276E+03 0.440E+04   0.473E+03 0.280E+03 -.440E+04   -.338E+01 -.283E+01 0.287E+01   0.703E-02 0.378E-02 0.182E-01
   0.244E+03 -.396E+03 0.135E+03   -.245E+03 0.397E+03 -.135E+03   0.611E+00 -.990E+00 0.121E+00   -.334E-02 0.541E-02 0.121E+00
   0.233E+03 -.378E+03 -.264E+04   -.234E+03 0.379E+03 0.264E+04   0.656E+00 -.106E+01 0.312E+00   0.891E-04 -.144E-03 0.141E+00
   -.105E+02 0.170E+02 -.570E+04   0.788E+01 -.128E+02 0.570E+04   0.301E+01 -.488E+01 0.840E+00   -.455E-02 0.737E-02 0.703E-01
   -.712E+02 0.115E+03 0.565E+04   0.714E+02 -.116E+03 -.566E+04   0.252E+00 -.409E+00 0.851E+01   0.525E-03 -.851E-03 -.396E-01
   0.844E+02 -.137E+03 0.306E+04   -.834E+02 0.135E+03 -.306E+04   -.539E+00 0.873E+00 -.157E+01   -.283E-03 0.458E-03 0.572E-01
   0.303E+03 0.234E+03 -.501E+04   -.307E+03 -.237E+03 0.501E+04   0.355E+01 0.344E+01 -.229E+01   0.120E-02 0.102E-02 0.713E-01
   0.457E+03 0.296E+03 0.440E+04   -.462E+03 -.297E+03 -.440E+04   0.405E+01 0.175E+01 0.287E+01   -.653E-02 -.459E-02 0.182E-01
   0.262E+03 0.447E+03 0.115E+04   -.264E+03 -.448E+03 -.115E+04   0.150E+01 0.479E+00 -.209E+00   -.827E-02 -.708E-02 0.104E+00
   0.256E+03 0.436E+03 -.172E+04   -.257E+03 -.436E+03 0.171E+04   0.116E+01 0.406E+00 0.212E+01   -.196E-02 0.793E-02 0.120E+00
   -.517E+03 -.341E+02 0.115E+04   0.518E+03 0.353E+02 -.115E+04   -.110E+01 -.112E+01 -.209E+00   0.100E-01 0.422E-02 0.104E+00
   -.504E+03 -.340E+02 -.172E+04   0.505E+03 0.348E+02 0.171E+04   -.883E+00 -.856E+00 0.212E+01   -.621E-02 0.530E-02 0.120E+00
   -.345E+03 -.166E+03 -.501E+04   0.350E+03 0.168E+03 0.501E+04   -.467E+01 -.163E+01 -.229E+01   -.145E-02 -.621E-03 0.713E-01
   -.469E+03 -.276E+03 0.440E+04   0.473E+03 0.280E+03 -.440E+04   -.338E+01 -.283E+01 0.287E+01   0.703E-02 0.378E-02 0.182E-01
   -.746E+02 0.121E+03 0.900E+02   0.757E+02 -.123E+03 -.925E+02   -.112E+01 0.182E+01 0.243E+01   0.339E-03 -.549E-03 0.449E-01
   -.781E+02 0.127E+03 -.992E+03   0.792E+02 -.128E+03 0.988E+03   -.630E+00 0.102E+01 0.970E+00   0.334E-02 -.542E-02 0.399E-01
   0.650E+02 -.105E+03 0.248E+04   -.656E+02 0.106E+03 -.248E+04   0.480E+00 -.778E+00 0.155E+01   -.659E-03 0.107E-02 -.365E-01
   -.438E+02 0.710E+02 0.104E+04   0.446E+02 -.722E+02 -.104E+04   -.107E+01 0.173E+01 -.807E+00   -.279E-03 0.452E-03 0.226E-01
   -.563E+01 0.912E+01 -.235E+04   0.616E+01 -.997E+01 0.236E+04   -.353E+00 0.571E+00 -.212E+01   0.126E-01 -.205E-01 0.123E-01
   -.127E+03 -.113E+03 -.163E+04   0.129E+03 0.115E+03 0.163E+04   -.130E+01 -.583E+00 -.179E+01   -.205E-01 -.156E-02 0.392E-01
   -.749E+02 -.153E+03 -.357E+03   0.762E+02 0.156E+03 0.357E+03   -.135E+01 -.266E+01 0.121E+00   -.127E-02 -.807E-03 0.490E-01
   -.138E+03 -.724E+02 0.203E+04   0.140E+03 0.734E+02 -.203E+04   -.494E+00 -.369E+00 0.341E+01   0.242E-02 0.178E-02 -.989E-02
[...]
   0.158E+03 0.628E+02 -.163E+04   -.161E+03 -.635E+02 0.163E+04   0.110E+01 0.898E+00 -.179E+01   0.106E-01 0.176E-01 0.392E-01
   -.746E+02 0.121E+03 0.900E+02   0.757E+02 -.123E+03 -.925E+02   -.112E+01 0.182E+01 0.243E+01   0.339E-03 -.549E-03 0.449E-01
   -.781E+02 0.127E+03 -.992E+03   0.792E+02 -.128E+03 0.988E+03   -.630E+00 0.102E+01 0.970E+00   0.334E-02 -.542E-02 0.399E-01
   0.650E+02 -.105E+03 0.248E+04   -.656E+02 0.106E+03 -.248E+04   0.480E+00 -.778E+00 0.155E+01   -.659E-03 0.107E-02 -.365E-01
   -.438E+02 0.710E+02 0.104E+04   0.446E+02 -.722E+02 -.104E+04   -.107E+01 0.173E+01 -.807E+00   -.279E-03 0.452E-03 0.226E-01
   -.563E+01 0.912E+01 -.235E+04   0.616E+01 -.997E+01 0.236E+04   -.353E+00 0.571E+00 -.212E+01   0.126E-01 -.205E-01 0.123E-01
   -.127E+03 -.113E+03 -.163E+04   0.129E+03 0.115E+03 0.163E+04   -.130E+01 -.583E+00 -.179E+01   -.205E-01 -.156E-02 0.392E-01
   -.749E+02 -.153E+03 -.357E+03   0.762E+02 0.156E+03 0.357E+03   -.135E+01 -.266E+01 0.121E+00   -.127E-02 -.807E-03 0.490E-01
   -.138E+03 -.724E+02 0.203E+04   0.140E+03 0.734E+02 -.203E+04   -.494E+00 -.369E+00 0.341E+01   0.242E-02 0.178E-02 -.989E-02
   -.729E+02 -.149E+03 0.734E+03   0.737E+02 0.152E+03 -.734E+03   -.737E+00 -.263E+01 0.383E+00   0.202E-02 0.194E-02 0.329E-01
   0.127E+03 0.911E+02 0.203E+04   -.128E+03 -.923E+02 -.203E+04   0.552E+00 0.276E+00 0.341E+01   -.267E-02 -.137E-02 -.989E-02
   0.166E+03 -.171E+01 0.734E+03   -.169E+03 0.221E+01 -.734E+03   0.268E+01 -.518E+00 0.383E+00   -.264E-02 -.937E-03 0.329E-01
   0.171E+03 -.173E+01 -.357E+03   -.174E+03 0.181E+01 0.357E+03   0.298E+01 0.201E-01 0.121E+00   0.129E-02 0.774E-03 0.490E-01
   0.158E+03 0.628E+02 -.163E+04   -.161E+03 -.635E+02 0.163E+04   0.110E+01 0.898E+00 -.179E+01   0.106E-01 0.176E-01 0.392E-01
   -.200E+02 0.323E+02 -.832E+02   0.284E-12 0.180E-11 -.568E-11   0.199E+02 -.322E+02 0.780E+02   -.363E-01 0.588E-01 0.512E+01

 POSITION                                       TOTAL-FORCE (eV/Angst)
      5.35228      4.81788      5.87212         0.102542     -0.166110      0.053271
      5.93595      3.87238      8.80817        -0.060400      0.097844     -0.894319
      6.06458      3.66401     11.17952         0.431257     -0.698604      0.812576
      1.37519      2.14316      1.28870         0.437516     -0.708744     -0.749761
      2.24633      0.73197      2.93606         0.438367     -0.710121      3.000363
      0.82682      0.55158     10.63702        -0.541998     -0.034918      0.498604
      4.76861      3.35453      2.16033        -1.138250     -0.033918      1.633948
      5.35228      2.40903      5.09639        -0.193188     -0.106014     -0.000497
      5.93595      1.46353      8.03245         0.074239      0.022414     -0.094914
      1.87746      3.73836      5.09639         0.181349      0.125193     -0.000497
      2.46113      2.79286      8.03245        -0.053308     -0.056322     -0.094914
      3.04374      1.92012     10.63702         0.274111      0.468876      0.498604
      6.92203      4.68386      2.16033         0.540426      1.002349      1.633948
     10.98051      4.81788      5.87212         0.102542     -0.166110      0.053271
     11.56418      3.87238      8.80817        -0.060400      0.097844     -0.894319
     11.69281      3.66401     11.17952         0.431257     -0.698604      0.812576
      7.00342      2.14316      1.28870         0.437516     -0.708744     -0.749761
      7.87456      0.73197      2.93606         0.438367     -0.710121      3.000363
      6.45505      0.55158     10.63702        -0.541998     -0.034918      0.498604
     10.39684      3.35453      2.16033        -1.138250     -0.033918      1.633948
     10.98051      2.40903      5.09639        -0.193188     -0.106014     -0.000497
     11.56418      1.46353      8.03245         0.074239      0.022414     -0.094914
      7.50570      3.73836      5.09639         0.181349      0.125193     -0.000497
      8.08937      2.79286      8.03245        -0.053308     -0.056322     -0.094914
      8.67197      1.92012     10.63702         0.274111      0.468876      0.498604
     12.55026      4.68386      2.16033         0.540426      1.002349      1.633948
      7.87456      9.84929      5.87212         0.102542     -0.166110      0.053271
      8.45823      8.90379      8.80817        -0.060400      0.097844     -0.894319
      8.58686      8.69542     11.17952         0.431257     -0.698604      0.812576
      3.89747      7.17457      1.28870         0.437516     -0.708744     -0.749761
      4.76861      5.76338      2.93606         0.438367     -0.710121      3.000363
      3.34910      5.58299     10.63702        -0.541998     -0.034918      0.498604
      7.29089      8.38594      2.16033        -1.138250     -0.033918      1.633948
      7.87456      7.44044      5.09639        -0.193188     -0.106014     -0.000497
      8.45823      6.49494      8.03245         0.074239      0.022414     -0.094914
      4.39975      8.76977      5.09639         0.181349      0.125193     -0.000497
      4.98341      7.82427      8.03245        -0.053308     -0.056322     -0.094914
      5.56602      6.95153     10.63702         0.274111      0.468876      0.498604
      9.44431      9.71527      2.16033         0.540426      1.002349      1.633948
     13.50279      9.84929      5.87212         0.102542     -0.166110      0.053271
     14.08646      8.90379      8.80817        -0.060400      0.097844     -0.894319
     14.21509      8.69542     11.17952         0.431257     -0.698604      0.812576
      9.52570      7.17457      1.28870         0.437516     -0.708744     -0.749761
     10.39684      5.76338      2.93606         0.438367     -0.710121      3.000363
      8.97733      5.58299     10.63702        -0.541998     -0.034918      0.498604
     12.91912      8.38594      2.16033        -1.138250     -0.033918      1.633948
     13.50279      7.44044      5.09639        -0.193188     -0.106014     -0.000497
     14.08646      6.49494      8.03245         0.074239      0.022414     -0.094914
     10.02798      8.76977      5.09639         0.181349      0.125193     -0.000497
     10.61165      7.82427      8.03245        -0.053308     -0.056322     -0.094914
     11.19425      6.95153     10.63702         0.274111      0.468876      0.498604
     15.07254      9.71527      2.16033         0.540426      1.002349      1.633948
      1.66190      1.67871      6.23581         0.033822     -0.054789     -0.004499
      2.24556      0.73321      9.17187         0.460671     -0.746253     -3.127267
      6.00351      3.76294      0.58995        -0.147225      0.238494     -4.140810
      6.70646      2.62422      3.29975        -0.319333      0.517296      1.687370
      5.04464      5.31623     11.80770         0.188777     -0.305804      2.735410
      2.24556      3.80055     10.15965         0.234191      1.093965     -0.166560
      7.29013      4.74605      7.22359        -0.107188     -0.005662      0.072851
      3.50360      1.69019      1.60398         1.375249      0.649777     -2.030261
[...]
      7.07033      8.08475      7.22359         0.053098      0.093284      0.072851
      7.65400      7.13925     10.15965        -1.082913      0.280901     -0.166560
      9.81241      6.71012      6.23581         0.033822     -0.054789     -0.004499
     10.39608      5.76462      9.17187         0.460671     -0.746253     -3.127267
     14.15402      8.79435      0.58995        -0.147225      0.238494     -4.140810
     14.85697      7.65563      3.29975        -0.319333      0.517296      1.687370
      8.15059      0.28482     11.80770         0.188777     -0.305804      2.735410
     10.39608      8.83196     10.15965         0.234191      1.093965     -0.166560
     15.44064      9.77746      7.22359        -0.107188     -0.005662      0.072851
     11.65411      6.72160      1.60398         1.375249      0.649777     -2.030261
     12.33469      5.69156      4.28753         0.013096     -0.009119      0.400662
      6.45451      0.03745      1.60398        -1.197189     -0.938220     -2.030261
     12.11489      9.03025      4.28753         0.002284     -0.015794      0.400662
     12.69856      8.08475      7.22359         0.053098      0.093284      0.072851
     13.28223      7.13925     10.15965        -1.082913      0.280901     -0.166560
    total drift:                               -0.155981      0.239962     -0.118851

  FREE ENERGIE OF THE ION-ELECTRON SYSTEM (eV)
  free  energy   TOTEN  =      -520.75499516 eV

  energy  without entropy=     -519.47026783  energy(sigma->0) =     -520.11263150