 vasp.6.1.0 28Jan20 (build Mar 31 2020 17:42:31) gamma-only

 executed on             LinuxIFC date 2020.04.13  06:19:06

 INCAR:
 POTCAR:    PAW_PBE Ni_pv 06Sep2000
 POTCAR:    PAW_PBE S 06Sep2000
 POTCAR:    PAW_PBE Ni_pv 06Sep2000
   VRHFIN =Ni:

   TITEL  = PAW_PBE Ni_pv 06Sep2000
   POMASS =   58.690; ZVAL   =   16.000    mass and valenz
   ENMAX  =  367.986; ENMIN  =  275.989 eV

 POTCAR:    PAW_PBE S 06Sep2000
   VRHFIN =S : s2p4

   TITEL  = PAW_PBE S 06Sep2000
   POMASS =   32.066; ZVAL   =    6.000    mass and valenz
   ENMAX  =  258.689; ENMIN  =  194.016 eV

 Optimization of the real space projectors (new method)

 maximal supplied QI-value         = 18.90
 optimisation between [QCUT,QGAM] = [ 10.77, 21.73] = [ 32.49,132.25] Ry
 Optimized for a Real-space Cutoff    1.38 Angstroem

   l    n(q)    QCUT    max X(q) W(low)/X(q) W(high)/X(q)  e(spline)
   1      8    10.771     2.836    0.40E-04    0.29E-04    0.12E-06
   1      8    10.771     4.023    0.10E-03    0.48E-04    0.29E-06
   2      8    10.771    73.368    0.42E-03    0.97E-04    0.44E-06
   2      8    10.771    69.010    0.42E-03    0.99E-04    0.45E-06
   0      9    10.771    54.797    0.10E-03    0.56E-04    0.74E-07
   0      9    10.771    24.266    0.89E-04    0.49E-04    0.67E-07
 Optimization of the real space projectors (new method)

 maximal supplied QI-value         = 19.84
 optimisation between [QCUT,QGAM] = [ 10.71, 21.63] = [ 32.15,130.99] Ry
 Optimized for a Real-space Cutoff    1.19 Angstroem

   l    n(q)    QCUT    max X(q) W(low)/X(q) W(high)/X(q)  e(spline)
   0      8    10.715   187.594    0.41E-03    0.53E-04    0.66E-07
   0      8    10.715   164.243    0.41E-03    0.53E-04    0.65E-07
   1      7    10.715    67.533    0.19E-03    0.59E-03    0.68E-07
   1      7    10.715    50.729    0.19E-03    0.58E-03    0.67E-07
  PAW_PBE Ni_pv 06Sep2000               :
  PAW_PBE S 06Sep2000                   :

 POSCAR: Structure 6 made from 021-5.xsd file
  positions in direct lattice
 exchange correlation table for  LEXCH =        8
   RHO(1)=    0.500       N(1)  =     2000
   RHO(2)=  100.500       N(2)  =     4000

 ion  position               nearest neighbor table
   1  0.924  0.194  0.114-  45 2.25  40 2.36  41 2.36   4 2.53   7 2.53
   2  0.061  0.057  0.245-  46 2.25  41 2.26  40 2.26  42 2.36   5 2.53   8 2.53
   3  0.197  0.921  0.375-  42 2.26  43 2.36   6 2.53   9 2.53
   4  0.116  0.134  0.045-  37 2.36  41 2.36   1 2.53   7 2.53
   5  0.253  0.997  0.176-  41 2.26  37 2.26  38 2.36  42 2.36   2 2.53   8 2.53
   6  0.389  0.861  0.306-  66 2.25  42 2.26  38 2.26  39 2.36  43 2.36   3 2.53   9 2.53
   7  0.056  0.326  0.114-  60 2.25  37 2.36  40 2.36   4 2.53   1 2.53
   8  0.193  0.189  0.245-  61 2.25  37 2.26  40 2.26  38 2.36   5 2.53   2 2.53
   9  0.329  0.053  0.375-  62 2.25  38 2.26  39 2.36   6 2.53   3 2.53
  10  0.424  0.194  0.114-  37 2.25  49 2.26  47 2.36  50 2.36  13 2.53  16 2.53
  11  0.561  0.057  0.245-  38 2.25  50 2.26  47 2.26  51 2.36  48 2.36  14 2.53  17 2.53
  12  0.697  0.921  0.375-  39 2.25  51 2.26  48 2.26  52 2.36  15 2.53  18 2.53
  13  0.616  0.134  0.045-  44 2.26  49 2.26  45 2.36  50 2.36  10 2.53  16 2.53
  14  0.753  0.997  0.176-  50 2.26  45 2.26  46 2.36  51 2.36  11 2.53  17 2.53
  15  0.889  0.861  0.306-  57 2.25  51 2.26  46 2.26  52 2.36  12 2.53  18 2.53
  16  0.556  0.326  0.114-  70 2.25  44 2.26  45 2.36  47 2.36  13 2.53  10 2.53
  17  0.693  0.189  0.245-  71 2.25  45 2.26  47 2.26  46 2.36  48 2.36  14 2.53  11 2.53
  18  0.829  0.053  0.375-  72 2.25  46 2.26  48 2.26  15 2.53  12 2.53
  19  0.924  0.694  0.114-  64 2.25  59 2.26  57 2.36  60 2.36  22 2.53  25 2.53
  20  0.061  0.557  0.245-  65 2.25  60 2.26  57 2.26  61 2.36  23 2.53  26 2.53
  21  0.197  0.421  0.375-  61 2.26  62 2.36  58 2.36  24 2.53  27 2.53
  22  0.116  0.634  0.045-  53 2.26  59 2.26  54 2.36  60 2.36  19 2.53  25 2.53
  23  0.253  0.497  0.176-  60 2.26  54 2.26  55 2.36  61 2.36  20 2.53  26 2.53
  24  0.389  0.361  0.306-  47 2.25  61 2.26  55 2.26  56 2.36  62 2.36  21 2.53  27 2.53
  25  0.056  0.826  0.114-  41 2.25  53 2.26  54 2.36  57 2.36  22 2.53  19 2.53
  26  0.193  0.689  0.245-  42 2.25  54 2.26  57 2.26  55 2.36  23 2.53  20 2.53
  27  0.329  0.553  0.375-  43 2.25  55 2.26  58 2.36  56 2.36  24 2.53  21 2.53
  28  0.424  0.694  0.114-  54 2.25  69 2.26  66 2.36  70 2.36  31 2.53  34 2.53
  29  0.561  0.557  0.245-  55 2.25  70 2.26  66 2.26  71 2.36  67 2.36  32 2.53  35 2.53
  30  0.697  0.421  0.375-  56 2.25  71 2.26  67 2.26  72 2.36  68 2.36  33 2.53  36 2.53
  31  0.616  0.634  0.045-  63 2.26  69 2.26  64 2.36  70 2.36  28 2.53  34 2.53
  32  0.753  0.497  0.176-  70 2.26  64 2.26  65 2.36  71 2.36  29 2.53  35 2.53
  33  0.889  0.361  0.306-  40 2.25  71 2.26  65 2.26  72 2.36  30 2.53  36 2.53
  34  0.556  0.826  0.114-  50 2.25  63 2.26  64 2.36  66 2.36  31 2.53  28 2.53
  35  0.693  0.689  0.245-  51 2.25  64 2.26  66 2.26  65 2.36  67 2.36  32 2.53  29 2.53
  36  0.829  0.553  0.375-  52 2.25  65 2.26  67 2.26  68 2.36  33 2.53  30 2.53
  37  0.241  0.177  0.130-  10 2.25   8 2.26   5 2.26   4 2.36   7 2.36
  38  0.378  0.040  0.261-  11 2.25   9 2.26   6 2.26   5 2.36   8 2.36
  39  0.514  0.904  0.391-  12 2.25   6 2.36   9 2.36
  40  0.997  0.253  0.218-  33 2.25   8 2.26   2 2.26   1 2.36   7 2.36
  41  0.073  0.009  0.130-  25 2.25   2 2.26   5 2.26   4 2.36   1 2.36
  42  0.210  0.872  0.261-  26 2.25   3 2.26   6 2.26   5 2.36   2 2.36
  43  0.346  0.736  0.391-  27 2.25   6 2.36   3 2.36
  44  0.605  0.313  0.000-  16 2.26  13 2.26
  45  0.741  0.177  0.130-   1 2.25  17 2.26  14 2.26  13 2.36  16 2.36
  46  0.878  0.040  0.261-   2 2.25  18 2.26  15 2.26  14 2.36  17 2.36
  47  0.497  0.253  0.218-  24 2.25  17 2.26  11 2.26  10 2.36  16 2.36
  48  0.633  0.117  0.349-  18 2.26  12 2.26  11 2.36  17 2.36
  49  0.437  0.145  0.000-  10 2.26  13 2.26
  50  0.573  0.009  0.130-  34 2.25  11 2.26  14 2.26  13 2.36  10 2.36
  51  0.710  0.872  0.261-  35 2.25  12 2.26  15 2.26  14 2.36  11 2.36
  52  0.846  0.736  0.391-  36 2.25  15 2.36  12 2.36
  53  0.105  0.813  0.000-  25 2.26  22 2.26
  54  0.241  0.677  0.130-  28 2.25  26 2.26  23 2.26  22 2.36  25 2.36
  55  0.378  0.540  0.261-  29 2.25  27 2.26  24 2.26  23 2.36  26 2.36
  56  0.514  0.404  0.391-  30 2.25  24 2.36  27 2.36
  57  0.997  0.753  0.218-  15 2.25  26 2.26  20 2.26  19 2.36  25 2.36
  58  0.270  0.480  0.479-  27 2.36  21 2.36
  59  0.937  0.645  0.000-  19 2.26  22 2.26
  60  0.073  0.509  0.130-   7 2.25  20 2.26  23 2.26  22 2.36  19 2.36
  61  0.210  0.372  0.261-   8 2.25  21 2.26  24 2.26  23 2.36  20 2.36
  62  0.346  0.236  0.391-   9 2.25  24 2.36  21 2.36
  63  0.605  0.813  0.000-  34 2.26  31 2.26
  64  0.741  0.677  0.130-  19 2.25  35 2.26  32 2.26  31 2.36  34 2.36
  65  0.878  0.540  0.261-  20 2.25  36 2.26  33 2.26  32 2.36  35 2.36
  66  0.497  0.753  0.218-   6 2.25  35 2.26  29 2.26  28 2.36  34 2.36
  67  0.633  0.617  0.349-  36 2.26  30 2.26  29 2.36  35 2.36
  68  0.770  0.480  0.479-  36 2.36  30 2.36
  69  0.437  0.645  0.000-  28 2.26  31 2.26
  70  0.573  0.509  0.130-  16 2.25  29 2.26  32 2.26  31 2.36  28 2.36
  71  0.710  0.372  0.261-  17 2.25  30 2.26  33 2.26  32 2.36  29 2.36
  72  0.846  0.236  0.391-  18 2.25  33 2.36  30 2.36

  LATTYP: Found a base centered orthorhombic cell.
 ALAT       =    13.8711387481
 B/A-ratio  =     1.3810560848
 C/A-ratio  =     1.3837068471

  Lattice vectors:

 A1 = (  11.2351097480,   3.6905792348,   0.0000000000)
 A2 = (   0.0000000000, -11.8257374459,   0.0000000000)
 A3 = (   0.0000000000,   0.0000000000, -19.1935896625)

Analysis of symmetry for initial positions (statically):
 Subroutine PRICEL returns:
 Original cell was already a primitive cell.

 Routine SETGRP: Setting up the symmetry group for a
 base centered orthorhombic supercell.

 Subroutine GETGRP returns: Found  1 space group operations
 (whereof  1 operations were pure point group operations)
 out of a pool of  8 trial point group operations.

The static configuration has the point symmetry C_1 .

Analysis of symmetry for dynamics (positions and initial velocities):
 Subroutine PRICEL returns:
 Original cell was already a primitive cell.

 Routine SETGRP: Setting up the symmetry group for a
 base centered orthorhombic supercell.

 Subroutine GETGRP returns: Found  1 space group operations
 (whereof  1 operations were pure point group operations)
 out of a pool of  8 trial point group operations.

The dynamic configuration has the point symmetry C_1 .

 Subroutine INISYM returns: Found  1 space group operations
 (whereof  1 operations are pure point group operations),
 and found     1 'primitive' translations

                                     Primitive cell

  volume of cell :    2550.1267

  direct lattice vectors                    reciprocal lattice vectors
    11.235109748  3.690579235  0.000000000     0.089006696  0.000000000  0.000000000
     0.000000000 11.825737446  0.000000000    -0.027777233  0.084561323  0.000000000
     0.000000000  0.000000000 19.193589662     0.000000000  0.000000000  0.052100728

  length of vectors
    11.825737446 11.825737446 19.193589662     0.089006696  0.089006696  0.052100728

  position of ions in fractional coordinates (direct lattice)
     0.924088227  0.193817547  0.114259528
     0.060673734  0.057232039  0.244673624
     0.197259241  0.920646517  0.375087720
     0.116120798  0.133887972  0.045347155
     0.252706305  0.997302464  0.175761251
     0.389291812  0.860716942  0.306175347
     0.056191223  0.325920543  0.114259528
     0.192776730  0.189335035  0.244673624
     0.329362237  0.052749513  0.375087720
     0.424088227  0.193817547  0.114259528
     0.560673734  0.057232039  0.244673624
     0.697259241  0.920646517  0.375087720
     0.616120798  0.133887972  0.045347155
     0.752706305  0.997302464  0.175761251
     0.889291812  0.860716942  0.306175347
     0.556191223  0.325920543  0.114259528
     0.692776730  0.189335035  0.244673624
     0.829362237  0.052749513  0.375087720
     0.924088227  0.693817547  0.114259528
     0.060673734  0.557232039  0.244673624
     0.197259241  0.420646517  0.375087720
     0.116120798  0.633887972  0.045347155
     0.252706305  0.497302464  0.175761251
     0.389291812  0.360716942  0.306175347
     0.056191223  0.825920543  0.114259528
     0.192776730  0.689335035  0.244673624
     0.329362237  0.552749513  0.375087720
     0.424088227  0.693817547  0.114259528
     0.560673734  0.557232039  0.244673624
     0.697259241  0.420646517  0.375087720
     0.616120798  0.633887972  0.045347155
     0.752706305  0.497302464  0.175761251
     0.889291812  0.360716942  0.306175347
     0.556191223  0.825920543  0.114259528
     0.692776730  0.689335035  0.244673624
     0.829362237  0.552749513  0.375087720
     0.241325247  0.176898518  0.130414096
     0.377910754  0.040313010  0.260828192
     0.514496261  0.903727488  0.391242288
     0.996798181  0.253210588  0.218164525
     0.073110252  0.008683523  0.130414096
     0.209695759  0.872098015  0.260828192
     0.346281266  0.735512493  0.391242288
[...]
  Fock        0.00000     0.00000     0.00000     0.00000     0.00000     0.00000
  Total     -44.39685   -52.73979   -53.49533     4.02160    12.16064   -10.76223
  in kB     -27.89337   -33.13502   -33.60971     2.52667     7.64021    -6.76163

 VOLUME and BASIS-vectors are now :
  energy-cutoff  :      450.00
  volume of cell :     2550.13
      direct lattice vectors                 reciprocal lattice vectors
    11.235109748  3.690579235  0.000000000     0.089006696  0.000000000  0.000000000
     0.000000000 11.825737446  0.000000000    -0.027777233  0.084561323  0.000000000
     0.000000000  0.000000000 19.193589662     0.000000000  0.000000000  0.052100728

  length of vectors
    11.825737446 11.825737446 19.193589662     0.089006696  0.089006696  0.052100728

 FORCES acting on ions
    electron-ion (+dipol)            ewald-force                    non-local-force                 convergence-correction
   0.486E+03 0.344E+02 0.273E+04   -.484E+03 -.345E+02 -.273E+04   -.160E+01 -.286E+00 -.373E+00   0.530E-02 -.626E-02 0.223E-02
   0.361E+03 0.180E+03 -.966E+03   -.361E+03 -.179E+03 0.965E+03   0.116E+00 -.914E+00 0.744E+00   -.144E-01 -.334E-02 -.397E-01
   0.714E+03 0.167E+03 -.372E+04   -.703E+03 -.170E+03 0.371E+04   -.975E+01 0.131E+01 0.727E+01   -.150E-01 0.189E-02 -.117E-01
   -.203E+03 0.151E+03 0.418E+04   0.198E+03 -.147E+03 -.416E+04   0.494E+01 -.353E+01 -.128E+02   0.115E-01 -.845E-02 0.130E-01
   -.406E+03 0.331E+03 0.159E+04   0.402E+03 -.327E+03 -.158E+04   0.376E+01 -.296E+01 -.192E+01   0.828E-02 0.694E-03 -.350E-01
   -.292E+03 0.281E+03 -.187E+04   0.294E+03 -.283E+03 0.188E+04   -.161E+01 0.139E+01 -.164E+01   0.296E-01 0.735E-02 -.495E-01
   0.126E+03 -.495E+03 0.272E+04   -.125E+03 0.493E+03 -.272E+04   -.536E+00 0.165E+01 -.190E+00   0.922E-03 -.143E-01 -.595E-02
   0.419E+02 -.389E+03 -.922E+03   -.427E+02 0.390E+03 0.920E+03   0.754E+00 -.180E-01 0.126E+01   0.666E-02 -.188E-01 -.445E-01
   0.180E+03 -.394E+03 -.369E+04   -.175E+03 0.396E+03 0.369E+04   -.334E+01 -.853E+00 0.239E+01   0.243E-01 0.295E-01 -.115E-01
   0.656E+03 0.222E+02 0.250E+04   -.657E+03 -.230E+02 -.250E+04   0.125E+01 0.481E-01 0.467E+01   0.168E-02 -.239E-01 -.847E-02
   0.432E+03 0.244E+03 -.725E+03   -.432E+03 -.244E+03 0.725E+03   0.626E+00 0.148E+00 -.526E+00   0.122E-01 0.181E-02 -.162E-01
   0.229E+03 0.247E+03 -.375E+04   -.230E+03 -.248E+03 0.375E+04   0.373E+00 0.876E+00 0.713E+00   0.182E-01 0.402E-01 -.143E-01
   -.512E+03 0.301E+03 0.401E+04   0.504E+03 -.295E+03 -.402E+04   0.683E+01 -.464E+01 0.292E+01   -.118E-01 -.150E-01 0.598E-02
   -.585E+03 0.341E+03 0.164E+04   0.581E+03 -.338E+03 -.164E+04   0.418E+01 -.240E+01 -.164E+01   -.221E-02 0.115E-02 0.240E-02
   -.702E+03 0.244E+03 -.202E+04   0.700E+03 -.246E+03 0.202E+04   0.130E+01 0.140E+01 -.551E+00   -.311E-01 0.379E-01 -.443E-02
   0.142E+03 -.541E+03 0.250E+04   -.141E+03 0.542E+03 -.250E+04   -.912E-01 -.130E+01 0.435E+01   0.233E-02 -.183E-01 -.317E-02
   -.180E+03 -.462E+03 -.711E+03   0.179E+03 0.462E+03 0.711E+03   0.531E+00 -.114E+01 -.419E+00   0.131E-01 -.180E-01 0.820E-02
   -.481E+03 -.319E+03 -.377E+04   0.476E+03 0.322E+03 0.376E+04   0.428E+01 -.102E+01 0.519E+01   -.156E-01 0.415E-02 -.962E-02
   0.532E+03 0.333E+02 0.245E+04   -.533E+03 -.348E+02 -.246E+04   0.122E+01 0.650E+00 0.470E+01   -.135E-01 0.167E-01 -.173E-02
   0.360E+03 0.201E+03 -.957E+03   -.360E+03 -.201E+03 0.955E+03   0.165E+00 -.662E+00 0.139E+01   -.224E-01 -.438E-02 -.233E-01
   0.766E+03 0.297E+03 -.351E+04   -.757E+03 -.294E+03 0.351E+04   -.783E+01 -.262E+01 -.255E+01   0.609E-02 -.905E-02 0.673E-02
   -.438E+03 0.387E+03 0.399E+04   0.431E+03 -.382E+03 -.399E+04   0.652E+01 -.494E+01 0.306E+01   -.711E-02 0.240E-01 0.184E-02
   -.428E+03 0.394E+03 0.159E+04   0.423E+03 -.390E+03 -.159E+04   0.409E+01 -.299E+01 -.207E+01   0.130E-01 -.738E-02 -.243E-01
   -.324E+03 0.344E+03 -.180E+04   0.326E+03 -.345E+03 0.180E+04   -.190E+01 0.117E+01 -.108E+01   0.313E-01 -.149E-01 -.161E-01
   0.177E+03 -.608E+03 0.245E+04   -.176E+03 0.609E+03 -.245E+04   0.451E-01 -.118E+01 0.468E+01   -.407E-02 0.270E-01 -.736E-02
   0.405E+02 -.424E+03 -.950E+03   -.411E+02 0.424E+03 0.948E+03   0.706E+00 0.161E+00 0.183E+01   -.244E-02 0.196E-01 -.351E-01
   0.131E+03 -.521E+03 -.349E+04   -.131E+03 0.521E+03 0.350E+04   -.201E+00 -.232E+00 -.442E+01   0.194E-01 0.599E-03 0.596E-02
   0.618E+03 0.151E+02 0.247E+04   -.619E+03 -.163E+02 -.247E+04   0.119E+01 0.289E+00 0.476E+01   -.101E-02 0.228E-01 -.362E-02
   0.432E+03 0.243E+03 -.696E+03   -.433E+03 -.243E+03 0.697E+03   0.618E+00 0.133E+00 -.982E+00   0.130E-01 0.673E-02 -.276E-01
   0.281E+03 0.369E+03 -.354E+04   -.281E+03 -.370E+03 0.355E+04   0.700E+00 0.717E+00 -.397E+01   -.377E-03 -.267E-01 -.101E-01
   -.487E+03 0.349E+03 0.400E+04   0.479E+03 -.343E+03 -.400E+04   0.662E+01 -.468E+01 0.264E+01   -.110E-01 0.116E-01 0.166E-01
   -.599E+03 0.398E+03 0.166E+04   0.595E+03 -.396E+03 -.166E+04   0.436E+01 -.269E+01 -.172E+01   -.141E-02 0.159E-02 -.791E-02
   -.738E+03 0.310E+03 -.194E+04   0.736E+03 -.312E+03 0.194E+04   0.138E+01 0.135E+01 0.131E+00   -.792E-02 -.245E-01 -.214E-01
   0.173E+03 -.572E+03 0.247E+04   -.172E+03 0.573E+03 -.248E+04   0.113E+00 -.133E+01 0.435E+01   -.135E-01 0.848E-02 0.371E-02
   -.160E+03 -.491E+03 -.719E+03   0.159E+03 0.491E+03 0.719E+03   0.603E+00 -.895E+00 -.483E+00   -.351E-02 0.902E-02 -.279E-01
   -.521E+03 -.444E+03 -.356E+04   0.518E+03 0.445E+03 0.357E+04   0.247E+01 -.277E+00 -.333E+01   -.603E-02 0.552E-02 -.103E-01
   -.104E+03 -.112E+03 0.947E+03   0.106E+03 0.113E+03 -.948E+03   -.186E+01 -.824E+00 -.446E+00   0.714E-02 -.926E-02 -.374E-02
   -.642E+02 -.847E+02 -.270E+03   0.661E+02 0.868E+02 0.269E+03   -.250E+01 -.226E+01 0.170E+01   0.418E-02 0.127E-02 -.215E-01
   -.518E+02 0.805E+02 -.149E+04   0.524E+02 -.828E+02 0.149E+04   -.149E+01 0.225E+01 -.338E+01   0.120E-01 0.556E-02 -.276E-02
   0.113E+03 -.947E+02 -.425E+02   -.115E+03 0.957E+02 0.437E+02   0.147E+01 -.105E+01 -.127E+01   -.308E-02 -.437E-02 -.888E-02
   0.720E+02 0.146E+03 0.939E+03   -.723E+02 -.148E+03 -.940E+03   -.108E-01 0.196E+01 -.987E-01   0.684E-02 -.432E-02 -.158E-02
   0.981E+02 0.126E+03 -.305E+03   -.994E+02 -.128E+03 0.303E+03   0.996E+00 0.323E+01 0.229E+01   -.111E-02 0.777E-02 -.296E-01
   -.341E+02 0.210E+02 -.146E+04   0.366E+02 -.206E+02 0.147E+04   -.314E+01 0.381E+00 -.421E+01   0.105E-01 -.697E-02 0.130E-02
   -.719E+02 -.197E+03 0.164E+04   0.722E+02 0.200E+03 -.164E+04   -.710E+00 -.341E+01 0.425E+01   0.196E-03 -.551E-02 -.454E-03
   -.198E+03 -.112E+03 0.951E+03   0.200E+03 0.113E+03 -.951E+03   -.182E+01 -.115E+01 -.403E+00   0.155E-02 -.546E-02 0.149E-02
   -.184E+03 -.842E+02 -.289E+03   0.186E+03 0.852E+02 0.287E+03   -.172E+01 -.142E+01 0.230E+01   -.910E-02 -.308E-04 0.692E-02
   0.159E+03 -.100E+03 -.781E+01   -.161E+03 0.101E+03 0.887E+01   0.130E+01 -.589E+00 -.174E+01   0.487E-02 -.952E-02 -.635E-02
   0.212E+03 -.159E+03 -.129E+04   -.216E+03 0.162E+03 0.129E+04   0.520E+01 -.338E+01 -.361E+01   0.169E-01 -.583E-03 -.208E-02
   0.214E+03 0.976E+02 0.163E+04   -.216E+03 -.987E+02 -.164E+04   0.291E+01 0.173E+01 0.435E+01   0.121E-02 -.260E-02 0.768E-02
   0.522E+02 0.172E+03 0.927E+03   -.528E+02 -.174E+03 -.927E+03   0.755E+00 0.151E+01 0.433E+00   -.477E-02 0.656E-04 -.240E-02
   0.131E+02 0.134E+03 -.259E+03   -.144E+02 -.137E+03 0.257E+03   0.135E+01 0.293E+01 0.239E+01   -.575E-03 0.534E-02 -.516E-02
   -.194E+03 0.506E+01 -.147E+04   0.196E+03 -.449E+01 0.147E+04   -.211E+01 0.769E+00 -.373E+01   -.461E-02 0.107E-01 -.251E-02
   -.254E+02 -.232E+03 0.163E+04   0.258E+02 0.234E+03 -.163E+04   -.754E+00 -.334E+01 0.434E+01   -.134E-02 0.815E-02 0.528E-02
   -.133E+03 -.103E+03 0.907E+03   0.135E+03 0.104E+03 -.909E+03   -.125E+01 -.144E+01 0.744E+00   0.331E-02 0.144E-01 -.870E-02
   -.684E+02 -.867E+02 -.256E+03   0.704E+02 0.884E+02 0.255E+03   -.242E+01 -.178E+01 0.139E+01   0.987E-02 0.121E-02 -.905E-02
   -.727E+02 0.106E+03 -.145E+04   0.733E+02 -.108E+03 0.146E+04   -.119E+01 0.211E+01 -.400E+01   0.538E-02 -.675E-02 0.595E-04
   0.120E+03 -.109E+03 -.707E+02   -.121E+03 0.110E+03 0.719E+02   0.120E+01 -.758E+00 -.103E+01   -.977E-02 0.107E-01 -.112E-01
   0.648E+02 -.951E+01 -.162E+04   -.648E+02 0.932E+01 0.163E+04   -.416E+00 0.170E+00 -.651E+01   0.298E-02 -.758E-03 0.106E-01
   0.163E+03 0.129E+03 0.163E+04   -.165E+03 -.130E+03 -.163E+04   0.302E+01 0.180E+01 0.436E+01   -.473E-02 0.263E-02 -.704E-03
   0.483E+02 0.211E+03 0.930E+03   -.488E+02 -.213E+03 -.931E+03   0.780E+00 0.187E+01 0.258E+00   -.452E-02 -.714E-02 -.487E-02
   0.969E+02 0.148E+03 -.282E+03   -.975E+02 -.151E+03 0.281E+03   0.281E+00 0.281E+01 0.142E+01   0.233E-02 -.833E-02 -.131E-01
   -.496E+02 0.910E+02 -.145E+04   0.525E+02 -.912E+02 0.146E+04   -.351E+01 0.102E+00 -.403E+01   0.106E-01 -.162E-02 0.972E-03
   -.447E+02 -.210E+03 0.164E+04   0.451E+02 0.212E+03 -.164E+04   -.927E+00 -.334E+01 0.430E+01   -.365E-02 0.566E-02 0.553E-02
   -.175E+03 -.101E+03 0.924E+03   0.177E+03 0.102E+03 -.925E+03   -.149E+01 -.113E+01 0.177E+00   -.470E-02 0.131E-02 0.345E-02
   -.185E+03 -.799E+02 -.275E+03   0.188E+03 0.809E+02 0.274E+03   -.189E+01 -.141E+01 0.185E+01   -.871E-02 -.753E-03 -.128E-01
   0.163E+03 -.113E+03 -.157E+02   -.165E+03 0.114E+03 0.168E+02   0.170E+01 -.714E+00 -.173E+01   0.365E-02 0.413E-02 -.159E-01
   0.233E+03 -.190E+03 -.125E+04   -.238E+03 0.193E+03 0.126E+04   0.547E+01 -.355E+01 -.421E+01   -.139E-02 0.404E-02 -.815E-02
   -.477E+02 -.435E+01 -.165E+04   0.476E+02 0.464E+01 0.165E+04   0.315E+00 -.166E+00 -.623E+01   0.856E-03 -.378E-02 0.667E-02
   0.188E+03 0.107E+03 0.164E+04   -.190E+03 -.108E+03 -.164E+04   0.294E+01 0.194E+01 0.442E+01   -.323E-02 0.477E-02 0.593E-02
   0.433E+02 0.187E+03 0.931E+03   -.439E+02 -.189E+03 -.931E+03   0.709E+00 0.155E+01 0.705E-01   0.180E-02 0.650E-02 0.104E-02
   0.717E+01 0.152E+03 -.237E+03   -.777E+01 -.155E+03 0.235E+03   0.563E+00 0.294E+01 0.143E+01   0.224E-02 -.556E-02 -.879E-02
   -.211E+03 0.741E+02 -.146E+04   0.213E+03 -.743E+02 0.146E+04   -.217E+01 0.693E+00 -.313E+01   -.354E-02 -.208E-01 -.373E-02
   -.325E+02 0.311E+02 -.872E+01   -.568E-13 -.175E-11 0.143E-10   0.324E+02 -.312E+02 0.916E+01   0.720E-01 0.550E-01 -.531E+00

 POSITION                                       TOTAL-FORCE (eV/Angst)
     10.38223      5.70246      2.19305         0.418830     -0.380922      0.769386
      0.68168      0.90073      4.69617        -0.381284     -0.212332     -0.311824
      2.21623     11.61532      7.19928         0.986817     -0.979356     -1.030308
      1.30463      2.01188      0.87037         0.185220     -0.076151      1.945968
      2.83918     12.72647      3.37349        -0.281628      0.282696      0.541091
      4.37374     11.61532      5.87660         0.163353     -0.036447      0.444534
      0.63131      4.06163      2.19305         0.470430     -0.223459      0.772899
      2.16587      2.95048      4.69617        -0.037958      0.156066     -0.368656
      3.70042      1.83934      7.19928         1.151995      0.787423     -0.798452
      4.76468      3.85717      2.19305        -0.060574     -0.758347     -0.489919
      6.29923      2.74602      4.69617         0.109994      0.040780      0.085351
      7.83378     13.46061      7.19928        -0.218097     -0.618424     -0.790751
      6.92218      3.85717      0.87037        -0.792086      0.635749      0.235562
      8.45674     14.57176      3.37349        -0.094562      0.017182      0.486331
      9.99129     13.46061      5.87660        -0.682658     -0.581136     -0.094785
      6.24887      5.90692      2.19305         0.716559      0.205996     -0.627513
      7.78342      4.79577      4.69617        -0.022954     -0.356247      0.222161
      9.31798      3.68463      7.19928        -0.721763      1.333895     -1.296388
     10.38223     11.61532      2.19305         0.042833     -0.764863     -0.554142
      0.68168      6.81360      4.69617        -0.215762     -0.349153     -0.381869
      2.21623      5.70246      7.19928         1.296315     -0.068939      0.722097
      1.30463      7.92475      0.87037        -0.738128      0.560942      0.208748
      2.83918      6.81360      3.37349        -0.298100      0.281016      0.467254
      4.37374      5.70246      5.87660         0.247308     -0.045028      0.455466
      0.63131      9.97450      2.19305         0.694725      0.194814     -0.464603
      2.16587      8.86335      4.69617         0.143077      0.210206     -0.453006
      3.70042      7.75221      7.19928         0.299698      0.172699      0.668763
      4.76468      9.77004      2.19305        -0.052602     -0.807556     -0.561557
      6.29923      8.65889      4.69617         0.144049      0.194814      0.016346
      7.83378      7.54775      7.19928         0.035659     -0.030253      0.630162
      6.92218      9.77004      0.87037        -0.823247      0.621314      0.169939
      8.45674      8.65889      3.37349        -0.191358      0.080640      0.545912
      9.99129      7.54775      5.87660        -0.464894     -0.659904     -0.261496
      6.24887     11.81979      2.19305         0.771988      0.185961     -0.613639
      7.78342     10.70864      4.69617        -0.178001     -0.293678      0.078448
      9.31798      9.59750      7.19928        -0.895404      0.490555      0.585603
      2.71132      2.98259      2.50311        -0.199859      0.155842     -1.107411
      4.24587      1.87144      5.00623        -0.595437     -0.168412      0.482827
      5.78042     12.58603      7.50934        -0.878857     -0.039158      0.267487
     11.19914      6.67316      4.18736         0.198629     -0.064508     -0.060841
      0.82140      0.37251      2.50311        -0.267149      0.200686     -1.159500
      2.35595     11.08710      5.00623        -0.238652      0.569188      0.847092
      3.89051      9.97596      7.50934        -0.675139      0.723027      0.045955
      6.79432      5.93902      0.00000        -0.467097     -0.990000      1.240690
      8.32887      4.82787      2.50311         0.625520     -0.025301     -0.859574
      9.86342      3.71673      5.00623         0.661062     -0.365087      0.744969
      5.58158      4.82787      4.18736        -0.493980      0.402444     -0.682293
      7.11614      3.71673      6.69048         0.409008     -0.298790      0.361782
      4.90440      3.32894      0.00000         0.924416      0.659747      1.090955
      6.43896      2.21780      2.50311         0.195756     -0.444663     -0.441936
      7.97351     12.93239      5.00623         0.084090      0.169033     -0.104372
      9.50806     11.82125      7.50934        -0.034067      1.350084     -0.067869
      1.17676     10.00660      0.00000        -0.338863     -1.078717      1.141443
      2.71132      8.89545      2.50311         0.428111     -0.066250     -0.435412
      4.24587      7.78431      5.00623        -0.371135     -0.115101      0.528676
      5.78042      6.67316      7.50934        -0.584473     -0.272963      0.058882
     11.19914     12.58603      4.18736        -0.087642      0.138191      0.168261
      3.03313      6.67316      9.19359        -0.343623     -0.020456     -2.729116
     10.52196     11.08710      0.00000         0.835584      0.706699      1.232009
      0.82140      6.28538      2.50311         0.211046     -0.604136     -0.900635
      2.35595      5.17423      5.00623        -0.335101      0.435089      0.731750
      3.89051      4.06309      7.50934        -0.590992     -0.069097      0.057694
      6.79432     11.85189      0.00000        -0.474879     -1.062758      1.213664
      8.32887     10.74074      2.50311         0.317726     -0.043641     -0.503797
      9.86342      9.62960      5.00623         0.604728     -0.392452      0.575411
      5.58158     10.74074      4.18736        -0.485730      0.368785     -0.651155
      7.11614      9.62960      6.69048        -0.120633     -0.123286     -0.317195
      8.65069      8.51845      9.19359         0.214217      0.125568     -2.235745
      4.90440      9.24181      0.00000         0.884578      0.754558      1.175899
      6.43896      8.13067      2.50311         0.181773     -0.344343     -0.567852
      7.97351      7.01952      5.00623        -0.032983      0.143154     -0.025386
      9.50806      5.90838      7.50934         0.112256      0.476467     -0.068469
    total drift:                                0.045896     -0.042148     -0.091392

  FREE ENERGIE OF THE ION-ELECTRON SYSTEM (eV)
  free  energy   TOTEN  =      -344.22934988 eV

  energy  without entropy=     -342.74243936  energy(sigma->0) =     -343.48589462