 vasp.5.4.4.18Apr17-6-g9f103f2a35 (build Aug 13 2019 17:33:20) gamma-only

 executed on             LinuxIFC date 2020.05.10  12:13:31

 INCAR:
 POTCAR:    PAW_PBE Ni_pv 06Sep2000
 POTCAR:    PAW_PBE S 06Sep2000
 POTCAR:    PAW_PBE Ni_pv 06Sep2000
   VRHFIN =Ni:

   TITEL  = PAW_PBE Ni_pv 06Sep2000
   POMASS =   58.690; ZVAL   =   16.000    mass and valenz
   ENMAX  =  367.986; ENMIN  =  275.989 eV

 POTCAR:    PAW_PBE S 06Sep2000
   VRHFIN =S : s2p4

   TITEL  = PAW_PBE S 06Sep2000
   POMASS =   32.066; ZVAL   =    6.000    mass and valenz
   ENMAX  =  258.689; ENMIN  =  194.016 eV

 Optimization of the real space projectors (new method)

 maximal supplied QI-value         = 18.90
 optimisation between [QCUT,QGAM] = [ 10.77, 21.73] = [ 32.49,132.25] Ry
 Optimized for a Real-space Cutoff    1.38 Angstroem

   l    n(q)    QCUT    max X(q) W(low)/X(q) W(high)/X(q)  e(spline)
   1      8    10.771     2.836    0.40E-04    0.29E-04    0.12E-06
   1      8    10.771     4.023    0.10E-03    0.48E-04    0.29E-06
   2      8    10.771    73.368    0.42E-03    0.97E-04    0.44E-06
   2      8    10.771    69.010    0.42E-03    0.99E-04    0.45E-06
   0      9    10.771    54.797    0.10E-03    0.56E-04    0.74E-07
   0      9    10.771    24.266    0.89E-04    0.49E-04    0.67E-07
 Optimization of the real space projectors (new method)

 maximal supplied QI-value         = 19.84
 optimisation between [QCUT,QGAM] = [ 10.71, 21.63] = [ 32.15,130.99] Ry
 Optimized for a Real-space Cutoff    1.19 Angstroem

   l    n(q)    QCUT    max X(q) W(low)/X(q) W(high)/X(q)  e(spline)
   0      8    10.715   187.594    0.41E-03    0.53E-04    0.66E-07
   0      8    10.715   164.243    0.41E-03    0.53E-04    0.65E-07
   1      7    10.715    67.533    0.19E-03    0.59E-03    0.68E-07
   1      7    10.715    50.729    0.19E-03    0.58E-03    0.67E-07
  PAW_PBE Ni_pv 06Sep2000               :
  PAW_PBE S 06Sep2000                   :

 POSCAR: Type_026 Type_126
  positions in cartesian coordinates
 exchange correlation table for  LEXCH =        8
   RHO(1)=    0.500       N(1)  =     2000
   RHO(2)=  100.500       N(2)  =     4000

 ion  position               nearest neighbor table
   1  0.439  0.464  0.163-  44 2.07  35 2.08  30 2.25  36 2.36  45 2.36   5 2.53  22 2.53
   2  0.488  0.461  0.324-  46 2.00  45 2.05  36 2.06   6 2.47  23 2.51
   3  0.159  0.971  0.095-  37 2.06  27 2.08  38 2.11  34 2.21   4 2.50
   4  0.209  0.979  0.237-  34 2.08  28 2.08  39 2.08  38 2.17  26 2.39  12 2.44   3 2.50
   5  0.439  0.200  0.163-  40 2.07  35 2.08  34 2.25  36 2.36  41 2.36   1 2.53  22 2.53
   6  0.488  0.203  0.324-  42 2.00  41 2.05  36 2.06   2 2.47  23 2.51
   7  0.159  0.693  0.095-  37 2.06  31 2.08  38 2.11  30 2.21   8 2.50
   8  0.209  0.684  0.237-  30 2.08  32 2.08  39 2.08  38 2.17  26 2.39  12 2.44   7 2.50
   9  0.131  0.332  0.139-  27 2.07  31 2.07  35 2.11  28 2.36  32 2.36  18 2.53  14 2.53
  10  0.182  0.332  0.319-  29 2.03  33 2.03  36 2.25  28 2.26  32 2.26  15 2.51  19 2.51
  11  0.449  0.832  0.097-  50 2.04  51 2.14  30 2.24  34 2.24  12 2.38
  12  0.385  0.832  0.229-  39 2.15  34 2.19  30 2.19  11 2.38   4 2.44   8 2.44  51 2.48  13 2.48

  13  0.573  0.832  0.304-  52 2.07  51 2.16  21 2.39  17 2.39  12 2.48
  14  0.939  0.464  0.163-  31 2.07  48 2.08  43 2.25  49 2.36  32 2.36  18 2.53   9 2.53
  15  0.988  0.461  0.324-  33 2.00  32 2.05  49 2.06  19 2.47  10 2.51
  16  0.659  0.971  0.095-  50 2.06  40 2.08  51 2.11  47 2.21  17 2.50
  17  0.709  0.979  0.237-  47 2.08  41 2.08  52 2.08  51 2.17  13 2.39  25 2.44  16 2.50
  18  0.939  0.200  0.163-  27 2.07  48 2.08  47 2.25  49 2.36  28 2.36  14 2.53   9 2.53
  19  0.988  0.203  0.324-  29 2.00  28 2.05  49 2.06  15 2.47  10 2.51
  20  0.659  0.693  0.095-  50 2.06  44 2.08  51 2.11  43 2.21  21 2.50
  21  0.709  0.684  0.237-  43 2.08  45 2.08  52 2.08  51 2.17  13 2.39  25 2.44  20 2.50
  22  0.631  0.332  0.139-  40 2.07  44 2.07  48 2.11  41 2.36  45 2.36   5 2.53   1 2.53
  23  0.682  0.332  0.319-  42 2.03  46 2.03  49 2.25  41 2.26  45 2.26   2 2.51   6 2.51
  24  0.949  0.832  0.097-  37 2.04  38 2.14  43 2.24  47 2.24  25 2.38
  25  0.885  0.832  0.229-  52 2.15  47 2.19  43 2.19  24 2.38  17 2.44  21 2.44  38 2.48  26 2.48

[...]

  52  0.755  0.832  0.320-  13 2.07  17 2.08  21 2.08  25 2.15

  LATTYP: Found a simple orthorhombic cell.
 ALAT       =     9.5784100000
 B/A-ratio  =     1.1751911892
 C/A-ratio  =     1.7949213288

  Lattice vectors:

 A1 = (   0.0000000000,  -9.5784100000,   0.0000000000)
 A2 = ( -11.2564630382,   0.0000000000,   0.0000000000)
 A3 = (   0.0000000000,   0.0000000000, -17.1924924047)

Analysis of symmetry for initial positions (statically):
 Subroutine PRICEL returns following result:

[...]

   2 primitive cells build up your supercell.

 Routine SETGRP: Setting up the symmetry group for a
 simple orthorhombic supercell.

 Subroutine GETGRP returns: Found  2 space group operations
 (whereof  1 operations were pure point group operations)
 out of a pool of  8 trial point group operations.

The static configuration has the point symmetry C_1 .
 The point group associated with its full space group is C_1h.

Analysis of symmetry for dynamics (positions and initial velocities):
 Subroutine PRICEL returns following result:

  LATTYP: Found a simple orthorhombic cell.
 ALAT       =     5.6282315191
 B/A-ratio  =     1.7018507443
 C/A-ratio  =     3.0546881994

  Lattice vectors:

 A1 = (   5.6282315191,   0.0000000000,   0.0000000000)
 A2 = (   0.0000000000,   9.5784100000,   0.0000000000)
 A3 = (   0.0000000000,   0.0000000000,  17.1924924047)

   2 primitive cells build up your supercell.

 Routine SETGRP: Setting up the symmetry group for a
 simple orthorhombic supercell.

 Subroutine GETGRP returns: Found  2 space group operations
 (whereof  1 operations were pure point group operations)
 out of a pool of  8 trial point group operations.

The dynamic configuration has the point symmetry C_1 .
 The point group associated with its full space group is C_1h.

 Subroutine INISYM returns: Found  2 space group operations
 (whereof  1 operations are pure point group operations),
 and found     2 'primitive' translations

 KPOINTS: gamma-point-only calculation. no periodi

Automatic generation of k-mesh.
Space group operators:
 irot       det(A)        alpha          n_x          n_y          n_z        tau_x        tau_y        tau_z
    1     1.000000     0.000000     1.000000     0.000000     0.000000     0.000000     0.000000     0.000000
    2    -1.000000   180.000000     0.000000     1.000000     0.000000     0.000000     0.663570     0.000000

 Subroutine IBZKPT returns following result:

 Found      1 irreducible k-points:

 Following reciprocal coordinates:
            Coordinates               Weight
  0.000000  0.000000  0.000000      1.000000

 Following cartesian coordinates:
            Coordinates               Weight
  0.000000  0.000000  0.000000      1.000000

 SYSTEM =  "Millerite NiS"
 POSCAR =  Type_026 Type_126

 Startparameter for this run:
   NWRITE =      2    write-flag & timer
   PREC   = normal    normal or accurate (medium, high low for compatibility)
   ISTART =      0    job   : 0-new  1-cont  2-samecut
   ICHARG =      2    charge: 1-file 2-atom 10-const
   ISPIN  =      1    spin polarized calculation?
   LNONCOLLINEAR =      F non collinear calculations
   LSORBIT =      F    spin-orbit coupling
   INIWAV =      1    electr: 0-lowe 1-rand  2-diag
   LASPH  =      F    aspherical Exc in radial PAW
   METAGGA=      F    non-selfconsistent MetaGGA calc.

 Electronic Relaxation 1
   ENCUT  =  450.0 eV  33.07 Ry    5.75 a.u.  19.47 16.57 29.74*2*pi/ulx,y,z
   ENINI  =  450.0     initial cutoff
   ENAUG  =  703.4 eV  augmentation charge cutoff
   NELM   =    100;   NELMIN=  2; NELMDL= -5     # of ELM steps
   EDIFF  = 0.1E-03   stopping-criterion for ELM
   LREAL  =      T    real-space projection
   NLSPLINE    = F    spline interpolate recip. space projectors
   LCOMPAT=      F    compatible to vasp.4.4
   GGA_COMPAT  = T    GGA compatible to vasp.4.4-vasp.4.6
   LMAXPAW     = -100 max onsite density
   LMAXMIX     =    2 max onsite mixed and CHGCAR
   VOSKOWN=      0    Vosko Wilk Nusair interpolation
   ROPT   =   -0.00050  -0.00050
 Ionic relaxation
   EDIFFG = 0.1E-02   stopping-criterion for IOM
   NSW    =      0    number of steps for IOM
   NBLOCK =      1;   KBLOCK =      1    inner block; outer block
   IBRION =     -1    ionic relax: 0-MD 1-quasi-New 2-CG
   NFREE  =      0    steps in history (QN), initial steepest desc. (CG)
   ISIF   =      2    stress and relaxation
   IWAVPR =     10    prediction:  0-non 1-charg 2-wave 3-comb
   ISYM   =      2    0-nonsym 1-usesym 2-fastsym
   LCORR  =      T    Harris-Foulkes like correction to forces

   POTIM  = 0.5000    time-step for ionic-motion
   TEIN   =    0.0    initial temperature
   TEBEG  =    0.0;   TEEND  =   0.0 temperature during run
   SMASS  =  -3.00    Nose mass-parameter (am)
   estimated Nose-frequenzy (Omega)   =  0.10E-29 period in steps =****** mass=  -0.290E-26a.u.
   SCALEE = 1.0000    scale energy and forces
   NPACO  =    256;   APACO  = 16.0  distance and # of slots for P.C.
   PSTRESS=    0.0 pullay stress

  Mass of Ions in am
   POMASS =  58.69 32.07
  Ionic Valenz
   ZVAL   =  16.00  6.00
  Atomic Wigner-Seitz radii
  virtual crystal weights
   VCA    =   1.00  1.00
   NELECT =     572.0000    total number of electrons
   NUPDOWN=      -1.0000    fix difference up-down

 DOS related values:
   EMIN   =  10.00;   EMAX   =-10.00  energy-range for DOS
   EFERMI =   0.00
   ISMEAR =     0;   SIGMA  =   0.20  broadening in eV -4-tet -1-fermi 0-gaus

 Electronic relaxation 2 (details)
   IALGO  =     38    algorithm
   LDIAG  =      T    sub-space diagonalisation (order eigenvalues)
   LSUBROT=      F    optimize rotation matrix (better conditioning)
   TURBO    =      0    0=normal 1=particle mesh
   IRESTART =      0    0=no restart 2=restart with 2 vectors
   NREBOOT  =      0    no. of reboots
   NMIN     =      0    reboot dimension
   EREF     =   0.00    reference energy to select bands
   IMIX   =      4    mixing-type and parameters
     AMIX     =   0.40;   BMIX     =  1.00
     AMIX_MAG =   1.60;   BMIX_MAG =  1.00
     AMIN     =   0.10
     WC   =   100.;   INIMIX=   1;  MIXPRE=   1;  MAXMIX= -45

 Intra band minimization:
   WEIMIN = 0.0000     energy-eigenvalue tresh-hold
   EBREAK =  0.73E-07  absolut break condition
   DEPER  =   0.30     relativ break condition

   TIME   =   0.40     timestep for ELM

  volume/ion in A,a.u.               =      35.65       240.56
  Fermi-wavevector in a.u.,A,eV,Ry     =   1.106272  2.090552 16.651337  1.223839
  Thomas-Fermi vector in A             =   2.242771

 Write flags
   LWAVE        =      F    write WAVECAR
   LDOWNSAMPLE  =      F    k-point downsampling of WAVECAR
   LCHARG       =      F    write CHGCAR
   LVTOT        =      F    write LOCPOT, total local potential
   LVHAR        =      F    write LOCPOT, Hartree potential only
   LELF         =      F    write electronic localiz. function (ELF)
[...]
      26 -87.1512      27 -92.4467      28 -93.4468      29 -92.3378      30 -93.2925
      31 -92.4467      32 -93.4468      33 -92.3378      34 -93.2924      35 -92.4316
      36 -93.0646      37 -92.2382      38 -94.1027      39 -92.7342      40 -92.4467
      41 -93.4468      42 -92.3378      43 -93.2925      44 -92.4467      45 -93.4468
      46 -92.3378      47 -93.2924      48 -92.4316      49 -93.0646      50 -92.2382
      51 -94.1027      52 -92.7342

 E-fermi :  -0.3167     XC(G=0):  -5.4989     alpha+bet : -5.1393

 k-point     1 :       0.0000    0.0000    0.0000
  band No.  band energies     occupation
      1     -64.9348      2.00000
      2     -64.9346      2.00000
      3     -64.9172      2.00000
      4     -64.9171      2.00000
      5     -64.8419      2.00000
      6     -64.8417      2.00000
      7     -64.8345      2.00000
      8     -64.8345      2.00000
      9     -64.8200      2.00000
     10     -64.8200      2.00000
     11     -64.7630      2.00000
     12     -64.7629      2.00000
     13     -64.7533      2.00000
     14     -64.7533      2.00000
     15     -64.7296      2.00000
     16     -64.7295      2.00000
     17     -64.7176      2.00000
     18     -64.7176      2.00000
     19     -64.6965      2.00000
     20     -64.6964      2.00000
     21     -64.6863      2.00000
     22     -64.6863      2.00000
     23     -64.6486      2.00000
     24     -64.6485      2.00000
     25     -64.6411      2.00000
     26     -64.6410      2.00000
     27     -64.6399      2.00000
     28     -64.6398      2.00000
     29     -64.6389      2.00000
     30     -64.6389      2.00000
     31     -64.6322      2.00000
     32     -64.6322      2.00000
     33     -64.6081      2.00000
     34     -64.6081      2.00000
     35     -64.6080      2.00000
     36     -64.6080      2.00000
     37     -64.6064      2.00000
     38     -64.6064      2.00000
     39     -64.5871      2.00000
     40     -64.5871      2.00000
     41     -64.5715      2.00000
     42     -64.5715      2.00000
     43     -64.5340      2.00000
     44     -64.5340      2.00000
     45     -64.4156      2.00000
     46     -64.4155      2.00000
     47     -64.3627      2.00000
     48     -64.3627      2.00000
     49     -64.3561      2.00000
     50     -64.3560      2.00000
     51     -64.3383      2.00000
     52     -64.3382      2.00000
     53     -64.3338      2.00000
     54     -64.3338      2.00000
     55     -64.3281      2.00000
     56     -64.3278      2.00000
     57     -64.3098      2.00000
     58     -64.3098      2.00000
     59     -64.3087      2.00000
     60     -64.3084      2.00000
[...]
    330       4.9382      0.00000
    331       5.0148      0.00000
    332       5.0453      0.00000
    333       5.0784      0.00000
    334       5.1446      0.00000
    335       5.1811      0.00000
    336       5.2802      0.00000
    337       5.2842      0.00000
    338       5.2944      0.00000
    339       5.4218      0.00000
    340       5.4259      0.00000
    341       5.4811      0.00000
    342       5.4982      0.00000
    343       5.5038      0.00000
    344       5.7428      0.00000

 soft charge-density along one line, spin component           1
         0         1         2         3         4         5         6         7         8         9
 total charge-density along one line

------------------------ aborting loop because EDIFF is reached ----------------------------------------

  FORCE on cell =-STRESS in cart. coord.  units (eV):
  Direction    XX          YY          ZZ          XY          YZ          ZX
  Alpha Z  1046.73971  1046.73971  1046.73971
  Ewald  158315.55613154618.91262************     0.00000     0.00000  -290.06755
  Hartree182779.09260180156.07155************    -0.00186     0.00204  -223.40249
  E(xc)   -3648.08047 -3649.69057 -3651.38473    -0.00006    -0.00003     0.42198
  Local  ************************338179.58442     0.00442    -0.00400   501.75970
  n-local  -406.43731  -438.06922  -422.18070     0.00771    -0.02346     5.22300
  augment  4166.58781  4208.47569  4176.38138    -0.01655     0.00111     2.57003
  Kinetic  7994.63670  8023.29133  8044.58182    -0.00094     0.00037     8.10759
  Fock        0.00000     0.00000     0.00000     0.00000     0.00000     0.00000
  Total      77.67471    74.90101   103.53445     0.00000     0.00000     4.61227
  in kB      67.13609    64.73871    89.48727     0.00000     0.00000     3.98650

 VOLUME and BASIS-vectors are now :
  energy-cutoff  :      450.00
  volume of cell :     1853.68
      direct lattice vectors                 reciprocal lattice vectors
    11.256463038  0.000000000  0.000000000     0.088837852  0.000000000  0.000000000
     0.000000000  9.578410000  0.000000000     0.000000000  0.104401461  0.000000000
     0.000000000  0.000000000 17.192492405     0.000000000  0.000000000  0.058164923

  length of vectors
    11.256463038  9.578410000 17.192492405     0.088837852  0.104401461  0.058164923

 FORCES acting on ions
    electron-ion (+dipol)            ewald-force                    non-local-force                 convergence-correction
   0.371E+03 -.284E+03 0.136E+04   -.373E+03 0.288E+03 -.137E+04   0.157E+01 -.259E+01 0.436E+01   -.138E-01 -.944E-01 -.110E-01
   0.543E+03 -.726E+03 -.309E+04   -.545E+03 0.727E+03 0.309E+04   0.673E-01 0.109E+00 -.295E+01   0.497E-02 -.181E+00 0.116E+00
   -.261E+03 -.611E+03 0.320E+04   0.262E+03 0.617E+03 -.321E+04   0.201E-01 -.586E+01 0.525E+01   0.154E-01 0.807E-01 -.153E+00
   -.173E+03 -.687E+03 -.126E+04   0.173E+03 0.692E+03 0.127E+04   -.189E+00 -.442E+01 -.421E+01   0.953E-02 0.166E+00 -.378E-01
   0.371E+03 0.284E+03 0.136E+04   -.373E+03 -.288E+03 -.137E+04   0.157E+01 0.259E+01 0.436E+01   -.138E-01 0.944E-01 -.110E-01
   0.543E+03 0.726E+03 -.309E+04   -.545E+03 -.727E+03 0.309E+04   0.673E-01 -.109E+00 -.295E+01   0.497E-02 0.181E+00 0.116E+00
   -.261E+03 0.611E+03 0.320E+04   0.262E+03 -.617E+03 -.321E+04   0.201E-01 0.586E+01 0.525E+01   0.154E-01 -.807E-01 -.153E+00
   -.173E+03 0.687E+03 -.126E+04   0.173E+03 -.692E+03 0.127E+04   -.189E+00 0.442E+01 -.421E+01   0.953E-02 -.167E+00 -.378E-01
   -.483E+03 0.403E-02 0.212E+04   0.488E+03 0.456E-08 -.213E+04   -.406E+01 -.108E-18 0.394E+01   0.566E-01 0.137E-04 -.154E-01
   -.733E+03 0.525E-02 -.266E+04   0.741E+03 0.397E-07 0.266E+04   -.480E+01 0.000E+00 -.148E+01   0.171E-01 -.217E-05 0.656E-01
   0.394E+03 0.534E-02 0.319E+04   -.396E+03 0.237E-09 -.320E+04   0.105E+01 0.434E-18 0.534E+01   -.240E-01 -.260E-04 -.147E+00
   -.300E+03 0.495E-02 -.119E+04   0.303E+03 -.152E-07 0.119E+04   -.215E+01 0.000E+00 -.412E+01   0.341E-02 -.240E-04 0.956E-02
   0.488E+03 0.453E-02 -.341E+04   -.489E+03 -.271E-07 0.341E+04   -.734E+00 0.000E+00 0.531E+01   -.329E-01 -.120E-04 0.136E+00
   0.371E+03 -.284E+03 0.136E+04   -.373E+03 0.288E+03 -.137E+04   0.157E+01 -.259E+01 0.436E+01   -.138E-01 -.944E-01 -.110E-01
   0.543E+03 -.726E+03 -.309E+04   -.545E+03 0.727E+03 0.309E+04   0.673E-01 0.109E+00 -.295E+01   0.497E-02 -.181E+00 0.116E+00
   -.261E+03 -.611E+03 0.320E+04   0.262E+03 0.617E+03 -.321E+04   0.201E-01 -.586E+01 0.525E+01   0.154E-01 0.807E-01 -.153E+00
   -.173E+03 -.687E+03 -.126E+04   0.173E+03 0.692E+03 0.127E+04   -.189E+00 -.442E+01 -.421E+01   0.953E-02 0.166E+00 -.378E-01
   0.371E+03 0.284E+03 0.136E+04   -.373E+03 -.288E+03 -.137E+04   0.157E+01 0.259E+01 0.436E+01   -.138E-01 0.944E-01 -.110E-01
   0.543E+03 0.726E+03 -.309E+04   -.545E+03 -.727E+03 0.309E+04   0.673E-01 -.109E+00 -.295E+01   0.497E-02 0.181E+00 0.116E+00
   -.261E+03 0.611E+03 0.320E+04   0.262E+03 -.617E+03 -.321E+04   0.201E-01 0.586E+01 0.525E+01   0.154E-01 -.807E-01 -.153E+00
   -.173E+03 0.687E+03 -.126E+04   0.173E+03 -.692E+03 0.127E+04   -.189E+00 0.442E+01 -.421E+01   0.953E-02 -.167E+00 -.378E-01
   -.483E+03 0.403E-02 0.212E+04   0.488E+03 0.456E-08 -.213E+04   -.406E+01 -.108E-18 0.394E+01   0.566E-01 0.137E-04 -.154E-01
   -.733E+03 0.525E-02 -.266E+04   0.741E+03 0.397E-07 0.266E+04   -.480E+01 0.000E+00 -.148E+01   0.171E-01 -.217E-05 0.656E-01
   0.394E+03 0.534E-02 0.319E+04   -.396E+03 0.240E-09 -.320E+04   0.105E+01 0.434E-18 0.534E+01   -.240E-01 -.260E-04 -.147E+00
   -.300E+03 0.495E-02 -.119E+04   0.303E+03 -.152E-07 0.119E+04   -.215E+01 0.000E+00 -.412E+01   0.341E-02 -.240E-04 0.956E-02
   0.488E+03 0.453E-02 -.341E+04   -.489E+03 -.271E-07 0.341E+04   -.734E+00 0.000E+00 0.531E+01   -.329E-01 -.120E-04 0.136E+00
   0.237E+02 -.591E+02 0.147E+04   -.243E+02 0.594E+02 -.148E+04   0.849E+00 -.611E+00 0.347E+01   0.154E-01 0.318E-01 -.462E-01
   -.105E+03 0.859E+02 -.265E+03   0.107E+03 -.878E+02 0.264E+03   -.187E+01 0.220E+01 0.543E+00   0.500E-02 0.862E-01 0.237E-01
   -.139E+03 0.279E+03 -.170E+04   0.140E+03 -.283E+03 0.171E+04   -.585E-01 0.254E+01 -.238E+00   0.101E-01 0.412E-01 0.410E-01
   -.940E+02 0.261E+03 0.712E+03   0.942E+02 -.262E+03 -.713E+03   0.985E+00 0.219E+00 0.326E+00   -.497E-02 -.515E-01 -.450E-01
   0.237E+02 0.591E+02 0.147E+04   -.243E+02 -.594E+02 -.148E+04   0.849E+00 0.611E+00 0.347E+01   0.154E-01 -.318E-01 -.462E-01
   -.105E+03 -.859E+02 -.265E+03   0.107E+03 0.878E+02 0.264E+03   -.187E+01 -.220E+01 0.543E+00   0.500E-02 -.862E-01 0.237E-01
   -.139E+03 -.279E+03 -.170E+04   0.140E+03 0.283E+03 0.171E+04   -.585E-01 -.254E+01 -.238E+00   0.101E-01 -.412E-01 0.410E-01
   -.940E+02 -.261E+03 0.712E+03   0.942E+02 0.262E+03 -.713E+03   0.985E+00 -.219E+00 0.326E+00   -.497E-02 0.515E-01 -.450E-01
   0.969E+02 -.658E-04 0.118E+04   -.970E+02 0.517E-08 -.119E+04   -.111E+01 0.000E+00 0.488E+01   -.256E-01 0.648E-05 -.129E-01
   0.262E+03 0.132E-04 -.569E+03   -.265E+03 -.145E-08 0.572E+03   0.760E+00 0.542E-19 -.275E+01   -.241E-01 0.264E-05 0.380E-01
   0.231E+02 -.154E-04 0.185E+04   -.236E+02 0.501E-08 -.186E+04   0.318E+00 0.000E+00 0.131E+01   0.233E-01 -.579E-05 -.104E+00
   0.150E+03 0.534E-04 0.187E+03   -.150E+03 0.168E-08 -.186E+03   -.296E+01 0.000E+00 0.809E+00   -.477E-03 -.736E-05 -.548E-01
   -.219E+03 0.143E-03 -.160E+04   0.221E+03 -.886E-08 0.160E+04   0.828E+00 0.000E+00 -.303E+01   0.362E-01 -.294E-05 0.103E+00
   0.237E+02 -.591E+02 0.147E+04   -.243E+02 0.594E+02 -.148E+04   0.849E+00 -.611E+00 0.347E+01   0.154E-01 0.318E-01 -.462E-01
   -.105E+03 0.859E+02 -.265E+03   0.107E+03 -.878E+02 0.264E+03   -.187E+01 0.220E+01 0.543E+00   0.500E-02 0.862E-01 0.237E-01
   -.139E+03 0.279E+03 -.170E+04   0.140E+03 -.283E+03 0.171E+04   -.585E-01 0.254E+01 -.238E+00   0.101E-01 0.412E-01 0.410E-01
   -.940E+02 0.261E+03 0.712E+03   0.942E+02 -.262E+03 -.713E+03   0.985E+00 0.219E+00 0.326E+00   -.497E-02 -.515E-01 -.450E-01
   0.237E+02 0.591E+02 0.147E+04   -.243E+02 -.594E+02 -.148E+04   0.849E+00 0.611E+00 0.347E+01   0.154E-01 -.318E-01 -.462E-01
   -.105E+03 -.859E+02 -.265E+03   0.107E+03 0.878E+02 0.264E+03   -.187E+01 -.220E+01 0.543E+00   0.500E-02 -.862E-01 0.237E-01
   -.139E+03 -.279E+03 -.170E+04   0.140E+03 0.283E+03 0.171E+04   -.585E-01 -.254E+01 -.238E+00   0.101E-01 -.412E-01 0.410E-01
   -.940E+02 -.261E+03 0.712E+03   0.942E+02 0.262E+03 -.713E+03   0.985E+00 -.219E+00 0.326E+00   -.497E-02 0.515E-01 -.450E-01
   0.969E+02 -.658E-04 0.118E+04   -.970E+02 0.517E-08 -.119E+04   -.111E+01 0.000E+00 0.488E+01   -.256E-01 0.648E-05 -.129E-01
   0.262E+03 0.132E-04 -.569E+03   -.265E+03 -.145E-08 0.572E+03   0.760E+00 0.542E-19 -.275E+01   -.241E-01 0.264E-05 0.380E-01
   0.231E+02 -.154E-04 0.185E+04   -.236E+02 0.501E-08 -.186E+04   0.318E+00 0.000E+00 0.131E+01   0.233E-01 -.579E-05 -.104E+00
   0.150E+03 0.534E-04 0.187E+03   -.150E+03 0.168E-08 -.186E+03   -.296E+01 0.000E+00 0.809E+00   -.477E-03 -.736E-05 -.548E-01
   -.219E+03 0.143E-03 -.160E+04   0.221E+03 -.886E-08 0.160E+04   0.828E+00 0.000E+00 -.303E+01   0.362E-01 -.294E-05 0.103E+00
   0.201E+02 0.714E-01 -.462E+02   -.227E-12 0.142E-11 -.455E-11   -.202E+02 -.139E-15 0.466E+02   0.225E+00 -.107E-03 -.409E+00

 POSITION                                       TOTAL-FORCE (eV/Angst)
      4.94536      4.44331      2.79952        -0.480151      0.838422      1.919424
      5.49669      4.41459      5.56687        -1.267846      0.832547     -0.034815
      1.79386      9.29873      1.63065         0.865877      0.371408     -0.109257
      2.35499      9.38154      4.06857        -0.137713      0.988292     -0.061454
      4.94536      1.91264      2.79952        -0.480151     -0.838422      1.919424
      5.49669      1.94135      5.56687        -1.267846     -0.832547     -0.034815
      1.79386      6.63563      1.63065         0.865877     -0.371408     -0.109257
      2.35499      6.55282      4.06857        -0.137713     -0.988292     -0.061454
      1.47054      3.17797      2.39204         0.695130      0.000000      1.436773
      2.05421      3.17797      5.47658         2.370276      0.000000     -2.747907
      5.05757      7.96718      1.66996        -1.055899      0.000000      0.468512
      4.33273      7.96718      3.93314         0.794715      0.000000      0.509998
      6.44581      7.96718      5.23220        -1.553992      0.000000      0.523329
     10.57359      4.44331      2.79952        -0.480151      0.838422      1.919424
     11.12492      4.41459      5.56687        -1.267846      0.832547     -0.034815
      7.42209      9.29873      1.63065         0.865877      0.371408     -0.109257
      7.98322      9.38154      4.06857        -0.137713      0.988292     -0.061454
     10.57359      1.91264      2.79952        -0.480151     -0.838422      1.919424
     11.12492      1.94135      5.56687        -1.267846     -0.832547     -0.034815
      7.42209      6.63563      1.63065         0.865877     -0.371408     -0.109257
      7.98322      6.55282      4.06857        -0.137713     -0.988292     -0.061454
      7.09877      3.17797      2.39204         0.695130      0.000000      1.436773
      7.68244      3.17797      5.47658         2.370276      0.000000     -2.747907
     10.68580      7.96718      1.66996        -1.055899      0.000000      0.468512
      9.96096      7.96718      3.93314         0.794715      0.000000      0.509998
      0.81758      7.96718      5.23220        -1.553992      0.000000      0.523329
      0.76805      1.51733      1.37563         0.266144     -0.298021     -2.778536
      1.25497      1.56674      4.10795         0.370185      0.361534     -0.580297
      1.37442      1.87869      6.87415         0.675967     -1.186033      3.447635
      3.77725      6.35595      2.56568         1.136839     -0.956848     -1.184779
      0.76805      4.83861      1.37563         0.266144      0.298021     -2.778536
      1.25497      4.78920      4.10795         0.370185     -0.361534     -0.580297
      1.37442      4.47725      6.87415         0.675967      1.186033      3.447635
      3.77725      9.57841      2.56568         1.136839      0.956848     -1.184779
      3.53683      3.17797      1.94609        -1.205536      0.000000     -2.617006
      4.14113      3.17797      4.62682        -2.530753      0.000000     -0.039381
      0.94972      7.96718      0.31066        -0.185241      0.000000     -4.455793
      1.03518      7.96718      3.08454        -2.416295      0.000000      2.005399
      2.86978      7.96718      5.50579         2.228991      0.000000      3.680234
      6.39629      1.51733      1.37563         0.266144     -0.298021     -2.778536
      6.88320      1.56674      4.10795         0.370185      0.361534     -0.580297
      7.00265      1.87869      6.87415         0.675967     -1.186033      3.447635
      9.40548      6.35595      2.56568         1.136839     -0.956848     -1.184779
      6.39629      4.83861      1.37563         0.266144      0.298021     -2.778536
      6.88320      4.78920      4.10795         0.370185     -0.361534     -0.580297
      7.00265      4.47725      6.87415         0.675967      1.186033      3.447635
      9.40548      9.57841      2.56568         1.136839      0.956848     -1.184779
      9.16506      3.17797      1.94609        -1.205536      0.000000     -2.617006
      9.76936      3.17797      4.62682        -2.530753      0.000000     -0.039381
      6.57795      7.96718      0.31066        -0.185241      0.000000     -4.455793
      6.66341      7.96718      3.08454        -2.416295      0.000000      2.005399
      8.49801      7.96718      5.50579         2.228991      0.000000      3.680234
    total drift:                                0.086419      0.071273      0.025797

  FREE ENERGIE OF THE ION-ELECTRON SYSTEM (eV)
  free  energy   TOTEN  =      -247.10573358 eV

  energy  without entropy=     -246.20680017  energy(sigma->0) =     -246.65626688