 vasp.6.1.0 28Jan20 (build Mar 31 2020 17:42:31) gamma-only

 executed on             LinuxIFC date 2020.04.13  02:10:04

 INCAR:
 POTCAR:    PAW_PBE Ni_pv 06Sep2000
 POTCAR:    PAW_PBE S 06Sep2000
 POTCAR:    PAW_PBE Ni_pv 06Sep2000
   VRHFIN =Ni:

   TITEL  = PAW_PBE Ni_pv 06Sep2000
   POMASS =   58.690; ZVAL   =   16.000    mass and valenz
   ENMAX  =  367.986; ENMIN  =  275.989 eV

 POTCAR:    PAW_PBE S 06Sep2000
   VRHFIN =S : s2p4

   TITEL  = PAW_PBE S 06Sep2000
   POMASS =   32.066; ZVAL   =    6.000    mass and valenz
   ENMAX  =  258.689; ENMIN  =  194.016 eV

 Optimization of the real space projectors (new method)

 maximal supplied QI-value         = 18.90
 optimisation between [QCUT,QGAM] = [ 10.77, 21.73] = [ 32.49,132.25] Ry
 Optimized for a Real-space Cutoff    1.38 Angstroem

   l    n(q)    QCUT    max X(q) W(low)/X(q) W(high)/X(q)  e(spline)
   1      8    10.771     2.836    0.40E-04    0.29E-04    0.12E-06
   1      8    10.771     4.023    0.10E-03    0.48E-04    0.29E-06
   2      8    10.771    73.368    0.42E-03    0.97E-04    0.44E-06
   2      8    10.771    69.010    0.42E-03    0.99E-04    0.45E-06
   0      9    10.771    54.797    0.10E-03    0.56E-04    0.74E-07
   0      9    10.771    24.266    0.89E-04    0.49E-04    0.67E-07
 Optimization of the real space projectors (new method)

 maximal supplied QI-value         = 19.84
 optimisation between [QCUT,QGAM] = [ 10.71, 21.63] = [ 32.15,130.99] Ry
 Optimized for a Real-space Cutoff    1.19 Angstroem

   l    n(q)    QCUT    max X(q) W(low)/X(q) W(high)/X(q)  e(spline)
   0      8    10.715   187.594    0.41E-03    0.53E-04    0.66E-07
   0      8    10.715   164.243    0.41E-03    0.53E-04    0.65E-07
   1      7    10.715    67.533    0.19E-03    0.59E-03    0.68E-07
   1      7    10.715    50.729    0.19E-03    0.58E-03    0.67E-07
  PAW_PBE Ni_pv 06Sep2000               :
  PAW_PBE S 06Sep2000                   :

 POSCAR: Structure 2 made from 011-7.xsd file
  positions in direct lattice
 exchange correlation table for  LEXCH =        8
   RHO(1)=    0.500       N(1)  =     2000
   RHO(2)=  100.500       N(2)  =     4000

 ion  position               nearest neighbor table
   1  0.199  0.551  0.089-  41 2.25  49 2.26  50 2.36  61 2.36  25 2.53  13 2.53
   2  0.136  0.426  0.223-  42 2.25  50 2.26  61 2.26  51 2.36  62 2.36  14 2.53  26 2.53
   3  0.074  0.301  0.357-  43 2.25  51 2.26  62 2.26  52 2.36  63 2.36  15 2.53  27 2.53
   4  0.011  0.176  0.491-  44 2.25  63 2.26  52 2.26  64 2.36  28 2.53  16 2.53
   5  0.887  0.927  0.045-  45 2.25  65 2.36  53 2.36  29 2.53
   6  0.824  0.801  0.178-  46 2.25  65 2.26  53 2.26  66 2.36  54 2.36  17 2.53  30 2.53
   7  0.761  0.676  0.312-  47 2.25  54 2.26  66 2.26  55 2.36  67 2.36  31 2.53  18 2.53
   8  0.699  0.551  0.446-  48 2.25  55 2.26  67 2.26  56 2.36  68 2.36  32 2.53  19 2.53
   9  0.574  0.302  0.000-  69 2.36  57 2.36  33 2.53
  10  0.512  0.176  0.134-  37 2.25  69 2.26  57 2.26  70 2.36  58 2.36  21 2.53  34 2.53
  11  0.449  0.051  0.268-  38 2.25  70 2.26  58 2.26  71 2.36  59 2.36  35 2.53  22 2.53
  12  0.386  0.926  0.401-  39 2.25  59 2.26  71 2.26  60 2.36  72 2.36  23 2.53  36 2.53
  13  0.216  0.320  0.054-  37 2.36  61 2.36  25 2.53   1 2.53
  14  0.153  0.195  0.188-  53 2.25  61 2.26  37 2.26  38 2.36  62 2.36   2 2.53  26 2.53
  15  0.090  0.070  0.321-  54 2.25  62 2.26  38 2.26  39 2.36  63 2.36   3 2.53  27 2.53
  16  0.028  0.944  0.455-  55 2.25  39 2.26  63 2.26  64 2.36  40 2.36  28 2.53   4 2.53
  17  0.841  0.570  0.143-  57 2.25  65 2.26  41 2.26  66 2.36  42 2.36   6 2.53  30 2.53
  18  0.778  0.445  0.277-  58 2.25  42 2.26  66 2.26  43 2.36  67 2.36  31 2.53   7 2.53
  19  0.715  0.320  0.411-  59 2.25  43 2.26  67 2.26  44 2.36  68 2.36  32 2.53   8 2.53
  20  0.653  0.194  0.544-  60 2.25  68 2.26  44 2.26
  21  0.528  0.945  0.098-  49 2.25  45 2.26  69 2.26  46 2.36  70 2.36  10 2.53  34 2.53
  22  0.465  0.820  0.232-  50 2.25  46 2.26  70 2.26  71 2.36  47 2.36  35 2.53  11 2.53
  23  0.403  0.695  0.366-  51 2.25  71 2.26  47 2.26  72 2.36  48 2.36  12 2.53  36 2.53
  24  0.340  0.569  0.500-  52 2.25  48 2.26  72 2.26
  25  0.463  0.551  0.089-  65 2.25  49 2.26  50 2.36  37 2.36   1 2.53  13 2.53
  26  0.401  0.426  0.223-  66 2.25  50 2.26  37 2.26  38 2.36  51 2.36  14 2.53   2 2.53
  27  0.338  0.301  0.357-  67 2.25  51 2.26  38 2.26  52 2.36  39 2.36  15 2.53   3 2.53
  28  0.275  0.176  0.491-  68 2.25  39 2.26  52 2.26  40 2.36   4 2.53  16 2.53
  29  0.151  0.927  0.045-  69 2.25  53 2.36  41 2.36   5 2.53
  30  0.088  0.801  0.178-  70 2.25  41 2.26  53 2.26  42 2.36  54 2.36   6 2.53  17 2.53
  31  0.026  0.676  0.312-  71 2.25  54 2.26  42 2.26  55 2.36  43 2.36   7 2.53  18 2.53
  32  0.963  0.551  0.446-  72 2.25  55 2.26  43 2.26  44 2.36  56 2.36   8 2.53  19 2.53
  33  0.838  0.302  0.000-  45 2.36  57 2.36   9 2.53
  34  0.776  0.176  0.134-  61 2.25  45 2.26  57 2.26  46 2.36  58 2.36  21 2.53  10 2.53
  35  0.713  0.051  0.268-  62 2.25  58 2.26  46 2.26  59 2.36  47 2.36  22 2.53  11 2.53
  36  0.651  0.926  0.401-  63 2.25  59 2.26  47 2.26  60 2.36  48 2.36  12 2.53  23 2.53
  37  0.379  0.311  0.133-  10 2.25  14 2.26  26 2.26  13 2.36  25 2.36
  38  0.316  0.185  0.266-  11 2.25  15 2.26  27 2.26  14 2.36  26 2.36
  39  0.254  0.060  0.400-  12 2.25  16 2.26  28 2.26  27 2.36  15 2.36
  40  0.191  0.935  0.534-  28 2.36  16 2.36
  41  0.067  0.686  0.088-   1 2.25  30 2.26  17 2.26  29 2.36
  42  0.004  0.560  0.222-   2 2.25  18 2.26  31 2.26  30 2.36  17 2.36
  43  0.941  0.435  0.356-   3 2.25  19 2.26  32 2.26  18 2.36  31 2.36
  44  0.879  0.310  0.489-   4 2.25  20 2.26  19 2.36  32 2.36
  45  0.754  0.061  0.043-   5 2.25  34 2.26  21 2.26  33 2.36
  46  0.691  0.936  0.177-   6 2.25  35 2.26  22 2.26  34 2.36  21 2.36
  47  0.629  0.810  0.311-   7 2.25  23 2.26  36 2.26  22 2.36  35 2.36
  48  0.566  0.685  0.445-   8 2.25  24 2.26  36 2.36  23 2.36
  49  0.421  0.730  0.044-  21 2.25  25 2.26   1 2.26
  50  0.358  0.605  0.178-  22 2.25  26 2.26   2 2.26  25 2.36   1 2.36
  51  0.295  0.480  0.311-  23 2.25   3 2.26  27 2.26   2 2.36  26 2.36
  52  0.233  0.354  0.445-  24 2.25  28 2.26   4 2.26  27 2.36   3 2.36
  53  0.046  0.980  0.133-  14 2.25   6 2.26  30 2.26  29 2.36   5 2.36
  54  0.983  0.855  0.267-  15 2.25  31 2.26   7 2.26   6 2.36  30 2.36
  55  0.920  0.729  0.401-  16 2.25  32 2.26   8 2.26  31 2.36   7 2.36
  56  0.858  0.604  0.534-   8 2.36  32 2.36
  57  0.733  0.355  0.088-  17 2.25  10 2.26  34 2.26   9 2.36  33 2.36
  58  0.670  0.230  0.222-  18 2.25  35 2.26  11 2.26  34 2.36  10 2.36
  59  0.608  0.105  0.356-  19 2.25  12 2.26  36 2.26  35 2.36  11 2.36
  60  0.545  0.979  0.490-  20 2.25  12 2.36  36 2.36
  61  0.043  0.311  0.133-  34 2.25  14 2.26   2 2.26   1 2.36  13 2.36
  62  0.980  0.185  0.266-  35 2.25  15 2.26   3 2.26  14 2.36   2 2.36
  63  0.917  0.060  0.400-  36 2.25   4 2.26  16 2.26   3 2.36  15 2.36
  64  0.855  0.935  0.534-  16 2.36   4 2.36
  65  0.730  0.686  0.088-  25 2.25  17 2.26   6 2.26   5 2.36
  66  0.668  0.560  0.222-  26 2.25  18 2.26   7 2.26   6 2.36  17 2.36
  67  0.605  0.435  0.356-  27 2.25  19 2.26   8 2.26  18 2.36   7 2.36
  68  0.542  0.310  0.489-  28 2.25  20 2.26   8 2.36  19 2.36
  69  0.418  0.061  0.043-  29 2.25  10 2.26  21 2.26   9 2.36
  70  0.355  0.936  0.177-  30 2.25  11 2.26  22 2.26  10 2.36  21 2.36
  71  0.292  0.810  0.311-  31 2.25  23 2.26  12 2.26  22 2.36  11 2.36
  72  0.230  0.685  0.445-  32 2.25  24 2.26  12 2.36  23 2.36

  LATTYP: Found a base centered orthorhombic cell.
 ALAT       =     9.5784100000
 B/A-ratio  =     1.8519363485
 C/A-ratio  =     2.2913190917

  Lattice vectors:

 A1 = (   8.4281814759,   5.5287226424,   0.0000000000)
 A2 = (   0.0000000000, -10.0797329849,   0.0000000000)
 A3 = (   0.0000000000,   0.0000000000, -21.9471937009)

Analysis of symmetry for initial positions (statically):
 Subroutine PRICEL returns:
 Original cell was already a primitive cell.

 Routine SETGRP: Setting up the symmetry group for a
 base centered orthorhombic supercell.

 Subroutine GETGRP returns: Found  2 space group operations
 (whereof  1 operations were pure point group operations)
 out of a pool of  8 trial point group operations.

The static configuration has the point symmetry C_1 .
 The point group associated with its full space group is C_1h.

Analysis of symmetry for dynamics (positions and initial velocities):
 Subroutine PRICEL returns:
 Original cell was already a primitive cell.

 Routine SETGRP: Setting up the symmetry group for a
 base centered orthorhombic supercell.

 Subroutine GETGRP returns: Found  2 space group operations
 (whereof  1 operations were pure point group operations)
 out of a pool of  8 trial point group operations.

The dynamic configuration has the point symmetry C_1 .
 The point group associated with its full space group is C_1h.

 Subroutine INISYM returns: Found  2 space group operations
 (whereof  1 operations are pure point group operations),
 and found     1 'primitive' translations

                                     Primitive cell

  volume of cell :    1864.4979

  direct lattice vectors                    reciprocal lattice vectors
     8.428181476 -4.551010342  0.000000000     0.118649557  0.000000000  0.000000000
     0.000000000 10.079732985  0.000000000     0.053570403  0.099208977  0.000000000
     0.000000000  0.000000000 21.947193701     0.000000000  0.000000000  0.045563912

  length of vectors
     9.578410000 10.079732985 21.947193701     0.118649557  0.112748434  0.045563912

  position of ions in fractional coordinates (direct lattice)
     0.199121949  0.551417643  0.089185524
     0.136482036  0.426137817  0.222963810
     0.073842123  0.300857991  0.356742097
     0.011202210  0.175578166  0.490520383
     0.886668586  0.926510918  0.044592762
     0.824028674  0.801231092  0.178371048
     0.761388761  0.675951267  0.312149335
     0.698748848  0.550671441  0.445927621
     0.574215224  0.301604193  0.000000000
     0.511575311  0.176324367  0.133778286
     0.448935398  0.051044542  0.267556572
     0.386295486  0.925764716  0.401334859
     0.215671790  0.320311324  0.053840498
     0.153031877  0.195031499  0.187618784
     0.090391964  0.069751673  0.321397071
     0.027752051  0.944471847  0.455175357
     0.840578514  0.570124774  0.143026022
     0.777938602  0.444844948  0.276804309
     0.715298689  0.319565122  0.410582595
     0.652658776  0.194285297  0.544360881
     0.528125152  0.945218049  0.098433260
     0.465485239  0.819938223  0.232211547
     0.402845326  0.694658398  0.365989833
     0.340205414  0.569378572  0.499768119
     0.463327949  0.551417643  0.089185524
     0.400688036  0.426137817  0.222963810
     0.338048123  0.300857991  0.356742097
     0.275408210  0.175578166  0.490520383
     0.150874586  0.926510918  0.044592762
     0.088234674  0.801231092  0.178371048
     0.025594761  0.675951267  0.312149335
     0.962954848  0.550671441  0.445927621
     0.838421224  0.301604193  0.000000000
     0.775781311  0.176324367  0.133778286
[...]
  Fock        0.00000     0.00000     0.00000     0.00000     0.00000     0.00000
  Total     -27.24561   -28.80015   -28.19426    -1.18489     7.67827     4.14607
  in kB     -23.41236   -24.74819   -24.22754    -1.01819     6.59799     3.56275

 VOLUME and BASIS-vectors are now :
  energy-cutoff  :      450.00
  volume of cell :     1864.50
      direct lattice vectors                 reciprocal lattice vectors
     8.428181476 -4.551010342  0.000000000     0.118649557  0.000000000  0.000000000
     0.000000000 10.079732985  0.000000000     0.053570403  0.099208977  0.000000000
     0.000000000  0.000000000 21.947193701     0.000000000  0.000000000  0.045563912

  length of vectors
     9.578410000 10.079732985 21.947193701     0.118649557  0.112748434  0.045563912

 FORCES acting on ions
    electron-ion (+dipol)            ewald-force                    non-local-force                 convergence-correction
   0.261E+03 -.441E+03 0.424E+04   -.259E+03 0.443E+03 -.424E+04   -.156E+01 -.187E+01 0.281E+01   -.147E-01 0.984E-02 0.215E-01
   0.271E+03 -.432E+03 0.979E+03   -.271E+03 0.433E+03 -.980E+03   -.134E+00 -.147E+01 0.804E+00   -.501E-02 0.384E-03 0.308E-01
   0.271E+03 -.440E+03 -.211E+04   -.272E+03 0.441E+03 0.211E+04   0.667E+00 -.110E+01 0.143E+01   -.267E-02 -.109E-01 -.705E-02
   0.253E+03 -.361E+03 -.493E+04   -.257E+03 0.359E+03 0.493E+04   0.322E+01 0.188E+01 -.413E+00   -.126E-01 0.101E-02 -.888E-02
   0.190E+03 0.220E+02 0.497E+04   -.191E+03 -.210E+02 -.496E+04   0.864E+00 -.800E+00 -.475E+01   0.613E-02 -.716E-02 0.348E-02
   0.275E+03 -.364E+03 0.208E+04   -.276E+03 0.365E+03 -.208E+04   0.633E+00 -.836E+00 0.154E+01   0.268E-02 0.354E-02 0.316E-01
   0.293E+03 -.425E+03 -.112E+04   -.293E+03 0.426E+03 0.111E+04   0.407E+00 -.134E+01 0.806E+00   0.361E-02 0.985E-02 0.322E-02
   0.308E+03 -.497E+03 -.423E+04   -.308E+03 0.498E+03 0.423E+04   -.169E+00 -.140E+01 -.330E+01   -.381E-02 0.607E-02 -.485E-02
   0.238E+03 -.450E+03 0.506E+04   -.234E+03 0.440E+03 -.505E+04   -.450E+01 0.889E+01 -.668E+01   0.157E-01 -.198E-02 -.109E-01
   0.298E+03 -.412E+03 0.296E+04   -.298E+03 0.413E+03 -.296E+04   0.802E+00 -.113E+01 0.161E+01   0.112E-01 0.321E-02 0.335E-01
   0.295E+03 -.390E+03 -.808E+02   -.295E+03 0.391E+03 0.801E+02   0.409E+00 -.135E+01 0.622E+00   0.622E-03 0.598E-03 0.111E-01
   0.306E+03 -.239E+03 -.333E+04   -.306E+03 0.240E+03 0.333E+04   0.532E+00 -.782E+00 -.161E+01   -.142E-02 -.206E-03 -.357E-02
   0.162E+03 0.301E+03 0.506E+04   -.159E+03 -.294E+03 -.505E+04   -.369E+01 -.683E+01 -.885E+01   -.342E-02 -.634E-02 0.601E-02
   0.237E+03 0.440E+03 0.207E+04   -.238E+03 -.440E+03 -.207E+04   0.445E+00 0.824E+00 0.731E+00   -.214E-02 -.396E-02 0.407E-01
   0.246E+03 0.455E+03 -.103E+04   -.246E+03 -.456E+03 0.103E+04   0.517E+00 0.958E+00 0.362E+00   -.411E-02 -.761E-02 0.366E-02
   0.298E+03 0.552E+03 -.408E+04   -.299E+03 -.553E+03 0.408E+04   0.104E+01 0.193E+01 -.412E+01   -.334E-02 -.618E-02 -.115E-01
   0.178E+03 0.330E+03 0.324E+04   -.178E+03 -.330E+03 -.325E+04   0.179E-01 0.331E-01 0.269E+01   -.348E-02 -.644E-02 0.243E-01
   0.225E+03 0.417E+03 -.170E+01   -.225E+03 -.417E+03 0.773E+00   0.424E+00 0.785E+00 0.942E+00   -.247E-02 -.457E-02 0.590E-02
   0.215E+03 0.399E+03 -.307E+04   -.216E+03 -.400E+03 0.307E+04   0.742E+00 0.137E+01 0.604E-01   -.817E-02 -.151E-01 -.860E-02
   0.712E+02 0.132E+03 -.514E+04   -.704E+02 -.130E+03 0.512E+04   -.812E+00 -.150E+01 0.127E+02   -.232E-02 -.430E-02 -.133E-01
   0.275E+03 0.510E+03 0.410E+04   -.277E+03 -.513E+03 -.411E+04   0.165E+01 0.305E+01 0.328E+01   0.826E-02 0.153E-01 0.327E-01
   0.245E+03 0.454E+03 0.102E+04   -.246E+03 -.455E+03 -.102E+04   0.512E+00 0.948E+00 0.121E+01   0.283E-02 0.524E-02 0.313E-01
   0.214E+03 0.396E+03 -.222E+04   -.215E+03 -.397E+03 0.223E+04   0.797E+00 0.148E+01 -.825E+00   -.268E-03 -.497E-03 -.513E-02
   -.713E+02 -.132E+03 -.510E+04   0.729E+02 0.135E+03 0.509E+04   -.152E+01 -.281E+01 0.115E+02   0.522E-02 0.967E-02 -.142E-01
   -.512E+03 -.236E+02 0.424E+04   0.513E+03 0.265E+02 -.424E+04   -.709E+00 -.234E+01 0.281E+01   0.163E-01 -.690E-02 0.215E-01
   -.510E+03 -.100E+02 0.979E+03   0.511E+03 0.111E+02 -.980E+03   -.116E+01 -.921E+00 0.804E+00   0.307E-02 -.398E-02 0.308E-01
   -.517E+03 -.145E+02 -.211E+04   0.518E+03 0.146E+02 0.211E+04   -.128E+01 -.448E-01 0.143E+01   -.768E-02 -.823E-02 -.705E-02
   -.441E+03 0.136E+02 -.493E+04   0.442E+03 -.180E+02 0.493E+04   -.193E+00 0.373E+01 -.413E+00   0.775E-02 -.997E-02 -.888E-02
   -.859E+02 0.171E+03 0.497E+04   0.874E+02 -.171E+03 -.496E+04   -.114E+01 0.284E+00 -.475E+01   -.935E-02 0.120E-02 0.348E-02
   -.456E+03 0.300E+02 0.208E+04   0.457E+03 -.301E+02 -.208E+04   -.105E+01 0.713E-01 0.154E+01   0.149E-02 0.418E-02 0.316E-01
   -.516E+03 0.118E+02 -.112E+04   0.517E+03 -.114E+02 0.111E+04   -.134E+01 -.394E+00 0.806E+00   0.626E-02 0.842E-02 0.322E-02
   -.585E+03 -.149E+02 -.423E+04   0.586E+03 0.160E+02 0.423E+04   -.108E+01 -.910E+00 -.330E+01   0.716E-02 0.150E-03 -.485E-02
   -.507E+03 -.474E+02 0.506E+04   0.496E+03 0.457E+02 -.505E+04   0.990E+01 0.112E+01 -.668E+01   -.103E-01 0.121E-01 -.109E-01
   -.508E+03 0.229E+02 0.296E+04   0.509E+03 -.230E+02 -.296E+04   -.139E+01 0.479E-01 0.161E+01   -.344E-02 0.111E-01 0.335E-01
   -.488E+03 0.328E+02 -.808E+02   0.489E+03 -.324E+02 0.801E+02   -.135E+01 -.396E+00 0.622E+00   0.158E-03 0.849E-03 0.111E-01
   -.368E+03 0.124E+03 -.333E+04   0.368E+03 -.124E+03 0.333E+04   -.946E+00 0.161E-01 -.161E+01   0.610E-03 -.130E-02 -.357E-02
   -.958E+02 0.986E+02 0.126E+04   0.970E+02 -.100E+03 -.126E+04   -.105E+01 0.227E+01 -.837E+00   0.644E-02 -.800E-02 0.144E-01
   -.957E+02 0.125E+03 0.103E+03   0.970E+02 -.127E+03 -.104E+03   -.126E+01 0.206E+01 0.109E+01   -.254E-02 -.331E-02 0.651E-02
   -.950E+02 0.156E+03 -.105E+04   0.965E+02 -.158E+03 0.104E+04   -.191E+01 0.218E+01 0.842E+00   -.224E-02 -.533E-03 -.821E-02
   -.363E+02 0.250E+03 -.199E+04   0.375E+02 -.253E+03 0.199E+04   -.160E+01 0.393E+01 -.322E+01   -.816E-03 -.331E-02 0.592E-03
   -.167E+02 0.699E+02 0.174E+04   0.155E+02 -.706E+02 -.175E+04   0.152E+01 0.736E+00 0.209E+01   -.339E-02 0.366E-02 0.491E-02
   -.100E+03 0.115E+03 0.499E+03   0.101E+03 -.117E+03 -.501E+03   -.136E+01 0.196E+01 0.139E+01   -.156E-03 -.718E-03 0.954E-02
   -.107E+03 0.112E+03 -.675E+03   0.108E+03 -.114E+03 0.674E+03   -.153E+01 0.215E+01 0.401E+00   -.754E-03 -.924E-03 -.395E-02
   -.122E+03 0.114E+02 -.180E+04   0.123E+03 -.115E+02 0.180E+04   -.153E+01 0.195E+00 -.139E+01   -.142E-03 -.138E-02 -.541E-02
   -.259E+02 0.142E+03 0.193E+04   0.256E+02 -.143E+03 -.193E+04   0.146E+01 0.149E+01 0.168E+01   0.453E-02 0.374E-02 0.217E-02
   -.943E+02 0.143E+03 0.876E+03   0.956E+02 -.144E+03 -.877E+03   -.143E+01 0.194E+01 0.101E+01   0.309E-02 0.314E-02 0.146E-01
   -.884E+02 0.127E+03 -.305E+03   0.895E+02 -.129E+03 0.305E+03   -.121E+01 0.222E+01 0.298E+00   -.528E-03 0.368E-03 0.599E-03
   -.792E+02 0.751E+01 -.160E+04   0.800E+02 -.740E+01 0.160E+04   -.159E+01 0.888E-01 -.143E+01   0.756E-03 0.478E-02 -.530E-02
   -.343E+02 -.636E+02 0.201E+04   0.346E+02 0.641E+02 -.202E+04   -.735E+00 -.136E+01 0.439E+01   0.707E-03 0.131E-02 -.237E-02
   -.820E+02 -.152E+03 0.801E+03   0.830E+02 0.154E+03 -.800E+03   -.114E+01 -.212E+01 0.228E+00   0.805E-03 0.149E-02 0.180E-01
   -.881E+02 -.163E+03 -.385E+03   0.892E+02 0.165E+03 0.385E+03   -.114E+01 -.211E+01 -.658E+00   0.160E-02 0.296E-02 0.845E-03
   -.106E+03 -.196E+03 -.150E+04   0.107E+03 0.198E+03 0.150E+04   -.105E+01 -.194E+01 0.547E-01   0.213E-03 0.394E-03 -.733E-02
   -.634E+02 -.117E+03 0.120E+04   0.640E+02 0.119E+03 -.120E+04   -.644E+00 -.119E+01 -.193E+01   -.123E-02 -.227E-02 0.879E-02
   -.773E+02 -.143E+03 0.145E+02   0.786E+02 0.146E+03 -.141E+02   -.133E+01 -.247E+01 -.305E+00   0.189E-02 0.351E-02 0.954E-02
   -.797E+02 -.148E+03 -.116E+04   0.808E+02 0.150E+03 0.116E+04   -.121E+01 -.223E+01 -.131E+01   0.298E-02 0.552E-02 -.721E-02
   -.503E+02 -.932E+02 -.207E+04   0.508E+02 0.940E+02 0.207E+04   -.496E+00 -.919E+00 -.489E+01   0.175E-02 0.323E-02 0.377E-02
   -.111E+03 -.206E+03 0.150E+04   0.112E+03 0.207E+03 -.150E+04   -.818E+00 -.151E+01 -.197E+01   -.215E-02 -.398E-02 0.632E-02
   -.821E+02 -.152E+03 0.391E+03   0.833E+02 0.154E+03 -.391E+03   -.124E+01 -.230E+01 -.485E+00   -.124E-02 -.229E-02 0.372E-02
   -.701E+02 -.130E+03 -.769E+03   0.712E+02 0.132E+03 0.770E+03   -.121E+01 -.223E+01 -.957E+00   0.719E-03 0.133E-02 -.256E-02
   0.740E+02 0.137E+03 -.188E+04   -.754E+02 -.140E+03 0.188E+04   0.137E+01 0.254E+01 -.303E+01   -.196E-02 -.364E-02 -.446E-02
   0.135E+03 -.260E+02 0.126E+04   -.137E+03 0.260E+02 -.126E+04   0.247E+01 0.363E+00 -.837E+00   -.102E-01 0.100E-02 0.144E-01
   0.157E+03 -.114E+02 0.103E+03   -.160E+03 0.113E+02 -.104E+03   0.242E+01 0.772E-01 0.109E+01   -.138E-02 -.394E-02 0.651E-02
   0.183E+03 0.618E+01 -.105E+04   -.185E+03 -.617E+01 0.104E+04   0.287E+01 -.405E+00 0.842E+00   0.781E-03 -.216E-02 -.821E-02
   0.229E+03 0.107E+03 -.199E+04   -.232E+03 -.107E+03 0.199E+04   0.417E+01 0.814E+00 -.322E+01   -.232E-02 -.250E-02 0.592E-03
   0.676E+02 0.244E+02 0.174E+04   -.676E+02 -.258E+02 -.175E+04   -.216E+00 0.167E+01 0.209E+01   0.492E-02 -.824E-03 0.491E-02
   0.151E+03 -.206E+02 0.499E+03   -.153E+03 0.206E+02 -.501E+03   0.238E+01 -.595E-01 0.139E+01   -.514E-03 -.524E-03 0.954E-02
   0.152E+03 -.275E+02 -.675E+03   -.155E+03 0.276E+02 0.674E+03   0.264E+01 -.972E-01 0.401E+00   -.359E-03 -.114E-02 -.395E-02
   0.764E+02 -.956E+02 -.180E+04   -.770E+02 0.964E+02 0.180E+04   0.100E+01 -.117E+01 -.139E+01   -.108E-02 -.878E-03 -.541E-02
   0.133E+03 0.561E+02 0.193E+04   -.134E+03 -.572E+02 -.193E+04   0.443E+00 0.203E+01 0.168E+01   0.641E-03 0.584E-02 0.217E-02
   0.171E+03 -.676E+00 0.876E+03   -.173E+03 0.744E+00 -.877E+03   0.241E+01 -.136E+00 0.101E+01   0.929E-03 0.431E-02 0.146E-01
   0.154E+03 -.449E+01 -.305E+03   -.157E+03 0.425E+01 0.305E+03   0.252E+01 0.205E+00 0.298E+00   0.598E-03 -.240E-03 0.599E-03
   0.497E+02 -.621E+02 -.160E+04   -.500E+02 0.628E+02 0.160E+04   0.949E+00 -.128E+01 -.143E+01   0.358E-02 0.325E-02 -.530E-02
   -.245E+01 -.454E+01 0.137E+01   -.554E-12 -.419E-12 0.523E-11   0.246E+01 0.455E+01 -.161E+01   0.228E-02 0.423E-02 0.380E+00

 POSITION                                       TOTAL-FORCE (eV/Angst)
      1.67824      4.65194      1.95737         0.379644      0.418388      0.129538
      1.15030      3.67422      4.89343         0.135939      0.035268     -0.078973
      0.62235      2.69651      7.82949         0.192933     -0.161934      0.033754
      0.09441      1.71880     10.76555        -0.717468     -0.226872     -0.411495
      7.47300      5.30374      0.97869        -0.243175      0.223722      1.462935
      6.94506      4.32603      3.91474        -0.114462      0.105555     -0.215721
      6.41712      3.34832      6.85080         0.232181     -0.212407     -0.071797
      5.88918      2.37061      9.78686         0.215434      0.002921      0.656542
      4.83959      0.42683      0.00000         0.119107     -1.258812      1.830151
      4.31165     -0.55088      2.93606        -0.126994     -0.011713     -0.186256
      3.78371     -1.52859      5.87212         0.166803     -0.154075      0.004160
      3.25577      7.57343      8.80817         0.210494     -0.054665      0.406429
      1.81772      2.24713      1.18165        -0.053219     -0.098557      1.638774
      1.28978      1.26942      4.11771         0.070439      0.130449     -0.199528
      0.76184      0.29170      7.05376         0.067817      0.125593      0.078131
      0.23390      9.39372      9.98982         0.189144      0.350282      0.995046
      7.08455      1.92122      3.13902         0.035551      0.065838     -0.281531
      6.55661      0.94351      6.07508         0.117875      0.218298      0.018653
      6.02867     -0.03420      9.01114         0.001700      0.003148      0.232327
      5.50073     -1.01191     11.94719        -0.018523     -0.034303     -2.261285
      4.45113      7.12404      2.16033        -0.015941     -0.029521     -0.271293
      3.92319      6.14633      5.09639         0.043636      0.080810     -0.006892
      3.39525      5.16862      8.03245        -0.072383     -0.134049      0.188727
      2.86731      4.19091     10.96851         0.107101      0.198344     -2.058402
      3.90501      3.44953      1.95737         0.141602      0.546926      0.129538
      3.37707      2.47182      4.89343        -0.045073      0.133010     -0.078973
      2.84913      1.49411      7.82949        -0.241225      0.072501      0.033754
      2.32119      0.51640     10.76555         0.203831     -0.724351     -0.411495
      1.27160      8.65235      0.97869         0.320446     -0.080620      1.462935
      0.74366      7.67464      3.91474         0.151042     -0.037811     -0.215721
      0.21572      6.69693      6.85080        -0.304956      0.077633     -0.071797
      8.11596      1.16820      9.78686        -0.115723      0.181737      0.656542
      7.06637     -0.77557      0.00000        -1.117887     -0.590865      1.830151
      6.53843     -1.75329      2.93606         0.059862     -0.112611     -0.186256
      6.01049     -2.73100      5.87212        -0.220321      0.054963      0.004160
      5.48254      6.37102      8.80817        -0.161164      0.146021      0.406429
      3.19456      1.40583      2.90890         0.129785      0.499117     -1.170857
      2.66662      0.42811      5.84496         0.063587     -0.069026      0.000411
      2.13868     -0.54960      8.78102        -0.434964     -0.058379      0.005483
      1.61074      8.55242     11.71707        -0.388701      1.472046     -0.811391
      0.56115      6.60864      1.93021         0.250387     -0.004180     -0.739469
      0.03321      5.63093      4.86627        -0.056409      0.003644     -0.045209
      7.93345      0.10221      7.80233        -0.077414     -0.027480      0.137129
      7.40551     -0.87550     10.73839        -0.487009      0.089828      0.854476
      6.35592     -2.81928      0.95153         1.153214     -0.098348     -0.929102
      5.82798      6.28274      3.88759        -0.110620      0.051765      0.067160
      5.30004      5.30503      6.82364        -0.050918      0.014994      0.158430
      4.77209      4.32732      9.75970        -0.812908      0.207155      0.597215
      3.54489      5.44573      0.96062        -0.488127     -0.903980      0.518079
      3.01695      4.46802      3.89668        -0.196839     -0.364533      0.320592
      2.48901      3.49031      6.83274        -0.063733     -0.118030      0.114962
      1.96107      2.51259      9.76879         0.014177      0.026255      1.217682
      0.38353      9.67084      2.91799        -0.078977     -0.146261     -1.179583
      8.28377      4.14211      5.85405         0.005877      0.010883      0.062000
      7.75583      3.16440      8.79011        -0.095009     -0.175952      0.125560
      7.22789      2.18669     11.72617        -0.071540     -0.132488     -1.494280
      6.17830      0.24291      1.93931         0.144882      0.268312     -1.399446
      5.65036     -0.73480      4.87536        -0.015910     -0.029465     -0.012623
      5.12242     -1.71251      7.81142        -0.095048     -0.176023     -0.110234
      4.59448      7.38951     10.74748        -0.022847     -0.042310      0.397475
      0.35907      2.93692      2.90890         0.346150      0.382285     -1.170857
      8.25931     -2.59180      5.84496        -0.092593      0.015307      0.000411
      7.73137     -3.56951      8.78102         0.189764     -0.395716      0.005483
      7.20343      5.53251     11.71707         1.444055      0.482403     -0.811391
      6.15384      3.58873      1.93021        -0.140832      0.207068     -0.739469
      5.62590      2.61102      4.86627         0.033988     -0.045168     -0.045209
      5.09796      1.63331      7.80233         0.019484     -0.079802      0.137129
      4.57002      0.65559     10.73839         0.342234     -0.357942      0.854476
      3.52042     -1.28818      0.95153        -0.714770      0.910318     -0.929102
      2.99248      7.81384      3.88759         0.103958     -0.064102      0.067160
      2.46454      6.83612      6.82364         0.040466     -0.034351      0.158430
      1.93660      5.85841      9.75970         0.619092     -0.566090      0.597215
    total drift:                                0.013086      0.015051      0.132791

  FREE ENERGIE OF THE ION-ELECTRON SYSTEM (eV)
  free  energy   TOTEN  =      -355.87102811 eV

  energy  without entropy=     -354.91570796  energy(sigma->0) =     -355.39336803