 vasp.5.4.4.18Apr17-6-g9f103f2a35 (build Aug 13 2019 17:33:20) gamma-only

 executed on             LinuxIFC date 2020.05.11  21:40:58

 INCAR:
 POTCAR:    PAW_PBE Ni_pv 06Sep2000
 POTCAR:    PAW_PBE S 06Sep2000
 POTCAR:    PAW_PBE Ni_pv 06Sep2000
   VRHFIN =Ni:

   TITEL  = PAW_PBE Ni_pv 06Sep2000
   POMASS =   58.690; ZVAL   =   16.000    mass and valenz
   ENMAX  =  367.986; ENMIN  =  275.989 eV

 POTCAR:    PAW_PBE S 06Sep2000
   VRHFIN =S : s2p4

   TITEL  = PAW_PBE S 06Sep2000
   POMASS =   32.066; ZVAL   =    6.000    mass and valenz
   ENMAX  =  258.689; ENMIN  =  194.016 eV

 Optimization of the real space projectors (new method)

 maximal supplied QI-value         = 18.90
 optimisation between [QCUT,QGAM] = [ 10.77, 21.73] = [ 32.49,132.25] Ry
 Optimized for a Real-space Cutoff    1.38 Angstroem

   l    n(q)    QCUT    max X(q) W(low)/X(q) W(high)/X(q)  e(spline)
   1      8    10.771     2.836    0.40E-04    0.29E-04    0.12E-06
   1      8    10.771     4.023    0.10E-03    0.48E-04    0.29E-06
   2      8    10.771    73.368    0.42E-03    0.97E-04    0.44E-06
   2      8    10.771    69.010    0.42E-03    0.99E-04    0.45E-06
   0      9    10.771    54.797    0.10E-03    0.56E-04    0.74E-07
   0      9    10.771    24.266    0.89E-04    0.49E-04    0.67E-07
 Optimization of the real space projectors (new method)

 maximal supplied QI-value         = 19.84
 optimisation between [QCUT,QGAM] = [ 10.71, 21.63] = [ 32.15,130.99] Ry
 Optimized for a Real-space Cutoff    1.19 Angstroem

   l    n(q)    QCUT    max X(q) W(low)/X(q) W(high)/X(q)  e(spline)
   0      8    10.715   187.594    0.41E-03    0.53E-04    0.66E-07
   0      8    10.715   164.243    0.41E-03    0.53E-04    0.65E-07
   1      7    10.715    67.533    0.19E-03    0.59E-03    0.68E-07
   1      7    10.715    50.729    0.19E-03    0.58E-03    0.67E-07
  PAW_PBE Ni_pv 06Sep2000               :
  PAW_PBE S 06Sep2000                   :

 POSCAR: Type_036 Type_136
  positions in cartesian coordinates
 exchange correlation table for  LEXCH =        8
   RHO(1)=    0.500       N(1)  =     2000
   RHO(2)=  100.500       N(2)  =     4000

 ion  position               nearest neighbor table
   1  0.780  0.145  0.097-  63 2.08  50 2.08  41 2.25  51 2.36  64 2.36
   2  0.804  0.146  0.264-  51 2.04  64 2.05  42 2.08
   3  0.218  0.624  0.075-  43 2.03  44 2.09  52 2.14  61 2.22   4 2.40
   4  0.297  0.648  0.198-  62 2.06  61 2.10  52 2.12  44 2.24   3 2.40
   5  0.385  0.178  0.105-  46 2.04  47 2.10  53 2.14   6 2.42  33 2.49  29 2.53  67 2.57
   6  0.470  0.145  0.224-  68 2.11  54 2.12  47 2.25  53 2.26  67 2.26   5 2.42  30 2.53  18 2.53

   7  0.952  0.645  0.129-  66 2.07  56 2.07  48 2.25  55 2.36  65 2.36  31 2.53  19 2.53
   8  0.975  0.645  0.297-  45 2.05  65 2.06  55 2.06  49 2.10
   9  0.125  0.145  0.161-  71 2.09  57 2.10  38 2.25  10 2.36  58 2.36  72 2.36  33 2.53  21 2.53

[...]

  13  0.910  0.004  0.093-  63 2.06  56 2.10  64 2.11  38 2.20
  14  0.942  0.009  0.247-  37 2.05  38 2.11  64 2.13  55 2.17  10 2.49
  15  0.425  0.513  0.167-  39 2.09  61 2.15  53 2.25  62 2.34  40 2.36  16 2.39  34 2.41
  16  0.467  0.459  0.305-  54 2.00  62 2.04  40 2.09  15 2.39
  17  0.605  0.930  0.065-  59 2.08  41 2.23  18 2.32  67 2.32  29 2.44
  18  0.597  0.013  0.199-  68 2.10  42 2.15  59 2.25  41 2.26  67 2.26  17 2.32  28 2.45  30 2.53
                             6 2.53
  19  0.080  0.513  0.104-  43 2.06  66 2.09  57 2.10  44 2.36  65 2.36   7 2.53  31 2.53
  20  0.112  0.507  0.273-  45 2.05  65 2.06  44 2.08  58 2.15
  21  0.252  0.013  0.136-  46 2.05  71 2.10  52 2.18  47 2.36  72 2.36   9 2.53  33 2.53
  22  0.235  0.147  0.291-  58 1.98  72 2.01  47 2.04
  23  0.772  0.434  0.095-  50 2.02  51 2.15  48 2.23  69 2.25  24 2.32
  24  0.770  0.513  0.231-  70 2.02  49 2.11  51 2.25  69 2.26  48 2.26  23 2.32  36 2.53  12 2.53

  25  0.910  0.288  0.094-  50 2.06  66 2.10  51 2.10  38 2.20
  26  0.943  0.277  0.248-  37 2.05  38 2.08  51 2.17  65 2.19
  27  0.410  0.772  0.121-  39 2.03  52 2.08  67 2.34  28 2.42
  28  0.489  0.855  0.236-  68 2.01  40 2.06  67 2.11  27 2.42  18 2.45  11 2.49
  29  0.530  0.147  0.066-  53 2.03  41 2.03  67 2.06  17 2.44   5 2.53
  30  0.597  0.277  0.199-  54 2.06  42 2.12  69 2.25  41 2.26  53 2.26  18 2.53   6 2.53
  31  0.080  0.777  0.104-  43 2.05  56 2.09  71 2.11  44 2.36  55 2.36   7 2.53  19 2.53
  32  0.111  0.786  0.274-  45 2.05  55 2.05  44 2.11  72 2.14
  33  0.252  0.277  0.136-  46 2.07  57 2.11  61 2.11  34 2.36  47 2.36  58 2.36   5 2.49   9 2.53
                            21 2.53
  34  0.336  0.361  0.242-  62 2.04  47 2.09  61 2.29  33 2.36  15 2.41
  35  0.764  0.875  0.094-  63 2.03  64 2.15  59 2.17  36 2.40  48 2.45
  36  0.770  0.777  0.231-  60 2.02  49 2.11  64 2.25  59 2.26  48 2.26  35 2.40  24 2.53  12 2.53

  37  0.968  0.142  0.343-  10 2.03  26 2.05  14 2.05
  38  0.991  0.145  0.159-  26 2.08  14 2.11  13 2.20  25 2.20   9 2.25  10 2.63
  39  0.466  0.614  0.061-  27 2.03  11 2.04  15 2.09
  40  0.509  0.645  0.254-  28 2.06  16 2.09  11 2.11  12 2.25  15 2.36  62 2.75
  41  0.647  0.145  0.095-  29 2.03  17 2.23   1 2.25  18 2.26  30 2.26  42 2.71
  42  0.681  0.148  0.259-   2 2.08  30 2.12  18 2.15  41 2.71
  43  0.116  0.645  0.011-   3 2.03  31 2.05  19 2.06
  44  0.164  0.645  0.191-  20 2.08   3 2.09  32 2.11   4 2.24  31 2.36  19 2.36
  45  0.078  0.645  0.363-  20 2.05   8 2.05  32 2.05
  46  0.283  0.143  0.040-   5 2.04  21 2.05  33 2.07
  47  0.336  0.145  0.223-  22 2.04  34 2.09   5 2.10   6 2.25  33 2.36  21 2.36
  48  0.819  0.645  0.127-  23 2.23   7 2.25  24 2.26  36 2.26  35 2.45  49 2.73
  49  0.850  0.645  0.293-   8 2.10  24 2.11  36 2.11  48 2.73
  50  0.816  0.296  0.013-  23 2.02  25 2.06   1 2.08
  51  0.829  0.314  0.191-   2 2.04  25 2.10  23 2.15  26 2.17  24 2.25   1 2.36
  52  0.289  0.802  0.104-  27 2.08   4 2.12   3 2.14  21 2.18
  53  0.484  0.314  0.127-  29 2.03   5 2.14  15 2.25   6 2.26  30 2.26
  54  0.530  0.283  0.305-  16 2.00  30 2.06   6 2.12  68 2.60
  55  0.001  0.814  0.223-  32 2.05   8 2.06  14 2.17  31 2.36   7 2.36  56 2.76
  56  0.968  0.821  0.056-   7 2.07  31 2.09  13 2.10  55 2.76
  57  0.140  0.323  0.086-  19 2.10   9 2.10  33 2.11  58 2.79
  58  0.174  0.314  0.255-  22 1.98  20 2.15   9 2.36  33 2.36  57 2.79
  59  0.657  0.814  0.159-  17 2.08  11 2.13  35 2.17  18 2.25  36 2.26  12 2.26
  60  0.697  0.786  0.330-  36 2.02  12 2.03  70 2.78
  61  0.308  0.473  0.120-   4 2.10  33 2.11  15 2.15   3 2.22  34 2.29
  62  0.359  0.553  0.292-  16 2.04  34 2.04   4 2.06  15 2.34  40 2.75
  63  0.818  1.000  0.010-  35 2.03  13 2.06   1 2.08
  64  0.829  0.977  0.191-   2 2.05  13 2.11  14 2.13  35 2.15  36 2.25   1 2.36
  65  0.001  0.477  0.223-  20 2.06   8 2.06  26 2.19  19 2.36   7 2.36  66 2.77
  66  0.968  0.470  0.055-   7 2.07  19 2.09  25 2.10  65 2.77
  67  0.484  0.977  0.127-  29 2.06  28 2.11   6 2.26  18 2.26  17 2.32  27 2.34   5 2.57
  68  0.529  0.011  0.308-  28 2.01  18 2.10   6 2.11  54 2.60
  69  0.657  0.477  0.159-  23 2.25  30 2.25  24 2.26  12 2.26  70 2.78
  70  0.694  0.496  0.327-  24 2.02  12 2.03  60 2.78  69 2.78
  71  0.140  0.969  0.087-   9 2.09  21 2.10  31 2.11  72 2.78
  72  0.174  0.977  0.255-  22 2.01  10 2.11  32 2.14   9 2.36  21 2.36  71 2.78

  LATTYP: Found a simple orthorhombic cell.
 ALAT       =     9.5784100000
 B/A-ratio  =     1.6880763216
 C/A-ratio  =     1.7627867312

  Lattice vectors:

 A1 = (   0.0000000000,   9.5784100000,   0.0000000000)
 A2 = (   0.0000000000,   0.0000000000, -16.1690871197)
 A3 = ( -16.8846940542,   0.0000000000,   0.0000000000)

Analysis of symmetry for initial positions (statically):
 Subroutine PRICEL returns:
 Original cell was already a primitive cell.

 Routine SETGRP: Setting up the symmetry group for a
 simple orthorhombic supercell.

 Subroutine GETGRP returns: Found  1 space group operations
 (whereof  1 operations were pure point group operations)
 out of a pool of  8 trial point group operations.

The static configuration has the point symmetry C_1 .

Analysis of symmetry for dynamics (positions and initial velocities):
 Subroutine PRICEL returns:
 Original cell was already a primitive cell.

 Routine SETGRP: Setting up the symmetry group for a
 simple orthorhombic supercell.

 Subroutine GETGRP returns: Found  1 space group operations
 (whereof  1 operations were pure point group operations)
 out of a pool of  8 trial point group operations.

The dynamic configuration has the point symmetry C_1 .

 Subroutine INISYM returns: Found  1 space group operations
 (whereof  1 operations are pure point group operations),
 and found     1 'primitive' translations

 KPOINTS: gamma-point-only calculation. no periodi

Automatic generation of k-mesh.
Space group operators:
 irot       det(A)        alpha          n_x          n_y          n_z        tau_x        tau_y        tau_z
    1     1.000000     0.000000     1.000000     0.000000     0.000000     0.000000     0.000000     0.000000

 Subroutine IBZKPT returns following result:

 Found      1 irreducible k-points:

 Following reciprocal coordinates:
            Coordinates               Weight
  0.000000  0.000000  0.000000      1.000000

 Following cartesian coordinates:
            Coordinates               Weight
  0.000000  0.000000  0.000000      1.000000

 SYSTEM =  "Millerite NiS"
 POSCAR =  Type_036 Type_136

 Startparameter for this run:
   NWRITE =      2    write-flag & timer
   PREC   = normal    normal or accurate (medium, high low for compatibility)
   ISTART =      0    job   : 0-new  1-cont  2-samecut
   ICHARG =      2    charge: 1-file 2-atom 10-const
   ISPIN  =      1    spin polarized calculation?
   LNONCOLLINEAR =      F non collinear calculations
   LSORBIT =      F    spin-orbit coupling
   INIWAV =      1    electr: 0-lowe 1-rand  2-diag
   LASPH  =      F    aspherical Exc in radial PAW
   METAGGA=      F    non-selfconsistent MetaGGA calc.

 Electronic Relaxation 1
   ENCUT  =  450.0 eV  33.07 Ry    5.75 a.u.  29.20 16.57 27.97*2*pi/ulx,y,z
   ENINI  =  450.0     initial cutoff
   ENAUG  =  703.4 eV  augmentation charge cutoff
   NELM   =    100;   NELMIN=  2; NELMDL= -5     # of ELM steps
   EDIFF  = 0.1E-03   stopping-criterion for ELM
   LREAL  =      T    real-space projection
   NLSPLINE    = F    spline interpolate recip. space projectors
   LCOMPAT=      F    compatible to vasp.4.4
   GGA_COMPAT  = T    GGA compatible to vasp.4.4-vasp.4.6
   LMAXPAW     = -100 max onsite density
   LMAXMIX     =    2 max onsite mixed and CHGCAR
   VOSKOWN=      0    Vosko Wilk Nusair interpolation
   ROPT   =   -0.00050  -0.00050
 Ionic relaxation
   EDIFFG = 0.1E-02   stopping-criterion for IOM
   NSW    =      0    number of steps for IOM
   NBLOCK =      1;   KBLOCK =      1    inner block; outer block
   IBRION =     -1    ionic relax: 0-MD 1-quasi-New 2-CG
   NFREE  =      0    steps in history (QN), initial steepest desc. (CG)
   ISIF   =      2    stress and relaxation
   IWAVPR =     10    prediction:  0-non 1-charg 2-wave 3-comb
   ISYM   =      2    0-nonsym 1-usesym 2-fastsym
[...]
  Fock        0.00000     0.00000     0.00000     0.00000     0.00000     0.00000
  Total     115.65987   122.10296   149.86096    -1.58335     3.05951    -4.76405
  in kB      70.86327    74.81086    91.81782    -0.97010     1.87452    -2.91887

 VOLUME and BASIS-vectors are now :
  energy-cutoff  :      450.00
  volume of cell :     2615.00
      direct lattice vectors                 reciprocal lattice vectors
    16.884694054  0.000000000  0.000000000     0.059225237  0.000000000  0.000000000
     0.000000000  9.578410000  0.000000000     0.000000000  0.104401461  0.000000000
     0.000000000  0.000000000 16.169087120     0.000000000  0.000000000  0.061846411

  length of vectors
    16.884694054  9.578410000 16.169087120     0.059225237  0.104401461  0.061846411

 FORCES acting on ions
    electron-ion (+dipol)            ewald-force                    non-local-force                 convergence-correction
   0.603E+03 -.198E+03 0.210E+04   -.606E+03 0.198E+03 -.211E+04   0.316E+01 -.422E-01 0.570E+01   0.180E+00 -.302E-01 0.426E-01
   0.512E+03 -.553E+02 -.293E+04   -.516E+03 0.552E+02 0.293E+04   0.356E+01 -.435E-01 0.148E+01   0.181E-01 -.609E-02 -.693E-01
   -.462E+03 0.370E+00 0.306E+04   0.462E+03 -.106E+00 -.307E+04   0.563E+00 -.557E+00 0.875E+01   -.401E+00 -.439E-01 -.220E+00
   0.978E+02 -.566E+03 -.115E+04   -.957E+02 0.569E+03 0.116E+04   -.209E+01 -.287E+01 -.347E+01   -.445E+00 -.318E-01 0.161E+00
   0.660E+01 0.100E+03 0.254E+04   -.614E+01 -.101E+03 -.255E+04   0.976E+00 0.698E+00 0.898E+01   -.395E+00 0.310E-01 0.991E-01
   0.434E+03 0.121E+03 -.183E+04   -.437E+03 -.120E+03 0.184E+04   0.198E+01 -.122E+01 -.535E+01   0.166E+00 -.805E-01 0.441E+00
   0.594E+03 0.994E+01 0.145E+04   -.600E+03 -.995E+01 -.145E+04   0.499E+01 -.498E-01 0.452E+01   -.190E+00 0.570E-01 -.506E-01
   0.565E+03 0.465E+02 -.315E+04   -.570E+03 -.467E+02 0.316E+04   0.326E+01 0.469E-01 -.405E+01   -.212E+00 0.957E-01 -.572E-01
   0.319E+03 -.476E+02 0.103E+04   -.323E+03 0.484E+02 -.104E+04   0.414E+01 -.878E-01 0.398E+01   -.225E+00 -.444E-01 0.422E-01
   -.207E+03 -.188E+02 -.315E+04   0.205E+03 0.185E+02 0.316E+04   0.254E+01 0.381E+00 -.308E+01   -.195E+00 -.606E-01 0.593E-01
   -.303E+03 0.557E+03 0.176E+04   0.302E+03 -.558E+03 -.177E+04   0.124E+01 0.855E+00 0.704E+01   0.720E+00 0.821E-01 0.697E-01
   0.336E+03 0.176E+03 -.219E+04   -.340E+03 -.177E+03 0.220E+04   0.303E+01 0.519E+00 -.619E+01   0.377E+00 -.467E-01 0.506E-03
   -.548E+03 0.244E+03 0.256E+04   0.553E+03 -.247E+03 -.257E+04   -.461E+01 0.333E+01 0.625E+01   -.900E-01 -.864E-01 0.304E-01
   0.157E+03 0.538E+03 -.206E+04   -.156E+03 -.542E+03 0.206E+04   -.165E+01 0.299E+01 -.484E+01   0.357E-02 -.833E-02 -.140E-01
   -.312E+03 0.187E+02 0.826E+03   0.314E+03 -.197E+02 -.829E+03   -.542E+00 0.163E+01 0.253E+01   0.130E+00 -.212E+00 0.123E+00
   -.266E+03 -.987E+02 -.355E+04   0.269E+03 0.948E+02 0.354E+04   -.349E+01 0.418E+01 0.146E+01   0.236E+00 -.949E-01 0.404E+00
   -.370E+02 0.470E+03 0.357E+04   0.372E+02 -.469E+03 -.357E+04   -.871E+00 -.101E+01 -.762E+00   0.588E+00 -.283E+00 0.933E-01
   -.474E+03 0.101E+03 -.116E+04   0.479E+03 -.103E+03 0.117E+04   -.475E+01 0.319E+01 -.455E+01   0.392E+00 -.109E+00 0.234E+00
   -.599E+02 0.597E+03 0.211E+04   0.596E+02 -.602E+03 -.212E+04   0.707E+00 0.462E+01 0.452E+01   -.219E+00 -.609E-02 -.133E+00
   -.473E+03 0.432E+03 -.263E+04   0.476E+03 -.436E+03 0.263E+04   -.150E+01 0.335E+01 -.475E+01   -.205E+00 -.295E-01 0.226E-01
   -.300E+03 0.721E+03 0.124E+04   0.301E+03 -.726E+03 -.124E+04   -.445E-01 0.292E+01 0.464E+01   -.356E+00 0.133E+00 -.303E-01
   -.438E+03 0.296E+03 -.344E+04   0.438E+03 -.297E+03 0.345E+04   0.664E-01 0.125E+01 -.512E+01   -.242E+00 -.521E-01 0.141E+00
   0.565E+03 -.445E+03 0.260E+04   -.568E+03 0.448E+03 -.261E+04   0.208E+01 -.196E+01 0.729E+01   0.172E+00 0.642E-01 0.807E-01
   -.718E+02 0.326E+03 -.162E+04   0.739E+02 -.328E+03 0.163E+04   -.162E+01 0.260E+01 -.513E+01   0.855E-01 0.330E-01 -.622E-01
   -.518E+03 -.256E+03 0.253E+04   0.524E+03 0.259E+03 -.253E+04   -.478E+01 -.336E+01 0.602E+01   -.134E+00 0.436E-01 -.874E-02
   -.222E+02 -.596E+03 -.214E+04   0.240E+02 0.599E+03 0.215E+04   -.230E+01 -.263E+01 -.517E+01   -.100E+00 -.995E-01 -.377E-01
   0.382E+03 -.346E+03 0.189E+04   -.384E+03 0.346E+03 -.189E+04   0.202E+01 0.117E+01 0.323E+01   0.453E-01 0.144E+00 -.539E-01
   0.622E+03 0.116E+03 -.230E+04   -.625E+03 -.120E+03 0.230E+04   0.139E+01 0.334E+01 -.615E+01   0.433E+00 0.219E+00 0.403E+00
   0.101E+03 -.479E+03 0.360E+04   -.102E+03 0.482E+03 -.361E+04   -.830E+00 -.196E+01 0.655E+01   0.339E+00 -.132E+00 0.169E+00
   -.421E+03 -.692E+03 -.587E+03   0.425E+03 0.699E+03 0.588E+03   -.338E+01 -.618E+01 -.288E+01   0.398E+00 -.180E-01 0.336E+00
   -.189E+03 -.601E+03 0.214E+04   0.190E+03 0.606E+03 -.215E+04   -.234E+00 -.470E+01 0.483E+01   -.247E+00 0.910E-01 -.563E-01
   -.659E+03 -.324E+03 -.260E+04   0.662E+03 0.328E+03 0.260E+04   -.115E+01 -.268E+01 -.481E+01   -.236E+00 0.187E+00 0.231E-01
   0.179E+03 -.336E+03 0.163E+04   -.181E+03 0.339E+03 -.163E+04   0.170E+01 -.295E+01 0.524E+01   -.316E+00 -.468E-01 -.885E-01
   0.148E+03 -.564E+01 -.222E+04   -.147E+03 0.640E+01 0.222E+04   -.142E+01 -.850E+00 -.347E+01   -.202E+00 -.224E+00 0.174E+00
   0.161E+03 0.596E+03 0.253E+04   -.163E+03 -.599E+03 -.253E+04   0.151E+01 0.985E+00 0.780E+01   0.122E+00 -.599E-01 0.649E-01
   -.179E+03 -.223E+03 -.165E+04   0.182E+03 0.226E+03 0.166E+04   -.239E+01 -.239E+01 -.604E+01   0.127E+00 -.492E-01 -.161E+00
   0.119E+03 -.696E+02 -.171E+04   -.119E+03 0.703E+02 0.171E+04   -.148E+01 -.135E+00 -.165E+01   0.294E-01 -.443E-01 0.235E-01
   -.258E+03 -.283E+02 0.460E+03   0.259E+03 0.291E+02 -.463E+03   0.883E+00 -.708E+00 0.168E+01   -.409E-01 -.371E-01 0.756E-02
   -.619E+02 0.194E+03 0.153E+04   0.617E+02 -.195E+03 -.153E+04   0.359E+00 -.131E+00 0.177E+01   0.148E+00 -.611E-01 -.179E+00
   0.236E+02 -.423E+01 -.983E+03   -.229E+02 0.582E+01 0.988E+03   0.844E-01 -.189E+01 -.248E+01   0.167E+00 0.186E-01 0.130E+00
   -.177E+03 -.265E+03 0.966E+03   0.179E+03 0.268E+03 -.968E+03   -.113E+01 -.295E+01 0.943E+00   0.282E+00 -.689E-01 0.812E-01
   -.488E+02 -.398E+02 -.107E+04   0.499E+02 0.400E+02 0.108E+04   -.549E+00 -.305E+00 -.239E+01   0.644E-01 -.251E-01 0.173E-01
   -.103E+02 -.318E+02 0.174E+04   0.101E+02 0.321E+02 -.174E+04   0.483E+00 -.160E+00 0.198E+01   -.755E-01 0.138E-01 -.648E-01
   -.219E+03 -.592E+02 -.227E+03   0.219E+03 0.594E+02 0.231E+03   0.529E+00 0.556E-01 -.334E+01   -.122E+00 0.452E-01 -.292E-01
   -.143E+03 0.106E+02 -.173E+04   0.144E+03 -.107E+02 0.174E+04   0.128E+00 0.117E+00 -.102E+01   -.557E-01 0.522E-01 0.848E-01
   0.452E+02 0.700E+02 0.166E+04   -.456E+02 -.705E+02 -.166E+04   0.948E+00 0.328E+00 0.193E+01   -.129E+00 0.412E-01 -.612E-01
   -.120E+03 0.351E+03 -.691E+03   0.122E+03 -.354E+03 0.696E+03   -.604E+00 0.131E+01 -.369E+01   -.355E-01 -.112E-01 0.704E-01
   0.923E+01 -.175E+02 0.747E+03   -.812E+01 0.178E+02 -.751E+03   -.854E+00 0.773E-01 0.221E+01   -.626E-02 -.762E-03 0.172E-01
   -.163E+02 0.122E+02 -.124E+04   0.182E+02 -.125E+02 0.124E+04   -.106E+01 0.340E+00 -.231E+01   -.350E-01 -.390E-02 -.433E-01
   0.938E+02 -.126E+03 0.170E+04   -.938E+02 0.128E+03 -.171E+04   -.346E+00 -.574E+00 0.264E+01   0.171E-01 0.299E-01 0.153E-01
   0.127E+03 -.169E+03 -.313E+03   -.127E+03 0.170E+03 0.316E+03   -.532E+00 0.534E+00 -.211E+01   -.350E-01 0.365E-01 -.268E-01
   -.209E+02 -.193E+03 0.860E+03   0.226E+02 0.194E+03 -.863E+03   -.621E+00 0.495E+00 0.203E+01   -.234E+00 0.536E-01 -.797E-01
   -.871E+02 -.366E+03 0.739E+03   0.870E+02 0.369E+03 -.742E+03   -.186E+00 -.516E+00 0.249E+01   0.318E-01 0.625E-01 0.121E+00
   -.146E+03 0.402E+02 -.145E+04   0.147E+03 -.376E+02 0.146E+04   -.108E+01 -.202E+01 -.235E+01   0.775E-01 -.587E-01 0.914E-01
   0.118E+03 -.132E+03 -.385E+03   -.119E+03 0.134E+03 0.384E+03   0.117E+00 -.834E+00 -.343E+00   -.578E-01 0.264E-01 -.145E-01
   0.598E+02 -.561E+02 0.137E+04   -.613E+02 0.554E+02 -.138E+04   0.899E+00 0.135E+01 0.419E+01   -.458E-01 -.473E-02 0.543E-03
   0.775E+02 0.387E+02 0.117E+04   -.786E+02 -.403E+02 -.118E+04   0.591E+00 0.122E+01 0.448E+01   -.368E-01 -.918E-02 -.350E-01
   0.475E+02 -.202E+03 -.860E+03   -.489E+02 0.205E+03 0.861E+03   0.245E+00 -.111E+01 -.344E+00   -.654E-01 -.650E-01 0.151E-01
   -.705E+02 0.143E+03 0.206E+03   0.699E+02 -.142E+03 -.206E+03   0.804E+00 -.365E+00 -.230E+00   0.140E+00 0.325E-01 -.704E-02
   0.535E+02 -.217E+03 -.158E+04   -.546E+02 0.221E+03 0.158E+04   0.472E+00 -.236E+01 -.777E+00   0.654E-01 -.103E-01 -.130E-01
   -.327E+02 0.544E+01 0.923E+03   0.330E+02 -.619E+01 -.930E+03   -.392E+00 -.491E-01 0.466E+01   -.166E+00 -.108E+00 -.823E-01
   0.166E+03 -.320E+03 -.141E+04   -.168E+03 0.322E+03 0.142E+04   0.977E+00 -.218E+00 -.253E+01   -.207E-01 -.195E-02 0.207E+00
   0.973E+01 0.985E+02 0.173E+04   -.952E+01 -.995E+02 -.174E+04   -.415E+00 0.254E+00 0.269E+01   0.658E-02 -.323E-01 0.153E-01
   0.950E+02 0.162E+03 -.321E+03   -.951E+02 -.163E+03 0.325E+03   -.824E+00 -.588E+00 -.204E+01   -.146E-01 -.325E-01 -.223E-01
   0.116E+03 0.186E+03 -.412E+03   -.117E+03 -.188E+03 0.412E+03   0.163E+00 0.923E+00 -.444E+00   -.108E+00 0.136E-01 -.335E-01
   0.631E+02 0.613E+02 0.137E+04   -.647E+02 -.608E+02 -.138E+04   0.122E+01 -.117E+01 0.407E+01   -.682E-01 0.100E-01 -.159E-01
   0.317E+03 0.149E+03 0.691E+03   -.321E+03 -.151E+03 -.694E+03   0.162E+01 -.196E-01 0.477E+00   0.125E+00 -.301E-01 0.136E+00
   0.597E+01 0.260E+02 -.163E+04   -.532E+01 -.280E+02 0.164E+04   -.654E+00 0.161E+01 -.274E+01   0.769E-01 0.346E-01 0.575E-01
   0.180E+03 0.311E+02 0.449E+03   -.183E+03 -.318E+02 -.452E+03   0.199E+01 0.327E+00 0.247E+01   0.186E+00 0.310E-01 0.322E-01
   0.599E+02 0.245E+03 -.152E+04   -.609E+02 -.248E+03 0.152E+04   0.357E+00 0.238E+01 -.100E+01   0.806E-01 -.514E-02 -.353E-02
   0.296E+02 -.275E+00 0.116E+04   -.310E+02 0.116E+01 -.117E+04   0.705E+00 -.912E+00 0.375E+01   -.108E+00 -.140E-01 -.314E-01
   -.254E+03 0.298E+03 -.798E+03   0.255E+03 -.302E+03 0.800E+03   -.837E+00 0.141E+01 -.804E+00   -.140E+00 0.210E-01 0.649E-01
   -.332E+01 0.248E+01 -.394E+02   -.142E-12 -.114E-12 -.546E-11   0.326E+01 -.176E+01 0.368E+02   0.205E-01 -.777E+00 0.262E+01

 POSITION                                       TOTAL-FORCE (eV/Angst)
     13.17084      1.39171      1.57080         0.281813      0.264935      0.972311
     13.57140      1.39434      4.27357        -0.045366     -0.103900      0.983114
      3.67930      5.97701      1.21324         0.871799     -0.335146     -0.251566
      5.00659      6.20694      3.19712        -0.432827      0.718866      0.476648
      6.50853      1.70772      1.69497         1.048703     -0.174741     -0.432615
      7.93172      1.39171      3.62717        -0.842298     -0.020581     -0.130002
     16.08224      6.18092      2.08489        -0.419589     -0.002932      2.022157
     16.45536      6.17799      4.80455        -1.701813     -0.023084      0.473300
      2.10894      1.39171      2.59898        -0.709176      0.728720      0.773441
      1.25542      0.88786      4.73802         0.936371     -0.054092      0.128068
      9.33397      6.63599      2.19601         0.892003     -0.512127     -0.473625
     10.84312      6.18092      4.14126        -1.366192     -0.493456     -1.980906
     15.37004      0.04108      1.50944         0.987772      0.691563      0.134271
     15.89776      0.08654      3.99949        -0.382930     -0.980749     -0.256753
      7.17375      4.91558      2.70560         0.799776      0.431909     -0.202212
      7.87762      4.39467      4.93065        -0.264064      0.133957      0.699666
     10.21922      8.90994      1.04819        -0.015269     -0.185182     -1.089724
     10.08514      0.12638      3.21969         1.173840      0.452668      0.539367
      1.35096      4.91558      1.67742         0.167851     -0.460240      1.729395
      1.88952      4.85556      4.42205         1.215706     -1.347010      0.353216
      4.26235      0.12638      2.19151         0.202881     -1.130341      1.398171
      3.96320      1.40788      4.70035         0.451809      0.028296      1.736308
     13.04034      4.15747      1.54414        -0.758123      0.752007      0.152846
     12.99653      4.91558      3.73378         0.584613     -0.039513     -1.196927
     15.36607      2.75443      1.51621         1.015954     -0.746480      0.141441
     15.93027      2.65551      4.01474        -0.586950      1.159244     -0.280265
      6.91987      7.39209      1.95644         0.192361      1.441325      0.355914
      8.25052      8.19136      3.81798        -1.012294     -0.427638     -0.066044
      8.94146      1.41051      1.06386        -0.702042      0.056243     -1.644291
     10.08514      2.65705      3.21969         0.710465      0.405147     -1.739978
      1.35096      7.44626      1.67742         0.149854      0.493772      2.010584
      1.88199      7.53015      4.43811         1.303235      0.948246      0.284493
      4.26235      2.65705      2.19151        -0.926282      0.397624      0.791818
      5.66662      3.46245      3.90747        -0.491432     -0.316487      0.742119
     12.89904      8.38205      1.52768        -0.526271     -1.280166      0.103874
     12.99653      7.44626      3.73378         1.038503      0.083994     -1.580307
     16.34253      1.35749      5.55135        -0.672570      0.523956      4.144472
     16.74052      1.39171      2.57045         2.028586      0.076669     -2.018810
      7.86836      5.88320      0.99077         0.282961     -0.820915     -3.386025
      8.59001      6.18092      4.11272         0.984152     -0.285838      2.109787
     10.91773      1.39171      1.54227         1.311827     -0.167789     -1.748004
     11.49758      1.41701      4.19394         0.611770     -0.100028      2.623100
      1.95027      6.18210      0.17251         0.147041      0.080745     -4.126770
      2.76722      6.18092      3.08454         0.740421      0.311186      0.428244
      1.31865      6.18058      5.87291         0.504580      0.033151      4.368642
      4.78605      1.37234      0.64956         0.382464     -0.135986     -3.868019
      5.67861      1.39171      3.59863         1.447830     -1.733139      1.220392
     13.82913      6.18092      2.05636         0.249707      0.297566     -1.686494
     14.35850      6.17829      4.72991         0.838261      0.082794      2.636720
     13.77430      2.83860      0.20834        -0.328912      0.706196     -3.956951
     13.99844      3.00295      3.08932        -0.753432      1.465683      1.388367
      4.88210      7.68055      1.68426         0.840978      1.429423     -1.072154
      8.17565      3.00295      2.06114        -0.236851      2.043778     -0.441799
      8.95557      2.70879      4.93717         0.399934      0.490062      2.745045
      0.02514      7.79215      3.60341        -1.173996      1.203607     -0.754386
     16.34537      7.86308      0.90046        -0.610279      0.654253     -2.765208
      2.36265      3.09532      1.38938        -0.561980     -0.393043     -2.733227
      2.93654      3.00295      4.11750        -1.227037      1.421510      0.546670
     11.08705      7.79215      2.57523         0.392132      0.716563     -0.504357
     11.77200      7.52723      5.33566        -0.483225      1.314066      3.812493
      5.20190      4.53374      1.93824        -0.243594     -0.905859     -1.897942
      6.05715      5.29602      4.72346        -1.481140      1.200168      2.894191
     13.80861      9.57776      0.16858        -0.198143     -0.760571     -3.875822
     13.99844      9.35889      3.08932        -0.992154     -1.500861      1.444137
      0.02514      4.56969      3.60341        -1.113808     -1.582168     -0.574125
     16.33983      4.50434      0.89634        -0.438148     -0.665467     -2.863157
      8.17565      9.35889      2.06114        -1.763851     -1.851453     -2.062375
      8.93170      0.10718      4.97456         0.078807     -0.404130      3.520961
     11.08705      4.56969      2.57523        -0.524709     -0.401014     -0.808267
     11.71326      4.74958      5.28121        -0.483310     -1.214034      3.655700
      2.36353      9.27867      1.40136        -0.753919     -0.038491     -2.887549
      2.93654      9.35889      4.11750        -0.042785     -1.645241      0.815211
    total drift:                               -0.048380     -0.062690      0.025911

  FREE ENERGIE OF THE ION-ELECTRON SYSTEM (eV)
  free  energy   TOTEN  =      -343.07385321 eV

  energy  without entropy=     -342.08071136  energy(sigma->0) =     -342.57728228