 vasp.5.4.4.18Apr17-6-g9f103f2a35 (build Aug 13 2019 17:33:20) gamma-only

 executed on             LinuxIFC date 2020.05.10  11:31:36

 INCAR:
 POTCAR:    PAW_PBE Ni_pv 06Sep2000
 POTCAR:    PAW_PBE S 06Sep2000
 POTCAR:    PAW_PBE Ni_pv 06Sep2000
   VRHFIN =Ni:

   TITEL  = PAW_PBE Ni_pv 06Sep2000
   POMASS =   58.690; ZVAL   =   16.000    mass and valenz
   ENMAX  =  367.986; ENMIN  =  275.989 eV

 POTCAR:    PAW_PBE S 06Sep2000
   VRHFIN =S : s2p4

   TITEL  = PAW_PBE S 06Sep2000
   POMASS =   32.066; ZVAL   =    6.000    mass and valenz
   ENMAX  =  258.689; ENMIN  =  194.016 eV

 Optimization of the real space projectors (new method)

 maximal supplied QI-value         = 18.90
 optimisation between [QCUT,QGAM] = [ 10.77, 21.73] = [ 32.49,132.25] Ry
 Optimized for a Real-space Cutoff    1.38 Angstroem

   l    n(q)    QCUT    max X(q) W(low)/X(q) W(high)/X(q)  e(spline)
   1      8    10.771     2.836    0.40E-04    0.29E-04    0.12E-06
   1      8    10.771     4.023    0.10E-03    0.48E-04    0.29E-06
   2      8    10.771    73.368    0.42E-03    0.97E-04    0.44E-06
   2      8    10.771    69.010    0.42E-03    0.99E-04    0.45E-06
   0      9    10.771    54.797    0.10E-03    0.56E-04    0.74E-07
   0      9    10.771    24.266    0.89E-04    0.49E-04    0.67E-07
 Optimization of the real space projectors (new method)

 maximal supplied QI-value         = 19.84
 optimisation between [QCUT,QGAM] = [ 10.71, 21.63] = [ 32.15,130.99] Ry
 Optimized for a Real-space Cutoff    1.19 Angstroem

   l    n(q)    QCUT    max X(q) W(low)/X(q) W(high)/X(q)  e(spline)
   0      8    10.715   187.594    0.41E-03    0.53E-04    0.66E-07
   0      8    10.715   164.243    0.41E-03    0.53E-04    0.65E-07
   1      7    10.715    67.533    0.19E-03    0.59E-03    0.68E-07
   1      7    10.715    50.729    0.19E-03    0.58E-03    0.67E-07
  PAW_PBE Ni_pv 06Sep2000               :
  PAW_PBE S 06Sep2000                   :

 POSCAR: Type_026 Type_126
  positions in cartesian coordinates
 exchange correlation table for  LEXCH =        8
   RHO(1)=    0.500       N(1)  =     2000
   RHO(2)=  100.500       N(2)  =     4000

 ion  position               nearest neighbor table
   1  0.439  0.464  0.163-  43 2.06  36 2.09  30 2.25  37 2.36  44 2.36   5 2.53  22 2.53
   2  0.492  0.450  0.325-  45 2.03  37 2.04  44 2.06   6 2.49  23 2.49
   3  0.149  0.034  0.146-  27 2.05  28 2.07  34 2.12  38 2.12
   4  0.136  0.975  0.299-  28 2.10  29 2.12  47 2.14  35 2.15  12 2.52  38 2.53
   5  0.439  0.200  0.163-  39 2.07  36 2.11  34 2.25  37 2.36  40 2.36  13 2.50   1 2.53  22 2.53

   6  0.480  0.190  0.322-  45 2.04  37 2.06  40 2.07   2 2.49  13 2.53
   7  0.151  0.628  0.145-  31 2.05  32 2.07  30 2.10  38 2.15
   8  0.076  0.706  0.279-  38 2.11  32 2.13  42 2.18  25 2.42
   9  0.131  0.332  0.139-  31 2.06  27 2.06  36 2.10  28 2.36  32 2.36  18 2.53  14 2.53
  10  0.182  0.332  0.319-  33 2.06  29 2.15  37 2.25  28 2.26  32 2.26  19 2.44
  11  0.446  0.825  0.107-  51 2.06  30 2.11  50 2.12  34 2.20
  12  0.272  0.831  0.215-  35 2.08  30 2.08  34 2.10  38 2.12   4 2.52
  13  0.473  0.977  0.235-  35 2.11  34 2.15  51 2.16  40 2.37   5 2.50   6 2.53
  14  0.939  0.464  0.163-  31 2.05  48 2.09  41 2.25  49 2.36  32 2.36  18 2.53   9 2.53
  15  0.978  0.476  0.320-  33 2.02  49 2.05  32 2.06  42 2.10
  16  0.630  0.046  0.133-  39 2.02  40 2.15  51 2.24  46 2.37  17 2.40  24 2.46
  17  0.715  0.964  0.253-  52 2.08  40 2.25  51 2.26  46 2.26  16 2.40  26 2.52  25 2.53  21 2.53

[...]

  22  0.631  0.332  0.139-  43 2.08  39 2.10  48 2.12  40 2.36  44 2.36   5 2.53   1 2.53
  23  0.685  0.331  0.300-  45 2.05  40 2.09  44 2.09  49 2.12   2 2.49
  24  0.740  0.830  0.105-  41 2.06  46 2.09  51 2.10  50 2.12  20 2.45  16 2.46
  25  0.907  0.832  0.229-  42 2.14  47 2.18  38 2.25  41 2.26  46 2.26   8 2.42  26 2.49  17 2.53
                            21 2.53
  26  0.824  0.848  0.363-  52 2.02  42 2.05  47 2.06  25 2.49  17 2.52
  27  0.060  0.170  0.075-  18 2.05   3 2.05   9 2.06
  28  0.111  0.164  0.239-   3 2.07   4 2.10  19 2.10  10 2.26   9 2.36  18 2.36  29 2.52
  29  0.163  0.139  0.381-   4 2.12  19 2.12  10 2.15  33 2.50  28 2.52
  30  0.336  0.664  0.149-  12 2.08   7 2.10  11 2.11   1 2.25
  31  0.060  0.493  0.074-   7 2.05  14 2.05   9 2.06
  32  0.111  0.500  0.239-  15 2.06   7 2.07   8 2.13  10 2.26   9 2.36  14 2.36
  33  0.058  0.365  0.405-  15 2.02  10 2.06  19 2.10  29 2.50
  34  0.336  1.000  0.149-  12 2.10   3 2.12  13 2.15  11 2.20   5 2.25  35 2.79
  35  0.325  0.951  0.309-  12 2.08  13 2.11   4 2.15  34 2.79
  36  0.312  0.333  0.112-   1 2.09   9 2.10   5 2.11  37 2.77
  37  0.368  0.332  0.269-   2 2.04   6 2.06  10 2.25   1 2.36   5 2.36  36 2.77
  38  0.092  0.832  0.179-   8 2.11  12 2.12   3 2.12   7 2.15  25 2.25   4 2.53
  39  0.547  0.188  0.065-  16 2.02   5 2.07  22 2.10  43 2.68
  40  0.611  0.164  0.239-   6 2.07  23 2.09  16 2.15  17 2.25  22 2.36   5 2.36  13 2.37
  41  0.836  0.664  0.149-  24 2.06  14 2.25  25 2.26  21 2.26  20 2.51
  42  0.892  0.670  0.314-  26 2.05  15 2.10  25 2.14   8 2.18  21 2.27
  43  0.543  0.469  0.065-  20 2.04   1 2.06  22 2.08  39 2.68
  44  0.611  0.500  0.239-   2 2.06  23 2.09  20 2.22  21 2.25  22 2.36   1 2.36
  45  0.578  0.313  0.396-   2 2.03   6 2.04  23 2.05
  46  0.836  1.000  0.149-  24 2.09  18 2.25  25 2.26  17 2.26  16 2.37
  47  0.949  0.983  0.319-  26 2.06   4 2.14  19 2.18  25 2.18
  48  0.814  0.331  0.112-  18 2.08  14 2.09  22 2.12  49 2.77
  49  0.868  0.332  0.269-  15 2.05  23 2.12  19 2.21  14 2.36  18 2.36  48 2.77
  50  0.592  0.766  0.038-  20 2.11  11 2.12  24 2.12  51 2.51
  51  0.592  0.832  0.179-  11 2.06  24 2.10  13 2.16  20 2.19  16 2.24  21 2.26  17 2.26  50 2.51

  52  0.649  0.833  0.339-  26 2.02  17 2.08  21 2.10

  LATTYP: Found a simple orthorhombic cell.
 ALAT       =     9.5784100000
 B/A-ratio  =     1.1751911892
 C/A-ratio  =     1.7949213288

  Lattice vectors:

 A1 = (   0.0000000000,  -9.5784100000,   0.0000000000)
 A2 = ( -11.2564630382,   0.0000000000,   0.0000000000)
 A3 = (   0.0000000000,   0.0000000000, -17.1924924047)

Analysis of symmetry for initial positions (statically):
 Subroutine PRICEL returns:
 Original cell was already a primitive cell.

 Routine SETGRP: Setting up the symmetry group for a
 simple orthorhombic supercell.

 Subroutine GETGRP returns: Found  1 space group operations
 (whereof  1 operations were pure point group operations)
 out of a pool of  8 trial point group operations.

The static configuration has the point symmetry C_1 .

Analysis of symmetry for dynamics (positions and initial velocities):
 Subroutine PRICEL returns:
 Original cell was already a primitive cell.

 Routine SETGRP: Setting up the symmetry group for a
 simple orthorhombic supercell.

 Subroutine GETGRP returns: Found  1 space group operations
 (whereof  1 operations were pure point group operations)
 out of a pool of  8 trial point group operations.

The dynamic configuration has the point symmetry C_1 .

 Subroutine INISYM returns: Found  1 space group operations
 (whereof  1 operations are pure point group operations),
 and found     1 'primitive' translations

 KPOINTS: gamma-point-only calculation. no periodi

Automatic generation of k-mesh.
Space group operators:
 irot       det(A)        alpha          n_x          n_y          n_z        tau_x        tau_y        tau_z
    1     1.000000     0.000000     1.000000     0.000000     0.000000     0.000000     0.000000     0.000000

 Subroutine IBZKPT returns following result:

 Found      1 irreducible k-points:

 Following reciprocal coordinates:
            Coordinates               Weight
  0.000000  0.000000  0.000000      1.000000

 Following cartesian coordinates:
            Coordinates               Weight
  0.000000  0.000000  0.000000      1.000000

 SYSTEM =  "Millerite NiS"
 POSCAR =  Type_026 Type_126

 Startparameter for this run:
   NWRITE =      2    write-flag & timer
   PREC   = normal    normal or accurate (medium, high low for compatibility)
   ISTART =      0    job   : 0-new  1-cont  2-samecut
   ICHARG =      2    charge: 1-file 2-atom 10-const
   ISPIN  =      1    spin polarized calculation?
   LNONCOLLINEAR =      F non collinear calculations
   LSORBIT =      F    spin-orbit coupling
   INIWAV =      1    electr: 0-lowe 1-rand  2-diag
   LASPH  =      F    aspherical Exc in radial PAW
   METAGGA=      F    non-selfconsistent MetaGGA calc.

 Electronic Relaxation 1
   ENCUT  =  450.0 eV  33.07 Ry    5.75 a.u.  19.47 16.57 29.74*2*pi/ulx,y,z
   ENINI  =  450.0     initial cutoff
   ENAUG  =  703.4 eV  augmentation charge cutoff
   NELM   =    100;   NELMIN=  2; NELMDL= -5     # of ELM steps
   EDIFF  = 0.1E-03   stopping-criterion for ELM
   LREAL  =      T    real-space projection
   NLSPLINE    = F    spline interpolate recip. space projectors
   LCOMPAT=      F    compatible to vasp.4.4
   GGA_COMPAT  = T    GGA compatible to vasp.4.4-vasp.4.6
   LMAXPAW     = -100 max onsite density
   LMAXMIX     =    2 max onsite mixed and CHGCAR
   VOSKOWN=      0    Vosko Wilk Nusair interpolation
   ROPT   =   -0.00050  -0.00050
 Ionic relaxation
   EDIFFG = 0.1E-02   stopping-criterion for IOM
   NSW    =      0    number of steps for IOM
   NBLOCK =      1;   KBLOCK =      1    inner block; outer block
   IBRION =     -1    ionic relax: 0-MD 1-quasi-New 2-CG
   NFREE  =      0    steps in history (QN), initial steepest desc. (CG)
   ISIF   =      2    stress and relaxation
   IWAVPR =     10    prediction:  0-non 1-charg 2-wave 3-comb
   ISYM   =      2    0-nonsym 1-usesym 2-fastsym
   LCORR  =      T    Harris-Foulkes like correction to forces

   POTIM  = 0.5000    time-step for ionic-motion
   TEIN   =    0.0    initial temperature
   TEBEG  =    0.0;   TEEND  =   0.0 temperature during run
   SMASS  =  -3.00    Nose mass-parameter (am)
   estimated Nose-frequenzy (Omega)   =  0.10E-29 period in steps =****** mass=  -0.290E-26a.u.
   SCALEE = 1.0000    scale energy and forces
   NPACO  =    256;   APACO  = 16.0  distance and # of slots for P.C.
   PSTRESS=    0.0 pullay stress

  Mass of Ions in am
   POMASS =  58.69 32.07
  Ionic Valenz
   ZVAL   =  16.00  6.00
  Atomic Wigner-Seitz radii
  virtual crystal weights
   VCA    =   1.00  1.00
   NELECT =     572.0000    total number of electrons
   NUPDOWN=      -1.0000    fix difference up-down

 DOS related values:
   EMIN   =  10.00;   EMAX   =-10.00  energy-range for DOS
   EFERMI =   0.00
   ISMEAR =     0;   SIGMA  =   0.20  broadening in eV -4-tet -1-fermi 0-gaus

 Electronic relaxation 2 (details)
   IALGO  =     38    algorithm
   LDIAG  =      T    sub-space diagonalisation (order eigenvalues)
   LSUBROT=      F    optimize rotation matrix (better conditioning)
   TURBO    =      0    0=normal 1=particle mesh
   IRESTART =      0    0=no restart 2=restart with 2 vectors
   NREBOOT  =      0    no. of reboots
   NMIN     =      0    reboot dimension
   EREF     =   0.00    reference energy to select bands
   IMIX   =      4    mixing-type and parameters
     AMIX     =   0.40;   BMIX     =  1.00
     AMIX_MAG =   1.60;   BMIX_MAG =  1.00
[...]
      26 -87.5054      27 -92.3194      28 -93.6256      29 -92.9243      30 -92.5310
      31 -92.3541      32 -93.4387      33 -92.5158      34 -93.1605      35 -92.2345
      36 -92.2572      37 -93.1387      38 -93.4093      39 -92.5074      40 -93.8305
      41 -92.6351      42 -93.0532      43 -92.7977      44 -93.4133      45 -92.1836
      46 -92.5884      47 -92.5558      48 -92.1422      49 -93.0386      50 -92.6587
      51 -94.1465      52 -92.1167

 E-fermi :  -0.1053     XC(G=0):  -5.2855     alpha+bet : -5.1393

 k-point     1 :       0.0000    0.0000    0.0000
  band No.  band energies     occupation
      1     -64.8574      2.00000
      2     -64.8516      2.00000
      3     -64.8203      2.00000
      4     -64.8169      2.00000
      5     -64.7559      2.00000
      6     -64.7557      2.00000
      7     -64.7039      2.00000
      8     -64.7025      2.00000
      9     -64.6859      2.00000
     10     -64.6812      2.00000
     11     -64.6807      2.00000
     12     -64.6639      2.00000
     13     -64.6619      2.00000
     14     -64.6536      2.00000
     15     -64.6503      2.00000
     16     -64.6153      2.00000
     17     -64.6085      2.00000
     18     -64.6062      2.00000
     19     -64.5912      2.00000
     20     -64.5910      2.00000
     21     -64.5907      2.00000
     22     -64.5863      2.00000
     23     -64.5817      2.00000
     24     -64.5788      2.00000
     25     -64.5448      2.00000
     26     -64.5257      2.00000
     27     -64.5255      2.00000
     28     -64.5141      2.00000
     29     -64.5134      2.00000
     30     -64.5033      2.00000
     31     -64.4976      2.00000
     32     -64.4769      2.00000
     33     -64.4684      2.00000
     34     -64.4608      2.00000
     35     -64.4561      2.00000
     36     -64.4156      2.00000
     37     -64.4083      2.00000
     38     -64.3990      2.00000
     39     -64.3932      2.00000
     40     -64.3898      2.00000
     41     -64.3710      2.00000
     42     -64.3615      2.00000
     43     -64.3423      2.00000
     44     -64.3421      2.00000
     45     -64.3226      2.00000
     46     -64.3135      2.00000
     47     -64.3126      2.00000
     48     -64.3076      2.00000
     49     -64.3027      2.00000
     50     -64.2858      2.00000
     51     -64.2822      2.00000
     52     -64.2774      2.00000
     53     -64.2446      2.00000
     54     -64.2393      2.00000
     55     -64.2289      2.00000
     56     -64.2115      2.00000
     57     -64.2012      2.00000
     58     -64.1955      2.00000
     59     -64.1855      2.00000
     60     -64.1808      2.00000
[...]
    330       5.0275      0.00000
    331       5.0856      0.00000
    332       5.1196      0.00000
    333       5.1644      0.00000
    334       5.2695      0.00000
    335       5.2934      0.00000
    336       5.3198      0.00000
    337       5.4382      0.00000
    338       5.4889      0.00000
    339       5.5259      0.00000
    340       5.6194      0.00000
    341       5.6639      0.00000
    342       5.7176      0.00000
    343       5.7672      0.00000
    344       5.9032      0.00000

 soft charge-density along one line, spin component           1
         0         1         2         3         4         5         6         7         8         9
 total charge-density along one line

------------------------ aborting loop because EDIFF is reached ----------------------------------------

  FORCE on cell =-STRESS in cart. coord.  units (eV):
  Direction    XX          YY          ZZ          XY          YZ          ZX
  Alpha Z  1046.73971  1046.73971  1046.73971
  Ewald  165929.89131169426.95351************   -40.00263  1103.58250   115.33944
  Hartree190513.09700193618.44045************   -24.63704   914.25577   139.70652
  E(xc)   -3653.35169 -3653.11791 -3658.53366    -0.14536     0.30027     0.13963
  Local  ************************360854.33842    62.91253 -2008.70459  -248.08441
  n-local  -418.35879  -428.78760  -426.59076    -1.30369    -1.33773    -0.96535
  augment  4172.84168  4180.20307  4188.34996     1.59018    -1.82826    -2.59279
  Kinetic  8026.47930  8013.27492  8092.03070    -1.40565    -7.32178    -4.78748
  Fock        0.00000     0.00000     0.00000     0.00000     0.00000     0.00000
  Total      99.10866    96.26016   103.68210    -2.99165    -1.05382    -1.24446
  in kB      85.66195    83.19993    89.61489    -2.58576    -0.91084    -1.07562

 VOLUME and BASIS-vectors are now :
  energy-cutoff  :      450.00
  volume of cell :     1853.68
      direct lattice vectors                 reciprocal lattice vectors
    11.256463038  0.000000000  0.000000000     0.088837852  0.000000000  0.000000000
     0.000000000  9.578410000  0.000000000     0.000000000  0.104401461  0.000000000
     0.000000000  0.000000000 17.192492405     0.000000000  0.000000000  0.058164923

  length of vectors
    11.256463038  9.578410000 17.192492405     0.088837852  0.104401461  0.058164923

 FORCES acting on ions
    electron-ion (+dipol)            ewald-force                    non-local-force                 convergence-correction
   0.703E+03 -.494E+03 0.130E+04   -.707E+03 0.497E+03 -.130E+04   0.383E+01 -.219E+01 0.361E+01   -.646E-02 -.277E-03 0.729E-02
   0.543E+03 -.109E+04 -.325E+04   -.544E+03 0.109E+04 0.325E+04   0.347E+00 0.153E+01 -.266E+01   -.411E-02 -.493E-02 -.346E-02
   -.384E+02 0.194E+03 0.262E+04   0.377E+02 -.193E+03 -.263E+04   0.106E+01 -.176E+01 0.720E+01   0.600E-02 -.355E-04 -.378E-02
   -.349E+03 0.307E+03 -.263E+04   0.350E+03 -.313E+03 0.263E+04   -.803E+00 0.403E+01 -.474E+01   0.112E-01 -.870E-02 -.153E-01
   0.711E+03 -.789E+01 0.170E+04   -.715E+03 0.737E+01 -.170E+04   0.367E+01 0.516E+00 0.467E+01   -.208E-02 -.533E-02 0.892E-02
   0.388E+03 0.469E+03 -.340E+04   -.389E+03 -.471E+03 0.340E+04   0.379E+00 -.117E+00 -.392E+01   -.120E-02 0.150E-02 -.543E-02
   -.259E+03 -.143E+03 0.251E+04   0.261E+03 0.143E+03 -.252E+04   -.138E+01 0.617E+00 0.805E+01   -.300E-02 -.314E-02 -.306E-02
   -.663E+03 0.109E+03 -.226E+04   0.662E+03 -.108E+03 0.226E+04   0.137E+01 -.675E+00 -.833E+00   0.286E-03 0.915E-02 -.262E-01
   -.525E+03 -.508E+02 0.241E+04   0.529E+03 0.507E+02 -.241E+04   -.364E+01 0.376E+00 0.422E+01   0.880E-02 0.897E-02 -.512E-02
   -.873E+03 -.447E+03 -.267E+04   0.881E+03 0.449E+03 0.267E+04   -.545E+01 -.143E+01 -.142E+01   0.166E-01 0.214E-02 -.120E-01
   0.631E+03 0.139E+03 0.325E+04   -.635E+03 -.140E+03 -.326E+04   0.375E+01 0.186E+01 0.661E+01   0.117E-02 0.217E-02 0.646E-02
   -.288E+03 0.534E+03 -.301E+03   0.289E+03 -.539E+03 0.305E+03   -.139E+01 0.350E+01 -.377E+01   0.455E-02 -.368E-02 -.466E-02
   0.331E+03 0.492E+03 -.129E+04   -.333E+03 -.491E+03 0.130E+04   0.335E+01 -.909E+00 -.421E+01   0.194E-02 0.383E-02 -.225E-02
   0.348E+03 -.339E+03 0.183E+04   -.352E+03 0.340E+03 -.183E+04   0.268E+01 -.908E+00 0.538E+01   0.128E-01 0.124E-01 -.120E-01
   0.254E+03 -.304E+03 -.304E+04   -.257E+03 0.307E+03 0.305E+04   0.223E+01 -.125E+01 -.554E+01   0.520E-02 0.275E-02 -.150E-01
   -.263E+03 -.243E+03 0.286E+04   0.265E+03 0.245E+03 -.286E+04   -.173E+01 -.230E+01 0.728E+01   -.117E-03 -.140E-01 0.928E-02
   -.160E+02 -.530E+03 -.154E+04   0.189E+02 0.532E+03 0.155E+04   -.302E+01 -.158E+01 -.445E+01   0.343E-02 -.861E-02 -.164E-01
   0.348E+03 0.369E+03 0.175E+04   -.351E+03 -.370E+03 -.175E+04   0.197E+01 0.644E+00 0.456E+01   0.808E-02 -.122E-02 -.849E-02
   0.584E+03 0.246E+03 -.318E+04   -.593E+03 -.247E+03 0.319E+04   0.707E+01 0.783E+00 -.340E+01   0.175E-02 -.734E-03 -.534E-02
   0.283E+01 0.325E+03 0.242E+04   -.942E+00 -.329E+03 -.242E+04   -.128E+01 0.367E+01 0.440E+01   0.481E-02 0.143E-01 0.370E-02
   0.401E+03 0.671E+03 -.152E+04   -.402E+03 -.675E+03 0.153E+04   0.558E+00 0.302E+01 -.460E+01   0.499E-02 0.148E-01 -.178E-01
   -.563E+03 -.115E+03 0.234E+04   0.569E+03 0.115E+03 -.234E+04   -.540E+01 -.179E+00 0.321E+01   -.690E-02 -.288E-02 0.720E-02
   -.572E+03 -.954E+02 -.256E+04   0.579E+03 0.956E+02 0.256E+04   -.580E+01 -.487E-01 -.490E+01   -.208E-01 -.102E-02 -.222E-03
   -.746E+03 -.173E+02 0.367E+04   0.750E+03 0.186E+02 -.368E+04   -.334E+01 -.762E+00 0.719E+01   0.314E-02 0.140E-02 0.137E-01
   -.436E+03 -.116E+03 0.205E+03   0.437E+03 0.119E+03 -.209E+03   -.125E+01 -.152E+01 0.268E+01   -.900E-02 -.158E-02 -.172E-01
   0.829E+02 -.452E+02 -.437E+04   -.848E+02 0.455E+02 0.437E+04   0.254E+01 0.303E+00 -.320E+01   -.443E-02 0.165E-02 -.361E-01
   0.282E+02 0.134E+03 0.174E+04   -.291E+02 -.136E+03 -.174E+04   0.880E+00 0.211E+00 0.211E+01   0.560E-02 0.313E-02 0.185E-02
   -.145E+03 -.266E+02 -.136E+03   0.147E+03 0.271E+02 0.134E+03   -.197E+01 0.135E+01 -.221E-01   0.564E-02 0.503E-03 -.771E-02
   -.290E+03 0.148E+03 -.168E+04   0.294E+03 -.150E+03 0.169E+04   -.188E+01 0.119E+01 -.353E+01   0.539E-02 -.919E-03 -.908E-03
   0.207E+02 0.159E+03 0.682E+03   -.204E+02 -.159E+03 -.684E+03   0.371E+00 -.888E+00 0.894E+00   -.250E-02 0.661E-03 0.814E-03
   0.186E+02 -.137E+03 0.173E+04   -.194E+02 0.139E+03 -.174E+04   0.768E+00 -.556E+00 0.250E+01   0.315E-02 -.703E-03 0.604E-02
   -.323E+03 -.316E+02 -.267E+03   0.327E+03 0.321E+02 0.268E+03   -.218E+01 -.121E+01 -.103E+01   0.376E-02 0.278E-02 -.109E-01
   -.534E+02 -.157E+03 -.186E+04   0.530E+02 0.159E+03 0.187E+04   0.326E+00 -.170E+01 -.228E+01   0.297E-02 -.522E-03 0.119E-02
   0.148E+03 -.964E+02 0.939E+03   -.149E+03 0.987E+02 -.944E+03   0.179E+01 -.104E+01 0.244E+01   0.137E-02 -.681E-03 0.218E-02
   -.129E+03 0.138E+03 -.132E+04   0.130E+03 -.139E+03 0.133E+04   -.142E+00 0.161E+01 -.204E+01   0.455E-02 0.799E-03 -.540E-02
   0.135E+03 -.355E+02 0.127E+04   -.135E+03 0.357E+02 -.128E+04   0.202E-01 -.285E+00 0.422E+01   -.551E-02 0.485E-03 0.279E-02
   0.293E+03 -.148E+03 -.562E+03   -.295E+03 0.147E+03 0.562E+03   0.248E+00 0.919E+00 -.136E+00   0.630E-02 0.199E-03 0.395E-03
   0.989E+02 -.214E+02 0.752E+03   -.101E+03 0.210E+02 -.759E+03   0.705E+00 0.450E+00 0.541E+01   -.433E-02 -.370E-02 -.367E-03
   0.794E+02 -.418E+01 0.182E+04   -.805E+02 0.197E+01 -.182E+04   0.841E+00 0.196E+01 0.287E+01   -.119E-02 -.328E-02 0.325E-02
   -.179E+03 -.102E+02 -.373E+03   0.182E+03 0.117E+02 0.375E+03   -.219E+01 -.273E+01 -.240E+01   -.405E-02 -.386E-02 0.108E-02
   -.232E+03 0.188E+03 0.951E+03   0.235E+03 -.189E+03 -.954E+03   -.191E+01 -.179E+00 0.242E+01   0.950E-03 0.869E-02 0.215E-02
   0.544E+02 0.225E+03 -.117E+04   -.556E+02 -.228E+03 0.117E+04   0.952E+00 0.180E+01 -.759E+00   -.160E-02 0.806E-02 -.128E-01
   0.912E+02 0.510E+01 0.177E+04   -.925E+02 -.398E+01 -.177E+04   0.119E+01 -.116E+01 0.283E+01   -.194E-02 0.160E-02 0.143E-02
   -.154E+02 -.184E+03 -.375E+03   0.170E+02 0.185E+03 0.377E+03   -.743E+00 0.153E+01 -.299E+01   -.409E-02 0.339E-03 0.290E-02
   -.905E+02 -.367E+00 -.186E+04   0.910E+02 -.607E-01 0.186E+04   -.686E-01 0.413E-01 -.650E+00   -.606E-02 0.870E-03 -.744E-02
   -.281E+03 -.171E+03 0.945E+03   0.285E+03 0.172E+03 -.948E+03   -.284E+01 0.603E+00 0.291E+01   -.382E-02 -.123E-01 0.356E-02
   0.218E+02 -.107E+03 -.113E+04   -.227E+02 0.107E+03 0.113E+04   0.339E+00 -.759E+00 -.105E+01   -.344E-02 -.644E-02 -.103E-01
   0.335E+02 -.935E+01 0.131E+04   -.341E+02 0.935E+01 -.132E+04   0.254E+00 0.100E-01 0.341E+01   0.523E-03 0.337E-02 -.919E-03
   0.208E+03 0.463E+02 -.547E+03   -.210E+03 -.467E+02 0.547E+03   0.152E+01 -.618E+00 -.838E+00   -.418E-02 0.553E-03 -.401E-02
   0.460E+02 0.221E+02 0.185E+04   -.461E+02 -.222E+02 -.186E+04   -.226E+00 0.264E+00 0.358E+01   0.238E-02 0.246E-02 0.450E-02
   0.213E+03 0.154E+03 0.173E+03   -.217E+03 -.155E+03 -.168E+03   0.414E+01 0.180E+01 -.335E+01   0.391E-02 0.292E-02 -.594E-03
   0.513E+03 0.939E+02 -.153E+04   -.517E+03 -.949E+02 0.153E+04   0.136E+01 0.698E+00 -.150E+01   -.141E-02 0.153E-02 -.995E-02
   -.180E+01 -.849E+01 -.342E+02   0.136E-11 0.597E-12 -.659E-11   0.187E+01 0.854E+01 0.344E+02   0.390E-01 0.254E-01 -.190E+00

 POSITION                                       TOTAL-FORCE (eV/Angst)
      4.94536      4.44331      2.79952        -0.852138      0.766245      2.221266
      5.53807      4.30595      5.59430        -0.781365      1.764641      0.337577
      1.68261      0.32673      2.51079         0.347015     -0.638562     -0.459001
      1.53501      9.34290      5.14407         0.475938     -1.885716     -0.232666
      4.94536      1.91264      2.79952        -0.775303     -0.018745      1.472999
      5.40082      1.82380      5.53664        -1.099024     -2.188927      0.537917
      1.70200      6.01302      2.49413         0.384018      0.789755     -0.515484
      0.85301      6.75863      4.80140         0.616782      0.042877      0.615888
      1.47054      3.17797      2.39204         0.476645      0.255826      1.237968
      2.05421      3.17797      5.47658         2.152762      0.454282     -1.435221
      5.01505      7.90594      1.84816        -0.767879      0.677706     -0.814752
      3.06393      7.95592      3.69371        -0.066275     -1.060939      0.763984
      5.32468      9.36017      4.04151         0.542306     -0.047330      0.684697
     10.57359      4.44331      2.79952        -0.466307      0.075578      1.874734
     11.00771      4.55747      5.50233        -0.995123      1.493637      0.156478
      7.08892      0.43736      2.28462         0.711511     -0.740864     -0.318939
      8.05131      9.23251      4.34179        -0.113952      1.008656     -0.334890
     10.57359      1.91264      2.79952        -0.848219     -0.326421      1.702820
     11.22310      1.93160      5.72914        -2.114268     -0.123284      0.348665
      6.94924      5.97004      2.23393         0.605117     -0.571655      0.367873
      8.05131      6.70184      4.34179         0.015692     -1.157591     -0.807187
      7.09877      3.17797      2.39204         0.602186     -0.120745      1.270524
      7.71302      3.17364      5.15155         1.821932      0.183013     -0.055270
      8.33251      7.95100      1.81331         0.095885      0.470510     -1.597902
     10.20472      7.96718      3.93431        -0.060903      0.854791     -1.598017
      9.27005      8.12039      6.24009         0.688171      0.560708      1.542236
      0.67324      1.63091      1.28813         0.082142     -1.136894     -3.401208
      1.25497      1.56674      4.10795         0.322039      1.858847     -2.343713
      1.83152      1.32796      6.54543         1.441476     -0.599262      3.044211
      3.77725      6.35595      2.56568         0.682202     -1.562592     -0.881738
      0.67216      4.71789      1.27948        -0.041887      1.131415     -3.502600
      1.25497      4.78920      4.10795         1.495029     -0.735404      0.294349
      0.65302      3.49219      6.95645        -0.071718      0.755577      4.409545
      3.77725      9.57841      2.56568         0.605015      1.237760     -2.947745
      3.66203      9.11008      5.31127         1.131211     -0.091265      3.502235
      3.51470      3.19107      1.92714        -0.569967     -0.100972     -2.007573
      4.14113      3.17797      4.62682        -2.236207      0.373965     -0.533292
      1.03518      7.96718      3.08454        -1.679047     -0.000066     -1.242167
      6.15696      1.80387      1.12029        -0.207303     -0.242181     -3.587950
      6.88320      1.56674      4.10795         1.012078     -1.249350     -0.194050
      9.40548      6.35595      2.56568         1.127902     -1.320366     -0.229622
     10.03975      6.41317      5.39519        -0.272532     -0.889539      2.029909
      6.11637      4.48779      1.11061        -0.108149     -0.042617     -3.329155
      6.88320      4.78920      4.10795         0.813333      1.793787     -0.277322
      6.50187      2.99490      6.79995         0.453357     -0.386931      3.889582
      9.40548      9.57841      2.56568         1.094754      1.283915      0.044145
     10.68460      9.41534      5.49216        -0.588117      0.193037      1.596434
      9.16375      3.17240      1.92319        -0.392321      0.011351     -2.380543
      9.76936      3.17797      4.62682        -1.441843     -1.036084     -0.334628
      6.66839      7.33773      0.65191        -0.352666      0.213558     -3.055959
      6.66341      7.96718      3.08454        -0.323075      0.238088      1.918286
      7.29986      7.98194      5.82697        -2.570912     -0.215224      2.554272
    total drift:                                0.111459      0.067204      0.015756

  FREE ENERGIE OF THE ION-ELECTRON SYSTEM (eV)
  free  energy   TOTEN  =      -247.29294065 eV

  energy  without entropy=     -246.53359461  energy(sigma->0) =     -246.91326763