 vasp.5.4.4.18Apr17-6-g9f103f2a35 (build Aug 13 2019 17:33:20) gamma-only

 executed on             LinuxIFC date 2020.05.12  00:16:22

 INCAR:
 POTCAR:    PAW_PBE Ni_pv 06Sep2000
 POTCAR:    PAW_PBE S 06Sep2000
 POTCAR:    PAW_PBE Ni_pv 06Sep2000
   VRHFIN =Ni:

   TITEL  = PAW_PBE Ni_pv 06Sep2000
   POMASS =   58.690; ZVAL   =   16.000    mass and valenz
   ENMAX  =  367.986; ENMIN  =  275.989 eV

 POTCAR:    PAW_PBE S 06Sep2000
   VRHFIN =S : s2p4

   TITEL  = PAW_PBE S 06Sep2000
   POMASS =   32.066; ZVAL   =    6.000    mass and valenz
   ENMAX  =  258.689; ENMIN  =  194.016 eV

 Optimization of the real space projectors (new method)

 maximal supplied QI-value         = 18.90
 optimisation between [QCUT,QGAM] = [ 10.77, 21.73] = [ 32.49,132.25] Ry
 Optimized for a Real-space Cutoff    1.38 Angstroem

   l    n(q)    QCUT    max X(q) W(low)/X(q) W(high)/X(q)  e(spline)
   1      8    10.771     2.836    0.40E-04    0.29E-04    0.12E-06
   1      8    10.771     4.023    0.10E-03    0.48E-04    0.29E-06
   2      8    10.771    73.368    0.42E-03    0.97E-04    0.44E-06
   2      8    10.771    69.010    0.42E-03    0.99E-04    0.45E-06
   0      9    10.771    54.797    0.10E-03    0.56E-04    0.74E-07
   0      9    10.771    24.266    0.89E-04    0.49E-04    0.67E-07
 Optimization of the real space projectors (new method)

 maximal supplied QI-value         = 19.84
 optimisation between [QCUT,QGAM] = [ 10.71, 21.63] = [ 32.15,130.99] Ry
 Optimized for a Real-space Cutoff    1.19 Angstroem

   l    n(q)    QCUT    max X(q) W(low)/X(q) W(high)/X(q)  e(spline)
   0      8    10.715   187.594    0.41E-03    0.53E-04    0.66E-07
   0      8    10.715   164.243    0.41E-03    0.53E-04    0.65E-07
   1      7    10.715    67.533    0.19E-03    0.59E-03    0.68E-07
   1      7    10.715    50.729    0.19E-03    0.58E-03    0.67E-07
  PAW_PBE Ni_pv 06Sep2000               :
  PAW_PBE S 06Sep2000                   :

 POSCAR: Type_037 Type_137
  positions in cartesian coordinates
 exchange correlation table for  LEXCH =        8
   RHO(1)=    0.500       N(1)  =     2000
   RHO(2)=  100.500       N(2)  =     4000

 ion  position               nearest neighbor table
   1  0.780  0.145  0.123-  51 2.06  65 2.06  42 2.25  52 2.38  66 2.38
   2  0.297  0.645  0.216-  53 2.13  63 2.13  64 2.14  54 2.14  45 2.25  28 2.53  15 2.53
   3  0.416  0.145  0.112-  47 2.06  69 2.09  55 2.09   4 2.42  48 2.59
   4  0.470  0.145  0.247-  56 2.09  70 2.09  48 2.25  55 2.26  69 2.26   3 2.42  31 2.53  18 2.53

   5  0.952  0.645  0.154-  58 2.07  68 2.07  49 2.25  57 2.36  67 2.36  32 2.53  19 2.53
   6  0.973  0.645  0.317-  46 2.05  67 2.06  57 2.06  50 2.10
   7  0.182  0.145  0.050-  47 2.04  59 2.05  73 2.05   8 2.45  34 2.53  21 2.53
   8  0.125  0.145  0.185-  59 2.14  73 2.14  39 2.25  60 2.36  74 2.36   9 2.37   7 2.45  34 2.53
                            21 2.53
   9  0.110  0.145  0.327-  38 2.02  74 2.11  60 2.11   8 2.37
  10  0.571  0.645  0.162-  40 2.02  41 2.17  71 2.20  61 2.20  11 2.28
  11  0.642  0.645  0.278-  62 2.03  72 2.03  41 2.25  61 2.26  71 2.26  10 2.28  37 2.53  24 2.53

  12  0.907  0.003  0.123-  65 2.06  66 2.10  58 2.10  39 2.21  13 2.48
  13  0.944  0.010  0.268-  38 2.06  39 2.07  57 2.15  66 2.20  12 2.48
  14  0.388  0.517  0.049-  63 2.01  40 2.02  15 2.45  27 2.45
  15  0.425  0.513  0.192-  63 2.18  64 2.18  55 2.25  40 2.26  41 2.36  14 2.45  16 2.47   2 2.53
                            28 2.53
  16  0.464  0.470  0.332-  56 2.00  64 2.04  41 2.06  15 2.47
  17  0.565  0.020  0.069-  69 2.00  42 2.03  30 2.40
  18  0.597  0.013  0.222-  43 2.03  70 2.08  61 2.25  69 2.26  42 2.26  31 2.53   4 2.53
  19  0.080  0.513  0.130-  44 2.00  68 2.09  59 2.14  67 2.36  45 2.36   5 2.53  32 2.53
  20  0.112  0.508  0.294-  46 2.05  67 2.06  45 2.06  60 2.15
  21  0.252  0.013  0.161-  47 2.13  73 2.13  53 2.14  48 2.36  74 2.36  22 2.53   8 2.53  34 2.53
                             7 2.53
  22  0.291  0.978  0.306-  48 2.04  54 2.04  74 2.05  21 2.53
  23  0.774  0.431  0.122-  51 2.02  52 2.11  49 2.25  71 2.27  24 2.33
  24  0.770  0.513  0.253-  72 2.01  50 2.11  52 2.20  71 2.26  49 2.26  23 2.33  11 2.53  37 2.53

  25  0.907  0.288  0.123-  51 2.06  52 2.10  68 2.10  39 2.21  26 2.48
  26  0.944  0.281  0.268-  38 2.06  39 2.07  67 2.15  52 2.20  25 2.48
  27  0.388  0.773  0.049-  53 2.01  40 2.02  28 2.45  14 2.45
  28  0.425  0.777  0.192-  53 2.18  54 2.18  69 2.25  40 2.26  41 2.36  27 2.45  29 2.47   2 2.53
                            15 2.53
  29  0.464  0.820  0.332-  70 2.00  54 2.04  41 2.06  28 2.47
  30  0.565  0.271  0.069-  55 2.00  42 2.03  17 2.40
  31  0.597  0.277  0.222-  43 2.03  56 2.08  71 2.25  55 2.26  42 2.26  18 2.53   4 2.53
  32  0.080  0.777  0.130-  44 2.00  58 2.09  73 2.14  57 2.36  45 2.36   5 2.53  19 2.53
  33  0.112  0.783  0.294-  46 2.05  57 2.06  45 2.06  74 2.15
  34  0.252  0.277  0.161-  47 2.13  59 2.13  63 2.14  48 2.36  60 2.36  35 2.53   8 2.53  21 2.53
                             7 2.53
  35  0.291  0.312  0.306-  48 2.04  64 2.04  60 2.05  34 2.53
  36  0.774  0.860  0.122-  65 2.02  66 2.11  49 2.25  61 2.27  37 2.33
  37  0.770  0.777  0.253-  62 2.01  50 2.11  66 2.20  61 2.26  49 2.26  36 2.33  11 2.53  24 2.53

  38  0.992  0.145  0.350-   9 2.02  26 2.06  13 2.06  39 2.77
  39  0.991  0.145  0.183-  13 2.07  26 2.07  12 2.21  25 2.21   8 2.25  38 2.77
  40  0.474  0.645  0.091-  10 2.02  14 2.02  27 2.02  15 2.26  28 2.26
  41  0.509  0.645  0.276-  16 2.06  29 2.06  10 2.17  11 2.25  28 2.36  15 2.36
  42  0.647  0.145  0.122-  17 2.03  30 2.03   1 2.25  18 2.26  31 2.26  43 2.77
  43  0.666  0.145  0.287-  18 2.03  31 2.03  42 2.77
  44  0.102  0.645  0.040-  19 2.00  32 2.00
  45  0.164  0.645  0.214-  20 2.06  33 2.06   2 2.25  32 2.36  19 2.36
  46  0.077  0.645  0.381-   6 2.05  33 2.05  20 2.05
  47  0.301  0.145  0.071-   7 2.04   3 2.06  21 2.13  34 2.13
  48  0.336  0.145  0.245-  22 2.04  35 2.04   4 2.25  34 2.36  21 2.36   3 2.59
  49  0.819  0.645  0.153-  36 2.25  23 2.25   5 2.25  24 2.26  37 2.26  50 2.74
  50  0.849  0.645  0.314-   6 2.10  24 2.11  37 2.11  49 2.74
  51  0.816  0.293  0.041-  23 2.02  25 2.06   1 2.06
  52  0.825  0.316  0.216-  25 2.10  23 2.11  24 2.20  26 2.20   1 2.38
  53  0.310  0.819  0.137-  27 2.01   2 2.13  21 2.14  28 2.18  54 2.77
  54  0.349  0.792  0.298-  29 2.04  22 2.04   2 2.14  28 2.18  53 2.77
  55  0.484  0.314  0.153-  30 2.00   3 2.09  15 2.25   4 2.26  31 2.26
  56  0.524  0.291  0.323-  16 2.00  31 2.08   4 2.09  70 2.78
  57  0.001  0.814  0.246-   6 2.06  33 2.06  13 2.15  32 2.36   5 2.36  58 2.74
  58  0.967  0.823  0.085-   5 2.07  32 2.09  12 2.10  57 2.74
  59  0.140  0.321  0.107-   7 2.05  34 2.13   8 2.14  19 2.14
  60  0.174  0.314  0.276-  35 2.05   9 2.11  20 2.15   8 2.36  34 2.36
  61  0.657  0.814  0.184-  10 2.20  18 2.25  37 2.26  11 2.26  36 2.27
  62  0.696  0.791  0.348-  37 2.01  11 2.03  72 2.78
  63  0.310  0.472  0.137-  14 2.01   2 2.13  34 2.14  15 2.18  64 2.77
  64  0.349  0.499  0.298-  16 2.04  35 2.04   2 2.14  15 2.18  63 2.77
  65  0.816  0.998  0.041-  36 2.02  12 2.06   1 2.06
  66  0.825  0.975  0.216-  12 2.10  36 2.11  37 2.20  13 2.20   1 2.38
  67  0.001  0.477  0.246-   6 2.06  20 2.06  26 2.15  19 2.36   5 2.36  68 2.74
  68  0.967  0.468  0.085-   5 2.07  19 2.09  25 2.10  67 2.74
  69  0.484  0.977  0.153-  17 2.00   3 2.09  28 2.25   4 2.26  18 2.26
  70  0.524  1.000  0.323-  29 2.00  18 2.08   4 2.09  56 2.78
  71  0.657  0.477  0.184-  10 2.20  31 2.25  24 2.26  11 2.26  23 2.27
  72  0.696  0.500  0.348-  24 2.01  11 2.03  62 2.78
  73  0.140  0.970  0.107-   7 2.05  21 2.13   8 2.14  32 2.14
  74  0.174  0.977  0.276-  22 2.05   9 2.11  33 2.15   8 2.36  21 2.36

  LATTYP: Found a simple orthorhombic cell.
 ALAT       =     9.5784100000
 B/A-ratio  =     1.7387693453
 C/A-ratio  =     1.7627867312

  Lattice vectors:

 A1 = (   0.0000000000,   9.5784100000,   0.0000000000)
 A2 = (   0.0000000000,   0.0000000000, -16.6546456851)
 A3 = ( -16.8846940542,   0.0000000000,   0.0000000000)

Analysis of symmetry for initial positions (statically):
 Subroutine PRICEL returns:
 Original cell was already a primitive cell.

 Routine SETGRP: Setting up the symmetry group for a
 simple orthorhombic supercell.

 Subroutine GETGRP returns: Found  2 space group operations
 (whereof  1 operations were pure point group operations)
 out of a pool of  8 trial point group operations.

The static configuration has the point symmetry C_1 .
 The point group associated with its full space group is C_1h.

Analysis of symmetry for dynamics (positions and initial velocities):
 Subroutine PRICEL returns:
 Original cell was already a primitive cell.

 Routine SETGRP: Setting up the symmetry group for a
 simple orthorhombic supercell.

 Subroutine GETGRP returns: Found  2 space group operations
 (whereof  1 operations were pure point group operations)
 out of a pool of  8 trial point group operations.

The dynamic configuration has the point symmetry C_1 .
 The point group associated with its full space group is C_1h.

 Subroutine INISYM returns: Found  2 space group operations
 (whereof  1 operations are pure point group operations),
 and found     1 'primitive' translations

 KPOINTS: gamma-point-only calculation. no periodi

Automatic generation of k-mesh.
Space group operators:
 irot       det(A)        alpha          n_x          n_y          n_z        tau_x        tau_y        tau_z
    1     1.000000     0.000000     1.000000     0.000000     0.000000     0.000000     0.000000     0.000000
    2    -1.000000   180.000000     0.000000     1.000000     0.000000    -0.000000     0.290594     0.000000

 Subroutine IBZKPT returns following result:

 Found      1 irreducible k-points:

 Following reciprocal coordinates:
            Coordinates               Weight
  0.000000  0.000000  0.000000      1.000000

 Following cartesian coordinates:
            Coordinates               Weight
  0.000000  0.000000  0.000000      1.000000

 SYSTEM =  "Millerite NiS"
 POSCAR =  Type_037 Type_137

 Startparameter for this run:
   NWRITE =      2    write-flag & timer
   PREC   = normal    normal or accurate (medium, high low for compatibility)
   ISTART =      0    job   : 0-new  1-cont  2-samecut
   ICHARG =      2    charge: 1-file 2-atom 10-const
   ISPIN  =      1    spin polarized calculation?
   LNONCOLLINEAR =      F non collinear calculations
   LSORBIT =      F    spin-orbit coupling
   INIWAV =      1    electr: 0-lowe 1-rand  2-diag
   LASPH  =      F    aspherical Exc in radial PAW
   METAGGA=      F    non-selfconsistent MetaGGA calc.

 Electronic Relaxation 1
   ENCUT  =  450.0 eV  33.07 Ry    5.75 a.u.  29.20 16.57 28.81*2*pi/ulx,y,z
   ENINI  =  450.0     initial cutoff
   ENAUG  =  703.4 eV  augmentation charge cutoff
   NELM   =    100;   NELMIN=  2; NELMDL= -5     # of ELM steps
   EDIFF  = 0.1E-03   stopping-criterion for ELM
   LREAL  =      T    real-space projection
   NLSPLINE    = F    spline interpolate recip. space projectors
   LCOMPAT=      F    compatible to vasp.4.4
[...]
     0.000000000  9.578410000  0.000000000     0.000000000  0.104401461  0.000000000
     0.000000000  0.000000000 16.654645685     0.000000000  0.000000000  0.060043307

  length of vectors
    16.884694054  9.578410000 16.654645685     0.059225237  0.104401461  0.060043307

 FORCES acting on ions
    electron-ion (+dipol)            ewald-force                    non-local-force                 convergence-correction
   0.483E+03 -.103E-02 0.156E+04   -.487E+03 -.105E-06 -.156E+04   0.364E+01 0.000E+00 0.256E+01   -.148E-01 -.184E-06 -.432E-02
   0.822E+03 -.857E-03 -.587E+03   -.827E+03 -.339E-08 0.586E+03   0.407E+01 0.000E+00 0.953E+00   0.106E-01 0.805E-08 -.944E-02
   0.179E+03 -.923E-03 0.261E+04   -.180E+03 0.216E-06 -.262E+04   0.149E+01 0.000E+00 0.353E+01   -.336E-02 -.895E-07 0.747E-02
   0.156E+03 -.809E-03 -.183E+04   -.159E+03 0.178E-07 0.184E+04   0.279E+01 0.000E+00 -.488E+01   -.199E-02 -.131E-06 -.326E-02
   0.636E+03 -.868E-03 0.137E+04   -.642E+03 0.123E-07 -.137E+04   0.536E+01 0.000E+00 0.445E+01   0.145E-01 -.196E-06 -.132E-01
   0.701E+03 -.111E-02 -.319E+04   -.707E+03 0.140E-07 0.320E+04   0.359E+01 0.000E+00 -.380E+01   0.270E-01 -.282E-06 0.999E-02
   0.476E+03 -.105E-02 0.418E+04   -.479E+03 0.155E-07 -.419E+04   0.215E+01 0.000E+00 0.465E+01   0.123E-01 -.242E-06 0.153E-01
   0.782E+03 -.808E-03 0.412E+03   -.786E+03 0.876E-08 -.411E+03   0.344E+01 0.000E+00 -.501E+00   0.253E-01 -.176E-06 -.198E-01
   0.179E+03 -.933E-03 -.352E+04   -.182E+03 0.419E-08 0.352E+04   0.426E+01 0.000E+00 0.708E+00   0.198E-01 -.111E-06 -.147E-01
   -.601E+03 -.998E-03 0.167E+04   0.604E+03 0.985E-07 -.167E+04   -.282E+01 0.000E+00 0.414E+01   -.273E-01 -.245E-06 0.125E-02
   -.672E+01 -.931E-03 -.236E+04   0.369E+01 0.632E-07 0.236E+04   0.242E+01 0.000E+00 -.658E+01   -.341E-01 -.204E-06 0.591E-02
   -.350E+03 0.148E+03 0.220E+04   0.356E+03 -.150E+03 -.221E+04   -.486E+01 0.250E+01 0.418E+01   0.124E-01 0.976E-02 -.103E-01
   0.470E+03 0.243E+03 -.230E+04   -.469E+03 -.246E+03 0.230E+04   -.155E+01 0.238E+01 -.294E+01   0.145E-01 0.566E-02 -.174E-02
   0.166E+03 0.429E+03 0.391E+04   -.170E+03 -.425E+03 -.391E+04   0.400E+01 -.426E+01 -.202E+01   -.766E-02 0.691E-03 0.280E-02
   -.220E+03 0.428E+03 0.173E+03   0.220E+03 -.432E+03 -.174E+03   0.533E+00 0.385E+01 0.101E+01   -.114E-01 -.203E-02 -.352E-02
   -.259E+03 0.160E+03 -.370E+04   0.262E+03 -.164E+03 0.370E+04   -.269E+01 0.441E+01 0.240E+01   -.503E-02 -.437E-02 -.115E-01
   -.424E+03 0.662E+03 0.356E+04   0.423E+03 -.657E+03 -.356E+04   0.128E+01 -.578E+01 -.103E+01   -.147E-01 0.704E-02 -.833E-04
   -.773E+03 0.407E+03 -.997E+03   0.776E+03 -.412E+03 0.999E+03   -.325E+01 0.442E+01 -.359E+01   -.257E-01 0.916E-02 0.152E-02
   -.205E+03 0.374E+03 0.208E+04   0.207E+03 -.376E+03 -.209E+04   -.156E+01 0.188E+01 0.513E+01   0.320E-01 -.149E-01 -.414E-02
   -.250E+03 0.369E+03 -.257E+04   0.254E+03 -.374E+03 0.257E+04   -.238E+01 0.386E+01 -.251E+01   0.294E-01 -.475E-02 -.208E-02
   -.726E+02 0.661E+03 0.109E+04   0.742E+02 -.665E+03 -.109E+04   -.123E+01 0.338E+01 0.163E+01   0.485E-02 0.478E-02 -.914E-02
   -.240E+02 0.137E+03 -.321E+04   0.243E+02 -.139E+03 0.321E+04   -.159E+00 0.285E+01 0.160E+01   0.771E-02 -.323E-02 -.163E-01
   0.332E+03 -.372E+03 0.240E+04   -.334E+03 0.374E+03 -.240E+04   0.107E+01 -.112E+01 0.632E+01   -.156E-01 -.130E-01 -.124E-01
   -.248E+03 0.493E+03 -.178E+04   0.251E+03 -.496E+03 0.178E+04   -.186E+01 0.320E+01 -.538E+01   -.231E-01 -.144E-01 0.207E-02
   -.350E+03 -.148E+03 0.220E+04   0.356E+03 0.150E+03 -.221E+04   -.486E+01 -.250E+01 0.418E+01   0.124E-01 -.976E-02 -.103E-01
   0.470E+03 -.243E+03 -.230E+04   -.469E+03 0.246E+03 0.230E+04   -.155E+01 -.238E+01 -.294E+01   0.145E-01 -.566E-02 -.174E-02
   0.166E+03 -.429E+03 0.391E+04   -.170E+03 0.425E+03 -.391E+04   0.400E+01 0.426E+01 -.202E+01   -.766E-02 -.691E-03 0.280E-02
   -.220E+03 -.428E+03 0.173E+03   0.220E+03 0.432E+03 -.174E+03   0.533E+00 -.385E+01 0.101E+01   -.114E-01 0.203E-02 -.352E-02
   -.259E+03 -.160E+03 -.370E+04   0.262E+03 0.164E+03 0.370E+04   -.269E+01 -.441E+01 0.240E+01   -.503E-02 0.437E-02 -.115E-01
   -.424E+03 -.662E+03 0.356E+04   0.423E+03 0.657E+03 -.356E+04   0.128E+01 0.578E+01 -.103E+01   -.147E-01 -.704E-02 -.833E-04
   -.773E+03 -.407E+03 -.997E+03   0.776E+03 0.412E+03 0.999E+03   -.325E+01 -.442E+01 -.359E+01   -.257E-01 -.916E-02 0.152E-02
   -.205E+03 -.374E+03 0.208E+04   0.207E+03 0.376E+03 -.209E+04   -.156E+01 -.188E+01 0.513E+01   0.320E-01 0.149E-01 -.414E-02
   -.250E+03 -.369E+03 -.257E+04   0.254E+03 0.374E+03 0.257E+04   -.238E+01 -.386E+01 -.251E+01   0.294E-01 0.475E-02 -.208E-02
   -.726E+02 -.661E+03 0.109E+04   0.742E+02 0.665E+03 -.109E+04   -.123E+01 -.338E+01 0.163E+01   0.485E-02 -.478E-02 -.914E-02
   -.240E+02 -.137E+03 -.321E+04   0.243E+02 0.139E+03 0.321E+04   -.159E+00 -.285E+01 0.160E+01   0.771E-02 0.323E-02 -.163E-01
   0.332E+03 0.372E+03 0.240E+04   -.334E+03 -.374E+03 -.240E+04   0.107E+01 0.112E+01 0.632E+01   -.156E-01 0.130E-01 -.124E-01
   -.248E+03 -.493E+03 -.178E+04   0.251E+03 0.496E+03 0.178E+04   -.186E+01 -.320E+01 -.538E+01   -.231E-01 0.144E-01 0.207E-02
   0.224E+03 -.214E-04 -.157E+04   -.224E+03 -.859E-08 0.157E+04   -.929E+00 0.000E+00 -.121E+01   0.361E-02 0.372E-07 0.129E-02
   -.125E+03 0.135E-04 0.329E+03   0.127E+03 0.139E-07 -.333E+03   -.365E+00 0.000E+00 0.110E+01   0.121E-01 0.257E-07 -.516E-02
   -.413E+03 0.712E-05 0.124E+04   0.416E+03 -.675E-07 -.124E+04   -.166E+01 0.000E+00 0.206E+01   -.110E-01 -.277E-07 -.735E-03
   -.203E+03 -.504E-04 -.887E+03   0.203E+03 0.266E-07 0.892E+03   0.143E+01 0.000E+00 -.407E+01   -.758E-02 -.215E-07 -.691E-03
   -.382E+03 0.694E-06 0.732E+03   0.384E+03 -.136E-06 -.734E+03   0.382E+00 0.000E+00 0.150E+01   -.125E-01 0.211E-07 0.441E-03
   -.461E+03 0.170E-04 -.119E+04   0.466E+03 -.206E-07 0.120E+04   -.151E+01 0.000E+00 -.917E+00   -.126E-01 0.246E-07 -.371E-02
   -.129E+03 0.386E-05 0.163E+04   0.131E+03 0.395E-09 -.164E+04   -.307E+00 0.000E+00 0.961E+00   0.941E-02 0.257E-07 -.492E-02
   -.216E+03 0.828E-05 0.991E+01   0.217E+03 0.101E-07 -.103E+02   0.347E+00 0.000E+00 -.149E+01   0.102E-01 0.240E-07 0.786E-03
   -.404E+02 0.343E-05 -.175E+04   0.410E+02 -.130E-07 0.175E+04   -.385E-01 0.000E+00 -.908E+00   0.111E-01 -.100E-07 0.966E-03
   -.162E+03 -.175E-04 0.147E+04   0.165E+03 0.456E-07 -.147E+04   -.745E+00 0.000E+00 0.207E+01   -.754E-02 -.422E-07 0.121E-02
   -.144E+03 -.320E-04 -.543E+03   0.145E+03 0.176E-07 0.547E+03   0.655E+00 0.000E+00 -.339E+01   0.411E-02 -.456E-07 -.648E-02
   -.162E+02 -.704E-04 0.696E+03   0.173E+02 -.157E-07 -.699E+03   -.661E+00 0.000E+00 0.215E+01   -.284E-02 -.290E-07 -.687E-02
   -.206E+02 -.260E-04 -.128E+04   0.224E+02 0.179E-07 0.128E+04   -.798E+00 0.000E+00 -.217E+01   -.894E-03 -.759E-07 0.602E-02
   0.399E+02 -.925E+02 0.167E+04   -.396E+02 0.936E+02 -.168E+04   -.608E+00 -.242E+00 0.218E+01   -.177E-02 -.280E-02 -.430E-02
   0.160E+03 0.127E+03 -.579E+03   -.162E+03 -.130E+03 0.584E+03   0.537E+00 0.193E+01 -.275E+01   -.277E-02 -.595E-02 -.107E-02
   0.316E+03 -.332E+02 0.716E+03   -.318E+03 0.330E+02 -.720E+03   0.793E+00 0.716E+00 0.254E+01   0.303E-02 0.873E-03 -.157E-02
   0.200E+03 0.589E+02 -.117E+04   -.201E+03 -.583E+02 0.118E+04   0.139E+00 -.521E-01 -.303E+01   0.243E-02 -.665E-03 -.577E-02
   0.229E+00 -.212E+03 0.458E+03   -.156E+01 0.214E+03 -.460E+03   -.679E-02 -.213E-02 0.182E+01   -.279E-02 -.235E-02 0.157E-02
   -.213E+03 0.566E+02 -.144E+04   0.214E+03 -.557E+02 0.145E+04   0.246E-01 -.745E+00 -.249E+01   -.417E-02 -.332E-02 -.589E-02
   0.176E+03 -.184E+03 -.440E+03   -.177E+03 0.187E+03 0.440E+03   0.640E-01 -.101E+01 -.102E+01   0.115E-01 0.611E-02 -.154E-03
   0.945E+02 -.555E+02 0.133E+04   -.964E+02 0.552E+02 -.133E+04   0.151E+01 0.927E+00 0.414E+01   0.553E-02 0.549E-02 -.638E-02
   0.222E+03 -.269E+03 0.105E+04   -.223E+03 0.269E+03 -.106E+04   0.164E+00 0.727E+00 0.118E+01   0.109E-01 -.121E-01 -.335E-02
   0.903E+02 -.159E+03 -.825E+03   -.904E+02 0.160E+03 0.827E+03   -.392E+00 -.137E+01 -.911E+00   0.557E-02 0.102E-02 -.759E-02
   -.438E+02 -.871E+02 0.321E+03   0.417E+02 0.897E+02 -.323E+03   0.164E+01 -.176E+01 0.826E+00   -.131E-01 0.636E-02 -.477E-03
   -.460E+02 -.295E+03 -.156E+04   0.450E+02 0.299E+03 0.156E+04   0.485E+00 -.240E+01 -.798E+00   -.115E-01 0.263E-02 0.399E-02
   0.316E+03 0.332E+02 0.716E+03   -.318E+03 -.330E+02 -.720E+03   0.793E+00 -.716E+00 0.254E+01   0.303E-02 -.873E-03 -.157E-02
   0.200E+03 -.589E+02 -.117E+04   -.201E+03 0.583E+02 0.118E+04   0.139E+00 0.521E-01 -.303E+01   0.243E-02 0.665E-03 -.577E-02
   0.399E+02 0.925E+02 0.167E+04   -.396E+02 -.936E+02 -.168E+04   -.608E+00 0.242E+00 0.218E+01   -.177E-02 0.280E-02 -.430E-02
   0.160E+03 -.127E+03 -.579E+03   -.162E+03 0.130E+03 0.584E+03   0.537E+00 -.193E+01 -.275E+01   -.277E-02 0.595E-02 -.107E-02
   0.176E+03 0.184E+03 -.440E+03   -.177E+03 -.187E+03 0.440E+03   0.640E-01 0.101E+01 -.102E+01   0.115E-01 -.611E-02 -.154E-03
   0.945E+02 0.555E+02 0.133E+04   -.964E+02 -.552E+02 -.133E+04   0.151E+01 -.927E+00 0.414E+01   0.553E-02 -.549E-02 -.638E-02
   0.229E+00 0.212E+03 0.458E+03   -.156E+01 -.214E+03 -.460E+03   -.679E-02 0.213E-02 0.182E+01   -.279E-02 0.235E-02 0.157E-02
   -.213E+03 -.566E+02 -.144E+04   0.214E+03 0.557E+02 0.145E+04   0.246E-01 0.745E+00 -.249E+01   -.417E-02 0.332E-02 -.589E-02
   -.438E+02 0.871E+02 0.321E+03   0.417E+02 -.897E+02 -.323E+03   0.164E+01 0.176E+01 0.826E+00   -.131E-01 -.636E-02 -.477E-03
   -.460E+02 0.295E+03 -.156E+04   0.450E+02 -.299E+03 0.156E+04   0.485E+00 0.240E+01 -.798E+00   -.115E-01 -.263E-02 0.399E-02
   0.222E+03 0.269E+03 0.105E+04   -.223E+03 -.269E+03 -.106E+04   0.164E+00 -.727E+00 0.118E+01   0.109E-01 0.121E-01 -.335E-02
   0.903E+02 0.159E+03 -.825E+03   -.904E+02 -.160E+03 0.827E+03   -.392E+00 0.137E+01 -.911E+00   0.557E-02 -.102E-02 -.759E-02
   -.943E+01 -.329E-02 -.137E+02   -.568E-13 0.134E-11 -.409E-11   0.957E+01 0.178E-14 0.139E+02   0.247E-01 -.435E-06 -.234E+00

 POSITION                                       TOTAL-FORCE (eV/Angst)
     13.17084      1.39171      2.05636        -0.238941     -0.000000      1.626545
      5.02033      6.18092      3.59863        -0.981573     -0.000000      0.265604
      7.02425      1.39171      1.86868         0.274360     -0.000000     -1.014665
      7.93172      1.39171      4.11272        -0.781066     -0.000000     -1.025238
     16.08224      6.18092      2.57045        -0.423512     -0.000000      2.206541
     16.43155      6.18092      5.27663        -1.732172     -0.000000      0.484147
      3.07695      1.39171      0.83074        -0.560776     -0.000000     -1.924429
      2.10894      1.39171      3.08454        -1.017727     -0.000000      0.530533
      1.85550      1.39171      5.43907         0.873635     -0.000000      1.020379
      9.63780      6.18092      2.69698         0.401587     -0.000000     -0.664203
     10.84312      6.18092      4.62682        -0.640325     -0.000000     -1.138520
     15.31939      0.02742      2.05416         0.927623      0.571184     -0.152127
     15.93541      0.09100      4.45720        -0.893264     -0.722499     -0.029510
      6.55055      4.95498      0.82378         0.094117     -0.327393     -1.198747
      7.17375      4.91558      3.19116         0.603278     -0.341844      0.068471
      7.83124      4.50397      5.53312        -0.021937      0.497875      0.761017
      9.53897      0.19162      1.14874         0.075931     -0.370010     -1.224785
     10.08514      0.12638      3.70525         0.012607     -0.974682     -1.915267
      1.35096      4.91558      2.16298         0.342671     -0.920532      2.167922
      1.89667      4.86415      4.89681         1.238496     -1.326329      0.788258
      4.26235      0.12638      2.67707         0.400952     -0.529456      1.343871
      4.92133      9.37224      5.09768         0.123543     -0.039468      1.075913
     13.06520      4.12550      2.02982        -0.794558      1.090969     -0.046194
     12.99653      4.91558      4.21934         0.617310      0.157753     -1.273275
     15.31939      2.75601      2.05416         0.927623     -0.571184     -0.152127
     15.93541      2.69243      4.45720        -0.893264      0.722499     -0.029510
      6.55055      7.40686      0.82378         0.094117      0.327393     -1.198747
      7.17375      7.44626      3.19116         0.603278      0.341844      0.068471
      7.83124      7.85787      5.53312        -0.021937     -0.497875      0.761017
      9.53897      2.59181      1.14874         0.075931      0.370010     -1.224785
     10.08514      2.65705      3.70525         0.012607      0.974682     -1.915267
      1.35096      7.44626      2.16298         0.342671      0.920532      2.167922
      1.89667      7.49768      4.89681         1.238496      1.326329      0.788258
      4.26235      2.65705      2.67707         0.400952      0.529456      1.343871
      4.92133      2.98960      5.09768         0.123543      0.039468      1.075913
     13.06520      8.23633      2.02982        -0.794558     -1.090969     -0.046194
     12.99653      7.44626      4.21934         0.617310     -0.157753     -1.273275
     16.75514      1.39171      5.82906        -0.316189     -0.000000      3.093288
     16.74052      1.39171      3.05601         1.614558     -0.000000     -2.378170
      8.00634      6.18092      1.51374         1.039204     -0.000000     -2.316862
      8.59001      6.18092      4.59828         1.171107     -0.000000      0.952951
     10.91773      1.39171      2.02783         2.026945     -0.000000     -0.854287
     11.25135      1.39171      4.78128         2.891907     -0.000000      2.936860
      1.72528      6.18092      0.66609         1.348161     -0.000000     -4.095129
      2.76722      6.18092      3.57010         1.868160     -0.000000     -1.882542
      1.29314      6.18092      6.34831         0.621212     -0.000000      3.951054
      5.08581      1.39171      1.17521         1.613809     -0.000000     -2.750578
      5.67861      1.39171      4.08419         1.053746     -0.000000      0.176720
     13.82913      6.18092      2.54192         0.416939     -0.000000     -1.611772
     14.33606      6.18092      5.23716         1.027542     -0.000000      2.575965
     13.78481      2.80372      0.68160        -0.316038      0.870144     -3.718262
     13.93309      3.02591      3.60443        -0.833764     -0.844296      2.435987
      5.23538      7.84351      2.28294        -1.285160      0.504699     -1.638040
      5.89478      7.58295      4.95641        -1.048915      0.506548      1.843695
      8.17565      3.00295      2.54670        -1.338639      1.759594      0.265166
      8.84694      2.78348      5.37400         0.250765      0.171544      2.788576
      0.02514      7.79215      4.08897        -1.215381      1.547851     -0.674111
     16.32956      7.88247      1.41317        -0.414608      0.618082     -2.882079
      2.37190      3.07122      1.78154        -0.942368      0.980103     -1.500741
      2.93654      3.00295      4.60306        -0.478717      0.003392      0.746161
     11.08705      7.79215      3.06079        -0.406480      0.844535     -0.983350
     11.74661      7.57235      5.79458        -0.472759      1.282813      3.869358
      5.23538      4.51833      2.28294        -1.285160     -0.504699     -1.638040
      5.89478      4.77889      4.95641        -1.048915     -0.506548      1.843695
     13.78481      9.55812      0.68160        -0.316038     -0.870144     -3.718262
     13.93309      9.33592      3.60443        -0.833764      0.844296      2.435987
      0.02514      4.56969      4.08897        -1.215381     -1.547851     -0.674111
     16.32956      4.47937      1.41317        -0.414608     -0.618082     -2.882079
      8.17565      9.35889      2.54670        -1.338639     -1.759594      0.265166
      8.84694      9.57835      5.37400         0.250765     -0.171544      2.788576
     11.08705      4.56969      3.06079        -0.406480     -0.844535     -0.983350
     11.74661      4.78949      5.79458        -0.472759     -1.282813      3.869358
      2.37190      9.29062      1.78154        -0.942368     -0.980103     -1.500741
      2.93654      9.35889      4.60306        -0.478717     -0.003392      0.746161
    total drift:                                0.160522     -0.003287     -0.100513

  FREE ENERGIE OF THE ION-ELECTRON SYSTEM (eV)
  free  energy   TOTEN  =      -350.37023872 eV

  energy  without entropy=     -349.17650957  energy(sigma->0) =     -349.77337414