 vasp.5.4.4.18Apr17-6-g9f103f2a35 (build Aug 13 2019 17:33:20) gamma-only

 executed on             LinuxIFC date 2020.05.10  15:10:04

 INCAR:
 POTCAR:    PAW_PBE Ni_pv 06Sep2000
 POTCAR:    PAW_PBE S 06Sep2000
 POTCAR:    PAW_PBE Ni_pv 06Sep2000
   VRHFIN =Ni:

   TITEL  = PAW_PBE Ni_pv 06Sep2000
   POMASS =   58.690; ZVAL   =   16.000    mass and valenz
   ENMAX  =  367.986; ENMIN  =  275.989 eV

 POTCAR:    PAW_PBE S 06Sep2000
   VRHFIN =S : s2p4

   TITEL  = PAW_PBE S 06Sep2000
   POMASS =   32.066; ZVAL   =    6.000    mass and valenz
   ENMAX  =  258.689; ENMIN  =  194.016 eV

 Optimization of the real space projectors (new method)

 maximal supplied QI-value         = 18.90
 optimisation between [QCUT,QGAM] = [ 10.77, 21.73] = [ 32.49,132.25] Ry
 Optimized for a Real-space Cutoff    1.38 Angstroem

   l    n(q)    QCUT    max X(q) W(low)/X(q) W(high)/X(q)  e(spline)
   1      8    10.771     2.836    0.40E-04    0.29E-04    0.12E-06
   1      8    10.771     4.023    0.10E-03    0.48E-04    0.29E-06
   2      8    10.771    73.368    0.42E-03    0.97E-04    0.44E-06
   2      8    10.771    69.010    0.42E-03    0.99E-04    0.45E-06
   0      9    10.771    54.797    0.10E-03    0.56E-04    0.74E-07
   0      9    10.771    24.266    0.89E-04    0.49E-04    0.67E-07
 Optimization of the real space projectors (new method)

 maximal supplied QI-value         = 19.84
 optimisation between [QCUT,QGAM] = [ 10.71, 21.63] = [ 32.15,130.99] Ry
 Optimized for a Real-space Cutoff    1.19 Angstroem

   l    n(q)    QCUT    max X(q) W(low)/X(q) W(high)/X(q)  e(spline)
   0      8    10.715   187.594    0.41E-03    0.53E-04    0.66E-07
   0      8    10.715   164.243    0.41E-03    0.53E-04    0.65E-07
   1      7    10.715    67.533    0.19E-03    0.59E-03    0.68E-07
   1      7    10.715    50.729    0.19E-03    0.58E-03    0.67E-07
  PAW_PBE Ni_pv 06Sep2000               :
  PAW_PBE S 06Sep2000                   :

 POSCAR: Type_048 Type_148
  positions in cartesian coordinates
 exchange correlation table for  LEXCH =        8
   RHO(1)=    0.500       N(1)  =     2000
   RHO(2)=  100.500       N(2)  =     4000

 ion  position               nearest neighbor table
   1  0.261  0.479  0.253-  73 2.25  58 2.26  80 2.26  28 2.30  54 2.36  59 2.36   7 2.53  21 2.53

   2  0.355  0.385  0.388-  74 2.25  54 2.26  59 2.26   3 2.36  60 2.36  66 2.36   8 2.53  22 2.53

[...]

  27  0.373  0.867  0.497-  77 2.04  89 2.09  84 2.09  26 2.37
  28  0.137  0.627  0.179-  88 1.98  80 2.09  73 2.09   1 2.30  58 2.43  12 2.45
  29  0.051  0.551  0.473-  74 2.05  52 2.08  53 2.12  96 2.13  39 2.47
  30  0.284  0.833  0.100-  75 2.01  82 2.07  76 2.11  81 2.13   4 2.45  36 2.48
  31  0.368  0.739  0.218-  80 2.25  82 2.26  76 2.26  83 2.36  85 2.36  25 2.53  45 2.53
  32  0.462  0.645  0.353-  54 2.25  83 2.26  85 2.26  84 2.36  86 2.36  26 2.53  46 2.53
  33  0.000  0.872  0.218-  82 2.25  88 2.26  69 2.26  73 2.36  90 2.36  37 2.53  43 2.53
  34  0.094  0.778  0.353-  83 2.25  73 2.26  90 2.26  78 2.36  74 2.36  44 2.53  38 2.53
  35  0.189  0.689  0.473-  74 2.05  52 2.08  84 2.12  78 2.13  39 2.47
  36  0.406  0.965  0.083-  75 2.01  55 2.04  93 2.10  76 2.36  56 2.36  30 2.48   4 2.53
  37  0.761  0.979  0.253-  61 2.25  94 2.26  69 2.26  90 2.36  95 2.36  43 2.53  33 2.53
  38  0.855  0.885  0.388-  62 2.25  90 2.26  95 2.26  96 2.36  78 2.36  44 2.53  34 2.53
  39  0.954  0.786  0.505-  96 2.00  78 2.00  35 2.47  29 2.47
  40  0.687  0.559  0.131-  63 2.07  92 2.08  91 2.14  70 2.17  76 2.42  24 2.45
  41  0.549  0.554  0.472-  86 2.05  65 2.08  84 2.10  66 2.14
  42  0.774  0.833  0.083-  87 1.99  93 2.08  91 2.09  88 2.36  94 2.36  48 2.53  16 2.53
  43  0.868  0.739  0.218-  92 2.25  94 2.26  88 2.26  95 2.36  73 2.36  37 2.53  33 2.53
  44  0.962  0.645  0.353-  67 2.25  95 2.26  73 2.26  96 2.36  74 2.36  38 2.53  34 2.53
  45  0.500  0.872  0.218-  94 2.25  76 2.26  56 2.26  85 2.36  79 2.36  25 2.53  31 2.53
  46  0.594  0.778  0.353-  95 2.25  85 2.26  79 2.26  89 2.36  86 2.36  32 2.53  26 2.53
  47  0.685  0.690  0.473-  86 2.05  65 2.07  89 2.10  96 2.15
  48  0.906  0.965  0.083-  87 2.00  68 2.06  81 2.11  88 2.36  69 2.36  16 2.53  42 2.53
  49  0.073  0.167  0.270-  25 2.25  10 2.26  20 2.26   9 2.36  19 2.36
  50  0.167  0.073  0.405-   5 2.05  11 2.05  26 2.25  10 2.36  20 2.36  77 2.70
  51  0.479  0.261  0.135-  12 2.01  16 2.25   7 2.26  21 2.26   6 2.65
  52  0.207  0.533  0.529-   3 2.05  35 2.08  29 2.08  74 2.74
  53  0.030  0.378  0.451-  15 2.09  11 2.10  29 2.12  10 2.36  14 2.36
  54  0.436  0.472  0.315-  32 2.25   2 2.26  22 2.26   1 2.36  21 2.36
  55  0.249  0.125  0.045-  36 2.04   6 2.05   4 2.06  75 2.78
  56  0.342  0.066  0.180-   6 2.24   7 2.25  25 2.26  45 2.26   4 2.36  36 2.36
  57  0.106  0.397  0.067-  24 2.06   6 2.11  58 2.58
  58  0.174  0.397  0.180-  12 2.05   6 2.12   9 2.25   7 2.26   1 2.26  28 2.43  57 2.58
  59  0.268  0.303  0.315-  10 2.25   2 2.26   8 2.26   7 2.36   1 2.36
  60  0.362  0.209  0.451-  17 2.02   3 2.11  11 2.14   8 2.36   2 2.36
  61  0.573  0.167  0.270-  37 2.25  22 2.26   8 2.26  21 2.36   7 2.36
  62  0.667  0.073  0.405-  17 2.02  23 2.02  38 2.25  22 2.36   8 2.36
  63  0.754  0.420  0.061-  24 2.05  40 2.07  18 2.08  91 2.70
  64  0.979  0.261  0.135-  18 2.15   4 2.25  19 2.26   9 2.26  24 2.36
  65  0.709  0.530  0.527-  15 2.04  47 2.07  41 2.08  86 2.70
  66  0.530  0.378  0.451-  23 2.02   3 2.11  41 2.14  22 2.36   2 2.36
  67  0.936  0.472  0.315-  44 2.25  14 2.26  10 2.26  13 2.36   9 2.36
  68  0.752  0.140  0.053-  16 2.04  18 2.05  48 2.06
  69  0.842  0.066  0.180-  19 2.25  37 2.26  33 2.26  16 2.36  48 2.36  18 2.41
  70  0.674  0.397  0.180-  18 2.15  40 2.17  21 2.25  19 2.26  13 2.26
  71  0.768  0.303  0.315-  22 2.25  14 2.26  20 2.26  19 2.36  13 2.36
  72  0.862  0.209  0.451-  23 2.07  15 2.09   5 2.10  20 2.36  14 2.36
  73  0.073  0.667  0.270-  28 2.09   1 2.25  34 2.26  44 2.26  33 2.36  43 2.36
  74  0.167  0.573  0.405-  29 2.05  35 2.05   2 2.25  34 2.36  44 2.36  52 2.74
  75  0.367  0.853  0.022-  30 2.01  36 2.01  76 2.75  55 2.78
  76  0.479  0.761  0.135-  30 2.11  31 2.26  45 2.26  36 2.36  40 2.42  75 2.75
  77  0.210  0.030  0.527-  27 2.04   5 2.07  11 2.08  50 2.70
  78  0.030  0.878  0.451-  39 2.00  35 2.13   5 2.15  34 2.36  38 2.36
  79  0.436  0.972  0.315-   8 2.25  26 2.26  46 2.26  25 2.36  45 2.36
  80  0.342  0.566  0.180-  12 2.06  28 2.09  31 2.25   1 2.26  21 2.26
  81  0.092  0.964  0.066-   4 2.10  48 2.11  30 2.13  82 2.64
  82  0.174  0.897  0.180-  30 2.07  33 2.25  31 2.26  25 2.26   4 2.36  81 2.64
  83  0.268  0.803  0.315-  34 2.25  26 2.26  32 2.26  31 2.36  25 2.36
  84  0.362  0.709  0.451-  27 2.09  41 2.10  35 2.12  32 2.36  26 2.36
  85  0.573  0.667  0.270-  13 2.25  46 2.26  32 2.26  45 2.36  31 2.36
  86  0.667  0.573  0.405-  47 2.05  41 2.05  14 2.25  46 2.36  32 2.36  65 2.70
  87  0.868  0.870  0.013-  42 1.99  48 2.00
  88  0.979  0.761  0.135-  28 1.98  43 2.26  33 2.26  42 2.36  48 2.36
  89  0.530  0.878  0.451-  17 2.07  27 2.09  47 2.10  46 2.36  26 2.36
  90  0.936  0.972  0.315-  20 2.25  38 2.26  34 2.26  37 2.36  33 2.36
  91  0.760  0.657  0.069-  24 2.07  42 2.09  40 2.14  92 2.64  63 2.70
  92  0.842  0.566  0.180-  40 2.08  43 2.25  13 2.26   9 2.26  24 2.36  91 2.64
  93  0.583  0.979  0.064-  16 2.08  42 2.08  36 2.10  94 2.74
  94  0.674  0.897  0.180-  45 2.25  43 2.26  37 2.26  42 2.36  16 2.36  93 2.74
  95  0.768  0.803  0.315-  46 2.25  38 2.26  44 2.26  43 2.36  37 2.36
  96  0.862  0.709  0.451-  39 2.00  29 2.13  47 2.15  44 2.36  38 2.36

  LATTYP: Found a base centered orthorhombic cell.
 ALAT       =    11.8257374459
 B/A-ratio  =     1.6199260857
 C/A-ratio  =     1.8387210052

  Lattice vectors:

 A1 = (  11.2564630382,   0.0000000000,   0.0000000000)
 A2 = (  -5.0445621212, -10.0628203371,   0.0000000000)
 A3 = (   0.0000000000,   0.0000000000, -21.7442318436)

Analysis of symmetry for initial positions (statically):
 Subroutine PRICEL returns:
 Original cell was already a primitive cell.

 Routine SETGRP: Setting up the symmetry group for a
 base centered orthorhombic supercell.

 Subroutine GETGRP returns: Found  1 space group operations
 (whereof  1 operations were pure point group operations)
 out of a pool of  8 trial point group operations.

The static configuration has the point symmetry C_1 .

Analysis of symmetry for dynamics (positions and initial velocities):
 Subroutine PRICEL returns:
 Original cell was already a primitive cell.

 Routine SETGRP: Setting up the symmetry group for a
 base centered orthorhombic supercell.

 Subroutine GETGRP returns: Found  1 space group operations
 (whereof  1 operations were pure point group operations)
 out of a pool of  8 trial point group operations.

The dynamic configuration has the point symmetry C_1 .

 Subroutine INISYM returns: Found  1 space group operations
 (whereof  1 operations are pure point group operations),
 and found     1 'primitive' translations

 KPOINTS: gamma-point-only calculation. no periodi

Automatic generation of k-mesh.
Space group operators:
 irot       det(A)        alpha          n_x          n_y          n_z        tau_x        tau_y        tau_z
    1     1.000000     0.000000     1.000000     0.000000     0.000000     0.000000     0.000000     0.000000

 Subroutine IBZKPT returns following result:

 Found      1 irreducible k-points:

 Following reciprocal coordinates:
            Coordinates               Weight
  0.000000  0.000000  0.000000      1.000000

 Following cartesian coordinates:
            Coordinates               Weight
  0.000000  0.000000  0.000000      1.000000

 SYSTEM =  "Millerite NiS"
 POSCAR =  Type_048 Type_148

 Startparameter for this run:
   NWRITE =      2    write-flag & timer
   PREC   = normal    normal or accurate (medium, high low for compatibility)
   ISTART =      0    job   : 0-new  1-cont  2-samecut
   ICHARG =      2    charge: 1-file 2-atom 10-const
   ISPIN  =      1    spin polarized calculation?
   LNONCOLLINEAR =      F non collinear calculations
   LSORBIT =      F    spin-orbit coupling
   INIWAV =      1    electr: 0-lowe 1-rand  2-diag
   LASPH  =      F    aspherical Exc in radial PAW
   METAGGA=      F    non-selfconsistent MetaGGA calc.

 Electronic Relaxation 1
   ENCUT  =  450.0 eV  33.07 Ry    5.75 a.u.  19.47 19.47 37.61*2*pi/ulx,y,z
   ENINI  =  450.0     initial cutoff
   ENAUG  =  703.4 eV  augmentation charge cutoff
   NELM   =    100;   NELMIN=  2; NELMDL= -5     # of ELM steps
   EDIFF  = 0.1E-03   stopping-criterion for ELM
   LREAL  =      T    real-space projection
   NLSPLINE    = F    spline interpolate recip. space projectors
   LCOMPAT=      F    compatible to vasp.4.4
   GGA_COMPAT  = T    GGA compatible to vasp.4.4-vasp.4.6
   LMAXPAW     = -100 max onsite density
   LMAXMIX     =    2 max onsite mixed and CHGCAR
   VOSKOWN=      0    Vosko Wilk Nusair interpolation
   ROPT   =   -0.00050  -0.00050
 Ionic relaxation
   EDIFFG = 0.1E-02   stopping-criterion for IOM
   NSW    =      0    number of steps for IOM
[...]
     0.000000000  0.000000000 21.744231844     0.000000000  0.000000000  0.045989208

  length of vectors
    11.256463038 11.256463038 21.744231844     0.099375718  0.099375718  0.045989208

 FORCES acting on ions
    electron-ion (+dipol)            ewald-force                    non-local-force                 convergence-correction
   0.545E+02 -.189E+03 0.405E+03   -.536E+02 0.188E+03 -.400E+03   -.642E+00 0.324E+00 -.367E+01   0.332E-02 -.111E-01 0.273E-01
   0.175E+03 -.309E+03 -.239E+04   -.176E+03 0.311E+03 0.239E+04   0.434E+00 -.949E+00 -.741E-01   -.316E-02 -.649E-03 -.437E-01
   -.115E+03 0.180E+03 -.561E+04   0.113E+03 -.177E+03 0.561E+04   0.252E+01 -.401E+01 0.213E+00   -.716E-02 0.552E-03 -.294E-01
   0.505E+03 -.276E+03 0.408E+04   -.508E+03 0.279E+03 -.408E+04   0.310E+01 -.269E+01 0.225E+01   -.208E-01 0.123E-01 0.300E-01
   0.441E+03 0.215E+03 -.490E+04   -.444E+03 -.219E+03 0.490E+04   0.247E+01 0.343E+01 -.182E+01   0.117E-01 0.604E-02 -.181E-01
   -.177E+03 -.227E+03 0.465E+04   0.177E+03 0.227E+03 -.466E+04   0.109E+01 0.104E+00 0.468E+01   0.144E-01 0.388E-01 0.224E-01
   0.341E+01 0.537E+03 0.158E+04   -.218E+01 -.540E+03 -.158E+04   -.109E+01 0.258E+01 -.171E+01   0.140E-01 0.137E-01 0.430E-01
   0.192E+03 0.467E+03 -.141E+04   -.193E+03 -.468E+03 0.141E+04   0.104E+01 0.703E+00 0.166E+01   0.127E-02 -.353E-04 -.622E-02
   -.405E+03 -.890E+02 0.177E+04   0.404E+03 0.891E+02 -.177E+04   0.619E+00 -.182E+00 0.889E+00   -.170E-01 0.953E-02 0.419E-01
   -.473E+03 -.106E+02 -.142E+04   0.473E+03 0.113E+02 0.142E+04   -.569E+00 -.781E+00 0.194E+01   -.346E-02 0.124E-02 0.529E-02
   -.342E+03 -.136E+03 -.489E+04   0.347E+03 0.138E+03 0.489E+04   -.444E+01 -.156E+01 -.191E+01   -.146E-01 -.685E-02 -.189E-01
   -.478E+03 -.426E+03 0.520E+04   0.480E+03 0.428E+03 -.521E+04   -.270E+01 -.127E+01 0.525E+01   0.142E-01 0.919E-02 0.113E-01
   0.309E+03 -.429E+03 0.653E+03   -.309E+03 0.430E+03 -.651E+03   0.120E-01 -.652E+00 -.194E+01   0.359E-02 -.874E-02 0.231E-01
   0.264E+03 -.364E+03 -.238E+04   -.264E+03 0.365E+03 0.238E+04   0.511E+00 -.104E+01 0.550E-02   -.389E-02 0.822E-02 -.276E-01
   0.411E+02 0.747E+02 -.561E+04   -.437E+02 -.704E+02 0.561E+04   0.311E+01 -.511E+01 0.619E+00   0.555E-02 -.195E-02 -.262E-01
   0.405E+03 -.559E+03 0.405E+04   -.408E+03 0.562E+03 -.405E+04   0.201E+01 -.247E+01 0.290E+01   -.205E-02 0.140E-01 0.378E-01
   -.154E+03 0.319E+03 -.501E+04   0.153E+03 -.321E+03 0.501E+04   0.120E+01 0.125E+01 0.969E+00   0.497E-02 -.697E-02 -.248E-01
   0.322E+03 -.181E+03 0.470E+04   -.324E+03 0.181E+03 -.471E+04   0.194E+01 -.680E+00 0.610E+01   0.309E-03 0.202E-01 0.453E-01
   0.219E+03 0.387E+03 0.154E+04   -.219E+03 -.388E+03 -.154E+04   -.473E+00 0.819E+00 -.166E+01   -.241E-02 0.175E-01 0.431E-01
   0.304E+03 0.451E+03 -.144E+04   -.305E+03 -.452E+03 0.144E+04   0.118E+01 0.549E+00 0.218E+01   -.304E-02 0.271E-02 -.177E-02
   -.692E+03 -.893E+02 0.200E+04   0.694E+03 0.888E+02 -.200E+04   -.186E+01 0.357E+00 0.595E+00   0.655E-02 0.225E-02 0.247E-01
   -.510E+03 0.798E+01 -.139E+04   0.510E+03 -.721E+01 0.139E+04   -.848E+00 -.744E+00 0.177E+01   0.262E-02 -.109E-02 -.129E-01
   -.215E+03 0.276E+03 -.501E+04   0.216E+03 -.276E+03 0.501E+04   -.157E+01 -.436E+00 0.897E+00   0.111E-01 -.113E-01 -.232E-01
   -.391E+03 -.646E+02 0.529E+04   0.398E+03 0.626E+02 -.530E+04   -.519E+01 0.602E+00 0.478E+01   -.367E-02 0.401E-02 0.248E-01
   0.227E+03 -.337E+03 0.605E+03   -.228E+03 0.338E+03 -.604E+03   0.914E+00 -.650E+00 -.103E+01   -.190E-02 -.473E-03 0.497E-01
   0.196E+03 -.371E+03 -.238E+04   -.197E+03 0.372E+03 0.238E+04   0.590E+00 -.101E+01 0.107E+00   -.315E-02 0.964E-02 -.257E-01
   -.877E+02 0.367E+01 -.560E+04   0.850E+02 0.469E+00 0.561E+04   0.318E+01 -.502E+01 0.529E+00   -.619E-02 0.922E-02 -.348E-01
   -.188E+02 -.167E+03 0.346E+04   0.211E+02 0.167E+03 -.347E+04   -.256E+01 -.323E+00 0.476E+01   -.288E-02 -.139E-01 0.250E-01
   0.375E+03 0.407E+03 -.477E+04   -.379E+03 -.411E+03 0.477E+04   0.279E+01 0.344E+01 -.225E+01   -.111E-01 0.708E-02 -.244E-01
   0.421E+03 0.104E+04 0.488E+04   -.423E+03 -.104E+04 -.488E+04   0.115E+01 0.171E+01 0.457E+01   -.396E-02 -.281E-01 0.144E-01
   0.116E+03 0.601E+03 0.189E+04   -.115E+03 -.602E+03 -.189E+04   -.414E+00 0.235E+00 -.552E+00   0.616E-02 -.216E-01 0.414E-01
   0.209E+03 0.437E+03 -.136E+04   -.209E+03 -.438E+03 0.136E+04   0.106E+01 0.310E+00 0.202E+01   0.869E-02 -.138E-03 -.192E-02
   -.460E+03 -.227E+03 0.177E+04   0.461E+03 0.229E+03 -.177E+04   -.764E+00 -.133E+01 0.274E+00   -.170E-01 0.114E-01 0.463E-01
   -.483E+03 -.120E+03 -.144E+04   0.484E+03 0.121E+03 0.144E+04   -.843E+00 -.132E+01 0.131E+01   -.877E-02 0.309E-02 0.539E-03
   -.536E+03 -.150E+03 -.477E+04   0.540E+03 0.152E+03 0.477E+04   -.436E+01 -.960E+00 -.232E+01   -.133E-01 0.939E-02 -.218E-01
   -.605E+03 0.189E+03 0.505E+04   0.612E+03 -.190E+03 -.505E+04   -.461E+01 0.748E+00 0.361E+01   0.205E-01 -.142E-01 0.135E-02
   0.293E+03 -.411E+03 0.631E+03   -.294E+03 0.412E+03 -.630E+03   0.991E+00 -.505E+00 -.116E+01   0.640E-02 -.291E-02 0.330E-01
   0.333E+03 -.527E+03 -.271E+04   -.334E+03 0.528E+03 0.271E+04   0.599E+00 -.115E+01 0.141E+01   -.271E-02 -.153E-02 -.180E-01
   0.388E+03 -.626E+03 -.580E+04   -.386E+03 0.624E+03 0.580E+04   -.129E+01 0.211E+01 0.584E+01   -.589E-03 -.232E-02 -.188E-01
   0.719E+03 -.385E+03 0.407E+04   -.725E+03 0.388E+03 -.407E+04   0.499E+01 -.121E+01 0.811E+00   -.490E-02 -.571E-02 0.434E-01
   0.275E+03 0.244E+03 -.488E+04   -.279E+03 -.247E+03 0.488E+04   0.349E+01 0.330E+01 -.195E+01   0.141E-01 0.501E-03 -.235E-01
   0.246E+03 0.559E+03 0.495E+04   -.248E+03 -.563E+03 -.495E+04   0.144E+01 0.283E+01 0.477E+01   -.107E-02 -.182E-01 0.809E-02
   0.442E+03 0.375E+03 0.182E+04   -.445E+03 -.374E+03 -.182E+04   0.231E+01 -.775E+00 0.599E+00   -.884E-02 0.109E-02 0.438E-01
   0.337E+03 0.371E+03 -.143E+04   -.338E+03 -.371E+03 0.142E+04   0.167E+01 0.245E+00 0.120E+01   -.932E-02 -.323E-03 -.217E-02
   -.547E+03 0.852E+02 0.180E+04   0.548E+03 -.861E+02 -.180E+04   -.116E+01 0.835E+00 0.307E+00   0.145E-01 -.156E-01 0.456E-01
   -.535E+03 -.476E+02 -.140E+04   0.535E+03 0.482E+02 0.140E+04   -.852E+00 -.823E+00 0.207E+01   -.186E-02 -.455E-02 -.482E-02
   -.386E+03 -.296E+03 -.489E+04   0.391E+03 0.298E+03 0.489E+04   -.418E+01 -.876E+00 -.192E+01   0.216E-02 -.116E-01 -.219E-01
   -.540E+03 0.151E+03 0.501E+04   0.546E+03 -.152E+03 -.501E+04   -.399E+01 0.349E+00 0.405E+01   -.381E-03 -.747E-02 0.871E-02
   -.587E+02 0.124E+03 0.252E+03   0.599E+02 -.127E+03 -.254E+03   -.117E+01 0.215E+01 0.223E+01   -.725E-02 0.718E-02 0.790E-02
   -.683E+02 0.127E+03 -.909E+03   0.698E+02 -.129E+03 0.905E+03   -.948E+00 0.117E+01 0.958E+00   0.134E-02 0.166E-02 0.608E-02
   -.219E+03 0.298E+02 0.175E+04   0.222E+03 -.301E+02 -.176E+04   -.150E+01 -.145E+01 0.274E+01   0.379E-03 0.151E-01 0.105E-01
   -.346E+02 0.550E+02 -.237E+04   0.354E+02 -.564E+02 0.237E+04   -.589E+00 0.945E+00 -.204E+01   -.121E-01 0.134E-01 -.109E-02
   -.101E+03 -.867E+02 -.157E+04   0.102E+03 0.885E+02 0.157E+04   -.177E+01 -.122E+01 -.185E+01   0.707E-02 -.610E-02 -.709E-02
   -.108E+03 -.144E+03 -.200E+03   0.109E+03 0.147E+03 0.200E+03   -.105E+01 -.253E+01 0.135E+00   0.235E-02 -.179E-02 0.466E-02
   0.112E+02 -.199E+03 0.243E+04   -.118E+02 0.201E+03 -.244E+04   0.431E+00 -.890E+00 0.208E+01   0.568E-03 0.557E-02 -.154E-01
   -.111E+03 -.159E+02 0.898E+03   0.113E+03 0.155E+02 -.897E+03   -.916E+00 0.383E+00 -.659E+00   0.654E-02 -.477E-03 0.233E-01
   -.142E+03 -.190E+03 0.217E+04   0.142E+03 0.193E+03 -.218E+04   0.861E+00 -.208E+01 0.321E+01   0.625E-02 0.787E-02 0.448E-03
   0.254E+03 -.115E+03 0.104E+04   -.258E+03 0.116E+03 -.103E+04   0.206E+01 0.146E+00 0.501E+00   0.138E-03 0.741E-02 0.134E-01
   0.160E+03 0.170E+02 -.234E+03   -.164E+03 -.171E+02 0.234E+03   0.308E+01 0.119E+00 -.656E+00   0.266E-02 0.746E-04 0.606E-02
   0.119E+03 0.662E+02 -.160E+04   -.120E+03 -.672E+02 0.161E+04   0.348E+00 0.195E+01 -.150E+01   -.160E-01 -.110E-01 -.157E-01
[...]
   0.148E+03 -.700E+01 -.213E+03   -.151E+03 0.695E+01 0.213E+03   0.289E+01 0.107E+00 -.278E+00   0.364E-02 0.532E-03 0.946E-02
   0.120E+03 0.541E+02 -.156E+04   -.123E+03 -.548E+02 0.157E+04   0.185E+01 0.110E+01 -.172E+01   0.179E-02 -.719E-02 -.141E-01
   -.672E+02 0.123E+03 0.303E+03   0.685E+02 -.125E+03 -.305E+03   -.123E+01 0.193E+01 0.205E+01   0.413E-02 -.647E-02 0.917E-02
   -.788E+02 0.116E+03 -.901E+03   0.799E+02 -.118E+03 0.897E+03   -.658E+00 0.140E+01 0.976E+00   -.146E-02 -.529E-03 -.325E-02
   -.997E+02 0.177E+03 0.234E+04   0.100E+03 -.179E+03 -.235E+04   -.119E+00 0.111E+01 0.884E+00   0.573E-03 -.509E-02 -.147E-01
   -.633E+02 0.167E+03 0.175E+04   0.646E+02 -.169E+03 -.175E+04   -.227E+01 0.336E+01 0.170E+01   -.403E-02 -.196E-02 0.136E-01
   -.178E+03 -.103E+03 -.160E+04   0.180E+03 0.106E+03 0.160E+04   -.173E+01 -.178E+01 -.188E+01   0.640E-02 -.216E-02 -.150E-01
   -.542E+02 -.168E+03 -.241E+03   0.553E+02 0.171E+03 0.241E+03   -.114E+01 -.265E+01 0.171E+00   -.489E-02 0.122E-02 0.688E-03
   0.900E+02 -.777E+02 0.210E+04   -.916E+02 0.794E+02 -.210E+04   0.136E+01 -.403E+00 0.321E+01   -.415E-02 -.732E-03 0.480E-02
   -.990E+02 -.168E+03 0.101E+04   0.102E+03 0.170E+03 -.101E+04   -.118E+01 -.196E+01 0.540E+00   -.295E-02 -.179E-02 0.211E-01
   0.111E+03 -.941E+02 0.212E+04   -.112E+03 0.966E+02 -.213E+04   0.322E+00 -.185E+01 0.389E+01   -.751E-03 -.180E-02 -.324E-02
   0.176E+03 0.970E+01 0.992E+03   -.179E+03 -.979E+01 -.992E+03   0.223E+01 -.104E+00 0.876E+00   0.344E-02 -.529E-02 0.232E-01
   0.184E+03 -.211E+02 -.229E+03   -.187E+03 0.210E+02 0.229E+03   0.287E+01 0.677E-01 -.179E+00   0.286E-02 -.101E-02 0.136E-02
   0.252E+03 -.707E+02 -.154E+04   -.254E+03 0.709E+02 0.154E+04   0.849E+00 0.221E+00 -.119E+01   0.131E-02 -.212E-02 -.741E-02
   -.450E+01 0.135E+02 -.810E+02   -.233E-11 -.196E-11 0.186E-10   0.426E+01 -.135E+02 0.806E+02   -.312E-01 0.397E-01 0.430E+00

 POSITION                                       TOTAL-FORCE (eV/Angst)
      5.35228      4.81788      5.50842         0.258834     -0.877285      1.417254
      5.93595      3.87238      8.44448        -0.080821      0.162484     -1.153016
      6.02332      3.73086     10.79900         0.519871     -0.860537      0.904782
      2.24633      0.73197      2.57236        -0.832333      0.458010      1.777411
      0.83245      0.55074     10.27535        -0.878205     -0.071005      0.534425
      4.09846      2.40746      2.52804         1.057666     -0.133155      0.075397
      5.35228      2.40903      4.73270         0.155577     -0.425002      0.533829
      5.93595      1.46353      7.66876         0.044374      0.045156     -0.355556
      1.87746      3.73836      4.73270        -0.221632     -0.092729      0.473578
      2.46113      2.79286      7.66876        -0.049257     -0.115949     -0.057949
      3.05050      1.91793     10.27291         0.228257      0.655000      0.458441
      5.64509      4.32756      2.80020        -0.137044      0.822269     -1.860199
     10.98051      4.81788      5.50842        -0.161716      0.119248     -0.058160
     11.56418      3.87238      8.44448         0.011676      0.185650     -1.051811
     11.67210      3.68943     10.80908         0.548419     -0.795788      0.794825
      7.87456      0.73197      2.57236        -0.699319      0.221455      2.190309
      6.36556      0.54500     10.13629         0.435788     -0.431952      0.968313
     10.23610      2.53923      2.48154        -0.137656     -0.823664      0.297284
     10.98051      2.40903      4.73270         0.219609      0.040326      0.922010
     11.56418      1.46353      7.66876         0.185433      0.040353      0.062199
      7.50570      3.73836      4.73270         0.297457     -0.080237      0.247512
      8.08937      2.79286      7.66876        -0.126230      0.024640     -0.350921
      8.71792      1.99715     10.13635         0.247765     -0.529160      0.965497
     12.55026      4.68386      1.79664         1.179499     -1.389346      1.072013
      7.87456      9.84929      5.50842         0.005975     -0.014157      0.015680
      8.45823      8.90379      8.44448        -0.153478      0.052500     -0.943281
      8.57340      8.72537     10.80905         0.442060     -0.867986      0.752737
      4.71106      6.31402      3.88412        -0.295034     -0.847396     -0.590272
      3.35082      5.54008     10.27888        -0.777672      0.120852      0.445473
      7.39380      8.37930      2.18475        -1.050803     -1.493337      0.604197
      7.87456      7.44044      4.73270         0.184264     -0.067145      0.194588
      8.45823      6.49494      7.66876         0.097276     -0.075790     -0.084817
      4.39975      8.76977      4.73270         0.103157      0.166079      0.250883
      4.98341      7.82427      7.66876         0.191803     -0.103310     -0.102935
      5.60361      6.93068     10.27899         0.280601      0.789237      0.444625
      9.44431      9.71527      1.79664         1.795221     -0.388509      2.196413
     13.50279      9.84929      5.50842        -0.206064      0.082133      0.030716
     14.08646      8.90379      8.44448         0.047567     -0.119200      0.051492
     14.70301      7.90503     10.98161         0.008384     -0.036778      1.394710
     10.54860      5.62354      2.85654        -1.622562      1.672528      0.436877
      8.97625      5.57598     10.27291        -0.594263      0.087752      0.502295
     12.91912      8.38594      1.79664        -0.714610     -1.255658      2.443419
     13.50279      7.44044      4.73270        -0.047959      0.062686      0.091102
     14.08646      6.49494      7.66876        -0.058327     -0.204544     -0.042063
     10.02798      8.76977      4.73270         0.074012     -0.089631      0.158108
     10.61165      7.82427      7.66876        -0.068732     -0.164067     -0.024653
     11.19252      6.94613     10.27530         0.432290      0.783202      0.510331
     15.07254      9.71527      1.79664         1.336665     -0.384159      2.555040
      1.66190      1.67871      5.87212        -0.011053     -0.020637      0.027837
      2.24556      0.73321      8.80817         0.512137     -0.726312     -3.037801
      6.70646      2.62422      2.93606         1.081166     -1.648767     -0.143315
      5.01569      5.36298     11.51103         0.245728     -0.427110      2.527712
      2.24556      3.80055      9.79595        -0.076494      0.624939     -0.195966
      7.29013      4.74605      6.85989         0.093172     -0.067127      0.135339
      3.43214      1.25320      0.97261        -0.200175      1.169696     -3.326200
      4.18418      0.66015      3.92384         0.325982      0.004385      0.853865
      3.20199      3.99730      1.46315         1.304120      1.097389     -1.790830
      3.96438      3.99884      3.92384        -2.148097      0.687470      2.009604
      4.54805      3.05334      6.85989         0.043088      0.030314     -0.073486
      5.13172      2.10784      9.79595        -0.984466      0.943638      0.093128
[...]
      6.48666      9.03025      3.92384        -0.765889      0.703390      1.962109
      7.07033      8.08475      6.85989         0.000197      0.053570     -0.101004
      7.65400      7.13925      9.79595        -0.582357      0.398496     -0.138421
      9.81241      6.71012      5.87212         0.076966     -0.007112      0.223740
     10.39608      5.76462      8.80817         0.423270     -0.746849     -3.089109
     14.16565      8.75918      0.28999         0.459743     -0.501318     -4.142427
     14.85697      7.65563      2.93606        -1.041667      1.400496     -1.435294
     10.39608      8.83196      9.79595         0.103089      0.740017     -0.168838
     15.44064      9.77746      6.85989        -0.031091      0.113314      0.048299
     11.86745      6.61132      1.49197        -0.219603      1.254766     -2.018352
     12.33469      5.69156      3.92384         1.575548     -0.101924      1.793961
     11.50168      9.84884      1.38292        -0.839763      0.664487     -2.212509
     12.11489      9.03025      3.92384        -0.120661     -0.197431      0.688620
     12.69856      8.08475      6.85989        -0.048835     -0.037139      0.056509
     13.28223      7.13925      9.79595        -1.762279      0.381345     -0.649813
    total drift:                               -0.267744     -0.010536      0.117831

  FREE ENERGIE OF THE ION-ELECTRON SYSTEM (eV)
  free  energy   TOTEN  =      -472.97862009 eV

  energy  without entropy=     -471.79014750  energy(sigma->0) =     -472.38438379