 vasp.5.4.4.18Apr17-6-g9f103f2a35 (build Aug 13 2019 17:33:20) gamma-only

 executed on             LinuxIFC date 2020.05.12  16:09:42

 INCAR:
 POTCAR:    PAW_PBE Ni_pv 06Sep2000
 POTCAR:    PAW_PBE S 06Sep2000
 POTCAR:    PAW_PBE Ni_pv 06Sep2000
   VRHFIN =Ni:

   TITEL  = PAW_PBE Ni_pv 06Sep2000
   POMASS =   58.690; ZVAL   =   16.000    mass and valenz
   ENMAX  =  367.986; ENMIN  =  275.989 eV

 POTCAR:    PAW_PBE S 06Sep2000
   VRHFIN =S : s2p4

   TITEL  = PAW_PBE S 06Sep2000
   POMASS =   32.066; ZVAL   =    6.000    mass and valenz
   ENMAX  =  258.689; ENMIN  =  194.016 eV

 Optimization of the real space projectors (new method)

 maximal supplied QI-value         = 18.90
 optimisation between [QCUT,QGAM] = [ 10.77, 21.73] = [ 32.49,132.25] Ry
 Optimized for a Real-space Cutoff    1.38 Angstroem

   l    n(q)    QCUT    max X(q) W(low)/X(q) W(high)/X(q)  e(spline)
   1      8    10.771     2.836    0.40E-04    0.29E-04    0.12E-06
   1      8    10.771     4.023    0.10E-03    0.48E-04    0.29E-06
   2      8    10.771    73.368    0.42E-03    0.97E-04    0.44E-06
   2      8    10.771    69.010    0.42E-03    0.99E-04    0.45E-06
   0      9    10.771    54.797    0.10E-03    0.56E-04    0.74E-07
   0      9    10.771    24.266    0.89E-04    0.49E-04    0.67E-07
 Optimization of the real space projectors (new method)

 maximal supplied QI-value         = 19.84
 optimisation between [QCUT,QGAM] = [ 10.71, 21.63] = [ 32.15,130.99] Ry
 Optimized for a Real-space Cutoff    1.19 Angstroem

   l    n(q)    QCUT    max X(q) W(low)/X(q) W(high)/X(q)  e(spline)
   0      8    10.715   187.594    0.41E-03    0.53E-04    0.66E-07
   0      8    10.715   164.243    0.41E-03    0.53E-04    0.65E-07
   1      7    10.715    67.533    0.19E-03    0.59E-03    0.68E-07
   1      7    10.715    50.729    0.19E-03    0.58E-03    0.67E-07
  PAW_PBE Ni_pv 06Sep2000               :
  PAW_PBE S 06Sep2000                   :

 POSCAR: Type_036 Type_136
  positions in cartesian coordinates
 exchange correlation table for  LEXCH =        8
   RHO(1)=    0.500       N(1)  =     2000
   RHO(2)=  100.500       N(2)  =     4000

 ion  position               nearest neighbor table
   1  0.345  0.728  0.154-  41 2.00  61 2.18  42 2.20  60 2.22  49 2.22   2 2.30  14 2.35  33 2.47

   2  0.525  0.601  0.223-  42 2.25  49 2.26  61 2.26   1 2.30  62 2.36  50 2.36  15 2.53  27 2.53

[...]

  32  0.488  0.712  0.428-  72 2.04  43 2.07  31 2.39  23 2.47  55 2.59
  33  0.203  0.658  0.073-  59 2.01  60 2.06  56 2.08  41 2.11   1 2.47
  34  0.366  0.358  0.147-  45 2.06  61 2.25  56 2.26  46 2.36  57 2.36  21 2.45   9 2.53
  35  0.516  0.207  0.275-  62 2.25  57 2.26  46 2.26  47 2.36  58 2.36  10 2.53  22 2.53
  36  0.662  0.067  0.389-  47 2.03  58 2.16  63 2.17  48 2.25
  37  0.064  0.262  0.341-  25 2.06  10 2.25  13 2.26  16 2.36  28 2.36  38 2.55
  38  0.207  0.134  0.440-  11 2.08  13 2.14  25 2.18  64 2.51  37 2.55
  39  0.763  0.563  0.085-  14 2.00  12 2.01  15 2.26  27 2.26  26 2.28
  40  0.914  0.412  0.213-  12 2.14   9 2.25  16 2.26  28 2.26  27 2.36  15 2.36
  41  0.147  0.846  0.128-   1 2.00  33 2.11  17 2.26  30 2.26  20 2.36  29 2.36  60 2.64
  42  0.297  0.696  0.256-   1 2.20   2 2.25  31 2.26  18 2.26  30 2.36  17 2.36
  43  0.447  0.545  0.384-  19 2.05  32 2.07   3 2.25  31 2.36  18 2.36  55 2.73
  44  0.986  0.996  0.015-  29 1.99  20 2.03
  45  0.357  0.262  0.059-   5 2.03  21 2.05  34 2.06
  46  0.530  0.129  0.171-   5 2.12  21 2.13   6 2.25  22 2.26  35 2.26  34 2.36
  47  0.680  0.979  0.299-  36 2.03   8 2.25  23 2.26  35 2.36  22 2.36  48 2.74
  48  0.822  0.849  0.408-  24 2.06  23 2.20  36 2.25   7 2.27  47 2.74
  49  0.528  0.798  0.171-  14 2.11   1 2.22  22 2.25  27 2.26   2 2.26  26 2.40
  50  0.678  0.648  0.299-  23 2.25  28 2.26   3 2.26  27 2.36   2 2.36
  51  0.829  0.497  0.427-   4 2.02  24 2.04  25 2.15  28 2.36   3 2.36
  52  0.759  0.226  0.099-   6 2.09  15 2.14   5 2.18  29 2.23
  53  0.911  0.081  0.214-  16 2.25   8 2.26  30 2.26   6 2.36  29 2.36
  54  0.062  0.931  0.342-  13 2.25  31 2.26   7 2.26  30 2.36   8 2.36
  55  0.228  0.737  0.450-  31 2.00   7 2.07  32 2.59  43 2.73
  56  0.145  0.515  0.129-  33 2.08  12 2.19  17 2.25  34 2.26   9 2.26
  57  0.295  0.364  0.257-  18 2.25  10 2.26  35 2.26   9 2.36  34 2.36
  58  0.445  0.214  0.385-  19 2.07  11 2.07  36 2.16  35 2.36  10 2.36
  59  0.044  0.692  0.008-  33 2.01  20 2.01
  60  0.359  0.735  0.046-  14 2.04  33 2.06   1 2.22  41 2.64  61 2.72
  61  0.477  0.512  0.128-  14 2.07   1 2.18  34 2.25  15 2.26   2 2.26  60 2.72
  62  0.628  0.362  0.256-  35 2.25   3 2.26  16 2.26   2 2.36  15 2.36
  63  0.778  0.212  0.384-   4 2.01  36 2.17  13 2.26  16 2.36   3 2.36
  64  0.975  0.219  0.501-   4 2.00  13 2.07  25 2.10  38 2.51
  65  0.011  0.645  0.299-  28 2.25   7 2.26  18 2.26   8 2.36  17 2.36  66 2.74
  66  0.135  0.508  0.411-  19 2.04   7 2.16  18 2.17  25 2.24  65 2.74
  67  0.717  0.973  0.046-   6 2.06  26 2.07   5 2.17  20 2.22
  68  0.861  0.795  0.171-  26 2.09  27 2.25  17 2.26   8 2.26   6 2.36  20 2.36
  69  0.084  0.227  0.101-   9 2.05  29 2.13  12 2.17  21 2.44
  70  0.244  0.079  0.214-  21 2.09  30 2.25  22 2.26  10 2.26   9 2.36
  71  0.395  0.928  0.342-  11 2.04  31 2.25  23 2.26  10 2.36  22 2.36
  72  0.563  0.855  0.470-  32 2.04  24 2.05  11 2.08  23 2.16

  LATTYP: Found a base centered orthorhombic cell.
 ALAT       =    11.4527836704
 B/A-ratio  =     1.4485816945
 C/A-ratio  =     1.7908432109

  Lattice vectors:

 A1 = (  10.0797329849,   0.0000000000,   0.0000000000)
 A2 = (  -3.5732980427,  -9.4251025535,   0.0000000000)
 A3 = (   0.0000000000,   0.0000000000, -20.5101398818)

Analysis of symmetry for initial positions (statically):
 Subroutine PRICEL returns:
 Original cell was already a primitive cell.

 Routine SETGRP: Setting up the symmetry group for a
 base centered orthorhombic supercell.

 Subroutine GETGRP returns: Found  1 space group operations
 (whereof  1 operations were pure point group operations)
 out of a pool of  8 trial point group operations.

The static configuration has the point symmetry C_1 .

Analysis of symmetry for dynamics (positions and initial velocities):
 Subroutine PRICEL returns:
 Original cell was already a primitive cell.

 Routine SETGRP: Setting up the symmetry group for a
 base centered orthorhombic supercell.

 Subroutine GETGRP returns: Found  1 space group operations
 (whereof  1 operations were pure point group operations)
 out of a pool of  8 trial point group operations.

The dynamic configuration has the point symmetry C_1 .

 Subroutine INISYM returns: Found  1 space group operations
 (whereof  1 operations are pure point group operations),
 and found     1 'primitive' translations

 KPOINTS: gamma-point-only calculation. no periodi

Automatic generation of k-mesh.
Space group operators:
 irot       det(A)        alpha          n_x          n_y          n_z        tau_x        tau_y        tau_z
    1     1.000000     0.000000     1.000000     0.000000     0.000000     0.000000     0.000000     0.000000

 Subroutine IBZKPT returns following result:

 Found      1 irreducible k-points:

 Following reciprocal coordinates:
            Coordinates               Weight
  0.000000  0.000000  0.000000      1.000000

 Following cartesian coordinates:
            Coordinates               Weight
  0.000000  0.000000  0.000000      1.000000

 SYSTEM =  "Millerite NiS"
 POSCAR =  Type_036 Type_136

 Startparameter for this run:
   NWRITE =      2    write-flag & timer
   PREC   = normal    normal or accurate (medium, high low for compatibility)
   ISTART =      0    job   : 0-new  1-cont  2-samecut
   ICHARG =      2    charge: 1-file 2-atom 10-const
   ISPIN  =      1    spin polarized calculation?
   LNONCOLLINEAR =      F non collinear calculations
   LSORBIT =      F    spin-orbit coupling
   INIWAV =      1    electr: 0-lowe 1-rand  2-diag
   LASPH  =      F    aspherical Exc in radial PAW
   METAGGA=      F    non-selfconsistent MetaGGA calc.

 Electronic Relaxation 1
   ENCUT  =  450.0 eV  33.07 Ry    5.75 a.u.  17.43 17.43 35.48*2*pi/ulx,y,z
   ENINI  =  450.0     initial cutoff
   ENAUG  =  703.4 eV  augmentation charge cutoff
   NELM   =    100;   NELMIN=  2; NELMDL= -5     # of ELM steps
   EDIFF  = 0.1E-03   stopping-criterion for ELM
   LREAL  =      T    real-space projection
   NLSPLINE    = F    spline interpolate recip. space projectors
   LCOMPAT=      F    compatible to vasp.4.4
   GGA_COMPAT  = T    GGA compatible to vasp.4.4-vasp.4.6
   LMAXPAW     = -100 max onsite density
   LMAXMIX     =    2 max onsite mixed and CHGCAR
   VOSKOWN=      0    Vosko Wilk Nusair interpolation
   ROPT   =   -0.00050  -0.00050
 Ionic relaxation
   EDIFFG = 0.1E-02   stopping-criterion for IOM
   NSW    =      0    number of steps for IOM
   NBLOCK =      1;   KBLOCK =      1    inner block; outer block
   IBRION =     -1    ionic relax: 0-MD 1-quasi-New 2-CG
   NFREE  =      0    steps in history (QN), initial steepest desc. (CG)
   ISIF   =      2    stress and relaxation
   IWAVPR =     10    prediction:  0-non 1-charg 2-wave 3-comb
   ISYM   =      2    0-nonsym 1-usesym 2-fastsym
   LCORR  =      T    Harris-Foulkes like correction to forces

   POTIM  = 0.5000    time-step for ionic-motion
   TEIN   =    0.0    initial temperature
   TEBEG  =    0.0;   TEEND  =   0.0 temperature during run
   SMASS  =  -3.00    Nose mass-parameter (am)
   estimated Nose-frequenzy (Omega)   =  0.10E-29 period in steps =****** mass=  -0.232E-26a.u.
   SCALEE = 1.0000    scale energy and forces
   NPACO  =    256;   APACO  = 16.0  distance and # of slots for P.C.
   PSTRESS=    0.0 pullay stress

  Mass of Ions in am
   POMASS =  58.69 32.07
  Ionic Valenz
   ZVAL   =  16.00  6.00
  Atomic Wigner-Seitz radii
  virtual crystal weights
   VCA    =   1.00  1.00
   NELECT =     792.0000    total number of electrons
   NUPDOWN=      -1.0000    fix difference up-down

 DOS related values:
   EMIN   =  10.00;   EMAX   =-10.00  energy-range for DOS
   EFERMI =   0.00
   ISMEAR =     0;   SIGMA  =   0.20  broadening in eV -4-tet -1-fermi 0-gaus

 Electronic relaxation 2 (details)
   IALGO  =     38    algorithm
   LDIAG  =      T    sub-space diagonalisation (order eigenvalues)
   LSUBROT=      F    optimize rotation matrix (better conditioning)
   TURBO    =      0    0=normal 1=particle mesh
   IRESTART =      0    0=no restart 2=restart with 2 vectors
   NREBOOT  =      0    no. of reboots
   NMIN     =      0    reboot dimension
   EREF     =   0.00    reference energy to select bands
   IMIX   =      4    mixing-type and parameters
     AMIX     =   0.40;   BMIX     =  1.00
     AMIX_MAG =   1.60;   BMIX_MAG =  1.00
     AMIN     =   0.10
     WC   =   100.;   INIMIX=   1;  MIXPRE=   1;  MAXMIX= -45

 Intra band minimization:
   WEIMIN = 0.0000     energy-eigenvalue tresh-hold
   EBREAK =  0.53E-07  absolut break condition
   DEPER  =   0.30     relativ break condition

   TIME   =   0.40     timestep for ELM

  volume/ion in A,a.u.               =      27.06       182.63
[...]
  Fock        0.00000     0.00000     0.00000     0.00000     0.00000     0.00000
  Total      91.08252    94.84645   109.17398    -3.63674    -1.14748     6.82155
  in kB      74.89311    77.98803    89.76892    -2.99033    -0.94352     5.60906

 VOLUME and BASIS-vectors are now :
  energy-cutoff  :      450.00
  volume of cell :     1948.51
      direct lattice vectors                 reciprocal lattice vectors
    10.079732985  0.000000000  0.000000000     0.099208977 -0.037612667  0.000000000
     3.573298043  9.425102554  0.000000000     0.000000000  0.106099641  0.000000000
     0.000000000  0.000000000 20.510139882     0.000000000  0.000000000  0.048756372

  length of vectors
    10.079732985 10.079732985 20.510139882     0.106099641  0.106099641  0.048756372

 FORCES acting on ions
    electron-ion (+dipol)            ewald-force                    non-local-force                 convergence-correction
   0.184E+02 -.436E+03 0.268E+04   -.164E+02 0.436E+03 -.268E+04   -.170E+01 -.811E+00 -.171E+01   0.336E-01 0.633E-01 -.315E-01
   0.215E+03 0.148E+03 0.199E+03   -.214E+03 -.151E+03 -.194E+03   -.413E+00 0.157E+01 -.321E+01   0.910E-01 -.124E-02 -.520E-01
   0.517E+03 0.351E+02 -.265E+04   -.519E+03 -.348E+02 0.265E+04   0.183E+01 -.284E+00 0.210E+01   -.847E-02 -.831E-01 -.213E-01
   0.742E+03 0.628E+02 -.536E+04   -.744E+03 -.629E+02 0.536E+04   -.186E+00 0.893E+00 -.279E+01   -.497E-01 -.581E-01 0.805E-01
   0.569E+02 -.330E+03 0.517E+04   -.586E+02 0.333E+03 -.518E+04   0.239E+01 -.363E+01 0.697E+01   0.898E-01 -.106E+00 -.119E-02
   0.854E+02 -.253E+03 0.254E+04   -.836E+02 0.253E+03 -.254E+04   -.101E+01 -.347E+00 -.225E+01   0.592E-01 -.871E-01 0.195E-01
   0.383E+03 -.295E+03 -.415E+04   -.385E+03 0.297E+03 0.415E+04   0.928E+00 -.104E+01 -.274E+01   -.314E-01 0.151E-01 -.194E-01
   0.339E+03 -.225E+03 -.714E+03   -.340E+03 0.227E+03 0.714E+03   0.520E+00 -.136E+01 -.548E-01   -.473E-02 0.885E-01 -.757E-01
   0.204E+03 0.663E+02 0.166E+04   -.202E+03 -.673E+02 -.165E+04   -.637E+00 0.640E+00 -.214E+01   -.641E-01 -.483E-01 -.648E-02
   0.455E+03 -.179E+03 -.159E+04   -.456E+03 0.181E+03 0.159E+04   0.111E+01 -.166E+01 0.290E+01   -.262E-01 0.167E-01 -.800E-01
   0.239E+03 -.355E+03 -.484E+04   -.237E+03 0.356E+03 0.485E+04   -.158E+01 -.860E+00 -.201E+01   0.993E-01 0.397E-01 0.323E-01
   -.524E+02 0.136E+03 0.438E+04   0.557E+02 -.136E+03 -.438E+04   -.278E+01 -.792E+00 0.492E+01   -.935E-01 0.189E-01 -.153E-01
   0.164E+03 0.828E+03 -.395E+04   -.166E+03 -.834E+03 0.395E+04   0.170E+01 0.514E+01 0.132E+01   -.159E+00 -.445E-01 -.481E-01
   0.290E+02 -.353E+02 0.517E+04   -.286E+02 0.376E+02 -.518E+04   -.268E-01 -.217E+01 0.868E+01   0.118E+00 0.177E-01 -.433E-01
   0.758E+02 0.684E+03 0.290E+04   -.777E+02 -.688E+03 -.290E+04   0.190E+01 0.408E+01 0.671E+00   0.503E-01 -.304E-03 -.246E-01
   -.451E+01 0.573E+03 -.550E+03   0.377E+01 -.574E+03 0.550E+03   0.689E+00 0.957E+00 0.634E+00   -.855E-02 -.111E+00 -.901E-01
   0.206E+03 0.449E+03 0.132E+04   -.208E+03 -.451E+03 -.132E+04   0.204E+01 0.198E+01 -.754E+00   -.807E-01 0.133E+00 0.181E-01
   0.280E+02 0.364E+03 -.162E+04   -.286E+02 -.367E+03 0.161E+04   0.507E+00 0.344E+01 0.197E+01   -.162E-01 -.163E-01 0.102E-01
   -.179E+03 0.276E+03 -.488E+04   0.179E+03 -.278E+03 0.488E+04   0.172E+00 0.856E+00 0.117E+01   0.181E-02 0.266E-02 0.146E-01
   0.157E+02 0.189E+03 0.486E+04   -.181E+02 -.191E+03 -.487E+04   0.107E+01 0.256E+01 0.492E+01   -.854E-01 0.133E+00 0.397E-01
   0.370E+03 0.640E+03 0.392E+04   -.372E+03 -.639E+03 -.392E+04   0.153E+01 -.184E+01 0.875E+00   -.242E-01 -.680E-01 -.477E-02
   0.152E+01 0.394E+03 0.507E+03   -.176E+01 -.394E+03 -.505E+03   0.114E+00 0.341E+00 -.187E+01   0.532E-01 -.433E-01 -.104E+00
   -.222E+03 0.107E+03 -.251E+04   0.222E+03 -.111E+03 0.251E+04   -.181E+00 0.384E+01 0.222E+01   0.122E+00 0.460E-01 -.647E-01
   -.518E+03 0.123E+03 -.536E+04   0.520E+03 -.124E+03 0.536E+04   -.240E+01 0.118E+01 0.164E+01   0.834E-01 0.527E-02 0.837E-01
   -.623E+03 -.281E+03 -.470E+04   0.627E+03 0.287E+03 0.470E+04   -.215E+01 -.374E+01 -.217E+01   -.291E-01 0.800E-01 0.418E-01
   0.311E+03 -.152E+03 0.450E+04   -.314E+03 0.154E+03 -.450E+04   0.219E+01 -.244E+01 0.492E+01   0.188E-01 0.251E-01 0.291E-01
   -.408E+03 -.136E+03 0.127E+04   0.409E+03 0.136E+03 -.127E+04   -.504E+00 -.580E+00 -.361E+01   0.208E-01 0.729E-01 -.767E-01
   -.475E+03 -.224E+03 -.159E+04   0.475E+03 0.225E+03 0.159E+04   -.105E+00 -.132E+01 0.117E+01   0.136E-01 0.329E-02 -.888E-01
   -.604E+03 -.538E+03 0.400E+04   0.607E+03 0.543E+03 -.400E+04   -.226E+01 -.398E+01 0.279E+01   -.631E-01 -.248E-01 0.979E-02
   -.327E+03 -.535E+03 0.384E+03   0.327E+03 0.537E+03 -.383E+03   0.792E+00 -.260E+01 -.919E+00   -.875E-01 0.999E-01 -.223E-01
   -.568E+02 -.390E+03 -.276E+04   0.583E+02 0.393E+03 0.276E+04   -.945E+00 -.245E+01 -.823E+00   -.115E+00 -.703E-02 -.799E-01
   0.324E+03 0.284E+03 -.483E+04   -.324E+03 -.283E+03 0.483E+04   -.685E+00 -.166E+01 -.169E+01   -.102E-01 -.298E-01 0.521E-01
   -.117E+03 0.491E+03 0.507E+04   0.116E+03 -.495E+03 -.508E+04   0.124E+01 0.388E+01 0.916E+01   0.145E-01 0.306E-01 -.617E-01
   -.248E+03 -.341E+03 0.290E+04   0.246E+03 0.344E+03 -.290E+04   0.167E+01 -.216E+01 0.501E+00   0.200E-01 -.144E-01 0.426E-02
   -.456E+03 -.311E+03 -.589E+03   0.456E+03 0.313E+03 0.589E+03   -.967E-01 -.154E+01 0.232E+00   0.709E-01 -.333E-01 -.304E-01
   -.517E+03 -.306E+03 -.393E+04   0.519E+03 0.309E+03 0.393E+04   -.204E+01 -.182E+01 -.882E+00   0.845E-01 0.224E-01 -.153E-01
   -.110E+03 0.849E+02 -.658E+03   0.111E+03 -.846E+02 0.654E+03   -.194E+01 -.294E+00 0.138E+01   -.193E-01 -.202E-01 -.589E-01
   -.902E+02 0.107E+03 -.188E+04   0.920E+02 -.108E+03 0.188E+04   -.135E+01 0.341E+00 -.316E+00   0.693E-02 -.105E-01 0.251E-01
   -.783E+02 0.179E+03 0.209E+04   0.804E+02 -.180E+03 -.209E+04   -.627E+00 0.122E+01 0.392E+01   -.744E-02 0.279E-01 0.293E-03
   -.832E+02 0.113E+03 0.352E+03   0.836E+02 -.114E+03 -.349E+03   -.640E+00 0.874E+00 -.125E+01   -.253E-01 -.284E-02 -.271E-01
   -.139E+03 -.295E+03 0.137E+04   0.139E+03 0.299E+03 -.137E+04   -.181E+01 -.131E+01 0.140E+01   -.221E-01 0.656E-01 -.351E-02
   -.545E+02 0.463E+02 -.107E+03   0.560E+02 -.469E+02 0.109E+03   -.148E+01 0.561E+00 -.151E+01   -.641E-02 0.202E-01 0.132E-01
   -.453E+02 0.159E+03 -.130E+04   0.467E+02 -.162E+03 0.130E+04   -.425E+00 0.103E+01 -.183E+01   -.481E-01 -.375E-01 -.683E-02
   -.205E+03 -.201E+03 0.229E+04   0.207E+03 0.204E+03 -.230E+04   -.133E+01 -.188E+01 0.893E+00   -.960E-02 0.192E-01 -.142E-01
   0.199E+03 -.820E+02 0.226E+04   -.201E+03 0.837E+02 -.227E+04   0.136E+01 -.989E+00 0.107E+01   -.243E-01 -.103E-01 -.368E-01
   -.957E+02 0.460E+02 0.768E+03   0.966E+02 -.471E+02 -.766E+03   -.534E+00 0.121E+01 -.673E+00   0.299E-01 -.450E-01 0.137E-02
   -.154E+03 0.334E+02 -.291E+03   0.155E+03 -.338E+02 0.289E+03   -.165E+01 0.147E+00 -.201E+00   0.467E-01 -.438E-02 -.318E-01
   -.302E+03 -.122E+03 -.157E+04   0.305E+03 0.122E+03 0.157E+04   -.124E+01 -.732E+00 -.585E-01   0.145E-01 0.155E-01 0.123E-02
   0.110E+02 -.343E+03 0.789E+03   -.114E+02 0.349E+03 -.787E+03   0.115E+01 -.363E+01 0.615E-01   0.593E-01 -.879E-04 -.191E-01
   -.177E+02 -.139E+03 -.446E+03   0.175E+02 0.142E+03 0.447E+03   0.234E-01 -.265E+01 -.712E+00   0.167E-01 0.222E-01 -.657E-01
   -.643E+02 -.138E+03 -.169E+04   0.647E+02 0.141E+03 0.170E+04   -.110E+00 -.208E+01 -.238E+01   -.165E-01 0.922E-03 0.447E-01
   -.123E+03 -.238E+03 0.170E+04   0.123E+03 0.242E+03 -.171E+04   0.887E-01 -.215E+01 0.287E+01   0.293E-01 -.345E-01 0.742E-02
   -.114E+02 -.182E+03 0.316E+03   0.108E+02 0.184E+03 -.316E+03   0.719E+00 -.264E+01 0.383E+00   -.418E-02 -.337E-01 -.112E-01
   0.378E+02 -.179E+03 -.961E+03   -.380E+02 0.182E+03 0.960E+03   0.370E-02 -.322E+01 0.314E+00   -.328E-01 0.715E-02 -.560E-01
   0.431E+02 -.621E+02 -.222E+04   -.442E+02 0.623E+02 0.223E+04   0.175E+01 0.314E+00 -.162E+01   -.342E-01 -.104E-01 0.335E-01
   0.443E+02 0.753E+02 0.134E+04   -.454E+02 -.740E+02 -.134E+04   0.762E+00 -.152E+01 0.220E+01   -.159E-01 -.683E-02 -.207E-01
   0.192E+02 -.144E+03 -.738E+02   -.197E+02 0.146E+03 0.746E+02   0.516E+00 -.260E+01 -.101E+01   -.361E-03 0.987E-02 0.673E-02
   -.779E+02 -.174E+03 -.141E+04   0.780E+02 0.177E+03 0.141E+04   0.513E+00 -.205E+01 -.222E+01   0.311E-01 0.168E-01 0.994E-02
   0.116E+03 0.242E+03 0.226E+04   -.117E+03 -.244E+03 -.226E+04   0.601E+00 0.127E+01 0.760E+00   -.150E-01 0.152E-01 -.324E-01
   -.966E+02 -.205E+03 0.224E+04   0.976E+02 0.208E+03 -.225E+04   -.567E+00 -.992E+00 0.276E+01   0.196E-01 0.809E-02 -.444E-01
   0.128E+03 0.294E+03 0.145E+04   -.130E+03 -.299E+03 -.145E+04   0.995E+00 0.226E+01 0.348E+01   0.323E-01 -.824E-02 -.177E-01
   0.143E+03 0.113E+03 -.797E+01   -.145E+03 -.114E+03 0.832E+01   0.217E+01 0.150E+01 0.168E+00   0.163E-01 -.242E-01 -.294E-01
   0.173E+03 0.194E+03 -.122E+04   -.175E+03 -.196E+03 0.122E+04   0.148E+01 0.877E+00 -.132E+01   -.867E-02 -.220E-01 0.120E-01
   -.529E+02 0.224E+03 -.231E+04   0.529E+02 -.225E+03 0.232E+04   0.227E+00 0.329E+00 -.241E+01   -.589E-01 0.948E-03 0.691E-01
   0.133E+03 0.563E+02 -.430E+03   -.135E+03 -.570E+02 0.430E+03   0.226E+01 0.742E+00 -.208E+00   0.543E-02 0.344E-01 -.354E-02
   0.127E+03 0.132E+02 -.169E+04   -.128E+03 -.140E+02 0.170E+04   -.983E-01 0.443E-01 -.299E+00   0.342E-01 0.210E-01 -.142E-03
   0.193E+03 -.634E+02 0.227E+04   -.196E+03 0.625E+02 -.227E+04   0.159E+01 0.480E+00 0.259E+01   0.166E-01 -.325E-01 0.810E-02
   0.189E+02 0.467E+02 0.666E+03   -.187E+02 -.488E+02 -.664E+03   0.412E+00 0.185E+01 -.603E+00   -.489E-01 0.435E-01 -.106E-01
   0.143E+02 0.115E+03 0.183E+04   -.144E+02 -.115E+03 -.183E+04   0.108E+00 -.956E+00 0.237E+01   -.269E-01 -.249E-01 -.129E-01
   0.208E+03 0.641E+02 0.413E+03   -.210E+03 -.654E+02 -.413E+03   0.163E+01 0.612E+00 0.200E+01   -.365E-01 -.232E-01 -.168E-01
   0.199E+03 0.315E+02 -.736E+03   -.202E+03 -.317E+02 0.734E+03   0.240E+01 -.756E+00 0.133E-02   -.182E-02 0.787E-02 -.427E-01
   0.104E+02 -.175E+03 -.230E+04   -.118E+02 0.176E+03 0.231E+04   0.110E+01 -.151E+00 -.248E+01   0.436E-01 0.196E-01 0.623E-01
   -.108E+02 0.226E+02 -.368E+02   -.359E-12 -.111E-11 0.227E-11   0.107E+02 -.227E+02 0.377E+02   0.271E-01 0.142E+00 -.889E+00

 POSITION                                       TOTAL-FORCE (eV/Angst)
      6.07781      6.86412      3.16095         0.311034     -0.003113      0.008786
      7.43572      5.66537      4.57627         0.940972     -0.791036      1.084634
      8.41343      4.24907      7.20177        -0.003334     -0.089713      0.251996
      9.09418      3.10408      9.48085        -1.805610      0.749999      0.779027
      6.38748      1.70126      1.52539         0.781011     -0.248800     -0.841741
      7.76163      0.32617      2.82594         0.804988     -0.919109      2.563307
      3.21062      6.91868      8.07694        -1.019628      0.845805     -1.053486
     12.31264      8.33497      5.45144         0.076488      0.147803      0.168961
      2.55881      2.99577      3.70110         0.988429     -0.395122      2.760732
      3.53652      1.57947      6.32660         0.458330     -0.085242     -0.100376
      4.38201      0.31047      8.67106         0.263550      0.616738      0.941932
     11.28896      4.23568      2.35843         0.329634     -0.167478     -0.605045
      0.51382      1.09100      8.43993        -0.778937     -1.261056     -1.890541
      7.94099      6.23718      1.86428         0.505284      0.200045     -1.192614
      8.63813      3.92359      3.18892         0.042752     -0.283035      0.613239
      9.61584      2.50729      5.81443        -0.062461     -0.237112     -0.262520
      3.43531      6.59319      4.06409        -0.160159     -0.279666      0.380155
      4.41302      5.17689      6.68959        -0.110851      0.313759     -1.702170
      5.00571      3.92012      8.66340         0.659955     -0.561477      1.201969
     12.53733      8.00949      1.43859        -1.386813      0.399437      1.418895
      3.83815      1.21891      2.67339        -1.223178     -0.872863     -0.656877
      8.31222      9.26279      4.93926        -0.078459     -0.268643      0.069043
      9.28993      7.84650      7.56476        -0.445479      0.399672     -2.232492
     10.17950      6.63091      9.40081         0.111780     -0.487559      0.884933
      1.62983      3.23576      8.91645         1.736417      1.837445      0.398618
     10.04437      7.53947      2.02230        -0.838798     -0.252912     -0.401318
      9.84053      6.03956      3.88260         0.265487     -0.357924      0.730197
     10.81824      4.62327      6.50810         0.057248      0.091279     -0.039104
     10.16643      0.70036      2.13226         0.022037      0.809696      2.197920
      4.63771      8.70917      4.75776        -0.075197      0.062225      0.150172
      5.61542      7.29287      7.38327         0.395635      0.825480     -2.206797
      7.46444      6.70644      8.77774        -0.674083     -0.523766      0.405469
      4.39135      6.19769      1.48853         0.680335     -0.657064     -0.006742
      4.96362      3.36996      3.00743         0.268744      0.810149      1.421686
      5.94133      1.95367      5.63293         0.060448      0.042961      0.105865
      6.90828      0.62846      7.98055         0.663230      0.870047      1.104020
      1.57981      2.47018      7.00134        -0.543919     -0.046858     -2.824853
      2.56099      1.26244      9.02391         0.448405     -0.837628      2.018024
      9.70412      5.30277      1.75033         1.418045      0.100821     -2.478939
     10.68183      3.88647      4.37584        -0.223626     -0.007239      1.277092
      4.50130      7.97237      2.62550        -1.877215      2.845574      0.746441
      5.47901      6.55607      5.25100        -0.055597     -0.023195      0.604532
      6.45673      5.13978      7.87651         0.978484     -1.276067     -0.440070
     13.50038      9.38404      0.30442         0.837698      0.710196     -3.790203
      4.54032      2.47114      1.20629        -0.753825      0.748682     -3.888436
      5.80492      1.21687      3.50067         0.405695      0.046831      1.846282
     10.35593      9.22568      6.12617        -0.496584     -0.301685     -2.596440
     11.32437      8.00430      8.37737         1.338406     -0.059682      1.628327
      8.17302      7.52069      3.51693         0.818418      1.968522      1.315673
      9.15074      6.10439      6.14243        -0.212180     -0.232636     -0.449887
     10.12845      4.68809      8.76794         0.308765      1.247179     -0.352750
      8.46031      2.13199      2.03129         0.494379      1.923007     -1.574419
      9.47664      0.76519      4.39210         0.122681     -0.159132      0.400160
      3.94792      8.77399      7.01760        -0.172734      0.089180     -0.140862
      4.93053      6.94793      9.23277         0.589326      0.466981      3.743548
      3.29611      4.85108      2.64176        -0.398229     -0.207262      0.727602
      4.27382      3.43479      5.26727         0.050824      0.082115     -0.254482
      5.25153      2.01849      7.89277         0.655105      1.112081     -0.541748
      2.91832      6.52635      0.16330        -0.944366     -1.269532     -2.880458
      6.24726      6.92503      0.95032         0.462095      1.327188     -2.878532
      6.64193      4.82628      2.63363        -1.167464     -2.704215      0.708729
      7.61964      3.40999      5.25914         0.103283      0.207135      0.484528
      8.59735      1.99369      7.88464        -0.941686     -1.202772     -1.148621
     10.61374      2.06633     10.26643         0.168189     -0.878484      4.205372
      2.41682      6.07959      6.13430        -0.290602      0.084177     -0.912462
      3.17669      4.78606      8.42456        -0.743138     -0.717970      1.938933
     10.70897      9.17395      0.94496        -1.284166     -0.512961     -2.957990
     11.51884      7.49589      3.50880         0.543361     -0.248767      1.205892
      1.65754      2.13654      2.06894        -0.042100     -1.265237     -2.225182
      2.74272      0.74039      4.38397        -0.659066     -0.634043      1.668926
      7.29374      8.74919      7.00947        -0.413729     -1.021440     -2.038396
      8.72879      8.05878      9.63471        -0.283734      0.367285      3.404934
    total drift:                               -0.009678      0.069215     -0.028362

  FREE ENERGIE OF THE ION-ELECTRON SYSTEM (eV)
  free  energy   TOTEN  =      -349.09459725 eV

  energy  without entropy=     -348.13523346  energy(sigma->0) =     -348.61491535