 vasp.5.4.4.18Apr17-6-g9f103f2a35 (build Aug 13 2019 17:33:20) gamma-only

 executed on             LinuxIFC date 2020.05.11  17:05:14

 INCAR:
 POTCAR:    PAW_PBE Ni_pv 06Sep2000
 POTCAR:    PAW_PBE S 06Sep2000
 POTCAR:    PAW_PBE Ni_pv 06Sep2000
   VRHFIN =Ni:

   TITEL  = PAW_PBE Ni_pv 06Sep2000
   POMASS =   58.690; ZVAL   =   16.000    mass and valenz
   ENMAX  =  367.986; ENMIN  =  275.989 eV

 POTCAR:    PAW_PBE S 06Sep2000
   VRHFIN =S : s2p4

   TITEL  = PAW_PBE S 06Sep2000
   POMASS =   32.066; ZVAL   =    6.000    mass and valenz
   ENMAX  =  258.689; ENMIN  =  194.016 eV

 Optimization of the real space projectors (new method)

 maximal supplied QI-value         = 18.90
 optimisation between [QCUT,QGAM] = [ 10.77, 21.73] = [ 32.49,132.25] Ry
 Optimized for a Real-space Cutoff    1.38 Angstroem

   l    n(q)    QCUT    max X(q) W(low)/X(q) W(high)/X(q)  e(spline)
   1      8    10.771     2.836    0.40E-04    0.29E-04    0.12E-06
   1      8    10.771     4.023    0.10E-03    0.48E-04    0.29E-06
   2      8    10.771    73.368    0.42E-03    0.97E-04    0.44E-06
   2      8    10.771    69.010    0.42E-03    0.99E-04    0.45E-06
   0      9    10.771    54.797    0.10E-03    0.56E-04    0.74E-07
   0      9    10.771    24.266    0.89E-04    0.49E-04    0.67E-07
 Optimization of the real space projectors (new method)

 maximal supplied QI-value         = 19.84
 optimisation between [QCUT,QGAM] = [ 10.71, 21.63] = [ 32.15,130.99] Ry
 Optimized for a Real-space Cutoff    1.19 Angstroem

   l    n(q)    QCUT    max X(q) W(low)/X(q) W(high)/X(q)  e(spline)
   0      8    10.715   187.594    0.41E-03    0.53E-04    0.66E-07
   0      8    10.715   164.243    0.41E-03    0.53E-04    0.65E-07
   1      7    10.715    67.533    0.19E-03    0.59E-03    0.68E-07
   1      7    10.715    50.729    0.19E-03    0.58E-03    0.67E-07
  PAW_PBE Ni_pv 06Sep2000               :
  PAW_PBE S 06Sep2000                   :

 POSCAR: Type_036 Type_136
  positions in cartesian coordinates
 exchange correlation table for  LEXCH =        8
   RHO(1)=    0.500       N(1)  =     2000
   RHO(2)=  100.500       N(2)  =     4000

 ion  position               nearest neighbor table
   1  0.780  0.145  0.121-  49 2.01  63 2.08  41 2.25  50 2.36  64 2.36
   2  0.802  0.147  0.286-  50 2.02  64 2.05  42 2.07
   3  0.214  0.675  0.096-  43 2.03  44 2.11  51 2.16   4 2.42  31 2.52  26 2.52  61 2.54
   4  0.297  0.645  0.216-  62 2.09  44 2.25  51 2.26  61 2.26  52 2.30   3 2.42  27 2.53  16 2.53

   5  0.386  0.166  0.126-  45 2.05  46 2.12  53 2.21   6 2.42  67 2.49  29 2.50
   6  0.470  0.145  0.248-  54 2.06  68 2.09  46 2.25  53 2.26  67 2.26   5 2.42  30 2.53  18 2.53

[...]

  37  0.986  0.146  0.361-  10 2.02  14 2.06  25 2.06
  38  0.991  0.145  0.182-  14 2.08  25 2.10  24 2.14  13 2.19   9 2.25
  39  0.474  0.645  0.087-  26 2.02  11 2.03  27 2.26  16 2.26  15 2.56
  40  0.512  0.647  0.260-  28 2.09  11 2.10  12 2.22  27 2.23  16 2.25
  41  0.647  0.145  0.119-  29 2.04  17 2.07   1 2.25  30 2.26  18 2.26  42 2.72
  42  0.680  0.150  0.283-   2 2.07  30 2.10  18 2.15  41 2.72
  43  0.111  0.645  0.032-   3 2.03  19 2.06  31 2.06
  44  0.164  0.645  0.214-  32 2.05  20 2.05   3 2.11   4 2.25  31 2.36  19 2.36
  45  0.282  0.146  0.063-   5 2.05  33 2.07  21 2.07
  46  0.336  0.145  0.246-  34 2.06  22 2.09   5 2.12   6 2.25  33 2.36  21 2.36
  47  0.822  0.670  0.156-  36 2.10  35 2.19   7 2.21  23 2.37  48 2.70
  48  0.846  0.642  0.320-   8 2.05  23 2.08  36 2.11  47 2.70
  49  0.825  0.282  0.038-  24 2.01   1 2.01  63 2.70
  50  0.829  0.314  0.214-   2 2.02  24 2.10  25 2.16  23 2.25   1 2.36
  51  0.312  0.814  0.119-  26 2.04   3 2.16  21 2.25   4 2.26  27 2.26
  52  0.367  0.789  0.304-  22 2.02  27 2.08  28 2.12   4 2.30  62 2.77
  53  0.484  0.314  0.151-  29 2.06  15 2.08   5 2.21  16 2.25  30 2.26   6 2.26  54 2.72
  54  0.518  0.306  0.315-  30 2.02   6 2.06  68 2.68  53 2.72
  55  0.001  0.814  0.246-  32 2.03   8 2.03  14 2.18   7 2.36  31 2.36  56 2.75
  56  0.967  0.823  0.080-   7 2.08  31 2.10  13 2.11  55 2.75
  57  0.140  0.322  0.110-   9 2.09  33 2.10  19 2.11  58 2.77
  58  0.174  0.314  0.278-  34 2.04  20 2.08  10 2.17   9 2.36  33 2.36  57 2.77
  59  0.657  0.814  0.183-  17 2.07  11 2.15  35 2.23  18 2.25  36 2.26  12 2.26
  60  0.694  0.795  0.351-  36 2.03  12 2.03  70 2.77
  61  0.312  0.477  0.119-  26 2.05  15 2.10  33 2.25   4 2.26  16 2.26   3 2.54
  62  0.352  0.501  0.294-  34 2.01  16 2.08   4 2.09  52 2.77
  63  0.817  1.000  0.033-  35 2.03  13 2.06   1 2.08  49 2.70
  64  0.829  0.977  0.214-   2 2.05  13 2.11  35 2.15  14 2.18  36 2.25   1 2.36
  65  0.001  0.477  0.246-  20 2.03   8 2.03  25 2.19   7 2.36  19 2.36  66 2.76
  66  0.968  0.470  0.080-   7 2.07  19 2.09  24 2.09  65 2.76
  67  0.484  0.977  0.151-  29 2.04  27 2.25  18 2.26   6 2.26   5 2.49  17 2.62
  68  0.535  0.030  0.334-  28 1.99   6 2.09  18 2.09  54 2.68
  69  0.654  0.480  0.195-  12 2.10  11 2.16  23 2.20  30 2.21  70 2.69
  70  0.699  0.506  0.354-  23 2.01  12 2.03  69 2.69  60 2.77
  71  0.141  0.967  0.110-  21 2.09  31 2.11   9 2.11  72 2.78
  72  0.174  0.977  0.278-  32 2.08  22 2.08  10 2.17   9 2.36  21 2.36  71 2.78

  LATTYP: Found a simple orthorhombic cell.
 ALAT       =     9.5784100000
 B/A-ratio  =     1.6880763216
 C/A-ratio  =     1.7627867312

  Lattice vectors:

 A1 = (   0.0000000000,   9.5784100000,   0.0000000000)
 A2 = (   0.0000000000,   0.0000000000, -16.1690871197)
 A3 = ( -16.8846940542,   0.0000000000,   0.0000000000)

Analysis of symmetry for initial positions (statically):
 Subroutine PRICEL returns:
 Original cell was already a primitive cell.

 Routine SETGRP: Setting up the symmetry group for a
 simple orthorhombic supercell.

 Subroutine GETGRP returns: Found  1 space group operations
 (whereof  1 operations were pure point group operations)
 out of a pool of  8 trial point group operations.

The static configuration has the point symmetry C_1 .

Analysis of symmetry for dynamics (positions and initial velocities):
 Subroutine PRICEL returns:
 Original cell was already a primitive cell.

 Routine SETGRP: Setting up the symmetry group for a
 simple orthorhombic supercell.

 Subroutine GETGRP returns: Found  1 space group operations
 (whereof  1 operations were pure point group operations)
 out of a pool of  8 trial point group operations.

The dynamic configuration has the point symmetry C_1 .

 Subroutine INISYM returns: Found  1 space group operations
 (whereof  1 operations are pure point group operations),
 and found     1 'primitive' translations

 KPOINTS: gamma-point-only calculation. no periodi

Automatic generation of k-mesh.
Space group operators:
 irot       det(A)        alpha          n_x          n_y          n_z        tau_x        tau_y        tau_z
    1     1.000000     0.000000     1.000000     0.000000     0.000000     0.000000     0.000000     0.000000

 Subroutine IBZKPT returns following result:

 Found      1 irreducible k-points:

 Following reciprocal coordinates:
            Coordinates               Weight
  0.000000  0.000000  0.000000      1.000000

 Following cartesian coordinates:
            Coordinates               Weight
  0.000000  0.000000  0.000000      1.000000

 SYSTEM =  "Millerite NiS"
 POSCAR =  Type_036 Type_136

 Startparameter for this run:
   NWRITE =      2    write-flag & timer
   PREC   = normal    normal or accurate (medium, high low for compatibility)
   ISTART =      0    job   : 0-new  1-cont  2-samecut
   ICHARG =      2    charge: 1-file 2-atom 10-const
   ISPIN  =      1    spin polarized calculation?
   LNONCOLLINEAR =      F non collinear calculations
   LSORBIT =      F    spin-orbit coupling
   INIWAV =      1    electr: 0-lowe 1-rand  2-diag
   LASPH  =      F    aspherical Exc in radial PAW
   METAGGA=      F    non-selfconsistent MetaGGA calc.

 Electronic Relaxation 1
   ENCUT  =  450.0 eV  33.07 Ry    5.75 a.u.  29.20 16.57 27.97*2*pi/ulx,y,z
   ENINI  =  450.0     initial cutoff
   ENAUG  =  703.4 eV  augmentation charge cutoff
   NELM   =    100;   NELMIN=  2; NELMDL= -5     # of ELM steps
   EDIFF  = 0.1E-03   stopping-criterion for ELM
   LREAL  =      T    real-space projection
   NLSPLINE    = F    spline interpolate recip. space projectors
   LCOMPAT=      F    compatible to vasp.4.4
   GGA_COMPAT  = T    GGA compatible to vasp.4.4-vasp.4.6
   LMAXPAW     = -100 max onsite density
   LMAXMIX     =    2 max onsite mixed and CHGCAR
   VOSKOWN=      0    Vosko Wilk Nusair interpolation
   ROPT   =   -0.00050  -0.00050
 Ionic relaxation
   EDIFFG = 0.1E-02   stopping-criterion for IOM
   NSW    =      0    number of steps for IOM
   NBLOCK =      1;   KBLOCK =      1    inner block; outer block
   IBRION =     -1    ionic relax: 0-MD 1-quasi-New 2-CG
   NFREE  =      0    steps in history (QN), initial steepest desc. (CG)
   ISIF   =      2    stress and relaxation
   IWAVPR =     10    prediction:  0-non 1-charg 2-wave 3-comb
   ISYM   =      2    0-nonsym 1-usesym 2-fastsym
   LCORR  =      T    Harris-Foulkes like correction to forces

   POTIM  = 0.5000    time-step for ionic-motion
   TEIN   =    0.0    initial temperature
   TEBEG  =    0.0;   TEEND  =   0.0 temperature during run
   SMASS  =  -3.00    Nose mass-parameter (am)
   estimated Nose-frequenzy (Omega)   =  0.10E-29 period in steps =****** mass=  -0.652E-26a.u.
   SCALEE = 1.0000    scale energy and forces
   NPACO  =    256;   APACO  = 16.0  distance and # of slots for P.C.
   PSTRESS=    0.0 pullay stress

  Mass of Ions in am
   POMASS =  58.69 32.07
  Ionic Valenz
   ZVAL   =  16.00  6.00
  Atomic Wigner-Seitz radii
  virtual crystal weights
   VCA    =   1.00  1.00
   NELECT =     792.0000    total number of electrons
   NUPDOWN=      -1.0000    fix difference up-down

 DOS related values:
   EMIN   =  10.00;   EMAX   =-10.00  energy-range for DOS
   EFERMI =   0.00
   ISMEAR =     0;   SIGMA  =   0.20  broadening in eV -4-tet -1-fermi 0-gaus

 Electronic relaxation 2 (details)
   IALGO  =     38    algorithm
   LDIAG  =      T    sub-space diagonalisation (order eigenvalues)
   LSUBROT=      F    optimize rotation matrix (better conditioning)
   TURBO    =      0    0=normal 1=particle mesh
   IRESTART =      0    0=no restart 2=restart with 2 vectors
   NREBOOT  =      0    no. of reboots
   NMIN     =      0    reboot dimension
   EREF     =   0.00    reference energy to select bands
   IMIX   =      4    mixing-type and parameters
     AMIX     =   0.40;   BMIX     =  1.00
     AMIX_MAG =   1.60;   BMIX_MAG =  1.00
     AMIN     =   0.10
     WC   =   100.;   INIMIX=   1;  MIXPRE=   1;  MAXMIX= -45

 Intra band minimization:
   WEIMIN = 0.0000     energy-eigenvalue tresh-hold
   EBREAK =  0.53E-07  absolut break condition
   DEPER  =   0.30     relativ break condition

   TIME   =   0.40     timestep for ELM

  volume/ion in A,a.u.               =      36.32       245.10
  Fermi-wavevector in a.u.,A,eV,Ry     =   1.099409  2.077581 16.445356  1.208700
  Thomas-Fermi vector in A             =   2.235803

 Write flags
   LWAVE        =      F    write WAVECAR
[...]
  Fock        0.00000     0.00000     0.00000     0.00000     0.00000     0.00000
  Total     116.32597   115.38092   141.39143    -0.67549    -1.44659    -2.07498
  in kB      71.27138    70.69236    86.62865    -0.41386    -0.88630    -1.27132

 VOLUME and BASIS-vectors are now :
  energy-cutoff  :      450.00
  volume of cell :     2615.00
      direct lattice vectors                 reciprocal lattice vectors
    16.884694054  0.000000000  0.000000000     0.059225237  0.000000000  0.000000000
     0.000000000  9.578410000  0.000000000     0.000000000  0.104401461  0.000000000
     0.000000000  0.000000000 16.169087120     0.000000000  0.000000000  0.061846411

  length of vectors
    16.884694054  9.578410000 16.169087120     0.059225237  0.104401461  0.061846411

 FORCES acting on ions
    electron-ion (+dipol)            ewald-force                    non-local-force                 convergence-correction
   0.568E+03 -.638E+03 0.202E+04   -.572E+03 0.641E+03 -.203E+04   0.376E+01 -.309E+01 0.503E+01   0.118E+00 0.213E+00 -.990E-01
   0.458E+03 -.160E+03 -.282E+04   -.460E+03 0.161E+03 0.282E+04   0.194E+01 -.211E+01 0.128E+01   -.105E-01 0.589E-01 0.763E-01
   0.137E+03 -.797E+02 0.286E+04   -.137E+03 0.801E+02 -.287E+04   0.941E+00 -.790E+00 0.727E+01   0.132E+00 0.851E-01 -.766E-01
   0.364E+03 0.177E+02 -.130E+04   -.367E+03 -.182E+02 0.131E+04   0.226E+01 0.943E+00 -.492E+01   0.239E-02 0.212E+00 -.484E-01
   0.278E+01 0.317E+03 0.214E+04   -.355E+01 -.317E+03 -.215E+04   0.143E+01 -.310E-01 0.782E+01   0.405E-01 -.147E+00 0.565E-02
   0.195E+03 -.173E+03 -.200E+04   -.199E+03 0.173E+03 0.201E+04   0.278E+01 0.141E+00 -.668E+01   -.159E+00 -.266E+00 0.109E+00
   0.832E+03 0.142E+03 0.143E+04   -.837E+03 -.142E+03 -.143E+04   0.513E+01 0.526E+00 0.396E+01   0.153E+00 -.565E-02 -.141E+00
   0.355E+03 0.377E+02 -.323E+04   -.356E+03 -.376E+02 0.323E+04   0.153E+01 -.179E+00 0.558E+00   0.246E+00 -.135E-01 0.212E+00
   0.517E+03 -.133E+02 0.842E+03   -.522E+03 0.133E+02 -.845E+03   0.389E+01 -.577E-01 0.292E+01   -.725E-01 -.111E+00 0.473E+00
   -.587E+02 -.104E+02 -.341E+04   0.566E+02 0.103E+02 0.341E+04   0.357E+01 0.209E+00 -.211E+01   0.107E+00 -.306E-01 0.210E+00
   -.524E+03 0.390E+03 0.191E+04   0.526E+03 -.391E+03 -.192E+04   -.925E+00 0.123E+01 0.289E+01   -.160E+00 -.139E-01 0.119E+00
   0.224E+03 0.290E+03 -.232E+04   -.227E+03 -.290E+03 0.233E+04   0.237E+01 -.384E+00 -.731E+01   -.358E+00 0.728E-01 0.658E-01
   -.474E+03 0.184E+03 0.246E+04   0.481E+03 -.187E+03 -.247E+04   -.539E+01 0.316E+01 0.538E+01   0.275E-01 0.175E+00 -.117E+00
   0.856E+02 0.489E+03 -.220E+04   -.837E+02 -.492E+03 0.221E+04   -.315E+01 0.248E+01 -.435E+01   0.172E+00 0.136E+00 0.104E+00
   -.437E+03 0.216E+03 0.375E+04   0.435E+03 -.218E+03 -.375E+04   0.272E+01 0.807E+00 -.153E+01   -.223E-01 0.146E+00 -.173E+00
   -.595E+03 0.362E+03 -.534E+03   0.596E+03 -.364E+03 0.538E+03   0.113E+00 0.275E+01 -.399E+01   -.419E-01 0.272E+00 0.275E-01
   -.758E+02 0.457E+03 0.340E+04   0.781E+02 -.456E+03 -.340E+04   -.239E+01 -.251E+01 -.956E+00   -.128E+00 0.443E-02 -.966E-01
   -.492E+03 0.206E+03 -.112E+04   0.495E+03 -.211E+03 0.112E+04   -.198E+01 0.415E+01 -.392E+01   -.269E+00 -.896E-01 0.292E+00
   0.134E+03 0.640E+03 0.203E+04   -.134E+03 -.646E+03 -.203E+04   -.159E+00 0.474E+01 0.438E+01   0.165E+00 0.151E+00 -.253E-01
   -.162E+03 0.159E+03 -.283E+04   0.161E+03 -.161E+03 0.283E+04   0.366E+00 0.283E+01 -.490E+00   0.145E+00 -.649E-02 0.203E+00
   0.682E+02 0.363E+03 0.134E+04   -.692E+02 -.366E+03 -.135E+04   0.130E+01 0.251E+01 0.331E+01   0.103E+00 -.241E+00 0.160E+00
   -.496E+02 0.105E+03 -.309E+04   0.515E+02 -.107E+03 0.309E+04   -.257E+01 0.276E+01 0.605E+00   0.100E+00 -.103E+00 0.176E+00
   -.161E+03 0.582E+03 -.104E+04   0.165E+03 -.588E+03 0.104E+04   -.230E+01 0.493E+01 -.985E+00   -.128E+00 -.118E+00 -.192E-01
   -.789E+02 -.505E+03 0.240E+04   0.832E+02 0.509E+03 -.240E+04   -.336E+01 -.449E+01 0.529E+01   -.127E+00 -.867E-01 -.148E+00
   0.164E+03 -.581E+03 -.217E+04   -.163E+03 0.584E+03 0.218E+04   -.105E+01 -.271E+01 -.403E+01   0.117E+00 -.102E+00 0.838E-01
   -.132E+03 -.384E+03 0.388E+04   0.130E+03 0.385E+03 -.389E+04   0.898E+00 -.624E+00 0.547E+01   -.141E+00 0.130E+00 -.664E-01
   -.235E+03 -.394E+03 0.324E+03   0.235E+03 0.397E+03 -.327E+03   0.931E+00 -.322E+01 -.677E-01   0.259E-01 0.772E-01 0.377E+00
   -.190E+03 0.119E+03 -.341E+04   0.190E+03 -.116E+03 0.341E+04   -.288E+00 -.379E+01 -.128E+01   -.188E+00 -.905E-01 0.115E+00
   -.286E+03 -.241E+03 0.341E+04   0.286E+03 0.240E+03 -.341E+04   0.208E+00 0.801E+00 0.547E+01   -.142E+00 0.902E-01 -.100E+00
   -.633E+03 -.775E+03 -.780E+03   0.638E+03 0.781E+03 0.784E+03   -.337E+01 -.568E+01 -.508E+01   0.235E-01 0.233E-01 -.215E-01
   0.219E+03 -.604E+03 0.201E+04   -.219E+03 0.609E+03 -.201E+04   0.490E+00 -.458E+01 0.414E+01   0.275E+00 -.491E-01 -.424E-01
   -.158E+03 -.139E+03 -.286E+04   0.158E+03 0.141E+03 0.286E+04   -.158E+00 -.269E+01 -.226E+00   0.228E+00 0.570E-01 0.135E+00
   0.269E+03 -.371E+03 0.122E+04   -.271E+03 0.374E+03 -.122E+04   0.181E+01 -.206E+01 0.353E+01   0.533E-01 -.416E-01 0.825E-01
   -.206E+03 -.163E+03 -.330E+04   0.207E+03 0.167E+03 0.330E+04   -.125E+01 -.451E+01 0.234E+01   -.486E-01 -.594E-01 0.285E+00
   0.522E+02 0.657E+03 0.248E+04   -.548E+02 -.660E+03 -.248E+04   0.161E+01 0.194E+01 0.774E+01   0.865E-01 0.663E-01 -.100E+00
   -.230E+03 -.136E+03 -.167E+04   0.233E+03 0.140E+03 0.168E+04   -.148E+01 -.295E+01 -.652E+01   -.129E+00 0.193E-01 0.102E+00
   0.118E+03 -.936E+01 -.163E+04   -.117E+03 0.937E+01 0.163E+04   -.104E+01 -.679E-01 -.150E+01   0.203E+00 0.399E-02 0.617E-01
   -.217E+03 -.131E+02 0.390E+03   0.219E+03 0.134E+02 -.394E+03   0.778E+00 -.392E+00 0.153E+01   0.296E-01 0.649E-02 0.189E-01
   -.386E+03 -.857E+02 0.129E+04   0.390E+03 0.879E+02 -.130E+04   -.223E+01 -.263E+01 0.263E+01   -.607E-01 0.303E-01 -.290E-01
   -.743E+02 0.266E+03 -.894E+03   0.736E+02 -.269E+03 0.900E+03   0.942E+00 0.136E+01 -.397E+01   -.515E-01 0.199E+00 0.110E+00
   -.277E+03 -.365E+03 0.897E+03   0.279E+03 0.367E+03 -.900E+03   -.388E+00 -.120E+01 0.182E+01   0.375E-01 0.109E+00 -.154E-01
   -.934E+02 -.959E+02 -.107E+04   0.947E+02 0.961E+02 0.107E+04   -.641E+00 -.422E+00 -.188E+01   0.278E-01 0.154E-01 0.387E-01
   0.131E+03 0.417E+02 0.173E+04   -.131E+03 -.419E+02 -.173E+04   0.433E+00 0.917E-01 0.181E+01   0.109E+00 0.396E-01 -.942E-02
   -.109E+03 0.372E+02 -.317E+03   0.109E+03 -.376E+02 0.321E+03   0.122E+01 0.205E+00 -.349E+01   0.579E-01 0.412E-01 -.202E-01
   0.140E+03 0.781E+02 0.163E+04   -.141E+03 -.785E+02 -.163E+04   0.163E+01 0.378E+00 0.200E+01   0.346E-01 -.650E-01 -.790E-01
   -.931E+02 0.107E+02 -.724E+03   0.940E+02 -.104E+02 0.729E+03   -.412E-01 -.618E+00 -.414E+01   0.644E-02 -.113E+00 0.873E-01
   0.381E+02 0.294E+03 0.721E+03   -.390E+02 -.296E+03 -.724E+03   0.121E+01 0.575E+00 0.204E+01   -.623E-02 -.449E-01 -.519E-01
   -.180E+02 0.393E+02 -.126E+04   0.199E+02 -.398E+02 0.126E+04   -.798E+00 0.471E+00 -.307E+01   -.180E-01 -.879E-02 0.829E-01
   0.179E+03 -.344E+03 0.151E+04   -.180E+03 0.348E+03 -.152E+04   0.331E+00 -.213E+01 0.155E+01   -.166E-01 -.119E-01 -.386E-01
   0.248E+03 -.325E+03 -.124E+03   -.250E+03 0.327E+03 0.125E+03   0.124E+01 0.203E+00 -.125E+00   -.159E-01 -.720E-01 -.377E-01
   -.761E+01 -.349E+03 0.875E+03   0.789E+01 0.352E+03 -.878E+03   -.875E+00 -.875E+00 0.298E+01   -.228E-01 -.771E-01 -.142E-01
   0.919E+02 0.131E+03 -.134E+04   -.939E+02 -.130E+03 0.134E+04   0.802E+00 -.932E+00 -.218E+01   0.131E+00 0.794E-01 0.603E-01
   -.272E+03 -.246E+03 0.385E+03   0.273E+03 0.249E+03 -.386E+03   -.105E+01 -.212E+01 0.328E+00   -.253E-03 -.460E-02 -.919E-02
   -.152E+02 -.279E+03 -.141E+04   0.145E+02 0.282E+03 0.142E+04   -.353E-01 -.187E+01 -.816E+00   -.288E-01 -.491E-02 0.546E-01
   0.154E+03 -.151E+03 -.475E+03   -.154E+03 0.153E+03 0.477E+03   -.628E+00 -.394E+00 -.115E+01   0.120E+00 0.539E-01 0.644E-02
   0.118E+03 -.454E+02 0.133E+04   -.120E+03 0.452E+02 -.133E+04   0.119E+01 0.933E+00 0.398E+01   0.559E-01 0.219E-01 -.542E-01
   0.161E+03 0.268E+02 0.112E+04   -.162E+03 -.279E+02 -.112E+04   0.678E+00 0.106E+01 0.418E+01   -.272E-01 0.294E-01 -.238E-01
   0.455E+02 -.932E+02 -.875E+03   -.459E+02 0.946E+02 0.877E+03   -.343E+00 -.200E+01 -.163E+01   -.965E-01 -.798E-01 0.158E+00
   -.495E+02 0.119E+03 0.176E+03   0.471E+02 -.117E+03 -.176E+03   0.215E+01 -.887E+00 -.116E+01   -.964E-01 -.911E-01 0.101E+00
   0.110E+02 -.208E+03 -.154E+04   -.119E+02 0.211E+03 0.155E+04   0.484E+00 -.197E+01 -.526E+00   -.113E+00 -.648E-02 0.598E-01
   0.279E+03 0.190E+03 0.753E+03   -.281E+03 -.192E+03 -.754E+03   0.109E+01 0.916E+00 0.517E+00   -.752E-02 0.150E+00 -.501E-01
   -.116E+03 -.181E+02 -.132E+04   0.117E+03 0.171E+02 0.133E+04   -.740E+00 0.478E+00 -.229E+01   -.677E-02 0.789E-01 0.719E-01
   0.730E+01 0.626E+02 0.170E+04   -.698E+01 -.644E+02 -.171E+04   -.599E+00 0.150E+01 0.269E+01   0.339E-01 0.910E-01 -.776E-01
   0.737E+02 0.132E+03 -.353E+03   -.733E+02 -.132E+03 0.356E+03   -.797E+00 -.131E+01 -.179E+01   0.713E-02 0.105E+00 0.155E-01
   0.179E+03 0.167E+03 -.457E+03   -.179E+03 -.169E+03 0.459E+03   -.562E+00 0.583E+00 -.138E+01   0.100E+00 -.589E-01 0.256E-01
   0.211E+03 0.749E+02 0.133E+04   -.213E+03 -.745E+02 -.134E+04   0.948E+00 -.112E+01 0.381E+01   -.386E-02 -.368E-01 -.594E-01
   0.101E+03 0.246E+03 0.616E+03   -.103E+03 -.248E+03 -.617E+03   0.929E+00 0.104E+01 0.106E+01   -.101E+00 -.626E-01 0.895E-01
   -.138E+03 -.126E+03 -.157E+04   0.140E+03 0.124E+03 0.158E+04   -.974E+00 0.253E+01 -.220E+01   -.144E+00 -.219E+00 0.501E-01
   -.137E+03 0.212E+03 0.329E+03   0.137E+03 -.213E+03 -.333E+03   0.471E+00 -.839E-01 0.231E+01   -.476E-01 0.190E-01 -.440E-02
   0.516E+02 0.264E+03 -.151E+04   -.521E+02 -.268E+03 0.151E+04   0.178E+00 0.240E+01 -.165E+01   -.708E-01 0.823E-02 0.554E-01
   0.154E+03 -.654E+02 0.112E+04   -.155E+03 0.672E+02 -.113E+04   0.732E+00 -.142E+01 0.421E+01   0.327E-01 -.749E-01 -.633E-04
   0.316E+02 0.736E+02 -.890E+03   -.319E+02 -.749E+02 0.894E+03   -.181E+00 0.172E+01 -.196E+01   -.769E-02 0.587E-01 0.121E+00
   -.161E+02 0.150E+02 -.304E+02   -.959E-12 -.176E-11 0.568E-12   0.157E+02 -.156E+02 0.275E+02   0.241E+00 0.524E+00 0.283E+01

 POSITION                                       TOTAL-FORCE (eV/Angst)
     13.17084      1.39171      1.94975        -0.140794     -0.301648      1.630669
     13.54254      1.40805      4.62035        -0.099833     -0.339045      1.030642
      3.61063      6.46199      1.54567         1.030273     -0.322399     -0.271549
      5.02033      6.18092      3.49202        -0.260195      0.737011     -0.183926
      6.52213      1.59396      2.04498         0.705823     -0.204148     -0.511544
      7.93172      1.39171      4.00611        -0.915293     -0.579566     -0.932077
     16.08224      6.18092      2.46384        -0.377665      0.406115      1.957065
     16.33547      6.17919      5.07525         0.235163     -0.098857      0.777262
      2.10894      1.39171      2.97793        -0.446669     -0.121714      0.374958
      1.70285      1.39021      5.26575         1.544382      0.107286      0.668829
      9.76156      6.17915      2.43583         0.797868      0.067263     -1.019257
     10.84312      6.18092      4.52020        -1.166772     -0.005176     -0.440669
     15.35262      0.07664      1.88275         1.152285      0.523374      0.001876
     15.94353      0.12109      4.39159        -1.072749     -0.918130     -0.257486
      6.99240      3.87258      0.96794         0.186458     -0.187418     -0.945347
      7.17375      4.91558      3.08454         0.830845      0.550001      0.086070
     10.54629      9.01271      1.36919        -0.272844     -0.594895     -0.856851
     10.08514      0.12638      3.59863         0.354696     -0.094089     -0.475933
      1.35096      4.91558      2.05636         0.352097     -0.473360      1.808098
      1.90321      4.80108      4.70881         0.210143      0.559859      1.137645
      4.26235      0.12638      2.57045         0.406012     -0.590534      0.600649
      4.98878      9.17437      4.79635        -0.511976      0.409138      0.749194
     12.99653      4.91558      4.11272         0.927416     -0.436777     -3.001496
     15.42406      2.74037      1.94578         0.751975     -0.447738     -0.051131
     15.91462      2.66760      4.39987        -0.717128      0.693461     -0.025029
      6.04223      6.18700      0.94529        -0.464930     -0.112796     -1.636952
      7.17375      7.44626      3.08454         0.155566      0.146934     -2.304838
      8.24942      8.05444      5.07621        -0.349201     -0.844186      0.904228
      8.93947      1.38422      1.42855        -0.210037      0.285903     -1.873133
     10.08514      2.65705      3.59863         1.210085      0.490292     -1.478873
      1.35096      7.44626      2.05636        -0.029580      0.583887      1.488238
      1.90753      7.56346      4.70456         0.383097     -0.545093      1.111336
      4.26235      2.65705      2.57045        -0.072224      0.836790      0.741963
      4.93552      3.07117      4.90726         0.064099     -0.393672      0.810597
     12.97992      8.30843      1.89734        -0.888749     -0.723681     -0.005750
     12.99653      7.44626      4.11272         0.875851      0.513525     -0.613624
     16.65638      1.39773      5.84228        -0.315210     -0.056252      3.569328
     16.74052      1.39171      2.94940         2.201485     -0.081904     -1.975164
      8.00634      6.18092      1.40713         1.217854     -0.420387     -2.763893
      8.64405      6.19902      4.20991         0.180395     -1.026577      2.050225
     10.91773      1.39171      1.92122         1.766191      0.982175     -1.868740
     11.47657      1.43607      4.58178         0.716877     -0.215100      2.667056
      1.87803      6.17807      0.51944         0.110258     -0.121883     -3.815659
      2.76722      6.18092      3.46349         1.590910     -0.222163      0.662035
      4.76616      1.39376      1.01459         0.443359     -0.101784     -3.567663
      5.67861      1.39171      3.97758         0.874386     -0.497887      1.607829
     13.88548      6.41884      2.51770         0.340608     -1.574020     -1.666963
     14.28581      6.15301      5.17683         1.030492     -0.040335      2.522143
     13.92389      2.69835      0.61438        -0.821093      1.617859     -3.435940
     13.99844      3.00295      3.46826        -1.057715      2.229455      0.783691
      5.26426      7.79215      1.92599        -0.613908      1.992576      0.054302
      6.19560      7.55301      4.91456        -0.988634      0.309501      2.329739
      8.17565      3.00295      2.44008        -0.544003      1.409544     -0.264962
      8.75103      2.93117      5.09522        -0.766874      1.565354      3.315517
      0.02514      7.79215      3.98236        -0.788881      1.343220      0.623990
     16.33372      7.88746      1.29609        -0.426024      0.724223     -2.755607
      2.35833      3.08468      1.78538        -0.611821      0.001772     -2.680952
      2.93654      3.00295      4.49645        -0.862864     -0.659480      1.268851
     11.08705      7.79215      2.95417        -0.254165      0.796902     -0.721800
     11.71263      7.61033      5.67780        -0.510859      1.510866      3.749020
      5.26426      4.56969      1.92599        -1.635476     -1.154612     -0.570275
      5.94324      4.80266      4.76106         0.037934     -0.392868      2.574332
     13.79103      9.57745      0.53398        -0.244217     -0.266298     -3.830488
     13.99844      9.35889      3.46826        -0.445049     -1.008207      1.768541
      0.02514      4.56969      3.98236        -0.886491     -1.455029      0.556948
     16.34179      4.50197      1.28670        -0.841466     -0.741820     -2.968071
      8.17565      9.35889      2.44008        -0.955823     -1.310225     -0.231991
      9.02734      0.28375      5.39272         0.395838      0.400525      3.038027
     11.04051      4.59483      3.15431         0.254176     -1.659579     -1.527744
     11.79917      4.84460      5.72033        -0.440108     -1.261857      3.744018
      2.37842      9.26192      1.77451        -0.824339      0.334297     -2.612510
      2.93654      9.35889      4.49645        -0.503236      0.474081      1.378971
    total drift:                               -0.097937      0.004073     -0.074179

  FREE ENERGIE OF THE ION-ELECTRON SYSTEM (eV)
  free  energy   TOTEN  =      -340.72385584 eV

  energy  without entropy=     -339.62666740  energy(sigma->0) =     -340.17526162