 vasp.5.4.4.18Apr17-6-g9f103f2a35 (build Aug 13 2019 17:33:20) gamma-only

 executed on             LinuxIFC date 2020.05.11  23:04:21

 INCAR:
 POTCAR:    PAW_PBE Ni_pv 06Sep2000
 POTCAR:    PAW_PBE S 06Sep2000
 POTCAR:    PAW_PBE Ni_pv 06Sep2000
   VRHFIN =Ni:

   TITEL  = PAW_PBE Ni_pv 06Sep2000
   POMASS =   58.690; ZVAL   =   16.000    mass and valenz
   ENMAX  =  367.986; ENMIN  =  275.989 eV

 POTCAR:    PAW_PBE S 06Sep2000
   VRHFIN =S : s2p4

   TITEL  = PAW_PBE S 06Sep2000
   POMASS =   32.066; ZVAL   =    6.000    mass and valenz
   ENMAX  =  258.689; ENMIN  =  194.016 eV

 Optimization of the real space projectors (new method)

 maximal supplied QI-value         = 18.90
 optimisation between [QCUT,QGAM] = [ 10.77, 21.73] = [ 32.49,132.25] Ry
 Optimized for a Real-space Cutoff    1.38 Angstroem

   l    n(q)    QCUT    max X(q) W(low)/X(q) W(high)/X(q)  e(spline)
   1      8    10.771     2.836    0.40E-04    0.29E-04    0.12E-06
   1      8    10.771     4.023    0.10E-03    0.48E-04    0.29E-06
   2      8    10.771    73.368    0.42E-03    0.97E-04    0.44E-06
   2      8    10.771    69.010    0.42E-03    0.99E-04    0.45E-06
   0      9    10.771    54.797    0.10E-03    0.56E-04    0.74E-07
   0      9    10.771    24.266    0.89E-04    0.49E-04    0.67E-07
 Optimization of the real space projectors (new method)

 maximal supplied QI-value         = 19.84
 optimisation between [QCUT,QGAM] = [ 10.71, 21.63] = [ 32.15,130.99] Ry
 Optimized for a Real-space Cutoff    1.19 Angstroem

   l    n(q)    QCUT    max X(q) W(low)/X(q) W(high)/X(q)  e(spline)
   0      8    10.715   187.594    0.41E-03    0.53E-04    0.66E-07
   0      8    10.715   164.243    0.41E-03    0.53E-04    0.65E-07
   1      7    10.715    67.533    0.19E-03    0.59E-03    0.68E-07
   1      7    10.715    50.729    0.19E-03    0.58E-03    0.67E-07
  PAW_PBE Ni_pv 06Sep2000               :
  PAW_PBE S 06Sep2000                   :

 POSCAR: Type_037 Type_137
  positions in cartesian coordinates
 exchange correlation table for  LEXCH =        8
   RHO(1)=    0.500       N(1)  =     2000
   RHO(2)=  100.500       N(2)  =     4000

 ion  position               nearest neighbor table
   1  0.780  0.145  0.118-  51 2.07  65 2.07  42 2.25  52 2.36  66 2.36
   2  0.802  0.145  0.281-  66 2.04  52 2.05  43 2.08
   3  0.215  0.634  0.093-  44 2.03  45 2.11  63 2.24   4 2.39  53 2.40  15 2.47
   4  0.297  0.645  0.211-  54 2.11  64 2.13  45 2.25  53 2.26  63 2.26   3 2.39  28 2.53  16 2.53

   5  0.388  0.136  0.119-  47 2.05  48 2.07  69 2.27  55 2.40   6 2.46  30 2.46
   6  0.470  0.145  0.242-  56 2.08  70 2.10  55 2.26  69 2.26  48 2.38   5 2.46  31 2.53  19 2.53

[...]

  25  0.910  0.286  0.113-  51 2.06  68 2.10  52 2.11  39 2.21
  26  0.940  0.283  0.264-  38 2.05  52 2.09  39 2.12  67 2.16  10 2.44
  27  0.444  0.854  0.052-  69 2.08  40 2.13  28 2.36  15 2.49  53 2.51
  28  0.425  0.777  0.186-  54 2.10  69 2.25  40 2.26  53 2.26  27 2.36  41 2.36  29 2.46   4 2.53
                            16 2.53
  29  0.460  0.815  0.329-  70 2.01  54 2.02  41 2.06  28 2.46
  30  0.530  0.147  0.086-  42 2.03  55 2.04  69 2.07   5 2.46  18 2.47
  31  0.597  0.277  0.217-  56 2.06  43 2.11  71 2.25  42 2.26  55 2.26  19 2.53   6 2.53
  32  0.080  0.777  0.124-  44 2.06  73 2.09  58 2.09  57 2.36  45 2.36   7 2.53  20 2.53
  33  0.113  0.793  0.287-  57 2.04  46 2.05  45 2.10  74 2.12
  34  0.252  0.277  0.155-  47 2.07  59 2.10  48 2.21  63 2.25  60 2.36  35 2.41   9 2.53  22 2.53

[...]

  38  0.961  0.152  0.359-  10 2.05  14 2.05  26 2.05
  39  0.991  0.145  0.178-  14 2.08  26 2.12  13 2.20  25 2.21   9 2.25  10 2.54
  40  0.474  0.645  0.085-  11 2.00  15 2.03  27 2.13  16 2.26  28 2.26
  41  0.509  0.645  0.271-  29 2.06  17 2.08  11 2.19  12 2.25  28 2.36  16 2.36
  42  0.647  0.145  0.116-  30 2.03   1 2.25  19 2.26  31 2.26  18 2.46  43 2.72
  43  0.679  0.146  0.277-   2 2.08  31 2.11  19 2.13  42 2.72
  44  0.112  0.645  0.032-   3 2.03  20 2.06  32 2.06
  45  0.164  0.645  0.209-  21 2.09  33 2.10   3 2.11   4 2.25  32 2.36  20 2.36
  46  0.081  0.652  0.375-  33 2.05   8 2.05  21 2.06
  47  0.281  0.144  0.062-   5 2.05  22 2.05  34 2.07
  48  0.330  0.141  0.230-  35 2.06   5 2.07  22 2.17  34 2.21   6 2.38
  49  0.819  0.645  0.147-  23 2.22   7 2.25  24 2.26  37 2.26  36 2.34  50 2.72
  50  0.851  0.645  0.308-   8 2.10  37 2.11  24 2.11  49 2.72
  51  0.815  0.295  0.034-  23 2.02  25 2.06   1 2.07
  52  0.829  0.314  0.210-   2 2.05  26 2.09  25 2.11  23 2.15  24 2.25   1 2.36
  53  0.312  0.814  0.116-  15 2.04  22 2.25   4 2.26  28 2.26   3 2.40  27 2.51
  54  0.348  0.800  0.285-  29 2.02  28 2.10   4 2.11
  55  0.484  0.314  0.147-  30 2.04  16 2.25   6 2.26  31 2.26   5 2.40
  56  0.529  0.279  0.321-  17 2.00  31 2.06   6 2.08  70 2.75
  57  0.001  0.814  0.241-  33 2.04   8 2.06  14 2.18  32 2.36   7 2.36  58 2.76
  58  0.968  0.821  0.077-   7 2.07  32 2.09  13 2.10  57 2.76
  59  0.141  0.324  0.107-  34 2.10  20 2.10   9 2.11  60 2.78
  60  0.174  0.314  0.272-  35 2.08  21 2.12  10 2.19   9 2.36  34 2.36  59 2.78
  61  0.657  0.814  0.179-  18 2.10  11 2.13  36 2.22  19 2.25  37 2.26  12 2.26
  62  0.697  0.788  0.345-  37 2.02  12 2.03  72 2.77
  63  0.312  0.477  0.116-  15 2.03   3 2.24  34 2.25   4 2.26  16 2.26
  64  0.353  0.504  0.293-  35 2.03  17 2.05   4 2.13  16 2.14
  65  0.817  0.998  0.034-  36 2.02  13 2.06   1 2.07
  66  0.829  0.977  0.210-   2 2.04  13 2.10  36 2.15  14 2.19  37 2.25   1 2.36
  67  0.001  0.477  0.241-  21 2.06   8 2.06  26 2.16  20 2.36   7 2.36  68 2.77
  68  0.967  0.470  0.077-   7 2.07  20 2.10  25 2.10  67 2.77
  69  0.484  0.977  0.147-  30 2.07  27 2.08  18 2.16  28 2.25   6 2.26  19 2.26   5 2.27
  70  0.521  0.993  0.317-  29 2.01  19 2.09   6 2.10  56 2.75
  71  0.657  0.477  0.179-  31 2.25  24 2.26  12 2.26  11 2.28  23 2.29
  72  0.695  0.499  0.343-  24 2.02  12 2.03  62 2.77
  73  0.142  0.965  0.111-  22 2.06  32 2.09   9 2.09
  74  0.128  0.012  0.282-  10 2.07   9 2.12  33 2.12

  LATTYP: Found a simple orthorhombic cell.
 ALAT       =     9.5784100000
 B/A-ratio  =     1.7276387782
 C/A-ratio  =     1.7627867312

  Lattice vectors:

 A1 = (   0.0000000000,   9.5784100000,   0.0000000000)
 A2 = (   0.0000000000,   0.0000000000, -16.5480325497)
 A3 = ( -16.8846940542,   0.0000000000,   0.0000000000)

Analysis of symmetry for initial positions (statically):
 Subroutine PRICEL returns:
 Original cell was already a primitive cell.

 Routine SETGRP: Setting up the symmetry group for a
 simple orthorhombic supercell.

 Subroutine GETGRP returns: Found  1 space group operations
 (whereof  1 operations were pure point group operations)
 out of a pool of  8 trial point group operations.

The static configuration has the point symmetry C_1 .

Analysis of symmetry for dynamics (positions and initial velocities):
 Subroutine PRICEL returns:
 Original cell was already a primitive cell.

 Routine SETGRP: Setting up the symmetry group for a
 simple orthorhombic supercell.

 Subroutine GETGRP returns: Found  1 space group operations
 (whereof  1 operations were pure point group operations)
 out of a pool of  8 trial point group operations.

The dynamic configuration has the point symmetry C_1 .

 Subroutine INISYM returns: Found  1 space group operations
 (whereof  1 operations are pure point group operations),
 and found     1 'primitive' translations

 KPOINTS: gamma-point-only calculation. no periodi

Automatic generation of k-mesh.
Space group operators:
 irot       det(A)        alpha          n_x          n_y          n_z        tau_x        tau_y        tau_z
    1     1.000000     0.000001     1.000000     0.000000     0.000000     0.000000     0.000000     0.000000

 Subroutine IBZKPT returns following result:

 Found      1 irreducible k-points:

 Following reciprocal coordinates:
            Coordinates               Weight
  0.000000  0.000000  0.000000      1.000000

 Following cartesian coordinates:
            Coordinates               Weight
  0.000000  0.000000  0.000000      1.000000

 SYSTEM =  "Millerite NiS"
 POSCAR =  Type_037 Type_137

 Startparameter for this run:
   NWRITE =      2    write-flag & timer
   PREC   = normal    normal or accurate (medium, high low for compatibility)
   ISTART =      0    job   : 0-new  1-cont  2-samecut
   ICHARG =      2    charge: 1-file 2-atom 10-const
   ISPIN  =      1    spin polarized calculation?
   LNONCOLLINEAR =      F non collinear calculations
   LSORBIT =      F    spin-orbit coupling
   INIWAV =      1    electr: 0-lowe 1-rand  2-diag
   LASPH  =      F    aspherical Exc in radial PAW
   METAGGA=      F    non-selfconsistent MetaGGA calc.

 Electronic Relaxation 1
   ENCUT  =  450.0 eV  33.07 Ry    5.75 a.u.  29.20 16.57 28.62*2*pi/ulx,y,z
   ENINI  =  450.0     initial cutoff
   ENAUG  =  703.4 eV  augmentation charge cutoff
   NELM   =    100;   NELMIN=  2; NELMDL= -5     # of ELM steps
   EDIFF  = 0.1E-03   stopping-criterion for ELM
   LREAL  =      T    real-space projection
   NLSPLINE    = F    spline interpolate recip. space projectors
   LCOMPAT=      F    compatible to vasp.4.4
   GGA_COMPAT  = T    GGA compatible to vasp.4.4-vasp.4.6
   LMAXPAW     = -100 max onsite density
   LMAXMIX     =    2 max onsite mixed and CHGCAR
   VOSKOWN=      0    Vosko Wilk Nusair interpolation
   ROPT   =   -0.00050  -0.00050
 Ionic relaxation
   EDIFFG = 0.1E-02   stopping-criterion for IOM
   NSW    =      0    number of steps for IOM
   NBLOCK =      1;   KBLOCK =      1    inner block; outer block
   IBRION =     -1    ionic relax: 0-MD 1-quasi-New 2-CG
   NFREE  =      0    steps in history (QN), initial steepest desc. (CG)
   ISIF   =      2    stress and relaxation
   IWAVPR =     10    prediction:  0-non 1-charg 2-wave 3-comb
   ISYM   =      2    0-nonsym 1-usesym 2-fastsym
   LCORR  =      T    Harris-Foulkes like correction to forces

   POTIM  = 0.5000    time-step for ionic-motion
   TEIN   =    0.0    initial temperature
   TEBEG  =    0.0;   TEEND  =   0.0 temperature during run
   SMASS  =  -3.00    Nose mass-parameter (am)
   estimated Nose-frequenzy (Omega)   =  0.10E-29 period in steps =****** mass=  -0.652E-26a.u.
   SCALEE = 1.0000    scale energy and forces
   NPACO  =    256;   APACO  = 16.0  distance and # of slots for P.C.
   PSTRESS=    0.0 pullay stress

  Mass of Ions in am
   POMASS =  58.69 32.07
  Ionic Valenz
   ZVAL   =  16.00  6.00
  Atomic Wigner-Seitz radii
  virtual crystal weights
   VCA    =   1.00  1.00
   NELECT =     814.0000    total number of electrons
   NUPDOWN=      -1.0000    fix difference up-down

 DOS related values:
   EMIN   =  10.00;   EMAX   =-10.00  energy-range for DOS
   EFERMI =   0.00
   ISMEAR =     0;   SIGMA  =   0.20  broadening in eV -4-tet -1-fermi 0-gaus

 Electronic relaxation 2 (details)
   IALGO  =     38    algorithm
   LDIAG  =      T    sub-space diagonalisation (order eigenvalues)
   LSUBROT=      F    optimize rotation matrix (better conditioning)
   TURBO    =      0    0=normal 1=particle mesh
   IRESTART =      0    0=no restart 2=restart with 2 vectors
   NREBOOT  =      0    no. of reboots
[...]
     0.000000000  9.578410000  0.000000000     0.000000000  0.104401461  0.000000000
     0.000000000  0.000000000 16.548032550     0.000000000  0.000000000  0.060430145

  length of vectors
    16.884694054  9.578410000 16.548032550     0.059225237  0.104401461  0.060430145

 FORCES acting on ions
    electron-ion (+dipol)            ewald-force                    non-local-force                 convergence-correction
   0.576E+03 -.132E+03 0.210E+04   -.579E+03 0.132E+03 -.211E+04   0.344E+01 0.590E-01 0.572E+01   -.272E-02 0.688E-02 0.333E-02
   0.467E+03 -.479E+00 -.297E+04   -.471E+03 0.250E+00 0.297E+04   0.442E+01 0.296E+00 0.143E+01   0.106E-02 0.363E-02 -.801E-02
   0.161E+03 0.152E+02 0.286E+04   -.161E+03 -.156E+02 -.287E+04   0.109E+01 0.455E+00 0.745E+01   0.667E-02 0.111E-06 0.917E-02
   0.565E+03 -.144E+03 -.126E+04   -.567E+03 0.144E+03 0.127E+04   0.183E+01 0.605E-02 -.447E+01   0.534E-02 -.117E-02 0.718E-02
   0.265E+03 -.270E+03 0.227E+04   -.266E+03 0.272E+03 -.227E+04   0.151E+01 -.126E+01 0.730E+01   0.701E-02 -.623E-02 0.320E-02
   0.524E+03 -.697E+02 -.199E+04   -.528E+03 0.713E+02 0.200E+04   0.266E+01 -.127E+01 -.617E+01   0.203E-02 -.364E-02 -.316E-02
   0.581E+03 -.279E+02 0.141E+04   -.587E+03 0.279E+02 -.141E+04   0.511E+01 0.133E-01 0.431E+01   -.129E-01 -.385E-02 0.693E-02
   0.521E+03 -.548E+02 -.326E+04   -.526E+03 0.551E+02 0.326E+04   0.308E+01 -.362E+00 -.403E+01   0.451E-03 -.210E-02 -.138E-02
   0.132E+03 0.154E+03 0.789E+03   -.135E+03 -.154E+03 -.793E+03   0.159E+01 0.623E+00 0.438E+01   -.159E-01 0.737E-02 0.209E-01
   -.458E+03 0.149E+02 -.324E+04   0.459E+03 -.156E+02 0.325E+04   0.327E+00 0.139E+01 -.521E+01   -.759E-02 0.583E-02 0.257E-02
   -.455E+03 0.544E+03 0.160E+04   0.458E+03 -.546E+03 -.161E+04   -.272E+01 0.932E+00 0.320E+01   0.372E-03 -.183E-02 -.532E-02
   0.153E+03 0.119E+03 -.240E+04   -.156E+03 -.120E+03 0.241E+04   0.224E+01 0.185E+00 -.684E+01   0.364E-02 -.253E-02 -.718E-02
   -.580E+03 0.240E+03 0.251E+04   0.585E+03 -.242E+03 -.251E+04   -.450E+01 0.305E+01 0.624E+01   -.874E-02 0.342E-02 0.755E-02
   -.332E+02 0.594E+03 -.221E+04   0.338E+02 -.598E+03 0.222E+04   -.173E+01 0.254E+01 -.514E+01   0.454E-02 0.560E-02 0.226E-02
   0.920E+02 0.433E+03 0.394E+04   -.935E+02 -.433E+03 -.394E+04   0.127E+01 0.620E+00 0.493E+01   0.185E-01 0.803E-02 0.380E-02
   -.220E+03 0.680E+03 0.423E+03   0.220E+03 -.684E+03 -.424E+03   0.694E+00 0.428E+01 -.524E+00   -.387E-03 0.214E-02 -.110E-01
   -.113E+03 0.201E+03 -.360E+04   0.115E+03 -.205E+03 0.360E+04   -.270E+01 0.433E+01 0.174E+01   0.848E-03 -.255E-02 -.249E-02
   -.618E+03 0.314E+03 0.332E+04   0.617E+03 -.314E+03 -.333E+04   0.188E+01 -.689E+00 0.155E+01   -.363E-02 -.529E-02 0.344E-02
   -.507E+03 0.160E+03 -.130E+04   0.511E+03 -.164E+03 0.130E+04   -.361E+01 0.385E+01 -.547E+01   0.397E-02 0.155E-02 0.364E-02
   0.189E+02 0.615E+03 0.208E+04   -.191E+02 -.621E+03 -.208E+04   0.100E+00 0.504E+01 0.438E+01   -.807E-02 -.726E-02 0.968E-02
   -.457E+03 0.288E+03 -.272E+04   0.461E+03 -.292E+03 0.273E+04   -.258E+01 0.325E+01 -.405E+01   -.453E-02 -.899E-02 0.407E-02
   0.174E+03 0.455E+03 0.710E+03   -.176E+03 -.458E+03 -.711E+03   0.221E+01 0.217E+01 0.223E+01   0.120E-01 -.295E-02 0.317E-02
   0.468E+03 -.408E+03 0.262E+04   -.471E+03 0.410E+03 -.263E+04   0.180E+01 -.191E+01 0.791E+01   -.237E-02 -.393E-03 0.181E-02
   -.156E+03 0.345E+03 -.170E+04   0.158E+03 -.348E+03 0.170E+04   -.161E+01 0.269E+01 -.556E+01   0.200E-03 -.605E-02 -.124E-01
   -.539E+03 -.210E+03 0.260E+04   0.545E+03 0.213E+03 -.260E+04   -.472E+01 -.297E+01 0.582E+01   -.116E-01 0.235E-02 0.699E-02
   0.147E+03 -.539E+03 -.210E+04   -.146E+03 0.543E+03 0.210E+04   -.132E+01 -.321E+01 -.483E+01   0.102E-01 -.301E-02 0.249E-02
   0.673E+02 -.272E+03 0.397E+04   -.647E+02 0.271E+03 -.397E+04   -.279E+01 0.210E+01 -.877E+00   0.192E-02 0.389E-04 0.101E-03
   0.118E+03 -.391E+03 -.258E+03   -.119E+03 0.394E+03 0.261E+03   0.112E+01 -.278E+01 -.235E+01   0.182E-02 0.465E-02 -.175E-01
   0.151E+03 -.256E+03 -.384E+04   -.151E+03 0.259E+03 0.384E+04   0.852E-01 -.313E+01 0.227E+01   0.409E-02 0.226E-02 -.637E-02
   -.179E+03 -.759E+03 0.347E+04   0.179E+03 0.761E+03 -.348E+04   0.108E-02 -.177E+01 0.553E+01   -.307E-02 -.190E-02 0.366E-02
   -.465E+03 -.601E+03 -.693E+03   0.468E+03 0.607E+03 0.694E+03   -.242E+01 -.571E+01 -.270E+01   0.978E-02 0.717E-03 0.100E-02
   -.524E+02 -.677E+03 0.204E+04   0.519E+02 0.682E+03 -.205E+04   0.576E+00 -.452E+01 0.463E+01   -.586E-02 0.192E-02 0.707E-02
   -.641E+03 -.552E+03 -.265E+04   0.644E+03 0.556E+03 0.266E+04   -.149E+01 -.320E+01 -.475E+01   -.517E-02 -.262E-02 0.479E-02
   0.794E+02 -.258E+03 0.128E+04   -.802E+02 0.262E+03 -.128E+04   0.880E+00 -.321E+01 0.323E+01   0.643E-02 0.540E-02 0.827E-02
   0.278E+02 0.236E+03 -.314E+04   -.271E+02 -.233E+03 0.314E+04   -.120E+01 -.343E+01 0.158E+01   -.256E-02 0.185E-02 0.253E-02
   0.124E+03 0.493E+03 0.255E+04   -.126E+03 -.495E+03 -.255E+04   0.968E+00 0.122E+01 0.774E+01   -.583E-03 -.198E-02 0.387E-02
   -.275E+03 -.284E+03 -.175E+04   0.279E+03 0.287E+03 0.175E+04   -.212E+01 -.256E+01 -.610E+01   0.143E-02 -.379E-03 -.802E-02
   0.113E+03 0.553E+02 -.175E+04   -.113E+03 -.557E+02 0.176E+04   -.944E+00 0.214E+00 -.194E+01   0.598E-02 0.140E-02 -.625E-02
   -.259E+03 0.240E+02 0.454E+03   0.260E+03 -.247E+02 -.457E+03   0.402E+00 0.115E+01 0.102E+01   -.212E-02 0.125E-02 0.677E-02
   -.305E+03 0.356E+03 0.132E+04   0.308E+03 -.359E+03 -.132E+04   -.197E+01 0.270E+01 0.220E+01   0.743E-03 0.401E-02 0.920E-03
   -.127E+03 0.384E+02 -.930E+03   0.128E+03 -.384E+02 0.935E+03   0.826E+00 -.215E+00 -.405E+01   0.322E-02 0.134E-03 -.627E-02
   -.233E+03 -.218E+03 0.953E+03   0.236E+03 0.220E+03 -.957E+03   -.894E+00 -.260E+01 0.186E+01   0.683E-02 0.159E-02 0.359E-02
   -.723E+02 -.300E+02 -.111E+04   0.733E+02 0.302E+02 0.111E+04   -.277E+00 -.204E+00 -.254E+01   -.782E-03 0.805E-03 -.326E-02
   0.908E+02 -.198E+02 0.175E+04   -.910E+02 0.197E+02 -.176E+04   0.378E+00 0.123E+00 0.191E+01   -.272E-02 -.456E-03 -.292E-02
   -.158E+03 -.587E+02 -.298E+03   0.159E+03 0.592E+02 0.300E+03   0.518E+00 -.423E+00 -.268E+01   0.747E-03 -.157E-02 0.669E-02
   -.150E+03 -.484E+02 -.175E+04   0.150E+03 0.484E+02 0.175E+04   0.184E+00 -.334E-01 -.133E+01   -.440E-03 -.153E-02 -.183E-02
   0.150E+03 -.366E+02 0.160E+04   -.151E+03 0.368E+02 -.161E+04   0.140E+01 -.127E+00 0.260E+01   0.548E-02 -.921E-05 -.146E-02
   0.321E+02 0.213E+03 -.747E+03   -.324E+02 -.215E+03 0.752E+03   0.128E+01 0.115E+01 -.309E+01   0.424E-02 0.132E-02 0.149E-02
   -.306E+02 -.118E+02 0.731E+03   0.317E+02 0.119E+02 -.735E+03   -.775E+00 0.255E+00 0.239E+01   -.288E-02 -.312E-02 -.897E-03
   -.395E+02 -.514E+01 -.126E+04   0.413E+02 0.499E+01 0.127E+04   -.103E+01 0.166E+00 -.260E+01   0.469E-03 -.853E-03 -.187E-02
   0.807E+02 -.110E+03 0.173E+04   -.807E+02 0.111E+03 -.174E+04   -.413E+00 -.319E+00 0.253E+01   -.286E-02 0.244E-02 0.566E-02
   0.136E+03 -.152E+03 -.316E+03   -.137E+03 0.152E+03 0.319E+03   -.746E+00 0.933E+00 -.234E+01   -.156E-02 0.177E-02 -.340E-02
   0.272E+03 -.322E+03 0.754E+03   -.274E+03 0.325E+03 -.755E+03   0.147E+01 -.151E+01 0.214E+00   0.770E-02 0.625E-03 0.959E-03
   0.398E+03 -.262E+03 -.121E+04   -.401E+03 0.265E+03 0.121E+04   0.984E+00 -.196E+01 -.190E+01   -.369E-02 -.169E-02 -.524E-02
   0.120E+01 -.306E+03 0.660E+03   -.152E+01 0.309E+03 -.662E+03   -.947E+00 -.169E+01 0.218E+01   -.116E-02 0.304E-02 0.197E-02
   -.123E+03 0.617E+02 -.148E+04   0.124E+03 -.601E+02 0.149E+04   -.715E+00 -.136E+01 -.195E+01   0.407E-02 -.467E-02 -.255E-02
   0.112E+03 -.178E+03 -.441E+03   -.114E+03 0.180E+03 0.440E+03   0.101E+01 -.105E+01 -.854E-01   -.262E-02 0.257E-02 0.334E-02
   0.614E+02 -.693E+02 0.137E+04   -.630E+02 0.689E+02 -.138E+04   0.120E+01 0.118E+01 0.403E+01   -.455E-02 0.116E-02 0.113E-02
   0.975E+02 0.700E+02 0.114E+04   -.978E+02 -.711E+02 -.115E+04   -.284E+00 0.862E+00 0.392E+01   -.278E-02 0.339E-03 0.259E-02
   -.761E+02 0.267E+02 -.896E+03   0.764E+02 -.243E+02 0.899E+03   -.304E+00 -.229E+01 -.106E+01   -.543E-02 -.439E-03 0.501E-02
   -.122E+03 0.384E+02 0.165E+03   0.121E+03 -.365E+02 -.165E+03   0.103E+01 -.895E+00 -.115E+00   0.133E-02 -.979E-04 -.791E-04
   0.907E+01 -.238E+03 -.160E+04   -.100E+02 0.242E+03 0.161E+04   0.506E+00 -.248E+01 -.584E+00   0.302E-03 0.410E-03 -.166E-02
   0.435E+02 0.369E+03 0.892E+03   -.435E+02 -.372E+03 -.894E+03   -.897E+00 0.148E+01 0.222E+01   0.444E-02 -.457E-03 0.342E-02
   0.207E+03 -.492E+02 -.125E+04   -.208E+03 0.480E+02 0.125E+04   -.143E-01 0.557E+00 -.294E+01   -.543E-02 0.115E-03 -.328E-02
   0.399E+01 0.879E+02 0.174E+04   -.388E+01 -.889E+02 -.175E+04   -.382E+00 0.111E+00 0.266E+01   -.159E-02 0.104E-02 0.362E-02
   0.629E+02 0.153E+03 -.350E+03   -.627E+02 -.154E+03 0.353E+03   -.858E+00 -.635E+00 -.207E+01   0.534E-03 0.679E-03 -.124E-02
   0.122E+03 0.133E+03 -.421E+03   -.124E+03 -.135E+03 0.420E+03   0.447E+00 0.604E+00 -.293E+00   -.439E-03 -.419E-02 0.329E-02
   0.664E+02 0.626E+02 0.138E+04   -.682E+02 -.621E+02 -.139E+04   0.141E+01 -.130E+01 0.403E+01   -.473E-02 -.205E-02 0.185E-02
   0.127E+03 0.243E+02 0.300E+03   -.129E+03 -.264E+02 -.298E+03   0.562E+00 0.113E+01 -.199E+01   -.471E-02 -.521E-02 -.333E-03
   -.650E+02 -.617E+02 -.147E+04   0.656E+02 0.605E+02 0.147E+04   -.309E+00 0.105E+01 -.208E+01   0.396E-02 0.504E-02 -.424E-02
   0.718E+02 0.124E+03 0.409E+03   -.738E+02 -.126E+03 -.411E+03   0.152E+01 0.155E+01 0.185E+01   0.368E-02 -.173E-02 -.217E-02
   0.216E+02 0.255E+03 -.157E+04   -.225E+02 -.259E+03 0.157E+04   0.365E+00 0.241E+01 -.910E+00   0.814E-03 -.152E-02 -.208E-02
   0.836E+02 -.393E+02 0.105E+04   -.832E+02 0.399E+02 -.105E+04   -.839E+00 -.509E+00 0.340E+01   -.263E-02 0.916E-04 0.679E-03
   -.274E+03 0.133E+03 -.102E+04   0.276E+03 -.134E+03 0.102E+04   -.771E+00 0.150E+00 -.136E+00   -.593E-02 0.531E-02 0.407E-02
   -.555E+01 0.476E+01 -.268E+02   -.568E-12 0.597E-12 0.796E-11   0.548E+01 -.474E+01 0.268E+02   0.205E-02 0.447E-02 0.568E-01

 POSITION                                       TOTAL-FORCE (eV/Angst)
     13.17084      1.39171      1.94975         0.150712      0.045427      1.009132
     13.54865      1.38969      4.64558        -0.037464      0.070577      1.031886
      3.63847      6.06974      1.54369         1.114124      0.051555     -0.346951
      5.02033      6.18092      3.49202        -0.452320     -0.135628     -0.127835
      6.55074      1.29902      1.97622         1.181430      0.169239     -0.567454
      7.93172      1.39171      4.00611        -1.293032      0.352748     -1.041672
     16.08224      6.18092      2.46384        -0.387154     -0.052150      1.998583
     16.46963      6.18430      5.18644        -1.516331      0.019062      0.541931
      2.10894      1.39171      2.97793        -0.709815      0.290189      0.151067
      1.15394      1.87286      5.08087         0.653335      0.663872      0.624738
      9.63195      6.28437      2.57177         0.574391     -0.402095     -0.429134
     10.84312      6.18092      4.52020        -0.860183     -0.236055     -1.117032
     15.36878      0.03479      1.89811         0.922137      0.610343      0.221485
     15.95240      0.12941      4.39889        -1.189308     -1.223064     -0.452523
      6.02832      6.17705      0.93986        -0.225064     -0.069578     -1.748334
      7.17375      4.91558      3.08454         0.359200     -0.177751     -1.196462
      7.90656      4.39531      5.31985        -0.193000      0.528429      0.920394
      9.99214      8.74659      1.43782         0.081530     -0.270462     -0.939761
     10.08514      0.12638      3.59863         0.903002      0.137141     -0.151922
      1.35096      4.91558      2.05636        -0.101666     -0.419056      1.756620
      1.89611      4.82823      4.80308         1.016237     -1.099439      0.341938
      4.26235      0.12638      2.57045         0.477723     -1.004666      1.086790
     13.08208      4.16193      1.91031        -0.790322      0.749832      0.284189
     12.99653      4.91558      4.11272         0.664665      0.032006     -1.303121
     15.35738      2.73969      1.87309         1.043250     -0.733659      0.105267
     15.86858      2.71459      4.36336        -0.304029      1.084894     -0.225924
      7.50451      8.18372      0.86416        -0.168430      0.377592     -0.725718
      7.17375      7.44626      3.08454         0.208541     -0.189933     -0.104105
      7.76285      7.80252      5.44878         0.302712     -0.174437      0.747160
      8.95120      1.40904      1.42704        -0.196329     -0.022660     -1.903194
     10.08514      2.65705      3.59863         0.752387      0.421247     -1.864064
      1.35096      7.44626      2.05636         0.104803      0.211754      1.754067
      1.90692      7.59533      4.74836         1.002592      1.359127     -0.020299
      4.26235      2.65705      2.57045         0.069658      0.890066      0.433847
      4.99279      3.04031      4.83604        -0.483702     -0.159304      1.154798
     12.97536      8.29730      1.90532        -0.688788     -1.134167      0.224659
     12.99653      7.44626      4.11272         1.112731      0.010794     -1.389914
     16.22760      1.45130      5.94088        -0.736313     -0.233919      4.086636
     16.74052      1.39171      2.94940         1.583183      0.447804     -2.342857
      8.00634      6.18092      1.40713         1.106967     -0.373034     -3.093358
      8.59001      6.18092      4.49167         1.300055     -0.222650      1.129055
     10.91773      1.39171      1.92122         1.315352     -0.463140     -1.304189
     11.47111      1.40050      4.58486         0.657819     -0.019374      2.628480
      1.88894      6.18023      0.52687         0.176216      0.068560     -3.934886
      2.76722      6.18092      3.46349         1.480356      0.058386      0.037005
      1.37142      6.24463      6.19824         0.603968     -0.031638      4.251503
      4.74496      1.38128      1.01844         0.395113      0.111051     -3.927652
      5.56482      1.35477      3.80005         0.951585     -0.996102      2.451711
     13.82913      6.18092      2.43531         0.328603      0.345610     -1.697892
     14.37204      6.18094      5.10085         0.760725      0.011284      2.579991
     13.76426      2.82103      0.56854        -0.391314      0.785377     -3.977933
     13.99844      3.00295      3.46826        -1.288736      1.522396      1.194649
      5.26426      7.79215      1.92599        -0.842056      1.362075     -0.670628
      5.88054      7.65933      4.72112        -1.844063      1.722592      2.003079
      8.17565      3.00295      2.44008        -1.267651      1.245451      0.071210
      8.93213      2.67709      5.30748         0.340799      0.232849      2.947822
      0.02514      7.79215      3.98236        -1.240156      1.245283     -0.674437
     16.34084      7.86269      1.27941        -0.476548      0.752103     -2.770381
      2.37263      3.09889      1.77391        -0.612923     -0.192839     -2.893272
      2.93654      3.00295      4.49645         0.026460      0.117272      1.420032
     11.08705      7.79215      2.95417         0.015792      1.034986     -0.434468
     11.76169      7.54960      5.70390        -0.463081      1.204571      3.842010
      5.26426      4.56969      1.92599        -0.942621     -1.515871     -0.138433
      5.95614      4.82354      4.84321        -1.153942     -0.633785      1.923157
     13.80129      9.56175      0.56258        -0.264172     -0.803241     -3.874357
     13.99844      9.35889      3.46826        -0.660397     -1.480212      1.480789
      0.02514      4.56969      3.98236        -1.088218     -1.199623     -0.773660
     16.33413      4.49771      1.27890        -0.367517     -0.734689     -2.642223
      8.17565      9.35889      2.44008        -0.960907     -0.977606     -0.365500
      8.80331      9.51303      5.24037         0.251614     -0.163567      2.734278
     11.08705      4.56969      2.95417        -0.466089     -0.742499     -0.927182
     11.73627      4.77689      5.68074        -0.450587     -1.198733      3.778522
      2.39135      9.24151      1.84082        -0.439804      0.046315     -2.443670
      2.16962      0.11853      4.66713         1.564267     -0.903233      1.593915
    total drift:                               -0.061323      0.026658      0.033573

  FREE ENERGIE OF THE ION-ELECTRON SYSTEM (eV)
  free  energy   TOTEN  =      -352.20402539 eV

  energy  without entropy=     -351.14078249  energy(sigma->0) =     -351.67240394