 vasp.5.4.4.18Apr17-6-g9f103f2a35 (build Aug 13 2019 17:33:20) gamma-only

 executed on             LinuxIFC date 2020.05.10  11:52:55

 INCAR:
 POTCAR:    PAW_PBE Ni_pv 06Sep2000
 POTCAR:    PAW_PBE S 06Sep2000
 POTCAR:    PAW_PBE Ni_pv 06Sep2000
   VRHFIN =Ni:

   TITEL  = PAW_PBE Ni_pv 06Sep2000
   POMASS =   58.690; ZVAL   =   16.000    mass and valenz
   ENMAX  =  367.986; ENMIN  =  275.989 eV

 POTCAR:    PAW_PBE S 06Sep2000
   VRHFIN =S : s2p4

   TITEL  = PAW_PBE S 06Sep2000
   POMASS =   32.066; ZVAL   =    6.000    mass and valenz
   ENMAX  =  258.689; ENMIN  =  194.016 eV

 Optimization of the real space projectors (new method)

 maximal supplied QI-value         = 18.90
 optimisation between [QCUT,QGAM] = [ 10.77, 21.73] = [ 32.49,132.25] Ry
 Optimized for a Real-space Cutoff    1.38 Angstroem

   l    n(q)    QCUT    max X(q) W(low)/X(q) W(high)/X(q)  e(spline)
   1      8    10.771     2.836    0.40E-04    0.29E-04    0.12E-06
   1      8    10.771     4.023    0.10E-03    0.48E-04    0.29E-06
   2      8    10.771    73.368    0.42E-03    0.97E-04    0.44E-06
   2      8    10.771    69.010    0.42E-03    0.99E-04    0.45E-06
   0      9    10.771    54.797    0.10E-03    0.56E-04    0.74E-07
   0      9    10.771    24.266    0.89E-04    0.49E-04    0.67E-07
 Optimization of the real space projectors (new method)

 maximal supplied QI-value         = 19.84
 optimisation between [QCUT,QGAM] = [ 10.71, 21.63] = [ 32.15,130.99] Ry
 Optimized for a Real-space Cutoff    1.19 Angstroem

   l    n(q)    QCUT    max X(q) W(low)/X(q) W(high)/X(q)  e(spline)
   0      8    10.715   187.594    0.41E-03    0.53E-04    0.66E-07
   0      8    10.715   164.243    0.41E-03    0.53E-04    0.65E-07
   1      7    10.715    67.533    0.19E-03    0.59E-03    0.68E-07
   1      7    10.715    50.729    0.19E-03    0.58E-03    0.67E-07
  PAW_PBE Ni_pv 06Sep2000               :
  PAW_PBE S 06Sep2000                   :

 POSCAR: Type_026 Type_126
  positions in cartesian coordinates
 exchange correlation table for  LEXCH =        8
   RHO(1)=    0.500       N(1)  =     2000
   RHO(2)=  100.500       N(2)  =     4000

 ion  position               nearest neighbor table
   1  0.439  0.464  0.163-  33 2.09  43 2.11  28 2.25  34 2.36  44 2.36   5 2.53  22 2.53
   2  0.499  0.444  0.331-  45 2.07  40 2.08  44 2.10  34 2.12  23 2.34
   3  0.237  0.827  0.104-  35 2.05  28 2.07  36 2.09  32 2.14
   4  0.208  0.977  0.235-  32 2.06  37 2.07  27 2.10  36 2.13  26 2.39  12 2.48
   5  0.439  0.200  0.163-  38 2.05  33 2.21  32 2.25  34 2.36  39 2.36   1 2.53  22 2.53
   6  0.473  0.178  0.315-  40 2.01  39 2.04  34 2.05
   7  0.215  0.535  0.095-  28 2.06  29 2.08  35 2.09  33 2.13   9 2.45  24 2.45
   8  0.203  0.689  0.233-  36 2.07  37 2.08  28 2.09  30 2.09  26 2.52  12 2.53
   9  0.128  0.331  0.159-  27 2.12  29 2.13  30 2.14  33 2.15   7 2.45  14 2.48
  10  0.185  0.332  0.302-  31 2.04  27 2.11  30 2.11  34 2.14  19 2.53
  11  0.504  0.969  0.100-  50 2.06  32 2.10  51 2.13  38 2.19  16 2.39
  12  0.390  0.834  0.218-  32 2.07  28 2.10  37 2.21  13 2.36  51 2.37   4 2.48   8 2.53
  13  0.552  0.836  0.305-  52 2.00  51 2.21  12 2.36  17 2.39  21 2.43
  14  0.939  0.464  0.163-  29 2.03  41 2.25  49 2.36  30 2.36  24 2.37  48 2.38   9 2.48
  15  0.982  0.474  0.323-  31 2.05  30 2.07  49 2.08  42 2.10
  16  0.684  0.096  0.122-  46 1.99  38 2.07  50 2.22  39 2.27  48 2.29  22 2.36  11 2.39
  17  0.715  0.964  0.253-  52 2.05  39 2.25  51 2.26  46 2.26  13 2.39  25 2.53  21 2.53  47 2.62

  18  0.923  0.172  0.196-  46 2.07  49 2.08  48 2.13  27 2.25  19 2.46  47 2.47
  19  0.992  0.206  0.330-  31 2.04  27 2.11  47 2.11  49 2.12  18 2.46  10 2.53
  20  0.673  0.712  0.096-  51 2.05  41 2.10  43 2.11  50 2.12
  21  0.715  0.700  0.253-  52 2.05  44 2.25  51 2.26  41 2.26  13 2.43  25 2.53  17 2.53
  22  0.631  0.332  0.139-  48 2.09  43 2.11  38 2.16  16 2.36  39 2.36  44 2.36   1 2.53   5 2.53

[...]

  26  0.073  0.846  0.314-  42 2.07  37 2.15  47 2.18  36 2.33  25 2.39   4 2.39   8 2.52
  27  0.111  0.164  0.239-   4 2.10  19 2.11  10 2.11   9 2.12  18 2.25  47 2.77
  28  0.336  0.664  0.149-   7 2.06   3 2.07   8 2.09  12 2.10   1 2.25
  29  0.048  0.452  0.069-  14 2.03   7 2.08   9 2.13  24 2.18  35 2.76
  30  0.111  0.500  0.239-  15 2.07   8 2.09  10 2.11   9 2.14  14 2.36
  31  0.076  0.350  0.397-  19 2.04  10 2.04  15 2.05
  32  0.336  1.000  0.149-   4 2.06  12 2.07  11 2.10   3 2.14   5 2.25
  33  0.306  0.342  0.112-   1 2.09   7 2.13   9 2.15   5 2.21  34 2.79
  34  0.368  0.332  0.269-   6 2.05   2 2.12  10 2.14   1 2.36   5 2.36  33 2.79
  35  0.155  0.699  0.025-   3 2.05  24 2.06   7 2.09  29 2.76
  36  0.092  0.832  0.179-   8 2.07   3 2.09  24 2.10   4 2.13  25 2.25  26 2.33
  37  0.264  0.831  0.316-   4 2.07   8 2.08  26 2.15  12 2.21
  38  0.541  0.184  0.064-   5 2.05  16 2.07  22 2.16  11 2.19
  39  0.611  0.164  0.239-   6 2.04  17 2.25  23 2.26  16 2.27  22 2.36   5 2.36
  40  0.556  0.280  0.401-   6 2.01  23 2.07   2 2.08  45 2.53
  41  0.836  0.664  0.149-  20 2.10  14 2.25  25 2.26  21 2.26  24 2.28
  42  0.946  0.690  0.318-  26 2.07  25 2.10  15 2.10
  43  0.579  0.522  0.088-   1 2.11  22 2.11  20 2.11  44 2.63
  44  0.611  0.500  0.239-   2 2.10  21 2.25  23 2.26  22 2.36   1 2.36  45 2.47  43 2.63
  45  0.656  0.514  0.380-  23 2.06   2 2.07  44 2.47  40 2.53
  46  0.836  1.000  0.149-  16 1.99  18 2.07  25 2.26  17 2.26  48 2.79
  47  0.933  0.002  0.304-  25 2.09  19 2.11  26 2.18  18 2.47  17 2.62  27 2.77
  48  0.809  0.285  0.119-  22 2.09  18 2.13  16 2.29  14 2.38  49 2.71  46 2.79
  49  0.868  0.332  0.269-  18 2.08  15 2.08  19 2.12  23 2.25  14 2.36  48 2.71
  50  0.659  0.912  0.045-  11 2.06  20 2.12  16 2.22  51 2.56
  51  0.592  0.832  0.179-  20 2.05  11 2.13  13 2.21  17 2.26  21 2.26  12 2.37  50 2.56
  52  0.717  0.832  0.346-  13 2.00  21 2.05  17 2.05

  LATTYP: Found a simple orthorhombic cell.
 ALAT       =     9.5784100000
 B/A-ratio  =     1.1751911892
 C/A-ratio  =     1.7949213288

  Lattice vectors:

 A1 = (   0.0000000000,  -9.5784100000,   0.0000000000)
 A2 = ( -11.2564630382,   0.0000000000,   0.0000000000)
 A3 = (   0.0000000000,   0.0000000000, -17.1924924047)

Analysis of symmetry for initial positions (statically):
 Subroutine PRICEL returns:
 Original cell was already a primitive cell.

 Routine SETGRP: Setting up the symmetry group for a
 simple orthorhombic supercell.

 Subroutine GETGRP returns: Found  1 space group operations
 (whereof  1 operations were pure point group operations)
 out of a pool of  8 trial point group operations.

The static configuration has the point symmetry C_1 .

Analysis of symmetry for dynamics (positions and initial velocities):
 Subroutine PRICEL returns:
 Original cell was already a primitive cell.

 Routine SETGRP: Setting up the symmetry group for a
 simple orthorhombic supercell.

 Subroutine GETGRP returns: Found  1 space group operations
 (whereof  1 operations were pure point group operations)
 out of a pool of  8 trial point group operations.

The dynamic configuration has the point symmetry C_1 .

 Subroutine INISYM returns: Found  1 space group operations
 (whereof  1 operations are pure point group operations),
 and found     1 'primitive' translations

 KPOINTS: gamma-point-only calculation. no periodi

Automatic generation of k-mesh.
Space group operators:
 irot       det(A)        alpha          n_x          n_y          n_z        tau_x        tau_y        tau_z
    1     1.000000     0.000000     1.000000     0.000000     0.000000     0.000000     0.000000     0.000000

 Subroutine IBZKPT returns following result:

 Found      1 irreducible k-points:

 Following reciprocal coordinates:
            Coordinates               Weight
  0.000000  0.000000  0.000000      1.000000

 Following cartesian coordinates:
            Coordinates               Weight
  0.000000  0.000000  0.000000      1.000000

 SYSTEM =  "Millerite NiS"
 POSCAR =  Type_026 Type_126

 Startparameter for this run:
   NWRITE =      2    write-flag & timer
   PREC   = normal    normal or accurate (medium, high low for compatibility)
   ISTART =      0    job   : 0-new  1-cont  2-samecut
   ICHARG =      2    charge: 1-file 2-atom 10-const
   ISPIN  =      1    spin polarized calculation?
   LNONCOLLINEAR =      F non collinear calculations
   LSORBIT =      F    spin-orbit coupling
   INIWAV =      1    electr: 0-lowe 1-rand  2-diag
   LASPH  =      F    aspherical Exc in radial PAW
   METAGGA=      F    non-selfconsistent MetaGGA calc.

 Electronic Relaxation 1
   ENCUT  =  450.0 eV  33.07 Ry    5.75 a.u.  19.47 16.57 29.74*2*pi/ulx,y,z
   ENINI  =  450.0     initial cutoff
   ENAUG  =  703.4 eV  augmentation charge cutoff
   NELM   =    100;   NELMIN=  2; NELMDL= -5     # of ELM steps
   EDIFF  = 0.1E-03   stopping-criterion for ELM
   LREAL  =      T    real-space projection
   NLSPLINE    = F    spline interpolate recip. space projectors
   LCOMPAT=      F    compatible to vasp.4.4
   GGA_COMPAT  = T    GGA compatible to vasp.4.4-vasp.4.6
   LMAXPAW     = -100 max onsite density
   LMAXMIX     =    2 max onsite mixed and CHGCAR
   VOSKOWN=      0    Vosko Wilk Nusair interpolation
   ROPT   =   -0.00050  -0.00050
 Ionic relaxation
   EDIFFG = 0.1E-02   stopping-criterion for IOM
   NSW    =      0    number of steps for IOM
   NBLOCK =      1;   KBLOCK =      1    inner block; outer block
   IBRION =     -1    ionic relax: 0-MD 1-quasi-New 2-CG
   NFREE  =      0    steps in history (QN), initial steepest desc. (CG)
   ISIF   =      2    stress and relaxation
   IWAVPR =     10    prediction:  0-non 1-charg 2-wave 3-comb
   ISYM   =      2    0-nonsym 1-usesym 2-fastsym
   LCORR  =      T    Harris-Foulkes like correction to forces

   POTIM  = 0.5000    time-step for ionic-motion
   TEIN   =    0.0    initial temperature
   TEBEG  =    0.0;   TEEND  =   0.0 temperature during run
   SMASS  =  -3.00    Nose mass-parameter (am)
   estimated Nose-frequenzy (Omega)   =  0.10E-29 period in steps =****** mass=  -0.290E-26a.u.
   SCALEE = 1.0000    scale energy and forces
   NPACO  =    256;   APACO  = 16.0  distance and # of slots for P.C.
   PSTRESS=    0.0 pullay stress

  Mass of Ions in am
   POMASS =  58.69 32.07
  Ionic Valenz
   ZVAL   =  16.00  6.00
  Atomic Wigner-Seitz radii
  virtual crystal weights
   VCA    =   1.00  1.00
   NELECT =     572.0000    total number of electrons
   NUPDOWN=      -1.0000    fix difference up-down

 DOS related values:
   EMIN   =  10.00;   EMAX   =-10.00  energy-range for DOS
   EFERMI =   0.00
   ISMEAR =     0;   SIGMA  =   0.20  broadening in eV -4-tet -1-fermi 0-gaus

 Electronic relaxation 2 (details)
   IALGO  =     38    algorithm
   LDIAG  =      T    sub-space diagonalisation (order eigenvalues)
   LSUBROT=      F    optimize rotation matrix (better conditioning)
   TURBO    =      0    0=normal 1=particle mesh
   IRESTART =      0    0=no restart 2=restart with 2 vectors
   NREBOOT  =      0    no. of reboots
   NMIN     =      0    reboot dimension
   EREF     =   0.00    reference energy to select bands
   IMIX   =      4    mixing-type and parameters
[...]
      26 -87.8780      27 -93.4126      28 -93.2110      29 -92.7721      30 -93.5782
      31 -92.2311      32 -93.0956      33 -92.6022      34 -93.0899      35 -92.1281
      36 -93.5634      37 -92.7381      38 -92.8079      39 -93.2949      40 -92.6274
      41 -92.8674      42 -92.4324      43 -92.3174      44 -93.4851      45 -92.5107
      46 -92.7281      47 -93.0787      48 -92.6798      49 -93.2266      50 -92.3746
      51 -93.6337      52 -92.6022

 E-fermi :  -0.1390     XC(G=0):  -5.3966     alpha+bet : -5.1393

 k-point     1 :       0.0000    0.0000    0.0000
  band No.  band energies     occupation
      1     -65.0675      2.00000
      2     -64.8841      2.00000
      3     -64.8078      2.00000
      4     -64.7835      2.00000
      5     -64.7702      2.00000
      6     -64.7343      2.00000
      7     -64.7132      2.00000
      8     -64.6993      2.00000
      9     -64.6984      2.00000
     10     -64.6982      2.00000
     11     -64.6957      2.00000
     12     -64.6856      2.00000
     13     -64.6674      2.00000
     14     -64.6664      2.00000
     15     -64.6364      2.00000
     16     -64.6189      2.00000
     17     -64.6170      2.00000
     18     -64.6165      2.00000
     19     -64.5988      2.00000
     20     -64.5976      2.00000
     21     -64.5879      2.00000
     22     -64.5774      2.00000
     23     -64.5747      2.00000
     24     -64.5724      2.00000
     25     -64.5610      2.00000
     26     -64.5524      2.00000
     27     -64.5327      2.00000
     28     -64.5173      2.00000
     29     -64.5136      2.00000
     30     -64.5093      2.00000
     31     -64.4981      2.00000
     32     -64.4973      2.00000
     33     -64.4616      2.00000
     34     -64.4487      2.00000
     35     -64.4413      2.00000
     36     -64.4153      2.00000
     37     -64.4046      2.00000
     38     -64.4012      2.00000
     39     -64.3935      2.00000
     40     -64.3811      2.00000
     41     -64.3804      2.00000
     42     -64.3748      2.00000
     43     -64.3651      2.00000
     44     -64.3505      2.00000
     45     -64.3329      2.00000
     46     -64.3269      2.00000
     47     -64.3211      2.00000
     48     -64.3105      2.00000
     49     -64.3092      2.00000
     50     -64.2983      2.00000
     51     -64.2918      2.00000
     52     -64.2846      2.00000
     53     -64.2722      2.00000
     54     -64.2698      2.00000
     55     -64.2694      2.00000
     56     -64.2575      2.00000
     57     -64.2344      2.00000
     58     -64.2166      2.00000
     59     -64.2056      2.00000
     60     -64.2000      2.00000
[...]
    330       4.9850      0.00000
    331       5.0087      0.00000
    332       5.0356      0.00000
    333       5.1034      0.00000
    334       5.1904      0.00000
    335       5.2359      0.00000
    336       5.3162      0.00000
    337       5.3827      0.00000
    338       5.4519      0.00000
    339       5.4873      0.00000
    340       5.5254      0.00000
    341       5.5479      0.00000
    342       5.6515      0.00000
    343       5.7012      0.00000
    344       5.7865      0.00000

 soft charge-density along one line, spin component           1
         0         1         2         3         4         5         6         7         8         9
 total charge-density along one line

------------------------ aborting loop because EDIFF is reached ----------------------------------------

  FORCE on cell =-STRESS in cart. coord.  units (eV):
  Direction    XX          YY          ZZ          XY          YZ          ZX
  Alpha Z  1046.73971  1046.73971  1046.73971
  Ewald  165125.14380164481.44782************   921.90308   167.08613  -353.00341
  Hartree189508.45105189009.64414************   771.46662   109.05518  -369.88863
  E(xc)   -3652.99206 -3652.86510 -3657.97340     0.47883    -0.00593     0.42520
  Local  ************************355354.32634 -1693.25209  -279.47054   733.41808
  n-local  -417.59052  -421.36996  -434.25875    -0.33596     4.29462     4.11220
  augment  4171.33099  4175.73455  4192.66046     0.16759     0.31346    -5.41319
  Kinetic  8026.29939  8016.33524  8086.57810    -0.98025     1.94647    -7.94384
  Fock        0.00000     0.00000     0.00000     0.00000     0.00000     0.00000
  Total     102.76537    98.04698    98.65476    -0.55218     3.21937     1.70640
  in kB      88.82253    84.74432    85.26964    -0.47726     2.78258     1.47488

 VOLUME and BASIS-vectors are now :
  energy-cutoff  :      450.00
  volume of cell :     1853.68
      direct lattice vectors                 reciprocal lattice vectors
    11.256463038  0.000000000  0.000000000     0.088837852  0.000000000  0.000000000
     0.000000000  9.578410000  0.000000000     0.000000000  0.104401461  0.000000000
     0.000000000  0.000000000 17.192492405     0.000000000  0.000000000  0.058164923

  length of vectors
    11.256463038  9.578410000 17.192492405     0.088837852  0.104401461  0.058164923

 FORCES acting on ions
    electron-ion (+dipol)            ewald-force                    non-local-force                 convergence-correction
   0.641E+02 -.424E+03 0.134E+04   -.634E+02 0.425E+03 -.134E+04   -.998E+00 -.121E+01 0.372E+01   -.250E-02 -.482E-01 -.733E-01
   0.684E+03 -.772E+03 -.319E+04   -.689E+03 0.774E+03 0.320E+04   0.363E+01 -.717E+00 -.146E+01   0.522E-01 -.576E-01 0.598E-01
   0.947E+01 -.722E+03 0.351E+04   -.979E+01 0.725E+03 -.352E+04   0.101E+01 -.118E+01 0.106E+02   0.489E-02 0.254E-01 -.151E+00
   -.360E+01 -.805E+03 -.761E+03   0.221E+01 0.813E+03 0.766E+03   0.717E+00 -.651E+01 -.435E+01   0.450E-01 0.252E-01 -.979E-01
   0.659E+03 0.111E+03 0.138E+04   -.662E+03 -.110E+03 -.138E+04   0.129E+01 -.138E+00 0.165E+01   0.117E-01 -.230E-01 -.453E-01
   0.505E+03 0.716E+03 -.304E+04   -.505E+03 -.719E+03 0.304E+04   -.973E+00 0.112E+01 -.375E+01   0.269E-01 0.324E-02 0.144E-01
   -.462E+03 0.356E+03 0.339E+04   0.463E+03 -.358E+03 -.340E+04   -.877E-01 0.830E+00 0.551E+01   0.497E-03 0.331E-01 -.128E+00
   -.250E+03 0.477E+03 -.132E+04   0.250E+03 -.483E+03 0.132E+04   -.887E+00 0.478E+01 -.434E+01   0.152E-01 0.161E-01 -.103E+00
   -.144E+03 0.855E+03 0.194E+04   0.146E+03 -.858E+03 -.194E+04   -.191E+01 0.260E+01 0.160E+01   -.256E-02 0.144E-02 -.125E+00
   -.742E+03 0.541E+02 -.272E+04   0.749E+03 -.532E+02 0.272E+04   -.506E+01 -.800E+00 -.424E+01   0.297E-01 -.579E-02 0.616E-02
   0.413E+03 0.272E+03 0.329E+04   -.413E+03 -.271E+03 -.329E+04   -.486E+00 -.450E+00 0.358E+01   -.339E-01 0.392E-01 -.865E-01
   -.347E+03 0.145E+03 -.591E+03   0.353E+03 -.146E+03 0.597E+03   -.451E+01 -.932E-01 -.565E+01   -.429E-01 0.396E-01 -.121E+00
   0.608E+03 0.959E+02 -.322E+04   -.608E+03 -.953E+02 0.322E+04   -.167E+01 -.503E+00 0.174E+01   0.589E-01 0.152E-01 0.306E-01
   0.727E+03 0.129E+03 0.155E+04   -.731E+03 -.128E+03 -.155E+04   0.235E+01 -.184E+01 0.218E+01   -.242E-01 0.190E-02 -.727E-01
   0.303E+03 -.507E+03 -.321E+04   -.304E+03 0.512E+03 0.321E+04   0.516E+00 -.341E+01 -.430E+01   -.650E-01 0.318E-01 0.258E-01
   -.633E+03 -.354E+01 0.275E+04   0.634E+03 0.349E+01 -.276E+04   -.132E+01 0.169E+00 0.342E+01   -.200E-01 0.141E-01 -.625E-01
   -.165E+03 -.422E+03 -.148E+04   0.164E+03 0.424E+03 0.148E+04   0.167E+01 -.953E+00 -.206E+01   0.282E-01 0.273E-01 -.117E-01
   -.125E+03 0.312E+03 0.108E+04   0.125E+03 -.315E+03 -.108E+04   0.108E+01 0.362E+01 0.520E+01   -.383E-01 0.430E-03 -.753E-01
   0.171E+03 0.542E+03 -.347E+04   -.172E+03 -.543E+03 0.347E+04   -.304E-01 -.221E+00 -.593E+01   -.548E-01 -.266E-02 0.240E-01
   -.150E+03 0.331E+03 0.335E+04   0.150E+03 -.334E+03 -.336E+04   -.555E+00 0.230E+01 0.364E+01   0.246E-01 0.143E-02 -.990E-01
   -.686E+02 0.642E+03 -.127E+04   0.683E+02 -.646E+03 0.127E+04   0.945E+00 0.319E+01 -.255E+01   0.538E-01 -.183E-01 -.750E-02
   -.452E+03 -.522E+03 0.222E+04   0.455E+03 0.526E+03 -.222E+04   -.290E+01 -.379E+01 0.305E+01   -.112E-01 -.432E-01 -.475E-01
   -.658E+03 0.161E+03 -.276E+04   0.666E+03 -.165E+03 0.276E+04   -.560E+01 0.320E+01 -.579E+00   -.195E-01 -.115E-01 0.381E-01
   0.701E+03 -.478E+03 0.304E+04   -.705E+03 0.479E+03 -.304E+04   0.263E+01 -.622E+00 0.435E+01   0.195E-01 0.805E-02 -.123E+00
   -.177E+02 -.937E+02 -.178E+03   0.147E+02 0.910E+02 0.173E+03   0.183E+01 0.197E+01 0.240E+01   -.503E-01 -.124E-01 -.456E-01
   -.537E+02 -.112E+03 -.351E+04   0.542E+02 0.111E+03 0.352E+04   0.182E+00 0.106E+01 -.483E+01   -.246E-01 0.452E-02 0.265E-01
   -.136E+03 0.221E+03 -.125E+03   0.139E+03 -.222E+03 0.123E+03   -.230E+01 0.164E+00 0.521E+00   0.143E-02 -.178E-01 -.320E-01
   -.363E+03 0.115E+03 0.685E+03   0.367E+03 -.115E+03 -.686E+03   -.464E+00 -.154E+01 0.147E+01   -.125E-01 0.128E-01 -.540E-01
   0.201E+03 0.293E+03 0.172E+04   -.203E+03 -.296E+03 -.173E+04   0.147E+01 0.196E+01 0.352E+01   0.845E-05 0.282E-02 -.490E-01
   -.108E+03 -.112E+03 -.398E+03   0.109E+03 0.113E+03 0.398E+03   -.168E+01 -.103E+01 -.255E+00   -.177E-01 0.573E-02 -.249E-01
   -.147E+03 -.468E+02 -.186E+04   0.148E+03 0.472E+02 0.186E+04   -.267E+00 -.101E+00 -.980E+00   -.563E-02 0.892E-02 0.639E-01
   0.173E+03 -.295E+03 0.809E+03   -.175E+03 0.296E+03 -.813E+03   0.183E+01 0.133E+01 0.139E+01   0.113E-03 0.525E-02 -.402E-01
   0.299E+02 0.253E+03 0.122E+04   -.310E+02 -.256E+03 -.123E+04   0.661E+00 0.931E+00 0.427E+01   0.102E-01 -.124E-01 -.400E-01
   0.218E+03 -.611E+02 -.624E+03   -.221E+03 0.614E+02 0.626E+03   0.172E+01 0.328E+00 -.193E+01   0.321E-01 -.303E-01 -.122E-01
   0.503E+02 -.155E+03 0.189E+04   -.504E+02 0.156E+03 -.189E+04   0.161E+00 -.296E+00 0.251E+01   0.811E-02 0.138E-01 -.420E-01
   0.253E+03 -.309E+03 0.520E+03   -.255E+03 0.312E+03 -.523E+03   -.288E+00 -.115E+01 0.282E+01   0.880E-02 0.849E-02 -.568E-01
   -.247E+03 0.180E+02 -.154E+04   0.249E+03 -.186E+02 0.155E+04   0.680E+00 0.486E+00 -.262E+01   0.125E-01 0.131E-01 0.231E-01
   0.115E+03 -.148E+03 0.177E+04   -.116E+03 0.150E+03 -.178E+04   0.157E+00 -.127E+01 0.312E+01   -.866E-02 -.430E-02 -.236E-01
   -.101E+03 0.697E+02 -.394E+03   0.102E+03 -.710E+02 0.397E+03   -.297E+00 0.828E+00 -.271E+01   -.132E-01 0.686E-02 -.584E-02
   0.129E+02 0.164E+03 -.185E+04   -.134E+02 -.167E+03 0.185E+04   0.391E+00 0.212E+01 -.268E+01   0.376E-02 -.155E-01 0.371E-01
   0.368E+02 0.675E+02 0.809E+03   -.379E+02 -.680E+02 -.811E+03   0.264E+01 -.345E+00 0.193E+01   -.750E-02 -.763E-03 -.247E-01
   0.122E+03 0.679E+02 -.129E+04   -.123E+03 -.689E+02 0.129E+04   0.527E+00 -.852E-01 -.124E+01   -.272E-01 -.109E-01 0.151E-01
   -.309E+02 -.742E+02 0.141E+04   0.304E+02 0.749E+02 -.142E+04   0.588E+00 0.156E+00 0.279E+01   0.939E-02 0.153E-04 -.394E-01
   -.801E+02 -.182E+03 -.181E+03   0.818E+02 0.184E+03 0.178E+03   -.120E+01 -.168E+01 0.213E+01   0.188E-01 -.114E-01 -.470E-02
   -.154E+03 -.303E+03 -.159E+04   0.156E+03 0.307E+03 0.160E+04   -.105E+01 -.167E+01 -.125E+01   0.120E-01 -.430E-02 0.414E-01
   -.299E+03 0.935E+02 0.972E+03   0.302E+03 -.951E+02 -.978E+03   -.207E+00 -.481E+00 0.530E+01   -.577E-02 0.638E-02 -.247E-01
   0.889E+02 -.375E+02 -.112E+04   -.911E+02 0.378E+02 0.112E+04   0.128E+01 0.215E+00 -.220E+01   -.273E-01 -.230E-02 0.293E-02
   -.162E+03 -.862E+02 0.121E+04   0.164E+03 0.874E+02 -.122E+04   -.112E+01 -.217E+00 0.568E+01   -.141E-02 -.378E-02 -.306E-01
   0.257E+03 -.600E+02 -.570E+03   -.259E+03 0.608E+02 0.570E+03   0.159E+00 0.128E+00 0.265E+00   -.201E-01 0.602E-02 -.102E-01
   -.226E+03 0.538E+02 0.171E+04   0.228E+03 -.543E+02 -.172E+04   -.533E+00 0.135E+00 0.405E+01   0.207E-02 0.753E-03 -.471E-01
   0.860E+02 0.121E+03 0.375E+03   -.865E+02 -.121E+03 -.374E+03   -.148E+01 -.822E-01 0.213E+01   0.153E-01 0.540E-02 -.462E-01
   -.155E+03 -.622E+01 -.171E+04   0.155E+03 0.663E+01 0.172E+04   0.777E+00 -.258E+00 -.211E+01   0.305E-01 0.124E-02 0.360E-01
   0.724E+01 -.937E+00 -.328E+02   0.125E-11 -.904E-12 -.909E-12   -.702E+01 0.964E+00 0.345E+02   -.472E-03 0.493E-01 -.164E+01

 POSITION                                       TOTAL-FORCE (eV/Angst)
      4.94536      4.44331      2.79952        -0.276887      0.517307      1.309016
      5.61271      4.25690      5.69884        -2.031248      1.564151     -0.293405
      2.67143      7.91803      1.78330         0.691836      1.521458     -1.119088
      2.34488      9.35642      4.03319        -0.630640      1.302752      0.251949
      4.94536      1.91264      2.79952        -0.926949      0.294038      2.029882
      5.32082      1.70208      5.41598        -1.081586     -2.016459     -0.292646
      2.41672      5.12383      1.62589         0.656818     -0.979673     -0.211854
      2.28790      6.60256      4.00699        -0.473582     -1.299695      0.587589
      1.44460      3.16654      2.72734        -0.095604     -0.657951     -0.172096
      2.07874      3.17760      5.19954         1.381531      0.069915      0.056818
      5.67831      9.27844      1.72270        -1.192408      0.266018     -0.105301
      4.38566      7.98454      3.74361         1.332363     -0.276899      0.584961
      6.20987      8.00536      5.24464        -2.016764      0.014260      0.207548
     10.57359      4.44331      2.79952        -2.007678     -0.844877      1.947969
     11.04919      4.54026      5.54831        -0.802496      1.362686      0.379135
      7.69957      0.91493      2.09275        -0.426721      0.138304     -0.806294
      8.05131      9.23251      4.34179         0.880600      1.228275     -1.212081
     10.38740      1.64569      3.36133         0.912877      0.419679     -0.022446
     11.16330      1.97135      5.67484        -0.741557     -0.749796      0.252927
      7.57127      6.81942      1.65535         0.068350     -0.832133     -0.878958
      8.05131      6.70184      4.34179         0.685655     -1.130598     -0.908583
      7.09877      3.17797      2.39204        -0.204796      0.211639      1.166664
      7.68244      3.17797      5.47658         2.421078     -1.398096     -1.671977
      0.32987      6.38508      1.89081        -1.932847     -0.100318      0.383892
     10.20472      7.96718      3.93431        -1.264681     -0.699875     -2.195529
      0.82644      8.10538      5.39796         0.664172      0.430314      0.163676
      1.25497      1.56674      4.10795         1.051386     -0.877901     -1.550995
      3.77725      6.35595      2.56568         3.455539     -1.469298      0.092602
      0.54278      4.33177      1.18473        -0.786699     -0.941141     -3.103425
      1.25497      4.78920      4.10795         0.251621      0.622797     -0.411590
      0.85928      3.35413      6.83161         0.826251      0.293174      4.304209
      3.77725      9.57841      2.56568         0.027815      2.743041     -1.725770
      3.44076      3.27830      1.92621        -0.357605     -1.729546     -2.304784
      4.14113      3.17797      4.62682        -1.367000      0.615589      0.040917
      1.74443      6.69703      0.42544        -0.026483      0.966720     -4.050744
      1.03518      7.96718      3.08454        -2.665881      1.466217     -0.517020
      2.96680      7.96277      5.43313         2.213161     -0.136766      3.531543
      6.09197      1.75921      1.10810        -0.603642      0.397391     -3.285013
      6.88320      1.56674      4.10795         1.328516     -0.476430      0.360868
      6.26079      2.68414      6.89476        -0.073243     -1.319999      3.777315
      9.40548      6.35595      2.56568         1.459087     -0.868173     -0.526714
     10.65378      6.60579      5.47349        -0.790326     -1.118490      2.583733
      6.51496      4.99895      1.51058         0.091844      0.772528     -1.974141
      6.88320      4.78920      4.10795         0.494333      0.565803     -0.714404
      7.38921      4.92325      6.52484         1.191080      2.223666      1.978155
      9.40548      9.57841      2.56568         3.112453     -2.167655     -0.416862
     10.49740      0.01775      5.21853        -0.899073      0.530809      2.320761
      9.10496      2.72538      2.04116         0.964886      0.984527     -1.939861
      9.76936      3.17797      4.62682        -2.256557      0.918431      0.590354
      7.41759      8.73492      0.76628         1.097776     -0.451666     -3.019620
      6.66341      7.96718      3.08454        -1.968963     -0.048722      2.770151
      8.07610      7.96447      5.95546         0.640884      0.150669      3.758568
    total drift:                                0.224973      0.075748      0.049745

  FREE ENERGIE OF THE ION-ELECTRON SYSTEM (eV)
  free  energy   TOTEN  =      -246.29839058 eV

  energy  without entropy=     -245.46630622  energy(sigma->0) =     -245.88234840