 vasp.5.4.4.18Apr17-6-g9f103f2a35 (build Aug 13 2019 17:33:20) gamma-only

 executed on             LinuxIFC date 2020.05.10  12:07:57

 INCAR:
 POTCAR:    PAW_PBE Ni_pv 06Sep2000
 POTCAR:    PAW_PBE S 06Sep2000
 POTCAR:    PAW_PBE Ni_pv 06Sep2000
   VRHFIN =Ni:

   TITEL  = PAW_PBE Ni_pv 06Sep2000
   POMASS =   58.690; ZVAL   =   16.000    mass and valenz
   ENMAX  =  367.986; ENMIN  =  275.989 eV

 POTCAR:    PAW_PBE S 06Sep2000
   VRHFIN =S : s2p4

   TITEL  = PAW_PBE S 06Sep2000
   POMASS =   32.066; ZVAL   =    6.000    mass and valenz
   ENMAX  =  258.689; ENMIN  =  194.016 eV

 Optimization of the real space projectors (new method)

 maximal supplied QI-value         = 18.90
 optimisation between [QCUT,QGAM] = [ 10.77, 21.73] = [ 32.49,132.25] Ry
 Optimized for a Real-space Cutoff    1.38 Angstroem

   l    n(q)    QCUT    max X(q) W(low)/X(q) W(high)/X(q)  e(spline)
   1      8    10.771     2.836    0.40E-04    0.29E-04    0.12E-06
   1      8    10.771     4.023    0.10E-03    0.48E-04    0.29E-06
   2      8    10.771    73.368    0.42E-03    0.97E-04    0.44E-06
   2      8    10.771    69.010    0.42E-03    0.99E-04    0.45E-06
   0      9    10.771    54.797    0.10E-03    0.56E-04    0.74E-07
   0      9    10.771    24.266    0.89E-04    0.49E-04    0.67E-07
 Optimization of the real space projectors (new method)

 maximal supplied QI-value         = 19.84
 optimisation between [QCUT,QGAM] = [ 10.71, 21.63] = [ 32.15,130.99] Ry
 Optimized for a Real-space Cutoff    1.19 Angstroem

   l    n(q)    QCUT    max X(q) W(low)/X(q) W(high)/X(q)  e(spline)
   0      8    10.715   187.594    0.41E-03    0.53E-04    0.66E-07
   0      8    10.715   164.243    0.41E-03    0.53E-04    0.65E-07
   1      7    10.715    67.533    0.19E-03    0.59E-03    0.68E-07
   1      7    10.715    50.729    0.19E-03    0.58E-03    0.67E-07
  PAW_PBE Ni_pv 06Sep2000               :
  PAW_PBE S 06Sep2000                   :

 POSCAR: Type_026 Type_126
  positions in cartesian coordinates
 exchange correlation table for  LEXCH =        8
   RHO(1)=    0.500       N(1)  =     2000
   RHO(2)=  100.500       N(2)  =     4000

 ion  position               nearest neighbor table
   1  0.439  0.464  0.163-  44 2.05  36 2.13  30 2.25  37 2.36  45 2.36  11 2.37
   2  0.477  0.483  0.320-  46 2.04  45 2.06  37 2.09  31 2.12
   3  0.150  0.035  0.125-  27 2.06  38 2.12  34 2.15  39 2.26  28 2.36   4 2.41  24 2.48
   4  0.215  0.964  0.253-  40 2.08  28 2.25  39 2.26  34 2.26  35 2.28   3 2.41  26 2.42  12 2.53
                             8 2.53
   5  0.420  0.172  0.197-  37 2.06  34 2.07  36 2.17  41 2.27  35 2.30   6 2.51
   6  0.495  0.200  0.333-  42 2.06  46 2.07  41 2.11  35 2.14  37 2.21  23 2.47   5 2.51
   7  0.168  0.703  0.097-  39 2.06  38 2.08  32 2.09  30 2.12
   8  0.215  0.700  0.253-  40 2.04  33 2.25  39 2.26  30 2.26  26 2.41  12 2.53   4 2.53
   9  0.131  0.332  0.139-  27 2.07  32 2.09  36 2.13  28 2.36  33 2.36  18 2.53  14 2.53
  10  0.184  0.333  0.298-  29 2.05  33 2.07  28 2.08  37 2.13
  11  0.539  0.662  0.112-  50 2.06  51 2.09  44 2.17   1 2.37  30 2.37  20 2.45
  12  0.407  0.832  0.229-  31 2.10  35 2.12  51 2.25  30 2.26  34 2.26  13 2.45   4 2.53   8 2.53

  13  0.562  0.892  0.323-  42 2.03  31 2.09  52 2.21  35 2.22  17 2.37  12 2.45  51 2.55
  14  0.939  0.464  0.163-  48 2.10  32 2.10  43 2.25  49 2.36  33 2.36  18 2.53   9 2.53
  15  0.988  0.462  0.323-  29 2.03  33 2.04  49 2.06  19 2.46
  16  0.738  0.827  0.103-  50 2.05  43 2.06  51 2.10  47 2.14
  17  0.707  0.979  0.235-  52 2.06  47 2.07  41 2.07  51 2.13  13 2.37  25 2.43
  18  0.939  0.200  0.163-  27 2.05  48 2.17  47 2.25  49 2.36  28 2.36  14 2.53   9 2.53
  19  0.989  0.205  0.324-  29 2.03  28 2.05  49 2.05  15 2.46
  20  0.723  0.532  0.089-  43 2.06  44 2.08  50 2.08  48 2.13  11 2.45  22 2.47
  21  0.699  0.691  0.235-  51 2.05  52 2.08  45 2.08  43 2.15  25 2.47
  22  0.638  0.333  0.162-  45 2.09  41 2.12  44 2.13  48 2.15  20 2.47
  23  0.682  0.332  0.319-  46 2.01  49 2.25  41 2.26  45 2.26   6 2.47
  24  0.973  0.893  0.092-  38 2.05  39 2.10  47 2.11   3 2.48  25 2.53
  25  0.882  0.832  0.222-  47 2.10  43 2.11  52 2.21  26 2.37  17 2.43  39 2.47  21 2.47  24 2.53

[...]

  40  0.216  0.828  0.347-  26 2.00   8 2.04   4 2.08
  41  0.611  0.164  0.239-  17 2.07   6 2.11  22 2.12  23 2.26   5 2.27  42 2.73
  42  0.608  0.061  0.387-  13 2.03   6 2.06  41 2.73
  43  0.836  0.664  0.149-  16 2.06  20 2.06  25 2.11  21 2.15  14 2.25
  44  0.555  0.448  0.071-   1 2.05  20 2.08  22 2.13  11 2.17  50 2.79
  45  0.611  0.500  0.239-   2 2.06  21 2.08  22 2.09  23 2.26   1 2.36
  46  0.559  0.361  0.401-  23 2.01   2 2.04   6 2.07
  47  0.836  1.000  0.149-  17 2.07  25 2.10  24 2.11  16 2.14  18 2.25
  48  0.811  0.338  0.109-  14 2.10  20 2.13  22 2.15  18 2.17
  49  0.868  0.332  0.269-  19 2.05  15 2.06  23 2.25  14 2.36  18 2.36
  50  0.659  0.698  0.023-  16 2.05  11 2.06  20 2.08  44 2.79
  51  0.592  0.832  0.179-  21 2.05  11 2.09  16 2.10  17 2.13  12 2.25  13 2.55
  52  0.753  0.835  0.319-  17 2.06  21 2.08  25 2.21  13 2.21

  LATTYP: Found a simple orthorhombic cell.
 ALAT       =     9.5784100000
 B/A-ratio  =     1.1751911892
 C/A-ratio  =     1.7949213288

  Lattice vectors:

 A1 = (   0.0000000000,  -9.5784100000,   0.0000000000)
 A2 = ( -11.2564630382,   0.0000000000,   0.0000000000)
 A3 = (   0.0000000000,   0.0000000000, -17.1924924047)

Analysis of symmetry for initial positions (statically):
 Subroutine PRICEL returns:
 Original cell was already a primitive cell.

 Routine SETGRP: Setting up the symmetry group for a
 simple orthorhombic supercell.

 Subroutine GETGRP returns: Found  1 space group operations
 (whereof  1 operations were pure point group operations)
 out of a pool of  8 trial point group operations.

The static configuration has the point symmetry C_1 .

Analysis of symmetry for dynamics (positions and initial velocities):
 Subroutine PRICEL returns:
 Original cell was already a primitive cell.

 Routine SETGRP: Setting up the symmetry group for a
 simple orthorhombic supercell.

 Subroutine GETGRP returns: Found  1 space group operations
 (whereof  1 operations were pure point group operations)
 out of a pool of  8 trial point group operations.

The dynamic configuration has the point symmetry C_1 .

 Subroutine INISYM returns: Found  1 space group operations
 (whereof  1 operations are pure point group operations),
 and found     1 'primitive' translations

 KPOINTS: gamma-point-only calculation. no periodi

Automatic generation of k-mesh.
Space group operators:
 irot       det(A)        alpha          n_x          n_y          n_z        tau_x        tau_y        tau_z
    1     1.000000     0.000000     1.000000     0.000000     0.000000     0.000000     0.000000     0.000000

 Subroutine IBZKPT returns following result:

 Found      1 irreducible k-points:

 Following reciprocal coordinates:
            Coordinates               Weight
  0.000000  0.000000  0.000000      1.000000

 Following cartesian coordinates:
            Coordinates               Weight
  0.000000  0.000000  0.000000      1.000000

 SYSTEM =  "Millerite NiS"
 POSCAR =  Type_026 Type_126

 Startparameter for this run:
   NWRITE =      2    write-flag & timer
   PREC   = normal    normal or accurate (medium, high low for compatibility)
   ISTART =      0    job   : 0-new  1-cont  2-samecut
   ICHARG =      2    charge: 1-file 2-atom 10-const
   ISPIN  =      1    spin polarized calculation?
   LNONCOLLINEAR =      F non collinear calculations
   LSORBIT =      F    spin-orbit coupling
   INIWAV =      1    electr: 0-lowe 1-rand  2-diag
   LASPH  =      F    aspherical Exc in radial PAW
   METAGGA=      F    non-selfconsistent MetaGGA calc.

 Electronic Relaxation 1
   ENCUT  =  450.0 eV  33.07 Ry    5.75 a.u.  19.47 16.57 29.74*2*pi/ulx,y,z
   ENINI  =  450.0     initial cutoff
   ENAUG  =  703.4 eV  augmentation charge cutoff
   NELM   =    100;   NELMIN=  2; NELMDL= -5     # of ELM steps
   EDIFF  = 0.1E-03   stopping-criterion for ELM
   LREAL  =      T    real-space projection
   NLSPLINE    = F    spline interpolate recip. space projectors
   LCOMPAT=      F    compatible to vasp.4.4
   GGA_COMPAT  = T    GGA compatible to vasp.4.4-vasp.4.6
   LMAXPAW     = -100 max onsite density
   LMAXMIX     =    2 max onsite mixed and CHGCAR
   VOSKOWN=      0    Vosko Wilk Nusair interpolation
   ROPT   =   -0.00050  -0.00050
 Ionic relaxation
   EDIFFG = 0.1E-02   stopping-criterion for IOM
   NSW    =      0    number of steps for IOM
   NBLOCK =      1;   KBLOCK =      1    inner block; outer block
   IBRION =     -1    ionic relax: 0-MD 1-quasi-New 2-CG
   NFREE  =      0    steps in history (QN), initial steepest desc. (CG)
   ISIF   =      2    stress and relaxation
   IWAVPR =     10    prediction:  0-non 1-charg 2-wave 3-comb
   ISYM   =      2    0-nonsym 1-usesym 2-fastsym
   LCORR  =      T    Harris-Foulkes like correction to forces

   POTIM  = 0.5000    time-step for ionic-motion
   TEIN   =    0.0    initial temperature
   TEBEG  =    0.0;   TEEND  =   0.0 temperature during run
   SMASS  =  -3.00    Nose mass-parameter (am)
   estimated Nose-frequenzy (Omega)   =  0.10E-29 period in steps =****** mass=  -0.290E-26a.u.
   SCALEE = 1.0000    scale energy and forces
   NPACO  =    256;   APACO  = 16.0  distance and # of slots for P.C.
   PSTRESS=    0.0 pullay stress

  Mass of Ions in am
   POMASS =  58.69 32.07
  Ionic Valenz
   ZVAL   =  16.00  6.00
  Atomic Wigner-Seitz radii
  virtual crystal weights
   VCA    =   1.00  1.00
   NELECT =     572.0000    total number of electrons
   NUPDOWN=      -1.0000    fix difference up-down

 DOS related values:
   EMIN   =  10.00;   EMAX   =-10.00  energy-range for DOS
   EFERMI =   0.00
   ISMEAR =     0;   SIGMA  =   0.20  broadening in eV -4-tet -1-fermi 0-gaus

 Electronic relaxation 2 (details)
   IALGO  =     38    algorithm
   LDIAG  =      T    sub-space diagonalisation (order eigenvalues)
   LSUBROT=      F    optimize rotation matrix (better conditioning)
   TURBO    =      0    0=normal 1=particle mesh
   IRESTART =      0    0=no restart 2=restart with 2 vectors
   NREBOOT  =      0    no. of reboots
   NMIN     =      0    reboot dimension
   EREF     =   0.00    reference energy to select bands
   IMIX   =      4    mixing-type and parameters
     AMIX     =   0.40;   BMIX     =  1.00
     AMIX_MAG =   1.60;   BMIX_MAG =  1.00
     AMIN     =   0.10
     WC   =   100.;   INIMIX=   1;  MIXPRE=   1;  MAXMIX= -45

 Intra band minimization:
   WEIMIN = 0.0000     energy-eigenvalue tresh-hold
   EBREAK =  0.73E-07  absolut break condition
   DEPER  =   0.30     relativ break condition

   TIME   =   0.40     timestep for ELM

  volume/ion in A,a.u.               =      35.65       240.56
  Fermi-wavevector in a.u.,A,eV,Ry     =   1.106272  2.090552 16.651337  1.223839
  Thomas-Fermi vector in A             =   2.242771

 Write flags
   LWAVE        =      F    write WAVECAR
   LDOWNSAMPLE  =      F    k-point downsampling of WAVECAR
   LCHARG       =      F    write CHGCAR
[...]
      26 -87.0600      27 -92.5313      28 -93.4106      29 -92.3929      30 -92.8462
      31 -92.2819      32 -92.3470      33 -93.4389      34 -92.9424      35 -93.4837
      36 -92.3937      37 -93.2820      38 -92.3478      39 -94.0028      40 -92.3759
      41 -93.3646      42 -92.1069      43 -93.3380      44 -92.8065      45 -93.5600
      46 -92.2859      47 -93.2074      48 -92.6568      49 -93.1940      50 -92.1688
      51 -93.4017      52 -92.6395

 E-fermi :  -0.1511     XC(G=0):  -5.3357     alpha+bet : -5.1393

 k-point     1 :       0.0000    0.0000    0.0000
  band No.  band energies     occupation
      1     -65.0429      2.00000
      2     -64.9972      2.00000
      3     -64.8572      2.00000
      4     -64.8319      2.00000
      5     -64.8217      2.00000
      6     -64.7809      2.00000
      7     -64.7707      2.00000
      8     -64.7596      2.00000
      9     -64.7495      2.00000
     10     -64.7447      2.00000
     11     -64.7328      2.00000
     12     -64.7163      2.00000
     13     -64.7074      2.00000
     14     -64.6931      2.00000
     15     -64.6906      2.00000
     16     -64.6873      2.00000
     17     -64.6785      2.00000
     18     -64.6718      2.00000
     19     -64.6682      2.00000
     20     -64.6548      2.00000
     21     -64.6489      2.00000
     22     -64.6371      2.00000
     23     -64.5937      2.00000
     24     -64.5711      2.00000
     25     -64.5611      2.00000
     26     -64.5506      2.00000
     27     -64.5488      2.00000
     28     -64.5416      2.00000
     29     -64.5383      2.00000
     30     -64.5161      2.00000
     31     -64.5089      2.00000
     32     -64.4934      2.00000
     33     -64.4922      2.00000
     34     -64.4726      2.00000
     35     -64.4591      2.00000
     36     -64.4567      2.00000
     37     -64.4493      2.00000
     38     -64.4433      2.00000
     39     -64.4332      2.00000
     40     -64.4233      2.00000
     41     -64.4140      2.00000
     42     -64.4080      2.00000
     43     -64.4065      2.00000
     44     -64.3818      2.00000
     45     -64.3748      2.00000
     46     -64.3659      2.00000
     47     -64.3568      2.00000
     48     -64.3314      2.00000
     49     -64.3273      2.00000
     50     -64.3268      2.00000
     51     -64.3263      2.00000
     52     -64.3135      2.00000
     53     -64.3074      2.00000
     54     -64.3026      2.00000
     55     -64.2985      2.00000
     56     -64.2879      2.00000
     57     -64.2798      2.00000
     58     -64.2795      2.00000
     59     -64.2723      2.00000
     60     -64.2697      2.00000
[...]
    330       5.0175      0.00000
    331       5.0761      0.00000
    332       5.1726      0.00000
    333       5.1871      0.00000
    334       5.2526      0.00000
    335       5.2791      0.00000
    336       5.2955      0.00000
    337       5.3316      0.00000
    338       5.4234      0.00000
    339       5.4557      0.00000
    340       5.5319      0.00000
    341       5.5894      0.00000
    342       5.6808      0.00000
    343       5.7404      0.00000
    344       5.8089      0.00000

 soft charge-density along one line, spin component           1
         0         1         2         3         4         5         6         7         8         9
 total charge-density along one line

------------------------ aborting loop because EDIFF is reached ----------------------------------------

  FORCE on cell =-STRESS in cart. coord.  units (eV):
  Direction    XX          YY          ZZ          XY          YZ          ZX
  Alpha Z  1046.73971  1046.73971  1046.73971
  Ewald  163822.48533163121.59365************   881.78723   267.21656   -44.59984
  Hartree188370.50932187723.71743************   762.44882   138.37165  -163.27733
  E(xc)   -3652.74087 -3652.58710 -3656.80519     0.13441     0.26769     0.61191
  Local  ************************352098.03625 -1645.38126  -398.18488   229.32417
  n-local  -421.16570  -413.36717  -427.40072    -0.22039     5.85377     3.53785
  augment  4178.86612  4176.81660  4185.73242    -0.04956    -3.55933    -8.17704
  Kinetic  8032.85794  8019.01366  8070.15249     0.53437    -5.80870   -16.12175
  Fock        0.00000     0.00000     0.00000     0.00000     0.00000     0.00000
  Total      94.94090   104.73394   102.01507    -0.74637     4.15676     1.29797
  in kB      82.05966    90.52401    88.17403    -0.64511     3.59279     1.12187

 VOLUME and BASIS-vectors are now :
  energy-cutoff  :      450.00
  volume of cell :     1853.68
      direct lattice vectors                 reciprocal lattice vectors
    11.256463038  0.000000000  0.000000000     0.088837852  0.000000000  0.000000000
     0.000000000  9.578410000  0.000000000     0.000000000  0.104401461  0.000000000
     0.000000000  0.000000000 17.192492405     0.000000000  0.000000000  0.058164923

  length of vectors
    11.256463038  9.578410000 17.192492405     0.088837852  0.104401461  0.058164923

 FORCES acting on ions
    electron-ion (+dipol)            ewald-force                    non-local-force                 convergence-correction
   0.666E+03 0.133E+03 0.157E+04   -.672E+03 -.132E+03 -.157E+04   0.401E+01 -.165E+01 0.337E+01   0.326E-01 -.548E-02 0.789E-03
   0.413E+03 -.507E+03 -.309E+04   -.414E+03 0.511E+03 0.309E+04   0.617E+00 -.274E+01 -.448E+01   0.327E-01 -.144E-01 -.111E-01
   -.511E+03 -.303E+03 0.265E+04   0.513E+03 0.305E+03 -.266E+04   -.175E+01 -.258E+01 0.538E+01   0.203E-01 0.161E-01 -.116E-01
   -.876E+02 -.455E+03 -.151E+04   0.869E+02 0.457E+03 0.151E+04   0.108E+01 -.144E+01 -.376E+01   0.598E-01 0.483E-01 -.389E-01
   -.282E+02 0.239E+03 0.123E+04   0.274E+02 -.242E+03 -.124E+04   0.162E+01 0.246E+01 0.555E+01   0.195E-01 0.746E-02 0.116E-02
   0.396E+03 0.206E+03 -.330E+04   -.398E+03 -.205E+03 0.331E+04   0.734E+00 -.904E+00 -.720E+01   0.307E-01 0.169E-01 -.123E-01
   -.357E+03 0.397E+03 0.327E+04   0.358E+03 -.402E+03 -.327E+04   -.665E+00 0.322E+01 0.517E+01   0.149E-01 -.900E-02 -.304E-01
   -.122E+03 0.711E+03 -.140E+04   0.123E+03 -.716E+03 0.140E+04   -.697E+00 0.287E+01 -.388E+01   0.611E-01 -.265E-01 -.377E-01
   -.567E+03 -.189E+03 0.233E+04   0.571E+03 0.190E+03 -.233E+04   -.318E+01 -.109E+01 0.573E+01   -.937E-02 -.215E-02 -.891E-02
   -.591E+03 -.874E+02 -.250E+04   0.598E+03 0.885E+02 0.251E+04   -.465E+01 -.916E+00 -.337E+01   0.196E-02 -.885E-02 -.472E-02
   0.762E+03 -.439E+03 0.296E+04   -.766E+03 0.439E+03 -.297E+04   0.287E+01 -.674E+00 0.471E+01   0.133E-01 -.174E-01 0.444E-03
   -.285E+02 0.255E+02 -.112E+03   0.265E+02 -.303E+02 0.108E+03   0.126E+01 0.429E+01 0.224E+01   0.281E-01 0.635E-02 -.561E-02
   0.119E+02 0.196E+03 -.336E+04   -.104E+02 -.196E+03 0.337E+04   -.122E+01 -.702E+00 -.722E+01   -.933E-02 -.558E-04 -.631E-02
   0.598E+02 -.313E+03 0.132E+04   -.589E+02 0.315E+03 -.132E+04   -.859E+00 -.912E+00 0.405E+01   -.297E-01 -.202E-01 -.109E-01
   0.401E+03 -.838E+03 -.322E+04   -.401E+03 0.839E+03 0.322E+04   -.269E-01 0.461E+00 -.238E+01   -.307E-01 -.366E-01 -.530E-02
   0.223E+03 -.727E+03 0.346E+04   -.223E+03 0.730E+03 -.347E+04   0.124E+01 -.163E+01 0.111E+02   -.263E-01 -.176E-01 -.169E-01
   -.102E+03 -.777E+03 -.576E+03   0.101E+03 0.784E+03 0.579E+03   -.247E-01 -.592E+01 -.274E+01   -.328E-01 0.128E-01 0.175E-03
   0.542E+03 0.276E+03 0.139E+04   -.544E+03 -.277E+03 -.139E+04   0.621E+00 0.106E+01 0.329E+01   -.133E-01 0.345E-01 -.185E-02
   0.421E+03 0.787E+03 -.325E+04   -.423E+03 -.788E+03 0.325E+04   0.860E+00 -.207E+01 -.278E+01   -.237E-01 0.260E-01 -.281E-02
   -.386E+03 0.408E+03 0.349E+04   0.387E+03 -.409E+03 -.349E+04   0.351E+00 0.511E+00 0.581E+01   -.121E-01 -.161E-01 0.943E-02
   -.135E+03 0.483E+03 -.141E+04   0.136E+03 -.488E+03 0.142E+04   -.721E+00 0.370E+01 -.499E+01   -.277E-01 -.306E-01 -.116E-01
   -.120E+03 0.819E+03 0.174E+04   0.122E+03 -.823E+03 -.174E+04   -.277E+01 0.372E+01 0.132E+01   0.367E-02 0.152E-01 0.134E-01
   -.804E+03 -.938E+02 -.291E+04   0.808E+03 0.952E+02 0.291E+04   -.284E+01 -.136E+01 -.313E+01   -.768E-02 0.763E-02 -.132E-01
   0.253E+03 -.362E+02 0.350E+04   -.253E+03 0.365E+02 -.350E+04   -.101E+01 -.622E+00 0.445E+01   0.393E-02 0.210E-02 -.297E-01
   -.380E+03 0.472E+02 -.926E+03   0.386E+03 -.473E+02 0.933E+03   -.442E+01 0.691E-01 -.665E+01   -.674E-01 -.112E-01 -.410E-01
   0.567E+03 0.616E+02 -.326E+04   -.567E+03 -.617E+02 0.326E+04   -.134E+01 0.205E-02 0.685E+00   0.158E-02 0.939E-02 -.440E-02
   0.371E+02 -.673E+02 0.170E+04   -.378E+02 0.675E+02 -.171E+04   0.550E+00 -.793E-01 0.249E+01   0.101E-02 0.312E-02 -.101E-02
   -.685E+02 0.127E+03 -.330E+03   0.698E+02 -.127E+03 0.332E+03   -.108E+01 -.185E+01 -.334E+01   0.669E-03 0.529E-02 -.549E-02
   -.112E+03 -.171E+02 -.185E+04   0.112E+03 0.174E+02 0.185E+04   -.204E+00 0.881E-01 -.665E+00   -.653E-02 -.260E-02 0.124E-02
   0.413E+01 0.553E+02 0.819E+03   -.524E+01 -.557E+02 -.821E+03   0.262E+01 -.205E+00 0.196E+01   0.945E-02 -.280E-02 -.709E-02
   0.984E+02 0.113E+03 -.129E+04   -.994E+02 -.114E+03 0.129E+04   -.870E-01 -.630E+00 -.805E+00   0.978E-02 -.134E-02 -.490E-02
   -.543E+02 -.169E+02 0.145E+04   0.538E+02 0.177E+02 -.146E+04   0.517E+00 -.332E+00 0.391E+01   -.360E-02 -.236E-02 -.268E-02
   -.116E+03 -.211E+03 -.232E+03   0.117E+03 0.213E+03 0.232E+03   -.777E+00 0.195E+00 -.870E+00   -.487E-02 -.134E-01 -.888E-02
   -.245E+03 -.738E+01 0.105E+04   0.248E+03 0.608E+01 -.105E+04   -.174E+01 0.538E+00 0.514E+01   0.164E-02 0.136E-02 0.604E-03
   0.166E+03 -.299E+02 -.102E+04   -.169E+03 0.310E+02 0.102E+04   0.157E+01 -.936E+00 -.397E+01   0.904E-02 0.241E-02 -.506E-02
   -.254E+02 0.541E+02 0.121E+04   0.250E+02 -.553E+02 -.121E+04   0.650E+00 0.116E+01 0.382E+01   0.671E-02 0.156E-02 -.276E-03
   0.224E+03 -.710E+02 -.594E+03   -.227E+03 0.719E+02 0.595E+03   0.123E+01 0.494E+00 -.417E+00   0.145E-01 0.515E-03 -.324E-02
   -.236E+03 -.355E+02 0.178E+04   0.237E+03 0.351E+02 -.179E+04   -.275E+00 0.335E+00 0.263E+01   0.791E-02 -.355E-03 -.563E-02
   0.524E+02 0.999E+02 0.283E+03   -.524E+02 -.102E+03 -.282E+03   -.171E+01 0.178E+01 0.134E+01   0.145E-01 0.383E-02 -.318E-01
   -.127E+03 0.328E+02 -.172E+04   0.128E+03 -.332E+02 0.173E+04   0.353E+00 0.215E+00 -.226E+01   0.366E-01 0.603E-02 0.956E-02
   -.139E+03 0.123E+03 -.381E+02   0.142E+03 -.123E+03 0.346E+02   -.147E+01 0.156E+01 0.136E+01   0.122E-03 0.182E-01 0.327E-02
   -.239E+03 0.467E+02 -.168E+04   0.242E+03 -.469E+02 0.168E+04   -.195E+01 -.117E-01 -.160E+01   -.244E-02 0.639E-02 -.485E-02
   -.301E+03 0.153E+03 0.627E+03   0.305E+03 -.154E+03 -.627E+03   -.333E+00 -.687E+00 0.105E+01   -.135E-01 -.156E-01 -.797E-02
   0.219E+03 0.320E+03 0.169E+04   -.221E+03 -.322E+03 -.169E+04   0.161E+01 0.166E+01 0.418E+01   0.699E-02 -.692E-04 0.794E-02
   -.115E+03 -.747E+02 -.398E+03   0.118E+03 0.762E+02 0.397E+03   -.267E+01 -.119E+01 0.136E+01   0.319E-02 -.135E-01 -.147E-02
   -.359E+02 -.137E+03 -.185E+04   0.368E+02 0.138E+03 0.186E+04   -.104E+01 -.296E+00 -.122E+01   0.106E-01 -.204E-02 -.141E-01
   0.124E+03 -.396E+03 0.774E+03   -.125E+03 0.398E+03 -.776E+03   0.133E+01 0.101E+01 0.979E+00   -.105E-01 0.825E-02 -.572E-02
   0.415E+02 0.280E+03 0.124E+04   -.425E+02 -.283E+03 -.125E+04   0.384E+00 0.121E+01 0.445E+01   -.777E-02 0.813E-02 0.564E-02
   0.245E+03 0.118E+02 -.605E+03   -.249E+03 -.120E+02 0.606E+03   0.121E+01 0.202E+00 -.792E+00   -.145E-01 0.152E-02 -.105E-02
   0.963E+02 -.154E+03 0.188E+04   -.967E+02 0.155E+03 -.189E+04   0.285E+00 -.378E+00 0.261E+01   -.232E-03 -.521E-02 0.304E-02
   0.282E+03 -.295E+03 0.512E+03   -.284E+03 0.296E+03 -.513E+03   -.665E+00 0.350E+00 0.106E+01   -.367E-02 -.525E-02 -.162E-02
   -.256E+03 0.692E+02 -.153E+04   0.258E+03 -.709E+02 0.154E+04   -.355E+00 0.919E+00 -.351E+01   -.191E-01 -.222E-02 0.627E-03
   0.131E+02 -.222E+01 -.287E+02   0.341E-12 -.412E-12 0.364E-11   -.130E+02 0.228E+01 0.291E+02   0.802E-01 -.136E-01 -.361E+00

 POSITION                                       TOTAL-FORCE (eV/Angst)
      4.94536      4.44331      2.79952        -1.207173     -0.332465      2.370250
      5.37473      4.62852      5.49914        -0.464342      1.611435      0.160399
      1.69156      0.33216      2.14595         0.252455      0.188028      0.259225
      2.42308      9.23251      4.34179         0.426051      1.339905     -0.377566
      4.73225      1.64548      3.38054         0.830468     -0.230808     -0.534767
      5.57191      1.91146      5.72908        -1.137178      0.260859     -0.039304
      1.88741      6.73359      1.67453         0.276644     -1.140285     -0.532414
      2.42308      6.70184      4.34179         0.297963     -1.751102     -1.276537
      1.47054      3.17797      2.39204         0.796255     -0.149076      1.393596
      2.07062      3.18818      5.12695         2.050126      0.113464      0.468494
      6.06226      6.33965      1.92323        -1.880731     -0.130158      0.182667
      4.57649      7.96718      3.93431        -0.741477     -0.469344     -1.777615
      6.33126      8.54140      5.54694         0.252367     -0.966094      0.209827
     10.57359      4.44331      2.79952         0.043359      0.745738      1.830290
     11.11995      4.42563      5.55243        -0.883721      2.060898      0.511703
      8.31238      7.92098      1.77849         0.552843      1.592702     -1.088553
      7.95618      9.37306      4.03245        -0.328398      1.124339     -0.142854
     10.57359      1.91264      2.79952        -0.774904     -0.069618      2.047999
     11.12848      1.96356      5.57135        -0.812049     -2.349146      0.361115
      8.14063      5.09334      1.53131         0.701453     -0.926656     -0.276263
      7.86981      6.62193      4.04476         0.303160     -1.503765      0.029223
      7.17786      3.19428      2.78751        -0.125216     -0.877017     -0.393037
      7.68244      3.17797      5.47658         1.781787      0.091861     -1.773271
     10.95632      8.55652      1.57475        -1.113083     -0.334836     -0.245566
      9.93093      7.97039      3.81738         1.131087     -0.104121      0.522903
      0.57172      7.96043      5.23427        -1.991649     -0.104758     -0.050905
      0.56812      1.76237      1.18400        -0.166417      0.054588     -3.350054
      1.25497      1.56674      4.10795         0.242832     -1.909411     -1.130621
      0.89186      3.20722      6.80746         0.374584      0.308374      3.703224
      3.77725      6.35595      2.56568         1.517443     -0.563643     -0.404876
      5.26098      6.74761      5.50362        -1.114013     -1.510649      2.205422
      0.84732      4.93237      1.44964        -0.051110      0.505811     -2.566199
      1.25497      4.78920      4.10795         0.757685      1.830308     -0.800703
      3.77725      9.57841      2.56568         0.761265     -0.759506     -1.256328
      4.50847      0.15379      5.11525        -1.486617      0.123163      1.397765
      3.57196      2.96791      2.11079         0.298514     -0.020709     -2.184298
      4.14113      3.17797      4.62682        -1.687589      1.439774      1.154229
      1.50087      8.47596      0.59761         0.889502     -0.058526     -3.569498
      1.03518      7.96718      3.08454        -1.704816      0.049312      2.878986
      2.42874      7.93295      5.96717         0.818155     -0.171986      3.788018
      6.88320      1.56674      4.10795         1.262412      0.944674     -2.075882
      6.84515      0.58732      6.65560         1.301039     -0.145551      2.774214
      9.40548      6.35595      2.56568         3.142059     -1.305014      0.797347
      6.24249      4.29572      1.22301        -0.744016     -0.829573     -3.106386
      6.88320      4.78920      4.10795         0.446059      0.337822      0.303068
      6.29178      3.45884      6.89897        -0.086524      0.929583      4.491411
      9.40548      9.57841      2.56568         0.653019      2.861202     -1.210722
      9.12344      3.23958      1.88114        -0.684034     -1.694153     -2.208684
      9.76936      3.17797      4.62682        -2.251762      0.041659     -0.102253
      7.41494      6.68812      0.40288        -0.098020      0.887739     -3.990494
      6.66341      7.96718      3.08454        -2.948114      1.749373     -0.819278
      8.47663      7.99539      5.47829         2.322372     -0.784644      3.443555
    total drift:                                0.166945      0.049087      0.013255

  FREE ENERGIE OF THE ION-ELECTRON SYSTEM (eV)
  free  energy   TOTEN  =      -245.81329133 eV

  energy  without entropy=     -245.00255125  energy(sigma->0) =     -245.40792129