 vasp.5.4.4.18Apr17-6-g9f103f2a35 (build Aug 13 2019 17:33:20) gamma-only

 executed on             LinuxIFC date 2020.05.10  14:52:32

 INCAR:
 POTCAR:    PAW_PBE Ni_pv 06Sep2000
 POTCAR:    PAW_PBE S 06Sep2000
 POTCAR:    PAW_PBE Ni_pv 06Sep2000
   VRHFIN =Ni:

   TITEL  = PAW_PBE Ni_pv 06Sep2000
   POMASS =   58.690; ZVAL   =   16.000    mass and valenz
   ENMAX  =  367.986; ENMIN  =  275.989 eV

 POTCAR:    PAW_PBE S 06Sep2000
   VRHFIN =S : s2p4

   TITEL  = PAW_PBE S 06Sep2000
   POMASS =   32.066; ZVAL   =    6.000    mass and valenz
   ENMAX  =  258.689; ENMIN  =  194.016 eV

 Optimization of the real space projectors (new method)

 maximal supplied QI-value         = 18.90
 optimisation between [QCUT,QGAM] = [ 10.77, 21.73] = [ 32.49,132.25] Ry
 Optimized for a Real-space Cutoff    1.38 Angstroem

   l    n(q)    QCUT    max X(q) W(low)/X(q) W(high)/X(q)  e(spline)
   1      8    10.771     2.836    0.40E-04    0.29E-04    0.12E-06
   1      8    10.771     4.023    0.10E-03    0.48E-04    0.29E-06
   2      8    10.771    73.368    0.42E-03    0.97E-04    0.44E-06
   2      8    10.771    69.010    0.42E-03    0.99E-04    0.45E-06
   0      9    10.771    54.797    0.10E-03    0.56E-04    0.74E-07
   0      9    10.771    24.266    0.89E-04    0.49E-04    0.67E-07
 Optimization of the real space projectors (new method)

 maximal supplied QI-value         = 19.84
 optimisation between [QCUT,QGAM] = [ 10.71, 21.63] = [ 32.15,130.99] Ry
 Optimized for a Real-space Cutoff    1.19 Angstroem

   l    n(q)    QCUT    max X(q) W(low)/X(q) W(high)/X(q)  e(spline)
   0      8    10.715   187.594    0.41E-03    0.53E-04    0.66E-07
   0      8    10.715   164.243    0.41E-03    0.53E-04    0.65E-07
   1      7    10.715    67.533    0.19E-03    0.59E-03    0.68E-07
   1      7    10.715    50.729    0.19E-03    0.58E-03    0.67E-07
  PAW_PBE Ni_pv 06Sep2000               :
  PAW_PBE S 06Sep2000                   :

 POSCAR: Type_048 Type_148
  positions in cartesian coordinates
 exchange correlation table for  LEXCH =        8
   RHO(1)=    0.500       N(1)  =     2000
   RHO(2)=  100.500       N(2)  =     4000

 ion  position               nearest neighbor table
   1  0.261  0.479  0.253-  73 2.25  58 2.26  79 2.26  54 2.36  59 2.36   7 2.53  21 2.53
   2  0.355  0.385  0.388-  74 2.25  54 2.26  59 2.26  60 2.36  65 2.36   8 2.53  22 2.53
   3  0.455  0.285  0.505-  65 2.01  60 2.01  23 2.47  17 2.47
   4  0.167  0.073  0.118-  80 2.07  55 2.07  64 2.25  56 2.36  81 2.36  30 2.44  36 2.53
   5  0.043  0.053  0.468-  50 2.03  72 2.05  77 2.07  15 2.49
   6  0.274  0.333  0.083-  51 2.04  57 2.07  55 2.08  52 2.36  58 2.36  28 2.49
   7  0.368  0.239  0.218-  56 2.25  58 2.26  52 2.26  59 2.36  61 2.36   1 2.53  21 2.53
   8  0.462  0.145  0.353-  78 2.25  59 2.26  61 2.26  60 2.36  62 2.36   2 2.53  22 2.53
   9  0.000  0.372  0.218-  58 2.25  64 2.26  92 2.26  49 2.36  66 2.36  13 2.53  19 2.53
  10  0.094  0.278  0.353-  59 2.25  49 2.26  66 2.26  53 2.36  50 2.36  20 2.53  14 2.53
  11  0.187  0.196  0.468-  50 2.02  53 2.05  60 2.08  15 2.48
  12  0.489  0.443  0.114-  69 2.05  51 2.08  52 2.15  79 2.16  21 2.37  70 2.40
  13  0.761  0.479  0.253-  84 2.25  70 2.26  92 2.26  66 2.36  71 2.36  19 2.53   9 2.53
  14  0.855  0.385  0.388-  85 2.25  66 2.26  71 2.26  72 2.36  53 2.36  20 2.53  10 2.53
  15  0.954  0.286  0.505-  53 2.00  72 2.00  11 2.48   5 2.49
  16  0.667  0.073  0.118-  67 2.07  93 2.07  52 2.25  68 2.36  94 2.36  48 2.53  42 2.53
  17  0.552  0.050  0.473-  62 2.05  88 2.07  89 2.12  60 2.14   3 2.47
  18  0.774  0.333  0.083-  63 2.00  69 2.06  67 2.10  64 2.36  70 2.36  24 2.53  40 2.53
  19  0.868  0.239  0.218-  68 2.25  70 2.26  64 2.26  71 2.36  49 2.36  13 2.53   9 2.53
  20  0.962  0.145  0.353-  90 2.25  71 2.26  49 2.26  72 2.36  50 2.36  14 2.53  10 2.53
  21  0.500  0.372  0.218-  70 2.25  52 2.26  79 2.26  61 2.36  54 2.36  12 2.37   1 2.53   7 2.53

  22  0.594  0.278  0.353-  71 2.25  61 2.26  54 2.26  65 2.36  62 2.36   8 2.53   2 2.53
  23  0.689  0.188  0.473-  62 2.05  88 2.07  72 2.12  65 2.14   3 2.47
  24  0.906  0.465  0.083-  63 1.99  91 2.08  57 2.08  64 2.36  92 2.36  40 2.53  18 2.53
  25  0.261  0.979  0.253-  49 2.25  81 2.26  56 2.26  78 2.36  82 2.36  31 2.53  45 2.53
  26  0.355  0.885  0.388-  50 2.25  78 2.26  82 2.26  83 2.36  89 2.36  32 2.53  46 2.53
  27  0.454  0.786  0.505-  83 2.00  89 2.00  41 2.48  47 2.49
  28  0.177  0.556  0.132-  58 2.08  51 2.09  57 2.14  79 2.18  87 2.38   6 2.49
  29  0.042  0.555  0.466-  74 2.01  96 2.02  53 2.08
  30  0.282  0.834  0.100-  75 2.01  81 2.06  76 2.12  80 2.14   4 2.44  36 2.48
  31  0.368  0.739  0.218-  79 2.25  81 2.26  76 2.26  82 2.36  84 2.36  25 2.53  45 2.53
  32  0.462  0.645  0.353-  54 2.25  82 2.26  84 2.26  83 2.36  85 2.36  26 2.53  46 2.53
  33  0.000  0.872  0.218-  81 2.25  87 2.26  68 2.26  73 2.36  90 2.36  37 2.53  43 2.53
  34  0.094  0.778  0.353-  82 2.25  73 2.26  90 2.26  77 2.36  74 2.36  44 2.53  38 2.53
  35  0.185  0.698  0.466-  74 2.01  77 2.02  83 2.08
  36  0.406  0.965  0.083-  75 1.99  55 2.08  93 2.10  76 2.36  56 2.36  30 2.48   4 2.53
  37  0.761  0.979  0.253-  61 2.25  94 2.26  68 2.26  90 2.36  95 2.36  43 2.53  33 2.53
  38  0.855  0.885  0.388-  62 2.25  90 2.26  95 2.26  39 2.35  96 2.36  77 2.36  44 2.53  34 2.53

  39  0.864  0.876  0.496-  88 2.04  77 2.13  96 2.13  38 2.35
  40  0.667  0.573  0.118-  69 2.04  91 2.08  76 2.25  92 2.36  70 2.36  24 2.53  18 2.53
  41  0.543  0.553  0.468-  85 2.02  83 2.05  65 2.08  27 2.48
  42  0.774  0.833  0.083-  86 1.99  93 2.08  91 2.09  87 2.36  94 2.36  48 2.53  16 2.53
  43  0.868  0.739  0.218-  92 2.25  94 2.26  87 2.26  95 2.36  73 2.36  37 2.53  33 2.53
  44  0.962  0.645  0.353-  66 2.25  95 2.26  73 2.26  96 2.36  74 2.36  38 2.53  34 2.53
  45  0.500  0.872  0.218-  94 2.25  76 2.26  56 2.26  84 2.36  78 2.36  25 2.53  31 2.53
  46  0.594  0.778  0.353-  95 2.25  84 2.26  78 2.26  89 2.36  85 2.36  32 2.53  26 2.53
  47  0.687  0.696  0.468-  85 2.03  89 2.05  96 2.07  27 2.49
  48  0.906  0.965  0.083-  86 1.99  67 2.08  80 2.10  87 2.36  68 2.36  16 2.53  42 2.53
  49  0.073  0.167  0.270-  25 2.25  10 2.26  20 2.26   9 2.36  19 2.36
  50  0.167  0.073  0.405-  11 2.02   5 2.03  26 2.25  10 2.36  20 2.36
  51  0.319  0.486  0.062-   6 2.04  12 2.08  28 2.09  57 2.69  79 2.77
  52  0.479  0.261  0.135-  12 2.15  16 2.25   7 2.26  21 2.26   6 2.36
  53  0.030  0.378  0.451-  15 2.00  11 2.05  29 2.08  10 2.36  14 2.36
  54  0.436  0.472  0.315-  32 2.25   2 2.26  22 2.26   1 2.36  21 2.36
  55  0.261  0.158  0.065-   4 2.07   6 2.08  36 2.08  56 2.72
  56  0.342  0.066  0.180-   7 2.25  25 2.26  45 2.26   4 2.36  36 2.36  55 2.72
  57  0.082  0.481  0.069-   6 2.07  24 2.08  28 2.14  58 2.64  51 2.69
  58  0.174  0.397  0.180-  28 2.08   9 2.25   7 2.26   1 2.26   6 2.36  57 2.64
  59  0.268  0.303  0.315-  10 2.25   2 2.26   8 2.26   7 2.36   1 2.36
  60  0.362  0.209  0.451-   3 2.01  11 2.08  17 2.14   8 2.36   2 2.36
  61  0.573  0.167  0.270-  37 2.25  22 2.26   8 2.26  21 2.36   7 2.36
  62  0.667  0.073  0.405-  17 2.05  23 2.05  38 2.25  22 2.36   8 2.36  88 2.78
  63  0.868  0.373  0.013-  24 1.99  18 2.00
  64  0.979  0.261  0.135-   4 2.25  19 2.26   9 2.26  18 2.36  24 2.36
  65  0.530  0.378  0.451-   3 2.01  41 2.08  23 2.14  22 2.36   2 2.36
  66  0.936  0.472  0.315-  44 2.25  14 2.26  10 2.26  13 2.36   9 2.36
  67  0.760  0.157  0.064-  16 2.07  48 2.08  18 2.10  68 2.73
  68  0.842  0.066  0.180-  19 2.25  37 2.26  33 2.26  16 2.36  48 2.36  67 2.73
  69  0.600  0.488  0.053-  40 2.04  12 2.05  18 2.06
  70  0.674  0.397  0.180-  21 2.25  19 2.26  13 2.26  18 2.36  40 2.36  12 2.40
  71  0.768  0.303  0.315-  22 2.25  14 2.26  20 2.26  19 2.36  13 2.36
  72  0.862  0.209  0.451-  15 2.00   5 2.05  23 2.12  20 2.36  14 2.36
  73  0.073  0.667  0.270-   1 2.25  34 2.26  44 2.26  33 2.36  43 2.36
  74  0.167  0.573  0.405-  29 2.01  35 2.01   2 2.25  34 2.36  44 2.36
  75  0.341  0.879  0.020-  36 1.99  30 2.01  80 2.75
  76  0.479  0.761  0.135-  30 2.12  40 2.25  31 2.26  45 2.26  36 2.36
  77  0.030  0.878  0.451-  35 2.02   5 2.07  39 2.13  34 2.36  38 2.36
  78  0.436  0.972  0.315-   8 2.25  26 2.26  46 2.26  25 2.36  45 2.36
  79  0.342  0.566  0.180-  12 2.16  28 2.18  31 2.25   1 2.26  21 2.26  51 2.77
  80  0.089  0.969  0.068-   4 2.07  48 2.10  30 2.14  81 2.62  75 2.75
  81  0.174  0.897  0.180-  30 2.06  33 2.25  31 2.26  25 2.26   4 2.36  80 2.62
  82  0.268  0.803  0.315-  34 2.25  26 2.26  32 2.26  31 2.36  25 2.36
  83  0.362  0.709  0.451-  27 2.00  41 2.05  35 2.08  32 2.36  26 2.36
  84  0.573  0.667  0.270-  13 2.25  46 2.26  32 2.26  45 2.36  31 2.36
  85  0.667  0.573  0.405-  41 2.02  47 2.03  14 2.25  46 2.36  32 2.36
  86  0.853  0.887  0.012-  48 1.99  42 1.99
  87  0.979  0.761  0.135-  43 2.26  33 2.26  42 2.36  48 2.36  28 2.38
  88  0.704  0.036  0.531-  39 2.04  23 2.07  17 2.07  62 2.78
  89  0.530  0.878  0.451-  27 2.00  47 2.05  17 2.12  46 2.36  26 2.36
  90  0.936  0.972  0.315-  20 2.25  38 2.26  34 2.26  37 2.36  33 2.36
  91  0.762  0.657  0.064-  24 2.08  40 2.08  42 2.09  92 2.73
  92  0.842  0.566  0.180-  43 2.25  13 2.26   9 2.26  40 2.36  24 2.36  91 2.73
  93  0.583  0.979  0.064-  16 2.07  42 2.08  36 2.10  94 2.73
  94  0.674  0.897  0.180-  45 2.25  43 2.26  37 2.26  42 2.36  16 2.36  93 2.73
  95  0.768  0.803  0.315-  46 2.25  38 2.26  44 2.26  43 2.36  37 2.36
  96  0.862  0.709  0.451-  29 2.02  47 2.07  39 2.13  44 2.36  38 2.36

  LATTYP: Found a base centered orthorhombic cell.
 ALAT       =    11.8257374459
 B/A-ratio  =     1.6199260857
 C/A-ratio  =     1.8387210052

  Lattice vectors:

 A1 = (  11.2564630382,   0.0000000000,   0.0000000000)
 A2 = (  -5.0445621212, -10.0628203371,   0.0000000000)
 A3 = (   0.0000000000,   0.0000000000, -21.7442318436)

Analysis of symmetry for initial positions (statically):
 Subroutine PRICEL returns:
 Original cell was already a primitive cell.

 Routine SETGRP: Setting up the symmetry group for a
 base centered orthorhombic supercell.

 Subroutine GETGRP returns: Found  1 space group operations
 (whereof  1 operations were pure point group operations)
 out of a pool of  8 trial point group operations.

The static configuration has the point symmetry C_1 .

Analysis of symmetry for dynamics (positions and initial velocities):
 Subroutine PRICEL returns:
 Original cell was already a primitive cell.

 Routine SETGRP: Setting up the symmetry group for a
 base centered orthorhombic supercell.

 Subroutine GETGRP returns: Found  1 space group operations
 (whereof  1 operations were pure point group operations)
 out of a pool of  8 trial point group operations.

The dynamic configuration has the point symmetry C_1 .

 Subroutine INISYM returns: Found  1 space group operations
 (whereof  1 operations are pure point group operations),
 and found     1 'primitive' translations

 KPOINTS: gamma-point-only calculation. no periodi

Automatic generation of k-mesh.
Space group operators:
[...]
     0.000000000  0.000000000 21.744231844     0.000000000  0.000000000  0.045989208

  length of vectors
    11.256463038 11.256463038 21.744231844     0.099375718  0.099375718  0.045989208

 FORCES acting on ions
    electron-ion (+dipol)            ewald-force                    non-local-force                 convergence-correction
   0.271E+03 -.397E+03 0.428E+03   -.272E+03 0.397E+03 -.426E+03   0.684E+00 -.648E+00 -.205E+01   0.326E-01 -.196E-01 -.161E-02
   0.318E+03 -.504E+03 -.278E+04   -.319E+03 0.505E+03 0.278E+04   0.922E+00 -.145E+01 0.117E+01   0.220E-01 0.187E-01 0.197E+00
   0.382E+03 -.617E+03 -.578E+04   -.380E+03 0.614E+03 0.578E+04   -.146E+01 0.244E+01 0.608E+01   -.617E-01 -.741E-02 0.867E-01
   0.305E+03 -.512E+03 0.388E+04   -.307E+03 0.518E+03 -.388E+04   0.238E+01 -.445E+01 0.264E+01   0.109E-01 0.299E-01 0.326E-01
   -.945E+02 0.535E+03 -.492E+04   0.937E+02 -.537E+03 0.492E+04   0.962E+00 0.867E+00 -.989E-01   0.942E-01 0.163E+00 0.201E+00
   0.219E+02 0.329E+03 0.507E+04   -.221E+02 -.336E+03 -.508E+04   0.425E+00 0.473E+01 0.451E+01   0.453E-01 0.570E-01 -.144E-01
   0.280E+03 0.482E+03 0.163E+04   -.281E+03 -.482E+03 -.163E+04   0.696E+00 0.591E+00 0.528E+00   0.114E-01 0.795E-01 -.259E-01
   0.315E+03 0.408E+03 -.148E+04   -.316E+03 -.409E+03 0.148E+04   0.952E+00 0.382E+00 0.244E+01   -.256E-01 -.467E-01 0.174E+00
   -.521E+03 -.640E+01 0.162E+04   0.521E+03 0.659E+01 -.162E+04   -.404E+00 -.312E+00 0.464E+00   -.890E-01 0.405E-01 0.226E-02
   -.512E+03 -.609E+02 -.149E+04   0.513E+03 0.616E+02 0.149E+04   -.897E+00 -.745E+00 0.249E+01   -.128E-01 0.240E-01 0.164E+00
   -.485E+03 0.157E+03 -.493E+04   0.487E+03 -.157E+03 0.493E+04   -.895E+00 0.887E-01 0.379E-01   -.134E+00 0.604E-01 0.237E+00
   0.286E+02 -.158E+03 0.450E+04   -.280E+02 0.160E+03 -.451E+04   0.133E+00 -.203E+01 0.625E+01   0.746E-02 0.969E-02 0.181E-01
   0.199E+03 -.403E+03 0.477E+03   -.199E+03 0.404E+03 -.476E+03   -.131E+00 -.125E+01 -.105E+01   -.177E-01 -.324E-01 -.117E-01
   0.263E+03 -.481E+03 -.276E+04   -.263E+03 0.482E+03 0.276E+04   0.817E+00 -.102E+01 0.158E+01   0.175E-01 0.272E-01 0.287E+00
   0.168E+03 -.443E+03 -.583E+04   -.165E+03 0.437E+03 0.583E+04   -.290E+01 0.566E+01 0.407E+01   0.289E-01 0.809E-01 0.204E+00
   0.310E+03 -.414E+03 0.383E+04   -.313E+03 0.418E+03 -.383E+04   0.242E+01 -.377E+01 0.174E+01   -.141E-01 0.511E-02 0.424E-01
   0.492E+03 0.412E+03 -.478E+04   -.495E+03 -.415E+03 0.478E+04   0.166E+01 0.320E+01 -.188E+01   -.199E+00 -.613E-01 0.131E+00
   0.148E+03 0.513E+03 0.479E+04   -.150E+03 -.518E+03 -.479E+04   0.114E+01 0.389E+01 0.365E+01   -.254E-01 0.158E+00 0.139E+00
   0.193E+03 0.479E+03 0.160E+04   -.193E+03 -.480E+03 -.160E+04   -.638E-01 0.140E+01 0.348E+00   -.153E-01 0.125E+00 0.217E-01
   0.224E+03 0.407E+03 -.145E+04   -.225E+03 -.408E+03 0.145E+04   0.954E+00 0.375E+00 0.241E+01   -.593E-02 0.124E-01 0.115E+00
   -.422E+03 0.793E+02 0.135E+04   0.422E+03 -.803E+02 -.135E+04   -.616E+00 0.612E+00 -.201E+01   0.298E-01 0.574E-01 -.590E-01
   -.498E+03 -.869E+02 -.150E+04   0.499E+03 0.873E+02 0.149E+04   -.837E+00 -.682E+00 0.259E+01   0.207E-01 0.557E-01 0.847E-01
   -.588E+03 -.254E+03 -.478E+04   0.592E+03 0.255E+03 0.478E+04   -.360E+01 -.102E-01 -.193E+01   -.108E-01 0.108E+00 0.138E+00
   -.590E+03 -.459E+02 0.477E+04   0.595E+03 0.455E+02 -.477E+04   -.334E+01 0.217E+00 0.457E+01   -.265E-01 0.460E-01 0.105E+00
   0.248E+03 -.416E+03 0.485E+03   -.248E+03 0.417E+03 -.485E+03   0.573E+00 -.107E+01 -.655E+00   -.110E-01 -.389E-02 0.943E-01
   0.311E+03 -.460E+03 -.276E+04   -.312E+03 0.461E+03 0.276E+04   0.673E+00 -.115E+01 0.156E+01   0.811E-01 -.122E+00 0.327E+00
   0.321E+03 -.351E+03 -.584E+04   -.317E+03 0.345E+03 0.583E+04   -.368E+01 0.522E+01 0.412E+01   0.220E-01 -.186E-01 0.794E-01
   0.124E+03 -.651E+03 0.381E+04   -.124E+03 0.659E+03 -.381E+04   -.631E+00 -.570E+01 0.944E+00   0.403E-01 -.135E+00 -.376E-01
   -.353E+02 0.320E+03 -.506E+04   0.352E+02 -.321E+03 0.505E+04   0.277E+00 0.749E+00 0.146E+01   -.696E-01 -.757E-01 0.130E+00
   0.468E+03 0.714E+03 0.464E+04   -.469E+03 -.718E+03 -.465E+04   0.109E+00 0.260E+01 0.425E+01   0.240E-01 -.297E-01 -.150E-01
   0.263E+03 0.443E+03 0.156E+04   -.263E+03 -.443E+03 -.156E+04   -.532E-02 0.896E+00 -.964E+00   0.227E-02 -.588E-01 0.504E-01
   0.285E+03 0.420E+03 -.151E+04   -.285E+03 -.421E+03 0.151E+04   0.959E+00 0.263E+00 0.228E+01   0.357E-01 0.565E-01 0.236E+00
   -.508E+03 0.127E+02 0.167E+04   0.508E+03 -.129E+02 -.167E+04   -.494E+00 0.110E+00 0.105E+01   0.283E-01 -.634E-02 0.574E-01
   -.519E+03 0.354E-01 -.151E+04   0.520E+03 0.705E+00 0.150E+04   -.106E+01 -.731E+00 0.180E+01   -.523E-01 0.998E-02 0.190E+00
   -.269E+03 0.175E+03 -.506E+04   0.270E+03 -.175E+03 0.506E+04   -.826E+00 -.601E-02 0.146E+01   0.163E+00 -.932E-02 0.117E+00
   -.518E+03 -.507E+02 0.486E+04   0.523E+03 0.507E+02 -.486E+04   -.397E+01 0.139E+00 0.432E+01   -.216E-01 0.189E-02 -.326E-01
   0.238E+03 -.373E+03 0.548E+03   -.239E+03 0.374E+03 -.548E+03   0.530E+00 -.906E+00 -.317E+00   0.402E-01 -.333E-01 0.117E+00
   0.186E+03 -.300E+03 -.242E+04   -.186E+03 0.301E+03 0.242E+04   0.458E+00 -.865E+00 -.433E-01   -.163E-01 -.857E-01 0.578E-01
   -.136E+03 0.221E+03 -.559E+04   0.134E+03 -.217E+03 0.559E+04   0.265E+01 -.438E+01 -.830E+00   -.485E-01 -.643E-01 -.591E-01
   0.185E+03 -.559E+03 0.381E+04   -.186E+03 0.563E+03 -.381E+04   0.171E+01 -.327E+01 0.273E+01   0.162E-01 -.109E+00 0.327E-01
   0.769E+02 0.503E+03 -.494E+04   -.773E+02 -.504E+03 0.494E+04   0.483E+00 0.678E+00 -.243E-01   0.301E-01 0.244E+00 0.184E+00
   0.187E+03 0.470E+03 0.475E+04   -.188E+03 -.475E+03 -.475E+04   0.138E+01 0.339E+01 0.433E+01   -.452E-01 -.112E+00 0.803E-01
   0.219E+03 0.448E+03 0.165E+04   -.219E+03 -.449E+03 -.165E+04   0.563E+00 0.800E+00 0.987E+00   -.226E-01 -.663E-01 0.266E-01
   0.232E+03 0.467E+03 -.151E+04   -.233E+03 -.467E+03 0.150E+04   0.105E+01 0.588E+00 0.181E+01   -.266E-01 0.954E-01 0.176E+00
   -.534E+03 -.284E+02 0.161E+04   0.535E+03 0.286E+02 -.161E+04   -.930E+00 -.256E+00 0.704E+00   0.797E-02 -.348E-01 0.655E-01
   -.468E+03 -.286E+02 -.146E+04   0.469E+03 0.292E+02 0.145E+04   -.733E+00 -.680E+00 0.249E+01   -.444E-01 -.179E-01 0.267E+00
   -.438E+03 0.323E+03 -.492E+04   0.439E+03 -.323E+03 0.492E+04   -.117E+01 -.482E+00 -.136E+00   -.197E+00 0.581E-01 0.158E+00
   -.571E+03 0.792E+02 0.477E+04   0.576E+03 -.796E+02 -.477E+04   -.325E+01 0.295E+00 0.427E+01   0.135E-01 -.397E-01 0.100E+00
   -.785E+02 0.119E+03 0.228E+03   0.796E+02 -.121E+03 -.230E+03   -.101E+01 0.215E+01 0.205E+01   -.119E-01 0.126E-01 -.442E-02
   -.126E+03 0.192E+03 -.101E+04   0.127E+03 -.194E+03 0.101E+04   -.484E+00 0.766E+00 -.117E+01   0.284E-01 -.139E-01 0.928E-01
   -.853E+02 -.201E+03 0.225E+04   0.858E+02 0.204E+03 -.225E+04   0.709E+00 -.144E+01 0.430E+01   -.262E-02 -.536E-01 0.117E-01
   0.208E+02 0.186E+03 0.151E+04   -.202E+02 -.189E+03 -.151E+04   -.109E+01 0.112E+01 0.157E+01   -.216E-01 0.682E-01 -.382E-02
   -.988E+02 -.231E+03 -.160E+04   0.100E+03 0.234E+03 0.160E+04   -.794E+00 -.886E+00 -.181E+01   -.831E-01 -.488E-01 0.164E+00
   -.608E+02 -.158E+03 -.284E+03   0.622E+02 0.161E+03 0.284E+03   -.142E+01 -.287E+01 -.521E+00   0.153E-01 0.107E-01 0.224E-01
   0.412E+01 -.156E+03 0.207E+04   -.544E+01 0.158E+03 -.207E+04   0.125E+01 -.995E+00 0.346E+01   0.328E-01 0.455E-01 0.120E-02
   -.779E+02 -.165E+03 0.918E+03   0.793E+02 0.167E+03 -.917E+03   -.116E+01 -.185E+01 0.314E+00   -.127E-02 0.254E-01 -.158E-02
   0.326E+02 -.133E+03 0.205E+04   -.337E+02 0.135E+03 -.205E+04   0.146E+00 -.160E+01 0.355E+01   0.132E-01 -.405E-01 0.432E-02
   0.200E+03 0.485E+02 0.913E+03   -.203E+03 -.496E+02 -.911E+03   0.200E+01 -.305E+00 0.231E+00   0.147E-01 -.898E-02 -.303E-01
   0.173E+03 -.914E+01 -.270E+03   -.176E+03 0.890E+01 0.270E+03   0.286E+01 0.258E+00 -.150E-01   0.675E-02 0.442E-02 0.174E-01
   0.249E+03 -.274E+02 -.157E+04   -.252E+03 0.278E+02 0.157E+04   0.203E+01 -.212E+00 -.166E+01   0.126E-01 -.247E-01 0.959E-01
[...]
   0.251E+03 -.164E+02 -.160E+04   -.254E+03 0.166E+02 0.160E+04   0.119E+01 0.192E+00 -.178E+01   0.814E-01 0.376E-01 0.119E+00
   -.804E+02 0.113E+03 0.217E+03   0.816E+02 -.115E+03 -.219E+03   -.112E+01 0.199E+01 0.195E+01   0.189E-01 -.383E-01 0.374E-01
   -.117E+03 0.198E+03 -.101E+04   0.118E+03 -.200E+03 0.101E+04   -.540E+00 0.691E+00 -.117E+01   -.138E-01 0.556E-01 0.109E+00
   -.749E+02 0.101E+03 0.233E+04   0.754E+02 -.102E+03 -.234E+04   -.239E+00 0.170E+00 0.713E+00   -.177E-01 -.297E-01 0.373E-01
   -.137E+03 0.174E+03 0.149E+04   0.139E+03 -.175E+03 -.150E+04   -.131E+01 0.156E+01 0.217E+01   -.205E-01 -.369E-02 -.677E-02
   -.299E+02 0.488E+02 -.236E+04   0.308E+02 -.502E+02 0.237E+04   -.454E+00 0.756E+00 -.190E+01   -.785E-01 0.322E-01 0.643E-01
   -.235E+02 -.210E+03 -.156E+04   0.245E+02 0.213E+03 0.156E+04   -.689E+00 -.646E+00 -.195E+01   -.694E-01 -.621E-01 0.118E+00
   -.828E+02 -.145E+03 -.240E+03   0.843E+02 0.148E+03 0.240E+03   -.147E+01 -.251E+01 -.462E+00   -.240E-01 -.360E-01 0.671E-01
   0.490E-01 -.149E+03 0.205E+04   -.222E+01 0.151E+03 -.206E+04   0.196E+01 -.716E+00 0.395E+01   0.873E-02 -.162E-01 0.377E-01
   -.892E+02 -.159E+03 0.914E+03   0.905E+02 0.161E+03 -.915E+03   -.997E+00 -.181E+01 0.104E+01   -.357E-01 -.348E-01 -.105E-01
   0.126E+03 -.950E+02 0.206E+04   -.127E+03 0.977E+02 -.206E+04   0.189E+00 -.201E+01 0.325E+01   -.762E-02 -.260E-01 0.810E-02
   0.162E+03 0.574E+00 0.919E+03   -.164E+03 -.705E+00 -.919E+03   0.208E+01 -.497E-01 0.754E+00   -.156E-02 -.273E-01 -.227E-01
   0.167E+03 0.743E+01 -.240E+03   -.170E+03 -.759E+01 0.240E+03   0.281E+01 0.137E+00 -.587E+00   0.157E-01 -.477E-02 0.993E-01
   0.115E+03 0.106E+03 -.164E+04   -.117E+03 -.107E+03 0.164E+04   0.173E+01 0.172E+01 -.164E+01   -.543E-01 -.197E-01 -.456E-03
   0.260E+01 0.797E+01 -.112E+03   -.767E-12 -.163E-11 0.168E-10   -.247E+01 -.844E+01 0.106E+03   -.409E+00 0.413E+00 0.633E+01

 POSITION                                       TOTAL-FORCE (eV/Angst)
      5.35228      4.81788      5.50842        -0.065432      0.048128     -0.119051
      5.93595      3.87238      8.44448         0.037876     -0.121964     -0.101476
      6.55549      2.86877     10.98528         0.033347     -0.090505      1.399598
      2.24633      0.73197      2.57236        -0.094527      1.263099      2.127955
      0.75226      0.53035     10.16700         0.328754     -0.153172      0.992472
      4.76861      3.35453      1.79664         0.255900     -2.002573      1.389431
      5.35228      2.40903      4.73270         0.009425     -0.063609     -0.001286
      5.93595      1.46353      7.66876         0.144118     -0.062316     -0.008652
      1.87746      3.73836      4.73270        -0.096515     -0.076865      0.067344
      2.46113      2.79286      7.66876        -0.071053     -0.060299     -0.150991
      3.09088      1.97445     10.16651         0.111090     -0.292832      1.082051
      7.73253      4.45309      2.48267         0.794635     -0.107827      0.233063
     10.98051      4.81788      5.50842         0.002003      0.124237     -0.002951
     11.56418      3.87238      8.44448        -0.098662     -0.039348     -0.070437
     12.18097      2.87498     10.98061         0.055028     -0.026083      1.223859
      7.87456      0.73197      2.57236        -0.449340      0.470641      1.984762
      6.46667      0.50596     10.28498        -1.305627      0.243343      0.437481
     10.39684      3.35453      1.79664        -0.109369     -1.338488      2.522174
     10.98051      2.40903      4.73270         0.038666     -0.118430      0.014949
     11.56418      1.46353      7.66876         0.006028     -0.039664     -0.187849
      7.50570      3.73836      4.73270        -0.220963     -0.299583      1.021327
      8.08937      2.79286      7.66876         0.002748     -0.201826      0.053066
      8.70755      1.88926     10.28502         0.427280      1.263576      0.432666
     12.55026      4.68386      1.79664         1.216963     -0.152292      2.667444
      7.87456      9.84929      5.50842         0.171468     -0.109263     -0.159065
      8.45823      8.90379      8.44448         0.061862      0.097769     -0.016148
      9.07344      7.90545     10.98062        -0.015496     -0.065027      1.221806
      4.79315      5.59429      2.87579        -0.613171      2.089744      0.346851
      3.26807      5.58075     10.14095         0.029296     -0.365748      1.203870
      7.38471      8.39250      2.18268        -0.812624     -1.475570      0.268818
      7.87456      7.44044      4.73270        -0.086639      0.000073      0.031778
      8.45823      6.49494      7.66876         0.120999     -0.002259     -0.208893
      4.39975      8.76977      4.73270        -0.182694     -0.053468      0.093673
      4.98341      7.82427      7.66876        -0.156259      0.020178     -0.311142
      5.60432      7.02295     10.14100         0.310881     -0.206991      1.227342
      9.44431      9.71527      1.79664         1.763062      0.124963      2.437814
     13.50279      9.84929      5.50842         0.030124     -0.071689     -0.126561
     14.08646      8.90379      8.44448        -0.086604      0.154732     -1.272262
     14.14425      8.81017     10.78820         0.614118     -1.027279      0.722681
     10.39684      5.76338      2.57236         0.131218      0.643605      2.186955
      8.90769      5.56522     10.16662         0.184330     -0.279872      1.058550
     12.91912      8.38594      1.79664        -0.298051     -1.375265      2.786740
     13.50279      7.44044      4.73270         0.008636      0.118271      0.086454
     14.08646      6.49494      7.66876         0.025217      0.077971     -0.264361
     10.02798      8.76977      4.73270        -0.112169     -0.040258      0.046058
     10.61165      7.82427      7.66876         0.066187     -0.055442     -0.189067
     11.24664      7.00866     10.16701         0.004733     -0.390999      0.988421
     15.07254      9.71527      1.79664         1.161559     -0.145984      2.693171
      1.66190      1.67871      5.87212         0.080322      0.020153      0.130499
      2.24556      0.73321      8.80817         0.932411     -1.531075     -1.694643
      6.03761      4.88926      1.35675         1.238430      1.570855     -3.225740
      6.70646      2.62422      2.93606        -0.446954     -1.724103     -0.020298
      2.24556      3.80055      9.79595         0.360363      1.652211     -0.677425
      7.29013      4.74605      6.85989         0.027821     -0.042275     -0.014681
      3.73540      1.58945      1.41021        -0.028271      1.220159     -2.551031
      4.18418      0.66015      3.92384         0.248678      0.035231      0.862230
      3.34876      4.83569      1.49392        -0.864947      0.922404     -1.956727
      3.96438      3.99884      3.92384        -0.603859     -1.377138      1.973923
      4.54805      3.05334      6.85989        -0.111164      0.018971      0.017761
      5.13172      2.10784      9.79595        -1.179633      0.167990     -0.803539
[...]
      7.07033      8.08475      6.85989        -0.081078      0.038140      0.104715
      7.65400      7.13925      9.79595        -1.655314      0.414654     -0.673182
      9.81241      6.71012      5.87212         0.088766      0.009431      0.174347
     10.39608      5.76462      8.80817         0.921128     -1.480401     -1.691323
     14.07518      8.92504      0.26863         0.316941     -0.503383     -4.444991
     14.85697      7.65563      2.93606         0.377361     -0.234094      0.087902
      8.10343      0.36116     11.55097         0.366826     -0.553871      2.727201
     10.39608      8.83196      9.79595         0.209407      1.705806     -0.663469
     15.44064      9.77746      6.85989         0.038341      0.003019     -0.030613
     11.88612      6.60977      1.39176        -0.194688      1.146571     -2.432641
     12.33469      5.69156      3.92384         0.192532     -0.009438      0.742139
     11.49823      9.85368      1.39880        -1.036141      0.703380     -2.284756
     12.11489      9.03025      3.92384        -0.047674     -0.207436      0.822882
     12.69856      8.08475      6.85989        -0.010468     -0.026344     -0.052564
     13.28223      7.13925      9.79595        -0.469656      0.978202      0.122169
    total drift:                               -0.282888     -0.055568      0.064557

  FREE ENERGIE OF THE ION-ELECTRON SYSTEM (eV)
  free  energy   TOTEN  =      -473.06366781 eV

  energy  without entropy=     -471.92518494  energy(sigma->0) =     -472.49442638