 vasp.5.4.4.18Apr17-6-g9f103f2a35 (build Aug 13 2019 17:33:20) gamma-only

 executed on             LinuxIFC date 2020.05.11  17:22:34

 INCAR:
 POTCAR:    PAW_PBE Ni_pv 06Sep2000
 POTCAR:    PAW_PBE S 06Sep2000
 POTCAR:    PAW_PBE Ni_pv 06Sep2000
   VRHFIN =Ni:

   TITEL  = PAW_PBE Ni_pv 06Sep2000
   POMASS =   58.690; ZVAL   =   16.000    mass and valenz
   ENMAX  =  367.986; ENMIN  =  275.989 eV

 POTCAR:    PAW_PBE S 06Sep2000
   VRHFIN =S : s2p4

   TITEL  = PAW_PBE S 06Sep2000
   POMASS =   32.066; ZVAL   =    6.000    mass and valenz
   ENMAX  =  258.689; ENMIN  =  194.016 eV

 Optimization of the real space projectors (new method)

 maximal supplied QI-value         = 18.90
 optimisation between [QCUT,QGAM] = [ 10.77, 21.73] = [ 32.49,132.25] Ry
 Optimized for a Real-space Cutoff    1.38 Angstroem

   l    n(q)    QCUT    max X(q) W(low)/X(q) W(high)/X(q)  e(spline)
   1      8    10.771     2.836    0.40E-04    0.29E-04    0.12E-06
   1      8    10.771     4.023    0.10E-03    0.48E-04    0.29E-06
   2      8    10.771    73.368    0.42E-03    0.97E-04    0.44E-06
   2      8    10.771    69.010    0.42E-03    0.99E-04    0.45E-06
   0      9    10.771    54.797    0.10E-03    0.56E-04    0.74E-07
   0      9    10.771    24.266    0.89E-04    0.49E-04    0.67E-07
 Optimization of the real space projectors (new method)

 maximal supplied QI-value         = 19.84
 optimisation between [QCUT,QGAM] = [ 10.71, 21.63] = [ 32.15,130.99] Ry
 Optimized for a Real-space Cutoff    1.19 Angstroem

   l    n(q)    QCUT    max X(q) W(low)/X(q) W(high)/X(q)  e(spline)
   0      8    10.715   187.594    0.41E-03    0.53E-04    0.66E-07
   0      8    10.715   164.243    0.41E-03    0.53E-04    0.65E-07
   1      7    10.715    67.533    0.19E-03    0.59E-03    0.68E-07
   1      7    10.715    50.729    0.19E-03    0.58E-03    0.67E-07
  PAW_PBE Ni_pv 06Sep2000               :
  PAW_PBE S 06Sep2000                   :

 POSCAR: Type_036 Type_136
  positions in cartesian coordinates
 exchange correlation table for  LEXCH =        8
   RHO(1)=    0.500       N(1)  =     2000
   RHO(2)=  100.500       N(2)  =     4000

 ion  position               nearest neighbor table
   1  0.780  0.145  0.121-  49 2.09  63 2.11  64 2.16  41 2.25   2 2.28  50 2.36  22 2.39  24 2.42

   2  0.733  0.191  0.250-  42 1.99  50 2.09   1 2.28  64 2.31  30 2.47  41 2.61
   3  0.216  0.671  0.096-  43 2.02  44 2.12  51 2.16   4 2.40  26 2.48  61 2.49
   4  0.297  0.645  0.216-  62 2.10  52 2.13  44 2.25  51 2.26  61 2.26   3 2.40  27 2.53  15 2.53

[...]

   8  0.973  0.663  0.303-  65 2.06  48 2.06  55 2.07   7 2.46
   9  0.125  0.145  0.184-  57 2.06  37 2.08  71 2.11  58 2.36  72 2.36  25 2.42  10 2.50  33 2.53
                            20 2.53
  10  0.130  0.146  0.339-  58 2.03  72 2.03  37 2.03   9 2.50
  11  0.579  0.641  0.148-  39 2.03  69 2.12  40 2.12  59 2.18  12 2.38
  12  0.642  0.645  0.280-  60 2.02  70 2.03  40 2.23  59 2.26  69 2.26  11 2.38  36 2.53  23 2.53

[...]

  28  0.466  0.791  0.336-  68 2.01  52 2.04  40 2.05  27 2.45
  29  0.593  0.375  0.088-  69 2.11  53 2.18  30 2.37  41 2.43  16 2.47
  30  0.597  0.277  0.223-  54 2.08  42 2.12  69 2.25  53 2.26  41 2.26  29 2.37   2 2.47   6 2.53
                            17 2.53
  31  0.080  0.777  0.127-  43 2.08  71 2.10  56 2.12  55 2.23  44 2.36  32 2.45   7 2.53  18 2.53

[...]

  54  0.513  0.310  0.314-   6 2.04  30 2.08  42 2.65  53 2.69
  55  0.990  0.829  0.223-   8 2.07  32 2.09   7 2.18  13 2.21  31 2.23  56 2.61
  56  0.971  0.797  0.063-   7 2.07  13 2.09  31 2.12  55 2.61
  57  0.132  0.317  0.107-   9 2.06  18 2.10  25 2.20  33 2.23
  58  0.174  0.314  0.278-  10 2.03  34 2.03  19 2.09   9 2.36  33 2.36  37 2.77
  59  0.657  0.814  0.183-  35 2.12  11 2.18  17 2.25  36 2.26  12 2.26
  60  0.695  0.790  0.352-  36 2.02  12 2.02  70 2.77
  61  0.312  0.477  0.119-  26 2.03  33 2.25   4 2.26  15 2.26   3 2.49  14 2.55
  62  0.347  0.489  0.291-  34 2.03   4 2.10  15 2.10
  63  0.823  0.983  0.044-  35 2.02  13 2.09   1 2.11  64 2.78
  64  0.798  0.988  0.214-  35 2.15   1 2.16  36 2.18  13 2.21   2 2.31  63 2.78
  65  0.001  0.477  0.246-  19 2.01   8 2.06  25 2.15   7 2.36  18 2.36  66 2.78
  66  0.970  0.462  0.078-  24 2.06  18 2.08   7 2.16  25 2.21  65 2.78
  67  0.484  0.977  0.151-  16 2.04  27 2.25  17 2.26   6 2.26   5 2.44  68 2.76
  68  0.513  0.981  0.319-  28 2.01   6 2.08  17 2.13  42 2.62  67 2.76
  69  0.657  0.477  0.183-  22 2.04  29 2.11  11 2.12  30 2.25  23 2.26  12 2.26
  70  0.696  0.501  0.352-  23 2.01  12 2.03  60 2.77
  71  0.141  0.966  0.110-  20 2.09  31 2.10   9 2.11  72 2.78
  72  0.174  0.977  0.278-  10 2.03  21 2.04  32 2.11   9 2.36  20 2.36  71 2.78

  LATTYP: Found a simple orthorhombic cell.
 ALAT       =     9.5784100000
 B/A-ratio  =     1.6880763216
 C/A-ratio  =     1.7627867312

  Lattice vectors:

 A1 = (   0.0000000000,   9.5784100000,   0.0000000000)
 A2 = (   0.0000000000,   0.0000000000, -16.1690871197)
 A3 = ( -16.8846940542,   0.0000000000,   0.0000000000)

Analysis of symmetry for initial positions (statically):
 Subroutine PRICEL returns:
 Original cell was already a primitive cell.

 Routine SETGRP: Setting up the symmetry group for a
 simple orthorhombic supercell.

 Subroutine GETGRP returns: Found  1 space group operations
 (whereof  1 operations were pure point group operations)
 out of a pool of  8 trial point group operations.

The static configuration has the point symmetry C_1 .

Analysis of symmetry for dynamics (positions and initial velocities):
 Subroutine PRICEL returns:
 Original cell was already a primitive cell.

 Routine SETGRP: Setting up the symmetry group for a
 simple orthorhombic supercell.

 Subroutine GETGRP returns: Found  1 space group operations
 (whereof  1 operations were pure point group operations)
 out of a pool of  8 trial point group operations.

The dynamic configuration has the point symmetry C_1 .

 Subroutine INISYM returns: Found  1 space group operations
 (whereof  1 operations are pure point group operations),
 and found     1 'primitive' translations

 KPOINTS: gamma-point-only calculation. no periodi

Automatic generation of k-mesh.
Space group operators:
 irot       det(A)        alpha          n_x          n_y          n_z        tau_x        tau_y        tau_z
    1     1.000000     0.000000     1.000000     0.000000     0.000000     0.000000     0.000000     0.000000

 Subroutine IBZKPT returns following result:

 Found      1 irreducible k-points:

 Following reciprocal coordinates:
            Coordinates               Weight
  0.000000  0.000000  0.000000      1.000000

 Following cartesian coordinates:
            Coordinates               Weight
  0.000000  0.000000  0.000000      1.000000

 SYSTEM =  "Millerite NiS"
 POSCAR =  Type_036 Type_136

 Startparameter for this run:
   NWRITE =      2    write-flag & timer
   PREC   = normal    normal or accurate (medium, high low for compatibility)
   ISTART =      0    job   : 0-new  1-cont  2-samecut
   ICHARG =      2    charge: 1-file 2-atom 10-const
   ISPIN  =      1    spin polarized calculation?
   LNONCOLLINEAR =      F non collinear calculations
   LSORBIT =      F    spin-orbit coupling
   INIWAV =      1    electr: 0-lowe 1-rand  2-diag
   LASPH  =      F    aspherical Exc in radial PAW
   METAGGA=      F    non-selfconsistent MetaGGA calc.

 Electronic Relaxation 1
   ENCUT  =  450.0 eV  33.07 Ry    5.75 a.u.  29.20 16.57 27.97*2*pi/ulx,y,z
   ENINI  =  450.0     initial cutoff
   ENAUG  =  703.4 eV  augmentation charge cutoff
   NELM   =    100;   NELMIN=  2; NELMDL= -5     # of ELM steps
   EDIFF  = 0.1E-03   stopping-criterion for ELM
   LREAL  =      T    real-space projection
   NLSPLINE    = F    spline interpolate recip. space projectors
   LCOMPAT=      F    compatible to vasp.4.4
   GGA_COMPAT  = T    GGA compatible to vasp.4.4-vasp.4.6
   LMAXPAW     = -100 max onsite density
   LMAXMIX     =    2 max onsite mixed and CHGCAR
   VOSKOWN=      0    Vosko Wilk Nusair interpolation
   ROPT   =   -0.00050  -0.00050
 Ionic relaxation
   EDIFFG = 0.1E-02   stopping-criterion for IOM
   NSW    =      0    number of steps for IOM
   NBLOCK =      1;   KBLOCK =      1    inner block; outer block
   IBRION =     -1    ionic relax: 0-MD 1-quasi-New 2-CG
   NFREE  =      0    steps in history (QN), initial steepest desc. (CG)
   ISIF   =      2    stress and relaxation
   IWAVPR =     10    prediction:  0-non 1-charg 2-wave 3-comb
   ISYM   =      2    0-nonsym 1-usesym 2-fastsym
   LCORR  =      T    Harris-Foulkes like correction to forces

   POTIM  = 0.5000    time-step for ionic-motion
   TEIN   =    0.0    initial temperature
   TEBEG  =    0.0;   TEEND  =   0.0 temperature during run
   SMASS  =  -3.00    Nose mass-parameter (am)
   estimated Nose-frequenzy (Omega)   =  0.10E-29 period in steps =****** mass=  -0.652E-26a.u.
   SCALEE = 1.0000    scale energy and forces
   NPACO  =    256;   APACO  = 16.0  distance and # of slots for P.C.
   PSTRESS=    0.0 pullay stress

  Mass of Ions in am
   POMASS =  58.69 32.07
  Ionic Valenz
   ZVAL   =  16.00  6.00
  Atomic Wigner-Seitz radii
  virtual crystal weights
   VCA    =   1.00  1.00
   NELECT =     792.0000    total number of electrons
   NUPDOWN=      -1.0000    fix difference up-down

 DOS related values:
   EMIN   =  10.00;   EMAX   =-10.00  energy-range for DOS
   EFERMI =   0.00
   ISMEAR =     0;   SIGMA  =   0.20  broadening in eV -4-tet -1-fermi 0-gaus

 Electronic relaxation 2 (details)
   IALGO  =     38    algorithm
   LDIAG  =      T    sub-space diagonalisation (order eigenvalues)
   LSUBROT=      F    optimize rotation matrix (better conditioning)
   TURBO    =      0    0=normal 1=particle mesh
   IRESTART =      0    0=no restart 2=restart with 2 vectors
   NREBOOT  =      0    no. of reboots
   NMIN     =      0    reboot dimension
   EREF     =   0.00    reference energy to select bands
   IMIX   =      4    mixing-type and parameters
     AMIX     =   0.40;   BMIX     =  1.00
     AMIX_MAG =   1.60;   BMIX_MAG =  1.00
     AMIN     =   0.10
     WC   =   100.;   INIMIX=   1;  MIXPRE=   1;  MAXMIX= -45

 Intra band minimization:
   WEIMIN = 0.0000     energy-eigenvalue tresh-hold
   EBREAK =  0.53E-07  absolut break condition
   DEPER  =   0.30     relativ break condition

   TIME   =   0.40     timestep for ELM

  volume/ion in A,a.u.               =      36.32       245.10
  Fermi-wavevector in a.u.,A,eV,Ry     =   1.099409  2.077581 16.445356  1.208700
  Thomas-Fermi vector in A             =   2.235803

 Write flags
   LWAVE        =      F    write WAVECAR
   LDOWNSAMPLE  =      F    k-point downsampling of WAVECAR
   LCHARG       =      F    write CHGCAR
   LVTOT        =      F    write LOCPOT, total local potential
   LVHAR        =      F    write LOCPOT, Hartree potential only
   LELF         =      F    write electronic localiz. function (ELF)
   LORBIT       =      0    0 simple, 1 ext, 2 COOP (PROOUT), +10 PAW based schemes

 Dipole corrections
   LMONO  =      F    monopole corrections only (constant potential shift)
   LDIPOL =      F    correct potential (dipole corrections)
[...]
  Fock        0.00000     0.00000     0.00000     0.00000     0.00000     0.00000
  Total     134.26291   125.58765   139.70861     5.60405    -3.21604    -0.65542
  in kB      82.26110    76.94589    85.59761     3.43353    -1.97043    -0.40157

 VOLUME and BASIS-vectors are now :
  energy-cutoff  :      450.00
  volume of cell :     2615.00
      direct lattice vectors                 reciprocal lattice vectors
    16.884694054  0.000000000  0.000000000     0.059225237  0.000000000  0.000000000
     0.000000000  9.578410000  0.000000000     0.000000000  0.104401461  0.000000000
     0.000000000  0.000000000 16.169087120     0.000000000  0.000000000  0.061846411

  length of vectors
    16.884694054  9.578410000 16.169087120     0.059225237  0.104401461  0.061846411

 FORCES acting on ions
    electron-ion (+dipol)            ewald-force                    non-local-force                 convergence-correction
   -.197E+03 0.525E+03 0.183E+04   0.194E+03 -.527E+03 -.184E+04   0.234E+01 0.113E+01 0.404E+01   0.474E-02 -.188E-02 -.511E-02
   -.766E+03 0.247E+03 -.251E+04   0.768E+03 -.247E+03 0.252E+04   -.723E+00 0.795E-01 -.344E+01   0.264E-02 -.837E-03 -.436E-02
   0.193E+03 -.114E+03 0.278E+04   -.193E+03 0.114E+03 -.279E+04   0.852E+00 -.529E+00 0.783E+01   -.178E-02 -.504E-02 -.572E-02
   0.501E+03 0.181E+01 -.134E+04   -.505E+03 -.247E+01 0.135E+04   0.268E+01 0.578E+00 -.566E+01   -.312E-02 -.591E-02 -.885E-02
   0.175E+03 0.315E+03 0.220E+04   -.176E+03 -.316E+03 -.221E+04   0.186E+01 0.625E+00 0.825E+01   0.404E-02 0.784E-02 -.794E-04
   0.269E+03 0.742E+02 -.210E+04   -.273E+03 -.753E+02 0.211E+04   0.323E+01 0.589E-01 -.861E+01   0.190E-02 0.389E-02 0.102E-02
   0.719E+03 0.796E+02 0.113E+04   -.723E+03 -.828E+02 -.113E+04   0.338E+01 0.211E+01 0.284E+01   -.182E-02 -.435E-02 0.555E-03
   0.443E+03 -.103E+03 -.337E+04   -.444E+03 0.105E+03 0.338E+04   0.476E+00 -.273E+01 -.262E+00   -.119E-01 -.814E-02 -.960E-02
   0.686E+03 0.342E+03 0.553E+03   -.687E+03 -.346E+03 -.558E+03   0.228E+01 0.377E+01 0.576E+01   -.204E-02 0.566E-02 -.376E-02
   0.692E+03 0.107E+03 -.380E+04   -.691E+03 -.107E+03 0.380E+04   -.200E-01 0.385E-01 0.894E+00   0.321E-02 0.696E-02 -.214E-02
   -.425E+03 -.542E+03 0.173E+04   0.427E+03 0.544E+03 -.173E+04   -.113E+01 -.130E+01 0.339E+01   0.614E-03 -.592E-02 -.369E-02
   0.174E+03 -.664E+02 -.256E+04   -.177E+03 0.664E+02 0.257E+04   0.191E+01 0.134E-01 -.753E+01   0.491E-02 -.680E-03 -.559E-03
   -.386E+03 -.295E+03 0.993E+03   0.389E+03 0.296E+03 -.993E+03   -.248E+01 -.515E+00 0.130E+01   -.136E-02 -.392E-02 -.150E-02
   0.275E+02 0.217E+03 0.387E+04   -.245E+02 -.215E+03 -.387E+04   -.313E+01 -.208E+01 0.169E-01   -.168E-02 0.181E-03 -.311E-02
   -.175E+03 0.316E+03 -.684E+03   0.175E+03 -.318E+03 0.689E+03   0.958E-01 0.289E+01 -.492E+01   0.806E-03 -.907E-02 -.147E-01
   -.162E+03 0.788E+03 0.340E+04   0.161E+03 -.789E+03 -.341E+04   0.455E+00 0.187E+01 0.541E+01   0.244E-02 0.836E-02 0.129E-03
   -.493E+03 0.740E+03 -.837E+03   0.495E+03 -.746E+03 0.836E+03   -.302E+01 0.536E+01 -.608E+00   -.678E-03 0.218E-02 -.524E-03
   -.503E+02 0.329E+03 0.193E+04   0.542E+02 -.329E+03 -.193E+04   -.289E+01 0.864E+00 0.419E+01   -.765E-02 0.432E-02 -.129E-02
   0.287E+02 0.135E+03 -.308E+04   -.292E+02 -.136E+03 0.309E+04   0.839E+00 0.153E+01 0.493E+00   -.412E-02 -.360E-02 -.716E-02
   0.122E+03 0.436E+03 0.127E+04   -.123E+03 -.440E+03 -.127E+04   0.149E+01 0.245E+01 0.416E+01   0.136E-02 0.754E-03 -.267E-02
   -.101E+01 0.220E+03 -.326E+04   0.238E+01 -.224E+03 0.326E+04   -.128E+01 0.482E+01 0.188E+01   0.436E-02 0.608E-02 -.137E-02
   -.167E+03 -.650E+03 0.211E+04   0.166E+03 0.652E+03 -.212E+04   0.638E+00 -.971E+00 0.626E+01   0.514E-02 0.346E-03 -.186E-02
   -.657E+03 0.308E+03 -.193E+04   0.662E+03 -.311E+03 0.194E+04   -.295E+01 0.292E+01 -.553E+01   0.947E-02 0.445E-02 -.236E-02
   -.434E+03 -.923E+02 0.239E+04   0.435E+03 0.934E+02 -.239E+04   -.599E+00 -.111E+01 0.443E+01   0.103E-02 0.143E-02 0.254E-02
   0.464E+03 0.498E+03 0.442E+03   -.465E+03 -.500E+03 -.442E+03   0.323E+00 0.169E+01 -.165E+00   -.563E-02 0.869E-02 -.224E-02
   0.738E+02 -.429E+03 0.384E+04   -.759E+02 0.429E+03 -.385E+04   0.173E+01 -.309E+00 0.555E+01   0.802E-03 -.116E-01 -.445E-02
   -.297E+03 -.630E+03 0.261E+03   0.296E+03 0.634E+03 -.262E+03   0.481E+00 -.390E+01 -.853E+00   0.368E-03 -.133E-02 -.416E-02
   -.209E+03 0.101E+03 -.376E+04   0.208E+03 -.994E+02 0.375E+04   0.123E+01 -.160E+01 0.311E+01   0.424E-02 0.223E-02 0.226E-02
   -.488E+03 -.363E+03 0.323E+04   0.487E+03 0.363E+03 -.323E+04   0.180E+01 0.294E+00 0.243E+01   -.938E-02 -.305E-03 -.295E-02
   -.267E+03 -.350E+03 -.147E+04   0.270E+03 0.354E+03 0.148E+04   -.246E+01 -.461E+01 -.412E+01   -.619E-02 0.443E-03 -.270E-02
   0.193E+03 -.763E+03 0.192E+04   -.192E+03 0.768E+03 -.192E+04   -.488E+00 -.483E+01 0.254E+01   -.852E-02 -.104E-01 -.108E-01
   0.116E+03 -.422E+03 -.275E+04   -.114E+03 0.422E+03 0.276E+04   -.161E+01 -.554E+00 -.161E+01   -.645E-02 -.792E-02 -.731E-02
   0.244E+03 -.405E+03 0.121E+04   -.246E+03 0.408E+03 -.121E+04   0.125E+01 -.162E+01 0.415E+01   0.192E-02 0.539E-02 0.570E-03
   -.152E+03 -.268E+03 -.342E+04   0.153E+03 0.273E+03 0.341E+04   -.649E+00 -.478E+01 0.279E+01   0.105E-02 -.112E-02 -.294E-02
   0.322E+03 0.280E+03 0.249E+04   -.323E+03 -.281E+03 -.249E+04   0.182E+00 0.771E+00 0.644E+01   0.634E-02 -.369E-03 0.279E-02
   -.506E+03 -.510E+03 -.198E+04   0.509E+03 0.512E+03 0.199E+04   -.228E+01 -.201E+01 -.585E+01   0.765E-02 -.316E-02 -.263E-02
   0.574E+03 0.145E+03 -.934E+03   -.579E+03 -.148E+03 0.937E+03   0.201E+01 0.101E+01 -.155E+01   -.181E-02 0.236E-02 -.271E-02
   -.165E+03 0.198E+03 0.642E+03   0.168E+03 -.199E+03 -.645E+03   -.169E+01 0.624E+00 0.158E+01   -.173E-02 0.633E-03 -.242E-03
   -.301E+03 -.351E+03 0.123E+04   0.304E+03 0.354E+03 -.124E+04   -.124E+01 -.276E+01 0.249E+01   -.286E-02 -.665E-02 -.268E-02
   -.108E+03 0.130E+03 -.872E+03   0.107E+03 -.133E+03 0.877E+03   0.149E+01 0.137E+01 -.348E+01   0.473E-03 -.107E-02 -.101E-03
   -.206E+03 0.282E+03 0.952E+03   0.207E+03 -.285E+03 -.956E+03   -.223E+00 0.337E+01 0.286E+01   -.106E-04 0.610E-03 -.100E-02
   -.159E+03 0.751E+02 -.159E+04   0.162E+03 -.760E+02 0.160E+04   -.318E+01 0.101E+01 -.251E+01   -.189E-02 -.199E-03 -.799E-04
   0.102E+03 0.103E+02 0.172E+04   -.102E+03 -.106E+02 -.172E+04   0.382E+00 -.324E-01 0.161E+01   -.979E-03 -.739E-03 0.152E-02
   -.101E+03 -.515E+00 -.403E+03   0.101E+03 0.322E+00 0.407E+03   0.110E+01 0.519E+00 -.267E+01   -.342E-03 -.488E-02 -.463E-02
   0.144E+03 0.652E+02 0.161E+04   -.145E+03 -.652E+02 -.162E+04   0.129E+01 -.139E+00 0.187E+01   -.243E-03 0.122E-02 -.107E-02
   -.980E+02 0.171E+02 -.653E+03   0.987E+02 -.176E+02 0.658E+03   0.714E+00 0.359E+00 -.446E+01   0.672E-03 0.248E-02 0.144E-02
   -.500E+02 0.768E+02 0.632E+03   0.505E+02 -.783E+02 -.636E+03   -.638E+00 0.146E+01 0.302E+01   0.406E-02 -.545E-03 0.160E-02
   -.120E+03 0.837E+01 -.132E+04   0.122E+03 -.828E+01 0.132E+04   -.958E+00 -.605E-01 -.357E+01   0.188E-02 -.777E-03 -.364E-02
   0.154E+02 -.293E+02 0.174E+04   -.159E+02 0.296E+02 -.174E+04   -.107E+00 0.333E+00 0.155E+01   0.909E-03 -.125E-02 0.195E-02
   -.423E+03 0.542E+02 -.702E+03   0.428E+03 -.548E+02 0.708E+03   -.420E+01 0.132E+01 -.379E+01   0.258E-02 0.188E-02 -.184E-02
   0.177E+02 -.372E+03 0.851E+03   -.175E+02 0.375E+03 -.854E+03   -.707E+00 -.129E+01 0.261E+01   -.858E-03 -.233E-02 -.285E-02
   0.180E+03 0.531E+02 -.121E+04   -.182E+03 -.521E+02 0.121E+04   0.652E+00 -.443E+00 -.158E+01   0.826E-03 0.696E-03 0.196E-03
   0.885E+02 -.774E+02 0.239E+03   -.906E+02 0.808E+02 -.238E+03   0.960E+00 -.211E+01 -.182E+01   -.308E-03 0.268E-02 -.388E-02
   0.358E+02 -.240E+03 -.148E+04   -.379E+02 0.244E+03 0.149E+04   0.211E+01 -.209E+01 -.790E+00   -.407E-03 -.100E-02 -.174E-02
   0.216E+03 -.463E+03 -.501E+03   -.216E+03 0.467E+03 0.504E+03   0.147E+00 -.231E+01 -.201E+01   -.611E-02 -.441E-02 -.403E-02
   0.897E+02 -.144E+03 0.146E+04   -.909E+02 0.145E+03 -.147E+04   0.111E+01 -.154E+00 0.383E+01   -.167E-03 -.304E-02 0.246E-02
   -.783E+01 0.647E+02 0.116E+04   0.890E+01 -.654E+02 -.117E+04   -.373E+00 0.722E+00 0.576E+01   -.109E-02 0.312E-02 -.657E-03
   0.133E+03 -.157E+03 -.870E+03   -.133E+03 0.161E+03 0.871E+03   0.790E+00 -.154E+01 -.416E+00   0.151E-02 0.226E-02 -.873E-03
   0.494E+02 -.129E+03 0.280E+03   -.519E+02 0.131E+03 -.283E+03   0.129E+01 -.150E+01 0.167E+01   0.154E-02 0.533E-03 -.323E-04
   -.716E+02 -.269E+03 -.157E+04   0.711E+02 0.272E+03 0.158E+04   0.136E+00 -.230E+01 -.892E+00   0.115E-02 0.804E-04 -.406E-03
   0.253E+03 0.262E+03 0.781E+03   -.256E+03 -.265E+03 -.782E+03   0.161E+01 0.135E+01 0.676E+00   0.260E-02 0.608E-03 -.351E-02
   -.373E+02 -.127E+02 -.126E+04   0.383E+02 0.127E+02 0.127E+04   -.738E+00 -.238E+00 -.288E+01   -.651E-03 -.354E-02 -.137E-02
   -.684E+02 0.465E+02 0.156E+04   0.690E+02 -.472E+02 -.157E+04   -.705E+00 0.364E+00 0.353E+01   0.775E-03 0.145E-02 0.221E-02
   -.217E+03 -.890E+02 -.648E+03   0.219E+03 0.903E+02 0.653E+03   -.167E+01 -.821E+00 -.265E+01   0.755E-03 -.814E-03 -.208E-02
   0.347E+03 0.277E+03 -.783E+03   -.350E+03 -.278E+03 0.786E+03   0.183E+01 0.146E+01 -.254E+01   -.242E-02 0.306E-02 -.316E-02
   0.142E+03 -.124E+02 0.133E+04   -.144E+03 0.132E+02 -.133E+04   0.531E+00 -.325E+00 0.471E+01   0.947E-05 0.289E-02 0.311E-02
   -.533E+01 0.329E+03 0.623E+03   0.503E+01 -.333E+03 -.625E+03   -.980E+00 0.247E+01 0.210E+01   0.142E-02 0.229E-02 0.470E-03
   -.109E+03 -.163E+02 -.137E+04   0.109E+03 0.150E+02 0.137E+04   0.516E+00 0.125E+01 -.254E+01   0.201E-03 0.120E-02 -.782E-03
   -.920E+02 -.132E+03 0.379E+02   0.907E+02 0.130E+03 -.382E+02   -.163E-01 0.140E+01 0.251E+00   0.333E-04 -.341E-03 -.892E-03
   -.440E+02 0.231E+03 -.162E+04   0.432E+02 -.234E+03 0.162E+04   0.153E+00 0.208E+01 -.643E+00   0.146E-02 0.760E-04 -.614E-03
   0.195E+03 -.686E+02 0.107E+04   -.196E+03 0.701E+02 -.108E+04   0.335E+00 -.971E+00 0.379E+01   -.708E-03 -.147E-02 -.239E-02
   0.183E+03 0.177E+03 -.869E+03   -.184E+03 -.180E+03 0.871E+03   0.135E+00 0.138E+01 -.137E+01   0.288E-02 0.285E-02 -.142E-02
   -.575E+01 -.514E+01 -.406E+02   -.398E-12 -.179E-11 -.171E-11   0.570E+01 0.517E+01 0.408E+02   -.104E-03 -.164E-01 -.144E+00

 POSITION                                       TOTAL-FORCE (eV/Angst)
     13.17084      1.39171      1.94975        -0.303933     -1.130725     -0.669194
     12.37232      1.82603      4.04191         0.951237     -0.418043      0.376095
      3.63891      6.42403      1.54695         0.959707     -0.359014     -0.210921
      5.02033      6.18092      3.49202        -0.445716     -0.085351     -0.552916
      6.53477      1.54093      2.03512         0.675559     -0.260226     -0.374997
      7.93172      1.39171      4.00611        -1.108045     -1.042465     -0.921868
     16.08224      6.18092      2.46384        -0.514661     -1.048832      0.562919
     16.43118      6.34779      4.89655         0.148389     -0.162475      0.745329
      2.10894      1.39171      2.97793         0.993610     -0.911503      0.997313
      2.19659      1.39370      5.47877         0.219299     -0.046245      1.710100
      9.78449      6.14137      2.39043         0.944139      0.340411     -0.743195
     10.84312      6.18092      4.52020        -1.042010      0.030631     -1.354228
     15.21357      8.85327      2.24392         0.454337      0.510469      1.125499
      7.54742      4.18946      0.85760        -0.207446     -0.373035     -0.799211
      7.17375      4.91558      3.08454        -0.082796      0.057233      0.320466
      8.93551      1.37317      1.42116        -0.251402     -0.026140     -1.703764
     10.08514      0.12638      3.59863        -0.128987     -0.811477     -1.328892
      1.35096      4.91558      2.05636         1.004343      0.669667      1.456166
      1.89350      4.80885      4.69507         0.329258      0.507338      1.123366
      4.26235      0.12638      2.57045         0.692115     -0.636149      1.182120
      4.91764      9.36852      4.99855         0.103786      0.053934      0.746175
     12.65647      3.72991      1.96309         0.151042      1.709652     -0.110534
     12.99653      4.91558      4.11272         1.602537     -0.109168     -2.068447
     14.95612      2.97125      1.56063         0.547366     -0.026336     -0.085105
      0.23901      2.88847      2.66256        -0.272500     -0.265313     -0.295296
      6.02995      6.17577      0.94178        -0.415545      0.069105     -1.649446
      7.17375      7.44626      3.08454        -0.006458      0.209242     -1.333288
      7.86050      7.57826      5.43664         0.285721     -0.066638      1.058352
     10.01303      3.59403      1.41786         0.128916      0.138349     -0.866714
     10.08514      2.65705      3.59863         0.617881     -0.016764     -0.264939
      1.35096      7.44626      2.05636        -0.106327      0.199804      0.417468
      1.69687      7.64592      4.47591         0.362246     -0.203592      1.127065
      4.26235      2.65705      2.57045        -0.644185      0.869521      0.939935
      4.88675      2.92953      5.06101         0.106467     -0.122348      0.692445
     12.88934      8.12262      1.88283        -0.744423     -1.088823     -0.250237
     12.99653      7.44626      4.11272         0.465590     -0.359870     -1.062886
      0.53899      1.63095      4.32292        -2.946573     -1.355728      1.461377
     16.00670      1.23013      1.92642         1.230653     -0.403542     -0.778959
      8.00634      6.18092      1.40713         1.252756      0.416606     -3.030038
      8.64443      6.16613      4.17674        -0.026236     -1.207838      1.893606
     10.91773      1.39171      1.92122         1.034479     -0.098693     -0.898487
     10.77121      1.36510      5.12838         0.382379      0.057198      3.376295
      1.91804      6.17544      0.50996         0.212315     -0.234614     -3.724774
      2.76722      6.18092      3.46349         1.188522      0.320643      1.414523
      4.76556      1.39772      1.02935         0.367645     -0.086781     -3.865334
      5.67861      1.39171      3.97758         1.432429     -0.187131      0.766689
     13.82913      6.18092      2.43531        -0.138725     -0.113620     -0.831103
     14.38178      6.18882      5.07715         0.776416      0.027680      2.468426
     13.34156      2.70387      0.33769        -0.643320      0.669644     -3.462903
     13.99844      3.00295      3.46826         0.522183      0.753590      1.977907
      5.26426      7.79215      1.92599        -0.527653      1.988761     -0.211983
      5.91877      7.58376      4.81308        -1.243427      0.528577      2.142786
      8.17565      3.00295      2.44008        -1.111926      1.320419     -0.666196
      8.65758      2.96687      5.08220         0.020267      1.655802      3.160653
     16.70825      7.93986      3.59810        -0.173430      1.652005      1.415703
     16.39125      7.63823      1.02061        -0.123333      0.410431     -3.157970
      2.23084      3.03257      1.73632         0.693744      0.007622     -3.155089
      2.93654      3.00295      4.49645         0.571013      1.671714      0.671851
     11.08705      7.79215      2.95417        -1.256684      0.892874     -0.877023
     11.74252      7.56587      5.69117        -0.384978      1.249578      3.879981
      5.26426      4.56969      1.92599        -0.865428     -1.338984     -0.615538
      5.85484      4.68133      4.70150         0.250402     -0.257265      2.444247
     13.90366      9.41892      0.71790        -0.033818     -0.381701     -3.969074
     13.47967      9.46531      3.46126         0.465648      0.433195      2.487043
      0.02514      4.56969      3.98236        -1.329277     -0.395238      0.952151
     16.38514      4.42083      1.25613        -1.052546      0.461137     -2.901215
      8.17565      9.35889      2.44008        -1.278198     -1.270180     -0.517342
      8.66396      9.39437      5.15280         0.394685     -0.089244      2.339569
     11.08705      4.56969      2.95417        -1.305724     -0.387472      0.004745
     11.75499      4.79485      5.69471        -0.672767     -1.365183      3.931705
      2.38003      9.25505      1.77179        -0.855256      0.508551     -2.759265
      2.93654      9.35889      4.49645        -0.295347     -1.647639      0.698303
    total drift:                               -0.056191      0.017387     -0.000637

  FREE ENERGIE OF THE ION-ELECTRON SYSTEM (eV)
  free  energy   TOTEN  =      -338.71245261 eV

  energy  without entropy=     -337.57721465  energy(sigma->0) =     -338.14483363