 vasp.5.4.4.18Apr17-6-g9f103f2a35 (build Aug 13 2019 17:33:20) gamma-only

 executed on             LinuxIFC date 2020.05.11  20:51:20

 INCAR:
 POTCAR:    PAW_PBE Ni_pv 06Sep2000
 POTCAR:    PAW_PBE S 06Sep2000
 POTCAR:    PAW_PBE Ni_pv 06Sep2000
   VRHFIN =Ni:

   TITEL  = PAW_PBE Ni_pv 06Sep2000
   POMASS =   58.690; ZVAL   =   16.000    mass and valenz
   ENMAX  =  367.986; ENMIN  =  275.989 eV

 POTCAR:    PAW_PBE S 06Sep2000
   VRHFIN =S : s2p4

   TITEL  = PAW_PBE S 06Sep2000
   POMASS =   32.066; ZVAL   =    6.000    mass and valenz
   ENMAX  =  258.689; ENMIN  =  194.016 eV

 Optimization of the real space projectors (new method)

 maximal supplied QI-value         = 18.90
 optimisation between [QCUT,QGAM] = [ 10.77, 21.73] = [ 32.49,132.25] Ry
 Optimized for a Real-space Cutoff    1.38 Angstroem

   l    n(q)    QCUT    max X(q) W(low)/X(q) W(high)/X(q)  e(spline)
   1      8    10.771     2.836    0.40E-04    0.29E-04    0.12E-06
   1      8    10.771     4.023    0.10E-03    0.48E-04    0.29E-06
   2      8    10.771    73.368    0.42E-03    0.97E-04    0.44E-06
   2      8    10.771    69.010    0.42E-03    0.99E-04    0.45E-06
   0      9    10.771    54.797    0.10E-03    0.56E-04    0.74E-07
   0      9    10.771    24.266    0.89E-04    0.49E-04    0.67E-07
 Optimization of the real space projectors (new method)

 maximal supplied QI-value         = 19.84
 optimisation between [QCUT,QGAM] = [ 10.71, 21.63] = [ 32.15,130.99] Ry
 Optimized for a Real-space Cutoff    1.19 Angstroem

   l    n(q)    QCUT    max X(q) W(low)/X(q) W(high)/X(q)  e(spline)
   0      8    10.715   187.594    0.41E-03    0.53E-04    0.66E-07
   0      8    10.715   164.243    0.41E-03    0.53E-04    0.65E-07
   1      7    10.715    67.533    0.19E-03    0.59E-03    0.68E-07
   1      7    10.715    50.729    0.19E-03    0.58E-03    0.67E-07
  PAW_PBE Ni_pv 06Sep2000               :
  PAW_PBE S 06Sep2000                   :

 POSCAR: Type_036 Type_136
  positions in cartesian coordinates
 exchange correlation table for  LEXCH =        8
   RHO(1)=    0.500       N(1)  =     2000
   RHO(2)=  100.500       N(2)  =     4000

 ion  position               nearest neighbor table
   1  0.780  0.145  0.121-  63 2.07  49 2.07  41 2.25  50 2.36  64 2.36
   2  0.809  0.145  0.293-  37 2.04  64 2.08  50 2.08  42 2.10
   3  0.224  0.645  0.094-  43 2.02  44 2.20  51 2.23  61 2.23   4 2.34
   4  0.297  0.645  0.216-  62 2.18  52 2.18  44 2.25  51 2.26  61 2.26   3 2.34  27 2.53  14 2.53

   5  0.470  0.145  0.248-  67 2.11  53 2.11  54 2.19  68 2.19  46 2.25  30 2.53  17 2.53
   6  0.952  0.645  0.152-  66 2.08  56 2.08  47 2.25  55 2.36  65 2.36   7 2.41  31 2.53  18 2.53

[...]

  37  0.911  0.145  0.360-   2 2.04  25 2.04  12 2.04
  38  0.991  0.145  0.182-  12 2.09  25 2.09  11 2.19  24 2.19   8 2.25
  39  0.474  0.645  0.087-   9 2.01  26 2.02  13 2.02  27 2.26  14 2.26
  40  0.509  0.645  0.278-  15 2.14  28 2.14   9 2.16  10 2.25  27 2.36  14 2.36
  41  0.647  0.145  0.119-  16 2.04  29 2.04   1 2.25  30 2.26  17 2.26  42 2.67
  42  0.685  0.145  0.279-   2 2.10  30 2.15  17 2.15  41 2.67
  43  0.118  0.645  0.034-   3 2.02  18 2.07  31 2.07
  44  0.164  0.645  0.214-  19 2.10  32 2.10   3 2.20   4 2.25  31 2.36  18 2.36
  45  0.272  0.145  0.065-  33 2.01  20 2.01
  46  0.336  0.145  0.246-  34 2.02  21 2.02   5 2.25  33 2.36  20 2.36
  47  0.819  0.645  0.151-  35 2.22  22 2.22   6 2.25  36 2.26  23 2.26
  48  0.831  0.645  0.334-   7 2.00  36 2.08  23 2.08
  49  0.817  0.293  0.035-  22 2.02  24 2.06   1 2.07
  50  0.829  0.314  0.214-   2 2.08  24 2.12  25 2.12  22 2.14  23 2.25   1 2.36
  51  0.312  0.814  0.119-  26 1.99   3 2.23  20 2.25   4 2.26  27 2.26
  52  0.359  0.783  0.302-  21 2.00  28 2.09  27 2.12   4 2.18  62 2.64
  53  0.484  0.325  0.174-  29 2.03  14 2.08   5 2.11  30 2.13  15 2.55
  54  0.539  0.269  0.335-  15 1.98  30 2.07   5 2.19  68 2.37
  55  0.001  0.814  0.246-   7 2.07  32 2.10  12 2.14   6 2.36  31 2.36  56 2.77
  56  0.967  0.822  0.079-   6 2.08  11 2.10  31 2.10  55 2.77
  57  0.139  0.328  0.117-  18 2.05   8 2.07  33 2.08  19 2.56  58 2.73
  58  0.188  0.277  0.275-  19 1.99  34 2.04  33 2.17   8 2.21  72 2.53  57 2.73
  59  0.657  0.814  0.183-   9 2.20  17 2.25  36 2.26  10 2.26  35 2.32  60 2.75
  60  0.691  0.800  0.349-  10 2.03  36 2.04  59 2.75
  61  0.312  0.477  0.119-  13 1.99   3 2.23  33 2.25   4 2.26  14 2.26
  62  0.359  0.507  0.302-  34 2.00  15 2.09  14 2.12   4 2.18  52 2.64
  63  0.817  0.998  0.035-  35 2.02  11 2.06   1 2.07
  64  0.829  0.977  0.214-   2 2.08  11 2.12  12 2.12  35 2.14  36 2.25   1 2.36
  65  0.001  0.477  0.246-   7 2.07  19 2.10  25 2.14   6 2.36  18 2.36  66 2.77
  66  0.967  0.469  0.079-   6 2.08  24 2.10  18 2.10  65 2.77
  67  0.484  0.966  0.174-  16 2.03  27 2.08   5 2.11  17 2.13  28 2.55
  68  0.539  0.022  0.335-  28 1.98  17 2.07   5 2.19  54 2.37
  69  0.657  0.477  0.183-   9 2.20  30 2.25  23 2.26  10 2.26  22 2.32  70 2.75
  70  0.691  0.491  0.349-  10 2.03  23 2.04  69 2.75
  71  0.139  0.963  0.117-  31 2.05   8 2.07  20 2.08  32 2.56  72 2.73
  72  0.188  0.013  0.275-  32 1.99  21 2.04  20 2.17   8 2.21  58 2.53  71 2.73

  LATTYP: Found a simple orthorhombic cell.
 ALAT       =     9.5784100000
 B/A-ratio  =     1.6880763216
 C/A-ratio  =     1.7627867312

  Lattice vectors:

 A1 = (   0.0000000000,   9.5784100000,   0.0000000000)
 A2 = (   0.0000000000,   0.0000000000, -16.1690871197)
 A3 = ( -16.8846940542,   0.0000000000,   0.0000000000)

Analysis of symmetry for initial positions (statically):
 Subroutine PRICEL returns:
 Original cell was already a primitive cell.

 Routine SETGRP: Setting up the symmetry group for a
 simple orthorhombic supercell.

 Subroutine GETGRP returns: Found  2 space group operations
 (whereof  1 operations were pure point group operations)
 out of a pool of  8 trial point group operations.

The static configuration has the point symmetry C_1 .
 The point group associated with its full space group is C_1h.

Analysis of symmetry for dynamics (positions and initial velocities):
 Subroutine PRICEL returns:
 Original cell was already a primitive cell.

 Routine SETGRP: Setting up the symmetry group for a
 simple orthorhombic supercell.

 Subroutine GETGRP returns: Found  2 space group operations
 (whereof  1 operations were pure point group operations)
 out of a pool of  8 trial point group operations.

The dynamic configuration has the point symmetry C_1 .
 The point group associated with its full space group is C_1h.

 Subroutine INISYM returns: Found  2 space group operations
 (whereof  1 operations are pure point group operations),
 and found     1 'primitive' translations

 KPOINTS: gamma-point-only calculation. no periodi

Automatic generation of k-mesh.
Space group operators:
 irot       det(A)        alpha          n_x          n_y          n_z        tau_x        tau_y        tau_z
    1     1.000000     0.000000     1.000000     0.000000     0.000000     0.000000     0.000000     0.000000
    2    -1.000000   180.000000     0.000000     1.000000     0.000000     0.000000     0.290594    -0.000000

 Subroutine IBZKPT returns following result:

 Found      1 irreducible k-points:

 Following reciprocal coordinates:
            Coordinates               Weight
  0.000000  0.000000  0.000000      1.000000

 Following cartesian coordinates:
            Coordinates               Weight
  0.000000  0.000000  0.000000      1.000000

 SYSTEM =  "Millerite NiS"
 POSCAR =  Type_036 Type_136

 Startparameter for this run:
   NWRITE =      2    write-flag & timer
   PREC   = normal    normal or accurate (medium, high low for compatibility)
   ISTART =      0    job   : 0-new  1-cont  2-samecut
   ICHARG =      2    charge: 1-file 2-atom 10-const
   ISPIN  =      1    spin polarized calculation?
   LNONCOLLINEAR =      F non collinear calculations
   LSORBIT =      F    spin-orbit coupling
   INIWAV =      1    electr: 0-lowe 1-rand  2-diag
   LASPH  =      F    aspherical Exc in radial PAW
   METAGGA=      F    non-selfconsistent MetaGGA calc.

 Electronic Relaxation 1
   ENCUT  =  450.0 eV  33.07 Ry    5.75 a.u.  29.20 16.57 27.97*2*pi/ulx,y,z
   ENINI  =  450.0     initial cutoff
   ENAUG  =  703.4 eV  augmentation charge cutoff
   NELM   =    100;   NELMIN=  2; NELMDL= -5     # of ELM steps
   EDIFF  = 0.1E-03   stopping-criterion for ELM
   LREAL  =      T    real-space projection
   NLSPLINE    = F    spline interpolate recip. space projectors
   LCOMPAT=      F    compatible to vasp.4.4
   GGA_COMPAT  = T    GGA compatible to vasp.4.4-vasp.4.6
   LMAXPAW     = -100 max onsite density
   LMAXMIX     =    2 max onsite mixed and CHGCAR
   VOSKOWN=      0    Vosko Wilk Nusair interpolation
   ROPT   =   -0.00050  -0.00050
 Ionic relaxation
   EDIFFG = 0.1E-02   stopping-criterion for IOM
   NSW    =      0    number of steps for IOM
   NBLOCK =      1;   KBLOCK =      1    inner block; outer block
   IBRION =     -1    ionic relax: 0-MD 1-quasi-New 2-CG
   NFREE  =      0    steps in history (QN), initial steepest desc. (CG)
   ISIF   =      2    stress and relaxation
   IWAVPR =     10    prediction:  0-non 1-charg 2-wave 3-comb
   ISYM   =      2    0-nonsym 1-usesym 2-fastsym
   LCORR  =      T    Harris-Foulkes like correction to forces

   POTIM  = 0.5000    time-step for ionic-motion
   TEIN   =    0.0    initial temperature
   TEBEG  =    0.0;   TEEND  =   0.0 temperature during run
   SMASS  =  -3.00    Nose mass-parameter (am)
   estimated Nose-frequenzy (Omega)   =  0.10E-29 period in steps =****** mass=  -0.652E-26a.u.
   SCALEE = 1.0000    scale energy and forces
   NPACO  =    256;   APACO  = 16.0  distance and # of slots for P.C.
   PSTRESS=    0.0 pullay stress

  Mass of Ions in am
   POMASS =  58.69 32.07
  Ionic Valenz
   ZVAL   =  16.00  6.00
  Atomic Wigner-Seitz radii
  virtual crystal weights
   VCA    =   1.00  1.00
   NELECT =     792.0000    total number of electrons
   NUPDOWN=      -1.0000    fix difference up-down

 DOS related values:
   EMIN   =  10.00;   EMAX   =-10.00  energy-range for DOS
   EFERMI =   0.00
   ISMEAR =     0;   SIGMA  =   0.20  broadening in eV -4-tet -1-fermi 0-gaus

 Electronic relaxation 2 (details)
   IALGO  =     38    algorithm
   LDIAG  =      T    sub-space diagonalisation (order eigenvalues)
   LSUBROT=      F    optimize rotation matrix (better conditioning)
   TURBO    =      0    0=normal 1=particle mesh
   IRESTART =      0    0=no restart 2=restart with 2 vectors
   NREBOOT  =      0    no. of reboots
   NMIN     =      0    reboot dimension
   EREF     =   0.00    reference energy to select bands
   IMIX   =      4    mixing-type and parameters
     AMIX     =   0.40;   BMIX     =  1.00
     AMIX_MAG =   1.60;   BMIX_MAG =  1.00
     AMIN     =   0.10
     WC   =   100.;   INIMIX=   1;  MIXPRE=   1;  MAXMIX= -45

 Intra band minimization:
   WEIMIN = 0.0000     energy-eigenvalue tresh-hold
   EBREAK =  0.53E-07  absolut break condition
   DEPER  =   0.30     relativ break condition

   TIME   =   0.40     timestep for ELM

  volume/ion in A,a.u.               =      36.32       245.10
[...]
  Fock        0.00000     0.00000     0.00000     0.00000     0.00000     0.00000
  Total     125.31572   137.16490   150.50571     0.00000     0.00000    -0.44514
  in kB      76.77928    84.03911    92.21285     0.00000     0.00000    -0.27273

 VOLUME and BASIS-vectors are now :
  energy-cutoff  :      450.00
  volume of cell :     2615.00
      direct lattice vectors                 reciprocal lattice vectors
    16.884694054  0.000000000  0.000000000     0.059225237  0.000000000  0.000000000
     0.000000000  9.578410000  0.000000000     0.000000000  0.104401461  0.000000000
     0.000000000  0.000000000 16.169087120     0.000000000  0.000000000  0.061846411

  length of vectors
    16.884694054  9.578410000 16.169087120     0.059225237  0.104401461  0.061846411

 FORCES acting on ions
    electron-ion (+dipol)            ewald-force                    non-local-force                 convergence-correction
   0.533E+03 -.872E-03 0.201E+04   -.536E+03 -.536E-06 -.201E+04   0.326E+01 0.000E+00 0.601E+01   0.399E-01 -.118E-06 0.122E-01
   0.417E+03 -.775E-03 -.294E+04   -.420E+03 -.922E-07 0.295E+04   0.724E+00 0.000E+00 -.598E+01   0.364E-01 -.903E-07 -.214E-01
   0.159E+03 -.864E-03 0.284E+04   -.161E+03 -.136E-06 -.284E+04   0.225E+01 0.000E+00 0.506E+01   -.292E-01 -.194E-06 0.126E-01
   0.631E+03 -.813E-03 -.120E+04   -.632E+03 0.177E-06 0.120E+04   0.188E+01 0.000E+00 -.178E+01   -.383E-01 -.151E-06 0.178E-02
   0.680E+03 -.894E-03 -.127E+04   -.686E+03 0.819E-06 0.127E+04   0.494E+01 0.000E+00 0.141E+01   -.278E-01 0.110E-07 0.137E-01
   0.394E+03 -.800E-03 0.131E+04   -.399E+03 0.624E-09 -.131E+04   0.503E+01 0.000E+00 0.351E+01   -.159E-01 0.174E-07 -.306E-01
   -.288E+03 -.968E-03 -.317E+04   0.285E+03 0.704E-07 0.317E+04   0.293E+01 0.000E+00 0.326E+00   -.208E-01 -.956E-07 -.238E-01
   0.590E+03 -.841E-03 0.258E+03   -.597E+03 0.337E-06 -.261E+03   0.608E+01 0.000E+00 0.370E+01   0.491E-02 -.124E-06 -.453E-02
   -.479E+03 -.741E-03 0.174E+04   0.482E+03 0.127E-05 -.174E+04   -.296E+01 0.000E+00 0.353E+01   0.523E-01 -.294E-06 0.228E-01
   0.103E+03 -.785E-03 -.233E+04   -.106E+03 0.258E-06 0.234E+04   0.197E+01 0.000E+00 -.686E+01   0.688E-01 -.203E-06 0.155E-01
   -.661E+03 0.189E+03 0.240E+04   0.667E+03 -.191E+03 -.241E+04   -.479E+01 0.283E+01 0.569E+01   -.327E-02 0.591E-02 0.194E-01
   -.605E+03 0.392E+03 -.236E+04   0.609E+03 -.396E+03 0.236E+04   -.292E+01 0.272E+01 -.406E+01   -.871E-02 0.275E-01 -.151E-01
   -.393E+02 0.780E+03 0.386E+04   0.372E+02 -.777E+03 -.386E+04   0.250E+01 -.405E+01 -.231E+01   -.345E-01 -.162E-01 -.959E-03
   0.252E+02 0.494E+03 0.317E+03   -.271E+02 -.495E+03 -.320E+03   0.173E+01 0.215E+01 0.670E+00   -.404E-01 -.640E-02 0.955E-02
   -.535E+02 0.773E+02 -.339E+04   0.561E+02 -.783E+02 0.340E+04   -.327E+01 0.175E+01 -.415E+01   -.559E-02 -.366E-02 0.141E-01
   0.953E+02 0.427E+03 0.345E+04   -.974E+02 -.422E+03 -.345E+04   0.189E+01 -.517E+01 -.556E+00   0.251E-01 -.142E-01 -.342E-02
   -.529E+03 0.362E+03 -.815E+03   0.534E+03 -.367E+03 0.816E+03   -.354E+01 0.440E+01 -.140E+01   0.522E-01 -.684E-02 0.242E-01
   0.893E+02 0.512E+03 0.198E+04   -.918E+02 -.513E+03 -.199E+04   0.206E+01 0.171E+01 0.496E+01   -.120E-01 -.127E-01 -.158E-01
   0.342E+02 0.887E+02 -.243E+04   -.331E+02 -.884E+02 0.243E+04   -.173E+01 0.262E+00 -.238E+01   0.219E-03 -.292E-01 -.191E-01
   -.161E+03 0.116E+03 0.133E+04   0.165E+03 -.120E+03 -.134E+04   -.324E+01 0.235E+01 0.607E+01   -.361E-01 0.300E-01 0.939E-02
   0.283E+03 -.200E+02 -.310E+04   -.280E+03 0.166E+02 0.310E+04   -.304E+01 0.383E+01 0.572E+00   -.389E-01 0.184E-01 -.156E-01
   0.337E+03 -.439E+03 0.255E+04   -.340E+03 0.442E+03 -.256E+04   0.139E+01 -.172E+01 0.729E+01   0.348E-01 -.259E-02 0.207E-01
   -.274E+03 0.349E+03 -.167E+04   0.276E+03 -.352E+03 0.167E+04   -.121E+01 0.238E+01 -.445E+01   0.795E-02 0.372E-02 -.845E-02
   -.661E+03 -.189E+03 0.240E+04   0.667E+03 0.191E+03 -.241E+04   -.479E+01 -.283E+01 0.569E+01   -.327E-02 -.591E-02 0.194E-01
   -.605E+03 -.392E+03 -.236E+04   0.609E+03 0.396E+03 0.236E+04   -.292E+01 -.272E+01 -.406E+01   -.871E-02 -.275E-01 -.151E-01
   -.393E+02 -.780E+03 0.386E+04   0.372E+02 0.777E+03 -.386E+04   0.250E+01 0.405E+01 -.231E+01   -.345E-01 0.162E-01 -.959E-03
   0.252E+02 -.494E+03 0.317E+03   -.271E+02 0.495E+03 -.320E+03   0.173E+01 -.215E+01 0.670E+00   -.404E-01 0.640E-02 0.955E-02
   -.535E+02 -.773E+02 -.339E+04   0.561E+02 0.783E+02 0.340E+04   -.327E+01 -.175E+01 -.415E+01   -.559E-02 0.366E-02 0.141E-01
   0.953E+02 -.427E+03 0.345E+04   -.974E+02 0.422E+03 -.345E+04   0.189E+01 0.517E+01 -.556E+00   0.251E-01 0.142E-01 -.342E-02
   -.529E+03 -.362E+03 -.815E+03   0.534E+03 0.367E+03 0.816E+03   -.354E+01 -.440E+01 -.140E+01   0.522E-01 0.684E-02 0.242E-01
   0.893E+02 -.512E+03 0.198E+04   -.918E+02 0.513E+03 -.199E+04   0.206E+01 -.171E+01 0.496E+01   -.120E-01 0.127E-01 -.158E-01
   0.342E+02 -.887E+02 -.243E+04   -.331E+02 0.884E+02 0.243E+04   -.173E+01 -.262E+00 -.238E+01   0.219E-03 0.292E-01 -.191E-01
   -.161E+03 -.116E+03 0.133E+04   0.165E+03 0.120E+03 -.134E+04   -.324E+01 -.235E+01 0.607E+01   -.361E-01 -.300E-01 0.939E-02
   0.283E+03 0.200E+02 -.310E+04   -.280E+03 -.166E+02 0.310E+04   -.304E+01 -.383E+01 0.572E+00   -.389E-01 -.184E-01 -.156E-01
   0.337E+03 0.439E+03 0.255E+04   -.340E+03 -.442E+03 -.256E+04   0.139E+01 0.172E+01 0.729E+01   0.348E-01 0.259E-02 0.207E-01
   -.274E+03 -.349E+03 -.167E+04   0.276E+03 0.352E+03 0.167E+04   -.121E+01 -.238E+01 -.445E+01   0.795E-02 -.372E-02 -.845E-02
   -.175E+03 -.950E-05 -.170E+04   0.176E+03 -.246E-07 0.171E+04   0.981E-02 0.000E+00 -.639E+00   0.359E-02 0.847E-08 -.173E-01
   -.370E+03 -.984E-05 0.234E+03   0.372E+03 0.304E-07 -.235E+03   0.292E+00 0.000E+00 -.894E+00   -.215E-02 -.358E-07 0.787E-02
   -.384E+03 -.239E-04 0.119E+04   0.388E+03 0.793E-06 -.119E+04   -.194E+01 0.000E+00 0.184E+01   0.382E-02 -.615E-07 0.254E-02
   -.696E+02 -.504E-04 -.979E+03   0.711E+02 0.225E-06 0.985E+03   0.449E+00 0.000E+00 -.438E+01   0.112E-01 -.365E-07 0.491E-02
   -.271E+03 -.315E-05 0.886E+03   0.271E+03 -.109E-05 -.889E+03   0.297E+00 0.000E+00 0.938E+00   0.351E-01 0.456E-07 0.640E-02
   -.105E+03 -.373E-05 -.100E+04   0.107E+03 -.718E-07 0.100E+04   -.113E+01 0.000E+00 -.166E+01   0.196E-01 0.216E-07 0.455E-03
   0.883E+02 0.697E-05 0.168E+04   -.883E+02 -.406E-07 -.168E+04   0.429E-01 0.000E+00 0.220E+01   -.499E-02 -.229E-07 0.164E-02
   -.187E+02 -.415E-04 -.513E+03   0.194E+02 0.492E-07 0.519E+03   0.505E+00 0.000E+00 -.448E+01   0.385E-02 -.207E-07 -.780E-02
   -.104E+03 0.605E-05 0.148E+04   0.105E+03 -.598E-07 -.149E+04   -.209E+00 0.000E+00 0.496E+00   -.164E-01 0.312E-07 0.171E-01
   -.798E+02 -.106E-05 -.391E+03   0.825E+02 0.526E-07 0.393E+03   -.345E+00 0.000E+00 -.171E+01   -.249E-01 0.332E-08 -.356E-02
   -.405E+02 0.451E-04 0.709E+03   0.416E+02 0.243E-07 -.712E+03   -.342E+00 0.000E+00 0.219E+01   -.678E-03 0.327E-07 0.421E-02
   -.114E+03 0.521E-05 -.148E+04   0.117E+03 0.137E-07 0.149E+04   -.193E+01 0.000E+00 -.239E+01   -.192E-01 -.146E-07 -.971E-02
   0.403E+02 -.946E+02 0.169E+04   -.401E+02 0.958E+02 -.170E+04   -.526E+00 -.582E+00 0.248E+01   0.641E-02 -.166E-02 0.108E-01
   0.685E+02 -.131E+03 -.342E+03   -.686E+02 0.133E+03 0.344E+03   -.950E+00 -.428E+00 -.163E+01   0.740E-02 -.102E-02 -.934E-03
   0.172E+03 -.319E+03 0.771E+03   -.174E+03 0.320E+03 -.774E+03   -.327E+00 -.786E+00 0.279E+01   -.244E-01 0.909E-02 0.119E-01
   0.250E+03 0.899E+02 -.128E+04   -.251E+03 -.891E+02 0.129E+04   0.438E-01 -.933E+00 -.299E+01   -.215E-01 0.217E-02 -.785E-03
   0.214E+03 0.299E+02 0.430E+03   -.216E+03 -.316E+02 -.434E+03   0.921E+00 0.156E+01 0.263E+01   -.945E-02 -.886E-03 0.645E-02
   -.142E+03 0.721E+02 -.153E+04   0.145E+03 -.694E+02 0.153E+04   -.222E+01 -.236E+01 -.276E+01   0.983E-02 -.578E-02 0.847E-02
   -.301E+02 -.106E+03 -.676E+03   0.294E+02 0.107E+03 0.679E+03   0.477E+00 -.130E+01 -.117E+01   -.678E-02 0.200E-01 -.106E-01
   0.396E+02 -.659E+02 0.132E+04   -.408E+02 0.656E+02 -.133E+04   0.855E+00 0.890E+00 0.414E+01   -.352E-02 0.311E-02 0.193E-02
   0.107E+03 0.106E+03 0.104E+04   -.108E+03 -.107E+03 -.104E+04   0.517E+00 0.148E+01 0.539E+01   0.121E-02 -.129E-01 0.577E-02
   0.208E+03 0.103E+03 -.109E+04   -.208E+03 -.101E+03 0.109E+04   -.382E+00 -.136E+01 -.336E+01   0.152E-02 -.130E-01 -.125E-01
   -.935E+01 -.671E+02 0.382E+03   0.772E+01 0.695E+02 -.384E+03   0.152E+01 -.157E+01 0.969E+00   0.275E-01 -.332E-02 0.916E-02
   -.430E+01 -.251E+03 -.153E+04   0.313E+01 0.254E+03 0.154E+04   0.825E+00 -.157E+01 -.126E+01   0.133E-01 -.567E-02 -.772E-02
   0.172E+03 0.319E+03 0.771E+03   -.174E+03 -.320E+03 -.774E+03   -.327E+00 0.786E+00 0.279E+01   -.244E-01 -.909E-02 0.119E-01
   0.250E+03 -.899E+02 -.128E+04   -.251E+03 0.891E+02 0.129E+04   0.438E-01 0.933E+00 -.299E+01   -.215E-01 -.217E-02 -.785E-03
   0.403E+02 0.946E+02 0.169E+04   -.401E+02 -.958E+02 -.170E+04   -.526E+00 0.582E+00 0.248E+01   0.641E-02 0.166E-02 0.108E-01
   0.685E+02 0.131E+03 -.342E+03   -.686E+02 -.133E+03 0.344E+03   -.950E+00 0.428E+00 -.163E+01   0.740E-02 0.102E-02 -.934E-03
   -.301E+02 0.106E+03 -.676E+03   0.294E+02 -.107E+03 0.679E+03   0.477E+00 0.130E+01 -.117E+01   -.678E-02 -.200E-01 -.106E-01
   0.396E+02 0.659E+02 0.132E+04   -.408E+02 -.656E+02 -.133E+04   0.855E+00 -.890E+00 0.414E+01   -.352E-02 -.311E-02 0.193E-02
   0.214E+03 -.299E+02 0.430E+03   -.216E+03 0.316E+02 -.434E+03   0.921E+00 -.156E+01 0.263E+01   -.945E-02 0.886E-03 0.645E-02
   -.142E+03 -.721E+02 -.153E+04   0.145E+03 0.694E+02 0.153E+04   -.222E+01 0.236E+01 -.276E+01   0.983E-02 0.578E-02 0.847E-02
   -.935E+01 0.671E+02 0.382E+03   0.772E+01 -.695E+02 -.384E+03   0.152E+01 0.157E+01 0.969E+00   0.275E-01 0.332E-02 0.916E-02
   -.430E+01 0.251E+03 -.153E+04   0.313E+01 -.254E+03 0.154E+04   0.825E+00 0.157E+01 -.126E+01   0.133E-01 0.567E-02 -.772E-02
   0.107E+03 -.106E+03 0.104E+04   -.108E+03 0.107E+03 -.104E+04   0.517E+00 -.148E+01 0.539E+01   0.121E-02 0.129E-01 0.577E-02
   0.208E+03 -.103E+03 -.109E+04   -.208E+03 0.101E+03 0.109E+04   -.382E+00 0.136E+01 -.336E+01   0.152E-02 0.130E-01 -.125E-01
   0.520E+01 -.606E-02 -.228E+02   0.568E-13 -.767E-12 -.909E-12   -.505E+01 -.666E-15 0.228E+02   -.362E-01 -.635E-06 0.867E-01

 POSITION                                       TOTAL-FORCE (eV/Angst)
     13.17084      1.39171      1.94975        -0.151221     -0.000000      1.073418
     13.65276      1.39171      4.73193        -1.926879     -0.000000      0.360094
      3.77940      6.18092      1.51268         0.792633     -0.000000     -0.212691
      5.02033      6.18092      3.49202         0.639492     -0.000000      0.228824
      7.93172      1.39171      4.00611        -0.860661     -0.000000      1.019022
     16.08224      6.18092      2.46384        -0.355480     -0.000000      1.371495
     15.96936      6.18092      4.87238         0.508126     -0.000000      0.942941
      2.10894      1.39171      2.97793        -1.189794     -0.000000      1.016802
      9.63181      6.18092      2.59761         0.405935     -0.000000     -0.934413
     10.84312      6.18092      4.52020        -0.624660     -0.000000     -0.734457
     15.37576      0.05441      1.88518         0.921669      0.673686     -0.034043
     15.90730      0.07369      4.34365         0.701262     -1.202267      0.183798
      6.63627      4.97375      0.54213         0.328647     -0.552180     -1.066292
      7.17375      4.91558      3.08454        -0.203292      1.063717     -1.841379
      8.03611      4.20997      5.10213        -0.631284      0.802461      0.637066
      9.40284      0.18097      1.28050        -0.221895     -0.366752     -1.287679
     10.08514      0.12638      3.59863         1.620285     -0.601402     -0.414752
      1.35096      4.91558      2.05636        -0.474250      0.449353      0.199650
      2.10404      4.31518      4.15589        -0.684734      0.482292      0.703396
      4.26235      0.12638      2.57045         1.112500     -1.094411      1.398674
      5.11168      9.26657      4.90929        -0.117283      0.479770      0.893530
     13.10552      4.15309      1.89909        -1.094049      0.877925      0.403001
     12.99653      4.91558      4.11272         0.371601     -0.220007     -1.420864
     15.37576      2.72902      1.88518         0.921669     -0.673686     -0.034043
     15.90730      2.70974      4.34365         0.701262      1.202267      0.183798
      6.63627      7.38809      0.54213         0.328647      0.552180     -1.066292
      7.17375      7.44626      3.08454        -0.203292     -1.063717     -1.841379
      8.03611      8.15187      5.10213        -0.631284     -0.802461      0.637066
      9.40284      2.60246      1.28050        -0.221895      0.366752     -1.287679
     10.08514      2.65705      3.59863         1.620285      0.601402     -0.414752
      1.35096      7.44626      2.05636        -0.474250     -0.449353      0.199650
      2.10404      8.04666      4.15589        -0.684734     -0.482292      0.703396
      4.26235      2.65705      2.57045         1.112500      1.094411      1.398674
      5.11168      3.09527      4.90929        -0.117283     -0.479770      0.893530
     13.10552      8.20875      1.89909        -1.094049     -0.877925      0.403001
     12.99653      7.44626      4.11272         0.371601      0.220007     -1.420864
     15.38475      1.39171      5.81696         0.743317     -0.000000      4.649321
     16.74052      1.39171      2.94940         2.119296     -0.000000     -1.609912
      8.00634      6.18092      1.40713         1.378901     -0.000000     -2.077498
      8.59001      6.18092      4.49167         1.964587     -0.000000      1.628167
     10.91773      1.39171      1.92122         0.952052     -0.000000     -1.951240
     11.56378      1.39171      4.50891         0.441632     -0.000000      2.160156
      1.99633      6.18092      0.55507         0.001521     -0.000000     -3.999379
      2.76722      6.18092      3.46349         1.230071     -0.000000      1.451491
      4.59904      1.39171      1.04833         1.226569     -0.000000     -4.604191
      5.67861      1.39171      3.97758         2.366047     -0.000000     -0.461456
     13.82913      6.18092      2.43531         0.710839     -0.000000     -1.468435
     14.03603      6.18092      5.39718         0.950794     -0.000000      2.928749
     13.79342      2.80623      0.56624        -0.349856      0.705218     -3.922527
     13.99844      3.00295      3.46826        -1.050190      1.630383      0.836074
      5.26426      7.79215      1.92599        -1.626547      1.043648     -0.087042
      6.05951      7.50213      4.88259        -1.549186     -0.127202      2.368409
      8.16443      3.10840      2.80846        -0.950936     -0.080229     -1.784533
      9.10084      2.57744      5.42282         0.597098      0.320250      3.235167
      0.02514      7.79215      3.98236        -0.162260      0.037695      1.321022
     16.33276      7.86928      1.27417        -0.381646      0.526572     -2.934756
      2.35148      3.13867      1.89058        -0.683943     -0.029570     -2.531158
      3.17026      2.65551      4.44797        -0.725680      0.576396      2.555206
     11.08705      7.79215      2.95417        -0.078480      0.786140     -1.227845
     11.66294      7.66241      5.63644        -0.329111      1.748388      3.429475
      5.26426      4.56969      1.92599        -1.626547     -1.043648     -0.087042
      6.05951      4.85971      4.88259        -1.549186      0.127202      2.368409
     13.79342      9.55561      0.56624        -0.349856     -0.705218     -3.922527
     13.99844      9.35889      3.46826        -1.050190     -1.630383      0.836074
      0.02514      4.56969      3.98236        -0.162260     -0.037695      1.321022
     16.33276      4.49256      1.27417        -0.381646     -0.526572     -2.934756
      8.16443      9.25344      2.80846        -0.950936      0.080229     -1.784533
      9.10084      0.20599      5.42282         0.597098     -0.320250      3.235167
     11.08705      4.56969      2.95417        -0.078480     -0.786140     -1.227845
     11.66294      4.69943      5.63644        -0.329111     -1.748388      3.429475
      2.35148      9.22317      1.89058        -0.683943      0.029570     -2.531158
      3.17026      0.12791      4.44797        -0.725680     -0.576396      2.555206
    total drift:                                0.117204     -0.006063      0.004426

  FREE ENERGIE OF THE ION-ELECTRON SYSTEM (eV)
  free  energy   TOTEN  =      -337.17023405 eV

  energy  without entropy=     -336.04930244  energy(sigma->0) =     -336.60976824