 vasp.5.4.4.18Apr17-6-g9f103f2a35 (build Aug 13 2019 17:33:20) gamma-only

 executed on             LinuxIFC date 2020.05.12  16:00:18

 INCAR:
 POTCAR:    PAW_PBE Ni_pv 06Sep2000
 POTCAR:    PAW_PBE S 06Sep2000
 POTCAR:    PAW_PBE Ni_pv 06Sep2000
   VRHFIN =Ni:

   TITEL  = PAW_PBE Ni_pv 06Sep2000
   POMASS =   58.690; ZVAL   =   16.000    mass and valenz
   ENMAX  =  367.986; ENMIN  =  275.989 eV

 POTCAR:    PAW_PBE S 06Sep2000
   VRHFIN =S : s2p4

   TITEL  = PAW_PBE S 06Sep2000
   POMASS =   32.066; ZVAL   =    6.000    mass and valenz
   ENMAX  =  258.689; ENMIN  =  194.016 eV

 Optimization of the real space projectors (new method)

 maximal supplied QI-value         = 18.90
 optimisation between [QCUT,QGAM] = [ 10.77, 21.73] = [ 32.49,132.25] Ry
 Optimized for a Real-space Cutoff    1.38 Angstroem

   l    n(q)    QCUT    max X(q) W(low)/X(q) W(high)/X(q)  e(spline)
   1      8    10.771     2.836    0.40E-04    0.29E-04    0.12E-06
   1      8    10.771     4.023    0.10E-03    0.48E-04    0.29E-06
   2      8    10.771    73.368    0.42E-03    0.97E-04    0.44E-06
   2      8    10.771    69.010    0.42E-03    0.99E-04    0.45E-06
   0      9    10.771    54.797    0.10E-03    0.56E-04    0.74E-07
   0      9    10.771    24.266    0.89E-04    0.49E-04    0.67E-07
 Optimization of the real space projectors (new method)

 maximal supplied QI-value         = 19.84
 optimisation between [QCUT,QGAM] = [ 10.71, 21.63] = [ 32.15,130.99] Ry
 Optimized for a Real-space Cutoff    1.19 Angstroem

   l    n(q)    QCUT    max X(q) W(low)/X(q) W(high)/X(q)  e(spline)
   0      8    10.715   187.594    0.41E-03    0.53E-04    0.66E-07
   0      8    10.715   164.243    0.41E-03    0.53E-04    0.65E-07
   1      7    10.715    67.533    0.19E-03    0.59E-03    0.68E-07
   1      7    10.715    50.729    0.19E-03    0.58E-03    0.67E-07
  PAW_PBE Ni_pv 06Sep2000               :
  PAW_PBE S 06Sep2000                   :

 POSCAR: Type_036 Type_136
  positions in cartesian coordinates
 exchange correlation table for  LEXCH =        8
   RHO(1)=    0.500       N(1)  =     2000
   RHO(2)=  100.500       N(2)  =     4000

 ion  position               nearest neighbor table
   1  0.337  0.722  0.157-  40 1.98  41 2.10  61 2.17   2 2.29  50 2.33  14 2.42
   2  0.525  0.601  0.223-  41 2.25  50 2.26  61 2.26   1 2.29  62 2.36  51 2.36  15 2.53  27 2.53

   3  0.675  0.451  0.351-  42 2.25  62 2.26  51 2.26  63 2.36  52 2.36  28 2.53  16 2.53
   4  0.762  0.341  0.464-  52 2.06  63 2.06  64 2.07  43 2.11
   5  0.553  0.119  0.068-  45 2.06  67 2.06  49 2.08  46 2.12   6 2.41  21 2.42
   6  0.758  0.035  0.138-  53 2.09  67 2.15  46 2.25  54 2.36  68 2.36   5 2.41  26 2.45  29 2.53
                            20 2.53
   7  0.058  0.734  0.394-  56 2.09  66 2.19  65 2.26  55 2.26  48 2.42  18 2.53  31 2.53
   8  0.908  0.884  0.266-  47 2.25  54 2.26  68 2.26  55 2.36  65 2.36  30 2.53  17 2.53
   9  0.141  0.318  0.180-  69 2.09  39 2.25  57 2.26  12 2.36  70 2.36  58 2.36  34 2.53  21 2.53

  10  0.291  0.168  0.308-  37 2.25  58 2.26  70 2.26  59 2.36  71 2.36  35 2.53  22 2.53
  11  0.442  0.024  0.421-  71 2.03  59 2.07  72 2.13  23 2.41  36 2.50
  12  0.957  0.483  0.120-  38 1.96  57 2.03  39 2.14  60 2.20   9 2.36  33 2.37  69 2.48
  13  0.994  0.128  0.395-  63 2.05  37 2.05  64 2.05  55 2.15
  14  0.553  0.663  0.094-  38 2.01  50 2.05  61 2.06   1 2.42  26 2.53
  15  0.709  0.416  0.155-  53 2.11  38 2.26  61 2.26  39 2.36  62 2.36  27 2.53   2 2.53
  16  0.860  0.266  0.283-  54 2.25  62 2.26  39 2.26  37 2.36  63 2.36   3 2.53  28 2.53
  17  0.093  0.700  0.198-  57 2.25  40 2.26  68 2.26  41 2.36  65 2.36  30 2.53   8 2.53
  18  0.243  0.549  0.326-  66 2.10  58 2.25  65 2.26  41 2.26  42 2.36   7 2.53  31 2.53
  19  0.379  0.413  0.437-  42 2.02  43 2.12  66 2.13  59 2.16
  20  0.943  0.850  0.070-  44 2.00  67 2.04  68 2.36  40 2.36  60 2.39   6 2.53  29 2.53
  21  0.326  0.133  0.113-  49 2.10  45 2.13  69 2.22  70 2.36  46 2.36   5 2.42  34 2.53   9 2.53

  22  0.476  0.983  0.241-  50 2.25  70 2.26  46 2.26  47 2.36  71 2.36  35 2.53  10 2.53
  23  0.627  0.833  0.369-  48 2.13  72 2.13  51 2.25  71 2.26  47 2.26  24 2.38  11 2.41
  24  0.745  0.703  0.461-  72 2.05  48 2.06  52 2.06  23 2.38
  25  0.039  0.370  0.428-  37 2.04  52 2.05  64 2.07  66 2.16
  26  0.669  0.847  0.106-  67 2.10  50 2.14  49 2.15  68 2.26   6 2.45  14 2.53
  27  0.749  0.641  0.189-  68 2.25  50 2.26  38 2.26  39 2.36  51 2.36  15 2.53   2 2.53
  28  0.899  0.491  0.317-  65 2.25  51 2.26  39 2.26  52 2.36  37 2.36   3 2.53  16 2.53
  29  0.982  0.074  0.104-  44 1.99  53 2.11  69 2.27  40 2.36  54 2.36   6 2.53  20 2.53
  30  0.133  0.924  0.232-  70 2.25  54 2.26  40 2.26  55 2.36  41 2.36   8 2.53  17 2.53
  31  0.283  0.774  0.360-  56 2.04  71 2.25  55 2.26  41 2.26  42 2.36   7 2.53  18 2.53
  32  0.443  0.651  0.468-  42 2.02  56 2.10  43 2.11  72 2.13
  33  0.152  0.392  0.048-  45 2.05  57 2.05  69 2.11  60 2.19  12 2.37
  34  0.366  0.358  0.147-  45 2.09  61 2.25  57 2.26  46 2.36  58 2.36  21 2.53   9 2.53
  35  0.516  0.207  0.275-  62 2.25  58 2.26  46 2.26  47 2.36  59 2.36  10 2.53  22 2.53
  36  0.663  0.068  0.389-  47 2.04  63 2.16  59 2.17  48 2.22  11 2.50
  37  0.064  0.262  0.341-  25 2.04  13 2.05  10 2.25  16 2.36  28 2.36
  38  0.763  0.563  0.085-  12 1.96  14 2.01  15 2.26  27 2.26  60 2.73
  39  0.914  0.412  0.213-  12 2.14   9 2.25  16 2.26  28 2.26  27 2.36  15 2.36
  40  0.147  0.846  0.128-   1 1.98  17 2.26  30 2.26  20 2.36  29 2.36  44 2.77
  41  0.297  0.696  0.256-   1 2.10   2 2.25  31 2.26  18 2.26  30 2.36  17 2.36
  42  0.447  0.545  0.384-  19 2.02  32 2.02   3 2.25  31 2.36  18 2.36  43 2.53
  43  0.547  0.436  0.492-  32 2.11   4 2.11  19 2.12  42 2.53
  44  0.007  0.982  0.017-  29 1.99  20 2.00  40 2.77  67 2.78
  45  0.366  0.285  0.051-  33 2.05   5 2.06  34 2.09  21 2.13
  46  0.530  0.129  0.171-   5 2.12   6 2.25  22 2.26  35 2.26  34 2.36  21 2.36
  47  0.680  0.979  0.299-  36 2.04   8 2.25  23 2.26  35 2.36  22 2.36
  48  0.808  0.852  0.415-  24 2.06  23 2.13  36 2.22   7 2.42
  49  0.467  0.960  0.061-   5 2.08  21 2.10  26 2.15  50 2.73
  50  0.528  0.798  0.171-  14 2.05  26 2.14  22 2.25  27 2.26   2 2.26   1 2.33  49 2.73
  51  0.678  0.648  0.299-  23 2.25  28 2.26   3 2.26  27 2.36   2 2.36
  52  0.829  0.497  0.427-  25 2.05   4 2.06  24 2.06  28 2.36   3 2.36
  53  0.774  0.224  0.103-   6 2.09  15 2.11  29 2.11  54 2.78
  54  0.911  0.081  0.214-  16 2.25   8 2.26  30 2.26   6 2.36  29 2.36  53 2.78
  55  0.062  0.931  0.342-  13 2.15  31 2.26   7 2.26  30 2.36   8 2.36
  56  0.223  0.745  0.452-  31 2.04   7 2.09  32 2.10
  57  0.145  0.515  0.129-  12 2.03  33 2.05  17 2.25  34 2.26   9 2.26  60 2.33
  58  0.295  0.364  0.257-  18 2.25  10 2.26  35 2.26   9 2.36  34 2.36
  59  0.445  0.214  0.385-  11 2.07  19 2.16  36 2.17  35 2.36  10 2.36
  60  0.998  0.608  0.039-  33 2.19  12 2.20  57 2.33  20 2.39  38 2.73
  61  0.477  0.512  0.128-  14 2.06   1 2.17  34 2.25  15 2.26   2 2.26
  62  0.628  0.362  0.256-  35 2.25   3 2.26  16 2.26   2 2.36  15 2.36
  63  0.778  0.212  0.384-  13 2.05   4 2.06  36 2.16  16 2.36   3 2.36
  64  0.975  0.232  0.483-  13 2.05  25 2.07   4 2.07
  65  0.011  0.645  0.299-  28 2.25   7 2.26  18 2.26   8 2.36  17 2.36
  66  0.160  0.507  0.414-  18 2.10  19 2.13  25 2.16   7 2.19
  67  0.742  0.965  0.040-  20 2.04   5 2.06  26 2.10   6 2.15  44 2.78
  68  0.861  0.795  0.171-  27 2.25  26 2.26  17 2.26   8 2.26   6 2.36  20 2.36
  69  0.095  0.232  0.094-   9 2.09  33 2.11  21 2.22  29 2.27  12 2.48
  70  0.244  0.079  0.214-  30 2.25  22 2.26  10 2.26   9 2.36  21 2.36
  71  0.395  0.928  0.342-  11 2.03  31 2.25  23 2.26  10 2.36  22 2.36
  72  0.531  0.814  0.460-  24 2.05  11 2.13  23 2.13  32 2.13

  LATTYP: Found a base centered orthorhombic cell.
 ALAT       =    11.4527836704
 B/A-ratio  =     1.4485816945
 C/A-ratio  =     1.7908432109

  Lattice vectors:

 A1 = (  10.0797329849,   0.0000000000,   0.0000000000)
 A2 = (  -3.5732980427,  -9.4251025535,   0.0000000000)
 A3 = (   0.0000000000,   0.0000000000, -20.5101398818)

Analysis of symmetry for initial positions (statically):
 Subroutine PRICEL returns:
 Original cell was already a primitive cell.

 Routine SETGRP: Setting up the symmetry group for a
 base centered orthorhombic supercell.

 Subroutine GETGRP returns: Found  1 space group operations
 (whereof  1 operations were pure point group operations)
 out of a pool of  8 trial point group operations.

The static configuration has the point symmetry C_1 .

Analysis of symmetry for dynamics (positions and initial velocities):
 Subroutine PRICEL returns:
 Original cell was already a primitive cell.

 Routine SETGRP: Setting up the symmetry group for a
 base centered orthorhombic supercell.

 Subroutine GETGRP returns: Found  1 space group operations
 (whereof  1 operations were pure point group operations)
 out of a pool of  8 trial point group operations.

The dynamic configuration has the point symmetry C_1 .

 Subroutine INISYM returns: Found  1 space group operations
 (whereof  1 operations are pure point group operations),
 and found     1 'primitive' translations

 KPOINTS: gamma-point-only calculation. no periodi

Automatic generation of k-mesh.
Space group operators:
 irot       det(A)        alpha          n_x          n_y          n_z        tau_x        tau_y        tau_z
    1     1.000000     0.000000     1.000000     0.000000     0.000000     0.000000     0.000000     0.000000

 Subroutine IBZKPT returns following result:

 Found      1 irreducible k-points:

 Following reciprocal coordinates:
            Coordinates               Weight
  0.000000  0.000000  0.000000      1.000000

 Following cartesian coordinates:
            Coordinates               Weight
  0.000000  0.000000  0.000000      1.000000

 SYSTEM =  "Millerite NiS"
 POSCAR =  Type_036 Type_136

 Startparameter for this run:
   NWRITE =      2    write-flag & timer
   PREC   = normal    normal or accurate (medium, high low for compatibility)
   ISTART =      0    job   : 0-new  1-cont  2-samecut
   ICHARG =      2    charge: 1-file 2-atom 10-const
   ISPIN  =      1    spin polarized calculation?
   LNONCOLLINEAR =      F non collinear calculations
   LSORBIT =      F    spin-orbit coupling
   INIWAV =      1    electr: 0-lowe 1-rand  2-diag
   LASPH  =      F    aspherical Exc in radial PAW
   METAGGA=      F    non-selfconsistent MetaGGA calc.

 Electronic Relaxation 1
   ENCUT  =  450.0 eV  33.07 Ry    5.75 a.u.  17.43 17.43 35.48*2*pi/ulx,y,z
   ENINI  =  450.0     initial cutoff
   ENAUG  =  703.4 eV  augmentation charge cutoff
   NELM   =    100;   NELMIN=  2; NELMDL= -5     # of ELM steps
   EDIFF  = 0.1E-03   stopping-criterion for ELM
   LREAL  =      T    real-space projection
   NLSPLINE    = F    spline interpolate recip. space projectors
   LCOMPAT=      F    compatible to vasp.4.4
   GGA_COMPAT  = T    GGA compatible to vasp.4.4-vasp.4.6
   LMAXPAW     = -100 max onsite density
   LMAXMIX     =    2 max onsite mixed and CHGCAR
   VOSKOWN=      0    Vosko Wilk Nusair interpolation
[...]
  Fock        0.00000     0.00000     0.00000     0.00000     0.00000     0.00000
  Total      97.80769    87.38589   101.71588    -6.49181     1.46317     0.71131
  in kB      80.42292    71.85354    83.63645    -5.33793     1.20310     0.58488

 VOLUME and BASIS-vectors are now :
  energy-cutoff  :      450.00
  volume of cell :     1948.51
      direct lattice vectors                 reciprocal lattice vectors
    10.079732985  0.000000000  0.000000000     0.099208977 -0.037612667  0.000000000
     3.573298043  9.425102554  0.000000000     0.000000000  0.106099641  0.000000000
     0.000000000  0.000000000 20.510139882     0.000000000  0.000000000  0.048756372

  length of vectors
    10.079732985 10.079732985 20.510139882     0.106099641  0.106099641  0.048756372

 FORCES acting on ions
    electron-ion (+dipol)            ewald-force                    non-local-force                 convergence-correction
   0.299E+03 -.222E+03 0.314E+04   -.298E+03 0.222E+03 -.314E+04   -.356E+00 0.446E+00 0.422E+01   -.816E-01 0.695E-01 -.105E+00
   0.292E+03 0.119E+03 0.264E+03   -.291E+03 -.121E+03 -.259E+03   -.251E+00 0.131E+01 -.276E+01   -.132E+00 0.139E+00 -.366E+00
   0.437E+03 -.909E+02 -.243E+04   -.438E+03 0.918E+02 0.243E+04   0.139E+01 -.102E+01 0.154E+01   0.896E-02 -.244E-01 -.509E+00
   0.198E+03 0.370E+03 -.528E+04   -.203E+03 -.369E+03 0.528E+04   0.362E+01 -.812E+00 -.436E+01   0.611E-01 -.206E+00 -.133E-01
   -.222E+03 -.508E+03 0.518E+04   0.223E+03 0.510E+03 -.519E+04   0.150E+00 -.892E-01 0.594E+01   0.424E-02 -.780E-01 0.575E-01
   -.165E+03 -.430E+03 0.251E+04   0.166E+03 0.431E+03 -.250E+04   -.686E-02 -.151E+01 -.136E+01   0.305E-02 -.805E-01 -.178E+00
   0.466E+03 -.362E+03 -.407E+04   -.469E+03 0.364E+03 0.407E+04   0.197E+01 -.962E+00 -.169E+01   0.619E-01 0.906E-01 -.314E+00
   0.291E+03 -.187E+03 -.714E+03   -.292E+03 0.188E+03 0.715E+03   0.889E+00 -.100E+01 -.306E+00   0.786E-01 0.269E-01 -.443E+00
   0.236E+03 0.181E+03 0.130E+04   -.235E+03 -.184E+03 -.130E+04   -.389E-01 0.213E+01 -.325E+01   0.780E-01 -.838E-01 -.165E+00
   0.500E+03 -.126E+03 -.177E+04   -.501E+03 0.127E+03 0.177E+04   0.116E+01 -.865E+00 0.122E+01   -.868E-01 -.168E-01 -.416E+00
   0.585E+03 -.427E+03 -.485E+04   -.583E+03 0.428E+03 0.485E+04   -.224E+01 0.442E-01 0.102E+00   -.701E-01 0.752E-01 -.181E+00
   0.261E+03 -.117E+02 0.372E+04   -.262E+03 0.113E+02 -.372E+04   0.143E+01 -.320E+00 -.316E+00   0.573E-01 0.335E-01 -.210E-01
   -.229E+03 0.800E+03 -.380E+04   0.230E+03 -.806E+03 0.381E+04   -.468E+00 0.488E+01 -.141E+01   0.632E-01 -.124E+00 -.279E+00
   0.491E+03 0.641E+02 0.522E+04   -.494E+03 -.638E+02 -.523E+04   0.312E+01 0.162E+00 0.424E+01   -.571E-01 0.111E+00 0.680E-01
   0.205E+03 0.678E+03 0.296E+04   -.206E+03 -.683E+03 -.296E+04   0.924E+00 0.427E+01 0.804E+00   -.341E-01 0.256E-02 -.152E+00
   -.111E+02 0.555E+03 -.468E+03   0.945E+01 -.555E+03 0.467E+03   0.155E+01 0.591E+00 0.149E+01   0.910E-01 -.109E+00 -.384E+00
   0.128E+02 0.385E+03 0.157E+04   -.141E+02 -.385E+03 -.157E+04   0.119E+01 -.136E+00 -.299E+00   0.115E+00 0.844E-01 -.293E+00
   0.470E+02 0.414E+03 -.159E+04   -.483E+02 -.416E+03 0.158E+04   0.161E+01 0.246E+01 0.209E+01   -.222E-01 0.188E-01 -.559E+00
   0.391E+03 0.514E+03 -.471E+04   -.392E+03 -.519E+03 0.471E+04   0.742E+00 0.404E+01 -.563E+00   -.923E-01 -.828E-01 -.166E+00
   -.425E+03 0.527E+03 0.492E+04   0.429E+03 -.531E+03 -.493E+04   -.297E+01 0.180E+01 0.394E+01   0.666E-02 0.799E-01 0.476E-01
   0.553E+03 0.613E+03 0.380E+04   -.558E+03 -.618E+03 -.380E+04   0.370E+01 0.438E+01 0.106E+01   -.258E-02 -.295E-01 -.296E-01
   0.116E+03 0.366E+03 0.365E+03   -.116E+03 -.366E+03 -.364E+03   0.641E+00 -.648E+00 -.802E-01   -.877E-01 0.149E-01 -.389E+00
   -.528E+02 0.219E+03 -.257E+04   0.529E+02 -.223E+03 0.256E+04   -.370E+00 0.339E+01 0.117E+01   -.448E-01 0.151E+00 -.462E+00
   -.489E+03 -.190E+02 -.526E+04   0.491E+03 0.187E+02 0.526E+04   -.616E+00 -.379E+00 0.202E+01   0.562E-01 0.107E+00 -.516E-01
   -.693E+03 0.845E+02 -.462E+04   0.698E+03 -.822E+02 0.463E+04   -.318E+01 -.158E+01 -.239E+01   0.482E-01 -.144E+00 -.202E+00
   0.187E+03 0.214E+03 0.407E+04   -.188E+03 -.214E+03 -.407E+04   0.333E+00 -.776E+00 0.323E+01   0.620E-01 0.910E-01 -.400E-01
   -.331E+03 -.180E+03 0.127E+04   0.332E+03 0.180E+03 -.127E+04   -.980E+00 -.497E-01 -.334E+01   0.314E-01 0.124E+00 -.217E+00
   -.489E+03 -.269E+03 -.157E+04   0.490E+03 0.271E+03 0.157E+04   -.514E+00 -.184E+01 0.100E+01   0.910E-01 -.185E-01 -.503E+00
   -.558E+03 -.362E+03 0.395E+04   0.561E+03 0.366E+03 -.396E+04   -.108E+01 -.245E+01 0.375E+01   -.165E-01 -.117E+00 -.548E-01
   -.355E+03 -.453E+03 0.439E+03   0.354E+03 0.456E+03 -.438E+03   0.708E+00 -.253E+01 -.213E+00   0.522E-01 -.346E-01 -.372E+00
   -.251E+03 -.537E+03 -.271E+04   0.253E+03 0.540E+03 0.271E+04   -.980E+00 -.295E+01 -.704E+00   -.469E-01 0.139E+00 -.463E+00
   0.673E+02 -.363E+03 -.521E+04   -.630E+02 0.366E+03 0.522E+04   -.440E+01 -.156E+01 -.260E+01   -.100E+00 0.153E+00 0.215E-02
   -.852E+02 -.822E+02 0.570E+04   0.839E+02 0.800E+02 -.571E+04   0.123E+01 0.223E+01 0.748E+01   0.641E-01 -.287E-01 0.685E-01
   -.583E+03 -.501E+03 0.273E+04   0.584E+03 0.502E+03 -.273E+04   -.105E+01 -.989E+00 -.374E+00   -.437E-01 -.141E-01 -.115E+00
   -.394E+03 -.322E+03 -.576E+03   0.394E+03 0.324E+03 0.576E+03   -.286E+00 -.164E+01 0.807E+00   -.619E-01 -.106E-01 -.418E+00
   -.495E+03 -.176E+03 -.386E+04   0.497E+03 0.178E+03 0.386E+04   -.909E+00 -.107E+01 -.191E+01   0.369E-01 0.246E-01 -.265E+00
   -.204E+03 0.123E+03 -.717E+03   0.206E+03 -.124E+03 0.715E+03   -.752E+00 0.777E+00 -.410E+00   0.200E-01 -.555E-01 -.162E+00
   0.328E+02 0.121E+03 0.208E+04   -.335E+02 -.123E+03 -.209E+04   -.883E+00 0.175E+01 0.385E+01   0.185E-01 0.411E-01 -.254E-01
   -.552E+02 0.139E+03 0.331E+03   0.550E+02 -.141E+03 -.329E+03   -.228E+00 0.128E+01 -.106E-01   0.482E-01 0.125E-02 -.876E-01
   -.156E+03 -.475E+02 0.155E+04   0.157E+03 0.468E+02 -.155E+04   -.281E+01 0.195E+01 0.139E+01   0.315E-01 -.906E-02 -.673E-02
   -.531E+02 0.343E+02 -.928E+02   0.544E+02 -.352E+02 0.946E+02   -.121E+01 0.587E+00 -.550E+00   -.883E-04 0.324E-01 -.204E+00
   -.645E+02 0.405E+02 -.101E+04   0.667E+02 -.404E+02 0.100E+04   -.873E+00 0.703E-01 0.202E+01   -.172E-01 0.316E-01 -.209E+00
   0.567E+02 0.178E+03 -.212E+04   -.560E+02 -.180E+03 0.212E+04   -.793E+00 0.667E+00 -.217E+01   -.506E-02 -.508E-01 0.104E+00
   -.260E+03 -.502E+02 0.225E+04   0.262E+03 0.505E+02 -.226E+04   -.104E+01 -.339E-02 0.404E+00   -.627E-02 -.867E-02 0.296E-01
   -.196E+03 -.190E+03 0.220E+04   0.198E+03 0.193E+03 -.220E+04   -.120E+01 -.136E+01 0.204E+01   0.153E-01 -.225E-01 0.265E-01
   -.110E+03 -.760E+02 0.683E+03   0.111E+03 0.759E+02 -.680E+03   -.116E+01 0.621E+00 -.987E-01   0.360E-02 -.470E-02 -.118E+00
   -.146E+03 0.492E+02 -.307E+03   0.147E+03 -.501E+02 0.305E+03   -.183E+01 0.337E+00 0.127E+00   0.271E-01 0.136E-01 -.148E+00
   -.348E+03 -.994E+02 -.164E+04   0.350E+03 0.996E+02 0.164E+04   -.261E+00 -.476E+00 -.881E+00   0.602E-01 0.996E-01 -.103E+00
   0.364E+03 0.218E+03 0.204E+04   -.368E+03 -.220E+03 -.205E+04   0.277E+01 0.286E+00 0.305E+01   0.924E-02 0.101E-01 0.192E-01
   0.141E+03 -.242E+03 0.707E+03   -.142E+03 0.245E+03 -.705E+03   0.471E+00 -.231E+01 0.380E+00   -.230E-01 -.127E-02 -.877E-01
   0.718E+01 -.167E+03 -.470E+03   -.729E+01 0.170E+03 0.471E+03   -.312E-01 -.298E+01 -.161E+01   0.649E-02 0.126E-01 -.212E+00
   -.119E+03 -.140E+03 -.166E+04   0.118E+03 0.145E+03 0.167E+04   0.646E+00 -.201E+01 -.200E+01   0.509E-01 -.521E-01 -.107E+00
   0.535E+01 -.249E+03 0.167E+04   -.567E+01 0.251E+03 -.167E+04   -.278E+00 -.851E+00 0.257E+01   -.114E-01 -.823E-01 -.395E-01
   -.213E+02 -.161E+03 0.325E+03   0.212E+02 0.163E+03 -.325E+03   0.208E+00 -.274E+01 0.201E+00   0.191E-01 -.506E-01 -.131E+00
   -.167E+01 -.152E+03 -.982E+03   0.137E+01 0.155E+03 0.983E+03   0.110E+00 -.295E+01 -.139E+01   0.260E-01 0.365E-01 -.155E+00
   0.173E+03 -.251E+03 -.210E+04   -.175E+03 0.253E+03 0.211E+04   0.454E+00 -.705E+00 -.152E+01   -.411E-01 0.784E-01 -.161E-01
   -.262E+03 -.278E+03 0.123E+04   0.267E+03 0.282E+03 -.122E+04   -.241E+01 -.183E+01 -.667E+00   0.394E-01 0.447E-02 -.804E-02
   0.106E+02 -.144E+03 -.955E+02   -.102E+02 0.147E+03 0.968E+02   -.343E+00 -.275E+01 -.131E+01   -.268E-01 -.817E-02 -.161E+00
   0.606E+02 -.155E+03 -.137E+04   -.606E+02 0.157E+03 0.138E+04   -.100E+00 -.110E+01 -.126E+01   -.218E-01 -.730E-01 -.136E+00
   -.395E+02 -.132E+03 0.212E+04   0.376E+02 0.134E+03 -.213E+04   0.202E+01 -.951E+00 0.330E+01   0.745E-02 0.487E-01 -.453E-02
   0.195E+03 0.210E+03 0.153E+04   -.197E+03 -.212E+03 -.153E+04   0.815E+00 0.428E+00 0.222E+01   -.727E-01 0.395E-01 -.115E-01
   0.155E+03 0.101E+03 0.256E+02   -.158E+03 -.102E+03 -.260E+02   0.245E+01 0.110E+01 0.706E+00   -.299E-01 0.551E-03 -.149E+00
   0.153E+03 0.220E+03 -.122E+04   -.156E+03 -.222E+03 0.122E+04   0.676E+00 0.174E+01 -.818E+00   0.134E-01 -.935E-01 -.127E+00
   -.173E+03 0.296E+03 -.221E+04   0.174E+03 -.298E+03 0.222E+04   -.511E+00 0.978E+00 -.196E+01   0.432E-01 -.917E-01 0.366E-01
   0.120E+03 0.433E+02 -.437E+03   -.123E+03 -.446E+02 0.437E+03   0.236E+01 0.144E+01 -.199E+00   0.117E-01 -.436E-02 -.184E+00
   0.134E+03 0.658E+02 -.170E+04   -.136E+03 -.675E+02 0.170E+04   0.515E+00 0.671E+00 -.576E+00   -.310E-01 0.920E-02 -.102E+00
   -.318E+02 -.337E+02 0.233E+04   0.303E+02 0.329E+02 -.233E+04   0.123E+01 0.164E+00 0.378E+01   0.594E-02 -.713E-02 0.463E-01
   -.245E+02 0.618E+02 0.704E+03   0.246E+02 -.643E+02 -.703E+03   -.177E+00 0.247E+01 -.531E+00   -.580E-02 0.323E-01 -.998E-01
   0.274E+03 0.236E+03 0.172E+04   -.276E+03 -.238E+03 -.173E+04   0.532E+00 0.250E-01 0.830E+00   0.152E-01 -.516E-01 0.176E-01
   0.182E+03 0.769E+02 0.403E+03   -.184E+03 -.784E+02 -.404E+03   0.254E+01 0.138E+01 0.157E+01   -.308E-01 -.131E-03 -.111E+00
   0.236E+03 0.393E+02 -.803E+03   -.239E+03 -.406E+02 0.802E+03   0.217E+01 0.110E+01 -.627E+00   -.473E-01 0.381E-01 -.145E+00
   0.147E+03 -.162E+03 -.203E+04   -.148E+03 0.162E+03 0.203E+04   -.976E-02 -.115E-01 -.152E+01   -.588E-01 0.123E+00 -.315E-02
   -.878E+01 -.404E+01 -.159E+02   -.145E-11 0.341E-12 -.500E-11   0.873E+01 0.374E+01 0.265E+02   0.134E+00 0.319E+00 -.107E+02

 POSITION                                       TOTAL-FORCE (eV/Angst)
      5.97910      6.80078      3.22722         0.673501      0.209325     -0.696583
      7.43572      5.66537      4.57627         0.987682     -0.904132      1.432441
      8.41343      4.24907      7.20177         0.008074     -0.091575     -0.524918
      8.89973      3.21831      9.51284        -1.158300      0.018520      1.225205
      5.99795      1.11733      1.39299         1.134344      1.115676     -1.111895
      7.76163      0.32617      2.82594         0.914828      0.131631      2.107902
      3.21062      6.91868      8.07694        -1.017752      0.263705     -0.792825
     12.31264      8.33497      5.45144         0.217885      0.019825     -0.026103
      2.55881      2.99577      3.70110         0.768608     -0.560875      1.896621
      3.53652      1.57947      6.32660        -0.125467     -0.164618      0.235398
      4.54083      0.22433      8.63847        -0.400227      0.449088      1.363907
     11.37289      4.55343      2.46366         0.074322     -0.677896      0.255384
     10.47531      1.21057      8.10062         0.321386     -1.675084     -0.333719
      7.94296      6.24917      1.91915        -0.320585      0.562863     -1.487551
      8.63813      3.92359      3.18892        -0.270956     -0.082087      0.723386
      9.61584      2.50729      5.81443        -0.008352     -0.353229     -0.024683
      3.43531      6.59319      4.06409         0.042959      0.111013      0.219361
      4.41302      5.17689      6.68959         0.218709     -0.001717     -1.378098
      5.30123      3.89618      8.96517        -0.638149     -0.893201      0.701789
     12.53733      8.00949      1.43859         0.313160     -2.686327      1.557292
      3.76121      1.25399      2.31376        -1.469043     -0.055312      1.401025
      8.31222      9.26279      4.93926        -0.032224     -0.016649      0.185186
      9.28993      7.84650      7.56476        -0.290194      0.091200     -2.676482
     10.02449      6.62146      9.46283         0.578545     -0.638913      0.976468
      1.71182      3.48488      8.77143         2.122729      0.566843      0.330520
      9.76791      7.98540      2.17079        -0.443588     -1.200284     -0.483729
      9.84053      6.03956      3.88260         0.158477      0.032641      0.397368
     10.81824      4.62327      6.50810         0.109495      0.008411     -0.103048
     10.16643      0.70036      2.13226         1.066031      0.820874      2.604802
      4.63771      8.70917      4.75776        -0.011602      0.114643      0.014694
      5.61542      7.29287      7.38327         0.705876      0.385739     -1.648240
      6.79013      6.13641      9.59937        -0.199370      0.963341      0.995751
      2.92901      3.69045      0.98863         0.011964     -0.007695     -2.383212
      4.96362      3.36996      3.00743         0.342017      0.267380      1.338559
      5.94133      1.95367      5.63293         0.237439     -0.009296      0.183139
      6.92022      0.63848      7.97873         0.752009      0.684750      1.207683
      1.57981      2.47018      7.00134         1.188613      0.078548     -2.758221
      9.70412      5.30277      1.75033        -1.528182      0.318908     -2.509533
     10.68183      3.88647      4.37584        -0.445195     -0.276638      1.348045
      4.50130      7.97237      2.62550        -1.396750      1.212536     -0.903170
      5.47901      6.55607      5.25100         0.086239     -0.255809      1.059543
      6.45673      5.13978      7.87651         1.325032      0.191792     -3.493244
      7.07596      4.11032     10.09999        -0.043044     -1.001556      2.222277
      3.58131      9.25807      0.34529         1.364432      0.284799     -4.172794
      4.70843      2.68404      1.04840         1.227249      0.942551     -3.039844
      5.80492      1.21687      3.50067         0.127563      0.496834      2.337430
     10.35593      9.22568      6.12617        -0.361945     -0.519435     -2.447508
     11.18635      8.02742      8.51181         2.211491     -0.115182      1.585676
      8.13815      9.04698      1.25942        -1.738877     -1.639774     -1.998971
      8.17302      7.52069      3.51693        -0.754041      1.374488      2.552306
      9.15074      6.10439      6.14243        -0.143675     -0.234656     -0.390337
     10.12845      4.68809      8.76794        -0.443845      2.304956     -0.472029
      8.59964      2.10901      2.12105        -0.615698      1.764889     -1.771298
      9.47664      0.76519      4.39210         0.071599     -0.299615      0.609522
      3.94792      8.77399      7.01760        -0.170885     -0.235090     -0.364376
      4.91384      7.02494      9.27641        -0.779036      1.723933      3.371999
      3.29611      4.85108      2.64176         2.715989      1.896351      2.287280
      4.27382      3.43479      5.26727         0.048636     -0.058652     -0.208260
      5.25153      2.01849      7.89277        -0.186210      0.772700      0.058830
     12.22824      5.72641      0.80689         0.061402      0.926804     -1.403980
      6.64193      4.82628      2.63363        -1.245540     -1.585319     -0.122373
      7.61964      3.40999      5.25914         0.097693      0.026311      0.182303
      8.59735      1.99369      7.88464        -2.175934     -0.310431     -1.108098
     10.65472      2.18286      9.90161         0.865548     -1.265857      3.523513
      2.41682      6.07959      6.13430        -0.302855      0.121344     -0.447822
      3.42096      4.77618      8.49463        -1.219385     -0.993513      1.868656
     10.92751      9.09817      0.82032        -0.244940     -0.656388     -3.437215
     11.51884      7.49589      3.50880        -0.130460     -0.033705      0.571624
      1.78883      2.18677      1.92942        -1.684426     -1.537464     -1.442202
      2.74272      0.74039      4.38397         0.102143     -0.198435      0.399158
      7.29374      8.74919      7.00947        -0.619808     -0.107247     -1.509075
      8.26014      7.67237      9.42448        -0.637134      0.088446      2.339391
    total drift:                                0.081101      0.016360     -0.051555

  FREE ENERGIE OF THE ION-ELECTRON SYSTEM (eV)
  free  energy   TOTEN  =      -350.41406906 eV

  energy  without entropy=     -349.52805951  energy(sigma->0) =     -349.97106428