 vasp.5.4.4.18Apr17-6-g9f103f2a35 (build Aug 13 2019 17:33:20) gamma-only

 executed on             LinuxIFC date 2020.05.12  01:43:45

 INCAR:
 POTCAR:    PAW_PBE Ni_pv 06Sep2000
 POTCAR:    PAW_PBE S 06Sep2000
 POTCAR:    PAW_PBE Ni_pv 06Sep2000
   VRHFIN =Ni:

   TITEL  = PAW_PBE Ni_pv 06Sep2000
   POMASS =   58.690; ZVAL   =   16.000    mass and valenz
   ENMAX  =  367.986; ENMIN  =  275.989 eV

 POTCAR:    PAW_PBE S 06Sep2000
   VRHFIN =S : s2p4

   TITEL  = PAW_PBE S 06Sep2000
   POMASS =   32.066; ZVAL   =    6.000    mass and valenz
   ENMAX  =  258.689; ENMIN  =  194.016 eV

 Optimization of the real space projectors (new method)

 maximal supplied QI-value         = 18.90
 optimisation between [QCUT,QGAM] = [ 10.77, 21.73] = [ 32.49,132.25] Ry
 Optimized for a Real-space Cutoff    1.38 Angstroem

   l    n(q)    QCUT    max X(q) W(low)/X(q) W(high)/X(q)  e(spline)
   1      8    10.771     2.836    0.40E-04    0.29E-04    0.12E-06
   1      8    10.771     4.023    0.10E-03    0.48E-04    0.29E-06
   2      8    10.771    73.368    0.42E-03    0.97E-04    0.44E-06
   2      8    10.771    69.010    0.42E-03    0.99E-04    0.45E-06
   0      9    10.771    54.797    0.10E-03    0.56E-04    0.74E-07
   0      9    10.771    24.266    0.89E-04    0.49E-04    0.67E-07
 Optimization of the real space projectors (new method)

 maximal supplied QI-value         = 19.84
 optimisation between [QCUT,QGAM] = [ 10.71, 21.63] = [ 32.15,130.99] Ry
 Optimized for a Real-space Cutoff    1.19 Angstroem

   l    n(q)    QCUT    max X(q) W(low)/X(q) W(high)/X(q)  e(spline)
   0      8    10.715   187.594    0.41E-03    0.53E-04    0.66E-07
   0      8    10.715   164.243    0.41E-03    0.53E-04    0.65E-07
   1      7    10.715    67.533    0.19E-03    0.59E-03    0.68E-07
   1      7    10.715    50.729    0.19E-03    0.58E-03    0.67E-07
  PAW_PBE Ni_pv 06Sep2000               :
  PAW_PBE S 06Sep2000                   :

 POSCAR: Type_037 Type_137
  positions in cartesian coordinates
 exchange correlation table for  LEXCH =        8
   RHO(1)=    0.500       N(1)  =     2000
   RHO(2)=  100.500       N(2)  =     4000

 ion  position               nearest neighbor table
   1  0.752  0.232  0.069-  51 2.04  65 2.10  52 2.13  42 2.14   2 2.40  24 2.44
   2  0.749  0.098  0.191-  43 2.08  66 2.08  42 2.13  52 2.20  65 2.20   1 2.40
   3  0.216  0.669  0.099-  44 2.02  45 2.12  53 2.16   4 2.39  63 2.47  27 2.48
   4  0.297  0.645  0.216-  64 2.14  54 2.14  45 2.25  53 2.26  63 2.26   3 2.39  28 2.53  16 2.53

   5  0.387  0.159  0.128-  47 2.05  48 2.13  55 2.25   6 2.42  69 2.42  18 2.46
   6  0.470  0.145  0.247-  70 2.09  56 2.10  48 2.25  55 2.26  69 2.26   5 2.42  31 2.53  19 2.53

[...]

   8  0.973  0.660  0.305-  46 2.05  67 2.07  50 2.09  57 2.11  33 2.54   7 2.54
   9  0.084  0.138  0.049-  39 2.01  59 2.07  73 2.07  10 2.37
  10  0.125  0.145  0.185-  38 2.10  59 2.11  73 2.17  60 2.36  74 2.36   9 2.37  26 2.42  11 2.52
                            34 2.53  22 2.53  39 2.63
  11  0.132  0.146  0.336-  60 2.02  74 2.03  38 2.05  10 2.52
  12  0.570  0.644  0.161-  40 2.00  41 2.18  71 2.19  61 2.22  13 2.29
  13  0.642  0.645  0.278-  62 2.03  72 2.03  41 2.25  61 2.26  71 2.26  12 2.29  37 2.53  25 2.53

  14  0.915  0.927  0.137-  58 2.06  66 2.09  39 2.12  57 2.19  65 2.22  36 2.49
  15  0.414  0.402  0.064-  55 2.08  63 2.10  16 2.38  27 2.52  40 2.58
  16  0.425  0.513  0.192-  64 2.17  55 2.25  40 2.26  63 2.26  41 2.36  15 2.38  17 2.45   4 2.53
                            28 2.53
  17  0.462  0.471  0.332-  56 2.01  64 2.05  41 2.07  16 2.45
  18  0.528  0.145  0.091-  69 2.05  55 2.06  42 2.06   5 2.46  30 2.53
  19  0.597  0.013  0.222-  43 2.08  70 2.08  61 2.25  69 2.26  42 2.26  31 2.53   6 2.53
  20  0.080  0.513  0.130-  68 2.06  44 2.07  59 2.14  67 2.36  45 2.36  26 2.40   7 2.53  32 2.53

[...]

  38  0.033  0.177  0.268-  11 2.05  10 2.10  26 2.12  60 2.72  39 2.74
  39  0.987  0.105  0.116-   9 2.01  26 2.09  14 2.12  10 2.63  38 2.74
  40  0.474  0.645  0.091-  12 2.00  27 2.01  16 2.26  28 2.26  15 2.58
  41  0.509  0.645  0.276-  29 2.07  17 2.07  12 2.18  13 2.25  28 2.36  16 2.36
  42  0.647  0.145  0.122-  18 2.06   2 2.13   1 2.14  30 2.17  19 2.26  31 2.26  43 2.77
  43  0.673  0.143  0.286-  19 2.08   2 2.08  31 2.10  42 2.77
  44  0.114  0.644  0.037-   3 2.02  20 2.07  32 2.09
  45  0.164  0.645  0.214-  21 2.08  33 2.09   3 2.12   4 2.25  32 2.36  20 2.36
  46  0.073  0.658  0.375-  33 2.05   8 2.05  21 2.05
  47  0.282  0.146  0.067-   5 2.05  34 2.06  22 2.07
  48  0.336  0.145  0.245-  23 2.04  35 2.04   5 2.13   6 2.25  34 2.36  22 2.36
  49  0.819  0.645  0.153-  24 2.09   7 2.25  25 2.26  37 2.26  36 2.27  50 2.72
  50  0.850  0.643  0.313-   8 2.09  25 2.09  37 2.12  49 2.72
  51  0.707  0.393  0.004-   1 2.04  30 2.04  24 2.05
  52  0.791  0.315  0.181-  24 2.11   1 2.13   2 2.20  25 2.28  71 2.75
  53  0.312  0.814  0.122-  27 2.05   3 2.16  22 2.25   4 2.26  28 2.26
  54  0.347  0.802  0.293-  29 2.05  23 2.07   4 2.14  28 2.15
  55  0.484  0.314  0.153-  18 2.06  15 2.08   5 2.25  16 2.25   6 2.26  31 2.26  30 2.57
  56  0.524  0.292  0.323-  17 2.01  31 2.09   6 2.10
  57  0.994  0.823  0.223-   8 2.11  33 2.11   7 2.17  32 2.17  14 2.19  58 2.70
  58  0.973  0.788  0.063-  14 2.06   7 2.07  32 2.13  57 2.70
  59  0.131  0.314  0.104-   9 2.07  10 2.11  20 2.14  26 2.22  34 2.29
  60  0.174  0.314  0.276-  11 2.02  35 2.04  21 2.18  10 2.36  34 2.36  38 2.72
  61  0.657  0.814  0.184-  12 2.22  36 2.24  19 2.25  37 2.26  13 2.26
  62  0.695  0.792  0.348-  37 2.03  13 2.03  72 2.77
  63  0.312  0.477  0.122-  27 2.05  15 2.10  34 2.25   4 2.26  16 2.26   3 2.47
  64  0.347  0.492  0.295-  17 2.05  35 2.06   4 2.14  16 2.17
  65  0.817  0.047  0.082-  36 2.05   1 2.10   2 2.20  14 2.22  66 2.63
  66  0.833  0.955  0.230-  37 2.05   2 2.08  14 2.09  36 2.21  65 2.63
  67  0.001  0.477  0.246-  21 2.04   8 2.07  26 2.18  20 2.36   7 2.36  68 2.67
  68  0.969  0.459  0.089-  20 2.06  26 2.11   7 2.11  67 2.67
  69  0.484  0.977  0.153-  18 2.05  28 2.25   6 2.26  19 2.26   5 2.42
  70  0.524  0.000  0.323-  29 2.01  19 2.08   6 2.09
  71  0.657  0.477  0.184-  24 2.09  30 2.12  12 2.19  31 2.25  25 2.26  13 2.26  52 2.75
  72  0.697  0.503  0.349-  25 2.01  13 2.03  62 2.77
  73  0.142  0.971  0.103-   9 2.07  22 2.14  10 2.17  32 2.17
  74  0.174  0.977  0.276-  11 2.03  23 2.04  33 2.16  10 2.36  22 2.36

  LATTYP: Found a simple orthorhombic cell.
 ALAT       =     9.5784100000
 B/A-ratio  =     1.7387693453
 C/A-ratio  =     1.7627867312

  Lattice vectors:

 A1 = (   0.0000000000,   9.5784100000,   0.0000000000)
 A2 = (   0.0000000000,   0.0000000000, -16.6546456851)
 A3 = ( -16.8846940542,   0.0000000000,   0.0000000000)

Analysis of symmetry for initial positions (statically):
 Subroutine PRICEL returns:
 Original cell was already a primitive cell.

 Routine SETGRP: Setting up the symmetry group for a
 simple orthorhombic supercell.

 Subroutine GETGRP returns: Found  1 space group operations
 (whereof  1 operations were pure point group operations)
 out of a pool of  8 trial point group operations.

The static configuration has the point symmetry C_1 .

Analysis of symmetry for dynamics (positions and initial velocities):
 Subroutine PRICEL returns:
 Original cell was already a primitive cell.

 Routine SETGRP: Setting up the symmetry group for a
 simple orthorhombic supercell.

 Subroutine GETGRP returns: Found  1 space group operations
 (whereof  1 operations were pure point group operations)
 out of a pool of  8 trial point group operations.

The dynamic configuration has the point symmetry C_1 .

 Subroutine INISYM returns: Found  1 space group operations
 (whereof  1 operations are pure point group operations),
 and found     1 'primitive' translations

 KPOINTS: gamma-point-only calculation. no periodi

Automatic generation of k-mesh.
Space group operators:
 irot       det(A)        alpha          n_x          n_y          n_z        tau_x        tau_y        tau_z
    1     1.000000     0.000000     1.000000     0.000000     0.000000     0.000000     0.000000     0.000000

 Subroutine IBZKPT returns following result:

 Found      1 irreducible k-points:

 Following reciprocal coordinates:
            Coordinates               Weight
  0.000000  0.000000  0.000000      1.000000

 Following cartesian coordinates:
            Coordinates               Weight
  0.000000  0.000000  0.000000      1.000000

 SYSTEM =  "Millerite NiS"
 POSCAR =  Type_037 Type_137

 Startparameter for this run:
   NWRITE =      2    write-flag & timer
   PREC   = normal    normal or accurate (medium, high low for compatibility)
   ISTART =      0    job   : 0-new  1-cont  2-samecut
   ICHARG =      2    charge: 1-file 2-atom 10-const
   ISPIN  =      1    spin polarized calculation?
   LNONCOLLINEAR =      F non collinear calculations
   LSORBIT =      F    spin-orbit coupling
   INIWAV =      1    electr: 0-lowe 1-rand  2-diag
   LASPH  =      F    aspherical Exc in radial PAW
   METAGGA=      F    non-selfconsistent MetaGGA calc.

 Electronic Relaxation 1
   ENCUT  =  450.0 eV  33.07 Ry    5.75 a.u.  29.20 16.57 28.81*2*pi/ulx,y,z
   ENINI  =  450.0     initial cutoff
   ENAUG  =  703.4 eV  augmentation charge cutoff
   NELM   =    100;   NELMIN=  2; NELMDL= -5     # of ELM steps
   EDIFF  = 0.1E-03   stopping-criterion for ELM
   LREAL  =      T    real-space projection
   NLSPLINE    = F    spline interpolate recip. space projectors
   LCOMPAT=      F    compatible to vasp.4.4
   GGA_COMPAT  = T    GGA compatible to vasp.4.4-vasp.4.6
   LMAXPAW     = -100 max onsite density
   LMAXMIX     =    2 max onsite mixed and CHGCAR
   VOSKOWN=      0    Vosko Wilk Nusair interpolation
   ROPT   =   -0.00050  -0.00050
 Ionic relaxation
   EDIFFG = 0.1E-02   stopping-criterion for IOM
   NSW    =      0    number of steps for IOM
   NBLOCK =      1;   KBLOCK =      1    inner block; outer block
   IBRION =     -1    ionic relax: 0-MD 1-quasi-New 2-CG
   NFREE  =      0    steps in history (QN), initial steepest desc. (CG)
   ISIF   =      2    stress and relaxation
   IWAVPR =     10    prediction:  0-non 1-charg 2-wave 3-comb
   ISYM   =      2    0-nonsym 1-usesym 2-fastsym
   LCORR  =      T    Harris-Foulkes like correction to forces

   POTIM  = 0.5000    time-step for ionic-motion
   TEIN   =    0.0    initial temperature
   TEBEG  =    0.0;   TEEND  =   0.0 temperature during run
   SMASS  =  -3.00    Nose mass-parameter (am)
   estimated Nose-frequenzy (Omega)   =  0.10E-29 period in steps =****** mass=  -0.652E-26a.u.
   SCALEE = 1.0000    scale energy and forces
   NPACO  =    256;   APACO  = 16.0  distance and # of slots for P.C.
   PSTRESS=    0.0 pullay stress

  Mass of Ions in am
   POMASS =  58.69 32.07
  Ionic Valenz
   ZVAL   =  16.00  6.00
  Atomic Wigner-Seitz radii
  virtual crystal weights
   VCA    =   1.00  1.00
   NELECT =     814.0000    total number of electrons
   NUPDOWN=      -1.0000    fix difference up-down

 DOS related values:
   EMIN   =  10.00;   EMAX   =-10.00  energy-range for DOS
   EFERMI =   0.00
[...]
     0.000000000  9.578410000  0.000000000     0.000000000  0.104401461  0.000000000
     0.000000000  0.000000000 16.654645685     0.000000000  0.000000000  0.060043307

  length of vectors
    16.884694054  9.578410000 16.654645685     0.059225237  0.104401461  0.060043307

 FORCES acting on ions
    electron-ion (+dipol)            ewald-force                    non-local-force                 convergence-correction
   -.888E+03 0.344E+03 0.320E+04   0.890E+03 -.342E+03 -.321E+04   -.199E+01 -.216E+01 0.587E+01   0.244E-02 -.313E-02 0.772E-02
   -.812E+03 -.998E+02 -.750E+03   0.816E+03 0.995E+02 0.757E+03   -.280E+01 0.706E+00 -.793E+01   -.188E-02 -.690E-02 0.169E-01
   0.229E+03 -.107E+03 0.286E+04   -.229E+03 0.108E+03 -.286E+04   0.554E+00 -.683E+00 0.722E+01   0.271E-02 0.283E-02 0.155E-01
   0.557E+03 -.783E+02 -.125E+04   -.559E+03 0.788E+02 0.126E+04   0.169E+01 -.536E+00 -.473E+01   -.301E-02 0.444E-02 0.217E-01
   0.511E+02 0.495E+03 0.223E+04   -.519E+02 -.495E+03 -.224E+04   0.126E+01 0.421E+00 0.797E+01   -.109E-01 -.171E-01 0.215E-01
   0.729E+02 0.191E+03 -.199E+04   -.765E+02 -.192E+03 0.200E+04   0.297E+01 0.819E+00 -.704E+01   -.180E-01 -.146E-01 0.131E-01
   0.919E+03 0.296E+03 0.114E+04   -.923E+03 -.299E+03 -.115E+04   0.343E+01 0.239E+01 0.358E+01   0.558E-02 -.593E-02 0.197E-01
   0.889E+03 -.181E+02 -.321E+04   -.895E+03 0.201E+02 0.322E+04   0.394E+01 -.129E+01 -.511E+01   0.152E-01 -.170E-02 0.140E-01
   0.485E+03 0.890E+02 0.397E+04   -.484E+03 -.915E+02 -.397E+04   -.854E+00 0.219E+01 0.887E+00   0.982E-02 0.418E-02 0.148E-01
   0.689E+03 0.269E+03 -.322E+02   -.687E+03 -.273E+03 0.332E+02   -.605E+00 0.235E+01 0.690E+00   0.968E-02 0.803E-02 0.236E-01
   0.846E+03 0.815E+02 -.391E+04   -.847E+03 -.815E+02 0.391E+04   0.391E+00 0.116E-01 0.503E+00   0.971E-02 0.639E-02 -.403E-02
   -.525E+03 -.426E+03 0.158E+04   0.528E+03 0.427E+03 -.159E+04   -.229E+01 -.754E+00 0.371E+01   -.286E-02 0.132E-01 0.168E-01
   -.126E+03 -.786E+02 -.253E+04   0.123E+03 0.788E+02 0.254E+04   0.220E+01 0.113E+00 -.677E+01   -.406E-02 0.716E-02 0.161E-01
   0.527E+02 -.537E+03 0.127E+04   -.520E+02 0.538E+03 -.127E+04   -.779E+00 0.233E-01 0.306E+01   -.195E-02 0.571E-02 0.134E-01
   -.158E+03 0.197E+03 0.392E+04   0.155E+03 -.197E+03 -.392E+04   0.259E+01 0.129E+00 -.168E+01   -.120E-01 -.424E-02 0.160E-01
   -.300E+03 0.183E+03 -.124E+03   0.301E+03 -.184E+03 0.126E+03   -.295E+00 0.209E+01 -.189E+01   -.163E-01 0.136E-01 0.357E-01
   -.287E+03 0.983E+02 -.387E+04   0.289E+03 -.102E+03 0.387E+04   -.210E+01 0.403E+01 0.248E+01   -.144E-01 0.926E-02 0.796E-02
   -.246E+03 0.732E+03 0.345E+04   0.245E+03 -.734E+03 -.346E+04   0.170E+01 0.178E+01 0.456E+01   -.835E-02 -.150E-01 0.840E-02
   -.618E+03 0.655E+03 -.901E+03   0.619E+03 -.662E+03 0.904E+03   -.507E+00 0.581E+01 -.432E+01   -.932E-02 -.115E-01 0.129E-01
   0.205E+03 0.313E+03 0.190E+04   -.203E+03 -.313E+03 -.191E+04   -.894E+00 -.126E+00 0.480E+01   0.159E-01 -.593E-02 0.181E-01
   0.944E+02 0.434E+03 -.299E+04   -.924E+02 -.439E+03 0.299E+04   -.625E+00 0.345E+01 -.461E+01   0.818E-02 0.239E-02 0.606E-02
   0.153E+02 0.552E+03 0.118E+04   -.158E+02 -.554E+03 -.118E+04   0.937E+00 0.189E+01 0.320E+01   0.453E-02 0.190E-02 0.171E-01
   0.255E+01 0.252E+03 -.341E+04   -.230E+01 -.256E+03 0.341E+04   -.154E-02 0.398E+01 0.214E+01   0.866E-02 -.991E-03 0.541E-02
   -.774E+03 -.524E+03 0.243E+04   0.778E+03 0.527E+03 -.244E+04   -.349E+01 -.223E+01 0.652E+01   0.400E-02 0.969E-02 0.117E-01
   -.826E+03 0.771E+03 -.195E+04   0.830E+03 -.776E+03 0.195E+04   -.308E+01 0.391E+01 -.791E+01   -.199E-02 0.212E-02 0.133E-01
   0.140E+04 0.226E+03 0.405E+03   -.141E+04 -.225E+03 -.405E+03   0.563E+01 -.374E+00 0.432E+00   0.130E-01 -.209E-03 0.192E-01
   -.108E+03 -.498E+03 0.401E+04   0.107E+03 0.499E+03 -.402E+04   0.927E+00 -.778E+00 0.514E+01   -.159E-01 0.199E-01 0.120E-01
   -.375E+03 -.673E+03 0.406E+03   0.375E+03 0.677E+03 -.407E+03   -.142E-01 -.354E+01 -.147E+00   -.769E-02 0.120E-01 0.351E-01
   -.294E+03 -.161E+03 -.372E+04   0.295E+03 0.165E+03 0.372E+04   -.119E+01 -.452E+01 0.205E+01   -.768E-02 0.256E-02 0.653E-02
   0.250E+02 -.413E+03 0.312E+04   -.266E+02 0.414E+03 -.313E+04   -.154E+00 -.203E+00 0.712E+01   -.325E-02 -.378E-03 0.734E-02
   -.739E+03 -.283E+03 -.147E+04   0.742E+03 0.286E+03 0.147E+04   -.309E+01 -.297E+01 -.677E+01   -.940E-03 -.334E-02 0.176E-01
   0.269E+03 -.588E+03 0.185E+04   -.268E+03 0.593E+03 -.186E+04   -.164E+00 -.463E+01 0.292E+01   0.206E-01 -.205E-02 0.171E-01
   0.143E+03 -.608E+03 -.269E+04   -.139E+03 0.613E+03 0.270E+04   -.347E+01 -.337E+01 -.466E+01   0.857E-02 -.905E-02 0.906E-02
   0.251E+03 -.448E+03 0.112E+04   -.253E+03 0.450E+03 -.113E+04   0.119E+01 -.115E+01 0.329E+01   -.396E-02 -.327E-02 0.238E-01
   0.316E+02 -.191E+03 -.346E+04   -.314E+02 0.195E+03 0.346E+04   -.158E+00 -.409E+01 0.231E+01   -.307E-02 0.594E-03 0.393E-02
   0.163E+03 0.186E+03 0.246E+04   -.165E+03 -.187E+03 -.247E+04   0.136E+01 -.166E+00 0.333E+01   -.856E-02 -.327E-02 0.117E-01
   -.481E+03 -.449E+03 -.200E+04   0.482E+03 0.451E+03 0.201E+04   -.127E+01 -.341E+01 -.554E+01   -.453E-02 0.756E-03 0.111E-01
   0.698E+03 0.893E+02 -.988E+03   -.704E+03 -.912E+02 0.991E+03   0.286E+01 0.938E+00 -.803E+00   0.713E-02 0.230E-02 0.113E-02
   0.433E+03 0.945E+01 0.655E+03   -.435E+03 -.941E+01 -.657E+03   0.173E+00 -.268E+00 0.857E+00   0.147E-02 0.361E-02 0.722E-02
   -.369E+03 -.236E+03 0.136E+04   0.373E+03 0.238E+03 -.136E+04   -.243E+01 -.282E+01 0.256E+01   -.127E-02 0.799E-02 0.570E-02
   -.225E+03 -.459E+02 -.933E+03   0.225E+03 0.457E+02 0.939E+03   0.135E+01 -.207E-01 -.427E+01   -.695E-02 0.117E-01 0.930E-02
   -.190E+03 0.333E+03 0.847E+03   0.190E+03 -.337E+03 -.851E+03   0.829E-03 0.346E+01 0.258E+01   -.340E-02 -.481E-02 0.542E-02
   -.431E+03 -.329E+02 -.137E+04   0.433E+03 0.331E+02 0.138E+04   -.735E+00 0.597E-01 -.339E+01   -.101E-02 -.173E-02 0.347E-02
   0.143E+03 0.302E+02 0.174E+04   -.142E+03 -.306E+02 -.175E+04   -.105E-02 0.163E+00 0.202E+01   0.455E-02 -.558E-03 0.296E-03
   -.690E+02 0.106E+02 -.349E+03   0.698E+02 -.110E+02 0.352E+03   0.708E+00 0.349E+00 -.241E+01   0.324E-02 -.593E-03 0.828E-02
   0.575E+02 -.277E+02 -.177E+04   -.569E+02 0.278E+02 0.178E+04   0.707E-01 0.995E-02 -.107E+01   0.197E-02 -.892E-03 -.407E-02
   0.697E+02 0.909E+02 0.164E+04   -.710E+02 -.911E+02 -.165E+04   0.186E+01 0.145E+00 0.203E+01   0.192E-03 -.819E-03 0.545E-02
   -.105E+03 0.568E+02 -.634E+03   0.106E+03 -.571E+02 0.639E+03   0.427E+00 0.299E+00 -.449E+01   -.231E-02 0.605E-03 0.550E-02
   -.144E+03 0.385E+02 0.576E+03   0.147E+03 -.381E+02 -.580E+03   -.193E+01 0.213E+00 0.217E+01   -.369E-02 0.117E-03 0.506E-02
   -.944E+02 0.652E+02 -.131E+04   0.954E+02 -.649E+02 0.132E+04   -.323E+00 -.590E+00 -.311E+01   0.183E-02 0.244E-03 0.318E-02
   -.127E+03 -.197E+03 0.177E+04   0.127E+03 0.198E+03 -.177E+04   -.294E+00 0.119E-01 0.424E+00   -.413E-03 0.302E-02 -.387E-02
   -.510E+03 0.105E+03 -.254E+03   0.515E+03 -.106E+03 0.257E+03   -.220E+01 0.737E+00 -.115E+01   0.164E-02 0.111E-02 0.760E-02
   -.326E+01 -.361E+03 0.881E+03   0.285E+01 0.365E+03 -.884E+03   -.152E+00 -.167E+01 0.265E+01   -.574E-03 0.434E-04 0.742E-02
   0.192E+03 0.198E+02 -.116E+04   -.193E+03 -.194E+02 0.117E+04   0.174E+00 0.426E-01 -.195E+01   0.702E-02 0.235E-03 0.409E-02
   -.106E+03 -.131E+03 0.364E+03   0.106E+03 0.134E+03 -.362E+03   0.222E+00 -.148E+01 -.169E+01   -.615E-03 -.695E-02 0.114E-01
   -.243E+03 0.620E+02 -.151E+04   0.243E+03 -.611E+02 0.152E+04   -.230E+00 -.815E+00 -.207E+01   -.279E-02 -.199E-02 0.377E-02
   0.289E+03 -.436E+03 -.512E+03   -.289E+03 0.440E+03 0.515E+03   -.499E-01 -.234E+01 -.209E+01   0.618E-02 -.894E-03 0.116E-01
   0.203E+03 -.576E+02 0.153E+04   -.205E+03 0.579E+02 -.153E+04   0.213E+01 -.152E+00 0.310E+01   0.305E-02 0.301E-03 -.239E-02
   -.270E+02 -.177E+03 0.110E+04   0.302E+02 0.179E+03 -.111E+04   -.163E+01 -.972E+00 0.371E+01   0.394E-02 0.143E-02 0.937E-02
   0.197E+03 -.182E+03 -.879E+03   -.196E+03 0.185E+03 0.881E+03   0.319E+00 -.111E+01 -.783E+00   0.308E-02 0.314E-03 0.263E-02
   -.620E+01 -.115E+03 0.339E+03   0.415E+01 0.118E+03 -.341E+03   0.134E+01 -.158E+01 0.177E+01   -.168E-02 0.136E-02 0.532E-02
   -.114E+03 -.291E+03 -.159E+04   0.112E+03 0.295E+03 0.159E+04   0.679E+00 -.242E+01 -.909E+00   -.276E-02 0.223E-03 0.223E-02
   0.312E+03 0.178E+03 0.777E+03   -.316E+03 -.181E+03 -.777E+03   0.158E+01 0.184E+01 0.300E+00   -.106E-01 0.301E-02 0.124E-01
   0.210E+03 -.614E+02 -.122E+04   -.211E+03 0.610E+02 0.122E+04   0.740E-01 -.206E+00 -.230E+01   -.639E-02 0.981E-03 0.282E-02
   -.236E+03 -.644E+02 0.120E+04   0.236E+03 0.655E+02 -.121E+04   -.684E-01 -.108E+01 0.268E+01   0.303E-03 -.217E-02 0.346E-02
   -.294E+03 -.314E+03 -.823E+03   0.298E+03 0.316E+03 0.830E+03   -.282E+01 -.703E+00 -.465E+01   -.236E-02 -.555E-03 0.533E-02
   0.477E+03 0.360E+03 -.698E+03   -.481E+03 -.363E+03 0.701E+03   0.241E+01 0.131E+01 -.314E+01   0.610E-02 -.301E-03 0.754E-02
   0.451E+03 0.175E+03 0.122E+04   -.455E+03 -.177E+03 -.123E+04   0.130E+01 0.118E+01 0.293E+01   0.287E-02 -.421E-02 0.278E-02
   -.603E+02 0.335E+03 0.653E+03   0.605E+02 -.339E+03 -.655E+03   -.124E+01 0.193E+01 0.159E+01   -.455E-02 -.198E-02 0.729E-02
   -.236E+03 -.303E+02 -.147E+04   0.236E+03 0.294E+02 0.147E+04   -.548E+00 0.796E+00 -.253E+01   -.876E-02 -.109E-01 0.341E-02
   -.126E+03 -.351E+02 -.751E+01   0.124E+03 0.335E+02 0.908E+01   0.431E+00 0.180E+01 -.347E+00   0.107E-02 0.182E-02 0.694E-02
   -.149E+03 0.300E+03 -.160E+04   0.148E+03 -.304E+03 0.161E+04   0.308E+00 0.215E+01 -.832E+00   -.742E-03 0.866E-03 0.295E-02
   0.759E+02 0.164E+03 0.104E+04   -.752E+02 -.166E+03 -.104E+04   -.737E+00 0.182E+01 0.172E+01   0.499E-02 -.112E-02 0.674E-02
   0.217E+03 0.190E+03 -.870E+03   -.218E+03 -.193E+03 0.871E+03   0.445E+00 0.839E+00 -.474E+00   0.165E-02 0.273E-03 0.300E-02
   -.444E+01 -.952E+00 -.405E+01   0.341E-12 -.102E-11 0.171E-11   0.440E+01 0.964E+00 0.330E+01   -.206E-01 0.193E-01 0.718E+00

 POSITION                                       TOTAL-FORCE (eV/Angst)
     12.69115      2.22237      1.15330         0.796184     -0.885124     -0.466989
     12.65162      0.94344      3.18594         0.702956      0.447581     -0.112694
      3.65147      6.40558      1.65122         0.862830     -0.352609     -0.235627
      5.02033      6.18092      3.59863        -0.409648     -0.003907      0.122773
      6.53912      1.52019      2.13827         0.444255     -0.233882     -0.318368
      7.93172      1.39171      4.11272        -0.647078     -0.297843     -1.048226
     16.08224      6.18092      2.57045        -0.325110     -1.058995      1.295897
     16.43382      6.31956      5.08002        -1.458897      0.779268      0.070391
      1.42650      1.32373      0.81548        -0.206995     -0.387995     -1.609525
      2.10894      1.39171      3.08454         1.274555     -0.898499      1.726018
      2.23184      1.39463      5.60346         0.072684      0.010589      1.431105
      9.62869      6.16374      2.68495         0.599085      0.085720     -0.140526
     10.84312      6.18092      4.62682        -1.076725      0.337681     -1.175916
     15.45176      8.88230      2.27934        -0.072559      1.019704      0.135650
      6.98705      3.84837      1.06793         0.261154     -0.166567     -0.751907
      7.17375      4.91558      3.19116         0.364171      0.411068     -0.010183
      7.79408      4.51123      5.53093        -0.118932      0.514277      0.894459
      8.92087      1.38531      1.51914        -0.105812     -0.040691     -1.677877
     10.08514      0.12638      3.70525         0.210847     -0.993257     -1.304289
      1.35096      4.91558      2.16298         1.098681      0.571958      1.277909
      1.86874      4.87790      4.91322         1.374725     -1.429055      0.567916
      4.26235      0.12638      2.67707         0.405141     -0.414208      0.872784
      4.88049      9.46274      5.19896         0.259687     -0.135482      0.673975
     12.72287      4.58830      1.75709         0.741978      1.388802     -0.359355
     12.99653      4.91558      4.21934         0.924717     -0.645783     -2.229413
      0.23283      2.87493      2.73448        -0.954005      0.346385      0.468529
      6.04991      6.18221      1.04517        -0.399816     -0.003849     -1.525505
      7.17375      7.44626      3.19116         0.331350      0.246726     -1.205416
      7.80709      7.87177      5.50092         0.051059     -0.453079      0.915832
     10.43799      3.41052      1.40352        -1.722687      0.196871      0.000260
     10.08514      2.65705      3.70525         0.122126      0.376893     -0.789300
      1.35096      7.44626      2.16298         0.444083      0.204129      0.424425
      1.72348      7.57800      4.72053         0.697676      1.545853      0.138053
      4.26235      2.65705      2.67707        -0.601418      0.735564      0.924202
      4.88955      2.91267      5.19066        -0.009924      0.261095      0.716133
     13.04438      8.26282      2.08158        -0.468573     -0.980380     -0.482569
     12.99653      7.44626      4.21934        -0.331831     -1.590026     -0.104862
      0.55526      1.69438      4.46685        -2.656461     -1.005379      2.091388
     16.66271      1.00247      1.92861        -1.530125     -0.225094     -1.348386
      8.00634      6.18092      1.51374         1.117165     -0.292602     -2.605425
      8.59001      6.18092      4.59828         1.050023     -0.178361      1.190165
     10.91773      1.39171      2.02783        -0.548427     -0.520713     -1.922732
     11.36830      1.36887      4.76151         1.318738      0.211963      3.350962
      1.93325      6.16733      0.61646         0.170986     -0.242768     -3.542547
      2.76722      6.18092      3.57010         1.471973     -0.015352     -0.265633
      1.23139      6.30425      6.24291         0.607439      0.051930      4.360197
      4.76663      1.40195      1.12145         0.547248      0.017621     -3.451901
      5.67861      1.39171      4.08419         1.396298     -0.011880      0.542619
     13.82913      6.18092      2.54192         0.585380      0.634071     -1.514842
     14.35897      6.15980      5.21066         0.676932     -0.231257      2.699689
     11.93132      3.76168      0.05917         0.010655      1.002854     -3.989714
     13.35995      3.01806      3.00945         2.650814     -0.275045      1.724687
      5.26426      7.79215      2.03261        -0.565443      1.844332     -0.360998
      5.86601      7.67710      4.87573        -0.979961      0.478694      1.815769
      8.17565      3.00295      2.54670        -0.263254      1.499124     -0.300145
      8.83957      2.79907      5.37945         0.352714      0.124080      2.664273
     16.78073      7.88674      3.71330        -0.279685      1.515674      0.848738
     16.42522      7.54544      1.05406        -0.242970      0.182189     -3.563651
      2.20897      3.00765      1.72632         1.615176      1.179333     -1.996443
      2.93654      3.00295      4.60306         0.648642      2.013536      0.411379
     11.08705      7.79215      3.06079        -0.710507      0.576480     -1.046828
     11.72778      7.58381      5.79388        -0.431561      1.267490      3.859405
      5.26426      4.56969      2.03261        -1.841827     -1.260494     -0.610212
      5.85573      4.71506      4.90962        -0.926290     -0.563250      1.694400
     13.78916      0.45060      1.36849         0.733165      0.025120     -3.106937
     14.06937      9.14447      3.82805         0.898987      1.248613      2.419331
      0.02514      4.56969      4.08897        -1.692057     -1.356751     -0.412093
     16.36177      4.39513      1.48051        -2.148674     -0.799282     -2.834199
      8.17565      9.35889      2.54670        -1.114436     -1.309055     -0.169153
      8.85289      0.00130      5.37493         0.118417     -0.085712      2.796509
     11.08705      4.56969      3.06079        -2.149427      0.148892      1.234380
     11.77071      4.81581      5.80694        -0.618800     -1.421713      3.856207
      2.38933      9.30329      1.72193        -0.030721     -0.867814     -1.967387
      2.93654      9.35889      4.60306        -0.370059     -1.868407      0.341363
    total drift:                               -0.062518      0.031720     -0.029257

  FREE ENERGIE OF THE ION-ELECTRON SYSTEM (eV)
  free  energy   TOTEN  =      -350.00828803 eV

  energy  without entropy=     -348.85879134  energy(sigma->0) =     -349.43353968