 vasp.5.4.4.18Apr17-6-g9f103f2a35 (build Aug 13 2019 17:33:20) gamma-only

 executed on             LinuxIFC date 2020.05.12  13:24:26

 INCAR:
 POTCAR:    PAW_PBE Ni_pv 06Sep2000
 POTCAR:    PAW_PBE S 06Sep2000
 POTCAR:    PAW_PBE Ni_pv 06Sep2000
   VRHFIN =Ni:

   TITEL  = PAW_PBE Ni_pv 06Sep2000
   POMASS =   58.690; ZVAL   =   16.000    mass and valenz
   ENMAX  =  367.986; ENMIN  =  275.989 eV

 POTCAR:    PAW_PBE S 06Sep2000
   VRHFIN =S : s2p4

   TITEL  = PAW_PBE S 06Sep2000
   POMASS =   32.066; ZVAL   =    6.000    mass and valenz
   ENMAX  =  258.689; ENMIN  =  194.016 eV

 Optimization of the real space projectors (new method)

 maximal supplied QI-value         = 18.90
 optimisation between [QCUT,QGAM] = [ 10.77, 21.73] = [ 32.49,132.25] Ry
 Optimized for a Real-space Cutoff    1.38 Angstroem

   l    n(q)    QCUT    max X(q) W(low)/X(q) W(high)/X(q)  e(spline)
   1      8    10.771     2.836    0.40E-04    0.29E-04    0.12E-06
   1      8    10.771     4.023    0.10E-03    0.48E-04    0.29E-06
   2      8    10.771    73.368    0.42E-03    0.97E-04    0.44E-06
   2      8    10.771    69.010    0.42E-03    0.99E-04    0.45E-06
   0      9    10.771    54.797    0.10E-03    0.56E-04    0.74E-07
   0      9    10.771    24.266    0.89E-04    0.49E-04    0.67E-07
 Optimization of the real space projectors (new method)

 maximal supplied QI-value         = 19.84
 optimisation between [QCUT,QGAM] = [ 10.71, 21.63] = [ 32.15,130.99] Ry
 Optimized for a Real-space Cutoff    1.19 Angstroem

   l    n(q)    QCUT    max X(q) W(low)/X(q) W(high)/X(q)  e(spline)
   0      8    10.715   187.594    0.41E-03    0.53E-04    0.66E-07
   0      8    10.715   164.243    0.41E-03    0.53E-04    0.65E-07
   1      7    10.715    67.533    0.19E-03    0.59E-03    0.68E-07
   1      7    10.715    50.729    0.19E-03    0.58E-03    0.67E-07
  PAW_PBE Ni_pv 06Sep2000               :
  PAW_PBE S 06Sep2000                   :

 POSCAR: Type_036 Type_136
  positions in cartesian coordinates
 exchange correlation table for  LEXCH =        8
   RHO(1)=    0.500       N(1)  =     2000
   RHO(2)=  100.500       N(2)  =     4000

 ion  position               nearest neighbor table
   1  0.374  0.751  0.095-  60 2.04  41 2.25  50 2.28  61 2.36  51 2.36  14 2.41
   2  0.525  0.601  0.223-  42 2.25  51 2.26  61 2.26  62 2.36  52 2.36  15 2.39  27 2.53
   3  0.675  0.451  0.351-  43 2.25  62 2.26  52 2.26  63 2.36  53 2.36  32 2.42  28 2.53  16 2.53

   4  0.764  0.339  0.464-  64 2.04  63 2.05  44 2.06  53 2.07
   5  0.549  0.081  0.070-  67 2.03  47 2.11  46 2.16  50 2.18  21 2.30
   6  0.776  0.012  0.145-  45 2.08  68 2.11  54 2.24  67 2.27  47 2.39  20 2.43
   7  0.014  0.763  0.378-  65 2.02  55 2.05  49 2.12
   8  0.908  0.884  0.266-  48 2.25  54 2.26  68 2.26  55 2.36  65 2.36  30 2.53  17 2.53
   9  0.141  0.318  0.180-  69 2.05  40 2.25  56 2.26  70 2.36  57 2.36  34 2.53  21 2.53
  10  0.291  0.168  0.308-  37 2.25  57 2.26  70 2.26  58 2.36  71 2.36  35 2.53  22 2.53
  11  0.428  0.027  0.423-  71 2.04  38 2.10  58 2.10  72 2.21  23 2.51
  12  0.990  0.478  0.078-  56 2.02  59 2.13  39 2.14  69 2.19
  13  0.010  0.116  0.412-  64 2.05  38 2.13  55 2.25  63 2.26  37 2.26  25 2.49
  14  0.573  0.562  0.050-  61 2.03  39 2.05  60 2.06   1 2.41
  15  0.716  0.423  0.169-  40 2.16  62 2.18  27 2.38  39 2.38   2 2.39  61 2.40
  16  0.860  0.266  0.283-  54 2.25  62 2.26  40 2.26  37 2.36  63 2.36   3 2.53  28 2.53
  17  0.093  0.700  0.198-  56 2.25  41 2.26  68 2.26  42 2.36  65 2.36  30 2.53   8 2.53
  18  0.243  0.549  0.326-  66 2.09  57 2.25  65 2.26  42 2.26  43 2.36
  19  0.389  0.405  0.436-  43 2.02  66 2.08  58 2.08  44 2.09
  20  0.943  0.850  0.070-  67 2.03  45 2.06  59 2.14  68 2.36  41 2.36   6 2.43
  21  0.326  0.133  0.113-  50 2.12  46 2.14  69 2.18   5 2.30  70 2.36  47 2.36  34 2.53   9 2.53

[...]

  31  0.270  0.792  0.344-  42 2.03  55 2.07  71 2.17  43 2.63
  32  0.589  0.590  0.449-  44 2.08  43 2.11  72 2.14  53 2.30   3 2.42  24 2.46
  33  0.257  0.514  0.046-  56 2.03  60 2.06  59 2.16  46 2.24
  34  0.366  0.358  0.147-  46 2.05  61 2.25  56 2.26  47 2.36  57 2.36  21 2.53   9 2.53
  35  0.516  0.207  0.275-  62 2.25  57 2.26  47 2.26  48 2.36  58 2.36  10 2.53  22 2.53
  36  0.657  0.074  0.388-  48 2.05  58 2.11  63 2.15  49 2.15
  37  0.064  0.262  0.341-  25 2.04  10 2.25  13 2.26  16 2.36  28 2.36  38 2.57
  38  0.210  0.127  0.439-  11 2.10  13 2.13  25 2.19  37 2.57  64 2.60
  39  0.763  0.563  0.085-  14 2.05  12 2.14  26 2.17  27 2.26  15 2.38
  40  0.914  0.412  0.213-  15 2.16   9 2.25  16 2.26  28 2.26  27 2.36
  41  0.147  0.846  0.128-  29 2.21   1 2.25  17 2.26  30 2.26  20 2.36  45 2.79
  42  0.297  0.696  0.256-  31 2.03   2 2.25  18 2.26  30 2.36  17 2.36
  43  0.447  0.545  0.384-  19 2.02  32 2.11   3 2.25  18 2.36  44 2.61  31 2.63
  44  0.554  0.420  0.493-   4 2.06  32 2.08  19 2.09  43 2.61
  45  0.909  0.062  0.080-  20 2.06   6 2.08  29 2.09  67 2.75  54 2.76  41 2.79
  46  0.379  0.281  0.053-  34 2.05  21 2.14   5 2.16  33 2.24
  47  0.530  0.129  0.171-   5 2.11  22 2.26  35 2.26  34 2.36  21 2.36   6 2.39
  48  0.680  0.979  0.299-  36 2.05   8 2.25  23 2.26  35 2.36  22 2.36  49 2.74
  49  0.806  0.868  0.415-  24 2.04   7 2.12  36 2.15  23 2.18  48 2.74
  50  0.427  0.942  0.061-  21 2.12  26 2.12   5 2.18   1 2.28  51 2.69
  51  0.528  0.798  0.171-  26 2.05  22 2.25  27 2.26   2 2.26   1 2.36  50 2.69
  52  0.678  0.648  0.299-  23 2.25  28 2.26   3 2.26  27 2.36   2 2.36
  53  0.829  0.497  0.427-   4 2.07  24 2.08  25 2.24  32 2.30  28 2.36   3 2.36
  54  0.911  0.081  0.214-  29 2.20   6 2.24  16 2.25   8 2.26  30 2.26  45 2.76
  55  0.062  0.931  0.342-   7 2.05  31 2.07  13 2.25  30 2.36   8 2.36
  56  0.145  0.515  0.129-  12 2.02  33 2.03  17 2.25  34 2.26   9 2.26  59 2.45
  57  0.295  0.364  0.257-  18 2.25  10 2.26  35 2.26   9 2.36  34 2.36
  58  0.445  0.214  0.385-  19 2.08  11 2.10  36 2.11  35 2.36  10 2.36
  59  0.037  0.642  0.029-  12 2.13  20 2.14  33 2.16  56 2.45
  60  0.369  0.636  0.014-   1 2.04  33 2.06  14 2.06  61 2.70
  61  0.477  0.512  0.128-  14 2.03  34 2.25   2 2.26   1 2.36  15 2.40  60 2.70
  62  0.628  0.362  0.256-  15 2.18  35 2.25   3 2.26  16 2.26   2 2.36
  63  0.778  0.212  0.384-   4 2.05  36 2.15  13 2.26  16 2.36   3 2.36
  64  0.965  0.231  0.496-   4 2.04  13 2.05  25 2.08  38 2.60
  65  0.011  0.645  0.299-   7 2.02  28 2.25  18 2.26   8 2.36  17 2.36
  66  0.176  0.470  0.409-  19 2.08  18 2.09  25 2.17
  67  0.732  0.917  0.051-  20 2.03   5 2.03  26 2.09   6 2.27  45 2.75
  68  0.861  0.795  0.171-   6 2.11  27 2.25  17 2.26   8 2.26  20 2.36
  69  0.103  0.249  0.091-   9 2.05  29 2.12  21 2.18  12 2.19
  70  0.244  0.079  0.214-  30 2.25  22 2.26  10 2.26  29 2.32   9 2.36  21 2.36
  71  0.395  0.928  0.342-  11 2.04  31 2.17  23 2.26  10 2.36  22 2.36
  72  0.549  0.812  0.461-  24 2.07  23 2.08  32 2.14  11 2.21

  LATTYP: Found a base centered orthorhombic cell.
 ALAT       =    11.4527836704
 B/A-ratio  =     1.4485816945
 C/A-ratio  =     1.7908432109

  Lattice vectors:

 A1 = (  10.0797329849,   0.0000000000,   0.0000000000)
 A2 = (  -3.5732980427,  -9.4251025535,   0.0000000000)
 A3 = (   0.0000000000,   0.0000000000, -20.5101398818)

Analysis of symmetry for initial positions (statically):
 Subroutine PRICEL returns:
 Original cell was already a primitive cell.

 Routine SETGRP: Setting up the symmetry group for a
 base centered orthorhombic supercell.

 Subroutine GETGRP returns: Found  1 space group operations
 (whereof  1 operations were pure point group operations)
 out of a pool of  8 trial point group operations.

The static configuration has the point symmetry C_1 .

Analysis of symmetry for dynamics (positions and initial velocities):
 Subroutine PRICEL returns:
 Original cell was already a primitive cell.

 Routine SETGRP: Setting up the symmetry group for a
 base centered orthorhombic supercell.

 Subroutine GETGRP returns: Found  1 space group operations
 (whereof  1 operations were pure point group operations)
 out of a pool of  8 trial point group operations.

The dynamic configuration has the point symmetry C_1 .

 Subroutine INISYM returns: Found  1 space group operations
 (whereof  1 operations are pure point group operations),
 and found     1 'primitive' translations

 KPOINTS: gamma-point-only calculation. no periodi

Automatic generation of k-mesh.
Space group operators:
 irot       det(A)        alpha          n_x          n_y          n_z        tau_x        tau_y        tau_z
    1     1.000000     0.000000     1.000000     0.000000     0.000000     0.000000     0.000000     0.000000

 Subroutine IBZKPT returns following result:

 Found      1 irreducible k-points:

 Following reciprocal coordinates:
            Coordinates               Weight
  0.000000  0.000000  0.000000      1.000000

 Following cartesian coordinates:
            Coordinates               Weight
  0.000000  0.000000  0.000000      1.000000

 SYSTEM =  "Millerite NiS"
 POSCAR =  Type_036 Type_136

 Startparameter for this run:
   NWRITE =      2    write-flag & timer
   PREC   = normal    normal or accurate (medium, high low for compatibility)
   ISTART =      0    job   : 0-new  1-cont  2-samecut
   ICHARG =      2    charge: 1-file 2-atom 10-const
   ISPIN  =      1    spin polarized calculation?
   LNONCOLLINEAR =      F non collinear calculations
   LSORBIT =      F    spin-orbit coupling
   INIWAV =      1    electr: 0-lowe 1-rand  2-diag
   LASPH  =      F    aspherical Exc in radial PAW
   METAGGA=      F    non-selfconsistent MetaGGA calc.

 Electronic Relaxation 1
   ENCUT  =  450.0 eV  33.07 Ry    5.75 a.u.  17.43 17.43 35.48*2*pi/ulx,y,z
   ENINI  =  450.0     initial cutoff
   ENAUG  =  703.4 eV  augmentation charge cutoff
   NELM   =    100;   NELMIN=  2; NELMDL= -5     # of ELM steps
   EDIFF  = 0.1E-03   stopping-criterion for ELM
   LREAL  =      T    real-space projection
   NLSPLINE    = F    spline interpolate recip. space projectors
   LCOMPAT=      F    compatible to vasp.4.4
   GGA_COMPAT  = T    GGA compatible to vasp.4.4-vasp.4.6
   LMAXPAW     = -100 max onsite density
   LMAXMIX     =    2 max onsite mixed and CHGCAR
   VOSKOWN=      0    Vosko Wilk Nusair interpolation
   ROPT   =   -0.00050  -0.00050
 Ionic relaxation
   EDIFFG = 0.1E-02   stopping-criterion for IOM
   NSW    =      0    number of steps for IOM
   NBLOCK =      1;   KBLOCK =      1    inner block; outer block
   IBRION =     -1    ionic relax: 0-MD 1-quasi-New 2-CG
   NFREE  =      0    steps in history (QN), initial steepest desc. (CG)
   ISIF   =      2    stress and relaxation
   IWAVPR =     10    prediction:  0-non 1-charg 2-wave 3-comb
   ISYM   =      2    0-nonsym 1-usesym 2-fastsym
   LCORR  =      T    Harris-Foulkes like correction to forces

   POTIM  = 0.5000    time-step for ionic-motion
   TEIN   =    0.0    initial temperature
   TEBEG  =    0.0;   TEEND  =   0.0 temperature during run
   SMASS  =  -3.00    Nose mass-parameter (am)
   estimated Nose-frequenzy (Omega)   =  0.10E-29 period in steps =****** mass=  -0.232E-26a.u.
   SCALEE = 1.0000    scale energy and forces
[...]
  Fock        0.00000     0.00000     0.00000     0.00000     0.00000     0.00000
  Total      86.18597    73.83190   100.51150     3.45189     7.33640    -2.60434
  in kB      70.86690    60.70869    82.64615     2.83834     6.03240    -2.14144

 VOLUME and BASIS-vectors are now :
  energy-cutoff  :      450.00
  volume of cell :     1948.51
      direct lattice vectors                 reciprocal lattice vectors
    10.079732985  0.000000000  0.000000000     0.099208977 -0.037612667  0.000000000
     3.573298043  9.425102554  0.000000000     0.000000000  0.106099641  0.000000000
     0.000000000  0.000000000 20.510139882     0.000000000  0.000000000  0.048756372

  length of vectors
    10.079732985 10.079732985 20.510139882     0.106099641  0.106099641  0.048756372

 FORCES acting on ions
    electron-ion (+dipol)            ewald-force                    non-local-force                 convergence-correction
   0.483E+03 -.446E+03 0.377E+04   -.486E+03 0.450E+03 -.377E+04   0.333E+01 -.205E+01 0.237E+01   -.443E-02 0.136E-02 0.147E-01
   0.528E+03 -.123E+03 0.416E+03   -.529E+03 0.124E+03 -.416E+03   0.801E+00 -.672E+00 0.590E+00   -.208E-02 0.803E-02 -.279E-01
   0.477E+03 0.844E+01 -.213E+04   -.478E+03 -.797E+01 0.213E+04   0.141E+01 -.970E+00 0.305E+01   -.699E-02 -.623E-02 -.520E-01
   0.191E+03 0.520E+03 -.521E+04   -.195E+03 -.524E+03 0.522E+04   0.319E+01 0.407E+01 -.589E+01   0.171E-02 -.219E-01 0.130E-02
   -.498E+03 -.334E+03 0.490E+04   0.500E+03 0.337E+03 -.490E+04   -.168E+01 -.238E+01 0.412E+01   -.146E-02 -.630E-02 0.123E-01
   0.246E+02 -.623E+03 0.257E+04   -.262E+02 0.627E+03 -.257E+04   0.262E+00 -.312E+01 -.196E+01   0.830E-02 -.820E-02 0.289E-02
   -.155E+03 0.316E+02 -.398E+04   0.154E+03 -.298E+02 0.398E+04   0.127E+01 -.204E+01 0.487E+00   0.115E-01 0.744E-02 -.379E-01
   0.349E+03 -.190E+03 -.584E+03   -.351E+03 0.190E+03 0.584E+03   0.151E+01 -.242E+00 0.408E+00   0.606E-02 -.197E-02 -.323E-01
   0.380E+03 -.186E+03 0.144E+04   -.380E+03 0.187E+03 -.144E+04   0.170E+00 -.660E+00 -.139E+01   0.975E-03 0.397E-03 -.994E-02
   0.428E+03 -.172E+03 -.163E+04   -.429E+03 0.174E+03 0.163E+04   0.773E+00 -.175E+01 0.125E+01   0.361E-02 -.442E-02 -.342E-01
   0.380E+03 -.962E+02 -.482E+04   -.378E+03 0.967E+02 0.483E+04   -.154E+01 -.442E+00 -.204E+01   -.421E-02 0.743E-02 -.240E-01
   0.482E+03 0.259E+03 0.458E+04   -.488E+03 -.258E+03 -.459E+04   0.490E+01 -.196E+01 0.265E+01   0.294E-02 0.296E-02 0.995E-02
   0.562E+02 0.928E+03 -.397E+04   -.586E+02 -.933E+03 0.397E+04   0.148E+01 0.408E+01 0.509E+00   0.352E-02 -.153E-01 -.272E-01
   -.259E+03 0.773E+03 0.522E+04   0.259E+03 -.773E+03 -.522E+04   0.766E+00 -.121E+01 0.912E+00   -.263E-02 0.685E-02 0.165E-01
   0.480E+02 0.928E+03 0.266E+04   -.482E+02 -.925E+03 -.266E+04   -.459E+00 -.364E+01 -.335E+01   0.564E-04 0.785E-02 -.536E-02
   -.145E+02 0.572E+03 -.468E+03   0.145E+02 -.573E+03 0.468E+03   -.261E-01 0.498E+00 0.205E+00   0.260E-02 -.136E-01 -.419E-01
   -.470E+02 0.449E+03 0.147E+04   0.470E+02 -.448E+03 -.147E+04   0.353E-01 -.259E+00 0.894E+00   0.151E-02 0.536E-02 -.145E-01
   -.188E+02 0.185E+03 -.189E+04   0.172E+02 -.185E+03 0.188E+04   0.162E+01 0.117E+01 0.161E+01   -.271E-02 0.831E-02 -.417E-01
   0.384E+03 -.347E+02 -.472E+04   -.385E+03 0.329E+02 0.472E+04   0.537E+00 0.906E+00 -.144E+01   -.112E-01 -.641E-02 -.191E-01
   -.315E+03 -.687E+01 0.486E+04   0.321E+03 0.648E+00 -.487E+04   -.270E+01 0.462E+01 0.425E+01   0.496E-02 -.184E-02 0.145E-01
   0.424E+03 0.283E+03 0.378E+04   -.427E+03 -.284E+03 -.378E+04   0.225E+01 0.177E+01 0.141E+01   -.117E-01 -.607E-04 0.104E-01
   0.910E+01 0.444E+03 0.401E+03   -.829E+01 -.445E+03 -.402E+03   -.723E+00 0.724E+00 0.667E+00   -.730E-03 -.274E-02 -.214E-01
   0.510E+02 0.138E+03 -.253E+04   -.511E+02 -.141E+03 0.253E+04   -.128E+00 0.385E+01 0.237E+01   -.538E-02 0.220E-01 -.531E-01
   -.765E+03 -.160E+03 -.525E+04   0.767E+03 0.161E+03 0.525E+04   -.154E+01 -.101E+01 0.294E+00   0.108E-01 0.126E-01 -.108E-01
   -.676E+03 -.297E+03 -.461E+04   0.681E+03 0.303E+03 0.461E+04   -.336E+01 -.363E+01 -.287E+01   0.133E-01 -.982E-02 -.177E-01
   -.265E+03 -.702E+02 0.444E+04   0.269E+03 0.696E+02 -.445E+04   -.339E+01 0.246E+00 0.407E+01   0.363E-03 -.450E-02 0.160E-01
   -.484E+03 -.194E+03 0.141E+04   0.484E+03 0.195E+03 -.141E+04   -.447E+00 -.333E+00 -.150E+01   -.185E-02 0.522E-02 -.159E-01
   -.587E+03 -.250E+03 -.151E+04   0.587E+03 0.250E+03 0.151E+04   -.254E+00 -.700E+00 0.199E+01   0.135E-01 0.624E-03 -.493E-01
   0.167E+03 -.291E+03 0.338E+04   -.168E+03 0.293E+03 -.338E+04   0.195E+01 -.189E+01 0.406E+01   -.213E-03 -.634E-02 0.198E-02
   -.361E+03 -.131E+03 0.317E+03   0.361E+03 0.130E+03 -.316E+03   -.251E+00 0.334E+00 -.582E+00   -.178E-02 -.551E-02 -.220E-01
   -.223E+03 -.826E+02 -.295E+04   0.224E+03 0.835E+02 0.295E+04   -.468E+00 -.124E+01 0.334E-01   -.666E-02 0.688E-02 -.389E-01
   0.643E+03 -.544E+03 -.483E+04   -.646E+03 0.548E+03 0.484E+04   0.360E+01 -.241E+01 -.310E+01   -.203E-01 0.738E-02 -.893E-02
   -.256E+02 0.119E+02 0.508E+04   0.293E+02 -.918E+01 -.509E+04   -.399E+01 -.347E+01 0.538E+01   -.435E-02 0.793E-02 0.118E-01
   -.552E+03 -.222E+03 0.240E+04   0.553E+03 0.222E+03 -.240E+04   -.773E+00 0.874E-01 -.115E+01   -.389E-02 0.575E-02 0.370E-02
   -.434E+03 -.337E+03 -.479E+03   0.435E+03 0.338E+03 0.478E+03   -.103E+00 -.145E+01 0.746E+00   -.111E-02 -.440E-02 -.268E-01
   -.430E+03 -.152E+03 -.378E+04   0.432E+03 0.155E+03 0.378E+04   -.141E+01 -.259E+01 -.211E+01   -.287E-02 0.474E-03 -.325E-01
   -.124E+03 0.807E+02 -.655E+03   0.125E+03 -.799E+02 0.652E+03   -.139E+01 -.638E+00 0.814E+00   0.258E-02 -.412E-02 -.147E-01
   -.711E+02 0.173E+03 -.185E+04   0.720E+02 -.175E+03 0.185E+04   -.537E+00 0.639E+00 -.117E+01   0.197E-02 -.290E-02 -.644E-02
   -.153E+03 0.233E+03 0.174E+04   0.154E+03 -.234E+03 -.174E+04   0.251E-01 -.334E-01 0.265E+01   0.262E-02 0.252E-02 0.616E-02
   -.141E+03 0.712E+02 0.483E+03   0.143E+03 -.714E+02 -.484E+03   -.143E+01 0.608E+00 0.210E+01   0.105E-02 0.963E-03 -.103E-01
   -.794E+02 0.142E+02 0.138E+04   0.817E+02 -.167E+02 -.138E+04   -.147E+01 0.133E+01 0.136E+01   -.121E-02 -.892E-03 0.180E-02
   -.107E+03 0.878E+02 0.716E+02   0.108E+03 -.897E+02 -.735E+02   -.178E+01 0.841E+00 0.161E+00   -.305E-03 0.220E-02 -.123E-01
   0.168E+03 -.183E+03 -.113E+04   -.168E+03 0.185E+03 0.113E+04   -.306E+00 -.269E+00 0.144E+01   -.786E-02 0.435E-02 -.152E-01
   0.268E+03 0.774E+02 -.216E+04   -.270E+03 -.793E+02 0.217E+04   -.124E+00 0.108E+01 -.236E+01   -.446E-02 -.387E-02 0.512E-02
   -.664E+02 -.393E+03 0.190E+04   0.658E+02 0.398E+03 -.191E+04   0.960E+00 -.216E+01 0.370E+01   0.630E-03 -.378E-02 0.501E-02
   -.963E+02 -.844E+01 0.212E+04   0.960E+02 0.862E+01 -.212E+04   0.584E+00 0.303E+00 0.201E+01   -.342E-02 0.344E-02 0.390E-02
   -.231E+03 -.634E+02 0.729E+03   0.232E+03 0.635E+02 -.728E+03   -.397E+00 -.129E-01 -.136E-01   0.403E-03 -.220E-03 0.312E-02
   -.131E+03 0.489E+02 -.274E+03   0.132E+03 -.500E+02 0.272E+03   -.189E+01 0.684E+00 0.224E-01   -.300E-04 0.257E-02 -.136E-01
   -.305E+03 -.122E+03 -.168E+04   0.308E+03 0.122E+03 0.168E+04   -.148E+01 -.640E+00 -.110E+01   0.799E-02 0.931E-02 -.142E-01
   0.242E+03 -.410E+02 0.196E+04   -.245E+03 0.420E+02 -.196E+04   0.218E+01 -.113E+01 0.401E+01   -.338E-02 -.338E-02 0.504E-02
   0.999E+02 -.151E+03 0.604E+03   -.101E+03 0.152E+03 -.602E+03   -.184E+00 -.133E+01 0.438E+00   -.303E-03 -.312E-02 -.202E-02
   0.180E+02 -.185E+03 -.412E+03   -.182E+02 0.187E+03 0.413E+03   0.223E+00 -.239E+01 -.131E+01   -.121E-02 0.563E-02 -.230E-01
   -.291E+03 -.886E+02 -.161E+04   0.294E+03 0.917E+02 0.161E+04   -.138E+01 -.180E+01 -.746E+00   0.637E-02 -.654E-02 -.824E-02
   0.993E+02 -.220E+03 0.362E+03   -.101E+03 0.224E+03 -.361E+03   0.648E+00 -.272E+01 0.280E+00   0.619E-03 -.319E-02 -.744E-02
   -.259E+02 -.173E+03 -.102E+04   0.265E+02 0.175E+03 0.103E+04   -.492E+00 -.671E+00 -.150E+01   0.982E-04 -.283E-02 -.137E-01
   0.220E+02 -.139E+03 0.101E+04   -.211E+02 0.140E+03 -.100E+04   -.173E+00 -.274E+00 0.347E-01   -.354E-03 0.198E-02 0.895E-03
   0.584E+01 -.183E+03 -.964E+02   -.588E+01 0.185E+03 0.978E+02   0.116E+00 -.221E+01 -.174E+01   0.771E-03 -.846E-03 -.115E-01
   0.377E+02 -.159E+03 -.133E+04   -.371E+02 0.161E+03 0.133E+04   -.204E+00 -.187E+01 -.109E+01   -.262E-03 -.448E-02 -.135E-01
   0.697E+02 -.882E+02 0.207E+04   -.715E+02 0.903E+02 -.207E+04   0.151E+01 -.169E+01 0.409E+01   0.641E-03 0.137E-02 0.539E-02
   0.841E+02 -.988E+02 0.220E+04   -.839E+02 0.101E+03 -.220E+04   -.263E+00 -.157E+01 0.125E+01   -.294E-02 0.195E-02 0.479E-02
   0.965E+02 0.196E+03 0.110E+04   -.982E+02 -.198E+03 -.109E+04   0.170E+01 0.844E+00 -.286E-01   -.122E-02 0.354E-02 0.394E-02
   0.186E+03 0.117E+03 0.388E+02   -.188E+03 -.118E+03 -.387E+02   0.197E+01 0.133E+01 0.396E+00   -.373E-02 -.173E-02 -.152E-01
   0.952E+02 0.252E+03 -.116E+04   -.974E+02 -.254E+03 0.116E+04   0.199E+01 0.108E+01 -.453E+00   -.195E-02 -.921E-02 -.128E-01
   -.937E+02 0.242E+03 -.226E+04   0.940E+02 -.243E+03 0.227E+04   -.364E+00 0.566E+00 -.221E+01   0.237E-02 -.483E-02 0.404E-02
   0.877E+02 0.135E+03 -.399E+03   -.893E+02 -.136E+03 0.399E+03   0.993E+00 0.593E+00 -.137E+01   0.390E-02 0.433E-02 -.147E-01
   0.686E+02 -.128E+03 -.161E+04   -.694E+02 0.129E+03 0.162E+04   0.572E-01 -.787E+00 0.334E-01   0.159E-03 0.116E-02 -.989E-02
   -.856E+02 -.389E+02 0.207E+04   0.845E+02 0.385E+02 -.207E+04   0.597E+00 -.132E+00 0.274E+01   0.470E-02 -.506E-02 0.518E-02
   0.871E+02 0.107E+03 0.750E+03   -.890E+02 -.109E+03 -.751E+03   0.195E+01 0.436E+00 0.222E+01   0.866E-03 -.493E-03 -.327E-02
   0.272E+03 0.610E+02 0.189E+04   -.274E+03 -.618E+02 -.189E+04   0.380E+00 0.263E+00 0.173E+01   0.279E-03 0.580E-04 0.418E-02
   0.800E+02 0.674E+02 0.313E+03   -.801E+02 -.681E+02 -.311E+03   0.607E-01 0.501E+00 -.143E+01   -.120E-02 -.152E-02 -.703E-02
   0.204E+03 0.124E+03 -.823E+03   -.207E+03 -.126E+03 0.822E+03   0.211E+01 0.164E+01 -.750E+00   -.248E-02 0.167E-02 -.141E-01
   0.303E+03 -.186E+03 -.208E+04   -.304E+03 0.186E+03 0.208E+04   0.193E+00 0.244E+00 -.176E+01   -.886E-02 0.110E-01 -.311E-02
   -.109E+02 0.271E+02 -.287E+02   0.108E-11 -.145E-11 0.455E-11   0.110E+02 -.271E+02 0.294E+02   -.179E-01 0.400E-03 -.737E+00

 POSITION                                       TOTAL-FORCE (eV/Angst)
      6.45801      7.08167      1.95077         0.078163      1.383306      1.708825
      7.43572      5.66537      4.57627        -0.201887      0.414146      0.411449
      8.41343      4.24907      7.20177         0.130678     -0.512112     -0.947687
      8.90673      3.19211      9.51932        -0.851022      0.484843      0.817123
      5.82797      0.76454      1.43636         0.878344      0.332893     -0.721899
      7.86423      0.11244      2.97996        -1.318921      1.337129      0.361392
      2.87006      7.19180      7.75761         0.332847     -0.240890      1.443170
     12.31264      8.33497      5.45144        -0.066685      0.097026     -0.023385
      2.55881      2.99577      3.70110         0.459468      0.444161      1.470065
      3.53652      1.57947      6.32660         0.258175     -0.222257     -0.213787
      4.41478      0.25698      8.68268         0.502627      0.133006      1.102400
     11.68439      4.50197      1.59474        -0.789047     -0.588912     -0.969070
      0.51382      1.09100      8.43993        -0.933724     -1.334501     -2.046578
      7.78377      5.29863      1.02536         0.572243     -0.743562     -1.238931
      8.72295      3.98354      3.47208        -0.691878     -0.311573     -1.424845
      9.61584      2.50729      5.81443        -0.043312     -0.145916     -0.127446
      3.43531      6.59319      4.06409         0.093297      0.042219      0.041836
      4.41302      5.17689      6.68959         0.064070      0.768710     -1.134918
      5.36482      3.81627      8.93719        -0.749729     -0.889037      1.075191
     12.53733      8.00949      1.43859         2.324844     -1.605687      0.410112
      3.76121      1.25399      2.31376        -1.431301      0.567647      0.951921
      8.31222      9.26279      4.93926         0.080821     -0.143638     -0.100468
      9.28993      7.84650      7.56476        -0.207582      0.842322     -2.237870
     10.24748      6.65265      9.43315         0.289414     -0.329735      0.823647
      1.73041      3.21801      8.89858         1.587441      1.429107      0.858257
      9.10533      7.38434      1.69184         0.176926     -0.388009     -0.529218
      9.84053      6.03956      3.88260         0.287106      0.631988      0.363684
     10.81824      4.62327      6.50810        -0.041528     -0.057446     -0.107839
      0.98109      0.74152      2.86990         0.745285      0.311087      0.230706
      4.63771      8.70917      4.75776         0.143184     -0.639184      0.750465
      5.54938      7.46593      7.06360         0.853897     -0.265116      1.374609
      8.04898      5.56321      9.20259         0.469537      1.218411      0.457361
      4.42487      4.84376      0.95241        -0.290275     -0.736998     -0.774046
      4.96362      3.36996      3.00743         0.294900      0.289012      1.742699
      5.94133      1.95367      5.63293         0.172080     -0.058536      0.118499
      6.88943      0.69302      7.96538         0.282090      0.559965      1.011501
      1.57981      2.47018      7.00134        -0.856937      0.093770     -2.969185
      2.56865      1.19785      8.99866         0.422538     -0.814776      2.218054
      9.70412      5.30277      1.75033         0.887676     -1.188982     -0.034303
     10.68183      3.88647      4.37584         0.288806      0.410921      0.752224
      4.50130      7.97237      2.62550         0.830822     -1.213842     -0.523586
      5.47901      6.55607      5.25100        -0.100599     -1.116411     -1.705313
      6.45673      5.13978      7.87651         0.246344      2.165294     -1.606082
      7.08853      3.95847     10.11491        -1.513319     -0.841958      2.571020
      9.38451      0.58775      1.63892         0.369416      2.579299     -2.302499
      4.82433      2.64887      1.09089         0.297676      0.476234     -3.318676
      5.80492      1.21687      3.50067         0.855312      0.008251      1.396535
     10.35593      9.22568      6.12617        -0.474142     -0.413787     -2.543575
     11.23018      8.18409      8.50289         1.563279     -0.283329      1.740582
      7.67254      8.88033      1.25044        -1.415782     -0.096011     -2.043335
      8.17302      7.52069      3.51693        -1.106023     -0.277497      2.534985
      9.15074      6.10439      6.14243         0.023879     -0.139672     -0.552456
     10.12845      4.68809      8.76794         1.636013      1.243264     -0.611906
      9.47664      0.76519      4.39210        -0.605979      0.687915      1.456473
      3.94792      8.77399      7.01760         0.091968      1.376180     -0.019230
      3.29611      4.85108      2.64176         0.649089      0.701180      3.192807
      4.27382      3.43479      5.26727         0.077273      0.112166     -0.377985
      5.25153      2.01849      7.89277         0.333851      0.344300     -0.407164
      2.66538      6.05338      0.60056        -0.271507      0.418430     -1.837457
      5.99117      5.99861      0.29184        -0.059532      0.281991     -3.496343
      6.64193      4.82628      2.63363         0.002464     -0.780073      2.417806
      7.61964      3.40999      5.25914        -0.271493     -0.101491      0.509498
      8.59735      1.99369      7.88464        -0.194830     -1.160269     -1.232868
     10.55156      2.17660     10.18047        -0.077940     -0.728487      3.929934
      2.41682      6.07959      6.13430        -0.543562     -1.093591     -1.627046
      3.45492      4.43331      8.38869        -0.792900      1.019758      1.919806
     10.65156      8.63974      1.05349        -0.542320     -0.496708     -2.478661
     11.51884      7.49589      3.50880         0.081046     -1.482756      1.636956
      1.92659      2.34927      1.85832        -1.301395     -0.571579     -2.325447
      2.74272      0.74039      4.38397        -0.058851     -0.206371      0.147239
      7.29374      8.74919      7.00947        -0.746043     -1.059196     -2.199158
      8.43017      7.65145      9.44739        -1.184840      0.073964      2.861429
    total drift:                                0.074170      0.026099     -0.047192

  FREE ENERGIE OF THE ION-ELECTRON SYSTEM (eV)
  free  energy   TOTEN  =      -352.78322917 eV

  energy  without entropy=     -351.86670201  energy(sigma->0) =     -352.32496559