 vasp.5.4.4.18Apr17-6-g9f103f2a35 (build Aug 13 2019 17:33:20) gamma-only

 executed on             LinuxIFC date 2020.05.11  22:38:19

 INCAR:
 POTCAR:    PAW_PBE Ni_pv 06Sep2000
 POTCAR:    PAW_PBE S 06Sep2000
 POTCAR:    PAW_PBE Ni_pv 06Sep2000
   VRHFIN =Ni:

   TITEL  = PAW_PBE Ni_pv 06Sep2000
   POMASS =   58.690; ZVAL   =   16.000    mass and valenz
   ENMAX  =  367.986; ENMIN  =  275.989 eV

 POTCAR:    PAW_PBE S 06Sep2000
   VRHFIN =S : s2p4

   TITEL  = PAW_PBE S 06Sep2000
   POMASS =   32.066; ZVAL   =    6.000    mass and valenz
   ENMAX  =  258.689; ENMIN  =  194.016 eV

 Optimization of the real space projectors (new method)

 maximal supplied QI-value         = 18.90
 optimisation between [QCUT,QGAM] = [ 10.77, 21.73] = [ 32.49,132.25] Ry
 Optimized for a Real-space Cutoff    1.38 Angstroem

   l    n(q)    QCUT    max X(q) W(low)/X(q) W(high)/X(q)  e(spline)
   1      8    10.771     2.836    0.40E-04    0.29E-04    0.12E-06
   1      8    10.771     4.023    0.10E-03    0.48E-04    0.29E-06
   2      8    10.771    73.368    0.42E-03    0.97E-04    0.44E-06
   2      8    10.771    69.010    0.42E-03    0.99E-04    0.45E-06
   0      9    10.771    54.797    0.10E-03    0.56E-04    0.74E-07
   0      9    10.771    24.266    0.89E-04    0.49E-04    0.67E-07
 Optimization of the real space projectors (new method)

 maximal supplied QI-value         = 19.84
 optimisation between [QCUT,QGAM] = [ 10.71, 21.63] = [ 32.15,130.99] Ry
 Optimized for a Real-space Cutoff    1.19 Angstroem

   l    n(q)    QCUT    max X(q) W(low)/X(q) W(high)/X(q)  e(spline)
   0      8    10.715   187.594    0.41E-03    0.53E-04    0.66E-07
   0      8    10.715   164.243    0.41E-03    0.53E-04    0.65E-07
   1      7    10.715    67.533    0.19E-03    0.59E-03    0.68E-07
   1      7    10.715    50.729    0.19E-03    0.58E-03    0.67E-07
  PAW_PBE Ni_pv 06Sep2000               :
  PAW_PBE S 06Sep2000                   :

 POSCAR: Type_037 Type_137
  positions in cartesian coordinates
 exchange correlation table for  LEXCH =        8
   RHO(1)=    0.500       N(1)  =     2000
   RHO(2)=  100.500       N(2)  =     4000

 ion  position               nearest neighbor table
   1  0.780  0.145  0.118-  65 2.08  51 2.08  42 2.25  52 2.36  66 2.36
   2  0.797  0.145  0.278-  66 2.04  52 2.04  43 2.06
   3  0.222  0.645  0.092-  44 2.03  45 2.17  63 2.25  53 2.25   4 2.34
   4  0.297  0.645  0.211-  64 2.13  54 2.13  45 2.25  53 2.26  63 2.26   3 2.34  28 2.53  15 2.53

   5  0.394  0.145  0.122-  47 2.03  48 2.19  69 2.25  55 2.25   6 2.36
   6  0.470  0.145  0.242-  56 2.09  70 2.09  48 2.25  55 2.26  69 2.26   5 2.36  31 2.53  18 2.53

[...]

  10  0.110  0.145  0.322-  38 2.03  74 2.11  60 2.11   9 2.37
  11  0.642  0.645  0.273-  62 2.01  72 2.01  41 2.25  61 2.32  71 2.32  37 2.53  24 2.53
  12  0.911  0.005  0.115-  65 2.06  58 2.10  66 2.11  39 2.18
  13  0.944  0.012  0.265-  38 2.06  39 2.08  66 2.17  57 2.18
  14  0.402  0.518  0.041-  63 2.01  40 2.02  27 2.43  15 2.44
  15  0.425  0.513  0.186-  40 2.13  64 2.14  55 2.25  63 2.26  41 2.36  14 2.44  16 2.46   4 2.53
                            28 2.53
  16  0.464  0.472  0.327-  56 2.01  41 2.04  64 2.05  15 2.46
  17  0.566  0.019  0.064-  69 1.99  42 2.02  30 2.43
  18  0.597  0.013  0.217-  70 2.07  43 2.10  61 2.21  42 2.26  69 2.26  31 2.53   6 2.53
  19  0.080  0.513  0.124-  44 2.06  68 2.09  59 2.11  67 2.36  45 2.36   7 2.53  32 2.53
  20  0.112  0.506  0.291-  46 2.05  67 2.06  45 2.09  60 2.14
  21  0.252  0.013  0.155-  47 2.06  73 2.09  53 2.25  48 2.36  74 2.36   9 2.53  34 2.53
  22  0.291  0.980  0.303-  48 2.04  74 2.04  54 2.04
  23  0.776  0.432  0.115-  51 2.02  52 2.13  71 2.18  49 2.23  24 2.34
  24  0.770  0.513  0.249-  72 2.03  71 2.09  50 2.12  52 2.25  49 2.26  23 2.34  11 2.53  37 2.53

  25  0.911  0.286  0.115-  51 2.06  68 2.10  52 2.11  39 2.18
  26  0.944  0.278  0.265-  38 2.06  39 2.08  52 2.17  67 2.18
  27  0.402  0.772  0.041-  53 2.01  40 2.02  14 2.43  28 2.44
  28  0.425  0.777  0.186-  40 2.13  54 2.14  69 2.25  53 2.26  41 2.36  27 2.44  29 2.46   4 2.53
                            15 2.53
  29  0.464  0.818  0.327-  70 2.01  41 2.04  54 2.05  28 2.46
  30  0.566  0.272  0.064-  55 1.99  42 2.02  17 2.43
  31  0.597  0.277  0.217-  56 2.07  43 2.10  71 2.21  42 2.26  55 2.26  18 2.53   6 2.53
  32  0.080  0.777  0.124-  44 2.06  58 2.09  73 2.11  57 2.36  45 2.36   7 2.53  19 2.53
  33  0.112  0.785  0.291-  46 2.05  57 2.06  45 2.09  74 2.14
  34  0.252  0.277  0.155-  47 2.06  59 2.09  63 2.25  48 2.36  60 2.36   9 2.53  21 2.53
  35  0.291  0.310  0.303-  48 2.04  60 2.04  64 2.04
  36  0.776  0.858  0.115-  65 2.02  66 2.13  61 2.18  49 2.23  37 2.34
  37  0.770  0.777  0.249-  62 2.03  61 2.09  50 2.12  66 2.25  49 2.26  36 2.34  11 2.53  24 2.53

  38  0.993  0.145  0.349-  10 2.03  26 2.06  13 2.06
  39  0.991  0.145  0.178-  26 2.08  13 2.08  25 2.18  12 2.18   9 2.25
  40  0.479  0.645  0.099-  14 2.02  27 2.02  28 2.13  15 2.13
  41  0.509  0.645  0.271-  16 2.04  29 2.04  11 2.25  28 2.36  15 2.36
  42  0.647  0.145  0.116-  30 2.02  17 2.02   1 2.25  18 2.26  31 2.26  43 2.77
  43  0.675  0.145  0.281-   2 2.06  18 2.10  31 2.10  42 2.77
  44  0.117  0.645  0.034-   3 2.03  19 2.06  32 2.06
  45  0.164  0.645  0.209-  20 2.09  33 2.09   3 2.17   4 2.25  32 2.36  19 2.36
  46  0.080  0.645  0.378-   8 2.05  20 2.05  33 2.05
  47  0.288  0.145  0.064-   5 2.03  21 2.06  34 2.06
  48  0.336  0.145  0.240-  22 2.04  35 2.04   5 2.19   6 2.25  34 2.36  21 2.36
  49  0.819  0.645  0.147-  36 2.23  23 2.23   7 2.25  24 2.26  37 2.26  50 2.71
  50  0.852  0.645  0.307-   8 2.10  24 2.12  37 2.12  49 2.71
  51  0.818  0.292  0.034-  23 2.02  25 2.06   1 2.08
  52  0.829  0.314  0.210-   2 2.04  25 2.11  23 2.13  26 2.17  24 2.25   1 2.36
  53  0.312  0.814  0.116-  27 2.01   3 2.25  21 2.25   4 2.26  28 2.26
  54  0.349  0.795  0.290-  22 2.04  29 2.05   4 2.13  28 2.14
  55  0.484  0.314  0.147-  30 1.99  15 2.25   5 2.25   6 2.26  31 2.26
  56  0.524  0.292  0.318-  16 2.01  31 2.07   6 2.09
  57  0.001  0.814  0.241-   8 2.06  33 2.06  13 2.18  32 2.36   7 2.36  58 2.76
  58  0.968  0.821  0.077-   7 2.07  32 2.09  12 2.10  57 2.76
  59  0.140  0.322  0.108-   9 2.09  34 2.09  19 2.11  60 2.77
  60  0.174  0.314  0.272-  35 2.04  10 2.11  20 2.14   9 2.36  34 2.36  59 2.77
  61  0.667  0.827  0.184-  37 2.09  36 2.18  18 2.21  11 2.32  62 2.72
  62  0.695  0.787  0.344-  11 2.01  37 2.03  72 2.72  61 2.72
  63  0.312  0.477  0.116-  14 2.01   3 2.25  34 2.25   4 2.26  15 2.26
  64  0.349  0.496  0.290-  35 2.04  16 2.05   4 2.13  15 2.14
  65  0.818  0.998  0.034-  36 2.02  12 2.06   1 2.08
  66  0.829  0.977  0.210-   2 2.04  12 2.11  36 2.13  13 2.17  37 2.25   1 2.36
  67  0.001  0.477  0.241-   8 2.06  20 2.06  26 2.18  19 2.36   7 2.36  68 2.76
  68  0.968  0.470  0.077-   7 2.07  19 2.09  25 2.10  67 2.76
  69  0.484  0.977  0.147-  17 1.99  28 2.25   5 2.25   6 2.26  18 2.26
  70  0.524  0.999  0.318-  29 2.01  18 2.07   6 2.09
  71  0.667  0.463  0.184-  24 2.09  23 2.18  31 2.21  11 2.32  72 2.72
  72  0.695  0.503  0.344-  11 2.01  24 2.03  62 2.72  71 2.72
  73  0.140  0.968  0.108-   9 2.09  21 2.09  32 2.11  74 2.77
  74  0.174  0.977  0.272-  22 2.04  10 2.11  33 2.14   9 2.36  21 2.36  73 2.77

  LATTYP: Found a simple orthorhombic cell.
 ALAT       =     9.5784100000
 B/A-ratio  =     1.7276387782
 C/A-ratio  =     1.7627867312

  Lattice vectors:

 A1 = (   0.0000000000,   9.5784100000,   0.0000000000)
 A2 = (   0.0000000000,   0.0000000000, -16.5480325497)
 A3 = ( -16.8846940542,   0.0000000000,   0.0000000000)

Analysis of symmetry for initial positions (statically):
 Subroutine PRICEL returns:
 Original cell was already a primitive cell.

 Routine SETGRP: Setting up the symmetry group for a
 simple orthorhombic supercell.

 Subroutine GETGRP returns: Found  2 space group operations
 (whereof  1 operations were pure point group operations)
 out of a pool of  8 trial point group operations.

The static configuration has the point symmetry C_1 .
 The point group associated with its full space group is C_1h.

Analysis of symmetry for dynamics (positions and initial velocities):
 Subroutine PRICEL returns:
 Original cell was already a primitive cell.

 Routine SETGRP: Setting up the symmetry group for a
 simple orthorhombic supercell.

 Subroutine GETGRP returns: Found  2 space group operations
 (whereof  1 operations were pure point group operations)
 out of a pool of  8 trial point group operations.

The dynamic configuration has the point symmetry C_1 .
 The point group associated with its full space group is C_1h.

 Subroutine INISYM returns: Found  2 space group operations
 (whereof  1 operations are pure point group operations),
 and found     1 'primitive' translations

 KPOINTS: gamma-point-only calculation. no periodi

Automatic generation of k-mesh.
Space group operators:
 irot       det(A)        alpha          n_x          n_y          n_z        tau_x        tau_y        tau_z
    1     1.000000     0.000001     1.000000     0.000000     0.000000     0.000000     0.000000     0.000000
    2    -1.000000   180.000000     0.000000     1.000000     0.000000    -0.000000     0.290594     0.000000

 Subroutine IBZKPT returns following result:

 Found      1 irreducible k-points:

 Following reciprocal coordinates:
            Coordinates               Weight
  0.000000  0.000000  0.000000      1.000000

 Following cartesian coordinates:
            Coordinates               Weight
  0.000000  0.000000  0.000000      1.000000

 SYSTEM =  "Millerite NiS"
 POSCAR =  Type_037 Type_137

 Startparameter for this run:
   NWRITE =      2    write-flag & timer
   PREC   = normal    normal or accurate (medium, high low for compatibility)
   ISTART =      0    job   : 0-new  1-cont  2-samecut
   ICHARG =      2    charge: 1-file 2-atom 10-const
   ISPIN  =      1    spin polarized calculation?
   LNONCOLLINEAR =      F non collinear calculations
   LSORBIT =      F    spin-orbit coupling
   INIWAV =      1    electr: 0-lowe 1-rand  2-diag
   LASPH  =      F    aspherical Exc in radial PAW
   METAGGA=      F    non-selfconsistent MetaGGA calc.

 Electronic Relaxation 1
   ENCUT  =  450.0 eV  33.07 Ry    5.75 a.u.  29.20 16.57 28.62*2*pi/ulx,y,z
   ENINI  =  450.0     initial cutoff
   ENAUG  =  703.4 eV  augmentation charge cutoff
   NELM   =    100;   NELMIN=  2; NELMDL= -5     # of ELM steps
   EDIFF  = 0.1E-03   stopping-criterion for ELM
   LREAL  =      T    real-space projection
   NLSPLINE    = F    spline interpolate recip. space projectors
   LCOMPAT=      F    compatible to vasp.4.4
   GGA_COMPAT  = T    GGA compatible to vasp.4.4-vasp.4.6
   LMAXPAW     = -100 max onsite density
   LMAXMIX     =    2 max onsite mixed and CHGCAR
   VOSKOWN=      0    Vosko Wilk Nusair interpolation
   ROPT   =   -0.00050  -0.00050
 Ionic relaxation
   EDIFFG = 0.1E-02   stopping-criterion for IOM
   NSW    =      0    number of steps for IOM
   NBLOCK =      1;   KBLOCK =      1    inner block; outer block
   IBRION =     -1    ionic relax: 0-MD 1-quasi-New 2-CG
[...]
     0.000000000  9.578410000  0.000000000     0.000000000  0.104401461  0.000000000
     0.000000000  0.000000000 16.548032550     0.000000000  0.000000000  0.060430145

  length of vectors
    16.884694054  9.578410000 16.548032550     0.059225237  0.104401461  0.060430145

 FORCES acting on ions
    electron-ion (+dipol)            ewald-force                    non-local-force                 convergence-correction
   0.617E+03 -.973E-03 0.206E+04   -.622E+03 -.122E-07 -.206E+04   0.441E+01 0.000E+00 0.534E+01   0.943E-02 0.227E-05 -.120E-01
   0.415E+03 -.844E-03 -.290E+04   -.420E+03 0.227E-07 0.290E+04   0.436E+01 0.000E+00 0.151E+01   0.617E-01 0.179E-05 0.723E-01
   0.562E+02 -.716E-03 0.302E+04   -.565E+02 -.308E-07 -.302E+04   0.117E+01 0.000E+00 0.637E+01   0.588E-01 0.116E-05 0.651E-02
   0.355E+03 -.893E-03 -.969E+03   -.356E+03 -.237E-06 0.972E+03   0.124E+01 0.000E+00 -.300E+01   -.304E-01 0.117E-05 0.459E-01
   -.939E+02 -.118E-02 0.241E+04   0.931E+02 0.180E-05 -.242E+04   0.157E+01 0.000E+00 0.629E+01   0.624E-01 0.782E-06 -.402E-01
   0.833E+02 -.810E-03 -.172E+04   -.857E+02 0.581E-06 0.172E+04   0.193E+01 0.000E+00 -.517E+01   0.181E-01 0.988E-06 -.301E-01
   0.684E+03 -.814E-03 0.142E+04   -.690E+03 -.307E-07 -.143E+04   0.492E+01 0.000E+00 0.496E+01   0.263E-01 -.577E-06 0.955E-01
   0.703E+03 -.687E-03 -.321E+04   -.708E+03 -.408E-08 0.321E+04   0.357E+01 0.000E+00 -.391E+01   0.121E+00 -.322E-06 0.149E+00
   0.520E+03 -.756E-03 0.939E+03   -.525E+03 0.627E-07 -.942E+03   0.360E+01 0.000E+00 0.302E+01   -.445E-01 0.419E-06 0.373E+00
   0.564E+02 -.115E-02 -.344E+04   -.599E+02 0.497E-07 0.344E+04   0.463E+01 0.000E+00 0.217E-01   -.870E-01 0.514E-06 0.225E+00
   0.465E+03 -.899E-03 -.169E+04   -.472E+03 -.124E-06 0.169E+04   0.582E+01 0.000E+00 -.216E+01   -.110E+00 0.130E-07 -.138E-01
   -.479E+03 0.221E+03 0.249E+04   0.485E+03 -.223E+03 -.249E+04   -.532E+01 0.254E+01 0.586E+01   0.313E-01 0.658E-01 0.231E-01
   0.116E+03 0.454E+03 -.223E+04   -.115E+03 -.457E+03 0.223E+04   -.257E+01 0.216E+01 -.399E+01   0.154E+00 0.797E-01 0.152E+00
   -.289E+03 0.528E+03 0.390E+04   0.288E+03 -.522E+03 -.390E+04   0.971E+00 -.673E+01 -.165E+01   0.331E-01 -.254E-01 -.108E+00
   -.607E+03 0.350E+03 0.211E+03   0.608E+03 -.353E+03 -.212E+03   -.108E+01 0.310E+01 0.271E+00   -.216E-02 -.253E-01 -.327E-01
   -.339E+03 0.889E+02 -.353E+04   0.342E+03 -.914E+02 0.352E+04   -.309E+01 0.283E+01 0.244E+01   -.148E-01 -.433E-01 0.920E-01
   -.267E+03 0.716E+03 0.350E+04   0.266E+03 -.711E+03 -.350E+04   0.126E+01 -.552E+01 -.136E+01   -.197E-01 0.345E-01 -.819E-01
   -.483E+03 0.601E+03 -.833E+03   0.487E+03 -.607E+03 0.835E+03   -.271E+01 0.515E+01 -.351E+01   -.519E-01 0.754E-01 -.268E-01
   0.546E+02 0.619E+03 0.212E+04   -.546E+02 -.624E+03 -.212E+04   0.172E+00 0.467E+01 0.468E+01   -.255E-02 -.313E-01 0.106E+00
   -.278E+03 0.417E+03 -.263E+04   0.281E+03 -.422E+03 0.263E+04   -.196E+01 0.438E+01 -.365E+01   -.451E-01 -.353E-01 0.188E+00
   0.720E+02 0.381E+03 0.142E+04   -.724E+02 -.385E+03 -.142E+04   0.702E+00 0.290E+01 0.436E+01   0.317E-01 0.228E-01 0.468E-01
   -.103E+03 0.121E+03 -.319E+04   0.103E+03 -.125E+03 0.319E+04   -.338E+00 0.389E+01 0.233E+01   -.145E+00 0.260E-01 0.997E-01
   0.517E+03 -.559E+03 0.257E+04   -.520E+03 0.562E+03 -.258E+04   0.252E+01 -.187E+01 0.878E+01   0.188E-02 -.581E-01 -.705E-01
   -.364E+02 0.246E+03 -.164E+04   0.399E+02 -.248E+03 0.165E+04   -.225E+01 0.203E+01 -.577E+01   0.961E-01 -.510E-01 0.240E-01
   -.479E+03 -.221E+03 0.249E+04   0.485E+03 0.223E+03 -.249E+04   -.532E+01 -.254E+01 0.586E+01   0.313E-01 -.658E-01 0.231E-01
   0.116E+03 -.454E+03 -.223E+04   -.115E+03 0.457E+03 0.223E+04   -.257E+01 -.216E+01 -.399E+01   0.154E+00 -.797E-01 0.152E+00
   -.289E+03 -.528E+03 0.390E+04   0.288E+03 0.522E+03 -.390E+04   0.971E+00 0.673E+01 -.165E+01   0.331E-01 0.254E-01 -.108E+00
   -.607E+03 -.350E+03 0.211E+03   0.608E+03 0.353E+03 -.212E+03   -.108E+01 -.310E+01 0.271E+00   -.216E-02 0.253E-01 -.327E-01
   -.339E+03 -.889E+02 -.353E+04   0.342E+03 0.914E+02 0.352E+04   -.309E+01 -.283E+01 0.244E+01   -.148E-01 0.433E-01 0.920E-01
   -.267E+03 -.716E+03 0.350E+04   0.266E+03 0.711E+03 -.350E+04   0.126E+01 0.552E+01 -.136E+01   -.197E-01 -.345E-01 -.819E-01
   -.483E+03 -.601E+03 -.833E+03   0.487E+03 0.607E+03 0.835E+03   -.271E+01 -.515E+01 -.351E+01   -.519E-01 -.754E-01 -.268E-01
   0.546E+02 -.619E+03 0.212E+04   -.546E+02 0.624E+03 -.212E+04   0.172E+00 -.467E+01 0.468E+01   -.254E-02 0.313E-01 0.106E+00
   -.278E+03 -.417E+03 -.263E+04   0.281E+03 0.422E+03 0.263E+04   -.196E+01 -.438E+01 -.365E+01   -.451E-01 0.353E-01 0.188E+00
   0.720E+02 -.381E+03 0.142E+04   -.724E+02 0.385E+03 -.142E+04   0.702E+00 -.290E+01 0.436E+01   0.317E-01 -.228E-01 0.468E-01
   -.103E+03 -.121E+03 -.319E+04   0.103E+03 0.125E+03 0.319E+04   -.338E+00 -.389E+01 0.233E+01   -.145E+00 -.260E-01 0.997E-01
   0.517E+03 0.559E+03 0.257E+04   -.520E+03 -.562E+03 -.258E+04   0.252E+01 0.187E+01 0.878E+01   0.188E-02 0.581E-01 -.705E-01
   -.364E+02 -.246E+03 -.164E+04   0.399E+02 0.248E+03 0.165E+04   -.225E+01 -.203E+01 -.577E+01   0.961E-01 0.510E-01 0.240E-01
   0.125E+03 -.486E-04 -.160E+04   -.124E+03 0.213E-07 0.161E+04   -.111E+01 0.000E+00 -.161E+01   0.143E+00 0.310E-06 0.231E-01
   -.239E+03 -.801E-05 0.400E+03   0.240E+03 0.996E-08 -.403E+03   0.234E+00 0.000E+00 0.607E+00   -.348E-02 0.348E-06 0.651E-01
   -.730E+03 -.379E-05 0.939E+03   0.737E+03 -.136E-05 -.941E+03   -.341E+01 0.000E+00 0.392E+00   -.585E-03 -.704E-07 -.353E-01
   -.339E+03 -.169E-05 -.636E+03   0.341E+03 -.127E-06 0.638E+03   0.493E-01 0.000E+00 -.173E+01   -.179E-01 -.128E-06 0.967E-02
   -.277E+03 0.850E-05 0.798E+03   0.279E+03 -.101E-06 -.800E+03   -.137E+00 0.000E+00 0.137E+01   -.360E-01 0.260E-06 -.274E-01
   -.747E+02 0.262E-05 -.112E+04   0.761E+02 0.276E-07 0.113E+04   -.474E+00 0.000E+00 -.230E+01   -.321E-02 0.253E-06 0.895E-02
   0.901E+02 -.194E-04 0.174E+04   -.903E+02 0.605E-07 -.175E+04   0.327E+00 0.000E+00 0.195E+01   0.649E-02 0.136E-06 -.424E-01
   -.129E+03 0.380E-05 -.207E+03   0.130E+03 0.246E-07 0.209E+03   0.102E+01 0.000E+00 -.316E+01   -.249E-01 0.249E-06 0.894E-01
   -.706E+02 -.375E-05 -.176E+04   0.710E+02 0.880E-08 0.177E+04   0.282E+00 0.000E+00 -.758E+00   0.129E-02 -.173E-07 0.884E-03
   0.100E+03 -.525E-05 0.162E+04   -.101E+03 0.375E-06 -.163E+04   0.971E+00 0.000E+00 0.186E+01   0.364E-01 -.791E-07 -.142E-01
   -.130E+03 -.376E-04 -.564E+03   0.130E+03 0.208E-06 0.569E+03   0.707E+00 0.000E+00 -.456E+01   0.583E-02 0.176E-07 -.173E-01
   0.556E+02 0.422E-05 0.723E+03   -.547E+02 -.294E-07 -.726E+03   -.378E+00 0.000E+00 0.150E+01   0.754E-02 -.553E-06 -.144E-01
   0.851E+01 -.781E-05 -.123E+04   -.741E+01 0.200E-08 0.123E+04   -.300E+00 0.000E+00 -.171E+01   0.805E-01 -.351E-06 0.529E-01
   0.676E+02 -.110E+03 0.171E+04   -.676E+02 0.111E+03 -.172E+04   -.447E+00 -.561E-01 0.269E+01   0.260E-02 -.128E-01 -.308E-01
   0.115E+03 -.151E+03 -.348E+03   -.115E+03 0.151E+03 0.352E+03   -.585E+00 0.840E+00 -.211E+01   0.354E-01 -.388E-01 0.143E-01
   0.148E+03 -.222E+03 0.841E+03   -.149E+03 0.225E+03 -.844E+03   -.665E+00 -.138E+01 0.282E+01   0.150E-01 0.123E-01 -.102E-01
   0.138E+03 0.421E+02 -.114E+04   -.139E+03 -.411E+02 0.114E+04   -.208E+00 -.335E+00 -.217E+01   -.118E-01 -.760E-02 0.265E-01
   -.204E+02 -.212E+03 0.513E+03   0.190E+02 0.214E+03 -.515E+03   -.409E+00 -.595E+00 0.174E+01   0.474E-02 -.318E-01 -.275E-01
   -.182E+03 0.217E+02 -.139E+04   0.183E+03 -.206E+02 0.140E+04   -.545E+00 -.929E+00 -.208E+01   -.796E-02 -.213E-01 0.190E-01
   0.170E+03 -.186E+03 -.418E+03   -.172E+03 0.188E+03 0.418E+03   0.276E-01 -.765E+00 -.790E+00   0.397E-01 0.129E-01 0.900E-01
   0.936E+02 -.639E+02 0.137E+04   -.950E+02 0.633E+02 -.138E+04   0.110E+01 0.126E+01 0.421E+01   -.917E-02 0.366E-01 -.159E-01
   0.135E+03 0.377E+02 0.115E+04   -.135E+03 -.389E+02 -.116E+04   0.526E-01 0.116E+01 0.368E+01   0.725E-02 -.360E-02 0.179E-01
   0.587E+02 -.121E+03 -.789E+03   -.592E+02 0.123E+03 0.790E+03   -.528E-01 -.132E+01 -.789E+00   -.103E+00 -.663E-01 0.107E+00
   0.234E+03 0.119E+03 0.324E+03   -.237E+03 -.120E+03 -.327E+03   0.110E+01 0.369E+00 0.208E+01   -.305E-01 0.292E-01 -.261E-01
   0.336E+02 -.226E+03 -.152E+04   -.347E+02 0.230E+03 0.152E+04   0.711E+00 -.251E+01 -.104E+01   -.207E-02 0.273E-01 0.564E-01
   0.148E+03 0.222E+03 0.841E+03   -.149E+03 -.225E+03 -.844E+03   -.665E+00 0.138E+01 0.282E+01   0.150E-01 -.123E-01 -.102E-01
   0.138E+03 -.421E+02 -.114E+04   -.139E+03 0.411E+02 0.114E+04   -.208E+00 0.335E+00 -.217E+01   -.118E-01 0.760E-02 0.265E-01
   0.676E+02 0.110E+03 0.171E+04   -.676E+02 -.111E+03 -.172E+04   -.447E+00 0.561E-01 0.269E+01   0.260E-02 0.128E-01 -.308E-01
   0.115E+03 0.151E+03 -.348E+03   -.115E+03 -.151E+03 0.352E+03   -.585E+00 -.840E+00 -.211E+01   0.354E-01 0.388E-01 0.143E-01
   0.170E+03 0.186E+03 -.418E+03   -.172E+03 -.188E+03 0.418E+03   0.276E-01 0.765E+00 -.790E+00   0.397E-01 -.129E-01 0.900E-01
   0.936E+02 0.639E+02 0.137E+04   -.950E+02 -.633E+02 -.138E+04   0.110E+01 -.126E+01 0.421E+01   -.917E-02 -.366E-01 -.159E-01
   -.204E+02 0.212E+03 0.513E+03   0.190E+02 -.214E+03 -.515E+03   -.409E+00 0.595E+00 0.174E+01   0.474E-02 0.318E-01 -.275E-01
   -.182E+03 -.217E+02 -.139E+04   0.183E+03 0.206E+02 0.140E+04   -.545E+00 0.929E+00 -.208E+01   -.796E-02 0.213E-01 0.190E-01
   0.234E+03 -.119E+03 0.324E+03   -.237E+03 0.120E+03 -.327E+03   0.110E+01 -.369E+00 0.208E+01   -.305E-01 -.292E-01 -.261E-01
   0.336E+02 0.226E+03 -.152E+04   -.347E+02 -.230E+03 0.152E+04   0.711E+00 0.251E+01 -.104E+01   -.207E-02 -.273E-01 0.564E-01
   0.135E+03 -.377E+02 0.115E+04   -.135E+03 0.389E+02 -.116E+04   0.526E-01 -.116E+01 0.368E+01   0.725E-02 0.360E-02 0.179E-01
   0.587E+02 0.121E+03 -.789E+03   -.592E+02 -.123E+03 0.790E+03   -.528E-01 0.132E+01 -.789E+00   -.103E+00 0.663E-01 0.107E+00
   -.796E+01 -.847E-02 -.414E+02   0.222E-11 0.455E-12 0.432E-11   0.774E+01 0.333E-14 0.392E+02   0.295E+00 0.491E-05 0.224E+01

 POSITION                                       TOTAL-FORCE (eV/Angst)
     13.17084      1.39171      1.94975        -0.011213     -0.000000      0.959971
     13.45508      1.39171      4.59905        -0.028505     -0.000000      0.730734
      3.75148      6.18092      1.52847         0.928851     -0.000000     -0.109582
      5.02033      6.18092      3.49202        -0.047741     -0.000000     -0.073584
      6.65818      1.39171      2.01643         0.848123     -0.000000     -0.215207
      7.93172      1.39171      4.00611        -0.415438     -0.000000     -0.855162
     16.08224      6.18092      2.46384        -0.311502     -0.000000      2.238186
     16.48843      6.18092      5.18941        -1.629559     -0.000000      0.465074
      2.10894      1.39171      2.97793        -0.648527     -0.000000      0.385568
      1.86296      1.39171      5.33114         0.981227     -0.000000      1.009593
     10.84312      6.18092      4.52020        -1.723871     -0.000000     -3.127282
     15.37806      0.04556      1.89805         0.902556      0.515896      0.091931
     15.93685      0.11953      4.38902        -0.913078     -0.910210      0.016801
      6.79380      4.96547      0.67557        -0.035815     -0.663999     -1.358639
      7.17375      4.91558      3.08454         0.062452     -0.568054     -0.003893
      7.83960      4.52416      5.41866        -0.068302      0.273432      1.122096
      9.55462      0.17804      1.05999         0.073910     -0.474608     -1.270769
     10.08514      0.12638      3.59863         0.720260     -0.376887     -1.512933
      1.35096      4.91558      2.05636         0.227156     -0.401509      1.767167
      1.89517      4.84689      4.80819         1.054837     -1.185942      0.526647
      4.26235      0.12638      2.57045         0.337273     -0.957727      1.362577
      4.91129      9.38853      5.01229         0.029675     -0.029818      0.812289
     13.10441      4.14192      1.90214        -0.456762      0.797389      0.207763
     12.99653      4.91558      4.11272         1.316161     -0.225563     -0.522523
     15.37806      2.73787      1.89805         0.902556     -0.515896      0.091931
     15.93685      2.66390      4.38902        -0.913078      0.910210      0.016801
      6.79380      7.39637      0.67557        -0.035815      0.663999     -1.358639
      7.17375      7.44626      3.08454         0.062452      0.568054     -0.003893
      7.83960      7.83768      5.41866        -0.068302     -0.273432      1.122096
      9.55462      2.60539      1.05999         0.073910      0.474608     -1.270769
     10.08514      2.65705      3.59863         0.720260      0.376887     -1.512933
      1.35096      7.44626      2.05636         0.227156      0.401509      1.767167
      1.89517      7.51495      4.80819         1.054837      1.185942      0.526647
      4.26235      2.65705      2.57045         0.337273      0.957727      1.362577
      4.91129      2.97331      5.01229         0.029675      0.029818      0.812289
     13.10441      8.21992      1.90214        -0.456762     -0.797389      0.207763
     12.99653      7.44626      4.11272         1.316161      0.225563     -0.522523
     16.77309      1.39171      5.78178        -0.146579     -0.000000      3.235974
     16.74052      1.39171      2.94940         1.887589     -0.000000     -2.469893
      8.09173      6.18092      1.63060         3.420755     -0.000000     -1.591933
      8.59001      6.18092      4.49167         2.017233     -0.000000      0.332410
     10.91773      1.39171      1.92122         2.088780     -0.000000     -1.093889
     11.39736      1.39171      4.64799         0.951728     -0.000000      2.787926
      1.97265      6.18092      0.55849         0.120984     -0.000000     -3.957714
      2.76722      6.18092      3.46349         1.672000     -0.000000     -0.791769
      1.34600      6.18092      6.26291         0.713725     -0.000000      4.210484
      4.86173      1.39171      1.06447         0.491667     -0.000000     -3.995237
      5.67861      1.39171      3.97758         1.270355     -0.000000      0.359225
     13.82913      6.18092      2.43531         0.548255     -0.000000     -2.067553
     14.39168      6.18092      5.08264         0.877053     -0.000000      2.590095
     13.80843      2.80010      0.56319        -0.375501      0.854540     -3.871481
     13.99844      3.00295      3.46826        -0.389701      0.999239      1.807659
      5.26426      7.79215      1.92599        -1.492561      0.732689     -0.601330
      5.90037      7.61143      4.80272        -1.145402      0.620678      1.805995
      8.17565      3.00295      2.44008        -1.772830      1.130492     -0.068048
      8.85021      2.79447      5.25532         0.190636      0.157282      2.866622
      0.02514      7.79215      3.98236        -1.088961      1.591247     -0.657944
     16.34112      7.86410      1.28098        -0.345300      0.702511     -2.888089
      2.37107      3.08829      1.78464        -0.753246     -0.052879     -2.717932
      2.93654      3.00295      4.49645        -0.618034      0.166710      0.882865
     11.26929      7.92362      3.04395        -2.027674     -0.128517     -1.032533
     11.73605      7.53984      5.69885        -0.359444      1.128884      3.757484
      5.26426      4.56969      1.92599        -1.492561     -0.732689     -0.601330
      5.90037      4.75041      4.80272        -1.145402     -0.620678      1.805995
     13.80843      9.56174      0.56319        -0.375501     -0.854540     -3.871481
     13.99844      9.35889      3.46826        -0.389701     -0.999239      1.807659
      0.02514      4.56969      3.98236        -1.088961     -1.591247     -0.657944
     16.34112      4.49774      1.28098        -0.345300     -0.702511     -2.888089
      8.17565      9.35889      2.44008        -1.772830     -1.130492     -0.068048
      8.85021      9.56736      5.25532         0.190636     -0.157282      2.866622
     11.26929      4.43822      3.04395        -2.027674      0.128517     -1.032533
     11.73605      4.82200      5.69885        -0.359444     -1.128884      3.757484
      2.37107      9.27355      1.78464        -0.753246      0.052879     -2.717932
      2.93654      9.35889      4.49645        -0.618034     -0.166710      0.882865
    total drift:                                0.073868     -0.008469      0.090158

  FREE ENERGIE OF THE ION-ELECTRON SYSTEM (eV)
  free  energy   TOTEN  =      -351.56174793 eV

  energy  without entropy=     -350.41546389  energy(sigma->0) =     -350.98860591