 vasp.5.4.4.18Apr17-6-g9f103f2a35 (build Aug 13 2019 17:33:20) gamma-only

 executed on             LinuxIFC date 2020.05.11  16:50:05

 INCAR:
 POTCAR:    PAW_PBE Ni_pv 06Sep2000
 POTCAR:    PAW_PBE S 06Sep2000
 POTCAR:    PAW_PBE Ni_pv 06Sep2000
   VRHFIN =Ni:

   TITEL  = PAW_PBE Ni_pv 06Sep2000
   POMASS =   58.690; ZVAL   =   16.000    mass and valenz
   ENMAX  =  367.986; ENMIN  =  275.989 eV

 POTCAR:    PAW_PBE S 06Sep2000
   VRHFIN =S : s2p4

   TITEL  = PAW_PBE S 06Sep2000
   POMASS =   32.066; ZVAL   =    6.000    mass and valenz
   ENMAX  =  258.689; ENMIN  =  194.016 eV

 Optimization of the real space projectors (new method)

 maximal supplied QI-value         = 18.90
 optimisation between [QCUT,QGAM] = [ 10.77, 21.73] = [ 32.49,132.25] Ry
 Optimized for a Real-space Cutoff    1.38 Angstroem

   l    n(q)    QCUT    max X(q) W(low)/X(q) W(high)/X(q)  e(spline)
   1      8    10.771     2.836    0.40E-04    0.29E-04    0.12E-06
   1      8    10.771     4.023    0.10E-03    0.48E-04    0.29E-06
   2      8    10.771    73.368    0.42E-03    0.97E-04    0.44E-06
   2      8    10.771    69.010    0.42E-03    0.99E-04    0.45E-06
   0      9    10.771    54.797    0.10E-03    0.56E-04    0.74E-07
   0      9    10.771    24.266    0.89E-04    0.49E-04    0.67E-07
 Optimization of the real space projectors (new method)

 maximal supplied QI-value         = 19.84
 optimisation between [QCUT,QGAM] = [ 10.71, 21.63] = [ 32.15,130.99] Ry
 Optimized for a Real-space Cutoff    1.19 Angstroem

   l    n(q)    QCUT    max X(q) W(low)/X(q) W(high)/X(q)  e(spline)
   0      8    10.715   187.594    0.41E-03    0.53E-04    0.66E-07
   0      8    10.715   164.243    0.41E-03    0.53E-04    0.65E-07
   1      7    10.715    67.533    0.19E-03    0.59E-03    0.68E-07
   1      7    10.715    50.729    0.19E-03    0.58E-03    0.67E-07
  PAW_PBE Ni_pv 06Sep2000               :
  PAW_PBE S 06Sep2000                   :

 POSCAR: Type_036 Type_136
  positions in cartesian coordinates
 exchange correlation table for  LEXCH =        8
   RHO(1)=    0.500       N(1)  =     2000
   RHO(2)=  100.500       N(2)  =     4000

 ion  position               nearest neighbor table
   1  0.780  0.145  0.121-  63 2.08  49 2.08  41 2.25  50 2.36  64 2.36
   2  0.801  0.145  0.286-  64 2.04  50 2.04  42 2.06
   3  0.297  0.645  0.216-  51 2.14  61 2.15  62 2.16  52 2.17  44 2.25  14 2.45  27 2.53  15 2.53

   4  0.387  0.123  0.128-  45 2.03  46 2.11  67 2.19   5 2.40  53 2.48  17 2.49
   5  0.470  0.145  0.248-  68 2.10  54 2.11  46 2.25  53 2.26  67 2.26   4 2.40  30 2.53  18 2.53

[...]

  37  0.991  0.145  0.359-   9 2.02  26 2.06  13 2.06
  38  0.991  0.145  0.182-  26 2.08  13 2.08  25 2.19  12 2.19   8 2.25
  39  0.465  0.647  0.092-  14 2.01  10 2.03  27 2.14  15 2.16
  40  0.509  0.645  0.278-  16 2.06  28 2.08  10 2.14  11 2.25  27 2.36  15 2.36
  41  0.647  0.145  0.119-  17 2.03  29 2.13   1 2.25  30 2.26  18 2.26  42 2.73
  42  0.679  0.144  0.284-   2 2.06  18 2.12  30 2.13  41 2.73
  43  0.104  0.645  0.035-  31 2.00  19 2.00
  44  0.164  0.645  0.214-  32 2.03  20 2.03   3 2.25  31 2.36  19 2.36
  45  0.284  0.146  0.064-   4 2.03  33 2.06  21 2.07
  46  0.336  0.145  0.246-  34 2.04  22 2.08   4 2.11   5 2.25  33 2.36  21 2.36
  47  0.819  0.645  0.151-  35 2.21   6 2.25  36 2.26  24 2.26  23 2.46  48 2.76
  48  0.848  0.645  0.319-   7 2.06  36 2.10  24 2.10  47 2.76
  49  0.818  0.291  0.034-  23 2.03  25 2.06   1 2.08
  50  0.829  0.314  0.214-   2 2.04  25 2.10  23 2.14  26 2.18  24 2.25   1 2.36
  51  0.312  0.824  0.138-  14 2.06  21 2.10  27 2.14   3 2.14
  52  0.358  0.776  0.306-  22 2.02  28 2.06   3 2.17  27 2.18  62 2.70
  53  0.484  0.314  0.151-  17 2.04  15 2.25  30 2.26   5 2.26  29 2.47   4 2.48
  54  0.526  0.291  0.327-  16 2.00  30 2.08   5 2.11  68 2.64
  55  0.001  0.814  0.246-   7 2.03  32 2.03  13 2.17   6 2.36  31 2.36  56 2.76
  56  0.968  0.821  0.079-   6 2.07  31 2.09  12 2.10  55 2.76
  57  0.140  0.323  0.111-   8 2.09  33 2.09  19 2.10  58 2.76
  58  0.174  0.314  0.278-  34 2.03  20 2.09   9 2.13   8 2.36  33 2.36  57 2.76
  59  0.657  0.814  0.183-  18 2.25  36 2.26  11 2.26  35 2.29  10 2.35  60 2.79
  60  0.694  0.794  0.351-  36 2.02  11 2.03  59 2.79
  61  0.311  0.470  0.134-  14 2.04  33 2.14   3 2.15  15 2.17  62 2.76
  62  0.350  0.495  0.299-  34 2.03  16 2.04   3 2.16  15 2.17  52 2.70  61 2.76
  63  0.816  0.995  0.036-  35 2.02  12 2.06   1 2.08
  64  0.829  0.977  0.214-   2 2.04  12 2.10  35 2.15  13 2.18  36 2.25   1 2.36
  65  0.001  0.477  0.246-  20 2.03   7 2.03  26 2.18   6 2.36  19 2.36  66 2.76
  66  0.968  0.469  0.080-   6 2.08  19 2.09  25 2.10  65 2.76
  67  0.484  0.977  0.151-  17 2.04   4 2.19  27 2.25  18 2.26   5 2.26
  68  0.532  0.015  0.330-  28 1.99  18 2.06   5 2.10  54 2.64
  69  0.657  0.477  0.183-  29 2.08  23 2.17  10 2.17  30 2.25  24 2.26  11 2.26
  70  0.696  0.502  0.353-  24 2.02  11 2.03
  71  0.140  0.968  0.111-   8 2.09  31 2.10  21 2.10  72 2.77
  72  0.174  0.977  0.278-  32 2.09  22 2.10   9 2.13   8 2.36  21 2.36  71 2.77

  LATTYP: Found a simple orthorhombic cell.
 ALAT       =     9.5784100000
 B/A-ratio  =     1.6880763216
 C/A-ratio  =     1.7627867312

  Lattice vectors:

 A1 = (   0.0000000000,   9.5784100000,   0.0000000000)
 A2 = (   0.0000000000,   0.0000000000, -16.1690871197)
 A3 = ( -16.8846940542,   0.0000000000,   0.0000000000)

Analysis of symmetry for initial positions (statically):
 Subroutine PRICEL returns:
 Original cell was already a primitive cell.

 Routine SETGRP: Setting up the symmetry group for a
 simple orthorhombic supercell.

 Subroutine GETGRP returns: Found  1 space group operations
 (whereof  1 operations were pure point group operations)
 out of a pool of  8 trial point group operations.

The static configuration has the point symmetry C_1 .

Analysis of symmetry for dynamics (positions and initial velocities):
 Subroutine PRICEL returns:
 Original cell was already a primitive cell.

 Routine SETGRP: Setting up the symmetry group for a
 simple orthorhombic supercell.

 Subroutine GETGRP returns: Found  1 space group operations
 (whereof  1 operations were pure point group operations)
 out of a pool of  8 trial point group operations.

The dynamic configuration has the point symmetry C_1 .

 Subroutine INISYM returns: Found  1 space group operations
 (whereof  1 operations are pure point group operations),
 and found     1 'primitive' translations

 KPOINTS: gamma-point-only calculation. no periodi

Automatic generation of k-mesh.
Space group operators:
 irot       det(A)        alpha          n_x          n_y          n_z        tau_x        tau_y        tau_z
    1     1.000000     0.000000     1.000000     0.000000     0.000000     0.000000     0.000000     0.000000

 Subroutine IBZKPT returns following result:

 Found      1 irreducible k-points:

 Following reciprocal coordinates:
            Coordinates               Weight
  0.000000  0.000000  0.000000      1.000000

 Following cartesian coordinates:
            Coordinates               Weight
  0.000000  0.000000  0.000000      1.000000

 SYSTEM =  "Millerite NiS"
 POSCAR =  Type_036 Type_136

 Startparameter for this run:
   NWRITE =      2    write-flag & timer
   PREC   = normal    normal or accurate (medium, high low for compatibility)
   ISTART =      0    job   : 0-new  1-cont  2-samecut
   ICHARG =      2    charge: 1-file 2-atom 10-const
   ISPIN  =      1    spin polarized calculation?
   LNONCOLLINEAR =      F non collinear calculations
   LSORBIT =      F    spin-orbit coupling
   INIWAV =      1    electr: 0-lowe 1-rand  2-diag
   LASPH  =      F    aspherical Exc in radial PAW
   METAGGA=      F    non-selfconsistent MetaGGA calc.

 Electronic Relaxation 1
   ENCUT  =  450.0 eV  33.07 Ry    5.75 a.u.  29.20 16.57 27.97*2*pi/ulx,y,z
   ENINI  =  450.0     initial cutoff
   ENAUG  =  703.4 eV  augmentation charge cutoff
   NELM   =    100;   NELMIN=  2; NELMDL= -5     # of ELM steps
   EDIFF  = 0.1E-03   stopping-criterion for ELM
   LREAL  =      T    real-space projection
   NLSPLINE    = F    spline interpolate recip. space projectors
   LCOMPAT=      F    compatible to vasp.4.4
   GGA_COMPAT  = T    GGA compatible to vasp.4.4-vasp.4.6
   LMAXPAW     = -100 max onsite density
   LMAXMIX     =    2 max onsite mixed and CHGCAR
   VOSKOWN=      0    Vosko Wilk Nusair interpolation
   ROPT   =   -0.00050  -0.00050
 Ionic relaxation
   EDIFFG = 0.1E-02   stopping-criterion for IOM
   NSW    =      0    number of steps for IOM
   NBLOCK =      1;   KBLOCK =      1    inner block; outer block
   IBRION =     -1    ionic relax: 0-MD 1-quasi-New 2-CG
   NFREE  =      0    steps in history (QN), initial steepest desc. (CG)
   ISIF   =      2    stress and relaxation
   IWAVPR =     10    prediction:  0-non 1-charg 2-wave 3-comb
   ISYM   =      2    0-nonsym 1-usesym 2-fastsym
   LCORR  =      T    Harris-Foulkes like correction to forces

   POTIM  = 0.5000    time-step for ionic-motion
   TEIN   =    0.0    initial temperature
   TEBEG  =    0.0;   TEEND  =   0.0 temperature during run
   SMASS  =  -3.00    Nose mass-parameter (am)
   estimated Nose-frequenzy (Omega)   =  0.10E-29 period in steps =****** mass=  -0.652E-26a.u.
   SCALEE = 1.0000    scale energy and forces
   NPACO  =    256;   APACO  = 16.0  distance and # of slots for P.C.
   PSTRESS=    0.0 pullay stress

  Mass of Ions in am
   POMASS =  58.69 32.07
  Ionic Valenz
   ZVAL   =  16.00  6.00
  Atomic Wigner-Seitz radii
  virtual crystal weights
   VCA    =   1.00  1.00
   NELECT =     792.0000    total number of electrons
   NUPDOWN=      -1.0000    fix difference up-down

 DOS related values:
   EMIN   =  10.00;   EMAX   =-10.00  energy-range for DOS
   EFERMI =   0.00
   ISMEAR =     0;   SIGMA  =   0.20  broadening in eV -4-tet -1-fermi 0-gaus

 Electronic relaxation 2 (details)
   IALGO  =     38    algorithm
   LDIAG  =      T    sub-space diagonalisation (order eigenvalues)
   LSUBROT=      F    optimize rotation matrix (better conditioning)
   TURBO    =      0    0=normal 1=particle mesh
   IRESTART =      0    0=no restart 2=restart with 2 vectors
   NREBOOT  =      0    no. of reboots
   NMIN     =      0    reboot dimension
   EREF     =   0.00    reference energy to select bands
   IMIX   =      4    mixing-type and parameters
     AMIX     =   0.40;   BMIX     =  1.00
     AMIX_MAG =   1.60;   BMIX_MAG =  1.00
     AMIN     =   0.10
     WC   =   100.;   INIMIX=   1;  MIXPRE=   1;  MAXMIX= -45

 Intra band minimization:
   WEIMIN = 0.0000     energy-eigenvalue tresh-hold
   EBREAK =  0.53E-07  absolut break condition
   DEPER  =   0.30     relativ break condition

   TIME   =   0.40     timestep for ELM

  volume/ion in A,a.u.               =      36.32       245.10
  Fermi-wavevector in a.u.,A,eV,Ry     =   1.099409  2.077581 16.445356  1.208700
  Thomas-Fermi vector in A             =   2.235803

 Write flags
   LWAVE        =      F    write WAVECAR
   LDOWNSAMPLE  =      F    k-point downsampling of WAVECAR
   LCHARG       =      F    write CHGCAR
   LVTOT        =      F    write LOCPOT, total local potential
[...]
  Fock        0.00000     0.00000     0.00000     0.00000     0.00000     0.00000
  Total     113.31229   121.06292   142.50971    -2.48765    -0.43151    -3.45936
  in kB      69.42494    74.17364    87.31381    -1.52415    -0.26438    -2.11950

 VOLUME and BASIS-vectors are now :
  energy-cutoff  :      450.00
  volume of cell :     2615.00
      direct lattice vectors                 reciprocal lattice vectors
    16.884694054  0.000000000  0.000000000     0.059225237  0.000000000  0.000000000
     0.000000000  9.578410000  0.000000000     0.000000000  0.104401461  0.000000000
     0.000000000  0.000000000 16.169087120     0.000000000  0.000000000  0.061846411

  length of vectors
    16.884694054  9.578410000 16.169087120     0.059225237  0.104401461  0.061846411

 FORCES acting on ions
    electron-ion (+dipol)            ewald-force                    non-local-force                 convergence-correction
   0.509E+03 0.207E+03 0.209E+04   -.513E+03 -.207E+03 -.209E+04   0.306E+01 0.164E+00 0.555E+01   0.122E+00 -.248E+00 -.100E+00
   0.332E+03 0.380E+02 -.292E+04   -.336E+03 -.376E+02 0.292E+04   0.302E+01 -.270E+00 0.144E+01   0.251E+00 -.890E-01 0.202E+00
   0.859E+03 0.477E+02 -.589E+03   -.865E+03 -.477E+02 0.590E+03   0.545E+01 0.108E-01 -.368E+00   -.213E+00 -.205E-01 0.513E-01
   0.103E+03 0.282E+02 0.256E+04   -.102E+03 -.284E+02 -.257E+04   0.918E+00 0.763E+00 0.762E+01   -.150E+00 -.563E-02 -.116E-01
   0.331E+03 -.110E+01 -.168E+04   -.334E+03 0.106E+01 0.168E+04   0.264E+01 0.220E+00 -.537E+01   -.170E+00 -.180E-02 0.199E+00
   0.468E+03 0.900E+01 0.144E+04   -.474E+03 -.903E+01 -.144E+04   0.521E+01 -.943E-01 0.423E+01   0.326E+00 0.846E-01 -.658E-01
   0.204E+03 -.245E+01 -.323E+04   -.206E+03 0.250E+01 0.323E+04   0.183E+01 -.852E-01 0.182E+00   0.242E+00 0.372E-01 -.190E-01
   0.405E+03 -.802E+01 0.985E+03   -.410E+03 0.807E+01 -.987E+03   0.411E+01 -.495E-01 0.276E+01   -.794E-01 -.361E-02 0.270E+00
   -.663E+02 0.118E+02 -.335E+04   0.633E+02 -.119E+02 0.335E+04   0.438E+01 0.686E-01 -.115E+01   0.474E-01 -.269E-02 -.420E-01
   -.302E+03 -.301E+03 0.191E+04   0.305E+03 0.302E+03 -.191E+04   -.164E+01 -.551E+00 0.351E+01   -.955E-01 0.379E-01 -.761E-01
   0.163E+03 -.101E+03 -.221E+04   -.166E+03 0.101E+03 0.222E+04   0.222E+01 -.225E+00 -.680E+01   -.941E-01 0.184E-01 0.772E-01
   -.605E+03 0.244E+03 0.249E+04   0.611E+03 -.246E+03 -.249E+04   -.525E+01 0.297E+01 0.527E+01   0.295E+00 -.208E+00 0.771E-02
   -.501E+02 0.510E+03 -.219E+04   0.519E+02 -.513E+03 0.220E+04   -.317E+01 0.244E+01 -.382E+01   0.338E+00 -.549E-01 0.616E-01
   0.369E+03 -.961E+01 0.390E+04   -.373E+03 0.942E+01 -.391E+04   0.296E+01 0.331E+00 0.384E+01   -.119E+00 -.557E-02 -.506E-01
   -.473E+02 0.510E+03 0.639E+03   0.483E+02 -.515E+03 -.641E+03   -.131E+00 0.391E+01 0.174E+01   -.181E+00 0.370E-01 0.780E-01
   -.826E+02 0.111E+03 -.357E+04   0.851E+02 -.114E+03 0.357E+04   -.222E+01 0.391E+01 0.226E+01   -.187E+00 0.196E-01 0.198E+00
   0.843E+02 0.416E+03 0.359E+04   -.849E+02 -.416E+03 -.360E+04   0.299E+00 0.635E+00 0.576E+01   -.650E-01 -.218E-01 -.195E+00
   -.472E+03 0.627E+03 -.545E+03   0.476E+03 -.633E+03 0.546E+03   -.255E+01 0.563E+01 -.271E+01   -.942E-01 -.828E-01 0.502E-01
   -.400E+03 0.436E+03 0.218E+04   0.403E+03 -.441E+03 -.218E+04   -.274E+01 0.353E+01 0.474E+01   0.648E-01 0.188E+00 -.356E-01
   -.278E+03 0.119E+03 -.260E+04   0.279E+03 -.120E+03 0.260E+04   -.535E+00 0.817E+00 -.278E-01   0.351E-01 -.342E-01 -.233E-01
   0.227E+03 0.460E+03 0.162E+04   -.228E+03 -.462E+03 -.163E+04   0.166E+01 0.203E+01 0.393E+01   -.305E+00 -.664E-02 0.103E+00
   0.106E+03 0.114E+03 -.283E+04   -.104E+03 -.117E+03 0.284E+04   -.195E+01 0.307E+01 -.120E+01   -.213E+00 0.164E-01 0.156E+00
   0.366E+02 -.602E+03 0.249E+04   -.389E+02 0.604E+03 -.250E+04   0.167E+01 -.867E+00 0.780E+01   0.786E-01 0.194E+00 -.941E-01
   -.307E+03 0.256E+03 -.165E+04   0.310E+03 -.259E+03 0.166E+04   -.192E+01 0.288E+01 -.589E+01   0.199E+00 0.806E-01 0.110E+00
   -.635E+03 -.262E+03 0.248E+04   0.640E+03 0.264E+03 -.248E+04   -.509E+01 -.305E+01 0.529E+01   0.446E+00 0.271E-01 -.786E-03
   -.586E+02 -.507E+03 -.219E+04   0.603E+02 0.510E+03 0.220E+04   -.320E+01 -.243E+01 -.401E+01   0.395E+00 -.459E-01 0.115E+00
   -.218E+03 -.490E+03 0.708E+03   0.219E+03 0.494E+03 -.709E+03   -.517E-01 -.421E+01 0.160E+01   -.146E+00 -.409E-01 0.803E-01
   -.164E+03 -.133E+03 -.340E+04   0.168E+03 0.137E+03 0.340E+04   -.374E+01 -.458E+01 0.700E+00   -.172E+00 -.310E-01 0.177E+00
   0.659E+02 -.512E+03 0.351E+04   -.639E+02 0.510E+03 -.351E+04   -.182E+01 0.226E+01 -.727E+00   -.147E+00 0.659E-01 -.234E+00
   -.353E+03 -.286E+03 -.109E+04   0.356E+03 0.291E+03 0.109E+04   -.259E+01 -.445E+01 -.472E+01   -.143E+00 0.285E-01 0.987E-01
   -.392E+03 -.431E+03 0.218E+04   0.394E+03 0.435E+03 -.219E+04   -.240E+01 -.347E+01 0.487E+01   0.170E-01 -.161E+00 -.383E-01
   -.267E+03 -.119E+03 -.260E+04   0.268E+03 0.120E+03 0.261E+04   -.697E+00 -.114E+01 0.201E-01   -.498E-02 0.350E-01 -.327E-01
   0.860E+02 -.539E+03 0.157E+04   -.869E+02 0.542E+03 -.158E+04   0.136E+01 -.262E+01 0.423E+01   -.297E+00 0.825E-02 0.121E+00
   0.450E+02 -.102E+03 -.307E+04   -.439E+02 0.106E+03 0.307E+04   -.884E+00 -.389E+01 0.185E+01   -.226E+00 -.137E-02 0.163E+00
   0.466E+03 0.437E+03 0.261E+04   -.468E+03 -.440E+03 -.262E+04   0.153E+01 0.191E+01 0.770E+01   0.143E+00 -.106E+00 -.166E+00
   -.197E+03 -.344E+03 -.162E+04   0.199E+03 0.347E+03 0.163E+04   -.143E+01 -.305E+01 -.519E+01   0.235E+00 0.675E-01 -.103E+00
   0.774E+02 0.228E+01 -.160E+04   -.767E+02 -.228E+01 0.160E+04   -.115E+01 -.516E-02 -.154E+01   0.143E+00 -.183E-01 0.711E-02
   -.292E+03 0.140E+01 0.411E+03   0.293E+03 -.144E+01 -.414E+03   0.121E+00 0.528E-01 0.672E+00   0.132E+00 -.354E-01 0.617E-01
   -.225E+03 -.573E+02 0.146E+04   0.227E+03 0.573E+02 -.147E+04   -.412E+00 0.526E-01 0.200E+01   -.601E-01 0.406E-02 -.693E-01
   -.122E+03 -.228E+02 -.844E+03   0.123E+03 0.228E+02 0.849E+03   0.993E+00 0.125E-01 -.395E+01   -.926E-01 0.676E-02 0.699E-01
   -.186E+03 0.283E+03 0.955E+03   0.188E+03 -.285E+03 -.959E+03   -.492E+00 0.240E+01 0.173E+01   -.407E-01 -.386E-01 -.674E-01
   -.867E+02 0.328E+02 -.108E+04   0.880E+02 -.326E+02 0.109E+04   -.622E+00 -.920E-01 -.224E+01   -.177E-01 -.144E-01 0.812E-01
   -.204E+03 0.120E+01 0.162E+04   0.205E+03 -.122E+01 -.163E+04   -.926E-01 0.262E-01 0.902E+00   -.142E-01 0.544E-02 0.287E-01
   -.236E+03 0.661E+01 0.671E+01   0.237E+03 -.667E+01 -.543E+01   0.916E+00 0.136E-02 -.187E+01   -.705E-01 -.180E-02 -.193E-01
   0.971E+02 -.319E+02 0.166E+04   -.975E+02 0.320E+02 -.167E+04   0.793E+00 -.503E-01 0.181E+01   -.825E-01 -.123E-03 -.587E-01
   -.459E+02 -.348E+02 -.586E+03   0.471E+02 0.346E+02 0.592E+03   -.344E-01 -.155E+00 -.431E+01   -.889E-01 0.122E-01 0.808E-01
   -.316E+02 0.307E+02 0.741E+03   0.323E+02 -.310E+02 -.745E+03   -.523E+00 -.133E+00 0.242E+01   0.104E+00 0.910E-01 -.436E-01
   -.683E+02 -.426E+01 -.128E+04   0.699E+02 0.437E+01 0.128E+04   -.729E+00 -.160E+00 -.324E+01   0.957E-01 0.125E-01 0.390E-01
   -.276E+02 -.101E+03 0.173E+04   0.278E+02 0.102E+03 -.173E+04   -.483E+00 -.212E+00 0.275E+01   0.815E-01 0.896E-02 -.159E+00
   0.275E+02 -.161E+03 -.347E+03   -.277E+02 0.162E+03 0.350E+03   -.478E+00 0.703E+00 -.184E+01   0.134E+00 0.312E-01 0.744E-01
   0.197E+03 -.133E+03 0.884E+03   -.197E+03 0.133E+03 -.888E+03   -.357E+00 0.341E+00 0.263E+01   -.722E-01 -.355E-01 -.855E-02
   0.202E+03 0.969E+02 -.124E+04   -.203E+03 -.963E+02 0.125E+04   -.263E+00 -.154E-01 -.300E+01   -.390E-01 -.108E-01 0.737E-01
   0.201E+03 -.244E+03 0.668E+03   -.203E+03 0.247E+03 -.668E+03   0.104E+01 -.869E+00 0.310E+00   -.564E-01 0.309E-01 -.619E-02
   -.126E+03 0.488E+02 -.142E+04   0.127E+03 -.474E+02 0.142E+04   -.100E+01 -.114E+01 -.280E+01   -.801E-01 0.180E-01 0.963E-01
   0.833E+02 -.153E+03 -.441E+03   -.838E+02 0.156E+03 0.443E+03   -.510E+00 -.769E+00 -.129E+01   0.747E-01 0.190E-01 -.279E-01
   0.193E+02 -.529E+02 0.135E+04   -.217E+02 0.526E+02 -.136E+04   0.187E+01 0.103E+01 0.395E+01   0.884E-01 -.477E-01 0.134E-01
   0.611E+02 -.405E+02 0.116E+04   -.624E+02 0.392E+02 -.117E+04   0.655E+00 0.143E+01 0.415E+01   -.486E-01 0.197E-01 0.386E-01
   0.457E+02 -.134E+03 -.771E+03   -.465E+02 0.136E+03 0.774E+03   -.165E+00 -.195E+01 -.172E+01   -.836E-01 -.595E-01 0.487E-01
   0.926E+02 -.868E+02 0.454E+03   -.947E+02 0.888E+02 -.456E+03   0.155E+01 -.146E+01 0.171E+01   0.324E-01 0.799E-02 -.662E-01
   0.450E+01 -.253E+03 -.152E+04   -.538E+01 0.257E+03 0.153E+04   0.450E+00 -.228E+01 -.106E+01   0.155E-01 0.248E-01 0.934E-01
   0.202E+03 0.182E+03 0.899E+03   -.203E+03 -.183E+03 -.903E+03   0.962E-01 -.234E+00 0.239E+01   -.658E-01 0.377E-01 -.401E-02
   0.228E+03 -.539E+02 -.110E+04   -.229E+03 0.531E+02 0.111E+04   -.230E-01 0.499E+00 -.280E+01   -.513E-01 -.971E-03 0.693E-01
   0.678E+02 0.121E+03 0.170E+04   -.678E+02 -.123E+03 -.171E+04   -.373E+00 0.582E+00 0.268E+01   0.432E-01 -.119E+00 -.749E-01
   0.833E+02 0.158E+03 -.328E+03   -.836E+02 -.158E+03 0.332E+03   -.321E+00 -.823E+00 -.221E+01   0.115E+00 -.922E-01 -.116E-01
   0.831E+02 0.153E+03 -.438E+03   -.837E+02 -.155E+03 0.440E+03   -.427E+00 0.703E+00 -.120E+01   0.104E+00 0.956E-02 -.171E-01
   0.239E+02 0.521E+02 0.135E+04   -.263E+02 -.519E+02 -.136E+04   0.159E+01 -.105E+01 0.391E+01   0.131E+00 0.817E-01 0.185E-03
   -.402E+02 0.338E+03 0.737E+03   0.406E+02 -.341E+03 -.740E+03   -.107E+01 0.686E+00 0.249E+01   -.342E-01 -.382E-01 -.830E-02
   -.154E+03 -.533E+02 -.145E+04   0.154E+03 0.515E+02 0.146E+04   -.584E+00 0.163E+01 -.207E+01   -.773E-01 -.215E-01 0.907E-01
   -.166E+02 -.106E+03 0.207E+03   0.150E+02 0.105E+03 -.207E+03   0.958E+00 0.769E+00 -.759E-01   -.410E-01 0.336E-01 -.100E-01
   -.445E+01 0.231E+03 -.156E+04   0.335E+01 -.235E+03 0.157E+04   0.627E+00 0.232E+01 -.733E+00   0.137E-01 -.190E-01 0.107E+00
   0.688E+02 0.364E+02 0.116E+04   -.701E+02 -.350E+02 -.117E+04   0.638E+00 -.146E+01 0.424E+01   -.545E-01 -.228E-01 0.385E-01
   0.344E+02 0.113E+03 -.811E+03   -.351E+02 -.114E+03 0.814E+03   0.296E+00 0.164E+01 -.189E+01   -.980E-01 0.647E-01 0.432E-01
   -.961E+00 -.433E+01 -.475E+02   -.112E-11 0.104E-11 -.716E-11   0.780E+00 0.456E+01 0.458E+02   0.175E+00 -.281E+00 0.153E+01

 POSITION                                       TOTAL-FORCE (eV/Angst)
     13.17084      1.39171      1.94975         0.158577     -0.267678      0.886831
     13.53037      1.39114      4.62978         0.051691      0.045575      0.874598
      5.02033      6.18092      3.49202        -1.216731     -0.090861      0.618349
      6.53851      1.17980      2.06460         0.868863      0.519803     -0.266612
      7.93172      1.39171      4.00611        -0.577257      0.177262     -0.706141
     16.08224      6.18092      2.46384        -0.550421     -0.038625      2.073873
     16.37164      6.18088      5.09066         0.146233      0.002335      0.659541
      2.10894      1.39171      2.97793        -0.479903     -0.001662      0.590734
      1.79522      1.39262      5.30244         1.447747      0.000716      0.768139
      9.55294      6.05719      2.57978         0.852811      0.334472     -0.565533
     10.84312      6.18092      4.52020        -0.872342      0.274882     -1.258455
     15.37003      0.04316      1.89740         0.914470      0.733941     -0.051826
     15.94197      0.11754      4.39230        -1.070706     -0.736054     -0.089059
      5.86163      6.20350      1.19504        -0.908763      0.133615     -1.986798
      7.17375      4.91558      3.08454         0.659289     -0.655029     -0.229278
      7.84089      4.49281      5.41458         0.074270      0.335044      0.780724
      8.94100      1.38851      1.45503        -0.372699     -0.088056     -2.030165
     10.08514      0.12638      3.59863         0.878194     -0.417380     -1.660699
      1.35096      4.91558      2.05636         0.355265     -0.718488      2.280350
      1.90822      4.81671      4.69401         0.304760      0.331657      1.312890
      4.26235      0.12638      2.57045        -0.257854     -0.244510      0.518206
      5.00671      9.15712      4.75364        -0.511036      0.587278      1.207928
     12.89030      3.97206      1.91010        -0.562371      1.208986      0.072828
     12.99653      4.91558      4.11272         1.064422      0.023269     -1.687597
     15.37352      2.73733      1.90074         0.890375     -0.615732     -0.098262
     15.94491      2.66417      4.39470        -1.129549      0.790459     -0.142597
      7.17375      7.44626      3.08454         0.928785      0.454615     -0.126332
      7.98268      8.00776      5.28453        -0.312330     -0.848736      0.896956
     10.38184      3.38504      1.39828        -0.035935      0.393346     -0.983439
     10.08514      2.65705      3.59863         0.537264      0.009845     -0.162858
      1.35096      7.44626      2.05636         0.339938      0.792948      2.226039
      1.91205      7.54938      4.69065         0.289050     -0.335525      1.316828
      4.26235      2.65705      2.57045         0.209329      0.556894      1.287711
      4.90683      2.98216      5.00108         0.032111     -0.253645      0.797838
     13.09097      8.19236      1.91197        -0.913917     -0.746190      0.278840
     12.99653      7.44626      4.11272         0.570879     -0.022373     -1.432740
     16.72663      1.38905      5.81250        -0.293421     -0.028349      3.334851
     16.74052      1.39171      2.94940         1.802739     -0.026413     -2.248074
      7.85335      6.19266      1.48450         1.445525     -0.012143     -3.289490
      8.59001      6.18092      4.49167         1.542226      0.065761      1.188386
     10.91773      1.39171      1.92122         1.513350     -0.342029     -1.693991
     11.46595      1.38269      4.59508         0.681043      0.034350      2.516503
      1.76109      6.18112      0.56376         1.447040      0.012500     -3.886492
      2.76722      6.18092      3.46349         2.126210     -0.067692     -0.609863
      4.80235      1.39870      1.03257         0.334742      0.016714     -3.894534
      5.67861      1.39171      3.97758         1.067521     -0.305039      1.568873
     13.82913      6.18092      2.43531         0.289082     -0.371536     -1.485023
     14.31539      6.18226      5.15110         1.029819     -0.039786      2.665229
     13.81583      2.78734      0.55103        -0.237983      0.799518     -3.746980
     13.99844      3.00295      3.46826        -0.489464      1.356263      1.745317
      5.26736      7.88974      2.22344        -0.871938      0.401674     -1.646312
      6.03669      7.43195      4.94156        -1.234241      0.563455      2.189088
      8.17565      3.00295      2.44008        -0.833499      1.344355     -0.504318
      8.87575      2.78539      5.28147         0.200782      0.318954      2.700836
      0.02514      7.79215      3.98236        -0.902714      1.496774      0.481460
     16.33812      7.86705      1.28294        -0.440028      0.691415     -2.885109
      2.36595      3.09399      1.79479        -0.738180      0.160652     -2.822845
      2.93654      3.00295      4.49645        -1.010071     -0.260897      1.166427
     11.08705      7.79215      2.95417        -0.536198      0.498622     -1.017954
     11.71819      7.60590      5.66788        -0.412188      1.372578      3.683525
      5.25955      4.50466      2.15961        -0.929165     -0.858958     -1.554340
      5.90280      4.74145      4.83756        -0.995988     -0.344602      1.967904
     13.78560      9.53452      0.57911        -0.348405     -0.698160     -3.939122
     13.99844      9.35889      3.46826        -0.582444     -1.384264      1.626791
      0.02514      4.56969      3.98236        -0.878942     -1.522599      0.532774
     16.34359      4.49108      1.28637        -0.654162     -0.782700     -2.911301
      8.17565      9.35889      2.44008        -0.757186     -1.913917     -0.137218
      8.98231      0.14625      5.33851         0.177872     -0.138650      2.932188
     11.08705      4.56969      2.95417        -0.669597     -0.508022     -0.350078
     11.75824      4.81256      5.70432        -0.462308     -1.381613      3.815733
      2.35803      9.27140      1.79186        -0.705943     -0.120276     -2.818580
      2.93654      9.35889      4.49645        -0.476397      0.347665      1.354927
    total drift:                               -0.006123     -0.057440     -0.100888

  FREE ENERGIE OF THE ION-ELECTRON SYSTEM (eV)
  free  energy   TOTEN  =      -341.58718903 eV

  energy  without entropy=     -340.57613609  energy(sigma->0) =     -341.08166256