 vasp.5.4.4.18Apr17-6-g9f103f2a35 (build Aug 13 2019 17:33:20) gamma-only

 executed on             LinuxIFC date 2020.05.10  16:11:29

 INCAR:
 POTCAR:    PAW_PBE Ni_pv 06Sep2000
 POTCAR:    PAW_PBE S 06Sep2000
 POTCAR:    PAW_PBE Ni_pv 06Sep2000
   VRHFIN =Ni:

   TITEL  = PAW_PBE Ni_pv 06Sep2000
   POMASS =   58.690; ZVAL   =   16.000    mass and valenz
   ENMAX  =  367.986; ENMIN  =  275.989 eV

 POTCAR:    PAW_PBE S 06Sep2000
   VRHFIN =S : s2p4

   TITEL  = PAW_PBE S 06Sep2000
   POMASS =   32.066; ZVAL   =    6.000    mass and valenz
   ENMAX  =  258.689; ENMIN  =  194.016 eV

 Optimization of the real space projectors (new method)

 maximal supplied QI-value         = 18.90
 optimisation between [QCUT,QGAM] = [ 10.77, 21.73] = [ 32.49,132.25] Ry
 Optimized for a Real-space Cutoff    1.38 Angstroem

   l    n(q)    QCUT    max X(q) W(low)/X(q) W(high)/X(q)  e(spline)
   1      8    10.771     2.836    0.40E-04    0.29E-04    0.12E-06
   1      8    10.771     4.023    0.10E-03    0.48E-04    0.29E-06
   2      8    10.771    73.368    0.42E-03    0.97E-04    0.44E-06
   2      8    10.771    69.010    0.42E-03    0.99E-04    0.45E-06
   0      9    10.771    54.797    0.10E-03    0.56E-04    0.74E-07
   0      9    10.771    24.266    0.89E-04    0.49E-04    0.67E-07
 Optimization of the real space projectors (new method)

 maximal supplied QI-value         = 19.84
 optimisation between [QCUT,QGAM] = [ 10.71, 21.63] = [ 32.15,130.99] Ry
 Optimized for a Real-space Cutoff    1.19 Angstroem

   l    n(q)    QCUT    max X(q) W(low)/X(q) W(high)/X(q)  e(spline)
   0      8    10.715   187.594    0.41E-03    0.53E-04    0.66E-07
   0      8    10.715   164.243    0.41E-03    0.53E-04    0.65E-07
   1      7    10.715    67.533    0.19E-03    0.59E-03    0.68E-07
   1      7    10.715    50.729    0.19E-03    0.58E-03    0.67E-07
  PAW_PBE Ni_pv 06Sep2000               :
  PAW_PBE S 06Sep2000                   :

 POSCAR: Type_048 Type_148
  positions in cartesian coordinates
 exchange correlation table for  LEXCH =        8
   RHO(1)=    0.500       N(1)  =     2000
   RHO(2)=  100.500       N(2)  =     4000

 ion  position               nearest neighbor table
   1  0.261  0.479  0.253-  73 2.25  58 2.26  81 2.26  54 2.36  59 2.36   7 2.53  21 2.53
   2  0.355  0.385  0.388-  74 2.25  54 2.26  59 2.26   3 2.35  60 2.36  66 2.36   8 2.53  22 2.53

   3  0.366  0.374  0.496-  52 2.04  60 2.12  66 2.12   2 2.35
   4  0.186  0.058  0.132-  56 2.08  75 2.09  55 2.13  82 2.15  64 2.42  36 2.46
   5  0.049  0.055  0.473-  50 2.05  77 2.07  72 2.10  78 2.15
   6  0.277  0.318  0.102-  58 2.04  55 2.07  57 2.13  51 2.19
   7  0.368  0.239  0.218-  56 2.25  58 2.26  51 2.26  59 2.36  61 2.36   1 2.53  21 2.53
   8  0.462  0.145  0.353-  79 2.25  59 2.26  61 2.26  60 2.36  62 2.36   2 2.53  22 2.53
   9  0.000  0.372  0.218-  58 2.25  64 2.26  92 2.26  49 2.36  67 2.36  13 2.53  19 2.53
  10  0.094  0.278  0.353-  59 2.25  49 2.26  67 2.26  53 2.36  50 2.36  20 2.53  14 2.53
  11  0.186  0.191  0.472-  50 2.05  77 2.08  53 2.10  60 2.14
  12  0.409  0.453  0.103-  81 2.04  80 2.04  51 2.06  28 2.46
  13  0.761  0.479  0.253-  85 2.25  70 2.26  92 2.26  67 2.36  71 2.36  19 2.53   9 2.53
  14  0.855  0.385  0.388-  86 2.25  67 2.26  71 2.26  72 2.36  53 2.36  15 2.38  20 2.53  10 2.53

[...]

  32  0.462  0.645  0.353-  54 2.25  83 2.26  85 2.26  84 2.36  86 2.36  26 2.53  46 2.53
  33  0.000  0.872  0.218-  82 2.25  88 2.26  69 2.26  73 2.36  90 2.36  37 2.53  43 2.53
  34  0.094  0.778  0.353-  83 2.25  73 2.26  90 2.26  78 2.36  74 2.36  44 2.53  38 2.53
  35  0.189  0.689  0.473-  74 2.05  52 2.08  84 2.11  78 2.13  39 2.47
  36  0.406  0.965  0.083-  75 2.04  55 2.06  93 2.08  76 2.36  56 2.36   4 2.46
  37  0.761  0.979  0.253-  61 2.25  94 2.26  69 2.26  90 2.36  95 2.36  43 2.53  33 2.53
  38  0.855  0.885  0.388-  62 2.25  90 2.26  95 2.26  96 2.36  78 2.36  44 2.53  34 2.53
  39  0.955  0.785  0.505-  96 2.00  78 2.00  35 2.47  29 2.47
  40  0.686  0.560  0.131-  63 2.08  92 2.09  91 2.15  70 2.18  76 2.41  24 2.46
  41  0.549  0.554  0.472-  86 2.05  65 2.08  84 2.10  66 2.14
  42  0.774  0.833  0.083-  87 1.99  91 2.07  93 2.08  88 2.36  94 2.36  48 2.47  16 2.53
  43  0.868  0.739  0.218-  92 2.25  94 2.26  88 2.26  95 2.36  73 2.36  37 2.53  33 2.53
  44  0.962  0.645  0.353-  67 2.25  95 2.26  73 2.26  96 2.36  74 2.36  38 2.53  34 2.53
  45  0.500  0.872  0.218-  94 2.25  76 2.26  56 2.26  85 2.36  79 2.36  25 2.53  31 2.53
  46  0.594  0.778  0.353-  95 2.25  85 2.26  79 2.26  89 2.36  86 2.36  32 2.53  26 2.53
  47  0.685  0.690  0.473-  86 2.05  65 2.07  89 2.10  96 2.15
  48  0.907  0.956  0.099-  87 2.02  69 2.09  68 2.10  88 2.11  16 2.45  42 2.47
  49  0.073  0.167  0.270-  25 2.25  10 2.26  20 2.26   9 2.36  19 2.36
  50  0.167  0.073  0.405-   5 2.05  11 2.05  26 2.25  10 2.36  20 2.36  77 2.69
  51  0.479  0.261  0.135-  12 2.06   6 2.19  16 2.25   7 2.26  21 2.26
  52  0.205  0.535  0.530-   3 2.04  35 2.08  29 2.08  74 2.76
  53  0.030  0.378  0.451-  15 2.09  11 2.10  29 2.11  10 2.36  14 2.36
  54  0.436  0.472  0.315-  32 2.25   2 2.26  22 2.26   1 2.36  21 2.36
  55  0.258  0.155  0.069-  36 2.06   6 2.07   4 2.13  56 2.64  75 2.71
  56  0.342  0.066  0.180-   4 2.08   7 2.25  25 2.26  45 2.26  36 2.36  55 2.64
  57  0.092  0.464  0.067-  28 2.09  24 2.10   6 2.13  58 2.62
  58  0.174  0.397  0.180-   6 2.04   9 2.25   7 2.26   1 2.26  28 2.36  57 2.62
  59  0.268  0.303  0.315-  10 2.25   2 2.26   8 2.26   7 2.36   1 2.36
  60  0.362  0.209  0.451-  17 2.02   3 2.12  11 2.14   8 2.36   2 2.36
  61  0.573  0.167  0.270-  37 2.25  22 2.26   8 2.26  21 2.36   7 2.36
  62  0.667  0.073  0.405-  17 2.02  23 2.02  38 2.25  22 2.36   8 2.36
  63  0.752  0.428  0.058-  24 2.04  18 2.06  40 2.08  91 2.65
  64  0.979  0.261  0.135-  18 2.10  19 2.26   9 2.26  24 2.36   4 2.42
  65  0.711  0.529  0.527-  15 2.04  47 2.07  41 2.08  86 2.69
  66  0.530  0.378  0.451-  23 2.02   3 2.12  41 2.14  22 2.36   2 2.36
  67  0.936  0.472  0.315-  44 2.25  14 2.26  10 2.26  13 2.36   9 2.36
  68  0.769  0.130  0.057-  16 2.04  18 2.05  48 2.10  87 2.69
  69  0.842  0.066  0.180-  48 2.09  19 2.25  37 2.26  33 2.26  16 2.36  18 2.53
  70  0.674  0.397  0.180-  18 2.12  40 2.18  21 2.25  19 2.26  13 2.26
  71  0.768  0.303  0.315-  22 2.25  14 2.26  20 2.26  19 2.36  13 2.36
  72  0.862  0.209  0.451-  23 2.07  15 2.08   5 2.10  20 2.36  14 2.36
  73  0.073  0.667  0.270-   1 2.25  34 2.26  44 2.26  33 2.36  43 2.36
  74  0.167  0.573  0.405-  29 2.05  35 2.05   2 2.25  34 2.36  44 2.36  52 2.76
  75  0.257  0.916  0.062-  36 2.04  30 2.08   4 2.09  55 2.71  82 2.78
  76  0.479  0.761  0.135-  30 2.16  31 2.26  45 2.26  36 2.36  40 2.41
  77  0.211  0.029  0.527-  27 2.04   5 2.07  11 2.08  50 2.69
  78  0.030  0.878  0.451-  39 2.00  35 2.13   5 2.15  34 2.36  38 2.36
  79  0.436  0.972  0.315-   8 2.25  26 2.26  46 2.26  25 2.36  45 2.36
  80  0.277  0.614  0.055-  12 2.04  28 2.04  30 2.06
  81  0.342  0.566  0.180-  12 2.04  31 2.25   1 2.26  21 2.26  30 2.36  28 2.36
  82  0.174  0.897  0.180-   4 2.15  30 2.19  33 2.25  31 2.26  25 2.26  75 2.78
  83  0.268  0.803  0.315-  34 2.25  26 2.26  32 2.26  31 2.36  25 2.36
  84  0.362  0.709  0.451-  27 2.09  41 2.10  35 2.11  32 2.36  26 2.36
  85  0.573  0.667  0.270-  13 2.25  46 2.26  32 2.26  45 2.36  31 2.36
  86  0.667  0.573  0.405-  47 2.05  41 2.05  14 2.25  46 2.36  32 2.36  65 2.69
  87  0.881  0.875  0.021-  42 1.99  48 2.02  68 2.69  88 2.79
  88  0.979  0.761  0.135-  48 2.11  28 2.25  43 2.26  33 2.26  42 2.36  87 2.79
  89  0.530  0.878  0.451-  17 2.07  27 2.08  47 2.10  46 2.36  26 2.36
  90  0.936  0.972  0.315-  20 2.25  38 2.26  34 2.26  37 2.36  33 2.36
  91  0.761  0.658  0.068-  24 2.07  42 2.07  40 2.15  92 2.65  63 2.65
  92  0.842  0.566  0.180-  40 2.09  43 2.25  13 2.26   9 2.26  24 2.36  91 2.65
  93  0.582  0.978  0.064-  42 2.08  36 2.08  16 2.09  94 2.72
  94  0.674  0.897  0.180-  45 2.25  43 2.26  37 2.26  42 2.36  16 2.36  93 2.72
  95  0.768  0.803  0.315-  46 2.25  38 2.26  44 2.26  43 2.36  37 2.36
  96  0.862  0.709  0.451-  39 2.00  29 2.13  47 2.15  44 2.36  38 2.36

  LATTYP: Found a base centered orthorhombic cell.
 ALAT       =    11.8257374459
 B/A-ratio  =     1.6199260857
 C/A-ratio  =     1.8387210052

  Lattice vectors:

 A1 = (  11.2564630382,   0.0000000000,   0.0000000000)
 A2 = (  -5.0445621212, -10.0628203371,   0.0000000000)
 A3 = (   0.0000000000,   0.0000000000, -21.7442318436)

Analysis of symmetry for initial positions (statically):
 Subroutine PRICEL returns:
 Original cell was already a primitive cell.

 Routine SETGRP: Setting up the symmetry group for a
 base centered orthorhombic supercell.

 Subroutine GETGRP returns: Found  1 space group operations
 (whereof  1 operations were pure point group operations)
 out of a pool of  8 trial point group operations.

The static configuration has the point symmetry C_1 .

Analysis of symmetry for dynamics (positions and initial velocities):
 Subroutine PRICEL returns:
 Original cell was already a primitive cell.

 Routine SETGRP: Setting up the symmetry group for a
 base centered orthorhombic supercell.

 Subroutine GETGRP returns: Found  1 space group operations
 (whereof  1 operations were pure point group operations)
 out of a pool of  8 trial point group operations.

The dynamic configuration has the point symmetry C_1 .

 Subroutine INISYM returns: Found  1 space group operations
 (whereof  1 operations are pure point group operations),
 and found     1 'primitive' translations

 KPOINTS: gamma-point-only calculation. no periodi

Automatic generation of k-mesh.
Space group operators:
 irot       det(A)        alpha          n_x          n_y          n_z        tau_x        tau_y        tau_z
    1     1.000000     0.000000     1.000000     0.000000     0.000000     0.000000     0.000000     0.000000

 Subroutine IBZKPT returns following result:

 Found      1 irreducible k-points:

 Following reciprocal coordinates:
            Coordinates               Weight
  0.000000  0.000000  0.000000      1.000000

 Following cartesian coordinates:
            Coordinates               Weight
  0.000000  0.000000  0.000000      1.000000

 SYSTEM =  "Millerite NiS"
 POSCAR =  Type_048 Type_148

 Startparameter for this run:
   NWRITE =      2    write-flag & timer
   PREC   = normal    normal or accurate (medium, high low for compatibility)
   ISTART =      0    job   : 0-new  1-cont  2-samecut
   ICHARG =      2    charge: 1-file 2-atom 10-const
   ISPIN  =      1    spin polarized calculation?
   LNONCOLLINEAR =      F non collinear calculations
   LSORBIT =      F    spin-orbit coupling
   INIWAV =      1    electr: 0-lowe 1-rand  2-diag
   LASPH  =      F    aspherical Exc in radial PAW
   METAGGA=      F    non-selfconsistent MetaGGA calc.

 Electronic Relaxation 1
   ENCUT  =  450.0 eV  33.07 Ry    5.75 a.u.  19.47 19.47 37.61*2*pi/ulx,y,z
   ENINI  =  450.0     initial cutoff
   ENAUG  =  703.4 eV  augmentation charge cutoff
   NELM   =    100;   NELMIN=  2; NELMDL= -5     # of ELM steps
[...]
     0.000000000  0.000000000 21.744231844     0.000000000  0.000000000  0.045989208

  length of vectors
    11.256463038 11.256463038 21.744231844     0.099375718  0.099375718  0.045989208

 FORCES acting on ions
    electron-ion (+dipol)            ewald-force                    non-local-force                 convergence-correction
   0.278E+03 -.396E+03 0.605E+03   -.279E+03 0.396E+03 -.604E+03   0.110E+01 -.314E+00 -.112E+01   -.243E+00 0.112E+00 -.583E+00
   0.197E+03 -.312E+03 -.236E+04   -.197E+03 0.313E+03 0.236E+04   0.369E+00 -.879E+00 -.902E-01   -.967E-01 0.886E-01 -.836E+00
   -.118E+03 0.193E+03 -.559E+04   0.116E+03 -.190E+03 0.559E+04   0.218E+01 -.384E+01 0.380E-01   -.203E-01 0.517E-01 -.196E+00
   0.514E+03 -.379E+03 0.401E+04   -.521E+03 0.382E+03 -.401E+04   0.516E+01 -.173E+01 0.532E+00   0.400E-01 -.123E-01 -.261E+00
   0.437E+03 0.221E+03 -.489E+04   -.441E+03 -.224E+03 0.489E+04   0.258E+01 0.350E+01 -.175E+01   -.477E-01 -.161E+00 -.317E+00
   0.153E+03 0.353E+03 0.501E+04   -.153E+03 -.357E+03 -.502E+04   0.332E+00 0.460E+01 0.346E+01   -.214E+00 -.244E-01 -.173E+00
   0.216E+03 0.519E+03 0.167E+04   -.216E+03 -.520E+03 -.167E+04   0.502E+00 0.701E+00 -.770E+00   -.217E+00 -.181E+00 -.598E+00
   0.212E+03 0.458E+03 -.140E+04   -.213E+03 -.459E+03 0.140E+04   0.112E+01 0.555E+00 0.184E+01   -.474E-01 -.137E+00 -.749E+00
   -.517E+03 -.198E+02 0.180E+04   0.518E+03 0.200E+02 -.180E+04   -.347E+00 -.225E+00 0.114E+01   -.803E-02 0.593E-01 -.599E+00
   -.490E+03 -.195E+02 -.138E+04   0.491E+03 0.202E+02 0.138E+04   -.683E+00 -.779E+00 0.193E+01   -.666E-02 -.561E-01 -.759E+00
   -.346E+03 -.132E+03 -.487E+04   0.350E+03 0.134E+03 0.487E+04   -.459E+01 -.154E+01 -.185E+01   -.188E-01 -.795E-01 -.319E+00
   -.697E+03 0.149E+03 0.512E+04   0.696E+03 -.150E+03 -.512E+04   0.274E+01 0.427E+00 0.289E+01   -.162E+00 0.755E-01 -.224E+00
   0.222E+03 -.408E+03 0.594E+03   -.223E+03 0.409E+03 -.592E+03   0.164E+00 -.876E+00 -.163E+01   0.150E+00 0.943E-01 -.681E+00
   0.246E+03 -.363E+03 -.238E+04   -.246E+03 0.364E+03 0.238E+04   0.496E+00 -.111E+01 -.723E-01   0.310E-01 0.424E-01 -.101E+01
   0.419E+02 0.700E+02 -.560E+04   -.446E+02 -.657E+02 0.560E+04   0.313E+01 -.507E+01 0.680E+00   0.580E-01 -.304E-01 -.230E+00
   0.418E+03 -.493E+03 0.408E+04   -.422E+03 0.496E+03 -.408E+04   0.247E+01 -.325E+01 0.325E+01   0.104E+00 -.176E+00 -.226E+00
   -.154E+03 0.310E+03 -.500E+04   0.153E+03 -.312E+03 0.500E+04   0.118E+01 0.118E+01 0.929E+00   0.502E-01 -.166E+00 -.392E+00
   0.122E+03 0.798E+02 0.477E+04   -.124E+03 -.801E+02 -.478E+04   0.222E+01 -.368E+00 0.657E+01   0.100E+00 -.399E-01 -.236E+00
   0.126E+03 0.457E+03 0.157E+04   -.125E+03 -.458E+03 -.156E+04   -.630E+00 0.671E+00 -.140E+01   0.863E-01 -.539E-02 -.658E+00
   0.288E+03 0.459E+03 -.143E+04   -.289E+03 -.460E+03 0.142E+04   0.109E+01 0.445E+00 0.223E+01   0.345E-01 -.141E+00 -.713E+00
   -.554E+03 0.274E+02 0.169E+04   0.555E+03 -.281E+02 -.169E+04   -.120E+01 0.874E+00 -.131E+01   0.952E-01 -.726E-01 -.528E+00
   -.496E+03 0.180E+02 -.141E+04   0.496E+03 -.170E+02 0.141E+04   -.769E+00 -.825E+00 0.168E+01   0.882E-01 -.104E+00 -.664E+00
   -.206E+03 0.278E+03 -.500E+04   0.208E+03 -.278E+03 0.500E+04   -.154E+01 -.518E+00 0.938E+00   0.702E-01 -.156E+00 -.373E+00
   -.369E+03 0.169E+03 0.523E+04   0.376E+03 -.172E+03 -.523E+04   -.484E+01 0.140E+01 0.439E+01   -.276E-01 -.913E-04 0.259E-01
   0.224E+03 -.395E+03 0.594E+03   -.224E+03 0.396E+03 -.592E+03   0.624E-01 -.657E+00 -.172E+01   0.100E-02 0.650E-01 -.624E+00
   0.205E+03 -.386E+03 -.238E+04   -.206E+03 0.387E+03 0.238E+04   0.713E+00 -.903E+00 0.687E-02   -.506E-01 0.801E-01 -.829E+00
   -.831E+02 -.676E+01 -.560E+04   0.804E+02 0.110E+02 0.560E+04   0.324E+01 -.502E+01 0.732E+00   -.207E-01 -.562E-01 -.265E+00
   0.405E+03 -.411E+03 0.422E+04   -.408E+03 0.414E+03 -.422E+04   0.211E+01 -.277E+01 0.439E+01   -.202E+00 0.602E-01 -.196E+00
   0.378E+03 0.405E+03 -.474E+04   -.382E+03 -.408E+03 0.474E+04   0.284E+01 0.350E+01 -.229E+01   -.206E-01 0.215E-01 -.365E+00
   0.597E+02 0.247E+01 0.476E+04   -.613E+02 -.227E+01 -.476E+04   0.135E+01 -.117E+01 0.677E+01   -.110E-01 0.182E+00 -.220E+00
   0.939E+02 0.417E+03 0.157E+04   -.927E+02 -.417E+03 -.156E+04   -.826E+00 0.281E+00 -.173E+01   0.329E-01 0.181E+00 -.628E+00
   0.226E+03 0.427E+03 -.139E+04   -.227E+03 -.428E+03 0.139E+04   0.112E+01 0.428E+00 0.222E+01   0.508E-01 0.137E+00 -.620E+00
   -.513E+03 0.442E+00 0.170E+04   0.514E+03 -.116E+01 -.170E+04   -.716E+00 0.739E+00 -.101E+01   -.595E-01 -.159E-01 -.557E+00
   -.464E+03 -.913E+02 -.138E+04   0.465E+03 0.917E+02 0.138E+04   -.464E+00 -.689E+00 0.237E+01   -.551E-01 0.876E-01 -.615E+00
   -.530E+03 -.156E+03 -.474E+04   0.535E+03 0.158E+03 0.474E+04   -.438E+01 -.957E+00 -.231E+01   0.954E-01 0.106E+00 -.356E+00
   -.316E+03 0.179E+03 0.523E+04   0.323E+03 -.182E+03 -.524E+04   -.463E+01 0.141E+01 0.437E+01   -.472E-01 0.968E-02 0.933E-02
   0.280E+03 -.377E+03 0.587E+03   -.281E+03 0.378E+03 -.586E+03   0.967E+00 -.516E+00 -.942E+00   0.130E-02 -.146E+00 -.618E+00
   0.322E+03 -.512E+03 -.270E+04   -.323E+03 0.513E+03 0.270E+04   0.698E+00 -.128E+01 0.138E+01   0.755E-02 0.590E-02 -.725E+00
   0.389E+03 -.629E+03 -.578E+04   -.388E+03 0.626E+03 0.578E+04   -.150E+01 0.221E+01 0.612E+01   0.227E-01 0.302E-01 -.171E+00
   0.499E+03 -.424E+03 0.399E+04   -.506E+03 0.428E+03 -.399E+04   0.519E+01 -.193E+01 0.533E+00   0.186E+00 -.934E-02 -.258E+00
   0.271E+03 0.249E+03 -.487E+04   -.276E+03 -.252E+03 0.488E+04   0.350E+01 0.342E+01 -.188E+01   -.196E-01 0.131E+00 -.254E+00
   0.338E+03 0.471E+03 0.501E+04   -.340E+03 -.474E+03 -.501E+04   0.154E+01 0.234E+01 0.472E+01   0.947E-02 0.218E-01 0.740E-01
   0.266E+03 0.463E+03 0.175E+04   -.267E+03 -.463E+03 -.175E+04   0.727E+00 0.168E+00 0.575E+00   -.660E-01 -.497E-01 -.558E+00
   0.298E+03 0.380E+03 -.136E+04   -.299E+03 -.381E+03 0.136E+04   0.886E+00 0.246E+00 0.254E+01   -.189E-01 0.114E+00 -.714E+00
   -.552E+03 -.604E+01 0.180E+04   0.553E+03 0.636E+01 -.180E+04   -.730E+00 -.338E+00 0.857E+00   0.688E-01 0.269E-01 -.565E+00
   -.548E+03 -.579E+02 -.141E+04   0.548E+03 0.585E+02 0.141E+04   -.868E+00 -.790E+00 0.200E+01   0.117E+00 0.452E-01 -.697E+00
   -.395E+03 -.293E+03 -.488E+04   0.399E+03 0.294E+03 0.488E+04   -.425E+01 -.785E+00 -.175E+01   0.693E-01 0.136E+00 -.303E+00
   -.842E+03 -.908E+01 0.481E+04   0.846E+03 0.908E+01 -.482E+04   -.166E+01 -.760E-01 0.334E+01   -.591E-01 0.375E-01 -.571E-01
   -.720E+02 0.116E+03 0.270E+03   0.732E+02 -.118E+03 -.271E+03   -.134E+01 0.185E+01 0.202E+01   0.140E-01 -.134E-01 -.242E+00
   -.690E+02 0.126E+03 -.904E+03   0.705E+02 -.128E+03 0.900E+03   -.937E+00 0.117E+01 0.108E+01   -.214E-01 -.284E-01 -.258E+00
   -.124E+03 0.202E+03 0.158E+04   0.125E+03 -.202E+03 -.158E+04   -.129E+01 -.828E+00 0.253E+01   -.442E-01 -.106E+00 -.158E+00
   -.325E+02 0.530E+02 -.237E+04   0.335E+02 -.545E+02 0.237E+04   -.662E+00 0.103E+01 -.203E+01   -.601E-01 0.143E+00 0.110E+00
   -.103E+03 -.884E+02 -.156E+04   0.104E+03 0.903E+02 0.156E+04   -.174E+01 -.132E+01 -.174E+01   0.146E+00 0.164E-01 -.245E+00
   -.800E+02 -.146E+03 -.215E+03   0.814E+02 0.149E+03 0.215E+03   -.135E+01 -.257E+01 0.850E-01   -.820E-02 0.222E-01 -.199E+00
   0.913E+02 -.137E+03 0.217E+04   -.929E+02 0.140E+03 -.218E+04   0.138E+01 -.116E+01 0.416E+01   -.956E-02 -.222E-01 0.430E-01
   -.129E+03 -.130E+03 0.971E+03   0.131E+03 0.132E+03 -.969E+03   -.649E+00 -.238E+01 0.100E+01   -.430E-01 -.348E-01 -.208E+00
   0.887E+02 -.161E+02 0.215E+04   -.894E+02 0.172E+02 -.216E+04   0.340E+00 -.108E+01 0.416E+01   -.186E-01 -.521E-02 0.495E-01
   0.227E+03 -.500E+02 0.932E+03   -.230E+03 0.502E+02 -.930E+03   0.165E+01 0.324E+00 0.929E+00   -.720E-01 0.442E-02 -.234E+00
   0.170E+03 0.538E+01 -.210E+03   -.173E+03 -.573E+01 0.211E+03   0.288E+01 0.264E+00 -.536E+00   -.639E-01 -.177E-01 -.247E+00
   0.116E+03 0.647E+02 -.160E+04   -.117E+03 -.655E+02 0.160E+04   0.305E+00 0.196E+01 -.122E+01   -.110E+00 -.739E-01 -.211E+00
[...]
   0.168E+03 -.987E+01 -.216E+03   -.171E+03 0.978E+01 0.216E+03   0.327E+01 -.740E-01 -.139E+00   -.372E-01 0.712E-01 -.215E+00
   0.124E+03 0.520E+02 -.156E+04   -.127E+03 -.527E+02 0.156E+04   0.196E+01 0.110E+01 -.187E+01   -.798E-01 -.342E-01 -.184E+00
   -.841E+02 0.109E+03 0.272E+03   0.852E+02 -.111E+03 -.274E+03   -.125E+01 0.187E+01 0.220E+01   0.902E-01 0.328E-01 -.259E+00
   -.832E+02 0.117E+03 -.903E+03   0.844E+02 -.119E+03 0.899E+03   -.791E+00 0.129E+01 0.107E+01   0.325E-01 0.677E-01 -.237E+00
   -.159E+03 0.887E+02 0.237E+04   0.160E+03 -.894E+02 -.237E+04   0.440E+00 0.841E+00 0.110E+01   -.156E-01 0.147E-01 0.127E+00
   -.823E+02 0.203E+03 0.152E+04   0.826E+02 -.205E+03 -.152E+04   -.356E+00 0.502E+00 0.212E+01   -.356E-01 0.487E-02 -.103E+00
   -.180E+03 -.106E+03 -.160E+04   0.182E+03 0.109E+03 0.160E+04   -.166E+01 -.182E+01 -.181E+01   0.821E-01 -.651E-01 -.223E+00
   -.594E+02 -.154E+03 -.236E+03   0.607E+02 0.157E+03 0.236E+03   -.129E+01 -.267E+01 0.180E+00   0.672E-02 -.325E-01 -.204E+00
   0.104E+03 -.101E+03 0.210E+04   -.105E+03 0.103E+03 -.210E+04   0.110E+01 -.110E+01 0.350E+01   0.135E-01 -.211E-01 0.474E-01
   -.131E+03 -.159E+03 0.975E+03   0.133E+03 0.161E+03 -.973E+03   -.653E+00 -.202E+01 0.521E+00   0.194E-02 0.134E-01 -.184E+00
   0.148E+03 -.783E+02 0.212E+04   -.149E+03 0.804E+02 -.213E+04   0.334E+00 -.133E+01 0.363E+01   0.207E-02 -.272E-01 0.478E-01
   0.191E+03 0.547E+01 0.978E+03   -.193E+03 -.554E+01 -.978E+03   0.190E+01 -.130E+00 0.705E+00   0.127E-01 -.400E-01 -.190E+00
   0.169E+03 -.149E+02 -.227E+03   -.172E+03 0.148E+02 0.228E+03   0.297E+01 0.130E+00 -.281E+00   0.145E-01 -.152E-01 -.253E+00
   0.249E+03 -.701E+02 -.154E+04   -.251E+03 0.705E+02 0.154E+04   0.804E+00 -.453E-01 -.138E+01   -.766E-01 0.261E-02 -.230E+00
   -.245E+02 0.132E+02 -.567E+02   0.398E-12 -.782E-12 0.136E-10   0.245E+02 -.136E+02 0.853E+02   -.288E+00 0.379E+00 -.284E+02

 POSITION                                       TOTAL-FORCE (eV/Angst)
      5.35228      4.81788      5.50842        -0.149950      0.061882      0.107320
      5.93595      3.87238      8.44448        -0.118098      0.165313     -1.266541
      6.00574      3.75933     10.79159         0.536528     -0.945614      0.863522
      2.38920      0.58640      2.86649        -1.612612      1.652527      0.176557
      0.83225      0.55111     10.27731        -0.816283     -0.043708      0.530637
      4.72871      3.20262      2.20930         0.742449      0.076760     -1.098090
      5.35228      2.40903      4.73270        -0.013485      0.055552      0.269409
      5.93595      1.46353      7.66876        -0.020500      0.087005     -0.310697
      1.87746      3.73836      4.73270         0.010707     -0.041454      0.116873
      2.46113      2.79286      7.66876        -0.020952     -0.070784     -0.037449
      3.05181      1.91877     10.27381         0.175453      0.618908      0.517601
      6.88978      4.55886      2.23823         0.974258     -0.642589     -1.120303
     10.98051      4.81788      5.50842        -0.039182      0.046071     -0.016334
     11.56418      3.87238      8.44448        -0.000823      0.137071     -1.015250
     11.68327      3.67062     10.81664         0.553999     -0.744615      0.784499
      7.87456      0.73197      2.57236        -1.332184      0.282861      2.168122
      6.36441      0.54379     10.13415         0.440264     -0.417643      0.988422
     10.28951      2.65310      2.44570        -0.300321     -0.702330      0.424127
     10.98051      2.40903      4.73270         0.331823      0.016269      0.962596
     11.56418      1.46353      7.66876         0.166175     -0.001697      0.066740
      7.50570      3.73836      4.73270         0.156065      0.038497      0.130747
      8.08937      2.79286      7.66876        -0.095487      0.016713     -0.343856
      8.71953      1.99763     10.13423         0.223648     -0.551252      0.943950
     12.55026      4.68386      1.79664         2.005172     -1.414329      1.147117
      7.87456      9.84929      5.50842        -0.028241      0.085807     -0.019826
      8.45823      8.90379      8.44448        -0.156197      0.066605     -0.996714
      8.58523      8.70691     10.81664         0.449524     -0.822796      0.769766
      4.76861      5.76338      2.57236        -1.160852      0.380128      1.719809
      3.35116      5.53735     10.27762        -0.829841      0.147918      0.411996
      7.11969      7.50862      2.48298        -0.280182     -0.785082      0.374942
      7.87456      7.44044      4.73270         0.455254      0.153627      1.178806
      8.45823      6.49494      7.66876         0.102552     -0.058795      0.078576
      4.39975      8.76977      4.73270         0.169807      0.004990      0.112229
      4.98341      7.82427      7.66876         0.036143     -0.148583     -0.081778
      5.60588      6.92919     10.27769         0.298205      0.834121      0.399112
      9.44431      9.71527      1.79664         1.661409     -1.497757      1.169765
     13.50279      9.84929      5.50842        -0.079452     -0.070783     -0.046626
     14.08646      8.90379      8.44448        -0.001674     -0.088194      0.092247
     14.70633      7.89965     10.98209         0.011446     -0.047467      1.397026
     10.54415      5.63757      2.85568        -1.523180      1.724721      0.472607
      8.97495      5.57519     10.27386        -0.545590      0.064385      0.479757
     12.91912      8.38594      1.79664        -0.922106     -1.258145      2.525366
     13.50279      7.44044      4.73270         0.071790      0.103064      0.179221
     14.08646      6.49494      7.66876         0.055835     -0.144720     -0.024615
     10.02798      8.76977      4.73270         0.028931     -0.000395      0.041128
     10.61165      7.82427      7.66876        -0.114629     -0.176931     -0.054629
     11.19229      6.94648     10.27724         0.409277      0.801902      0.523634
     15.03113      9.61516      2.16322         1.656373     -0.033563      0.268310
      1.66190      1.67871      5.87212        -0.100750     -0.043831      0.098850
      2.24556      0.73321      8.80817         0.493243     -0.699882     -3.067599
      6.70646      2.62422      2.93606         0.432672     -1.594233     -0.019782
      5.00479      5.38070     11.52634         0.273638     -0.388559      2.610299
      2.24556      3.80055      9.79595        -0.046593      0.651568     -0.227526
      7.29013      4.74605      6.85989         0.066704      0.075410      0.085593
      3.68866      1.56204      1.48994        -0.242150      1.369079     -2.236011
      4.18418      0.66015      3.92384         1.375168     -0.325905      2.069489
      3.37226      4.66611      1.46412        -0.357382      0.029011     -2.193461
      3.96438      3.99884      3.92384        -0.822272      0.583264      2.793819
      4.54805      3.05334      6.85989         0.084739     -0.103871     -0.019313
      5.13172      2.10784      9.79595        -0.897117      1.026095      0.078078
[...]
      6.48666      9.03025      3.92384        -1.189844     -0.056968      1.215964
      7.07033      8.08475      6.85989         0.001138     -0.089865     -0.063571
      7.65400      7.13925      9.79595        -0.620113      0.310980     -0.181788
      9.81241      6.71012      5.87212        -0.027955     -0.002548      0.102548
     10.39608      5.76462      8.80817         0.446263     -0.723124     -3.036286
     14.32522      8.80424      0.44731         1.373768      0.121649     -3.901599
     14.85697      7.65563      2.93606        -0.110672     -1.252009      0.545611
     10.39608      8.83196      9.79595         0.177168      0.704347     -0.186817
     15.44064      9.77746      6.85989        -0.025603      0.084573      0.112822
     11.88564      6.61855      1.48536        -0.522086      1.192529     -1.826327
     12.33469      5.69156      3.92384         1.326937     -0.068066      1.918916
     11.48473      9.83771      1.39964        -0.813040      0.703963     -2.551925
     12.11489      9.03025      3.92384        -0.161727     -0.244567      0.792478
     12.69856      8.08475      6.85989         0.038862     -0.021930      0.056430
     13.28223      7.13925      9.79595        -1.765212      0.341931     -0.731247
    total drift:                               -0.224708      0.026774      0.176753

  FREE ENERGIE OF THE ION-ELECTRON SYSTEM (eV)
  free  energy   TOTEN  =      -475.18081685 eV

  energy  without entropy=     -474.07034134  energy(sigma->0) =     -474.62557910