 vasp.5.4.4.18Apr17-6-g9f103f2a35 (build Aug 13 2019 17:33:20) gamma-only

 executed on             LinuxIFC date 2020.05.11  23:18:35

 INCAR:
 POTCAR:    PAW_PBE Ni_pv 06Sep2000
 POTCAR:    PAW_PBE S 06Sep2000
 POTCAR:    PAW_PBE Ni_pv 06Sep2000
   VRHFIN =Ni:

   TITEL  = PAW_PBE Ni_pv 06Sep2000
   POMASS =   58.690; ZVAL   =   16.000    mass and valenz
   ENMAX  =  367.986; ENMIN  =  275.989 eV

 POTCAR:    PAW_PBE S 06Sep2000
   VRHFIN =S : s2p4

   TITEL  = PAW_PBE S 06Sep2000
   POMASS =   32.066; ZVAL   =    6.000    mass and valenz
   ENMAX  =  258.689; ENMIN  =  194.016 eV

 Optimization of the real space projectors (new method)

 maximal supplied QI-value         = 18.90
 optimisation between [QCUT,QGAM] = [ 10.77, 21.73] = [ 32.49,132.25] Ry
 Optimized for a Real-space Cutoff    1.38 Angstroem

   l    n(q)    QCUT    max X(q) W(low)/X(q) W(high)/X(q)  e(spline)
   1      8    10.771     2.836    0.40E-04    0.29E-04    0.12E-06
   1      8    10.771     4.023    0.10E-03    0.48E-04    0.29E-06
   2      8    10.771    73.368    0.42E-03    0.97E-04    0.44E-06
   2      8    10.771    69.010    0.42E-03    0.99E-04    0.45E-06
   0      9    10.771    54.797    0.10E-03    0.56E-04    0.74E-07
   0      9    10.771    24.266    0.89E-04    0.49E-04    0.67E-07
 Optimization of the real space projectors (new method)

 maximal supplied QI-value         = 19.84
 optimisation between [QCUT,QGAM] = [ 10.71, 21.63] = [ 32.15,130.99] Ry
 Optimized for a Real-space Cutoff    1.19 Angstroem

   l    n(q)    QCUT    max X(q) W(low)/X(q) W(high)/X(q)  e(spline)
   0      8    10.715   187.594    0.41E-03    0.53E-04    0.66E-07
   0      8    10.715   164.243    0.41E-03    0.53E-04    0.65E-07
   1      7    10.715    67.533    0.19E-03    0.59E-03    0.68E-07
   1      7    10.715    50.729    0.19E-03    0.58E-03    0.67E-07
  PAW_PBE Ni_pv 06Sep2000               :
  PAW_PBE S 06Sep2000                   :

 POSCAR: Type_037 Type_137
  positions in cartesian coordinates
 exchange correlation table for  LEXCH =        8
   RHO(1)=    0.500       N(1)  =     2000
   RHO(2)=  100.500       N(2)  =     4000

 ion  position               nearest neighbor table
   1  0.780  0.145  0.118-  65 2.09  51 2.11  52 2.15  42 2.25   2 2.29  66 2.36  36 2.38  13 2.42

   2  0.732  0.100  0.245-  43 2.00  66 2.09   1 2.29  52 2.30  19 2.47  42 2.61
   3  0.215  0.620  0.094-  44 2.02  45 2.12  63 2.16   4 2.40  15 2.48  53 2.50
   4  0.297  0.645  0.211-  54 2.12  64 2.13  45 2.25  53 2.26  63 2.26   3 2.40  28 2.53  16 2.53

[...]

  17  0.449  0.497  0.335-  64 2.03  56 2.04  41 2.04  16 2.50
  18  0.592  0.913  0.086-  61 2.11  69 2.17  19 2.38  42 2.46  30 2.48
  19  0.597  0.013  0.217-  43 2.11  70 2.18  61 2.25  42 2.26  69 2.26  18 2.38   2 2.47  31 2.53
                             6 2.53
  20  0.080  0.513  0.124-  44 2.08  59 2.10  68 2.12  67 2.23  45 2.36  21 2.52   7 2.53  32 2.53

[...]

  26  0.900  0.367  0.136-  68 2.09  51 2.09  39 2.13  52 2.20  67 2.22  24 2.46
  27  0.442  0.855  0.053-  69 2.08  40 2.15  28 2.35  53 2.47  15 2.47
  28  0.425  0.777  0.186-  54 2.22  69 2.25  40 2.26  53 2.26  27 2.35  41 2.36  29 2.51   4 2.53
                            16 2.53
  29  0.450  0.795  0.336-  54 2.03  70 2.04  41 2.05  28 2.51
  30  0.529  0.147  0.086-  55 2.04  42 2.04  69 2.06  18 2.48   5 2.49
  31  0.597  0.277  0.217-  43 2.07  56 2.14  71 2.25  42 2.26  55 2.26  19 2.53   6 2.53
  32  0.080  0.777  0.124-  58 2.07  44 2.08  73 2.10  57 2.36  45 2.36  14 2.41   7 2.53  20 2.53

[...]

  70  0.509  0.975  0.312-  29 2.04   6 2.10  19 2.18  43 2.72  69 2.75
  71  0.657  0.477  0.179-  24 2.11  31 2.25  25 2.26  12 2.26  11 2.28
  72  0.696  0.501  0.344-  25 2.02  12 2.02  62 2.79
  73  0.131  0.974  0.105-   9 2.06  32 2.10  14 2.21  22 2.24
  74  0.174  0.977  0.272-  10 2.02  23 2.03  33 2.19   9 2.36  22 2.36  38 2.73

  LATTYP: Found a simple orthorhombic cell.
 ALAT       =     9.5784100000
 B/A-ratio  =     1.7276387782
 C/A-ratio  =     1.7627867312

  Lattice vectors:

 A1 = (   0.0000000000,   9.5784100000,   0.0000000000)
 A2 = (   0.0000000000,   0.0000000000, -16.5480325497)
 A3 = ( -16.8846940542,   0.0000000000,   0.0000000000)

Analysis of symmetry for initial positions (statically):
 Subroutine PRICEL returns:
 Original cell was already a primitive cell.

 Routine SETGRP: Setting up the symmetry group for a
 simple orthorhombic supercell.

 Subroutine GETGRP returns: Found  1 space group operations
 (whereof  1 operations were pure point group operations)
 out of a pool of  8 trial point group operations.

The static configuration has the point symmetry C_1 .

Analysis of symmetry for dynamics (positions and initial velocities):
 Subroutine PRICEL returns:
 Original cell was already a primitive cell.

 Routine SETGRP: Setting up the symmetry group for a
 simple orthorhombic supercell.

 Subroutine GETGRP returns: Found  1 space group operations
 (whereof  1 operations were pure point group operations)
 out of a pool of  8 trial point group operations.

The dynamic configuration has the point symmetry C_1 .

 Subroutine INISYM returns: Found  1 space group operations
 (whereof  1 operations are pure point group operations),
 and found     1 'primitive' translations

 KPOINTS: gamma-point-only calculation. no periodi

Automatic generation of k-mesh.
Space group operators:
 irot       det(A)        alpha          n_x          n_y          n_z        tau_x        tau_y        tau_z
    1     1.000000     0.000001     1.000000     0.000000     0.000000     0.000000     0.000000     0.000000

 Subroutine IBZKPT returns following result:

 Found      1 irreducible k-points:

 Following reciprocal coordinates:
            Coordinates               Weight
  0.000000  0.000000  0.000000      1.000000

 Following cartesian coordinates:
            Coordinates               Weight
  0.000000  0.000000  0.000000      1.000000

 SYSTEM =  "Millerite NiS"
 POSCAR =  Type_037 Type_137

 Startparameter for this run:
   NWRITE =      2    write-flag & timer
   PREC   = normal    normal or accurate (medium, high low for compatibility)
   ISTART =      0    job   : 0-new  1-cont  2-samecut
   ICHARG =      2    charge: 1-file 2-atom 10-const
   ISPIN  =      1    spin polarized calculation?
   LNONCOLLINEAR =      F non collinear calculations
   LSORBIT =      F    spin-orbit coupling
   INIWAV =      1    electr: 0-lowe 1-rand  2-diag
   LASPH  =      F    aspherical Exc in radial PAW
   METAGGA=      F    non-selfconsistent MetaGGA calc.

 Electronic Relaxation 1
   ENCUT  =  450.0 eV  33.07 Ry    5.75 a.u.  29.20 16.57 28.62*2*pi/ulx,y,z
   ENINI  =  450.0     initial cutoff
   ENAUG  =  703.4 eV  augmentation charge cutoff
   NELM   =    100;   NELMIN=  2; NELMDL= -5     # of ELM steps
   EDIFF  = 0.1E-03   stopping-criterion for ELM
   LREAL  =      T    real-space projection
   NLSPLINE    = F    spline interpolate recip. space projectors
   LCOMPAT=      F    compatible to vasp.4.4
   GGA_COMPAT  = T    GGA compatible to vasp.4.4-vasp.4.6
   LMAXPAW     = -100 max onsite density
   LMAXMIX     =    2 max onsite mixed and CHGCAR
   VOSKOWN=      0    Vosko Wilk Nusair interpolation
   ROPT   =   -0.00050  -0.00050
 Ionic relaxation
   EDIFFG = 0.1E-02   stopping-criterion for IOM
   NSW    =      0    number of steps for IOM
   NBLOCK =      1;   KBLOCK =      1    inner block; outer block
   IBRION =     -1    ionic relax: 0-MD 1-quasi-New 2-CG
   NFREE  =      0    steps in history (QN), initial steepest desc. (CG)
   ISIF   =      2    stress and relaxation
   IWAVPR =     10    prediction:  0-non 1-charg 2-wave 3-comb
   ISYM   =      2    0-nonsym 1-usesym 2-fastsym
   LCORR  =      T    Harris-Foulkes like correction to forces

   POTIM  = 0.5000    time-step for ionic-motion
   TEIN   =    0.0    initial temperature
   TEBEG  =    0.0;   TEEND  =   0.0 temperature during run
   SMASS  =  -3.00    Nose mass-parameter (am)
   estimated Nose-frequenzy (Omega)   =  0.10E-29 period in steps =****** mass=  -0.652E-26a.u.
   SCALEE = 1.0000    scale energy and forces
   NPACO  =    256;   APACO  = 16.0  distance and # of slots for P.C.
   PSTRESS=    0.0 pullay stress

  Mass of Ions in am
   POMASS =  58.69 32.07
  Ionic Valenz
   ZVAL   =  16.00  6.00
  Atomic Wigner-Seitz radii
  virtual crystal weights
   VCA    =   1.00  1.00
   NELECT =     814.0000    total number of electrons
   NUPDOWN=      -1.0000    fix difference up-down

 DOS related values:
   EMIN   =  10.00;   EMAX   =-10.00  energy-range for DOS
   EFERMI =   0.00
   ISMEAR =     0;   SIGMA  =   0.20  broadening in eV -4-tet -1-fermi 0-gaus

 Electronic relaxation 2 (details)
   IALGO  =     38    algorithm
   LDIAG  =      T    sub-space diagonalisation (order eigenvalues)
   LSUBROT=      F    optimize rotation matrix (better conditioning)
   TURBO    =      0    0=normal 1=particle mesh
   IRESTART =      0    0=no restart 2=restart with 2 vectors
   NREBOOT  =      0    no. of reboots
   NMIN     =      0    reboot dimension
   EREF     =   0.00    reference energy to select bands
   IMIX   =      4    mixing-type and parameters
     AMIX     =   0.40;   BMIX     =  1.00
     AMIX_MAG =   1.60;   BMIX_MAG =  1.00
     AMIN     =   0.10
     WC   =   100.;   INIMIX=   1;  MIXPRE=   1;  MAXMIX= -45

 Intra band minimization:
   WEIMIN = 0.0000     energy-eigenvalue tresh-hold
   EBREAK =  0.51E-07  absolut break condition
   DEPER  =   0.30     relativ break condition

   TIME   =   0.40     timestep for ELM

  volume/ion in A,a.u.               =      36.17       244.06
  Fermi-wavevector in a.u.,A,eV,Ry     =   1.100961  2.080515 16.491830  1.212115
  Thomas-Fermi vector in A             =   2.237381

 Write flags
   LWAVE        =      F    write WAVECAR
   LDOWNSAMPLE  =      F    k-point downsampling of WAVECAR
   LCHARG       =      F    write CHGCAR
   LVTOT        =      F    write LOCPOT, total local potential
   LVHAR        =      F    write LOCPOT, Hartree potential only
   LELF         =      F    write electronic localiz. function (ELF)
   LORBIT       =      0    0 simple, 1 ext, 2 COOP (PROOUT), +10 PAW based schemes

 Dipole corrections
   LMONO  =      F    monopole corrections only (constant potential shift)
   LDIPOL =      F    correct potential (dipole corrections)
   IDIPOL =      0    1-x, 2-y, 3-z, 4-all directions
   EPSILON=  1.0000000 bulk dielectric constant

 Exchange correlation treatment:
   GGA     =    --    GGA type
   VOSKOWN=      0    Vosko Wilk Nusair interpolation
   LHFCALC =     F    Hartree Fock is set to
   LHFONE  =     F    Hartree Fock one center treatment
   AEXX    =    0.0000 exact exchange contribution

 Linear response parameters
   LEPSILON=     F    determine dielectric tensor
   LRPA    =     F    only Hartree local field effects (RPA)
   LNABLA  =     F    use nabla operator in PAW spheres
   LVEL    =     F    velocity operator in full k-point grid
   LINTERFAST=   F  fast interpolation
   KINTER  =     0    interpolate to denser k-point grid
   CSHIFT  =0.1000    complex shift for real part using Kramers Kronig
[...]
     0.000000000  9.578410000  0.000000000     0.000000000  0.104401461  0.000000000
     0.000000000  0.000000000 16.548032550     0.000000000  0.000000000  0.060430145

  length of vectors
    16.884694054  9.578410000 16.548032550     0.059225237  0.104401461  0.060430145

 FORCES acting on ions
    electron-ion (+dipol)            ewald-force                    non-local-force                 convergence-correction
   -.220E+03 -.537E+03 0.191E+04   0.218E+03 0.539E+03 -.192E+04   0.233E+01 -.109E+01 0.413E+01   0.396E-01 0.413E-01 -.468E-01
   -.830E+03 -.275E+03 -.248E+04   0.831E+03 0.276E+03 0.249E+04   -.160E+00 -.514E+00 -.419E+01   0.879E-02 0.194E-01 0.282E-01
   0.242E+03 0.130E+03 0.292E+04   -.241E+03 -.130E+03 -.293E+04   0.981E+00 0.402E+00 0.748E+01   -.169E-01 -.127E-01 0.964E-02
   0.628E+03 0.705E+02 -.113E+04   -.631E+03 -.703E+02 0.114E+04   0.180E+01 -.119E+00 -.553E+01   -.268E-01 -.227E-01 0.406E-03
   0.185E+03 -.395E+03 0.236E+04   -.186E+03 0.396E+03 -.237E+04   0.186E+01 -.565E+00 0.876E+01   -.135E-01 0.117E-01 -.435E-03
   0.175E+03 -.246E+03 -.195E+04   -.179E+03 0.247E+03 0.196E+04   0.344E+01 -.528E+00 -.844E+01   -.948E-02 0.157E-01 0.179E-01
   0.757E+03 -.787E+02 0.123E+04   -.761E+03 0.822E+02 -.123E+04   0.363E+01 -.228E+01 0.285E+01   0.284E-01 -.666E-02 0.160E-01
   0.775E+03 0.106E+03 -.319E+04   -.781E+03 -.108E+03 0.319E+04   0.412E+01 0.148E+01 -.469E+01   0.222E-01 0.134E-02 -.737E-02
   0.769E+03 -.345E+03 0.661E+03   -.770E+03 0.350E+03 -.666E+03   0.239E+01 -.397E+01 0.589E+01   -.164E-01 0.168E-01 -.108E-01
   0.868E+03 -.950E+02 -.379E+04   -.868E+03 0.948E+02 0.379E+04   -.693E-01 0.804E-01 0.589E-01   -.153E-01 0.477E-02 -.201E-01
   -.574E+03 0.599E+03 0.159E+04   0.577E+03 -.601E+03 -.159E+04   -.267E+01 0.108E+01 0.393E+01   -.294E-01 -.614E-02 -.291E-02
   -.750E+02 0.189E+03 -.248E+04   0.721E+02 -.189E+03 0.248E+04   0.205E+01 0.344E+00 -.723E+01   -.341E-01 -.145E-01 0.206E-01
   -.430E+03 0.938E+02 0.248E+04   0.431E+03 -.950E+02 -.248E+04   -.366E+00 0.124E+01 0.482E+01   0.567E-01 0.123E-01 -.113E-01
   0.496E+03 -.511E+03 0.486E+03   -.496E+03 0.513E+03 -.486E+03   0.321E+00 -.180E+01 -.501E+00   0.278E-01 0.670E-02 0.710E-02
   0.888E+02 0.480E+03 0.402E+04   -.905E+02 -.481E+03 -.403E+04   0.145E+01 0.358E+00 0.534E+01   -.400E-01 -.992E-02 0.935E-02
   -.337E+03 0.774E+03 0.447E+03   0.337E+03 -.777E+03 -.447E+03   0.575E+00 0.320E+01 -.120E+00   -.271E-01 -.865E-02 0.310E-01
   -.195E+03 0.277E+03 -.383E+04   0.193E+03 -.279E+03 0.382E+04   0.308E+01 0.137E+01 0.145E+01   -.151E-01 0.392E-02 0.269E-02
   -.571E+03 0.380E+03 0.341E+04   0.570E+03 -.380E+03 -.341E+04   0.142E+01 -.596E+00 0.196E+01   -.332E-01 -.695E-02 -.263E-01
   -.427E+03 0.231E+03 -.133E+04   0.430E+03 -.236E+03 0.134E+04   -.304E+01 0.391E+01 -.381E+01   -.529E-01 -.390E-02 0.404E-02
   0.235E+03 0.790E+03 0.202E+04   -.235E+03 -.795E+03 -.202E+04   -.720E+00 0.485E+01 0.286E+01   0.207E-01 -.199E-02 0.433E-02
   0.113E+03 0.658E+03 -.251E+04   -.109E+03 -.663E+03 0.252E+04   -.365E+01 0.330E+01 -.496E+01   -.211E-02 0.170E-01 -.119E-01
   0.337E+03 0.393E+03 0.133E+04   -.339E+03 -.395E+03 -.134E+04   0.126E+01 0.144E+01 0.441E+01   -.299E-01 -.442E-02 -.166E-01
   0.141E+02 0.245E+03 -.343E+04   -.145E+02 -.247E+03 0.343E+04   0.449E+00 0.177E+01 0.125E+01   -.113E-01 -.118E-01 0.276E-02
   0.322E+03 -.286E+03 0.258E+04   -.323E+03 0.288E+03 -.259E+04   0.311E+00 -.938E+00 0.668E+01   0.212E-01 0.229E-02 -.166E-01
   -.525E+03 0.529E+03 -.193E+04   0.528E+03 -.531E+03 0.194E+04   -.244E+01 0.175E+01 -.570E+01   0.314E-01 -.109E-01 0.332E-02
   -.378E+03 0.301E+03 0.107E+04   0.381E+03 -.302E+03 -.107E+04   -.243E+01 0.347E+00 0.142E+01   0.363E-01 0.399E-02 -.158E-02
   -.684E+01 -.241E+03 0.408E+04   0.901E+01 0.239E+03 -.408E+04   -.230E+01 0.208E+01 -.931E-01   -.251E-02 0.429E-02 -.101E-01
   -.813E+02 -.254E+03 -.140E+03   0.804E+02 0.257E+03 0.143E+03   0.703E+00 -.228E+01 -.169E+01   -.180E-01 -.119E-01 0.172E-01
   -.168E+03 -.180E+03 -.394E+04   0.167E+03 0.181E+03 0.394E+04   0.203E+01 -.136E+01 0.159E+01   -.107E-01 -.228E-01 0.729E-02
   -.218E+03 -.827E+03 0.354E+04   0.218E+03 0.829E+03 -.355E+04   0.467E+00 -.190E+01 0.553E+01   -.962E-02 -.101E-02 -.964E-02
   -.564E+03 -.773E+03 -.770E+03   0.568E+03 0.779E+03 0.770E+03   -.374E+01 -.509E+01 -.118E+01   -.333E-01 0.211E-01 0.133E-01
   -.937E+01 -.359E+03 0.203E+04   0.135E+02 0.359E+03 -.203E+04   -.309E+01 -.792E+00 0.384E+01   0.102E-01 -.115E-01 0.608E-02
   0.828E+01 -.408E+03 -.293E+04   -.623E+01 0.413E+03 0.294E+04   -.770E+00 -.296E+01 -.487E+01   -.109E-01 -.189E-01 -.144E-01
   0.136E+03 -.469E+03 0.137E+04   -.137E+03 0.471E+03 -.137E+04   0.191E+01 -.209E+01 0.487E+01   -.305E-01 0.386E-01 -.142E-01
   -.892E+01 -.317E+03 -.339E+04   0.814E+01 0.319E+03 0.339E+04   0.103E+01 -.208E+01 0.524E+00   -.607E-02 0.322E-01 -.843E-02
   -.193E+03 0.657E+03 0.221E+04   0.193E+03 -.659E+03 -.221E+04   0.346E+00 0.104E+01 0.645E+01   0.911E-02 -.123E-01 -.423E-01
   -.709E+03 -.305E+03 -.187E+04   0.714E+03 0.308E+03 0.187E+04   -.325E+01 -.263E+01 -.537E+01   0.373E-01 -.256E-01 0.230E-01
   0.593E+03 -.143E+03 -.933E+03   -.599E+03 0.145E+03 0.936E+03   0.280E+01 -.976E+00 -.153E+01   0.567E-02 0.479E-03 -.824E-02
   -.159E+03 -.199E+03 0.629E+03   0.162E+03 0.200E+03 -.632E+03   -.166E+01 -.507E+00 0.162E+01   0.154E-01 0.456E-02 0.140E-02
   -.334E+03 0.369E+03 0.134E+04   0.337E+03 -.373E+03 -.135E+04   -.197E+01 0.313E+01 0.243E+01   -.222E-02 -.447E-03 0.361E-03
   -.264E+03 0.751E+02 -.873E+03   0.264E+03 -.751E+02 0.878E+03   0.113E+01 0.166E+00 -.399E+01   -.170E-01 -.849E-02 0.128E-01
   -.225E+03 -.288E+03 0.995E+03   0.226E+03 0.291E+03 -.999E+03   -.324E+00 -.348E+01 0.313E+01   -.977E-02 0.617E-02 -.109E-01
   -.200E+03 -.105E+03 -.159E+04   0.202E+03 0.106E+03 0.160E+04   -.176E+01 -.747E+00 -.228E+01   -.199E-01 0.849E-02 0.155E-01
   0.116E+03 -.966E+01 0.176E+04   -.117E+03 0.993E+01 -.176E+04   0.361E+00 -.102E-01 0.174E+01   0.935E-02 -.298E-02 0.572E-02
   -.830E+02 -.475E+01 -.321E+03   0.837E+02 0.495E+01 0.323E+03   0.749E+00 -.303E+00 -.244E+01   0.268E-02 -.360E-02 -.599E-02
   0.323E+02 0.478E+02 -.175E+04   -.318E+02 -.480E+02 0.176E+04   0.291E+00 -.511E-01 -.120E+01   -.361E-02 0.796E-03 -.855E-02
   0.159E+03 -.810E+02 0.166E+04   -.160E+03 0.809E+02 -.167E+04   0.126E+01 0.193E+00 0.186E+01   -.101E-01 0.959E-02 -.543E-02
   -.102E+03 -.631E+02 -.546E+03   0.103E+03 0.635E+02 0.550E+03   0.704E+00 -.473E+00 -.409E+01   0.103E-02 0.106E-01 -.214E-02
   -.476E+02 -.776E+02 0.665E+03   0.483E+02 0.792E+02 -.669E+03   -.840E+00 -.154E+01 0.295E+01   0.214E-01 -.939E-02 -.569E-02
   -.109E+03 -.600E+01 -.132E+04   0.110E+03 0.572E+01 0.133E+04   -.317E+00 0.260E+00 -.344E+01   0.274E-01 -.462E-02 0.565E-02
   -.697E+02 -.475E+02 0.159E+04   0.704E+02 0.483E+02 -.160E+04   -.749E+00 -.365E+00 0.352E+01   0.101E-01 0.248E-02 -.710E-02
   -.217E+03 0.888E+02 -.627E+03   0.219E+03 -.900E+02 0.632E+03   -.155E+01 0.682E+00 -.278E+01   0.163E-01 0.107E-01 -.159E-02
   0.296E+03 -.256E+03 0.849E+03   -.299E+03 0.259E+03 -.851E+03   0.196E+01 -.156E+01 0.285E+00   -.126E-01 -.780E-02 0.146E-02
   0.251E+03 0.604E+01 -.110E+04   -.253E+03 -.553E+01 0.110E+04   0.105E+01 -.229E+00 -.119E+01   0.108E-03 -.164E-01 -.284E-03
   -.184E+02 -.330E+03 0.673E+03   0.180E+02 0.333E+03 -.677E+03   -.715E+00 -.262E+01 0.276E+01   -.804E-02 0.767E-02 0.716E-02
   -.167E+03 -.582E+00 -.130E+04   0.167E+03 0.114E+01 0.130E+04   0.559E-01 -.639E+00 -.275E+01   -.110E-01 0.105E-01 0.450E-02
   0.368E+03 -.303E+03 -.718E+03   -.372E+03 0.306E+03 0.721E+03   0.254E+01 -.179E+01 -.255E+01   0.771E-02 -.932E-02 0.236E-02
   0.149E+03 0.592E+01 0.136E+04   -.150E+03 -.665E+01 -.137E+04   0.389E+00 0.234E+00 0.503E+01   0.128E-01 -.612E-02 0.304E-02
   0.213E+03 0.705E+02 0.111E+04   -.214E+03 -.720E+02 -.112E+04   0.277E+00 0.912E+00 0.337E+01   0.228E-02 0.285E-02 0.488E-02
   0.223E+03 -.204E+03 -.789E+03   -.224E+03 0.206E+03 0.790E+03   0.435E+00 -.561E+00 -.460E+00   -.531E-02 0.638E-02 -.106E-01
   -.153E+03 0.149E+03 0.115E+03   0.151E+03 -.147E+03 -.115E+03   -.400E+00 -.154E+01 0.433E+00   -.202E-01 -.624E-02 -.206E-02
   -.111E+03 -.231E+03 -.163E+04   0.111E+03 0.234E+03 0.163E+04   0.106E+00 -.205E+01 -.711E+00   -.646E-02 -.290E-02 0.169E-01
   0.305E+02 0.393E+03 0.904E+03   -.308E+02 -.396E+03 -.907E+03   -.368E+00 0.177E+01 0.234E+01   -.190E-01 -.151E-02 0.778E-02
   0.225E+03 0.407E+02 -.103E+04   -.227E+03 -.413E+02 0.103E+04   0.798E+00 0.330E+00 -.747E+00   0.346E-02 0.781E-02 -.883E-03
   0.962E+01 0.296E+02 0.177E+04   -.102E+02 -.300E+02 -.178E+04   0.124E-01 -.302E+00 0.156E+01   0.724E-02 0.678E-02 -.230E-01
   -.425E+03 -.590E+02 -.682E+03   0.430E+03 0.595E+02 0.688E+03   -.425E+01 -.126E+01 -.380E+01   0.340E-01 -.536E-03 0.599E-02
   0.235E+03 0.478E+03 -.447E+03   -.236E+03 -.482E+03 0.450E+03   0.441E+00 0.221E+01 -.237E+01   0.740E-02 0.784E-02 0.224E-02
   0.973E+02 0.150E+03 0.149E+04   -.986E+02 -.151E+03 -.150E+04   0.111E+01 0.242E+00 0.398E+01   0.864E-02 0.182E-02 0.378E-02
   0.494E+02 0.361E+02 0.341E+03   -.512E+02 -.395E+02 -.339E+03   0.813E+00 0.198E+01 -.240E+01   -.359E-02 -.609E-02 -.810E-03
   -.153E+03 -.530E+02 -.141E+04   0.152E+03 0.524E+02 0.141E+04   0.162E+01 0.771E+00 -.185E+01   -.841E-02 -.226E-02 0.557E-02
   0.404E+02 0.116E+03 0.335E+03   -.426E+02 -.118E+03 -.338E+03   0.441E+00 0.209E+01 0.203E+01   -.673E-02 -.448E-02 -.777E-03
   -.101E+03 0.289E+03 -.158E+04   0.100E+03 -.292E+03 0.159E+04   0.254E+00 0.232E+01 -.905E+00   -.500E-02 -.199E-02 0.101E-01
   0.148E+02 -.688E+02 0.120E+04   -.136E+02 0.695E+02 -.121E+04   -.417E+00 -.729E+00 0.576E+01   -.597E-02 0.108E-02 0.171E-02
   0.194E+03 0.188E+03 -.799E+03   -.194E+03 -.191E+03 0.800E+03   0.658E+00 0.105E+01 -.616E+00   -.158E-01 -.515E-02 -.438E-02
   -.140E+02 0.687E+01 -.304E+02   -.284E-13 0.853E-13 0.682E-12   0.142E+02 -.695E+01 0.304E+02   -.143E+00 0.347E-01 -.273E-01

 POSITION                                       TOTAL-FORCE (eV/Angst)
     13.17084      1.39171      1.94975        -0.305305      1.153382     -0.600381
     12.36661      0.95754      4.04743         1.000911      0.348573      0.306589
      3.63270      5.93502      1.54902         1.074294      0.333552     -0.320900
      5.02033      6.18092      3.49202        -0.626243     -0.009341     -0.093316
      6.52688      1.18788      2.02485         0.769838      0.332694     -0.199743
      7.93172      1.39171      4.00611        -0.902700      0.635301     -0.800732
     16.08224      6.18092      2.46384        -0.396319      1.219352      0.694384
     16.41732      6.01972      4.95226        -1.395424     -0.454933      0.198008
      2.10894      1.39171      2.97793         0.836183      0.861319      1.032624
      2.26833      1.38966      5.51428         0.246386     -0.056118      1.469550
      9.63192      6.27582      2.56734         0.656298     -0.438346     -0.208212
     10.84312      6.18092      4.52020        -0.865861     -0.144648     -1.077361
     14.95115      9.37844      1.56417         0.575736     -0.031446     -0.144824
      0.22697      9.48220      2.68329        -0.185662      0.199674     -0.421785
      6.02659      6.17687      0.94378        -0.327772     -0.062200     -1.588786
      7.17375      4.91558      3.08454         0.113738     -0.141765     -0.647435
      7.57464      4.75689      5.55113         0.354010      0.066464      0.840873
      9.98814      8.74668      1.42470         0.119764     -0.088075     -0.806326
     10.08514      0.12638      3.59863        -0.068060     -0.347209      0.393919
      1.35096      4.91558      2.05636        -0.110854     -0.183332      0.846850
      1.67587      4.75299      4.54866         0.627064     -1.467925      0.134363
      4.26235      0.12638      2.57045        -0.726340     -1.000775      1.175795
      4.83356      9.57336      5.19428         0.062207     -0.137098      0.651133
     12.87819      4.24895      1.88163        -0.691791      1.005138     -0.355513
     12.99653      4.91558      4.11272         0.322007      0.287288     -1.056010
     15.19609      3.51271      2.25147         0.550145     -0.521807      1.041908
      7.46375      8.18805      0.87161        -0.135287      0.364180     -0.680504
      7.17375      7.44626      3.08454        -0.239875     -0.180651      0.726339
      7.59092      7.61718      5.55855         0.312528     -0.130526      0.798084
      8.93531      1.41041      1.42518        -0.277647      0.067309     -1.607872
     10.08514      2.65705      3.59863        -0.406054      1.039333     -1.274934
      1.35096      7.44626      2.05636         1.034946     -0.679719      1.650705
      1.86560      7.47579      4.80739         1.266442      1.514722      0.420109
      4.26235      2.65705      2.57045         0.703659      0.634918      1.454744
      4.82355      2.77081      5.20399         0.247982      0.151315      0.649322
     12.64359      8.64892      1.96650         0.056426     -1.708211     -0.071099
     12.99653      7.44626      4.11272         1.512183      0.132394     -2.081390
      0.57735      1.14809      4.35977        -2.934404      1.321696      1.710023
     15.97003      1.54881      1.97814         1.245753      0.500373     -0.701931
      8.00634      6.18092      1.40713         1.014178     -0.378860     -3.072112
      8.59001      6.18092      4.49167         1.059127      0.196657      0.601637
     10.91773      1.39171      1.92122         0.938927      0.006887     -0.831677
     10.75094      1.42650      5.12194         0.909246      0.163929      3.495296
      1.91414      6.18280      0.50900         0.225807      0.260561     -3.637904
      2.76722      6.18092      3.46349         1.416173     -0.096511     -0.008299
      1.22657      6.01321      6.09761         0.773261     -0.153315      4.359128
      4.75804      1.38630      1.03048         0.321590      0.077155     -4.022617
      5.67861      1.39171      3.97758         1.625736     -0.078790      0.224841
     13.82913      6.18092      2.43531        -0.107023      0.119855     -0.785579
     14.34738      6.17673      5.10826         0.828745     -0.020382      2.569124
     13.89099      2.94748      0.71784        -0.044703      0.427597     -4.027260
     13.46318      2.89688      3.46251         0.476170     -0.421631      2.554730
      5.26426      7.79215      1.92599        -0.890760      1.380674     -0.794193
      5.73026      7.74328      4.74448        -0.610153      0.260245      1.669140
      8.17565      3.00295      2.44008        -1.196786      1.268560     -0.526444
      8.59947      3.06027      5.08973         0.293990     -0.067687      2.390306
      0.02514      7.79215      3.98236        -1.611423      0.902346     -0.011816
     16.38968      7.94361      1.26264        -1.082553     -0.495232     -2.814473
      2.38310      3.10904      1.77242        -0.817790     -0.515688     -2.825412
      2.93654      3.00295      4.49645        -0.580070      1.976326      0.473687
     11.08705      7.79215      2.95417        -1.566494      0.093254     -0.040659
     11.74401      7.58676      5.68733        -0.735715      1.388349      3.886465
      5.26426      4.56969      1.92599        -0.651488     -1.924203     -0.522056
      5.73823      4.58015      4.69681        -0.867943     -0.233055      1.972207
     13.33951      0.08203      0.33507        -0.534142     -0.649941     -3.481526
     13.99844      9.35889      3.46826         0.359180     -0.723862      2.058319
     16.69624      4.43390      3.59615        -0.329592     -1.646145      0.795212
     16.38708      4.71586      1.02828        -0.143750     -0.489991     -3.202675
      8.17565      9.35889      2.44008        -1.063244     -1.455091     -0.727809
      8.59593      9.34349      5.15610         0.537982      0.182340      2.445038
     11.08705      4.56969      2.95417        -1.760701     -0.295594     -0.817719
     11.74497      4.79870      5.69251        -0.376693     -1.198638      3.849972
      2.21706      9.32926      1.74053         0.752705      0.013772     -3.136728
      2.93654      9.35889      4.49645         0.345303     -2.258743      0.485589
    total drift:                                0.050841     -0.044850     -0.038183

  FREE ENERGIE OF THE ION-ELECTRON SYSTEM (eV)
  free  energy   TOTEN  =      -349.44237057 eV

  energy  without entropy=     -348.29634695  energy(sigma->0) =     -348.86935876