 vasp.5.4.4.18Apr17-6-g9f103f2a35 (build Aug 13 2019 17:33:20) gamma-only

 executed on             LinuxIFC date 2020.05.11  21:15:48

 INCAR:
 POTCAR:    PAW_PBE Ni_pv 06Sep2000
 POTCAR:    PAW_PBE S 06Sep2000
 POTCAR:    PAW_PBE Ni_pv 06Sep2000
   VRHFIN =Ni:

   TITEL  = PAW_PBE Ni_pv 06Sep2000
   POMASS =   58.690; ZVAL   =   16.000    mass and valenz
   ENMAX  =  367.986; ENMIN  =  275.989 eV

 POTCAR:    PAW_PBE S 06Sep2000
   VRHFIN =S : s2p4

   TITEL  = PAW_PBE S 06Sep2000
   POMASS =   32.066; ZVAL   =    6.000    mass and valenz
   ENMAX  =  258.689; ENMIN  =  194.016 eV

 Optimization of the real space projectors (new method)

 maximal supplied QI-value         = 18.90
 optimisation between [QCUT,QGAM] = [ 10.77, 21.73] = [ 32.49,132.25] Ry
 Optimized for a Real-space Cutoff    1.38 Angstroem

   l    n(q)    QCUT    max X(q) W(low)/X(q) W(high)/X(q)  e(spline)
   1      8    10.771     2.836    0.40E-04    0.29E-04    0.12E-06
   1      8    10.771     4.023    0.10E-03    0.48E-04    0.29E-06
   2      8    10.771    73.368    0.42E-03    0.97E-04    0.44E-06
   2      8    10.771    69.010    0.42E-03    0.99E-04    0.45E-06
   0      9    10.771    54.797    0.10E-03    0.56E-04    0.74E-07
   0      9    10.771    24.266    0.89E-04    0.49E-04    0.67E-07
 Optimization of the real space projectors (new method)

 maximal supplied QI-value         = 19.84
 optimisation between [QCUT,QGAM] = [ 10.71, 21.63] = [ 32.15,130.99] Ry
 Optimized for a Real-space Cutoff    1.19 Angstroem

   l    n(q)    QCUT    max X(q) W(low)/X(q) W(high)/X(q)  e(spline)
   0      8    10.715   187.594    0.41E-03    0.53E-04    0.66E-07
   0      8    10.715   164.243    0.41E-03    0.53E-04    0.65E-07
   1      7    10.715    67.533    0.19E-03    0.59E-03    0.68E-07
   1      7    10.715    50.729    0.19E-03    0.58E-03    0.67E-07
  PAW_PBE Ni_pv 06Sep2000               :
  PAW_PBE S 06Sep2000                   :

 POSCAR: Type_036 Type_136
  positions in cartesian coordinates
 exchange correlation table for  LEXCH =        8
   RHO(1)=    0.500       N(1)  =     2000
   RHO(2)=  100.500       N(2)  =     4000

 ion  position               nearest neighbor table
   1  0.780  0.145  0.121-  63 2.08  49 2.08  41 2.25  50 2.36  64 2.36  26 2.42
   2  0.800  0.144  0.285-  64 2.03  50 2.05  42 2.07
   3  0.217  0.617  0.092-  43 2.03  44 2.06  61 2.14   4 2.44  15 2.47  51 2.52
   4  0.297  0.645  0.216-  62 2.12  52 2.15  51 2.26  61 2.26  44 2.29   3 2.44  29 2.53  16 2.53

   5  0.386  0.122  0.126-  45 2.05  46 2.13  67 2.19   6 2.43  53 2.50  18 2.50
   6  0.470  0.145  0.248-  54 2.09  68 2.11  46 2.25  53 2.26  67 2.26   5 2.43  32 2.53  19 2.53

[...]

  26  0.904  0.271  0.110-  63 2.11  66 2.12  49 2.13  50 2.15  38 2.24   1 2.42
  27  0.942  0.284  0.269-  37 2.06  38 2.10  50 2.12  65 2.13  14 2.51
  28  0.414  0.883  0.060-  67 2.09  51 2.09  29 2.36  15 2.48  39 2.53
  29  0.425  0.777  0.191-  52 2.18  67 2.25  39 2.26  51 2.26  28 2.36  40 2.36  30 2.43  16 2.53
                             4 2.53
  30  0.460  0.819  0.335-  68 2.01  52 2.05  40 2.07  29 2.43
  31  0.629  0.348  0.084-  41 2.04  69 2.07  32 2.40
  32  0.597  0.277  0.223-  54 2.08  42 2.13  69 2.25  53 2.26  41 2.26  31 2.40   6 2.53  19 2.53

[...]

  35  0.293  0.320  0.304-  62 2.03  46 2.05  58 2.06  34 2.48
  36  0.770  0.777  0.254-  60 2.02  48 2.08  59 2.24  64 2.25  47 2.27  12 2.53  25 2.53
  37  0.967  0.161  0.370-  10 2.02  14 2.04  27 2.06
  38  0.991  0.145  0.182-  27 2.10  14 2.14  26 2.24  13 2.25   9 2.25  10 2.60
  39  0.474  0.645  0.087-  11 2.00  15 2.02  29 2.26  16 2.26  28 2.53
  40  0.509  0.645  0.278-  30 2.07  17 2.08  11 2.16  12 2.25  29 2.36  16 2.36
  41  0.647  0.145  0.119-  18 2.03  31 2.04   1 2.25  32 2.26  19 2.26  42 2.74
  42  0.678  0.143  0.285-   2 2.07  19 2.10  32 2.13  41 2.74
  43  0.112  0.643  0.031-   3 2.03  20 2.06  33 2.08  56 2.77
  44  0.162  0.659  0.203-  21 2.05   3 2.06  33 2.18   4 2.29  20 2.32
  45  0.282  0.145  0.063-   5 2.05  22 2.06  34 2.07
  46  0.336  0.145  0.246-  23 2.05  35 2.05   5 2.13   6 2.25  34 2.36  22 2.36
  47  0.822  0.630  0.159-  25 2.09  24 2.20   7 2.21  36 2.27  48 2.75
  48  0.839  0.648  0.328-   8 2.02  36 2.08  25 2.11  47 2.75  60 2.79
  49  0.804  0.296  0.031-  24 2.00   1 2.08  26 2.13  63 2.49
  50  0.829  0.314  0.214-   2 2.05  27 2.12  26 2.15  24 2.17  25 2.25   1 2.36
  51  0.312  0.814  0.119-  15 2.06  28 2.09  22 2.25   4 2.26  29 2.26   3 2.52
  52  0.344  0.807  0.295-  30 2.05  23 2.06   4 2.15  29 2.18
  53  0.484  0.314  0.151-  18 2.04  16 2.25  32 2.26   6 2.26   5 2.50
  54  0.528  0.282  0.328-  17 2.00  32 2.08   6 2.09  68 2.75
  55  0.991  0.823  0.229-   8 2.07  13 2.13   7 2.20  14 2.25  33 2.27  56 2.75
  56  0.974  0.791  0.061-  13 2.06   7 2.07  33 2.09  55 2.75  43 2.77
  57  0.141  0.325  0.110-  34 2.09  20 2.10   9 2.12  58 2.78
  58  0.174  0.314  0.278-  21 2.03  35 2.06  10 2.19   9 2.36  34 2.36  72 2.72  57 2.78
  59  0.652  0.810  0.195-  12 2.10  11 2.17  19 2.20  36 2.24  60 2.67
  60  0.697  0.790  0.353-  36 2.02  12 2.04  59 2.67  48 2.79
  61  0.312  0.477  0.119-  15 2.04   3 2.14  34 2.25   4 2.26  16 2.26
  62  0.352  0.506  0.300-  35 2.03  17 2.05   4 2.12  16 2.15
  63  0.878  0.076  0.056-  13 2.04   1 2.08  26 2.11  49 2.49
  64  0.829  0.977  0.214-   2 2.03  14 2.18  13 2.19  36 2.25   1 2.36
  65  0.001  0.477  0.246-  21 2.04   8 2.07  27 2.13   7 2.36  20 2.36  66 2.70
  66  0.966  0.459  0.084-   7 2.11  20 2.12  26 2.12  65 2.70
  67  0.484  0.977  0.151-  18 2.06  28 2.09   5 2.19  29 2.25  19 2.26   6 2.26
  68  0.524  0.995  0.325-  30 2.01  19 2.07   6 2.11  54 2.75
  69  0.657  0.477  0.183-  31 2.07  11 2.20  24 2.22  32 2.25  25 2.26  12 2.26  70 2.79
  70  0.693  0.495  0.351-  25 2.03  12 2.03  69 2.79
  71  0.140  0.966  0.113-  22 2.08   9 2.08  33 2.09
  72  0.162  0.030  0.286-  23 2.04   9 2.08  10 2.14  22 2.57  58 2.72

  LATTYP: Found a simple orthorhombic cell.
 ALAT       =     9.5784100000
 B/A-ratio  =     1.6880763216
 C/A-ratio  =     1.7627867312

  Lattice vectors:

 A1 = (   0.0000000000,   9.5784100000,   0.0000000000)
 A2 = (   0.0000000000,   0.0000000000, -16.1690871197)
 A3 = ( -16.8846940542,   0.0000000000,   0.0000000000)

Analysis of symmetry for initial positions (statically):
 Subroutine PRICEL returns:
 Original cell was already a primitive cell.

 Routine SETGRP: Setting up the symmetry group for a
 simple orthorhombic supercell.

 Subroutine GETGRP returns: Found  1 space group operations
 (whereof  1 operations were pure point group operations)
 out of a pool of  8 trial point group operations.

The static configuration has the point symmetry C_1 .

Analysis of symmetry for dynamics (positions and initial velocities):
 Subroutine PRICEL returns:
 Original cell was already a primitive cell.

 Routine SETGRP: Setting up the symmetry group for a
 simple orthorhombic supercell.

 Subroutine GETGRP returns: Found  1 space group operations
 (whereof  1 operations were pure point group operations)
 out of a pool of  8 trial point group operations.

The dynamic configuration has the point symmetry C_1 .

 Subroutine INISYM returns: Found  1 space group operations
 (whereof  1 operations are pure point group operations),
 and found     1 'primitive' translations

 KPOINTS: gamma-point-only calculation. no periodi

Automatic generation of k-mesh.
Space group operators:
 irot       det(A)        alpha          n_x          n_y          n_z        tau_x        tau_y        tau_z
    1     1.000000     0.000000     1.000000     0.000000     0.000000     0.000000     0.000000     0.000000

 Subroutine IBZKPT returns following result:

 Found      1 irreducible k-points:

 Following reciprocal coordinates:
            Coordinates               Weight
  0.000000  0.000000  0.000000      1.000000

 Following cartesian coordinates:
            Coordinates               Weight
  0.000000  0.000000  0.000000      1.000000

 SYSTEM =  "Millerite NiS"
 POSCAR =  Type_036 Type_136

 Startparameter for this run:
   NWRITE =      2    write-flag & timer
   PREC   = normal    normal or accurate (medium, high low for compatibility)
   ISTART =      0    job   : 0-new  1-cont  2-samecut
   ICHARG =      2    charge: 1-file 2-atom 10-const
   ISPIN  =      1    spin polarized calculation?
   LNONCOLLINEAR =      F non collinear calculations
   LSORBIT =      F    spin-orbit coupling
   INIWAV =      1    electr: 0-lowe 1-rand  2-diag
   LASPH  =      F    aspherical Exc in radial PAW
   METAGGA=      F    non-selfconsistent MetaGGA calc.

 Electronic Relaxation 1
   ENCUT  =  450.0 eV  33.07 Ry    5.75 a.u.  29.20 16.57 27.97*2*pi/ulx,y,z
   ENINI  =  450.0     initial cutoff
   ENAUG  =  703.4 eV  augmentation charge cutoff
   NELM   =    100;   NELMIN=  2; NELMDL= -5     # of ELM steps
   EDIFF  = 0.1E-03   stopping-criterion for ELM
   LREAL  =      T    real-space projection
   NLSPLINE    = F    spline interpolate recip. space projectors
   LCOMPAT=      F    compatible to vasp.4.4
   GGA_COMPAT  = T    GGA compatible to vasp.4.4-vasp.4.6
   LMAXPAW     = -100 max onsite density
   LMAXMIX     =    2 max onsite mixed and CHGCAR
   VOSKOWN=      0    Vosko Wilk Nusair interpolation
   ROPT   =   -0.00050  -0.00050
 Ionic relaxation
   EDIFFG = 0.1E-02   stopping-criterion for IOM
   NSW    =      0    number of steps for IOM
   NBLOCK =      1;   KBLOCK =      1    inner block; outer block
   IBRION =     -1    ionic relax: 0-MD 1-quasi-New 2-CG
   NFREE  =      0    steps in history (QN), initial steepest desc. (CG)
   ISIF   =      2    stress and relaxation
   IWAVPR =     10    prediction:  0-non 1-charg 2-wave 3-comb
   ISYM   =      2    0-nonsym 1-usesym 2-fastsym
   LCORR  =      T    Harris-Foulkes like correction to forces

   POTIM  = 0.5000    time-step for ionic-motion
   TEIN   =    0.0    initial temperature
   TEBEG  =    0.0;   TEEND  =   0.0 temperature during run
   SMASS  =  -3.00    Nose mass-parameter (am)
   estimated Nose-frequenzy (Omega)   =  0.10E-29 period in steps =****** mass=  -0.652E-26a.u.
   SCALEE = 1.0000    scale energy and forces
   NPACO  =    256;   APACO  = 16.0  distance and # of slots for P.C.
   PSTRESS=    0.0 pullay stress

  Mass of Ions in am
   POMASS =  58.69 32.07
  Ionic Valenz
   ZVAL   =  16.00  6.00
  Atomic Wigner-Seitz radii
  virtual crystal weights
   VCA    =   1.00  1.00
   NELECT =     792.0000    total number of electrons
   NUPDOWN=      -1.0000    fix difference up-down

 DOS related values:
   EMIN   =  10.00;   EMAX   =-10.00  energy-range for DOS
   EFERMI =   0.00
   ISMEAR =     0;   SIGMA  =   0.20  broadening in eV -4-tet -1-fermi 0-gaus

 Electronic relaxation 2 (details)
   IALGO  =     38    algorithm
   LDIAG  =      T    sub-space diagonalisation (order eigenvalues)
   LSUBROT=      F    optimize rotation matrix (better conditioning)
   TURBO    =      0    0=normal 1=particle mesh
   IRESTART =      0    0=no restart 2=restart with 2 vectors
   NREBOOT  =      0    no. of reboots
   NMIN     =      0    reboot dimension
[...]
  Fock        0.00000     0.00000     0.00000     0.00000     0.00000     0.00000
  Total     117.74740   128.15188   139.95839    -3.39607    -3.33257    -2.43750
  in kB      72.14227    78.51695    85.75065    -2.08073    -2.04182    -1.49342

 VOLUME and BASIS-vectors are now :
  energy-cutoff  :      450.00
  volume of cell :     2615.00
      direct lattice vectors                 reciprocal lattice vectors
    16.884694054  0.000000000  0.000000000     0.059225237  0.000000000  0.000000000
     0.000000000  9.578410000  0.000000000     0.000000000  0.104401461  0.000000000
     0.000000000  0.000000000 16.169087120     0.000000000  0.000000000  0.061846411

  length of vectors
    16.884694054  9.578410000 16.169087120     0.059225237  0.104401461  0.061846411

 FORCES acting on ions
    electron-ion (+dipol)            ewald-force                    non-local-force                 convergence-correction
   0.468E+03 0.848E+03 0.211E+04   -.472E+03 -.853E+03 -.211E+04   0.344E+01 0.444E+01 0.348E+01   0.998E-03 0.781E-02 0.342E-02
   0.387E+03 0.163E+03 -.273E+04   -.391E+03 -.165E+03 0.273E+04   0.386E+01 0.218E+01 0.115E+01   -.157E-03 0.478E-02 -.733E-02
   0.285E+03 0.316E+02 0.283E+04   -.284E+03 -.321E+02 -.283E+04   0.733E+00 0.629E+00 0.548E+01   -.892E-02 -.192E-02 0.333E-02
   0.789E+03 -.850E+02 -.127E+04   -.791E+03 0.848E+02 0.127E+04   0.177E+01 0.530E+00 -.447E+01   -.848E-02 -.959E-02 0.301E-02
   0.926E+02 -.355E+03 0.222E+04   -.932E+02 0.355E+03 -.223E+04   0.130E+01 0.131E+00 0.787E+01   -.109E-01 0.127E-01 -.255E-02
   0.202E+03 -.175E+02 -.185E+04   -.206E+03 0.181E+02 0.186E+04   0.273E+01 -.349E+00 -.677E+01   0.453E-02 0.110E-01 0.461E-02
   0.653E+03 -.414E+02 0.138E+04   -.659E+03 0.390E+02 -.138E+04   0.507E+01 0.134E+01 0.329E+01   0.231E-02 -.301E-02 0.220E-02
   -.170E+03 -.201E+03 -.308E+04   0.167E+03 0.199E+03 0.308E+04   0.377E+01 0.140E+01 0.136E+01   0.201E-02 -.502E-02 -.107E-01
   0.505E+03 0.206E+03 0.798E+03   -.508E+03 -.206E+03 -.803E+03   0.263E+01 0.703E+00 0.488E+01   -.382E-02 0.639E-02 0.296E-03
   -.163E+03 0.115E+03 -.324E+04   0.162E+03 -.116E+03 0.325E+04   0.122E+01 0.128E+01 -.616E+01   -.107E-02 0.863E-02 -.437E-02
   -.635E+03 -.230E+03 0.180E+04   0.638E+03 0.231E+03 -.180E+04   -.254E+01 -.145E+01 0.371E+01   -.228E-02 -.825E-02 0.180E-02
   -.207E+02 -.147E+03 -.221E+04   0.173E+02 0.147E+03 0.222E+04   0.243E+01 0.715E+00 -.716E+01   -.762E-02 0.181E-02 -.609E-02
   0.173E+03 0.219E+03 0.197E+04   -.174E+03 -.220E+03 -.198E+04   0.109E+01 0.952E+00 0.711E+01   0.230E-02 -.662E-02 -.137E-02
   -.435E+02 0.703E+03 -.243E+04   0.427E+02 -.705E+03 0.243E+04   0.477E+00 0.288E+00 -.574E+01   0.116E-02 0.956E-03 -.698E-02
   -.694E+02 0.404E+03 0.392E+04   0.679E+02 -.404E+03 -.393E+04   0.116E+01 0.646E+00 0.503E+01   -.703E-02 -.132E-01 0.852E-03
   -.210E+03 0.567E+03 0.436E+03   0.210E+03 -.570E+03 -.437E+03   0.575E+00 0.342E+01 -.311E+00   0.232E-02 -.602E-02 0.166E-02
   -.152E+03 0.129E+03 -.358E+04   0.155E+03 -.133E+03 0.358E+04   -.255E+01 0.418E+01 0.171E+01   0.245E-02 0.270E-02 0.160E-02
   -.306E+03 0.184E+03 0.347E+04   0.305E+03 -.184E+03 -.347E+04   0.401E+00 -.548E+00 0.558E+01   0.682E-02 0.988E-02 -.512E-03
   -.797E+03 0.640E+03 -.599E+03   0.801E+03 -.647E+03 0.601E+03   -.366E+01 0.576E+01 -.425E+01   0.110E-01 -.437E-03 0.285E-02
   0.219E+03 0.489E+03 0.193E+04   -.219E+03 -.494E+03 -.193E+04   0.578E+00 0.506E+01 0.371E+01   -.335E-02 0.513E-02 0.795E-02
   -.685E+02 -.381E+03 -.268E+04   0.690E+02 0.380E+03 0.268E+04   -.496E+00 0.197E+01 0.181E+01   -.388E-02 -.196E-03 -.758E-02
   0.489E+03 0.491E+03 0.113E+04   -.491E+03 -.495E+03 -.113E+04   0.233E+01 0.249E+01 0.323E+01   -.853E-02 0.348E-02 -.453E-02
   0.357E+03 0.320E+03 -.328E+04   -.357E+03 -.322E+03 0.327E+04   0.126E+00 0.253E+01 0.354E+01   -.601E-02 0.474E-03 -.353E-02
   -.397E+02 -.673E+03 0.247E+04   0.369E+02 0.677E+03 -.248E+04   0.199E+01 -.275E+01 0.683E+01   0.576E-02 -.455E-03 -.105E-02
   -.309E+03 0.168E+03 -.164E+04   0.312E+03 -.172E+03 0.165E+04   -.177E+01 0.306E+01 -.594E+01   0.144E-01 -.353E-02 -.159E-01
   -.558E+03 -.142E+03 0.257E+04   0.566E+03 0.146E+03 -.257E+04   -.674E+01 -.324E+01 0.381E+01   -.408E-02 0.716E-02 0.285E-02
   0.103E+03 -.560E+03 -.201E+04   -.102E+03 0.565E+03 0.201E+04   -.171E+01 -.381E+01 -.499E+01   0.241E-02 0.970E-02 -.556E-02
   -.387E+03 -.252E+03 0.385E+04   0.384E+03 0.253E+03 -.385E+04   0.268E+01 -.627E+00 -.142E+01   -.142E-02 -.237E-02 -.323E-02
   -.320E+03 -.293E+03 -.270E+02   0.321E+03 0.295E+03 0.289E+02   -.833E-01 -.237E+01 -.172E+01   0.188E-02 -.158E-01 0.261E-02
   -.122E+03 -.139E+03 -.368E+04   0.124E+03 0.142E+03 0.368E+04   -.991E+00 -.414E+01 0.258E+01   0.611E-02 -.112E-01 0.742E-02
   -.690E+02 -.453E+03 0.342E+04   0.709E+02 0.451E+03 -.342E+04   -.195E+01 0.227E+01 -.125E+01   0.821E-02 0.369E-02 0.566E-02
   -.496E+03 -.283E+03 -.107E+04   0.498E+03 0.288E+03 0.107E+04   -.188E+01 -.429E+01 -.481E+01   0.605E-02 0.782E-02 0.964E-03
   -.606E+02 -.649E+03 0.156E+04   0.623E+02 0.654E+03 -.156E+04   -.160E+01 -.458E+01 0.116E+00   -.429E-02 -.800E-02 0.245E-02
   0.138E+03 -.375E+03 0.132E+04   -.138E+03 0.379E+03 -.133E+04   0.107E+01 -.266E+01 0.395E+01   -.557E-02 0.684E-02 -.146E-02
   0.139E+03 -.115E+03 -.317E+04   -.138E+03 0.119E+03 0.317E+04   -.143E+01 -.463E+01 0.135E+01   -.424E-02 0.753E-02 -.656E-02
   -.252E+03 -.612E+03 -.986E+03   0.255E+03 0.617E+03 0.984E+03   -.234E+01 -.501E+01 -.121E+00   0.932E-02 0.135E-02 -.656E-02
   0.995E+02 0.360E+02 -.170E+04   -.993E+02 -.362E+02 0.171E+04   -.850E+00 -.286E-01 -.138E+01   0.220E-02 0.309E-02 -.858E-03
   -.182E+03 0.369E+02 0.425E+03   0.184E+03 -.376E+02 -.429E+03   -.421E+00 0.857E+00 0.209E+01   0.106E-02 0.235E-02 -.109E-02
   -.395E+03 0.111E+03 0.135E+04   0.399E+03 -.113E+03 -.136E+04   -.267E+01 0.269E+01 0.228E+01   0.131E-02 -.586E-02 0.257E-02
   -.178E+03 -.234E+02 -.882E+03   0.178E+03 0.234E+02 0.888E+03   0.779E+00 -.118E+00 -.402E+01   0.410E-03 -.631E-02 -.575E-03
   -.305E+03 0.373E+03 0.917E+03   0.308E+03 -.376E+03 -.921E+03   -.435E+00 0.653E+00 0.253E+01   0.448E-02 0.247E-02 0.125E-02
   -.137E+03 0.705E+02 -.106E+04   0.138E+03 -.704E+02 0.107E+04   -.321E-02 0.994E-01 -.265E+01   0.157E-02 0.124E-02 -.973E-03
   0.131E+03 -.432E+02 0.168E+04   -.131E+03 0.428E+02 -.169E+04   -.393E-01 0.674E+00 0.213E+01   -.196E-02 0.789E-03 0.350E-02
   0.356E+02 -.272E+03 -.456E+03   -.364E+02 0.274E+03 0.461E+03   0.140E+01 -.143E+01 -.270E+01   -.439E-02 -.221E-02 -.245E-03
   0.169E+03 -.742E+02 0.162E+04   -.170E+03 0.748E+02 -.162E+04   0.143E+01 -.398E+00 0.219E+01   -.316E-02 0.284E-02 -.408E-03
   -.509E+02 -.924E+01 -.659E+03   0.518E+02 0.977E+01 0.664E+03   0.269E+00 -.441E+00 -.416E+01   -.317E-02 0.383E-02 -.105E-02
   0.226E+02 -.277E+03 0.713E+03   -.232E+02 0.279E+03 -.717E+03   0.941E+00 -.106E+01 0.204E+01   0.336E-02 -.220E-02 -.159E-02
   -.859E+02 -.307E+02 -.137E+04   0.883E+02 0.308E+02 0.137E+04   -.154E+01 -.139E+00 -.311E+01   0.347E-02 0.320E-03 -.284E-02
   0.212E+02 -.478E+02 0.170E+04   -.223E+02 0.489E+02 -.171E+04   0.135E+00 -.372E+00 0.276E+01   -.397E-03 0.304E-02 0.340E-02
   0.467E+02 -.124E+03 -.319E+03   -.465E+02 0.124E+03 0.322E+03   -.891E+00 0.121E+01 -.185E+01   -.317E-03 0.193E-02 -.307E-02
   0.360E+03 -.197E+03 0.745E+03   -.363E+03 0.199E+03 -.746E+03   0.176E+01 -.881E+00 0.130E+00   -.727E-02 -.346E-02 0.112E-02
   0.289E+03 0.234E+02 -.116E+04   -.290E+03 -.225E+02 0.117E+04   0.587E+00 -.418E+00 -.268E+01   -.452E-02 -.379E-02 -.168E-04
   0.940E+02 -.259E+03 0.630E+03   -.957E+02 0.262E+03 -.631E+03   0.606E+00 -.157E+01 0.116E+01   0.229E-03 0.653E-02 0.258E-03
   -.165E+03 0.671E+02 -.146E+04   0.166E+03 -.658E+02 0.147E+04   -.432E+00 -.124E+01 -.217E+01   0.183E-02 0.389E-02 0.219E-02
   -.169E+03 -.866E+02 -.546E+03   0.172E+03 0.866E+02 0.550E+03   -.175E+01 0.387E+00 -.184E+01   0.186E-02 -.522E-02 -.336E-02
   0.211E+03 -.681E+02 0.152E+04   -.213E+03 0.685E+02 -.152E+04   0.827E+00 0.252E+00 0.320E+01   0.217E-02 -.295E-02 0.333E-02
   0.163E+03 0.704E+02 0.112E+04   -.164E+03 -.718E+02 -.112E+04   0.233E-01 0.916E+00 0.410E+01   -.349E-03 0.250E-02 0.189E-02
   0.510E+02 -.682E+02 -.923E+03   -.506E+02 0.713E+02 0.926E+03   -.542E+00 -.287E+01 -.160E+01   -.363E-02 0.388E-02 -.192E-02
   -.215E+03 -.204E+03 0.411E+03   0.215E+03 0.206E+03 -.416E+03   0.583E-01 -.169E-01 0.254E+01   0.200E-02 0.145E-03 -.937E-03
   -.308E+02 -.265E+03 -.149E+04   0.302E+02 0.269E+03 0.149E+04   0.249E+00 -.213E+01 -.179E+01   0.122E-02 0.242E-02 0.350E-03
   0.299E+02 0.357E+03 0.866E+03   -.301E+02 -.360E+03 -.869E+03   -.277E+00 0.102E+01 0.273E+01   -.137E-02 -.981E-03 0.168E-02
   0.237E+03 -.751E+02 -.122E+04   -.239E+03 0.746E+02 0.123E+04   0.553E-01 -.103E+00 -.250E+01   0.794E-03 -.481E-03 -.937E-03
   -.106E+02 0.257E+03 0.151E+04   0.119E+02 -.259E+03 -.152E+04   -.922E+00 0.162E+01 0.421E+01   -.160E-04 0.887E-03 0.807E-03
   0.219E+03 0.278E+03 -.505E+02   -.222E+03 -.280E+03 0.505E+02   0.158E+01 0.156E+00 -.163E+00   -.151E-02 -.711E-03 -.172E-02
   0.829E+02 0.475E+02 -.562E+03   -.832E+02 -.484E+02 0.564E+03   -.217E+00 0.964E+00 -.622E+00   0.194E-02 0.161E-02 -.194E-02
   0.898E+02 0.508E+02 0.126E+04   -.914E+02 -.506E+02 -.127E+04   0.138E+01 -.622E+00 0.345E+01   -.228E-03 0.262E-02 0.306E-02
   -.270E+03 0.200E+03 0.476E+03   0.272E+03 -.203E+03 -.477E+03   -.176E+01 0.194E+01 0.481E+00   0.397E-02 0.212E-04 0.132E-02
   -.183E+03 -.268E+02 -.140E+04   0.184E+03 0.257E+02 0.141E+04   -.643E+00 0.100E+01 -.194E+01   0.489E-02 0.168E-02 0.293E-02
   -.465E+02 -.118E+03 0.210E+03   0.442E+02 0.117E+03 -.210E+03   0.149E+01 0.971E+00 -.494E+00   0.151E-02 -.211E-02 -.351E-02
   -.233E+02 0.232E+03 -.153E+04   0.221E+02 -.235E+03 0.153E+04   0.810E+00 0.179E+01 -.520E+00   -.435E-03 -.210E-02 0.222E-03
   0.169E+03 0.173E+02 0.996E+03   -.170E+03 -.165E+02 -.100E+04   0.700E+00 -.783E+00 0.393E+01   -.300E-02 -.322E-02 -.555E-04
   0.163E+03 0.360E+03 -.103E+04   -.164E+03 -.364E+03 0.103E+04   0.476E+00 0.253E+01 -.143E+01   -.349E-02 0.103E-02 -.115E-02
   -.139E+02 -.106E+02 -.307E+02   -.824E-12 -.398E-12 -.500E-11   0.138E+02 0.106E+02 0.308E+02   -.581E-03 0.317E-01 -.387E-01

 POSITION                                       TOTAL-FORCE (eV/Angst)
     13.17084      1.39171      1.94975        -1.110777     -0.849022      1.135199
     13.51175      1.37670      4.61601        -0.069040      0.450284      0.863134
      3.65630      5.90874      1.48405         1.199305      0.075424     -0.791612
      5.02033      6.18092      3.49202        -0.634605      0.252717     -0.226291
      6.52459      1.16870      2.03464         0.645295      0.304514     -0.368707
      7.93172      1.39171      4.00611        -0.762829      0.257066     -1.072513
     16.08224      6.18092      2.46384        -0.825572     -1.057484      0.764974
     16.12614      6.27311      4.86524         0.606160     -0.057543      0.928575
      2.10894      1.39171      2.97793        -0.430682      0.714950     -0.319065
      1.25155      1.75323      5.10899         0.840234      0.181046      0.142484
      9.61909      6.17093      2.59189         0.504853     -0.099064     -0.458183
     10.84312      6.18092      4.52020        -1.007621     -0.190444     -0.072453
     15.77649      9.07487      2.22755         0.220366     -0.455146      0.834626
     15.86371      0.21311      4.50288        -0.351937     -0.821178      0.053307
      6.04462      6.16994      0.92916        -0.313182      0.054902     -1.528332
      7.17375      4.91558      3.08454         0.483195     -0.183427     -1.212723
      7.88782      4.42631      5.35334         0.002881      0.606026      0.880561
      8.94320      1.40626      1.43411        -0.258763     -0.243320     -1.806000
     10.08514      0.12638      3.59863         0.690824     -0.499930     -1.454880
      1.35096      4.91558      2.05636        -0.247632     -0.523944      1.231953
      1.99103      4.80143      4.45763         0.033983      0.589607      1.178804
      4.26235      0.12638      2.57045         0.408088     -0.800649      0.596249
      4.70927      9.45471      4.96762        -0.185336     -0.249297      0.445694
     12.99414      4.12737      1.91391        -0.728264      0.888527     -0.024720
     12.99653      4.91558      4.11272         0.800597     -0.453804     -0.488536
     15.26441      2.59481      1.77562         1.468206      0.701408      0.069631
     15.90852      2.71944      4.34216        -0.559549      0.951791     -0.255222
      6.99832      8.46094      0.96294         0.234213      0.259740     -0.805013
      7.17375      7.44626      3.08454         0.381973     -0.335658      0.174024
      7.75939      7.84633      5.40924         0.220173     -0.441744      0.736497
     10.62885      3.33353      1.35732        -0.099364      0.712617     -0.973986
     10.08514      2.65705      3.59863         0.480074      0.149838     -0.729428
      1.35096      7.44626      2.05636         0.101152      0.346756      1.108814
      4.26235      2.65705      2.57045         0.601817      0.633069      0.974678
      4.95330      3.06885      4.91625        -0.273583     -0.110838      0.661515
     12.99653      7.44626      4.11272         0.540415      0.471807     -2.599711
     16.32207      1.54452      5.98062        -0.701969     -0.153901      4.110863
     16.74052      1.39171      2.94940         1.916888      0.222033     -1.281806
      8.00634      6.18092      1.40713         0.939708      0.465446     -2.719447
      8.59001      6.18092      4.49167         0.800793     -0.120387      1.338482
     10.91773      1.39171      1.92122         2.169622     -1.534701     -1.560197
     11.44517      1.36603      4.60519         0.884888      0.149777      2.733976
      1.89805      6.16243      0.50797         0.088288      0.193694     -3.779834
      2.74064      6.31075      3.28552         0.551330      0.713001      2.443981
      4.76159      1.38878      1.01706         0.361039      0.139711     -3.641164
      5.67861      1.39171      3.97758         1.176699      0.089873      1.071246
     13.88024      6.03080      2.57528         0.401809      1.195945     -1.864031
     14.16042      6.20404      5.30398         0.854722      0.023038      2.547133
     13.56806      2.83495      0.50352        -0.982982      0.747732     -3.648529
     13.99844      3.00295      3.46826        -0.654712      1.186316      1.508908
      5.26426      7.79215      1.92599        -1.523182      1.215196     -0.878123
      5.81395      7.72851      4.76389        -0.920578      0.446746      1.870371
      8.17565      3.00295      2.44008        -1.069287      1.377509     -0.013696
      8.90823      2.70409      5.31094         0.257670      0.121557      2.745386
     16.73500      7.87834      3.70468         1.224282      0.378132      2.022374
     16.44525      7.57859      0.98516        -0.817953      0.682244     -3.690993
      2.38548      3.11276      1.77119        -0.726596     -0.498137     -2.763644
      2.93654      3.00295      4.49645        -0.171513      0.241628      1.196162
     11.00085      7.75570      3.14557         0.128928      1.563591     -1.552523
     11.76027      7.56678      5.70045        -0.428971      1.519529      3.470494
      5.26426      4.56969      1.92599        -0.439149     -1.867222     -0.021366
      5.94672      4.84332      4.84538        -1.209200     -0.557696      2.014085
     14.83262      0.72472      0.89822         0.326124     -0.976900     -3.159837
     13.99844      9.35889      3.46826        -1.437138     -2.104157     -0.140650
      0.02514      4.56969      3.98236        -0.524135      0.037443      1.345303
     16.30795      4.39516      1.35338        -0.242640     -0.400464     -2.709946
      8.17565      9.35889      2.44008        -0.231024     -1.510541     -0.200770
      8.84236      9.53211      5.24728        -0.096969     -0.156393      2.890273
     11.08705      4.56969      2.95417        -0.834386     -0.387107     -0.563046
     11.70186      4.74011      5.67170        -0.455067     -1.623729      3.641981
      2.37149      9.25445      1.82629        -0.297288      0.037258     -2.276111
      2.73602      0.28906      4.62952        -0.923119     -2.085660      1.921351
    total drift:                               -0.015820      0.004610      0.063916

  FREE ENERGIE OF THE ION-ELECTRON SYSTEM (eV)
  free  energy   TOTEN  =      -341.59507296 eV

  energy  without entropy=     -340.51626271  energy(sigma->0) =     -341.05566783