 vasp.5.4.4.18Apr17-6-g9f103f2a35 (build Aug 13 2019 17:33:20) gamma-only

 executed on             LinuxIFC date 2020.05.10  19:01:16

 INCAR:
 POTCAR:    PAW_PBE Ni_pv 06Sep2000
 POTCAR:    PAW_PBE S 06Sep2000
 POTCAR:    PAW_PBE Ni_pv 06Sep2000
   VRHFIN =Ni:

   TITEL  = PAW_PBE Ni_pv 06Sep2000
   POMASS =   58.690; ZVAL   =   16.000    mass and valenz
   ENMAX  =  367.986; ENMIN  =  275.989 eV

 POTCAR:    PAW_PBE S 06Sep2000
   VRHFIN =S : s2p4

   TITEL  = PAW_PBE S 06Sep2000
   POMASS =   32.066; ZVAL   =    6.000    mass and valenz
   ENMAX  =  258.689; ENMIN  =  194.016 eV

 Optimization of the real space projectors (new method)

 maximal supplied QI-value         = 18.90
 optimisation between [QCUT,QGAM] = [ 10.77, 21.73] = [ 32.49,132.25] Ry
 Optimized for a Real-space Cutoff    1.38 Angstroem

   l    n(q)    QCUT    max X(q) W(low)/X(q) W(high)/X(q)  e(spline)
   1      8    10.771     2.836    0.40E-04    0.29E-04    0.12E-06
   1      8    10.771     4.023    0.10E-03    0.48E-04    0.29E-06
   2      8    10.771    73.368    0.42E-03    0.97E-04    0.44E-06
   2      8    10.771    69.010    0.42E-03    0.99E-04    0.45E-06
   0      9    10.771    54.797    0.10E-03    0.56E-04    0.74E-07
   0      9    10.771    24.266    0.89E-04    0.49E-04    0.67E-07
 Optimization of the real space projectors (new method)

 maximal supplied QI-value         = 19.84
 optimisation between [QCUT,QGAM] = [ 10.71, 21.63] = [ 32.15,130.99] Ry
 Optimized for a Real-space Cutoff    1.19 Angstroem

   l    n(q)    QCUT    max X(q) W(low)/X(q) W(high)/X(q)  e(spline)
   0      8    10.715   187.594    0.41E-03    0.53E-04    0.66E-07
   0      8    10.715   164.243    0.41E-03    0.53E-04    0.65E-07
   1      7    10.715    67.533    0.19E-03    0.59E-03    0.68E-07
   1      7    10.715    50.729    0.19E-03    0.58E-03    0.67E-07
  PAW_PBE Ni_pv 06Sep2000               :
  PAW_PBE S 06Sep2000                   :

 POSCAR: Type_048 Type_148
  positions in cartesian coordinates
 exchange correlation table for  LEXCH =        8
   RHO(1)=    0.500       N(1)  =     2000
   RHO(2)=  100.500       N(2)  =     4000

 ion  position               nearest neighbor table
   1  0.261  0.479  0.253-  73 2.25  58 2.26  80 2.26  54 2.36  59 2.36   7 2.53  21 2.53
   2  0.355  0.385  0.388-  74 2.25  54 2.26  59 2.26  60 2.36  66 2.36   3 2.37   8 2.53  22 2.53

   3  0.372  0.368  0.497-  52 2.04  66 2.09  60 2.09   2 2.37
   4  0.167  0.073  0.118-  81 2.06  55 2.06  64 2.25  56 2.36  82 2.36
   5  0.049  0.054  0.472-  50 2.05  76 2.08  72 2.10  77 2.14
   6  0.279  0.306  0.103-  58 2.05  55 2.10  57 2.13  51 2.19
   7  0.368  0.239  0.218-  56 2.25  58 2.26  51 2.26  59 2.36  61 2.36   1 2.53  21 2.53
   8  0.462  0.145  0.353-  78 2.25  59 2.26  61 2.26  60 2.36  62 2.36   2 2.53  22 2.53
   9  0.000  0.372  0.218-  58 2.25  64 2.26  92 2.26  49 2.36  67 2.36  13 2.53  19 2.53
  10  0.094  0.278  0.353-  59 2.25  49 2.26  67 2.26  53 2.36  50 2.36  20 2.53  14 2.53
  11  0.186  0.191  0.472-  50 2.05  76 2.08  53 2.10  60 2.14
  12  0.402  0.453  0.103-  80 2.03  51 2.06  79 2.07  28 2.40
  13  0.761  0.479  0.253-  85 2.25  70 2.26  92 2.26  67 2.36  71 2.36  19 2.53   9 2.53
  14  0.855  0.385  0.388-  86 2.25  67 2.26  71 2.26  72 2.36  53 2.36  15 2.37  20 2.53  10 2.53

[...]

  39  0.872  0.868  0.497-  88 2.04  96 2.09  77 2.09  38 2.37
  40  0.688  0.557  0.131-  92 2.09  63 2.09  91 2.15  70 2.16  24 2.44  75 2.44
  41  0.549  0.554  0.472-  86 2.05  65 2.08  84 2.10  66 2.14
  42  0.783  0.821  0.102-  94 2.05  91 2.08  93 2.10  87 2.12
  43  0.868  0.739  0.218-  92 2.25  94 2.26  87 2.26  95 2.36  73 2.36  37 2.53  33 2.53
  44  0.962  0.645  0.353-  67 2.25  95 2.26  73 2.26  96 2.36  74 2.36  38 2.53  34 2.53
  45  0.500  0.872  0.218-  94 2.25  75 2.26  56 2.26  85 2.36  78 2.36  25 2.53  31 2.53
  46  0.594  0.778  0.353-  95 2.25  85 2.26  78 2.26  89 2.36  86 2.36  32 2.53  26 2.53
  47  0.686  0.691  0.472-  86 2.05  65 2.08  89 2.10  96 2.14
  48  0.945  0.955  0.105-  69 2.07  68 2.08  81 2.10  87 2.14
  49  0.073  0.167  0.270-  25 2.25  10 2.26  20 2.26   9 2.36  19 2.36
  50  0.167  0.073  0.405-  11 2.05   5 2.05  26 2.25  10 2.36  20 2.36  76 2.70
  51  0.479  0.261  0.135-  12 2.06   6 2.19  16 2.25   7 2.26  21 2.26
  52  0.209  0.531  0.527-   3 2.04  35 2.08  29 2.08  74 2.70
  53  0.030  0.378  0.451-  15 2.09  11 2.10  29 2.14  10 2.36  14 2.36
  54  0.436  0.472  0.315-  32 2.25   2 2.26  22 2.26   1 2.36  21 2.36
  55  0.283  0.132  0.066-   4 2.06   6 2.10  36 2.10  56 2.60
  56  0.342  0.066  0.180-  36 2.05   7 2.25  25 2.26  45 2.26   4 2.36  55 2.60
  57  0.097  0.458  0.068-  28 2.09  24 2.13   6 2.13  58 2.58
  58  0.174  0.397  0.180-   6 2.05   9 2.25   7 2.26   1 2.26  28 2.36  57 2.58
  59  0.268  0.303  0.315-  10 2.25   2 2.26   8 2.26   7 2.36   1 2.36
  60  0.362  0.209  0.451-   3 2.09  17 2.10  11 2.14   8 2.36   2 2.36
  61  0.573  0.167  0.270-  37 2.25  22 2.26   8 2.26  21 2.36   7 2.36
  62  0.667  0.073  0.405-  17 2.05  23 2.05  38 2.25  22 2.36   8 2.36  88 2.70
  63  0.757  0.419  0.059-  24 2.04  18 2.07  40 2.09  91 2.72
  64  0.979  0.261  0.135-  18 2.13   4 2.25  19 2.26   9 2.26  24 2.36
  65  0.709  0.531  0.527-  15 2.04  41 2.08  47 2.08  86 2.70
  66  0.530  0.378  0.451-   3 2.09  23 2.10  41 2.14  22 2.36   2 2.36
  67  0.936  0.472  0.315-  44 2.25  14 2.26  10 2.26  13 2.36   9 2.36
  68  0.790  0.106  0.058-  16 2.05  48 2.08  18 2.08  69 2.71
  69  0.842  0.066  0.180-  48 2.07  19 2.25  37 2.26  33 2.26  16 2.36  18 2.43  68 2.71
  70  0.674  0.397  0.180-  40 2.16  18 2.16  21 2.25  19 2.26  13 2.26
  71  0.768  0.303  0.315-  22 2.25  14 2.26  20 2.26  19 2.36  13 2.36
  72  0.862  0.209  0.451-  15 2.09   5 2.10  23 2.14  20 2.36  14 2.36
  73  0.073  0.667  0.270-   1 2.25  34 2.26  44 2.26  33 2.36  43 2.36
  74  0.167  0.573  0.405-  29 2.05  35 2.05   2 2.25  34 2.36  44 2.36  52 2.70
  75  0.479  0.761  0.135-  36 2.13  30 2.13  31 2.26  45 2.26  40 2.44
  76  0.209  0.031  0.527-  27 2.04   5 2.08  11 2.08  50 2.70
  77  0.030  0.878  0.451-  39 2.09  35 2.10   5 2.14  34 2.36  38 2.36
  78  0.436  0.972  0.315-   8 2.25  26 2.26  46 2.26  25 2.36  45 2.36
  79  0.278  0.636  0.065-  28 2.06  12 2.07  30 2.11  80 2.63
  80  0.342  0.566  0.180-  12 2.03  31 2.25   1 2.26  21 2.26  28 2.36  79 2.63
  81  0.114  0.955  0.064-   4 2.06  30 2.09  48 2.10  82 2.63
  82  0.174  0.897  0.180-  30 2.06  33 2.25  31 2.26  25 2.26   4 2.36  81 2.63
  83  0.268  0.803  0.315-  34 2.25  26 2.26  32 2.26  31 2.36  25 2.36
  84  0.362  0.709  0.451-  27 2.09  41 2.10  35 2.14  32 2.36  26 2.36
  85  0.573  0.667  0.270-  13 2.25  46 2.26  32 2.26  45 2.36  31 2.36
  86  0.667  0.573  0.405-  47 2.05  41 2.05  14 2.25  46 2.36  32 2.36  65 2.70
  87  0.979  0.761  0.135-  42 2.12  48 2.14  28 2.25  43 2.26  33 2.26
  88  0.709  0.031  0.527-  39 2.04  23 2.08  17 2.08  62 2.70
  89  0.530  0.878  0.451-  27 2.09  47 2.10  17 2.14  46 2.36  26 2.36
  90  0.936  0.972  0.315-  20 2.25  38 2.26  34 2.26  37 2.36  33 2.36
  91  0.762  0.657  0.069-  24 2.06  42 2.08  40 2.15  92 2.63  63 2.72
  92  0.842  0.566  0.180-  40 2.09  43 2.25  13 2.26   9 2.26  24 2.36  91 2.63
  93  0.601  0.961  0.066-  16 2.06  42 2.10  36 2.10  94 2.62
  94  0.674  0.897  0.180-  42 2.05  45 2.25  43 2.26  37 2.26  16 2.36  93 2.62
  95  0.768  0.803  0.315-  46 2.25  38 2.26  44 2.26  43 2.36  37 2.36
  96  0.862  0.709  0.451-  39 2.09  29 2.10  47 2.14  44 2.36  38 2.36

  LATTYP: Found a base centered orthorhombic cell.
 ALAT       =    11.8257374459
 B/A-ratio  =     1.6199260857
 C/A-ratio  =     1.8387210052

  Lattice vectors:

 A1 = (  11.2564630382,   0.0000000000,   0.0000000000)
 A2 = (  -5.0445621212, -10.0628203371,   0.0000000000)
 A3 = (   0.0000000000,   0.0000000000, -21.7442318436)

Analysis of symmetry for initial positions (statically):
 Subroutine PRICEL returns:
 Original cell was already a primitive cell.

 Routine SETGRP: Setting up the symmetry group for a
 base centered orthorhombic supercell.

 Subroutine GETGRP returns: Found  1 space group operations
 (whereof  1 operations were pure point group operations)
 out of a pool of  8 trial point group operations.

The static configuration has the point symmetry C_1 .

Analysis of symmetry for dynamics (positions and initial velocities):
 Subroutine PRICEL returns:
 Original cell was already a primitive cell.

 Routine SETGRP: Setting up the symmetry group for a
 base centered orthorhombic supercell.

 Subroutine GETGRP returns: Found  1 space group operations
 (whereof  1 operations were pure point group operations)
 out of a pool of  8 trial point group operations.

The dynamic configuration has the point symmetry C_1 .

 Subroutine INISYM returns: Found  1 space group operations
 (whereof  1 operations are pure point group operations),
 and found     1 'primitive' translations

 KPOINTS: gamma-point-only calculation. no periodi

Automatic generation of k-mesh.
Space group operators:
 irot       det(A)        alpha          n_x          n_y          n_z        tau_x        tau_y        tau_z
    1     1.000000     0.000000     1.000000     0.000000     0.000000     0.000000     0.000000     0.000000

 Subroutine IBZKPT returns following result:

 Found      1 irreducible k-points:

 Following reciprocal coordinates:
            Coordinates               Weight
  0.000000  0.000000  0.000000      1.000000

 Following cartesian coordinates:
            Coordinates               Weight
  0.000000  0.000000  0.000000      1.000000

 SYSTEM =  "Millerite NiS"
 POSCAR =  Type_048 Type_148

 Startparameter for this run:
   NWRITE =      2    write-flag & timer
   PREC   = normal    normal or accurate (medium, high low for compatibility)
   ISTART =      0    job   : 0-new  1-cont  2-samecut
   ICHARG =      2    charge: 1-file 2-atom 10-const
   ISPIN  =      1    spin polarized calculation?
   LNONCOLLINEAR =      F non collinear calculations
   LSORBIT =      F    spin-orbit coupling
   INIWAV =      1    electr: 0-lowe 1-rand  2-diag
   LASPH  =      F    aspherical Exc in radial PAW
   METAGGA=      F    non-selfconsistent MetaGGA calc.

 Electronic Relaxation 1
   ENCUT  =  450.0 eV  33.07 Ry    5.75 a.u.  19.47 19.47 37.61*2*pi/ulx,y,z
   ENINI  =  450.0     initial cutoff
   ENAUG  =  703.4 eV  augmentation charge cutoff
   NELM   =    100;   NELMIN=  2; NELMDL= -5     # of ELM steps
   EDIFF  = 0.1E-03   stopping-criterion for ELM
   LREAL  =      T    real-space projection
   NLSPLINE    = F    spline interpolate recip. space projectors
   LCOMPAT=      F    compatible to vasp.4.4
   GGA_COMPAT  = T    GGA compatible to vasp.4.4-vasp.4.6
   LMAXPAW     = -100 max onsite density
   LMAXMIX     =    2 max onsite mixed and CHGCAR
   VOSKOWN=      0    Vosko Wilk Nusair interpolation
   ROPT   =   -0.00050  -0.00050
 Ionic relaxation
   EDIFFG = 0.1E-02   stopping-criterion for IOM
   NSW    =      0    number of steps for IOM
   NBLOCK =      1;   KBLOCK =      1    inner block; outer block
   IBRION =     -1    ionic relax: 0-MD 1-quasi-New 2-CG
[...]
     0.000000000  0.000000000 21.744231844     0.000000000  0.000000000  0.045989208

  length of vectors
    11.256463038 11.256463038 21.744231844     0.099375718  0.099375718  0.045989208

 FORCES acting on ions
    electron-ion (+dipol)            ewald-force                    non-local-force                 convergence-correction
   0.253E+03 -.415E+03 0.690E+03   -.253E+03 0.416E+03 -.690E+03   0.474E+00 -.818E+00 -.445E+00   0.530E-01 -.490E-01 -.190E+00
   0.229E+03 -.373E+03 -.232E+04   -.230E+03 0.374E+03 0.232E+04   0.523E+00 -.102E+01 -.127E-01   0.571E-01 -.517E-01 -.727E+00
   -.202E+02 0.322E+02 -.558E+04   0.177E+02 -.283E+02 0.558E+04   0.288E+01 -.471E+01 0.885E+00   0.236E-01 -.151E-01 -.134E+00
   0.166E+03 -.376E+03 0.436E+04   -.169E+03 0.380E+03 -.436E+04   0.288E+01 -.432E+01 0.397E+01   0.606E-01 -.280E-01 0.604E-01
   0.303E+03 0.220E+03 -.485E+04   -.307E+03 -.223E+03 0.485E+04   0.354E+01 0.324E+01 -.229E+01   -.850E-01 -.449E-01 -.278E+00
   0.119E+03 0.265E+03 0.506E+04   -.119E+03 -.270E+03 -.507E+04   0.708E+00 0.456E+01 0.467E+01   0.511E-01 -.157E-01 0.101E+00
   0.203E+03 0.466E+03 0.172E+04   -.203E+03 -.466E+03 -.172E+04   0.177E+00 0.547E+00 -.777E+00   0.278E-01 0.426E-01 -.640E-01
   0.256E+03 0.431E+03 -.135E+04   -.257E+03 -.431E+03 0.134E+04   0.111E+01 0.380E+00 0.202E+01   0.251E-01 -.357E-01 -.491E+00
   -.533E+03 -.350E+02 0.184E+04   0.533E+03 0.354E+02 -.184E+04   -.164E+00 -.339E+00 0.106E+01   0.398E-01 -.209E-01 -.489E-01
   -.506E+03 -.383E+02 -.134E+04   0.507E+03 0.391E+02 0.134E+04   -.768E+00 -.903E+00 0.199E+01   0.401E-01 0.121E-01 -.467E+00
   -.334E+03 -.174E+03 -.485E+04   0.339E+03 0.176E+03 0.485E+04   -.447E+01 -.169E+01 -.233E+01   0.397E-01 0.512E-01 -.307E+00
   -.689E+03 0.548E+02 0.521E+04   0.688E+03 -.554E+02 -.521E+04   0.156E+01 0.322E+00 0.169E+01   -.497E-01 -.300E-02 0.928E-01
   0.245E+03 -.410E+03 0.662E+03   -.245E+03 0.411E+03 -.660E+03   -.724E-01 -.580E+00 -.160E+01   -.335E-01 0.234E-01 -.127E+00
   0.227E+03 -.375E+03 -.233E+04   -.228E+03 0.376E+03 0.233E+04   0.565E+00 -.935E+00 -.979E-01   0.229E-01 0.308E-01 -.652E+00
   -.205E+02 0.316E+02 -.558E+04   0.181E+02 -.278E+02 0.558E+04   0.291E+01 -.462E+01 0.840E+00   0.817E-02 0.139E-01 -.142E+00
   0.302E+03 -.428E+03 0.436E+04   -.305E+03 0.432E+03 -.436E+04   0.218E+01 -.414E+01 0.439E+01   -.587E-01 0.179E-01 0.442E-01
   0.305E+03 0.220E+03 -.485E+04   -.309E+03 -.223E+03 0.485E+04   0.355E+01 0.328E+01 -.230E+01   0.216E-01 -.483E-01 -.328E+00
   0.244E+03 -.584E+02 0.484E+04   -.247E+03 0.578E+02 -.485E+04   0.146E+01 -.190E+00 0.712E+01   -.254E-01 0.146E-01 0.503E-01
   0.138E+03 0.389E+03 0.159E+04   -.137E+03 -.390E+03 -.159E+04   -.624E+00 0.312E+00 -.161E+01   -.715E-02 0.106E-01 -.655E-01
   0.248E+03 0.429E+03 -.136E+04   -.249E+03 -.430E+03 0.136E+04   0.113E+01 0.404E+00 0.227E+01   0.777E-02 -.656E-02 -.449E+00
   -.549E+03 -.287E+02 0.181E+04   0.550E+03 0.289E+02 -.181E+04   -.634E+00 -.172E+00 -.592E+00   -.979E-01 0.169E-01 -.611E-01
   -.496E+03 -.405E+02 -.135E+04   0.497E+03 0.412E+02 0.134E+04   -.644E+00 -.841E+00 0.204E+01   -.435E-01 -.982E-02 -.476E+00
   -.332E+03 -.174E+03 -.485E+04   0.337E+03 0.176E+03 0.485E+04   -.452E+01 -.167E+01 -.223E+01   -.237E-02 -.326E-01 -.299E+00
   -.382E+03 0.104E+03 0.532E+04   0.389E+03 -.107E+03 -.533E+04   -.516E+01 0.123E+01 0.468E+01   -.163E-01 0.590E-02 0.487E-01
   0.238E+03 -.406E+03 0.684E+03   -.239E+03 0.406E+03 -.683E+03   0.418E+00 -.798E+00 -.303E+00   0.582E-01 -.230E-01 -.176E+00
   0.227E+03 -.368E+03 -.233E+04   -.228E+03 0.369E+03 0.233E+04   0.563E+00 -.913E+00 -.631E-01   0.966E-01 -.146E+00 -.766E+00
   -.207E+02 0.336E+02 -.558E+04   0.182E+02 -.297E+02 0.558E+04   0.285E+01 -.464E+01 0.806E+00   0.380E-01 -.525E-01 -.189E+00
   0.325E+03 -.402E+03 0.435E+04   -.329E+03 0.406E+03 -.436E+04   0.237E+01 -.317E+01 0.418E+01   0.950E-01 -.396E-01 0.597E-01
   0.303E+03 0.221E+03 -.485E+04   -.308E+03 -.224E+03 0.485E+04   0.358E+01 0.328E+01 -.227E+01   -.541E-01 0.742E-01 -.302E+00
   -.399E+02 0.351E+03 0.507E+04   0.393E+02 -.356E+03 -.507E+04   0.133E+01 0.519E+01 0.467E+01   0.134E-01 0.140E-01 0.507E-01
   0.176E+03 0.523E+03 0.176E+04   -.175E+03 -.523E+03 -.176E+04   -.214E+00 0.257E+00 -.448E+00   0.248E-01 0.309E-01 -.210E-01
   0.254E+03 0.436E+03 -.134E+04   -.255E+03 -.437E+03 0.134E+04   0.106E+01 0.415E+00 0.215E+01   0.523E-01 0.363E-01 -.458E+00
   -.508E+03 0.820E+02 0.167E+04   0.508E+03 -.831E+02 -.167E+04   -.652E+00 0.909E+00 -.137E+01   0.774E-04 -.224E-01 -.223E-01
   -.504E+03 -.232E+02 -.135E+04   0.504E+03 0.240E+02 0.135E+04   -.840E+00 -.867E+00 0.213E+01   -.337E-01 -.213E-01 -.422E+00
   -.333E+03 -.171E+03 -.485E+04   0.338E+03 0.173E+03 0.485E+04   -.452E+01 -.165E+01 -.229E+01   -.256E-01 0.631E-01 -.320E+00
   -.238E+03 0.117E+03 0.507E+04   0.243E+03 -.119E+03 -.507E+04   -.508E+01 0.139E+01 0.431E+01   -.385E-01 0.376E-01 0.800E-01
   0.280E+03 -.400E+03 0.664E+03   -.281E+03 0.400E+03 -.663E+03   0.100E+01 -.252E+00 -.925E+00   -.340E-01 -.103E-01 -.109E+00
   0.231E+03 -.366E+03 -.233E+04   -.232E+03 0.367E+03 0.233E+04   0.529E+00 -.908E+00 -.984E-02   0.280E-02 -.882E-01 -.584E+00
   -.197E+02 0.339E+02 -.558E+04   0.174E+02 -.300E+02 0.558E+04   0.273E+01 -.466E+01 0.798E+00   -.101E-01 -.255E-01 -.179E+00
   0.583E+03 -.405E+03 0.411E+04   -.590E+03 0.408E+03 -.411E+04   0.558E+01 -.155E+01 0.822E+00   -.400E-01 0.145E-01 0.510E-01
   0.304E+03 0.220E+03 -.485E+04   -.308E+03 -.223E+03 0.485E+04   0.355E+01 0.325E+01 -.235E+01   -.284E-01 0.225E-01 -.370E+00
   0.654E+02 0.321E+03 0.509E+04   -.656E+02 -.326E+03 -.510E+04   0.831E+00 0.498E+01 0.307E+01   -.369E-01 0.635E-02 0.464E-01
   0.221E+03 0.520E+03 0.175E+04   -.221E+03 -.521E+03 -.175E+04   0.666E+00 0.525E+00 -.537E+00   0.485E-02 0.398E-01 -.183E-01
   0.254E+03 0.440E+03 -.134E+04   -.255E+03 -.441E+03 0.134E+04   0.104E+01 0.378E+00 0.217E+01   0.747E-02 0.749E-01 -.409E+00
   -.508E+03 0.553E+02 0.174E+04   0.509E+03 -.556E+02 -.174E+04   -.563E+00 0.173E+00 -.663E+00   -.520E-01 0.297E-01 -.797E-02
   -.499E+03 -.294E+02 -.134E+04   0.500E+03 0.301E+02 0.134E+04   -.779E+00 -.736E+00 0.200E+01   -.398E-01 -.211E-01 -.447E+00
   -.332E+03 -.172E+03 -.485E+04   0.337E+03 0.175E+03 0.485E+04   -.453E+01 -.167E+01 -.227E+01   0.539E-01 0.628E-01 -.365E+00
   -.235E+03 0.143E+03 0.501E+04   0.239E+03 -.145E+03 -.502E+04   -.426E+01 0.779E+00 0.603E+01   0.282E-01 0.116E-03 0.488E-01
   -.843E+02 0.115E+03 0.290E+03   0.857E+02 -.117E+03 -.292E+03   -.140E+01 0.202E+01 0.216E+01   0.289E-01 -.718E-02 -.821E-01
   -.770E+02 0.123E+03 -.888E+03   0.782E+02 -.125E+03 0.885E+03   -.699E+00 0.987E+00 0.993E+00   -.156E-02 0.251E-01 -.224E+00
   -.147E+03 0.175E+03 0.162E+04   0.148E+03 -.176E+03 -.163E+04   -.110E+01 -.629E+00 0.237E+01   -.290E-01 0.329E-01 0.411E-01
   -.248E+01 0.391E+01 -.234E+04   0.304E+01 -.485E+01 0.235E+04   -.352E+00 0.581E+00 -.206E+01   -.410E-01 0.724E-01 0.708E-01
   -.123E+03 -.106E+03 -.156E+04   0.124E+03 0.108E+03 0.156E+04   -.163E+01 -.667E+00 -.167E+01   0.608E-01 0.875E-02 -.193E+00
   -.757E+02 -.155E+03 -.188E+03   0.770E+02 0.158E+03 0.189E+03   -.134E+01 -.249E+01 -.197E+00   0.250E-01 0.215E-01 -.149E+00
   -.128E+02 -.821E+02 0.226E+04   0.127E+02 0.835E+02 -.227E+04   0.739E+00 -.738E+00 0.378E+01   -.553E-02 -.627E-02 0.373E-01
   -.278E+02 -.182E+03 0.961E+03   0.290E+02 0.185E+03 -.959E+03   -.174E+01 -.177E+01 0.599E+00   -.969E-02 -.131E-02 0.888E-02
   0.716E+02 -.357E+02 0.218E+04   -.725E+02 0.367E+02 -.218E+04   0.191E+00 -.104E+01 0.370E+01   0.352E-01 -.103E-01 0.215E-01
   0.209E+03 -.703E+02 0.966E+03   -.211E+03 0.708E+02 -.964E+03   0.165E+01 0.250E+00 0.196E+00   0.476E-01 -.168E-01 0.112E-01
   0.171E+03 -.373E+01 -.192E+03   -.174E+03 0.388E+01 0.193E+03   0.293E+01 -.116E+00 -.250E+00   0.841E-02 -.218E-01 -.163E+00
   0.149E+03 0.616E+02 -.156E+04   -.151E+03 -.623E+02 0.156E+04   0.125E+01 0.116E+01 -.161E+01   -.183E-01 -.695E-01 -.198E+00
[...]
   0.167E+03 0.275E+01 -.194E+03   -.170E+03 -.267E+01 0.194E+03   0.296E+01 -.499E-01 -.229E+00   0.183E-01 -.355E-01 -.124E+00
   0.149E+03 0.626E+02 -.156E+04   -.151E+03 -.633E+02 0.156E+04   0.131E+01 0.119E+01 -.165E+01   -.202E-01 -.772E-01 -.233E+00
   -.679E+02 0.121E+03 0.299E+03   0.692E+02 -.123E+03 -.301E+03   -.129E+01 0.198E+01 0.228E+01   -.195E-01 0.316E-01 -.799E-02
   -.755E+02 0.123E+03 -.887E+03   0.767E+02 -.124E+03 0.883E+03   -.666E+00 0.108E+01 0.982E+00   -.364E-01 0.703E-01 -.242E+00
   -.936E+02 0.218E+03 0.161E+04   0.947E+02 -.220E+03 -.161E+04   -.317E+00 -.187E+00 0.283E+01   0.518E-02 -.152E-01 0.256E-01
   -.211E+01 0.385E+01 -.234E+04   0.270E+01 -.475E+01 0.235E+04   -.367E+00 0.589E+00 -.203E+01   -.182E-01 0.192E-01 0.547E-01
   -.122E+03 -.105E+03 -.156E+04   0.124E+03 0.107E+03 0.156E+04   -.165E+01 -.618E+00 -.167E+01   0.940E-01 -.205E-01 -.229E+00
   -.748E+02 -.150E+03 -.203E+03   0.760E+02 0.152E+03 0.203E+03   -.108E+01 -.280E+01 0.201E+00   -.908E-02 -.359E-01 -.118E+00
   0.834E+02 -.141E+03 0.218E+04   -.851E+02 0.143E+03 -.219E+04   0.154E+01 -.117E+01 0.423E+01   -.323E-02 0.162E-01 0.103E-01
   -.124E+03 -.140E+03 0.999E+03   0.126E+03 0.142E+03 -.998E+03   -.708E+00 -.243E+01 0.113E+01   -.752E-03 0.162E-02 0.144E-01
   0.104E+03 -.343E+02 0.226E+04   -.104E+03 0.349E+02 -.227E+04   0.103E+00 -.641E+00 0.421E+01   -.138E-01 0.314E-02 0.159E-01
   0.192E+03 -.393E+02 0.958E+03   -.195E+03 0.397E+02 -.956E+03   0.225E+01 0.208E+00 0.945E+00   -.105E-01 0.467E-02 0.136E-01
   0.173E+03 0.157E+01 -.194E+03   -.175E+03 -.182E+01 0.195E+03   0.287E+01 0.167E+00 -.304E+00   -.274E-01 -.446E-02 -.970E-01
   0.149E+03 0.625E+02 -.156E+04   -.152E+03 -.634E+02 0.156E+04   0.128E+01 0.120E+01 -.160E+01   -.147E-01 -.112E-01 -.188E+00
   -.186E+02 0.152E+02 -.654E+02   0.966E-12 0.159E-11 0.682E-12   0.183E+02 -.152E+02 0.784E+02   0.119E+00 0.167E-01 -.129E+02

 POSITION                                       TOTAL-FORCE (eV/Angst)
      5.35228      4.81788      5.50842         0.069946     -0.058611      0.002680
      5.93595      3.87238      8.44448        -0.109055      0.145631     -1.009770
      6.04134      3.70166     10.80326         0.449844     -0.782238      0.795582
      2.24633      0.73197      2.57236         0.106432      0.079873      1.508732
      0.82485      0.54423     10.26966        -0.531960     -0.025459      0.432327
      4.68422      3.08236      2.24021         0.600372      0.120733     -1.122474
      5.35228      2.40903      4.73270        -0.045877      0.101909      0.270341
      5.93595      1.46353      7.66876         0.068489     -0.067953     -0.016901
      1.87746      3.73836      4.73270         0.030321      0.002931      0.187173
      2.46113      2.79286      7.66876        -0.029502     -0.091269     -0.023042
      3.05122      1.91860     10.26962         0.266620      0.553568      0.432816
      6.81313      4.55769      2.23778         0.993029     -0.289784     -1.285052
     10.98051      4.81788      5.50842        -0.015311      0.095380     -0.066789
     11.56418      3.87238      8.44448        -0.076674      0.171997     -1.060123
     11.66960      3.70162     10.80328         0.465518     -0.769012      0.790304
      7.87456      0.73197      2.57236        -0.226763      0.202505      1.542580
      6.45306      0.54422     10.26963        -0.559190      0.017291      0.448175
     10.25676      2.54958      2.46184        -0.755199     -0.753583      0.181452
     10.98051      2.40903      4.73270         0.344991      0.011074      1.204318
     11.56418      1.46353      7.66876         0.060325     -0.055430      0.064712
      7.50570      3.73836      4.73270        -0.068388      0.050926      0.232118
      8.08937      2.79286      7.66876        -0.001586     -0.104006     -0.036343
      8.67941      1.91858     10.26967         0.244261      0.528914      0.441579
     12.55026      4.68386      1.79664         2.045374     -1.491473      0.977728
      7.87456      9.84929      5.50842         0.016861     -0.035821      0.029486
      8.45823      8.90379      8.44448        -0.109587      0.140366     -1.023017
      8.56362      8.73307     10.80326         0.461263     -0.745345      0.758678
      4.76861      5.76338      2.57236        -1.344512      0.369215      1.643076
      3.34710      5.57563     10.26961        -0.545786      0.053214      0.461545
      7.26051      8.10074      2.25981         0.751869      0.154555     -0.958431
      7.87456      7.44044      4.73270         0.130615      0.110301      0.296928
      8.45823      6.49494      7.66876         0.073076     -0.033970     -0.002040
      4.39975      8.76977      4.73270         0.105102     -0.128470      0.289074
      4.98341      7.82427      7.66876        -0.035786     -0.071429     -0.006317
      5.57349      6.95000     10.26963         0.253008      0.522094      0.447936
      9.68213      9.61941      2.25268        -0.299062     -0.545975     -1.066963
     13.50279      9.84929      5.50842        -0.123334      0.041379      0.102891
     14.08646      8.90379      8.44448        -0.102135      0.146502     -1.048857
     14.19185      8.73306     10.80326         0.444629     -0.757449      0.779677
     10.54843      5.60404      2.84680        -1.494623      1.790539      0.129353
      8.97535      5.57565     10.26967        -0.551146     -0.012427      0.438094
     12.95203      8.25727      2.22082         0.631715     -0.135918     -1.041272
     13.50279      7.44044      4.73270         0.105476      0.011589      0.311620
     14.08646      6.49494      7.66876         0.042161     -0.012115     -0.007771
     10.02798      8.76977      4.73270        -0.109425     -0.030712      0.273747
     10.61165      7.82427      7.66876        -0.006280     -0.053569     -0.059661
     11.20173      6.95000     10.26966         0.230393      0.539814      0.475479
     15.45874      9.60754      2.28784        -0.291135     -0.777935     -0.711576
      1.66190      1.67871      5.87212        -0.042363     -0.066287      0.025612
      2.24556      0.73321      8.80817         0.487995     -0.748864     -3.102248
      6.70646      2.62422      2.93606         0.313431     -1.672205     -0.200923
      5.02877      5.34191     11.46337         0.175622     -0.293676      2.810266
      2.24556      3.80055      9.79595        -0.000584      0.896990     -0.098918
      7.29013      4.74605      6.85989         0.004720      0.059687      0.014996
      3.85668      1.32837      1.43080         0.628100      0.615011     -2.327504
      4.18418      0.66015      3.92384        -0.494547      0.592358      2.546766
      3.40100      4.60968      1.48594        -0.627083     -0.039416     -2.124832
      3.96438      3.99884      3.92384        -0.627389      0.700422      2.368686
      4.54805      3.05334      6.85989        -0.009812      0.004536     -0.036570
      5.13172      2.10784      9.79595        -0.846247      0.408881     -0.100443
[...]
      6.48666      9.03025      3.92384        -0.312252      0.730555      2.352542
      7.07033      8.08475      6.85989        -0.104259     -0.012560     -0.018307
      7.65400      7.13925      9.79595        -0.838758      0.396941     -0.080522
      9.81241      6.71012      5.87212        -0.014946      0.001980      0.161954
     10.39608      5.76462      8.80817         0.444464     -0.708408     -3.132676
     14.85697      7.65563      2.93606         0.807345     -1.357721     -0.125464
      8.13472      0.31049     11.46339         0.206484     -0.287976      2.820581
     10.39608      8.83196      9.79595         0.048689      0.919616     -0.089567
     15.44064      9.77746      6.85989         0.063421      0.076369     -0.056877
     11.88768      6.61349      1.50685        -0.137850      1.329242     -2.171614
     12.33469      5.69156      3.92384         1.388345     -0.280376      2.031194
     11.61693      9.67342      1.43083        -0.752243     -0.122615     -2.363171
     12.11489      9.03025      3.92384        -0.417011      0.581332      2.770225
     12.69856      8.08475      6.85989         0.000304     -0.089819     -0.022441
     13.28223      7.13925      9.79595        -0.841700      0.370657     -0.095523
    total drift:                               -0.222866      0.023664      0.082164

  FREE ENERGIE OF THE ION-ELECTRON SYSTEM (eV)
  free  energy   TOTEN  =      -478.23975941 eV

  energy  without entropy=     -477.14528954  energy(sigma->0) =     -477.69252448