 vasp.5.4.4.18Apr17-6-g9f103f2a35 (build Aug 13 2019 17:33:20) gamma-only

 executed on             LinuxIFC date 2020.05.11  23:11:23

 INCAR:
 POTCAR:    PAW_PBE Ni_pv 06Sep2000
 POTCAR:    PAW_PBE S 06Sep2000
 POTCAR:    PAW_PBE Ni_pv 06Sep2000
   VRHFIN =Ni:

   TITEL  = PAW_PBE Ni_pv 06Sep2000
   POMASS =   58.690; ZVAL   =   16.000    mass and valenz
   ENMAX  =  367.986; ENMIN  =  275.989 eV

 POTCAR:    PAW_PBE S 06Sep2000
   VRHFIN =S : s2p4

   TITEL  = PAW_PBE S 06Sep2000
   POMASS =   32.066; ZVAL   =    6.000    mass and valenz
   ENMAX  =  258.689; ENMIN  =  194.016 eV

 Optimization of the real space projectors (new method)

 maximal supplied QI-value         = 18.90
 optimisation between [QCUT,QGAM] = [ 10.77, 21.73] = [ 32.49,132.25] Ry
 Optimized for a Real-space Cutoff    1.38 Angstroem

   l    n(q)    QCUT    max X(q) W(low)/X(q) W(high)/X(q)  e(spline)
   1      8    10.771     2.836    0.40E-04    0.29E-04    0.12E-06
   1      8    10.771     4.023    0.10E-03    0.48E-04    0.29E-06
   2      8    10.771    73.368    0.42E-03    0.97E-04    0.44E-06
   2      8    10.771    69.010    0.42E-03    0.99E-04    0.45E-06
   0      9    10.771    54.797    0.10E-03    0.56E-04    0.74E-07
   0      9    10.771    24.266    0.89E-04    0.49E-04    0.67E-07
 Optimization of the real space projectors (new method)

 maximal supplied QI-value         = 19.84
 optimisation between [QCUT,QGAM] = [ 10.71, 21.63] = [ 32.15,130.99] Ry
 Optimized for a Real-space Cutoff    1.19 Angstroem

   l    n(q)    QCUT    max X(q) W(low)/X(q) W(high)/X(q)  e(spline)
   0      8    10.715   187.594    0.41E-03    0.53E-04    0.66E-07
   0      8    10.715   164.243    0.41E-03    0.53E-04    0.65E-07
   1      7    10.715    67.533    0.19E-03    0.59E-03    0.68E-07
   1      7    10.715    50.729    0.19E-03    0.58E-03    0.67E-07
  PAW_PBE Ni_pv 06Sep2000               :
  PAW_PBE S 06Sep2000                   :

 POSCAR: Type_037 Type_137
  positions in cartesian coordinates
 exchange correlation table for  LEXCH =        8
   RHO(1)=    0.500       N(1)  =     2000
   RHO(2)=  100.500       N(2)  =     4000

 ion  position               nearest neighbor table
   1  0.780  0.145  0.118-  51 2.06  65 2.06  42 2.25  52 2.38  66 2.38
   2  0.222  0.645  0.092-  44 2.02  45 2.17  63 2.25  53 2.25   3 2.35
   3  0.297  0.645  0.211-  54 2.13  64 2.13  45 2.25  53 2.26  63 2.26   2 2.35  28 2.53  15 2.53

   4  0.394  0.145  0.123-  47 2.03  48 2.18  69 2.26  55 2.26   5 2.36
   5  0.470  0.145  0.242-  56 2.09  70 2.09  48 2.25  55 2.26  69 2.26   4 2.36  31 2.53  18 2.53

[...]

  38  0.992  0.145  0.346-   9 2.02  26 2.06  13 2.06  39 2.78
  39  0.991  0.145  0.178-  13 2.07  26 2.07  12 2.21  25 2.21   8 2.25  38 2.78
  40  0.474  0.645  0.085-  14 2.01  27 2.01  10 2.02  15 2.26  28 2.26
  41  0.509  0.645  0.271-  16 2.07  29 2.07  10 2.17  11 2.25  28 2.36  15 2.36
  42  0.647  0.145  0.116-  30 2.01  17 2.01   1 2.25  18 2.26  31 2.26  43 2.76
  43  0.667  0.145  0.282-  18 2.03  31 2.03  42 2.76
  44  0.116  0.645  0.034-   2 2.02  19 2.06  32 2.06
  45  0.164  0.645  0.209-  33 2.09  20 2.09   2 2.17   3 2.25  32 2.36  19 2.36
  46  0.078  0.645  0.378-  20 2.05  33 2.05   7 2.05
  47  0.288  0.145  0.064-   4 2.03  21 2.06  34 2.06
  48  0.336  0.145  0.240-  22 2.04  35 2.04   4 2.18   5 2.25  34 2.36  21 2.36
  49  0.819  0.645  0.147-  36 2.25  23 2.25   6 2.25  24 2.26  37 2.26  50 2.74
  50  0.850  0.645  0.310-   7 2.10  24 2.11  37 2.11  49 2.74
  51  0.817  0.293  0.035-  23 2.02  25 2.06   1 2.06
  52  0.826  0.317  0.211-  25 2.10  23 2.11  24 2.20  26 2.20   1 2.38
  53  0.312  0.814  0.116-  27 1.99   2 2.25  21 2.25   3 2.26  28 2.26
  54  0.348  0.796  0.290-  29 2.05  22 2.05   3 2.13  28 2.15
  55  0.484  0.314  0.147-  30 1.99  15 2.25   4 2.26   5 2.26  31 2.26
  56  0.524  0.290  0.318-  16 2.01  31 2.08   5 2.09  70 2.78
  57  0.001  0.814  0.241-  33 2.06   7 2.06  13 2.14  32 2.36   6 2.36  58 2.75
  58  0.967  0.822  0.078-   6 2.07  32 2.09  12 2.10  57 2.75
  59  0.140  0.322  0.108-   8 2.09  34 2.09  19 2.11  60 2.77
  60  0.174  0.314  0.272-  35 2.04   9 2.12  20 2.14   8 2.36  34 2.36  59 2.77
  61  0.657  0.814  0.179-  10 2.20  18 2.25  37 2.26  11 2.26  36 2.27
  62  0.694  0.793  0.343-  37 2.02  11 2.03
  63  0.312  0.477  0.116-  14 1.99   2 2.25  34 2.25   3 2.26  15 2.26
  64  0.348  0.495  0.290-  16 2.05  35 2.05   3 2.13  15 2.15
  65  0.817  0.998  0.035-  36 2.02  12 2.06   1 2.06
  66  0.826  0.974  0.211-  12 2.10  36 2.11  37 2.20  13 2.20   1 2.38
  67  0.001  0.477  0.241-  20 2.06   7 2.06  26 2.14  19 2.36   6 2.36  68 2.75
  68  0.967  0.469  0.078-   6 2.07  19 2.09  25 2.10  67 2.75
  69  0.484  0.977  0.147-  17 1.99  28 2.25   4 2.26   5 2.26  18 2.26
  70  0.524  0.000  0.318-  29 2.01  18 2.08   5 2.09  56 2.78
  71  0.657  0.477  0.179-  10 2.20  31 2.25  24 2.26  11 2.26  23 2.27
  72  0.694  0.498  0.343-  24 2.02  11 2.03
  73  0.140  0.968  0.108-   8 2.09  21 2.09  32 2.11  74 2.77
  74  0.174  0.977  0.272-  22 2.04   9 2.12  33 2.14   8 2.36  21 2.36  73 2.77

  LATTYP: Found a simple orthorhombic cell.
 ALAT       =     9.5784100000
 B/A-ratio  =     1.7276387782
 C/A-ratio  =     1.7627867312

  Lattice vectors:

 A1 = (   0.0000000000,   9.5784100000,   0.0000000000)
 A2 = (   0.0000000000,   0.0000000000, -16.5480325497)
 A3 = ( -16.8846940542,   0.0000000000,   0.0000000000)

Analysis of symmetry for initial positions (statically):
 Subroutine PRICEL returns:
 Original cell was already a primitive cell.

 Routine SETGRP: Setting up the symmetry group for a
 simple orthorhombic supercell.

 Subroutine GETGRP returns: Found  2 space group operations
 (whereof  1 operations were pure point group operations)
 out of a pool of  8 trial point group operations.

The static configuration has the point symmetry C_1 .
 The point group associated with its full space group is C_1h.

Analysis of symmetry for dynamics (positions and initial velocities):
 Subroutine PRICEL returns:
 Original cell was already a primitive cell.

 Routine SETGRP: Setting up the symmetry group for a
 simple orthorhombic supercell.

 Subroutine GETGRP returns: Found  2 space group operations
 (whereof  1 operations were pure point group operations)
 out of a pool of  8 trial point group operations.

The dynamic configuration has the point symmetry C_1 .
 The point group associated with its full space group is C_1h.

 Subroutine INISYM returns: Found  2 space group operations
 (whereof  1 operations are pure point group operations),
 and found     1 'primitive' translations

 KPOINTS: gamma-point-only calculation. no periodi

Automatic generation of k-mesh.
Space group operators:
 irot       det(A)        alpha          n_x          n_y          n_z        tau_x        tau_y        tau_z
    1     1.000000     0.000001     1.000000     0.000000     0.000000     0.000000     0.000000     0.000000
    2    -1.000000   180.000000     0.000000     1.000000     0.000000    -0.000000     0.290594     0.000000

 Subroutine IBZKPT returns following result:

 Found      1 irreducible k-points:

 Following reciprocal coordinates:
            Coordinates               Weight
  0.000000  0.000000  0.000000      1.000000

 Following cartesian coordinates:
            Coordinates               Weight
  0.000000  0.000000  0.000000      1.000000

 SYSTEM =  "Millerite NiS"
 POSCAR =  Type_037 Type_137

 Startparameter for this run:
   NWRITE =      2    write-flag & timer
   PREC   = normal    normal or accurate (medium, high low for compatibility)
   ISTART =      0    job   : 0-new  1-cont  2-samecut
   ICHARG =      2    charge: 1-file 2-atom 10-const
   ISPIN  =      1    spin polarized calculation?
   LNONCOLLINEAR =      F non collinear calculations
   LSORBIT =      F    spin-orbit coupling
   INIWAV =      1    electr: 0-lowe 1-rand  2-diag
   LASPH  =      F    aspherical Exc in radial PAW
   METAGGA=      F    non-selfconsistent MetaGGA calc.

 Electronic Relaxation 1
   ENCUT  =  450.0 eV  33.07 Ry    5.75 a.u.  29.20 16.57 28.62*2*pi/ulx,y,z
   ENINI  =  450.0     initial cutoff
   ENAUG  =  703.4 eV  augmentation charge cutoff
   NELM   =    100;   NELMIN=  2; NELMDL= -5     # of ELM steps
   EDIFF  = 0.1E-03   stopping-criterion for ELM
   LREAL  =      T    real-space projection
   NLSPLINE    = F    spline interpolate recip. space projectors
   LCOMPAT=      F    compatible to vasp.4.4
   GGA_COMPAT  = T    GGA compatible to vasp.4.4-vasp.4.6
   LMAXPAW     = -100 max onsite density
   LMAXMIX     =    2 max onsite mixed and CHGCAR
   VOSKOWN=      0    Vosko Wilk Nusair interpolation
   ROPT   =   -0.00050  -0.00050
 Ionic relaxation
   EDIFFG = 0.1E-02   stopping-criterion for IOM
   NSW    =      0    number of steps for IOM
   NBLOCK =      1;   KBLOCK =      1    inner block; outer block
   IBRION =     -1    ionic relax: 0-MD 1-quasi-New 2-CG
   NFREE  =      0    steps in history (QN), initial steepest desc. (CG)
   ISIF   =      2    stress and relaxation
   IWAVPR =     10    prediction:  0-non 1-charg 2-wave 3-comb
   ISYM   =      2    0-nonsym 1-usesym 2-fastsym
   LCORR  =      T    Harris-Foulkes like correction to forces

   POTIM  = 0.5000    time-step for ionic-motion
   TEIN   =    0.0    initial temperature
   TEBEG  =    0.0;   TEEND  =   0.0 temperature during run
   SMASS  =  -3.00    Nose mass-parameter (am)
   estimated Nose-frequenzy (Omega)   =  0.10E-29 period in steps =****** mass=  -0.652E-26a.u.
   SCALEE = 1.0000    scale energy and forces
   NPACO  =    256;   APACO  = 16.0  distance and # of slots for P.C.
   PSTRESS=    0.0 pullay stress

  Mass of Ions in am
   POMASS =  58.69 32.07
  Ionic Valenz
   ZVAL   =  16.00  6.00
  Atomic Wigner-Seitz radii
  virtual crystal weights
   VCA    =   1.00  1.00
   NELECT =     814.0000    total number of electrons
   NUPDOWN=      -1.0000    fix difference up-down

 DOS related values:
   EMIN   =  10.00;   EMAX   =-10.00  energy-range for DOS
   EFERMI =   0.00
   ISMEAR =     0;   SIGMA  =   0.20  broadening in eV -4-tet -1-fermi 0-gaus

 Electronic relaxation 2 (details)
   IALGO  =     38    algorithm
   LDIAG  =      T    sub-space diagonalisation (order eigenvalues)
   LSUBROT=      F    optimize rotation matrix (better conditioning)
   TURBO    =      0    0=normal 1=particle mesh
   IRESTART =      0    0=no restart 2=restart with 2 vectors
   NREBOOT  =      0    no. of reboots
   NMIN     =      0    reboot dimension
   EREF     =   0.00    reference energy to select bands
   IMIX   =      4    mixing-type and parameters
     AMIX     =   0.40;   BMIX     =  1.00
     AMIX_MAG =   1.60;   BMIX_MAG =  1.00
     AMIN     =   0.10
     WC   =   100.;   INIMIX=   1;  MIXPRE=   1;  MAXMIX= -45

 Intra band minimization:
   WEIMIN = 0.0000     energy-eigenvalue tresh-hold
   EBREAK =  0.51E-07  absolut break condition
   DEPER  =   0.30     relativ break condition

   TIME   =   0.40     timestep for ELM

  volume/ion in A,a.u.               =      36.17       244.06
  Fermi-wavevector in a.u.,A,eV,Ry     =   1.100961  2.080515 16.491830  1.212115
[...]
     0.000000000  9.578410000  0.000000000     0.000000000  0.104401461  0.000000000
     0.000000000  0.000000000 16.548032550     0.000000000  0.000000000  0.060430145

  length of vectors
    16.884694054  9.578410000 16.548032550     0.059225237  0.104401461  0.060430145

 FORCES acting on ions
    electron-ion (+dipol)            ewald-force                    non-local-force                 convergence-correction
   0.452E+03 -.101E-02 0.156E+04   -.456E+03 -.366E-06 -.156E+04   0.383E+01 0.000E+00 0.267E+01   0.470E-01 -.206E-06 0.227E-01
   0.183E+03 -.653E-03 0.298E+04   -.184E+03 0.870E-07 -.298E+04   0.171E+01 0.000E+00 0.607E+01   -.496E-01 -.147E-07 0.109E-01
   0.485E+03 -.894E-03 -.102E+04   -.486E+03 -.167E-06 0.102E+04   0.117E+01 0.000E+00 -.294E+01   -.228E-01 -.125E-07 0.848E-03
   -.515E+02 -.115E-02 0.238E+04   0.514E+02 0.153E-05 -.239E+04   0.106E+01 0.000E+00 0.635E+01   -.492E-01 -.129E-06 0.400E-01
   0.580E+02 -.797E-03 -.178E+04   -.603E+02 0.349E-06 0.178E+04   0.175E+01 0.000E+00 -.475E+01   -.297E-04 -.130E-06 0.536E-01
   0.707E+03 -.911E-03 0.137E+04   -.712E+03 0.350E-07 -.137E+04   0.486E+01 0.000E+00 0.453E+01   0.311E-01 -.176E-06 -.117E-01
   0.757E+03 -.772E-03 -.321E+04   -.762E+03 0.383E-07 0.321E+04   0.352E+01 0.000E+00 -.360E+01   0.686E-02 -.152E-06 -.209E-01
   0.641E+03 -.724E-03 0.907E+03   -.645E+03 0.407E-07 -.909E+03   0.357E+01 0.000E+00 0.310E+01   -.688E-02 -.164E-07 -.353E-01
   0.197E+03 -.854E-03 -.345E+04   -.201E+03 0.832E-08 0.345E+04   0.458E+01 0.000E+00 0.146E+00   -.372E-02 -.360E-07 -.309E-01
   -.633E+03 -.100E-02 0.165E+04   0.637E+03 0.189E-06 -.165E+04   -.288E+01 0.000E+00 0.410E+01   0.143E-01 -.586E-07 0.414E-01
   -.236E+02 -.944E-03 -.236E+04   0.206E+02 0.162E-06 0.237E+04   0.236E+01 0.000E+00 -.681E+01   0.144E-01 -.619E-07 0.141E-01
   -.388E+03 0.104E+03 0.224E+04   0.394E+03 -.107E+03 -.224E+04   -.486E+01 0.285E+01 0.436E+01   0.255E-01 0.437E-03 0.696E-02
   0.478E+03 0.218E+03 -.225E+04   -.478E+03 -.221E+03 0.226E+04   -.123E+01 0.228E+01 -.347E+01   0.761E-03 -.321E-02 -.219E-01
   -.984E+02 0.607E+03 0.398E+04   0.960E+02 -.603E+03 -.398E+04   0.260E+01 -.432E+01 -.224E+01   -.324E-01 0.242E-02 0.148E-01
   -.280E+03 0.485E+03 0.189E+03   0.280E+03 -.489E+03 -.190E+03   0.182E+00 0.398E+01 -.305E+00   -.108E-01 0.140E-01 0.330E-01
   -.281E+03 0.159E+03 -.369E+04   0.284E+03 -.162E+03 0.369E+04   -.241E+01 0.426E+01 0.224E+01   0.635E-02 -.248E-02 0.252E-02
   -.334E+03 0.555E+03 0.352E+04   0.332E+03 -.551E+03 -.352E+04   0.167E+01 -.533E+01 -.169E+01   0.972E-02 -.460E-01 0.227E-01
   -.766E+03 0.383E+03 -.978E+03   0.769E+03 -.388E+03 0.980E+03   -.306E+01 0.441E+01 -.360E+01   0.152E-01 -.910E-02 0.785E-01
   0.142E+03 0.640E+03 0.208E+04   -.141E+03 -.645E+03 -.209E+04   0.250E-01 0.471E+01 0.463E+01   0.409E-02 0.519E-02 -.368E-02
   -.182E+03 0.431E+03 -.265E+04   0.185E+03 -.437E+03 0.266E+04   -.184E+01 0.441E+01 -.375E+01   -.255E-02 0.892E-02 -.333E-01
   0.171E+03 0.367E+03 0.138E+04   -.171E+03 -.371E+03 -.138E+04   0.951E+00 0.296E+01 0.439E+01   -.430E-01 -.376E-02 0.318E-02
   -.184E+02 0.112E+03 -.325E+04   0.184E+02 -.116E+03 0.324E+04   0.138E+00 0.392E+01 0.221E+01   -.254E-02 -.383E-02 -.738E-02
   0.316E+03 -.355E+03 0.240E+04   -.318E+03 0.358E+03 -.240E+04   0.111E+01 -.115E+01 0.627E+01   0.302E-01 0.493E-02 0.253E-01
   -.257E+03 0.493E+03 -.177E+04   0.259E+03 -.496E+03 0.178E+04   -.195E+01 0.315E+01 -.562E+01   -.414E-02 0.741E-02 0.206E-01
   -.388E+03 -.104E+03 0.224E+04   0.394E+03 0.107E+03 -.224E+04   -.486E+01 -.285E+01 0.436E+01   0.255E-01 -.437E-03 0.696E-02
   0.478E+03 -.218E+03 -.225E+04   -.478E+03 0.221E+03 0.226E+04   -.123E+01 -.228E+01 -.347E+01   0.761E-03 0.322E-02 -.219E-01
   -.984E+02 -.607E+03 0.398E+04   0.960E+02 0.603E+03 -.398E+04   0.260E+01 0.432E+01 -.224E+01   -.324E-01 -.242E-02 0.148E-01
   -.280E+03 -.485E+03 0.189E+03   0.280E+03 0.489E+03 -.190E+03   0.182E+00 -.398E+01 -.305E+00   -.108E-01 -.140E-01 0.330E-01
   -.281E+03 -.159E+03 -.369E+04   0.284E+03 0.162E+03 0.369E+04   -.241E+01 -.426E+01 0.224E+01   0.635E-02 0.248E-02 0.252E-02
   -.334E+03 -.555E+03 0.352E+04   0.332E+03 0.551E+03 -.352E+04   0.167E+01 0.533E+01 -.169E+01   0.972E-02 0.460E-01 0.227E-01
   -.766E+03 -.383E+03 -.978E+03   0.769E+03 0.388E+03 0.980E+03   -.306E+01 -.441E+01 -.360E+01   0.152E-01 0.910E-02 0.785E-01
   0.142E+03 -.640E+03 0.208E+04   -.141E+03 0.645E+03 -.209E+04   0.250E-01 -.471E+01 0.463E+01   0.409E-02 -.519E-02 -.368E-02
   -.182E+03 -.431E+03 -.265E+04   0.185E+03 0.437E+03 0.266E+04   -.184E+01 -.441E+01 -.375E+01   -.255E-02 -.892E-02 -.333E-01
   0.171E+03 -.367E+03 0.138E+04   -.171E+03 0.371E+03 -.138E+04   0.951E+00 -.296E+01 0.439E+01   -.430E-01 0.376E-02 0.318E-02
   -.184E+02 -.112E+03 -.325E+04   0.184E+02 0.116E+03 0.324E+04   0.138E+00 -.392E+01 0.221E+01   -.254E-02 0.383E-02 -.738E-02
   0.316E+03 0.355E+03 0.240E+04   -.318E+03 -.358E+03 -.240E+04   0.111E+01 0.115E+01 0.627E+01   0.302E-01 -.493E-02 0.253E-01
   -.257E+03 -.493E+03 -.177E+04   0.259E+03 0.496E+03 0.178E+04   -.195E+01 -.315E+01 -.562E+01   -.414E-02 -.741E-02 0.206E-01
   0.231E+03 -.360E-05 -.156E+04   -.231E+03 -.637E-08 0.157E+04   -.814E+00 0.000E+00 -.119E+01   -.916E-02 0.176E-07 -.675E-02
   -.154E+03 0.296E-04 0.370E+03   0.155E+03 0.243E-07 -.374E+03   -.589E-01 0.000E+00 0.110E+01   0.381E-02 0.370E-07 -.616E-02
   -.441E+03 0.118E-04 0.118E+04   0.444E+03 -.102E-05 -.119E+04   -.178E+01 0.000E+00 0.224E+01   0.494E-02 0.218E-07 0.192E-01
   -.214E+03 -.631E-04 -.896E+03   0.214E+03 -.453E-08 0.901E+03   0.129E+01 0.000E+00 -.397E+01   0.577E-02 0.319E-08 -.201E-03
   -.373E+03 0.131E-04 0.735E+03   0.375E+03 -.717E-06 -.738E+03   0.530E+00 0.000E+00 0.182E+01   0.348E-01 -.335E-07 0.313E-01
   -.464E+03 0.156E-04 -.118E+04   0.468E+03 -.709E-07 0.118E+04   -.144E+01 0.000E+00 -.998E+00   0.136E-02 -.109E-07 0.805E-02
   0.125E+03 -.223E-04 0.173E+04   -.125E+03 0.790E-07 -.174E+04   0.242E+00 0.000E+00 0.186E+01   -.437E-02 -.149E-08 0.145E-01
   -.928E+02 0.340E-05 -.221E+03   0.934E+02 0.356E-07 0.223E+03   0.997E+00 0.000E+00 -.312E+01   -.875E-02 -.143E-07 -.105E-01
   -.347E+02 -.153E-04 -.176E+04   0.351E+02 0.106E-07 0.176E+04   0.146E+00 0.000E+00 -.811E+00   0.246E-02 -.392E-08 -.699E-02
   0.131E+03 -.908E-06 0.162E+04   -.131E+03 0.320E-06 -.162E+04   0.939E+00 0.000E+00 0.182E+01   -.204E-01 -.315E-07 0.567E-02
   -.103E+03 -.137E-04 -.577E+03   0.103E+03 0.195E-06 0.581E+03   0.554E+00 0.000E+00 -.450E+01   -.533E-02 -.386E-07 0.605E-02
   -.164E+02 -.707E-04 0.695E+03   0.177E+02 -.779E-08 -.699E+03   -.914E+00 0.000E+00 0.210E+01   0.644E-02 -.247E-08 0.766E-02
   -.121E+02 -.237E-04 -.127E+04   0.137E+02 0.288E-07 0.127E+04   -.678E+00 0.000E+00 -.218E+01   -.679E-02 -.290E-07 -.319E-02
   0.293E+02 -.848E+02 0.167E+04   -.291E+02 0.859E+02 -.167E+04   -.511E+00 -.234E+00 0.220E+01   0.146E-01 -.244E-02 0.572E-02
   0.155E+03 0.131E+03 -.566E+03   -.156E+03 -.134E+03 0.571E+03   0.559E+00 0.185E+01 -.274E+01   0.578E-02 -.663E-03 0.298E-02
   0.190E+03 -.237E+03 0.807E+03   -.191E+03 0.239E+03 -.810E+03   -.675E+00 -.136E+01 0.286E+01   -.182E-01 -.143E-02 0.104E-01
   0.180E+03 0.339E+02 -.116E+04   -.181E+03 -.334E+02 0.117E+04   0.133E+00 -.976E-01 -.241E+01   -.372E-02 -.575E-03 -.161E-02
   0.578E+01 -.141E+03 0.511E+03   -.683E+01 0.143E+03 -.513E+03   -.763E+00 -.134E+01 0.177E+01   -.153E-01 0.109E-01 0.331E-01
   -.223E+03 0.579E+02 -.144E+04   0.224E+03 -.568E+02 0.144E+04   -.170E+00 -.839E+00 -.244E+01   0.345E-02 -.409E-02 0.261E-02
   0.201E+03 -.200E+03 -.435E+03   -.202E+03 0.203E+03 0.436E+03   0.641E-01 -.125E+01 -.842E+00   0.568E-02 0.118E-02 -.117E-01
   0.105E+03 -.855E+02 0.134E+04   -.106E+03 0.852E+02 -.135E+04   0.105E+01 0.104E+01 0.410E+01   0.117E-01 0.270E-03 0.560E-02
   0.174E+03 0.451E+02 0.114E+04   -.175E+03 -.462E+02 -.115E+04   0.472E-01 0.108E+01 0.369E+01   -.757E-02 0.353E-02 0.453E-02
   0.987E+02 -.117E+03 -.799E+03   -.993E+02 0.119E+03 0.801E+03   -.783E-01 -.147E+01 -.783E+00   0.446E-04 0.705E-02 -.140E-01
   -.502E+02 -.907E+02 0.318E+03   0.482E+02 0.933E+02 -.320E+03   0.158E+01 -.176E+01 0.873E+00   0.479E-02 -.102E-01 0.184E-01
   -.493E+02 -.298E+03 -.155E+04   0.484E+02 0.301E+03 0.155E+04   0.493E+00 -.224E+01 -.712E+00   0.574E-03 -.337E-02 -.228E-02
   0.190E+03 0.237E+03 0.807E+03   -.191E+03 -.239E+03 -.810E+03   -.675E+00 0.136E+01 0.286E+01   -.182E-01 0.143E-02 0.104E-01
   0.180E+03 -.339E+02 -.116E+04   -.181E+03 0.334E+02 0.117E+04   0.133E+00 0.976E-01 -.241E+01   -.372E-02 0.575E-03 -.161E-02
   0.293E+02 0.848E+02 0.167E+04   -.291E+02 -.859E+02 -.167E+04   -.511E+00 0.234E+00 0.220E+01   0.146E-01 0.244E-02 0.572E-02
   0.155E+03 -.131E+03 -.566E+03   -.156E+03 0.134E+03 0.571E+03   0.559E+00 -.185E+01 -.274E+01   0.578E-02 0.663E-03 0.298E-02
   0.201E+03 0.200E+03 -.435E+03   -.202E+03 -.203E+03 0.436E+03   0.641E-01 0.125E+01 -.842E+00   0.568E-02 -.118E-02 -.117E-01
   0.105E+03 0.855E+02 0.134E+04   -.106E+03 -.852E+02 -.135E+04   0.105E+01 -.104E+01 0.410E+01   0.117E-01 -.270E-03 0.560E-02
   0.578E+01 0.141E+03 0.511E+03   -.683E+01 -.143E+03 -.513E+03   -.763E+00 0.134E+01 0.177E+01   -.153E-01 -.109E-01 0.331E-01
   -.223E+03 -.579E+02 -.144E+04   0.224E+03 0.568E+02 0.144E+04   -.170E+00 0.839E+00 -.244E+01   0.345E-02 0.409E-02 0.261E-02
   -.502E+02 0.907E+02 0.318E+03   0.482E+02 -.933E+02 -.320E+03   0.158E+01 0.176E+01 0.873E+00   0.479E-02 0.102E-01 0.184E-01
   -.493E+02 0.298E+03 -.155E+04   0.484E+02 -.301E+03 0.155E+04   0.493E+00 0.224E+01 -.712E+00   0.574E-03 0.337E-02 -.228E-02
   0.174E+03 -.451E+02 0.114E+04   -.175E+03 0.462E+02 -.115E+04   0.472E-01 -.108E+01 0.369E+01   -.757E-02 -.353E-02 0.453E-02
   0.987E+02 0.117E+03 -.799E+03   -.993E+02 -.119E+03 0.801E+03   -.783E-01 0.147E+01 -.783E+00   0.447E-04 -.705E-02 -.140E-01
   -.108E+02 -.640E-02 -.216E+02   -.142E-13 0.469E-12 0.330E-11   0.107E+02 -.222E-14 0.210E+02   -.173E-01 -.846E-07 0.533E+00

 POSITION                                       TOTAL-FORCE (eV/Angst)
     13.17084      1.39171      1.94975        -0.084899      0.000000      1.703489
      3.74623      6.18092      1.52303         1.135965      0.000000     -0.155689
      5.02033      6.18092      3.49202         0.000037      0.000000     -0.172347
      6.65055      1.39171      2.02776         0.864074      0.000000     -0.218458
      7.93172      1.39171      4.00611        -0.544718      0.000000     -0.852148
     16.08224      6.18092      2.46384        -0.310773      0.000000      2.079155
     16.45564      6.18092      5.18367        -1.756660      0.000000      0.403025
      2.10894      1.39171      2.97793        -0.662388      0.000000      0.401799
      1.84147      1.39171      5.32146         1.111827      0.000000      1.038156
      9.63967      6.18092      2.58860         0.372044      0.000000     -0.661398
     10.84312      6.18092      4.52020        -0.645191      0.000000     -1.153488
     15.33171      0.02075      1.94106         0.962501      0.575792     -0.123207
     15.94414      0.09015      4.35086        -0.881193     -0.796015     -0.075880
      6.66252      4.94823      0.55902         0.219515     -0.499763     -1.115631
      7.17375      4.91558      3.08454         0.256916     -0.196118     -0.925963
      7.82059      4.49369      5.40713        -0.073832      0.514236      0.879099
      9.56774      0.16774      1.06488         0.031521     -0.475207     -1.271312
     10.08514      0.12638      3.59863         0.039505     -0.905688     -1.862430
      1.35096      4.91558      2.05636         0.167924     -0.445662      1.765473
      1.89081      4.84889      4.80699         1.205085     -1.192755      0.513259
      4.26235      0.12638      2.57045         0.365385     -0.911012      1.356209
      4.90562      9.40408      5.02908         0.178399      0.010912      0.781959
     13.06242      4.12748      1.92164        -0.794227      1.135390     -0.018338
     12.99653      4.91558      4.11272         0.678795      0.236571     -1.222670
     15.33171      2.76268      1.94106         0.962501     -0.575792     -0.123207
     15.94414      2.69328      4.35086        -0.881193      0.796015     -0.075880
      6.66252      7.41361      0.55902         0.219515      0.499763     -1.115631
      7.17375      7.44626      3.08454         0.256916      0.196118     -0.925963
      7.82059      7.86814      5.40713        -0.073832     -0.514236      0.879099
      9.56774      2.61569      1.06488         0.031521      0.475207     -1.271312
     10.08514      2.65705      3.59863         0.039505      0.905688     -1.862430
      1.35096      7.44626      2.05636         0.167924      0.445662      1.765473
      1.89081      7.51294      4.80699         1.205085      1.192755      0.513259
      4.26235      2.65705      2.57045         0.365385      0.911012      1.356209
      4.90562      2.95775      5.02908         0.178399     -0.010912      0.781959
     13.06242      8.23436      1.92164        -0.794227     -1.135390     -0.018338
     12.99653      7.44626      4.11272         0.678795     -0.236571     -1.222670
     16.74436      1.39171      5.73098        -0.412147      0.000000      3.192621
     16.74052      1.39171      2.94940         1.624631      0.000000     -2.446307
      8.00634      6.18092      1.40713         1.604376      0.000000     -1.759547
      8.59001      6.18092      4.49167         1.158712      0.000000      1.073192
     10.91773      1.39171      1.92122         2.256023      0.000000     -0.818169
     11.26708      1.39171      4.66166         2.909242      0.000000      2.905878
      1.96641      6.18092      0.55831         0.119539      0.000000     -4.034432
      2.76722      6.18092      3.46349         1.607944      0.000000     -0.834353
      1.32121      6.18092      6.25144         0.589082      0.000000      4.227307
      4.86133      1.39171      1.06236         0.461786      0.000000     -3.996324
      5.67861      1.39171      3.97758         1.201813      0.000000      0.385236
     13.82913      6.18092      2.43531         0.402164      0.000000     -1.639150
     14.35309      6.18092      5.12475         0.924089      0.000000      2.596112
     13.78799      2.80606      0.58239        -0.320491      0.840406     -3.811469
     13.94756      3.03541      3.49116        -0.924427     -0.848472      2.486034
      5.26426      7.79215      1.92599        -1.743368      0.843400     -0.199014
      5.88383      7.62190      4.79643        -1.032933      0.458936      1.868809
      8.17565      3.00295      2.44008        -1.821985      1.005224     -0.091286
      8.85332      2.78049      5.26997         0.282760      0.198023      2.791081
      0.02514      7.79215      3.98236        -1.125290      1.416267     -0.610883
     16.33585      7.87139      1.29204        -0.323968      0.683867     -2.803243
      2.37120      3.08845      1.78422        -0.778443     -0.037247     -2.735331
      2.93654      3.00295      4.49645        -0.681338      0.127612      0.904837
     11.08705      7.79215      2.95417        -0.415828      0.860386     -1.011830
     11.72628      7.59494      5.67139        -0.434268      1.346320      3.899647
      5.26426      4.56969      1.92599        -1.743368     -0.843400     -0.199014
      5.88383      4.73994      4.79643        -1.032933     -0.458936      1.868809
     13.78799      9.55577      0.58239        -0.320491     -0.840406     -3.811469
     13.94756      9.32642      3.49116        -0.924427      0.848472      2.486034
      0.02514      4.56969      3.98236        -1.125290     -1.416267     -0.610883
     16.33585      4.49045      1.29204        -0.323968     -0.683867     -2.803243
      8.17565      9.35889      2.44008        -1.821985     -1.005224     -0.091286
      8.85332      0.00293      5.26997         0.282760     -0.198023      2.791081
     11.08705      4.56969      2.95417        -0.415828     -0.860386     -1.011830
     11.72628      4.76690      5.67139        -0.434268     -1.346320      3.899647
      2.37120      9.27339      1.78422        -0.778443      0.037247     -2.735331
      2.93654      9.35889      4.49645        -0.681338     -0.127612      0.904837
    total drift:                               -0.089997     -0.006405     -0.039017

  FREE ENERGIE OF THE ION-ELECTRON SYSTEM (eV)
  free  energy   TOTEN  =      -351.68697236 eV

  energy  without entropy=     -350.49543993  energy(sigma->0) =     -351.09120615