 vasp.5.4.4.18Apr17-6-g9f103f2a35 (build Aug 13 2019 17:33:20) gamma-only

 executed on             LinuxIFC date 2020.05.12  02:35:53

 INCAR:
 POTCAR:    PAW_PBE Ni_pv 06Sep2000
 POTCAR:    PAW_PBE S 06Sep2000
 POTCAR:    PAW_PBE Ni_pv 06Sep2000
   VRHFIN =Ni:

   TITEL  = PAW_PBE Ni_pv 06Sep2000
   POMASS =   58.690; ZVAL   =   16.000    mass and valenz
   ENMAX  =  367.986; ENMIN  =  275.989 eV

 POTCAR:    PAW_PBE S 06Sep2000
   VRHFIN =S : s2p4

   TITEL  = PAW_PBE S 06Sep2000
   POMASS =   32.066; ZVAL   =    6.000    mass and valenz
   ENMAX  =  258.689; ENMIN  =  194.016 eV

 Optimization of the real space projectors (new method)

 maximal supplied QI-value         = 18.90
 optimisation between [QCUT,QGAM] = [ 10.77, 21.73] = [ 32.49,132.25] Ry
 Optimized for a Real-space Cutoff    1.38 Angstroem

   l    n(q)    QCUT    max X(q) W(low)/X(q) W(high)/X(q)  e(spline)
   1      8    10.771     2.836    0.40E-04    0.29E-04    0.12E-06
   1      8    10.771     4.023    0.10E-03    0.48E-04    0.29E-06
   2      8    10.771    73.368    0.42E-03    0.97E-04    0.44E-06
   2      8    10.771    69.010    0.42E-03    0.99E-04    0.45E-06
   0      9    10.771    54.797    0.10E-03    0.56E-04    0.74E-07
   0      9    10.771    24.266    0.89E-04    0.49E-04    0.67E-07
 Optimization of the real space projectors (new method)

 maximal supplied QI-value         = 19.84
 optimisation between [QCUT,QGAM] = [ 10.71, 21.63] = [ 32.15,130.99] Ry
 Optimized for a Real-space Cutoff    1.19 Angstroem

   l    n(q)    QCUT    max X(q) W(low)/X(q) W(high)/X(q)  e(spline)
   0      8    10.715   187.594    0.41E-03    0.53E-04    0.66E-07
   0      8    10.715   164.243    0.41E-03    0.53E-04    0.65E-07
   1      7    10.715    67.533    0.19E-03    0.59E-03    0.68E-07
   1      7    10.715    50.729    0.19E-03    0.58E-03    0.67E-07
  PAW_PBE Ni_pv 06Sep2000               :
  PAW_PBE S 06Sep2000                   :

 POSCAR: Type_037 Type_137
  positions in cartesian coordinates
 exchange correlation table for  LEXCH =        8
   RHO(1)=    0.500       N(1)  =     2000
   RHO(2)=  100.500       N(2)  =     4000

 ion  position               nearest neighbor table
   1  0.780  0.145  0.123-  65 2.06  51 2.09  42 2.25  52 2.36  66 2.36
   2  0.803  0.145  0.286-  66 2.04  52 2.05  43 2.07
   3  0.217  0.673  0.094-  44 2.03  45 2.06  53 2.14  27 2.44   4 2.46  63 2.51
   4  0.297  0.645  0.216-  64 2.09  46 2.16  53 2.26  63 2.26  45 2.32   3 2.46  22 2.48  28 2.53
                            17 2.53
   5  0.390  0.158  0.130-  47 2.04  48 2.12  55 2.21   6 2.36  69 2.38  18 2.46
   6  0.470  0.145  0.247-  56 2.05  70 2.07  48 2.25  55 2.26  69 2.26   5 2.36  31 2.53  19 2.53

   7  0.952  0.645  0.154-  68 2.08  58 2.10  67 2.16  49 2.25  57 2.36   8 2.39  32 2.53  20 2.53

   8  0.954  0.636  0.298-  50 2.02  57 2.07  67 2.09   7 2.39
   9  0.172  0.147  0.047-  47 2.01  59 2.04  73 2.05  10 2.44
  10  0.125  0.145  0.185-  60 2.08  59 2.13  73 2.17  39 2.25  11 2.31  74 2.36   9 2.44  34 2.53
                            21 2.53
  11  0.078  0.115  0.314-  38 2.02  74 2.19  60 2.20  10 2.31  39 2.64
  12  0.577  0.642  0.154-  40 2.03  41 2.11  71 2.13  61 2.18  13 2.34
  13  0.642  0.645  0.278-  72 2.02  62 2.04  41 2.19  61 2.26  71 2.26  12 2.34  29 2.48  37 2.53
                            24 2.53
  14  0.911  0.006  0.121-  65 2.06  58 2.08  66 2.10  39 2.18  15 2.54
  15  0.944  0.008  0.269-  38 2.05  39 2.10  57 2.14  66 2.16  26 2.54  14 2.54
  16  0.451  0.438  0.057-  55 2.07  40 2.10  17 2.40  27 2.52  63 2.62
  17  0.425  0.513  0.192-  64 2.09  41 2.15  55 2.25  40 2.26  63 2.26  16 2.40   4 2.53  28 2.53

[...]

  56  0.520  0.301  0.315-  31 2.04   6 2.05  70 2.64  55 2.77
  57  0.001  0.814  0.246-   8 2.07  15 2.14  33 2.21  32 2.36   7 2.36  58 2.77
  58  0.967  0.824  0.083-  14 2.08   7 2.10  32 2.10  57 2.77
  59  0.140  0.322  0.109-   9 2.04  20 2.12  34 2.12  10 2.13
  60  0.172  0.262  0.279-  35 2.06  10 2.08  11 2.20  34 2.39  74 2.73
  61  0.657  0.814  0.184-  12 2.18  19 2.25  37 2.26  13 2.26  36 2.43  62 2.46
  62  0.661  0.834  0.331-  13 2.04  29 2.21  37 2.31  61 2.46
  63  0.312  0.477  0.122-  27 2.04  34 2.25   4 2.26  17 2.26   3 2.51  16 2.62
  64  0.351  0.499  0.292-  35 2.02  17 2.09   4 2.09
  65  0.818  0.001  0.040-  36 2.01   1 2.06  14 2.06
  66  0.829  0.977  0.215-   2 2.04  14 2.10  36 2.12  15 2.16  37 2.25   1 2.36
  67  0.990  0.469  0.226-   8 2.09   7 2.16  25 2.17  26 2.18  20 2.25  68 2.78
  68  0.976  0.507  0.061-  25 2.05   7 2.08  20 2.10  44 2.71  67 2.78
  69  0.484  0.977  0.153-  18 2.05  28 2.25   6 2.26  19 2.26   5 2.38
  70  0.533  0.026  0.329-  29 2.05   6 2.07  19 2.09  56 2.64
  71  0.657  0.477  0.184-  30 2.10  12 2.13  23 2.19  31 2.25  24 2.26  13 2.26
  72  0.697  0.507  0.350-  13 2.02  24 2.03  50 2.78
  73  0.141  0.967  0.106-   9 2.05  32 2.13  21 2.14  10 2.17
  74  0.174  0.977  0.276-  33 2.04  11 2.19  22 2.26  10 2.36  21 2.36  60 2.73  46 2.78

  LATTYP: Found a simple orthorhombic cell.
 ALAT       =     9.5784100000
 B/A-ratio  =     1.7387693453
 C/A-ratio  =     1.7627867312

  Lattice vectors:

 A1 = (   0.0000000000,   9.5784100000,   0.0000000000)
 A2 = (   0.0000000000,   0.0000000000, -16.6546456851)
 A3 = ( -16.8846940542,   0.0000000000,   0.0000000000)

Analysis of symmetry for initial positions (statically):
 Subroutine PRICEL returns:
 Original cell was already a primitive cell.

 Routine SETGRP: Setting up the symmetry group for a
 simple orthorhombic supercell.

 Subroutine GETGRP returns: Found  1 space group operations
 (whereof  1 operations were pure point group operations)
 out of a pool of  8 trial point group operations.

The static configuration has the point symmetry C_1 .

Analysis of symmetry for dynamics (positions and initial velocities):
 Subroutine PRICEL returns:
 Original cell was already a primitive cell.

 Routine SETGRP: Setting up the symmetry group for a
 simple orthorhombic supercell.

 Subroutine GETGRP returns: Found  1 space group operations
 (whereof  1 operations were pure point group operations)
 out of a pool of  8 trial point group operations.

The dynamic configuration has the point symmetry C_1 .

 Subroutine INISYM returns: Found  1 space group operations
 (whereof  1 operations are pure point group operations),
 and found     1 'primitive' translations

 KPOINTS: gamma-point-only calculation. no periodi

Automatic generation of k-mesh.
Space group operators:
 irot       det(A)        alpha          n_x          n_y          n_z        tau_x        tau_y        tau_z
    1     1.000000     0.000000     1.000000     0.000000     0.000000     0.000000     0.000000     0.000000

 Subroutine IBZKPT returns following result:

 Found      1 irreducible k-points:

 Following reciprocal coordinates:
            Coordinates               Weight
  0.000000  0.000000  0.000000      1.000000

 Following cartesian coordinates:
            Coordinates               Weight
  0.000000  0.000000  0.000000      1.000000

 SYSTEM =  "Millerite NiS"
 POSCAR =  Type_037 Type_137

 Startparameter for this run:
   NWRITE =      2    write-flag & timer
   PREC   = normal    normal or accurate (medium, high low for compatibility)
   ISTART =      0    job   : 0-new  1-cont  2-samecut
   ICHARG =      2    charge: 1-file 2-atom 10-const
   ISPIN  =      1    spin polarized calculation?
   LNONCOLLINEAR =      F non collinear calculations
   LSORBIT =      F    spin-orbit coupling
   INIWAV =      1    electr: 0-lowe 1-rand  2-diag
   LASPH  =      F    aspherical Exc in radial PAW
   METAGGA=      F    non-selfconsistent MetaGGA calc.

 Electronic Relaxation 1
   ENCUT  =  450.0 eV  33.07 Ry    5.75 a.u.  29.20 16.57 28.81*2*pi/ulx,y,z
   ENINI  =  450.0     initial cutoff
   ENAUG  =  703.4 eV  augmentation charge cutoff
   NELM   =    100;   NELMIN=  2; NELMDL= -5     # of ELM steps
   EDIFF  = 0.1E-03   stopping-criterion for ELM
   LREAL  =      T    real-space projection
   NLSPLINE    = F    spline interpolate recip. space projectors
   LCOMPAT=      F    compatible to vasp.4.4
   GGA_COMPAT  = T    GGA compatible to vasp.4.4-vasp.4.6
   LMAXPAW     = -100 max onsite density
   LMAXMIX     =    2 max onsite mixed and CHGCAR
   VOSKOWN=      0    Vosko Wilk Nusair interpolation
   ROPT   =   -0.00050  -0.00050
 Ionic relaxation
   EDIFFG = 0.1E-02   stopping-criterion for IOM
   NSW    =      0    number of steps for IOM
   NBLOCK =      1;   KBLOCK =      1    inner block; outer block
   IBRION =     -1    ionic relax: 0-MD 1-quasi-New 2-CG
   NFREE  =      0    steps in history (QN), initial steepest desc. (CG)
   ISIF   =      2    stress and relaxation
   IWAVPR =     10    prediction:  0-non 1-charg 2-wave 3-comb
   ISYM   =      2    0-nonsym 1-usesym 2-fastsym
   LCORR  =      T    Harris-Foulkes like correction to forces

   POTIM  = 0.5000    time-step for ionic-motion
   TEIN   =    0.0    initial temperature
   TEBEG  =    0.0;   TEEND  =   0.0 temperature during run
   SMASS  =  -3.00    Nose mass-parameter (am)
   estimated Nose-frequenzy (Omega)   =  0.10E-29 period in steps =****** mass=  -0.652E-26a.u.
   SCALEE = 1.0000    scale energy and forces
   NPACO  =    256;   APACO  = 16.0  distance and # of slots for P.C.
   PSTRESS=    0.0 pullay stress

  Mass of Ions in am
   POMASS =  58.69 32.07
  Ionic Valenz
   ZVAL   =  16.00  6.00
  Atomic Wigner-Seitz radii
  virtual crystal weights
   VCA    =   1.00  1.00
   NELECT =     814.0000    total number of electrons
   NUPDOWN=      -1.0000    fix difference up-down

 DOS related values:
   EMIN   =  10.00;   EMAX   =-10.00  energy-range for DOS
   EFERMI =   0.00
   ISMEAR =     0;   SIGMA  =   0.20  broadening in eV -4-tet -1-fermi 0-gaus

 Electronic relaxation 2 (details)
   IALGO  =     38    algorithm
   LDIAG  =      T    sub-space diagonalisation (order eigenvalues)
   LSUBROT=      F    optimize rotation matrix (better conditioning)
   TURBO    =      0    0=normal 1=particle mesh
   IRESTART =      0    0=no restart 2=restart with 2 vectors
   NREBOOT  =      0    no. of reboots
   NMIN     =      0    reboot dimension
   EREF     =   0.00    reference energy to select bands
   IMIX   =      4    mixing-type and parameters
     AMIX     =   0.40;   BMIX     =  1.00
     AMIX_MAG =   1.60;   BMIX_MAG =  1.00
     AMIN     =   0.10
     WC   =   100.;   INIMIX=   1;  MIXPRE=   1;  MAXMIX= -45

 Intra band minimization:
   WEIMIN = 0.0000     energy-eigenvalue tresh-hold
   EBREAK =  0.51E-07  absolut break condition
   DEPER  =   0.30     relativ break condition

   TIME   =   0.40     timestep for ELM

  volume/ion in A,a.u.               =      36.40       245.63
  Fermi-wavevector in a.u.,A,eV,Ry     =   1.098607  2.076066 16.421374  1.206937
  Thomas-Fermi vector in A             =   2.234987

 Write flags
   LWAVE        =      F    write WAVECAR
   LDOWNSAMPLE  =      F    k-point downsampling of WAVECAR
   LCHARG       =      F    write CHGCAR
   LVTOT        =      F    write LOCPOT, total local potential
   LVHAR        =      F    write LOCPOT, Hartree potential only
[...]
     0.000000000  9.578410000  0.000000000     0.000000000  0.104401461  0.000000000
     0.000000000  0.000000000 16.654645685     0.000000000  0.000000000  0.060043307

  length of vectors
    16.884694054  9.578410000 16.654645685     0.059225237  0.104401461  0.060043307

 FORCES acting on ions
    electron-ion (+dipol)            ewald-force                    non-local-force                 convergence-correction
   0.414E+03 0.770E+02 0.209E+04   -.416E+03 -.759E+02 -.209E+04   0.219E+01 -.116E+01 0.587E+01   -.143E-01 0.412E-02 -.790E-02
   0.370E+03 0.595E+01 -.303E+04   -.374E+03 -.658E+01 0.303E+04   0.388E+01 0.567E+00 0.896E+00   -.120E-01 0.188E-02 -.108E-01
   0.201E+03 0.351E+02 0.290E+04   -.201E+03 -.344E+02 -.291E+04   0.736E+00 -.647E+00 0.612E+01   0.119E-01 -.715E-02 -.236E-02
   0.384E+03 0.363E+03 -.133E+04   -.385E+03 -.364E+03 0.134E+04   -.107E+00 -.100E+00 -.478E+01   0.800E-02 -.243E-01 -.192E-02
   0.849E+02 0.234E+03 0.203E+04   -.839E+02 -.234E+03 -.204E+04   -.680E+00 0.490E+00 0.430E+01   0.190E-01 0.966E-02 0.175E-02
   0.402E+03 -.285E+02 -.223E+04   -.407E+03 0.268E+02 0.224E+04   0.357E+01 0.102E+01 -.702E+01   0.109E-01 0.983E-02 -.995E-02
   0.454E+03 -.132E+03 0.121E+04   -.460E+03 0.135E+03 -.122E+04   0.507E+01 -.225E+01 0.242E+01   -.186E-01 -.739E-02 -.260E-02
   -.245E+03 0.138E+03 -.332E+04   0.242E+03 -.136E+03 0.332E+04   0.379E+01 -.165E+01 0.142E+01   -.848E-02 -.472E-02 0.241E-02
   0.490E+03 -.508E+02 0.411E+04   -.494E+03 0.505E+02 -.412E+04   0.306E+01 0.169E+00 0.358E+01   0.738E-02 0.447E-02 0.261E-02
   0.599E+03 -.210E+03 0.140E+03   -.603E+03 0.210E+03 -.142E+03   0.391E+01 -.978E-02 0.119E+01   -.119E-01 0.567E-02 0.535E-01
   -.260E+03 -.147E+03 -.351E+04   0.259E+03 0.149E+03 0.351E+04   0.222E+01 -.123E+01 -.531E+01   0.331E-02 0.613E-02 0.445E-02
   -.426E+03 -.372E+03 0.184E+04   0.429E+03 0.373E+03 -.184E+04   -.136E+01 -.843E+00 0.366E+01   0.434E-02 -.511E-02 -.486E-02
   0.435E+02 0.271E+03 -.259E+04   -.423E+02 -.276E+03 0.260E+04   -.122E+01 0.373E+01 -.870E+01   -.738E-02 0.286E-02 -.144E-01
   -.454E+03 -.205E+02 0.242E+04   0.460E+03 0.185E+02 -.242E+04   -.592E+01 0.239E+01 0.530E+01   -.141E-01 0.455E-02 -.315E-02
   0.588E+02 0.552E+03 -.230E+04   -.572E+02 -.556E+03 0.231E+04   -.198E+01 0.348E+01 -.386E+01   0.154E-01 0.998E-02 0.139E-02
   -.485E+02 0.200E+03 0.392E+04   0.520E+02 -.198E+03 -.392E+04   -.380E+01 -.227E+01 -.863E+00   0.164E-01 -.948E-02 0.797E-02
   -.128E+03 0.379E+03 -.741E+03   0.127E+03 -.383E+03 0.745E+03   0.111E+01 0.360E+01 -.475E+01   0.179E-01 -.156E-01 -.458E-02
   -.251E+03 0.719E+03 0.347E+04   0.251E+03 -.720E+03 -.348E+04   -.198E+00 0.182E+01 0.571E+01   0.704E-02 0.810E-02 0.865E-02
   -.584E+03 0.254E+03 -.602E+03   0.587E+03 -.256E+03 0.600E+03   -.232E+01 0.190E+01 0.109E+00   0.522E-04 0.383E-02 -.103E-01
   -.919E+02 0.631E+03 0.148E+04   0.912E+02 -.636E+03 -.148E+04   0.301E+00 0.402E+01 0.200E+00   -.287E-02 -.120E-01 0.573E-02
   -.128E+03 0.315E+03 0.880E+03   0.128E+03 -.317E+03 -.881E+03   0.530E+00 0.262E+01 0.145E+01   0.178E-01 0.139E-01 0.838E-02
   -.757E+02 -.315E+03 -.283E+04   0.764E+02 0.316E+03 0.284E+04   -.144E+00 0.335E+00 -.486E+01   0.558E-02 0.112E-01 0.589E-03
   0.188E+03 -.378E+03 0.254E+04   -.190E+03 0.380E+03 -.255E+04   0.491E+00 -.610E+00 0.669E+01   -.117E-01 -.250E-02 -.274E-02
   -.240E+03 0.322E+03 -.188E+04   0.243E+03 -.325E+03 0.188E+04   -.207E+01 0.291E+01 -.529E+01   -.889E-02 0.914E-04 -.116E-01
   -.265E+03 0.101E+03 0.198E+04   0.267E+03 -.102E+03 -.198E+04   -.115E+01 -.259E+00 0.780E+01   -.133E-01 -.273E-02 0.105E-02
   -.183E+03 -.588E+03 -.250E+04   0.184E+03 0.589E+03 0.250E+04   -.160E+01 -.203E+00 -.565E+01   0.132E-01 0.247E-03 -.471E-02
   -.255E+02 -.347E+03 0.390E+04   0.234E+02 0.347E+03 -.391E+04   0.181E+01 0.645E+00 0.625E+01   0.175E-01 -.755E-02 -.147E-02
   -.248E+03 -.464E+03 0.150E+03   0.246E+03 0.466E+03 -.150E+03   0.182E+01 -.246E+01 -.138E+01   0.262E-01 -.170E-02 -.111E-01
   0.141E+03 0.245E+02 -.301E+04   -.142E+03 -.243E+02 0.301E+04   0.108E+01 -.879E+00 -.402E+01   0.126E-01 0.531E-02 -.822E-02
   -.644E+03 -.307E+03 0.325E+04   0.642E+03 0.306E+03 -.325E+04   0.154E+01 0.379E+00 0.210E+01   -.407E-02 -.455E-02 0.579E-02
   -.455E+03 -.302E+03 -.147E+04   0.460E+03 0.306E+03 0.148E+04   -.315E+01 -.448E+01 -.678E+01   -.794E-02 -.603E-03 -.142E-01
   0.215E+03 -.451E+03 0.180E+04   -.216E+03 0.455E+03 -.180E+04   0.158E+01 -.377E+01 0.295E+01   -.425E-02 0.435E-02 0.106E-02
   0.246E+03 0.289E+03 -.282E+04   -.248E+03 -.288E+03 0.282E+04   0.669E+00 -.197E+01 -.179E+01   -.361E-02 0.652E-02 0.109E-01
   0.846E+02 -.640E+03 0.730E+03   -.842E+02 0.644E+03 -.731E+03   0.463E+00 -.374E+01 0.103E+01   0.253E-01 0.968E-02 0.258E-01
   0.816E+02 -.199E+03 -.347E+04   -.797E+02 0.203E+03 0.347E+04   -.252E+01 -.426E+01 0.285E+01   0.438E-02 -.338E-02 -.547E-02
   0.454E+03 0.376E+03 0.261E+04   -.457E+03 -.379E+03 -.261E+04   0.115E+01 0.250E+01 0.694E+01   -.142E-01 -.125E-03 -.266E-03
   -.211E+03 -.368E+03 -.185E+04   0.214E+03 0.370E+03 0.186E+04   -.386E+01 -.107E+01 -.449E+01   -.148E-01 0.125E-02 -.758E-02
   0.795E+02 -.504E+02 -.177E+04   -.791E+02 0.505E+02 0.177E+04   -.124E+01 -.128E-01 -.142E+01   0.125E-01 0.109E-02 -.234E-02
   -.142E+03 -.746E+02 0.386E+03   0.143E+03 0.753E+02 -.391E+03   0.586E+00 -.853E+00 0.261E+01   0.383E-03 0.325E-02 0.478E-02
   -.309E+03 -.332E+03 0.127E+04   0.312E+03 0.335E+03 -.127E+04   -.149E+01 -.257E+01 0.253E+01   0.777E-02 -.340E-02 0.127E-02
   0.949E+02 0.254E+03 -.105E+04   -.967E+02 -.258E+03 0.105E+04   0.112E+01 0.207E+01 -.446E+01   0.463E-02 -.325E-02 -.431E-02
   -.267E+03 0.212E+03 0.943E+03   0.270E+03 -.214E+03 -.946E+03   -.101E+01 0.267E+01 0.148E+01   -.657E-02 0.173E-02 0.139E-03
   -.898E+02 -.189E+02 -.113E+04   0.909E+02 0.192E+02 0.114E+04   -.641E+00 -.187E+00 -.218E+01   -.999E-02 -.937E-03 -.497E-02
   0.113E+03 0.412E+02 0.172E+04   -.112E+03 -.407E+02 -.172E+04   -.208E+00 -.637E+00 0.284E+01   -.440E-03 -.139E-02 -.391E-02
   0.372E+02 0.307E+03 -.427E+03   -.381E+02 -.312E+03 0.430E+03   0.120E+01 0.373E+01 -.105E+01   0.255E-02 -.549E-02 0.373E-02
   0.794E+02 0.240E+03 -.159E+04   -.786E+02 -.242E+03 0.159E+04   -.118E+01 0.105E+01 -.375E+01   -.253E-02 -.770E-02 0.625E-02
   -.186E+03 0.412E+02 0.155E+04   0.188E+03 -.415E+02 -.156E+04   -.484E+00 0.131E+00 0.302E+01   0.222E-01 0.287E-02 0.686E-02
   -.291E+02 0.759E+02 -.896E+03   0.293E+02 -.769E+02 0.901E+03   0.297E+00 0.337E-01 -.437E+01   0.388E-02 0.900E-02 -.208E-02
   0.379E+01 0.112E+02 0.692E+03   -.238E+01 -.122E+02 -.696E+03   -.147E+01 0.363E+00 0.274E+01   -.575E-02 -.591E-03 -.202E-02
   -.827E+02 -.152E+02 -.149E+04   0.850E+02 0.168E+02 0.149E+04   -.181E+01 -.162E+01 -.157E+01   -.473E-02 0.535E-03 -.709E-03
   -.724E+02 -.456E+01 0.164E+04   0.735E+02 0.506E+01 -.165E+04   -.651E+00 -.134E+00 0.382E+01   -.343E-02 0.158E-02 0.368E-02
   0.694E+02 -.602E+02 -.367E+03   -.701E+02 0.605E+02 0.371E+03   -.763E+00 0.706E+00 -.181E+01   -.768E-03 0.422E-02 -.767E-02
   -.481E+02 -.314E+03 0.894E+03   0.482E+02 0.317E+03 -.898E+03   -.533E+00 -.573E+00 0.415E+01   0.622E-02 0.713E-03 -.454E-02
   0.373E+02 -.293E+02 -.149E+04   -.397E+02 0.270E+02 0.150E+04   0.199E+01 0.228E+01 -.287E+01   0.114E-01 0.761E-04 0.286E-02
   0.760E+02 -.830E+02 0.228E+03   -.780E+02 0.858E+02 -.227E+03   0.110E+01 -.166E+01 -.129E+01   0.510E-02 -.232E-02 -.250E-02
   0.588E+02 -.232E+03 -.155E+04   -.594E+02 0.235E+03 0.155E+04   0.318E+00 -.147E+01 -.105E+01   0.308E-03 -.347E-03 -.431E-02
   0.229E+02 -.622E+02 -.655E+03   -.239E+02 0.636E+02 0.657E+03   0.187E+01 -.182E+01 -.748E+00   -.101E-02 0.359E-02 0.173E-02
   0.948E+02 -.677E+02 0.133E+04   -.960E+02 0.671E+02 -.134E+04   0.107E+01 0.113E+01 0.382E+01   -.671E-02 0.161E-02 -.746E-03
   0.214E+03 -.230E+03 0.894E+03   -.215E+03 0.231E+03 -.898E+03   0.600E-01 -.873E-01 0.181E+01   -.617E-03 0.103E-01 0.126E-01
   0.110E+03 -.305E+03 -.114E+04   -.111E+03 0.310E+03 0.114E+04   0.491E+00 -.272E+01 -.143E+01   -.203E-02 -.384E-02 0.372E-02
   -.541E+02 -.137E+03 0.465E+03   0.533E+02 0.139E+03 -.471E+03   0.171E+01 -.129E+01 0.368E+01   -.334E-02 0.598E-03 -.199E-02
   -.163E+03 -.231E+03 -.152E+04   0.164E+03 0.235E+03 0.152E+04   -.254E+00 -.254E+01 -.372E+01   -.210E-02 0.178E-02 -.403E-02
   0.224E+03 0.256E+03 0.743E+03   -.227E+03 -.258E+03 -.745E+03   0.170E+01 0.920E+00 0.831E+00   0.550E-02 -.557E-02 0.184E-02
   -.457E+02 0.226E+02 -.139E+04   0.472E+02 -.235E+02 0.139E+04   -.971E+00 0.441E+00 -.314E+01   0.215E-02 -.711E-02 -.883E-04
   0.835E+02 0.580E+02 0.172E+04   -.833E+02 -.591E+02 -.173E+04   -.578E+00 0.651E+00 0.204E+01   -.426E-02 -.317E-04 0.177E-02
   0.104E+03 0.116E+03 -.365E+03   -.104E+03 -.117E+03 0.368E+03   -.607E+00 -.963E+00 -.175E+01   -.534E-02 -.406E-02 -.601E-02
   -.231E+03 0.107E+03 -.595E+03   0.235E+03 -.107E+03 0.599E+03   -.190E+01 -.982E+00 -.212E+01   -.255E-02 -.673E-02 -.382E-03
   0.957E+02 0.526E+02 0.158E+04   -.971E+02 -.535E+02 -.159E+04   0.884E+00 0.306E+00 0.328E+01   -.695E-02 -.358E-02 0.894E-03
   0.551E+00 0.283E+03 0.661E+03   -.812E+00 -.286E+03 -.663E+03   -.860E+00 0.158E+01 0.194E+01   0.702E-02 0.619E-02 -.209E-02
   0.207E+02 -.124E+03 -.165E+04   -.201E+02 0.125E+03 0.166E+04   -.160E+01 0.550E+00 -.370E+01   0.291E-02 0.271E-02 -.401E-02
   -.915E+02 -.163E+02 0.102E+03   0.914E+02 0.142E+02 -.102E+03   0.344E+00 0.973E+00 -.176E+00   -.599E-02 -.133E-02 -.613E-02
   0.397E+02 0.243E+03 -.165E+04   -.406E+02 -.247E+03 0.166E+04   0.929E+00 0.176E+01 -.804E+00   -.374E-02 -.791E-04 -.164E-02
   0.222E+03 0.145E+03 0.101E+04   -.222E+03 -.146E+03 -.102E+04   -.794E+00 0.196E+00 0.169E+01   -.290E-02 -.827E-02 0.936E-02
   -.240E+02 -.464E+02 -.108E+04   0.236E+02 0.460E+02 0.108E+04   0.806E+00 0.110E+01 -.203E+01   -.106E-01 0.122E-01 0.597E-02
   -.631E+01 -.132E+01 -.611E+01   -.519E-12 -.117E-11 -.841E-11   0.627E+01 0.126E+01 0.611E+01   0.740E-01 0.128E-01 0.294E-02

 POSITION                                       TOTAL-FORCE (eV/Angst)
     13.17084      1.39171      2.05636        -0.167979     -0.072263      1.173993
     13.55611      1.38917      4.75582         0.145964     -0.065443      0.652472
      3.67234      6.44730      1.56370         1.054780     -0.020546     -0.853241
      5.02033      6.18092      3.59863        -0.615562     -0.705535     -0.583127
      6.58587      1.51151      2.17340         0.389235     -0.180931     -0.460574
      7.93172      1.39171      4.11272        -0.917523     -0.597754     -0.687982
     16.08224      6.18092      2.57045        -0.755873      0.835020      0.541339
     16.11638      6.08976      4.96299         0.579203     -0.101144      0.854558
      2.90027      1.40831      0.77636        -0.794095     -0.075251     -1.985719
      2.10894      1.39171      3.08454        -0.645223     -0.687473     -0.585362
      1.31480      1.10272      5.23453         0.929333      0.167257      0.203771
      9.74425      6.14975      2.55687         0.870294      0.093088     -1.195675
     10.84312      6.18092      4.62682        -0.079996     -0.809633     -0.803448
     15.37493      0.05394      2.00882         0.692946      0.446645     -0.018315
     15.93503      0.07594      4.48489        -0.392143     -0.411547     -0.339013
      7.62227      4.19747      0.94899        -0.288490     -0.339164     -0.704333
      7.17375      4.91558      3.19116        -0.007559      0.018948     -0.368155
      8.95442      1.37172      1.52027        -0.298080     -0.000445     -1.742416
     10.08514      0.12638      3.70525         0.884733      0.052177     -1.860247
      1.35096      4.91558      2.16298        -0.451657     -0.993518     -0.164320
      4.26235      0.12638      2.67707         0.468357     -0.123249      0.387011
      5.01363      8.47409      4.54011         0.522764      2.185888      0.036131
     12.93248      4.02831      2.00842        -0.775847      1.163470      0.203571
     12.99653      4.91558      4.21934         0.695961      0.087013     -1.511312
     15.53314      3.50293      2.23342         0.607988     -1.030427      0.522018
     15.91711      2.61068      4.53622        -0.335089      0.870551     -0.091343
      6.04172      6.16395      1.03292        -0.333790      0.233694     -1.480676
      7.17375      7.44626      3.19116         0.391163     -0.022663     -1.124859
      9.06042      7.88526      4.84971         0.343643     -0.656929     -0.047261
     10.03763      3.57598      1.53606         0.118331      0.248741     -1.025917
     10.08514      2.65705      3.70525         1.083432      0.080857     -0.589331
      1.35096      7.44626      2.16298         0.034144      0.327260      1.191178
      2.15696      7.47917      4.57219        -1.569879     -0.569260      0.497203
      4.26235      2.65705      2.67707         0.917359      0.510724      0.163613
      4.86502      3.06666      4.96410        -0.594822     -0.238080      0.776127
     13.23763      8.17716      1.98681        -1.324317     -0.712324      0.354148
     12.99653      7.44626      4.21934        -1.139785      0.441968     -0.541091
     16.37399      1.31824      6.06089        -0.762508      0.179791      4.181982
     16.74052      1.39171      3.05601         1.443858     -0.123991     -2.017546
      8.00634      6.18092      1.51374         1.363889      0.695106     -2.891327
      8.68619      5.90635      4.36363        -0.762685     -1.706021      2.003762
     10.91773      1.39171      2.02783         1.523871      0.539045     -1.398087
     11.48764      1.42060      4.68955         0.466416      0.117481      2.850995
      1.90048      6.21085      0.59656         0.101768     -0.212901     -3.483156
      2.72754      5.94587      3.32119         0.223608     -0.764036      1.935958
      4.02884      6.91618      5.36952        -0.428303     -0.889703      2.533317
      4.88790      1.38071      1.05401         1.616983     -0.114198     -2.927002
      5.67861      1.39171      4.08419         0.541479     -1.042840      1.037583
     13.82913      6.18092      2.54192        -0.061343     -0.598384     -1.302983
     14.15072      6.21750      5.39691         0.551107     -0.022663      2.775354
     14.10234      2.82564      0.86076         0.423422      0.365732     -3.658596
     13.99844      3.00295      3.57488        -1.454225      1.048931      1.440149
      5.26426      7.79215      2.03261        -0.507514      2.155824      0.087230
      6.92275      7.98040      5.15564        -0.320859      0.027963      2.977092
      8.17565      3.00295      2.54670        -0.863895      1.173520     -0.314027
      8.77492      2.87877      5.24824        -0.263950      1.694232      3.411974
      0.02514      7.79215      4.08897         0.883458     -0.400794      1.565105
     16.33273      7.89224      1.38282        -0.074291      0.598701     -2.721118
      2.37058      3.08691      1.81389        -0.960469      1.056832     -1.239019
      2.90929      2.50688      4.64639        -0.869032      1.713975      2.144135
     11.08705      7.79215      3.06079         0.844930      0.751751     -2.155160
     11.16727      7.98923      5.51512         0.984332      1.219472      2.719846
      5.26426      4.56969      2.03261        -0.517136     -1.416318     -0.569369
      5.92622      4.77747      4.86142         0.546223     -0.437922      2.596968
     13.80909      0.00930      0.66813        -0.325470     -0.371436     -4.098961
     13.99844      9.35889      3.57488        -0.800144     -1.344871      1.731383
     16.71522      4.48962      3.76333         1.299066     -0.385793      2.152377
     16.47714      4.85227      1.01855        -0.488635     -0.593873     -3.655135
      8.17565      9.35889      2.54670        -1.114229     -1.032164     -0.509959
      8.99633      0.25368      5.48091        -1.058925      1.203261      3.350183
     11.08705      4.56969      3.06079         0.263952     -1.105711     -0.705885
     11.77170      4.85344      5.83289        -0.004288     -1.473560      3.812691
      2.37610      9.26662      1.76536        -1.021864     -0.534475     -1.346585
      2.93654      9.35889      4.60306         0.339480      0.680318      0.892418
    total drift:                                0.036419     -0.052577      0.005709

  FREE ENERGIE OF THE ION-ELECTRON SYSTEM (eV)
  free  energy   TOTEN  =      -349.30689538 eV

  energy  without entropy=     -348.20615272  energy(sigma->0) =     -348.75652405