 vasp.5.4.4.18Apr17-6-g9f103f2a35 (build Aug 13 2019 17:33:20) gamma-only

 executed on             LinuxIFC date 2020.05.12  07:39:43

 INCAR:
 POTCAR:    PAW_PBE Ni_pv 06Sep2000
 POTCAR:    PAW_PBE S 06Sep2000
 POTCAR:    PAW_PBE Ni_pv 06Sep2000
   VRHFIN =Ni:

   TITEL  = PAW_PBE Ni_pv 06Sep2000
   POMASS =   58.690; ZVAL   =   16.000    mass and valenz
   ENMAX  =  367.986; ENMIN  =  275.989 eV

 POTCAR:    PAW_PBE S 06Sep2000
   VRHFIN =S : s2p4

   TITEL  = PAW_PBE S 06Sep2000
   POMASS =   32.066; ZVAL   =    6.000    mass and valenz
   ENMAX  =  258.689; ENMIN  =  194.016 eV

 Optimization of the real space projectors (new method)

 maximal supplied QI-value         = 18.90
 optimisation between [QCUT,QGAM] = [ 10.77, 21.73] = [ 32.49,132.25] Ry
 Optimized for a Real-space Cutoff    1.38 Angstroem

   l    n(q)    QCUT    max X(q) W(low)/X(q) W(high)/X(q)  e(spline)
   1      8    10.771     2.836    0.40E-04    0.29E-04    0.12E-06
   1      8    10.771     4.023    0.10E-03    0.48E-04    0.29E-06
   2      8    10.771    73.368    0.42E-03    0.97E-04    0.44E-06
   2      8    10.771    69.010    0.42E-03    0.99E-04    0.45E-06
   0      9    10.771    54.797    0.10E-03    0.56E-04    0.74E-07
   0      9    10.771    24.266    0.89E-04    0.49E-04    0.67E-07
 Optimization of the real space projectors (new method)

 maximal supplied QI-value         = 19.84
 optimisation between [QCUT,QGAM] = [ 10.71, 21.63] = [ 32.15,130.99] Ry
 Optimized for a Real-space Cutoff    1.19 Angstroem

   l    n(q)    QCUT    max X(q) W(low)/X(q) W(high)/X(q)  e(spline)
   0      8    10.715   187.594    0.41E-03    0.53E-04    0.66E-07
   0      8    10.715   164.243    0.41E-03    0.53E-04    0.65E-07
   1      7    10.715    67.533    0.19E-03    0.59E-03    0.68E-07
   1      7    10.715    50.729    0.19E-03    0.58E-03    0.67E-07
  PAW_PBE Ni_pv 06Sep2000               :
  PAW_PBE S 06Sep2000                   :

 POSCAR: Type_048 Type_148
  positions in cartesian coordinates
 exchange correlation table for  LEXCH =        8
   RHO(1)=    0.500       N(1)  =     2000
   RHO(2)=  100.500       N(2)  =     4000

 ion  position               nearest neighbor table
   1  0.256  0.016  0.152-  75 2.25  65 2.26  81 2.26  53 2.36  93 2.36   5 2.39   9 2.51
   2  0.256  0.016  0.481-  76 2.25  66 2.26  82 2.26  54 2.36  94 2.36  10 2.53   6 2.53
   3  0.006  0.266  0.317-  62 2.25  68 2.26  71 2.26  56 2.36  60 2.36   7 2.53  23 2.53
   4  0.043  0.264  0.637-  61 2.07  57 2.07  72 2.29   8 2.30
   5  0.312  0.024  0.071-  91 2.01  93 2.08  49 2.10   1 2.39  81 2.48  17 2.51
   6  0.256  0.016  0.394-  79 2.25  62 2.26  82 2.26  50 2.36  94 2.36   2 2.53  10 2.53
   7  0.006  0.266  0.230-  65 2.25  71 2.26  63 2.26  60 2.36  51 2.36   3 2.53  23 2.53
   8  0.006  0.266  0.558-  66 2.25  72 2.26  64 2.26   4 2.30  61 2.36  52 2.36  24 2.51
   9  0.207  0.228  0.121-  53 2.09  49 2.13  65 2.17  58 2.17   1 2.51
  10  0.190  0.215  0.438-  59 2.25  66 2.26  62 2.26  54 2.36  50 2.36   2 2.53   6 2.53
  11  0.440  0.465  0.273-  83 2.25  51 2.26  56 2.26  63 2.36  68 2.36  19 2.53  15 2.53
  12  0.423  0.471  0.594-  52 2.05  57 2.15  84 2.17  64 2.30  20 2.49
  13  0.756  0.016  0.152-  87 2.25  53 2.26  93 2.26  65 2.36  81 2.36  17 2.41  21 2.50
  14  0.756  0.016  0.481-  88 2.25  54 2.26  94 2.26  66 2.36  82 2.36  22 2.53  18 2.53
  15  0.506  0.266  0.317-  50 2.25  56 2.26  60 2.26  68 2.36  71 2.36  19 2.53  11 2.53
  16  0.471  0.272  0.638-  61 2.05  57 2.06  20 2.33  72 2.45
  17  0.712  0.025  0.070-  91 2.01  93 2.07  49 2.10  13 2.41   5 2.51  81 2.53
  18  0.756  0.016  0.394-  92 2.25  50 2.26  94 2.26  62 2.36  82 2.36  14 2.53  22 2.53
  19  0.506  0.266  0.230-  53 2.25  60 2.26  51 2.26  71 2.36  63 2.36  15 2.53  11 2.53
  20  0.506  0.266  0.558-  54 2.25  61 2.26  52 2.26  16 2.33  72 2.36  64 2.36  12 2.49
  21  0.684  0.226  0.120-  53 2.07  49 2.13  69 2.15  65 2.20  13 2.50
  22  0.690  0.215  0.438-  70 2.25  54 2.26  50 2.26  66 2.36  62 2.36  14 2.53  18 2.53
  23  0.940  0.465  0.273-  95 2.25  63 2.26  68 2.26  51 2.36  56 2.36   7 2.53   3 2.53
  24  0.958  0.477  0.591-  52 2.09  57 2.14  64 2.18  96 2.18   8 2.51
  25  0.256  0.516  0.152-  51 2.25  89 2.26  58 2.26  77 2.36  69 2.36  29 2.53  33 2.53
  26  0.256  0.516  0.481-  52 2.25  90 2.26  59 2.26  78 2.36  70 2.36  34 2.53  30 2.53
  27  0.006  0.766  0.317-  86 2.25  92 2.26  95 2.26  79 2.36  83 2.36  31 2.53  47 2.53
  28  0.043  0.764  0.637-  84 2.07  80 2.07  96 2.29  32 2.30
  29  0.256  0.516  0.066-  67 2.08  55 2.08  73 2.19  85 2.19  58 2.26  69 2.36  33 2.53  25 2.53

  30  0.256  0.516  0.394-  56 2.25  86 2.26  59 2.26  74 2.36  70 2.36  26 2.53  34 2.53
  31  0.006  0.766  0.230-  89 2.25  95 2.26  87 2.26  83 2.36  75 2.36  27 2.53  47 2.53
  32  0.006  0.766  0.558-  90 2.25  96 2.26  88 2.26  28 2.30  84 2.36  76 2.36  48 2.51
  33  0.190  0.715  0.109-  73 2.08  85 2.08  81 2.25  89 2.26  77 2.36  29 2.53  25 2.53
  34  0.190  0.715  0.438-  82 2.25  90 2.26  86 2.26  78 2.36  74 2.36  26 2.53  30 2.53
  35  0.440  0.965  0.273-  60 2.25  75 2.26  79 2.26  87 2.36  92 2.36  43 2.53  39 2.53
  36  0.423  0.971  0.594-  76 2.05  80 2.15  61 2.17  88 2.30  44 2.49
  37  0.756  0.516  0.152-  63 2.25  77 2.26  69 2.26  89 2.36  58 2.36  41 2.53  45 2.53
  38  0.756  0.516  0.481-  64 2.25  78 2.26  70 2.26  90 2.36  59 2.36  46 2.53  42 2.53
  39  0.506  0.766  0.317-  74 2.25  79 2.26  83 2.26  92 2.36  95 2.36  43 2.53  35 2.53
  40  0.471  0.772  0.638-  84 2.05  80 2.06  44 2.33  96 2.45
  41  0.756  0.516  0.066-  55 2.07  67 2.08  85 2.19  73 2.19  69 2.26  58 2.36  45 2.53  37 2.53

  42  0.756  0.516  0.394-  68 2.25  74 2.26  70 2.26  86 2.36  59 2.36  38 2.53  46 2.53
  43  0.506  0.766  0.230-  77 2.25  83 2.26  75 2.26  95 2.36  87 2.36  39 2.53  35 2.53
  44  0.506  0.766  0.558-  78 2.25  84 2.26  76 2.26  40 2.33  96 2.36  88 2.36  36 2.49
  45  0.690  0.715  0.109-  85 2.08  73 2.09  93 2.25  77 2.26  89 2.36  41 2.53  37 2.53
  46  0.690  0.715  0.438-  94 2.25  78 2.26  74 2.26  90 2.36  86 2.36  38 2.53  42 2.53
  47  0.940  0.965  0.273-  71 2.25  87 2.26  92 2.26  75 2.36  79 2.36  31 2.53  27 2.53
  48  0.958  0.977  0.591-  76 2.09  80 2.14  88 2.18  72 2.18  32 2.51
  49  0.461  0.177  0.072-   5 2.10  17 2.10  21 2.13   9 2.13  91 2.69  53 2.69
  50  0.468  0.167  0.382-  15 2.25  18 2.26  22 2.26   6 2.36  10 2.36
  51  0.218  0.417  0.218-  25 2.25  11 2.26  19 2.26  23 2.36   7 2.36
  52  0.218  0.417  0.547-  12 2.05  24 2.09  26 2.25  20 2.26   8 2.36  57 2.74
  53  0.468  0.167  0.164-  21 2.07   9 2.09  19 2.25  13 2.26   1 2.36  49 2.69
  54  0.468  0.167  0.493-  20 2.25  22 2.26  14 2.26  10 2.36   2 2.36
  55  0.025  0.459  0.025-  41 2.07  29 2.08  85 2.51  58 2.51
  56  0.218  0.417  0.329-  30 2.25  15 2.26  11 2.26   3 2.36  23 2.36
  57  0.202  0.409  0.640-  16 2.06   4 2.07  24 2.14  12 2.15  52 2.74
  58  0.053  0.414  0.109-   9 2.17  29 2.26  25 2.26  41 2.36  37 2.36  55 2.51
  59  0.053  0.414  0.438-  10 2.25  26 2.26  30 2.26  38 2.36  42 2.36
  60  0.303  0.164  0.273-  35 2.25  19 2.26  15 2.26   7 2.36   3 2.36
  61  0.303  0.164  0.602-  16 2.05   4 2.07  36 2.17  20 2.26   8 2.36
  62  0.968  0.167  0.382-   3 2.25   6 2.26  10 2.26  18 2.36  22 2.36
  63  0.718  0.417  0.218-  37 2.25  23 2.26   7 2.26  11 2.36  19 2.36
  64  0.718  0.417  0.547-  24 2.18  38 2.25   8 2.26  12 2.30  20 2.36
  65  0.968  0.167  0.164-   9 2.17  21 2.20   7 2.25   1 2.26  13 2.36
  66  0.968  0.167  0.493-   8 2.25  10 2.26   2 2.26  22 2.36  14 2.36
  67  0.526  0.459  0.024-  41 2.08  29 2.08  73 2.51  69 2.52
  68  0.718  0.417  0.329-  42 2.25   3 2.26  23 2.26  15 2.36  11 2.36
  69  0.553  0.414  0.109-  21 2.15  41 2.26  37 2.26  29 2.36  25 2.36  67 2.52
  70  0.553  0.414  0.438-  22 2.25  38 2.26  42 2.26  26 2.36  30 2.36
  71  0.803  0.164  0.273-  47 2.25   7 2.26   3 2.26  19 2.36  15 2.36
  72  0.803  0.164  0.602-  48 2.18   8 2.26   4 2.29  20 2.36  16 2.45
  73  0.460  0.654  0.068-  33 2.08  45 2.09  29 2.19  41 2.19  67 2.51
  74  0.468  0.667  0.382-  39 2.25  42 2.26  46 2.26  30 2.36  34 2.36
  75  0.218  0.917  0.218-   1 2.25  35 2.26  43 2.26  47 2.36  31 2.36
  76  0.218  0.917  0.547-  36 2.05  48 2.09   2 2.25  44 2.26  32 2.36  80 2.74
  77  0.468  0.667  0.164-  43 2.25  37 2.26  45 2.26  25 2.36  33 2.36
  78  0.468  0.667  0.493-  44 2.25  46 2.26  38 2.26  34 2.36  26 2.36
  79  0.218  0.917  0.329-   6 2.25  39 2.26  35 2.26  27 2.36  47 2.36
  80  0.202  0.909  0.640-  40 2.06  28 2.07  48 2.14  36 2.15  76 2.74
  81  0.053  0.914  0.109-  33 2.25   1 2.26  13 2.36   5 2.48  17 2.53
  82  0.053  0.914  0.438-  34 2.25   2 2.26   6 2.26  14 2.36  18 2.36
  83  0.303  0.664  0.273-  11 2.25  43 2.26  39 2.26  31 2.36  27 2.36
  84  0.303  0.664  0.602-  40 2.05  28 2.07  12 2.17  44 2.26  32 2.36
  85  0.960  0.655  0.068-  45 2.08  33 2.08  41 2.19  29 2.19  55 2.51
  86  0.968  0.667  0.382-  27 2.25  30 2.26  34 2.26  42 2.36  46 2.36
  87  0.718  0.917  0.218-  13 2.25  47 2.26  31 2.26  35 2.36  43 2.36
  88  0.718  0.917  0.547-  48 2.18  14 2.25  32 2.26  36 2.30  44 2.36
  89  0.968  0.667  0.164-  31 2.25  25 2.26  33 2.26  37 2.36  45 2.36
  90  0.968  0.667  0.493-  32 2.25  34 2.26  26 2.26  46 2.36  38 2.36
  91  0.527  0.975  0.020-  17 2.01   5 2.01  93 2.67  49 2.69
  92  0.718  0.917  0.329-  18 2.25  27 2.26  47 2.26  39 2.36  35 2.36
  93  0.553  0.914  0.109-  17 2.07   5 2.08  45 2.25  13 2.26   1 2.36  91 2.67
  94  0.553  0.914  0.438-  46 2.25  14 2.26  18 2.26   2 2.36   6 2.36
  95  0.803  0.664  0.273-  23 2.25  31 2.26  27 2.26  43 2.36  39 2.36
  96  0.803  0.664  0.602-  24 2.18  32 2.26  28 2.29  44 2.36  40 2.45

  LATTYP: Found a simple monoclinic cell.
 ALAT       =    13.8711386352
 B/A-ratio  =     2.1019774055
 C/A-ratio  =     1.3233367991
 COS(beta)  =    -0.9620914447

  Lattice vectors:

 A1 = (  -8.3714133957, -11.0601955134,   0.0000000000)
 A2 = (   0.0000000000,   0.0000000000, -29.1568200000)
 A3 = (  14.6499733957,  11.0601955134,   0.0000000000)

Analysis of symmetry for initial positions (statically):
 Subroutine PRICEL returns:
 Original cell was already a primitive cell.

 Routine SETGRP: Setting up the symmetry group for a
 simple monoclinic supercell.

 Subroutine GETGRP returns: Found  1 space group operations
 (whereof  1 operations were pure point group operations)
 out of a pool of  4 trial point group operations.

The static configuration has the point symmetry C_1 .

Analysis of symmetry for dynamics (positions and initial velocities):
 Subroutine PRICEL returns:
 Original cell was already a primitive cell.

 Routine SETGRP: Setting up the symmetry group for a
 simple monoclinic supercell.

 Subroutine GETGRP returns: Found  1 space group operations
 (whereof  1 operations were pure point group operations)
 out of a pool of  4 trial point group operations.

The dynamic configuration has the point symmetry C_1 .

 Subroutine INISYM returns: Found  1 space group operations
 (whereof  1 operations are pure point group operations),
[...]
     0.000000000  0.000000000 29.156820000     0.000000000  0.000000000  0.034297293

  length of vectors
     6.278560000 11.256463038 29.156820000     0.162098538  0.090414315  0.034297293

 FORCES acting on ions
    electron-ion (+dipol)            ewald-force                    non-local-force                 convergence-correction
   0.140E+03 0.327E+03 0.421E+04   -.142E+03 -.329E+03 -.421E+04   0.208E+01 0.128E+01 0.921E+00   0.607E-01 0.110E+00 -.126E+01
   -.532E+02 0.251E+03 -.346E+04   0.522E+02 -.252E+03 0.345E+04   0.104E+01 0.814E+00 -.159E+01   -.208E-03 -.458E-03 0.160E+01
   -.406E+02 0.262E+03 0.280E+03   0.396E+02 -.262E+03 -.279E+03   0.103E+01 0.519E+00 -.809E+00   -.440E-02 -.984E-01 -.460E+00
   0.430E+03 0.204E+03 -.736E+04   -.432E+03 -.204E+03 0.735E+04   0.109E+01 -.111E+01 0.318E+01   0.114E+00 0.921E-01 0.343E+00
   0.685E+03 0.132E+03 0.699E+04   -.693E+03 -.132E+03 -.699E+04   0.460E+01 -.247E+00 0.427E+01   0.163E+00 0.815E-01 -.319E+00
   -.420E+02 0.260E+03 -.596E+03   0.412E+02 -.260E+03 0.595E+03   0.933E+00 0.624E+00 0.649E+00   -.218E-02 -.416E-01 0.399E+00
   -.293E+02 0.273E+03 0.314E+04   0.283E+02 -.274E+03 -.314E+04   0.114E+01 0.746E+00 0.213E+01   -.139E-01 -.820E-01 -.132E+01
   0.119E+03 0.236E+03 -.446E+04   -.122E+03 -.236E+03 0.445E+04   0.219E+01 0.490E+00 -.159E-01   0.575E-01 0.109E+00 0.133E+01
   0.303E+03 -.360E+03 0.561E+04   -.307E+03 0.361E+03 -.561E+04   0.297E+01 -.111E+01 0.275E+01   0.519E-01 -.223E+00 -.939E+00
   -.412E+02 -.516E+03 -.204E+04   0.405E+02 0.516E+03 0.204E+04   0.907E+00 -.927E+00 -.412E+00   0.904E-02 0.134E+00 0.114E+01
   -.421E+02 -.532E+03 0.172E+04   0.413E+02 0.533E+03 -.172E+04   0.980E+00 -.101E+01 0.322E+00   0.208E-01 0.684E-01 -.101E+01
   -.398E+03 -.507E+03 -.602E+04   0.402E+03 0.508E+03 0.602E+04   -.268E+01 -.498E+00 -.169E+01   -.982E-01 -.186E+00 0.889E+00
   -.205E+03 0.336E+03 0.420E+04   0.205E+03 -.337E+03 -.420E+04   0.558E+00 0.115E+01 0.815E+00   -.467E-01 0.129E+00 -.126E+01
   -.251E+02 0.254E+03 -.349E+04   0.241E+02 -.255E+03 0.349E+04   0.108E+01 0.840E+00 -.207E+01   -.786E-02 -.277E-02 0.157E+01
   -.421E+02 0.261E+03 0.278E+03   0.411E+02 -.262E+03 -.277E+03   0.976E+00 0.535E+00 -.820E+00   0.458E-02 -.103E+00 -.457E+00
   -.474E+03 0.260E+03 -.737E+04   0.474E+03 -.258E+03 0.737E+04   0.614E+00 -.233E+01 0.444E+01   -.543E-01 0.110E+00 0.324E+00
   -.708E+03 0.129E+03 0.701E+04   0.714E+03 -.129E+03 -.701E+04   -.315E+01 0.744E+00 0.375E+01   -.193E+00 0.851E-01 -.321E+00
   -.406E+02 0.260E+03 -.599E+03   0.396E+02 -.260E+03 0.598E+03   0.101E+01 0.563E+00 0.725E+00   0.477E-02 -.566E-01 0.414E+00
   -.480E+02 0.265E+03 0.311E+04   0.470E+02 -.266E+03 -.311E+04   0.114E+01 0.767E+00 0.165E+01   0.130E-01 -.934E-01 -.134E+01
   -.199E+03 0.295E+03 -.447E+04   0.199E+03 -.296E+03 0.447E+04   0.353E+00 0.374E+00 -.215E-01   -.734E-01 0.142E+00 0.142E+01
   -.374E+03 -.364E+03 0.563E+04   0.378E+03 0.365E+03 -.563E+04   -.223E+01 -.752E+00 0.907E+00   -.354E-01 -.179E+00 -.922E+00
   -.410E+02 -.516E+03 -.205E+04   0.403E+02 0.517E+03 0.205E+04   0.936E+00 -.896E+00 -.310E+00   0.117E-01 0.105E+00 0.115E+01
   -.403E+02 -.530E+03 0.172E+04   0.394E+02 0.531E+03 -.172E+04   0.104E+01 -.102E+01 0.172E+00   -.181E-01 0.484E-01 -.101E+01
   0.318E+03 -.498E+03 -.597E+04   -.324E+03 0.501E+03 0.597E+04   0.365E+01 -.281E+01 -.277E+01   0.114E+00 -.182E+00 0.906E+00
   -.344E+02 0.196E+03 0.406E+04   0.332E+02 -.197E+03 -.406E+04   0.116E+01 0.909E+00 -.243E+01   0.283E-01 -.281E-01 -.119E+01
   -.531E+02 0.250E+03 -.346E+04   0.522E+02 -.251E+03 0.346E+04   0.104E+01 0.799E+00 -.160E+01   -.326E-02 -.185E+00 0.172E+01
   -.414E+02 0.253E+03 0.298E+03   0.404E+02 -.254E+03 -.297E+03   0.102E+01 0.589E+00 -.961E+00   -.249E-02 0.718E-01 -.471E+00
   0.430E+03 0.203E+03 -.736E+04   -.432E+03 -.202E+03 0.735E+04   0.109E+01 -.111E+01 0.318E+01   0.110E+00 -.496E-01 0.448E+00
   0.212E+01 0.263E+03 0.686E+04   -.168E+01 -.265E+03 -.686E+04   -.358E+00 0.217E+01 0.417E+01   0.378E-01 0.389E-02 -.497E+00
   -.421E+02 0.255E+03 -.598E+03   0.412E+02 -.255E+03 0.597E+03   0.953E+00 0.607E+00 0.669E+00   -.389E-02 -.112E+00 0.444E+00
   -.436E+02 0.236E+03 0.321E+04   0.426E+02 -.236E+03 -.321E+04   0.103E+01 0.540E+00 0.116E+01   -.566E-02 0.101E+00 -.124E+01
   0.119E+03 0.235E+03 -.446E+04   -.122E+03 -.236E+03 0.445E+04   0.219E+01 0.492E+00 -.780E-02   0.350E-01 -.156E-01 0.123E+01
   -.852E+01 -.785E+03 0.565E+04   0.831E+01 0.791E+03 -.565E+04   0.180E-01 -.566E+01 -.342E+00   0.319E-01 -.220E-01 -.865E+00
   -.413E+02 -.518E+03 -.204E+04   0.406E+02 0.518E+03 0.204E+04   0.910E+00 -.905E+00 -.392E+00   0.112E-01 0.167E+00 0.110E+01
   -.393E+02 -.500E+03 0.175E+04   0.385E+02 0.501E+03 -.174E+04   0.906E+00 -.121E+01 0.178E+00   -.251E-02 0.107E+00 -.100E+01
   -.398E+03 -.508E+03 -.602E+04   0.402E+03 0.508E+03 0.602E+04   -.268E+01 -.490E+00 -.169E+01   -.834E-01 0.596E-01 0.880E+00
   -.522E+02 0.230E+03 0.407E+04   0.510E+02 -.231E+03 -.407E+04   0.118E+01 0.122E+01 -.218E+01   -.152E-01 0.126E-01 -.112E+01
   -.251E+02 0.253E+03 -.349E+04   0.241E+02 -.254E+03 0.349E+04   0.107E+01 0.826E+00 -.207E+01   -.418E-02 -.168E+00 0.167E+01
   -.413E+02 0.254E+03 0.297E+03   0.404E+02 -.254E+03 -.296E+03   0.991E+00 0.567E+00 -.100E+01   0.234E-02 0.601E-01 -.485E+00
   -.474E+03 0.259E+03 -.737E+04   0.474E+03 -.257E+03 0.737E+04   0.614E+00 -.232E+01 0.445E+01   -.235E-01 -.196E-01 0.415E+00
   -.270E+02 0.314E+03 0.685E+04   0.277E+02 -.316E+03 -.685E+04   -.542E+00 0.208E+01 0.400E+01   -.274E-01 0.394E-01 -.388E+00
   -.405E+02 0.255E+03 -.601E+03   0.396E+02 -.255E+03 0.600E+03   0.103E+01 0.539E+00 0.722E+00   0.698E-02 -.116E+00 0.445E+00
   -.391E+02 0.241E+03 0.320E+04   0.383E+02 -.241E+03 -.320E+04   0.974E+00 0.644E+00 0.107E+01   0.102E-03 0.815E-01 -.125E+01
   -.199E+03 0.295E+03 -.447E+04   0.199E+03 -.295E+03 0.447E+04   0.357E+00 0.381E+00 -.980E-02   -.577E-01 0.127E-01 0.135E+01
   -.468E+02 -.712E+03 0.562E+04   0.469E+02 0.716E+03 -.562E+04   -.181E+00 -.408E+01 -.129E+00   -.128E-01 -.635E-02 -.776E+00
   -.410E+02 -.518E+03 -.205E+04   0.402E+02 0.519E+03 0.205E+04   0.948E+00 -.870E+00 -.289E+00   0.788E-02 0.156E+00 0.109E+01
   -.430E+02 -.502E+03 0.175E+04   0.423E+02 0.503E+03 -.175E+04   0.895E+00 -.119E+01 0.526E-01   0.472E-02 0.132E+00 -.991E+00
   0.318E+03 -.498E+03 -.597E+04   -.324E+03 0.501E+03 0.597E+04   0.365E+01 -.280E+01 -.277E+01   0.979E-01 0.114E+00 0.893E+00
   0.633E+01 -.266E+03 0.273E+04   -.658E+01 0.273E+03 -.274E+04   -.207E-01 -.486E+01 0.432E+01   -.119E-02 -.122E+00 -.128E+00
   0.394E+02 -.824E+02 -.147E+03   -.400E+02 0.834E+02 0.144E+03   0.553E+00 -.135E+01 0.273E+01   -.104E-01 0.854E-02 0.121E+00
   0.424E+02 -.994E+02 0.126E+04   -.432E+02 0.100E+03 -.126E+04   0.696E+00 -.124E+01 0.269E+01   -.967E-02 -.210E-01 -.479E+00
   0.261E+02 -.318E+02 -.152E+04   -.275E+02 0.342E+02 0.151E+04   0.149E+01 -.286E+01 -.122E+00   0.195E-01 -.570E-01 0.638E+00
   0.289E+02 -.168E+01 0.140E+04   -.301E+02 0.449E+01 -.140E+04   0.123E+01 -.352E+01 -.112E+00   -.246E-02 -.253E-01 -.518E+00
   0.312E+02 -.858E+02 -.139E+04   -.319E+02 0.867E+02 0.140E+04   0.519E+00 -.123E+01 -.312E+01   0.250E-03 0.688E-01 0.656E+00
   0.891E+01 0.236E+03 0.276E+04   -.933E+01 -.239E+03 -.277E+04   0.378E+00 0.157E+01 0.348E+01   0.456E-01 0.135E-01 -.721E-01
   0.398E+02 -.849E+02 0.270E+02   -.405E+02 0.862E+02 -.245E+02   0.663E+00 -.152E+01 -.281E+01   -.158E-01 0.922E-02 -.128E+00
   0.284E+02 -.272E+03 -.284E+04   -.289E+02 0.274E+03 0.284E+04   0.374E+00 -.115E+01 -.338E+01   0.518E-01 -.194E-01 0.976E-01
   0.730E+02 0.227E+03 0.212E+04   -.740E+02 -.230E+03 -.212E+04   0.106E+01 0.145E+01 0.559E+00   0.754E-02 -.207E-01 -.320E+00
   0.411E+02 0.168E+03 -.765E+03   -.420E+02 -.170E+03 0.764E+03   0.779E+00 0.284E+01 0.321E+00   -.115E-01 -.771E-01 0.437E+00
   0.410E+02 0.174E+03 0.645E+03   -.419E+02 -.176E+03 -.644E+03   0.809E+00 0.281E+01 -.300E+00   -.107E-01 -.705E-01 -.388E+00
[...]
   0.397E+02 0.161E+03 0.653E+03   -.407E+02 -.163E+03 -.653E+03   0.824E+00 0.272E+01 0.384E-01   0.852E-02 -.126E-01 -.373E+00
   -.104E+02 0.265E+03 -.224E+04   0.879E+01 -.268E+03 0.224E+04   0.180E+01 0.206E+01 -.169E+01   0.574E-01 -.825E-01 0.287E+00
   -.773E+01 -.281E+03 0.270E+04   0.727E+01 0.286E+03 -.270E+04   0.197E+00 -.327E+01 0.337E+01   0.101E-01 -.280E-01 -.165E+00
   0.400E+02 -.847E+02 -.145E+03   -.408E+02 0.858E+02 0.143E+03   0.656E+00 -.142E+01 0.286E+01   -.119E-01 0.372E-01 0.103E+00
   0.345E+02 -.766E+02 0.129E+04   -.351E+02 0.777E+02 -.129E+04   0.429E+00 -.140E+01 0.288E+01   -.617E-02 0.496E-01 -.466E+00
   0.512E+02 -.577E+02 -.166E+04   -.529E+02 0.592E+02 0.165E+04   0.149E+01 -.142E+01 0.238E+01   -.279E-01 0.560E-02 0.541E+00
   0.366E+02 -.114E+03 0.145E+04   -.379E+02 0.115E+03 -.145E+04   0.125E+01 -.179E+01 -.182E+01   -.469E-01 -.149E-02 -.469E+00
   0.475E+02 -.940E+02 -.139E+04   -.481E+02 0.950E+02 0.139E+04   0.537E+00 -.124E+01 -.300E+01   -.208E-02 0.175E-01 0.635E+00
   0.597E+01 0.150E+03 0.281E+04   -.599E+01 -.153E+03 -.282E+04   -.125E+00 0.821E+00 0.147E+01   -.418E-02 0.717E-01 0.502E-01
   0.395E+02 -.820E+02 0.320E+02   -.402E+02 0.829E+02 -.296E+02   0.679E+00 -.128E+01 -.264E+01   -.546E-02 0.508E-01 -.151E+00
   0.226E+02 0.276E+03 0.206E+04   -.246E+02 -.280E+03 -.206E+04   0.212E+01 0.271E+01 -.127E+00   -.902E-02 0.122E+00 -.370E+00
   0.378E+02 0.168E+03 -.767E+03   -.387E+02 -.170E+03 0.767E+03   0.713E+00 0.290E+01 0.197E+00   0.333E-02 -.144E-01 0.403E+00
   0.393E+02 0.161E+03 0.653E+03   -.402E+02 -.163E+03 -.653E+03   0.766E+00 0.277E+01 0.121E+00   -.148E-01 -.190E-01 -.375E+00
   0.927E+02 0.138E+03 -.237E+04   -.935E+02 -.140E+03 0.237E+04   0.724E+00 0.308E+01 0.933E+00   -.391E-01 -.643E-01 0.285E+00
   -.811E+02 0.181E+02 -.335E+02   0.909E-12 0.367E-11 -.136E-11   0.808E+02 -.184E+02 0.308E+02   0.272E+00 0.402E+00 0.288E+01

 POSITION                                       TOTAL-FORCE (eV/Angst)
      1.64370      0.18204      4.44331        -0.206514     -0.152539      0.562228
      1.64370      0.18204     14.02172         0.130719      0.027720     -0.578413
      0.59727      2.94708      9.23251         0.075371      0.203288     -0.376054
      0.82459      2.91781     18.57243        -1.230806     -0.458331      0.338278
      2.01000      0.26784      2.08122        -2.466696     -0.095490      0.852270
      1.64370      0.18204     11.49105         0.091803      0.203634      0.266272
      0.59727      2.94708      6.70184         0.121185      0.133863      0.713947
      0.59727      2.94708     16.28025        -0.036036      0.259145     -1.246292
      1.77440      2.51773      3.52284        -1.423488     -0.194089     -0.250204
      1.64370      2.37366     12.75638         0.218345     -0.343382     -0.087578
      3.73655      5.13871      7.96718         0.204304     -0.359849      0.095332
      3.64370      5.21435     17.31028         1.244455      0.066312     -0.084586
      4.78298      0.18204      4.44331         0.288332     -0.250190      0.569222
      4.78298      0.18204     14.02172         0.090543      0.115203     -0.599513
      3.73655      2.94708      9.23251         0.068491      0.205882     -0.359848
      3.52574      3.01039     18.60320         1.357888     -0.578456      0.360796
      4.52448      0.27533      2.05103         2.632609      0.002803      1.013173
      4.78298      0.18204     11.49105         0.082738      0.191642      0.284290
      3.73655      2.94708      6.70184         0.129037      0.031114      0.678596
      3.73655      2.94708     16.28025         0.115620     -0.015086     -1.026789
      4.76834      2.49997      3.50373         1.174470     -0.334496     -0.193729
      4.78298      2.37366     12.75638         0.198376     -0.321319     -0.110786
      6.87583      5.13871      7.96718         0.200669     -0.379209      0.098165
      7.01008      5.27130     17.22319        -1.418829     -0.505933      0.287964
      2.69013      5.71213      4.44331         0.006272      0.147275      0.426281
      2.69013      5.71213     14.02172         0.134672      0.029517     -0.587575
      1.64370      8.47718      9.23251         0.111435      0.176336     -0.350509
      1.87101      8.44790     18.57243        -1.232254     -0.456565      0.341031
      2.69013      5.71213      1.91264         0.126072      0.213150      2.324434
      2.69013      5.71213     11.49105         0.096866      0.206247      0.289386
      1.64370      8.47718      6.70184         0.080057      0.132726      0.411090
      1.64370      8.47718     16.28025        -0.035682      0.257585     -1.238236
      2.69013      7.90376      3.17797        -0.160947      0.355107      2.443361
      2.69013      7.90376     12.75638         0.223225     -0.344122     -0.082956
      4.78298     10.66881      7.96718         0.159925     -0.404690      0.023271
      4.69013     10.74445     17.31028         1.247288      0.068192     -0.083136
      5.82941      5.71213      4.44331        -0.019099      0.131065      0.488029
      5.82941      5.71213     14.02172         0.092109      0.118939     -0.603543
      4.78298      8.47718      9.23251         0.095301      0.159390     -0.344128
      4.57216      8.54049     18.60320         1.357640     -0.577160      0.360690
      5.82941      5.71213      1.91264         0.127539      0.227042      2.267820
      5.82941      5.71213     11.49105         0.098172      0.189543      0.300316
      4.78298      8.47718      6.70184         0.115785      0.158235      0.455774
      4.78298      8.47718     16.28025         0.115885     -0.014823     -1.020556
      5.82941      7.90376      3.17797        -0.132469      0.365309      2.501550
      5.82941      7.90376     12.75638         0.211335     -0.321793     -0.105279
      7.92226     10.66881      7.96718         0.187636     -0.372907      0.056361
      8.05651     10.80140     17.22319        -1.417979     -0.504440      0.289727
      3.26207      1.95906      2.09950        -0.269060      2.076473     -2.596164
      3.28961      1.84282     11.14515        -0.110979     -0.258945      0.473947
      2.24318      4.60787      6.35595        -0.118761     -0.368880      0.283289
      2.24318      4.60787     15.93436         0.182828     -0.493034     -2.343126
      3.28961      1.84282      4.78920         0.099529     -0.737420      2.423818
      3.28961      1.84282     14.36761        -0.173773     -0.342232     -0.299854
      1.11822      5.07538      0.71439         0.001491     -1.816166     -3.763814
      2.24318      4.60787      9.57841        -0.104163     -0.254313     -0.413831
      2.12536      4.52408     18.66777        -0.108698      1.464490      3.197114
      1.19676      4.58218      3.17797         0.014483     -1.042419      1.184989
      1.19676      4.58218     12.75638        -0.135418      0.602605      0.124380
      2.24318      1.81714      7.96718        -0.132720      0.586885     -0.129102
[...]
      2.24318     10.11228     12.75638        -0.134027      0.601099      0.123047
      3.28961      7.34723      7.96718        -0.129960      0.532566     -0.036148
      3.28961      7.34723     17.54559         0.246031     -0.995078     -0.530822
      7.39707      7.23926      1.98108        -0.257853      2.080140     -3.422176
      7.47532      7.37292     11.14515        -0.130061     -0.277221      0.439553
      6.42889     10.13797      6.35595        -0.142209     -0.230765      0.222995
      6.42889     10.13797     15.93436        -0.297016      0.167987      0.709473
      7.47532      7.37292      4.78920        -0.097384     -0.097584      0.528550
      7.47532      7.37292     14.36761        -0.085600     -0.211302     -0.302934
      5.34895     10.78891      0.59257        -0.156042     -1.770646     -3.909267
      6.42889     10.13797      9.57841        -0.079558     -0.265071     -0.424388
      5.38246     10.11228      3.17797         0.193703     -0.858583      1.513566
      5.38246     10.11228     12.75638        -0.208561      0.611438      0.048514
      6.42889      7.34723      7.96718        -0.155304      0.548212     -0.058950
      6.42889      7.34723     17.54559        -0.068945      1.131925      1.179601
    total drift:                               -0.048310      0.090357      0.208510

  FREE ENERGIE OF THE ION-ELECTRON SYSTEM (eV)
  free  energy   TOTEN  =      -476.43749786 eV

  energy  without entropy=     -475.08146727  energy(sigma->0) =     -475.75948257