 vasp.5.4.4.18Apr17-6-g9f103f2a35 (build Aug 13 2019 17:33:20) gamma-only

 executed on             LinuxIFC date 2020.05.12  03:29:33

 INCAR:
 POTCAR:    PAW_PBE Ni_pv 06Sep2000
 POTCAR:    PAW_PBE S 06Sep2000
 POTCAR:    PAW_PBE Ni_pv 06Sep2000
   VRHFIN =Ni:

   TITEL  = PAW_PBE Ni_pv 06Sep2000
   POMASS =   58.690; ZVAL   =   16.000    mass and valenz
   ENMAX  =  367.986; ENMIN  =  275.989 eV

 POTCAR:    PAW_PBE S 06Sep2000
   VRHFIN =S : s2p4

   TITEL  = PAW_PBE S 06Sep2000
   POMASS =   32.066; ZVAL   =    6.000    mass and valenz
   ENMAX  =  258.689; ENMIN  =  194.016 eV

 Optimization of the real space projectors (new method)

 maximal supplied QI-value         = 18.90
 optimisation between [QCUT,QGAM] = [ 10.77, 21.73] = [ 32.49,132.25] Ry
 Optimized for a Real-space Cutoff    1.38 Angstroem

   l    n(q)    QCUT    max X(q) W(low)/X(q) W(high)/X(q)  e(spline)
   1      8    10.771     2.836    0.40E-04    0.29E-04    0.12E-06
   1      8    10.771     4.023    0.10E-03    0.48E-04    0.29E-06
   2      8    10.771    73.368    0.42E-03    0.97E-04    0.44E-06
   2      8    10.771    69.010    0.42E-03    0.99E-04    0.45E-06
   0      9    10.771    54.797    0.10E-03    0.56E-04    0.74E-07
   0      9    10.771    24.266    0.89E-04    0.49E-04    0.67E-07
 Optimization of the real space projectors (new method)

 maximal supplied QI-value         = 19.84
 optimisation between [QCUT,QGAM] = [ 10.71, 21.63] = [ 32.15,130.99] Ry
 Optimized for a Real-space Cutoff    1.19 Angstroem

   l    n(q)    QCUT    max X(q) W(low)/X(q) W(high)/X(q)  e(spline)
   0      8    10.715   187.594    0.41E-03    0.53E-04    0.66E-07
   0      8    10.715   164.243    0.41E-03    0.53E-04    0.65E-07
   1      7    10.715    67.533    0.19E-03    0.59E-03    0.68E-07
   1      7    10.715    50.729    0.19E-03    0.58E-03    0.67E-07
  PAW_PBE Ni_pv 06Sep2000               :
  PAW_PBE S 06Sep2000                   :

 POSCAR: Type_037 Type_137
  positions in cartesian coordinates
 exchange correlation table for  LEXCH =        8
   RHO(1)=    0.500       N(1)  =     2000
   RHO(2)=  100.500       N(2)  =     4000

 ion  position               nearest neighbor table
   1  0.780  0.145  0.123-  65 2.06  51 2.09  42 2.25  52 2.36  66 2.36
   2  0.813  0.145  0.292-  66 2.08  52 2.08  43 2.16  38 2.19
   3  0.218  0.662  0.098-  44 2.02  45 2.09  53 2.19   4 2.38  63 2.41  16 2.45
   4  0.297  0.645  0.216-  64 2.14  46 2.17  54 2.25  53 2.26  63 2.26   3 2.38  45 2.44  17 2.53
                            28 2.53
   5  0.391  0.163  0.127-  47 2.05  48 2.08  55 2.18   6 2.40  69 2.41  30 2.44
   6  0.470  0.145  0.247-  56 2.11  70 2.12  55 2.26  69 2.26  48 2.27   5 2.40  31 2.53  20 2.53

   7  0.952  0.645  0.154-  68 2.09  58 2.11  67 2.11  49 2.25  57 2.36   8 2.37  25 2.45  32 2.53
                            21 2.53
   8  0.947  0.639  0.297-  50 2.00  57 2.09  67 2.10   7 2.37
   9  0.170  0.143  0.049-  47 2.01  59 2.06  73 2.09  10 2.40
  10  0.125  0.145  0.185-  74 2.06  59 2.11  73 2.11  39 2.25   9 2.40  11 2.45  22 2.53  34 2.53

  11  0.046  0.131  0.308-  74 2.05  38 2.16  39 2.28  15 2.33  26 2.42  10 2.45
  12  0.570  0.663  0.161-  40 1.99  61 2.09  41 2.19  13 2.31  71 2.34
  13  0.642  0.645  0.278-  62 2.03  72 2.03  41 2.25  61 2.26  71 2.26  12 2.31  37 2.53  24 2.53

[...]

  25  0.908  0.404  0.134-  68 2.04  52 2.09  51 2.11  67 2.22   7 2.45  23 2.46  26 2.52
  26  0.941  0.287  0.265-  38 2.05  52 2.09  39 2.10  67 2.12  11 2.42  25 2.52
  27  0.478  0.848  0.056-  40 2.02  69 2.04  19 2.50  28 2.53
  28  0.425  0.777  0.192-  54 2.04  69 2.25  40 2.26  53 2.26  41 2.36  29 2.51  27 2.53   4 2.53
                            17 2.53
  29  0.468  0.819  0.334-  70 2.00  54 2.02  41 2.04  28 2.51
  30  0.530  0.144  0.091-  42 2.03  69 2.06  55 2.08   5 2.44  19 2.47
  31  0.597  0.277  0.222-  56 2.07  43 2.15  71 2.25  55 2.26  42 2.26  20 2.53   6 2.53
  32  0.080  0.777  0.130-  44 2.08  73 2.08  58 2.10  45 2.17  33 2.35  57 2.36   7 2.53  21 2.53

[...]

  38  0.927  0.142  0.355-  26 2.05  15 2.06  11 2.16   2 2.19
  39  0.991  0.145  0.183-  26 2.10  15 2.14  14 2.25  10 2.25  11 2.28
  40  0.474  0.645  0.091-  12 1.99  16 2.01  27 2.02  17 2.26  28 2.26
  41  0.509  0.645  0.276-  29 2.04  18 2.08  12 2.19  13 2.25  28 2.36  17 2.36
  42  0.647  0.145  0.122-  30 2.03  19 2.17   1 2.25  20 2.26  31 2.26  43 2.66
  43  0.687  0.147  0.276-  31 2.15   2 2.16  20 2.17  42 2.66
  44  0.115  0.647  0.036-   3 2.02  32 2.08  21 2.10  68 2.66
  45  0.153  0.645  0.205-   3 2.09  46 2.14  21 2.16  32 2.17  33 2.20   4 2.44
  46  0.217  0.732  0.305-  33 2.05  45 2.14   4 2.17  54 2.49
  47  0.288  0.143  0.063-   9 2.01   5 2.05  22 2.14  34 2.17
  48  0.337  0.115  0.236-  35 2.06   5 2.08  22 2.14   6 2.27  34 2.46  60 2.79
  49  0.819  0.645  0.153-   7 2.25  24 2.26  37 2.26  23 2.29  36 2.47
  50  0.833  0.645  0.330-   8 2.00  24 2.08  37 2.09  62 2.78
  51  0.831  0.303  0.053-  23 2.02   1 2.09  25 2.11  52 2.69
  52  0.829  0.314  0.215-   2 2.08  25 2.09  26 2.09  23 2.23  24 2.25   1 2.36  51 2.69
  53  0.312  0.814  0.122-  16 2.04   3 2.19  22 2.25   4 2.26  28 2.26
  54  0.356  0.811  0.291-  29 2.02  28 2.04   4 2.25  46 2.49  64 2.76
  55  0.484  0.314  0.153-  30 2.08   5 2.18  17 2.25   6 2.26  31 2.26
  56  0.531  0.276  0.327-  18 2.00  31 2.07   6 2.11  70 2.65
  57  0.001  0.814  0.246-  15 2.07   8 2.09  33 2.29  32 2.36   7 2.36
  58  0.968  0.823  0.081-  14 2.07  32 2.10   7 2.11
  59  0.140  0.321  0.110-   9 2.06  10 2.11  21 2.12  34 2.12
  60  0.238  0.338  0.276-  34 2.02  35 2.08  64 2.75  48 2.79
  61  0.657  0.814  0.184-  19 2.09  12 2.09  36 2.18  20 2.25  37 2.26  13 2.26  62 2.79
  62  0.693  0.795  0.347-  13 2.03  37 2.04  50 2.78  61 2.79
  63  0.312  0.477  0.122-  16 2.06  34 2.25   4 2.26  17 2.26   3 2.41
  64  0.359  0.523  0.304-  18 2.05  35 2.07   4 2.14  17 2.18  60 2.75  54 2.76
  65  0.816  0.003  0.038-  36 2.03  14 2.05   1 2.06
  66  0.829  0.977  0.215-  15 2.05   2 2.08  14 2.11  36 2.15  37 2.25   1 2.36
  67  0.993  0.478  0.226-   8 2.10   7 2.11  26 2.12  21 2.20  25 2.22
  68  0.979  0.514  0.057-  25 2.04   7 2.09  21 2.10  44 2.66
  69  0.484  0.977  0.153-  27 2.04  30 2.06  28 2.25   6 2.26  20 2.26   5 2.41  19 2.48
  70  0.526  1.000  0.324-  29 2.00  20 2.08   6 2.12  56 2.65
  71  0.657  0.477  0.184-  23 2.13  31 2.25  24 2.26  13 2.26  12 2.34  72 2.74
  72  0.691  0.490  0.345-  13 2.03  24 2.04  71 2.74
  73  0.141  0.965  0.114-  32 2.08   9 2.09  22 2.09  10 2.11  33 2.49
  74  0.158  0.054  0.292-  33 2.04  11 2.05  10 2.06

  LATTYP: Found a simple orthorhombic cell.
 ALAT       =     9.5784100000
 B/A-ratio  =     1.7387693453
 C/A-ratio  =     1.7627867312

  Lattice vectors:

 A1 = (   0.0000000000,   9.5784100000,   0.0000000000)
 A2 = (   0.0000000000,   0.0000000000, -16.6546456851)
 A3 = ( -16.8846940542,   0.0000000000,   0.0000000000)

Analysis of symmetry for initial positions (statically):
 Subroutine PRICEL returns:
 Original cell was already a primitive cell.

 Routine SETGRP: Setting up the symmetry group for a
 simple orthorhombic supercell.

 Subroutine GETGRP returns: Found  1 space group operations
 (whereof  1 operations were pure point group operations)
 out of a pool of  8 trial point group operations.

The static configuration has the point symmetry C_1 .

Analysis of symmetry for dynamics (positions and initial velocities):
 Subroutine PRICEL returns:
 Original cell was already a primitive cell.

 Routine SETGRP: Setting up the symmetry group for a
 simple orthorhombic supercell.

 Subroutine GETGRP returns: Found  1 space group operations
 (whereof  1 operations were pure point group operations)
 out of a pool of  8 trial point group operations.

The dynamic configuration has the point symmetry C_1 .

 Subroutine INISYM returns: Found  1 space group operations
 (whereof  1 operations are pure point group operations),
 and found     1 'primitive' translations

 KPOINTS: gamma-point-only calculation. no periodi

Automatic generation of k-mesh.
Space group operators:
 irot       det(A)        alpha          n_x          n_y          n_z        tau_x        tau_y        tau_z
    1     1.000000     0.000000     1.000000     0.000000     0.000000     0.000000     0.000000     0.000000

 Subroutine IBZKPT returns following result:

 Found      1 irreducible k-points:

 Following reciprocal coordinates:
            Coordinates               Weight
  0.000000  0.000000  0.000000      1.000000

 Following cartesian coordinates:
            Coordinates               Weight
  0.000000  0.000000  0.000000      1.000000

 SYSTEM =  "Millerite NiS"
 POSCAR =  Type_037 Type_137

 Startparameter for this run:
   NWRITE =      2    write-flag & timer
   PREC   = normal    normal or accurate (medium, high low for compatibility)
   ISTART =      0    job   : 0-new  1-cont  2-samecut
   ICHARG =      2    charge: 1-file 2-atom 10-const
   ISPIN  =      1    spin polarized calculation?
   LNONCOLLINEAR =      F non collinear calculations
   LSORBIT =      F    spin-orbit coupling
   INIWAV =      1    electr: 0-lowe 1-rand  2-diag
   LASPH  =      F    aspherical Exc in radial PAW
   METAGGA=      F    non-selfconsistent MetaGGA calc.

 Electronic Relaxation 1
   ENCUT  =  450.0 eV  33.07 Ry    5.75 a.u.  29.20 16.57 28.81*2*pi/ulx,y,z
   ENINI  =  450.0     initial cutoff
   ENAUG  =  703.4 eV  augmentation charge cutoff
   NELM   =    100;   NELMIN=  2; NELMDL= -5     # of ELM steps
   EDIFF  = 0.1E-03   stopping-criterion for ELM
   LREAL  =      T    real-space projection
   NLSPLINE    = F    spline interpolate recip. space projectors
   LCOMPAT=      F    compatible to vasp.4.4
   GGA_COMPAT  = T    GGA compatible to vasp.4.4-vasp.4.6
   LMAXPAW     = -100 max onsite density
   LMAXMIX     =    2 max onsite mixed and CHGCAR
   VOSKOWN=      0    Vosko Wilk Nusair interpolation
   ROPT   =   -0.00050  -0.00050
 Ionic relaxation
   EDIFFG = 0.1E-02   stopping-criterion for IOM
   NSW    =      0    number of steps for IOM
   NBLOCK =      1;   KBLOCK =      1    inner block; outer block
   IBRION =     -1    ionic relax: 0-MD 1-quasi-New 2-CG
   NFREE  =      0    steps in history (QN), initial steepest desc. (CG)
   ISIF   =      2    stress and relaxation
   IWAVPR =     10    prediction:  0-non 1-charg 2-wave 3-comb
   ISYM   =      2    0-nonsym 1-usesym 2-fastsym
   LCORR  =      T    Harris-Foulkes like correction to forces

   POTIM  = 0.5000    time-step for ionic-motion
   TEIN   =    0.0    initial temperature
   TEBEG  =    0.0;   TEEND  =   0.0 temperature during run
   SMASS  =  -3.00    Nose mass-parameter (am)
   estimated Nose-frequenzy (Omega)   =  0.10E-29 period in steps =****** mass=  -0.652E-26a.u.
   SCALEE = 1.0000    scale energy and forces
   NPACO  =    256;   APACO  = 16.0  distance and # of slots for P.C.
   PSTRESS=    0.0 pullay stress

  Mass of Ions in am
   POMASS =  58.69 32.07
  Ionic Valenz
   ZVAL   =  16.00  6.00
  Atomic Wigner-Seitz radii
  virtual crystal weights
   VCA    =   1.00  1.00
[...]
     0.000000000  9.578410000  0.000000000     0.000000000  0.104401461  0.000000000
     0.000000000  0.000000000 16.654645685     0.000000000  0.000000000  0.060043307

  length of vectors
    16.884694054  9.578410000 16.654645685     0.059225237  0.104401461  0.060043307

 FORCES acting on ions
    electron-ion (+dipol)            ewald-force                    non-local-force                 convergence-correction
   0.223E+03 -.313E+03 0.206E+04   -.225E+03 0.315E+03 -.206E+04   0.133E+01 -.191E+01 0.601E+01   0.293E+00 -.100E-02 0.106E+00
   0.481E+03 -.573E+02 -.307E+04   -.485E+03 0.565E+02 0.307E+04   0.326E+01 0.685E+00 -.310E+01   0.623E-01 0.808E-01 0.104E+00
   0.249E+03 0.132E+03 0.267E+04   -.248E+03 -.132E+03 -.267E+04   0.129E+00 -.711E+00 0.674E+01   -.263E+00 -.253E-01 -.485E-01
   0.792E+03 0.786E+02 -.143E+04   -.791E+03 -.804E+02 0.143E+04   0.718E-01 0.187E+01 -.383E+00   -.441E+00 -.362E-01 0.580E-01
   0.193E+03 -.579E+02 0.235E+04   -.191E+03 0.587E+02 -.236E+04   -.736E+00 -.113E+01 0.530E+01   -.372E+00 0.111E+00 0.763E-01
   0.342E+03 0.176E+03 -.212E+04   -.344E+03 -.176E+03 0.212E+04   0.129E+01 0.134E+00 -.652E+01   -.204E+00 0.185E+00 0.308E+00
   0.268E+03 -.234E+03 0.118E+04   -.275E+03 0.239E+03 -.118E+04   0.518E+01 -.332E+01 0.191E+01   0.952E-01 -.231E-01 0.924E-01
   -.499E+03 0.887E+02 -.333E+04   0.497E+03 -.877E+02 0.333E+04   0.389E+01 -.760E+00 0.766E+00   -.716E-01 -.706E-02 -.160E-02
   0.511E+03 -.827E+02 0.403E+04   -.513E+03 0.833E+02 -.403E+04   0.111E+01 -.987E+00 0.331E+01   -.584E-01 0.275E-01 -.271E-01
   0.419E+03 -.430E+03 -.146E+03   -.423E+03 0.433E+03 0.148E+03   0.213E+01 -.250E+01 -.184E+01   -.953E-02 -.583E-02 0.414E-01
   -.690E+03 -.326E+03 -.346E+04   0.693E+03 0.325E+03 0.346E+04   -.330E+01 0.190E+01 -.107E+01   0.735E-02 0.239E-01 0.185E+00
   -.479E+03 0.523E+03 0.153E+04   0.482E+03 -.525E+03 -.154E+04   -.313E+01 0.131E+01 0.254E+01   0.227E+00 -.211E+00 0.895E-01
   0.107E+03 0.125E+03 -.247E+04   -.110E+03 -.125E+03 0.248E+04   0.171E+01 0.184E+00 -.727E+01   0.633E+00 -.311E+00 0.699E+00
   -.555E+03 -.586E+02 0.251E+04   0.561E+03 0.564E+02 -.252E+04   -.462E+01 0.323E+01 0.560E+01   -.314E-01 -.383E-01 -.104E-02
   -.134E+03 0.595E+03 -.216E+04   0.138E+03 -.601E+03 0.216E+04   -.420E+01 0.505E+01 -.283E+01   -.547E-01 -.917E-01 0.641E-01
   0.583E+02 0.312E+03 0.393E+04   -.604E+02 -.313E+03 -.394E+04   0.211E+01 0.795E+00 0.440E+01   -.286E+00 -.612E-01 -.320E+00
   -.251E+03 0.333E+03 0.436E+03   0.251E+03 -.335E+03 -.438E+03   0.522E+00 0.323E+01 0.455E+00   -.354E+00 -.223E+00 -.118E-01
   -.136E+03 0.745E+02 -.385E+04   0.141E+03 -.789E+02 0.385E+04   -.436E+01 0.494E+01 0.112E+01   0.187E-02 -.206E+00 0.318E+00
   -.532E+03 0.276E+03 0.338E+04   0.531E+03 -.276E+03 -.338E+04   0.109E+01 -.536E+00 0.284E+01   0.358E+00 0.648E-01 -.167E+00
   -.485E+03 0.172E+03 -.139E+04   0.489E+03 -.176E+03 0.140E+04   -.294E+01 0.409E+01 -.563E+01   0.256E+00 0.179E+00 0.431E+00
   -.208E+03 0.682E+03 0.135E+04   0.207E+03 -.688E+03 -.135E+04   0.130E+01 0.552E+01 0.173E+01   -.160E+00 0.825E-01 0.532E-01
   -.120E+03 0.472E+03 0.399E+03   0.122E+03 -.476E+03 -.400E+03   -.480E+00 0.277E+01 0.125E+01   -.250E+00 0.121E-01 0.658E-01
   0.558E+03 -.231E+03 0.268E+04   -.561E+03 0.233E+03 -.268E+04   0.211E+01 -.106E+01 0.633E+01   0.278E+00 -.641E-01 0.694E-01
   -.211E+03 0.375E+03 -.182E+04   0.213E+03 -.378E+03 0.183E+04   -.179E+01 0.307E+01 -.419E+01   0.135E+00 0.109E-01 0.515E+00
   -.302E+03 0.222E+03 0.201E+04   0.304E+03 -.224E+03 -.202E+04   -.139E+01 0.736E+00 0.707E+01   0.186E+00 0.102E+00 0.899E-01
   -.406E+03 -.610E+03 -.220E+04   0.411E+03 0.613E+03 0.221E+04   -.392E+01 -.161E+01 -.361E+01   -.684E-01 0.155E+00 0.530E-01
   0.499E+02 -.558E+02 0.398E+04   -.442E+02 0.569E+02 -.398E+04   -.521E+01 -.365E+00 -.878E+00   -.375E+00 -.512E-01 -.450E+00
   0.198E+03 -.444E+03 -.207E+03   -.197E+03 0.447E+03 0.206E+03   0.554E+00 -.285E+01 -.883E+00   -.446E+00 0.946E-01 -.430E-01
   0.185E+03 -.217E+03 -.393E+04   -.184E+03 0.221E+03 0.392E+04   -.167E+01 -.448E+01 0.162E+01   -.838E-01 0.302E-01 0.294E+00
   -.160E+03 -.704E+03 0.351E+04   0.160E+03 0.705E+03 -.352E+04   -.160E+00 -.106E+01 0.608E+01   -.781E-01 0.270E+00 -.171E+00
   -.562E+03 -.580E+03 -.765E+03   0.565E+03 0.586E+03 0.767E+03   -.254E+01 -.515E+01 -.332E+01   0.256E+00 0.174E+00 0.343E+00
   0.180E+03 -.320E+03 0.180E+04   -.184E+03 0.324E+03 -.181E+04   0.330E+01 -.325E+01 0.468E+01   -.127E+00 -.918E-01 0.107E+00
   -.744E+02 0.155E+03 -.237E+04   0.737E+02 -.151E+03 0.238E+04   -.152E+00 -.339E+01 -.593E+01   -.165E+00 -.984E-01 0.464E-01
   0.390E+03 -.552E+03 0.656E+03   -.392E+03 0.555E+03 -.658E+03   0.247E+01 -.343E+01 0.964E-01   -.171E+00 0.788E-01 0.480E-01
   0.605E+03 0.184E+03 -.235E+04   -.605E+03 -.183E+03 0.235E+04   0.116E+01 -.193E+01 -.354E+01   -.327E+00 -.177E+00 0.124E+00
   -.739E+02 0.517E+03 0.246E+04   0.710E+02 -.519E+03 -.247E+04   0.181E+01 0.112E+01 0.726E+01   0.499E+00 0.162E-01 0.110E+00
   -.355E+03 -.303E+03 -.180E+04   0.357E+03 0.306E+03 0.180E+04   -.215E+01 -.234E+01 -.487E+01   0.351E+00 -.667E-01 0.243E+00
   0.114E+02 -.324E+02 -.178E+04   -.113E+02 0.328E+02 0.179E+04   0.338E-01 -.194E+00 -.217E+01   -.412E-01 0.411E-01 0.933E-01
   -.146E+03 -.119E+03 0.447E+03   0.146E+03 0.122E+03 -.453E+03   0.165E+01 -.283E+01 0.367E+01   -.135E-01 0.413E-01 -.156E-01
   -.253E+03 0.369E+03 0.130E+04   0.256E+03 -.371E+03 -.131E+04   -.188E+01 0.519E+00 0.238E+01   -.175E+00 -.601E-01 -.219E+00
   -.105E+03 0.313E+02 -.955E+03   0.107E+03 -.313E+02 0.959E+03   0.231E+00 -.314E+00 -.333E+01   0.441E-01 -.650E-01 0.173E+00
   -.262E+03 -.299E+03 0.916E+03   0.264E+03 0.301E+03 -.920E+03   -.409E+00 -.273E+01 0.202E+01   0.221E+00 0.120E+00 0.303E-02
   -.107E+03 -.370E+02 -.106E+04   0.107E+03 0.370E+02 0.107E+04   -.242E+00 -.243E+00 -.146E+01   0.177E+00 0.652E-01 0.115E+00
   0.859E+02 0.433E+02 0.169E+04   -.852E+02 -.429E+02 -.170E+04   -.568E+00 -.465E+00 0.273E+01   -.626E-01 -.621E-02 -.135E-01
   0.363E+02 0.283E+03 -.607E+03   -.409E+02 -.288E+03 0.608E+03   0.522E+01 0.447E+01 0.122E+00   -.109E+00 0.175E-01 0.229E-01
   0.792E+02 0.929E+02 -.143E+04   -.786E+02 -.934E+02 0.144E+04   0.846E-01 0.259E+00 -.453E+01   -.136E+00 0.195E-01 0.584E-01
   -.141E+03 -.993E+01 0.154E+04   0.143E+03 0.107E+02 -.155E+04   -.563E+00 -.691E+00 0.245E+01   -.977E-01 0.322E-01 -.307E-01
   0.216E+03 0.269E+03 -.908E+03   -.217E+03 -.273E+03 0.913E+03   0.128E+01 0.249E+01 -.289E+01   -.111E+00 0.644E-01 0.744E-01
   -.494E+01 -.671E+02 0.713E+03   0.553E+01 0.678E+02 -.717E+03   -.882E+00 -.313E+00 0.242E+01   0.143E+00 0.400E-01 0.472E-01
   -.121E+03 -.313E+00 -.154E+04   0.124E+03 0.766E-01 0.154E+04   -.215E+01 0.160E+00 -.246E+01   0.255E-01 -.169E-01 0.744E-01
   -.701E+02 0.106E+02 0.163E+04   0.712E+02 -.102E+02 -.163E+04   -.474E+00 -.491E+00 0.404E+01   0.646E-01 -.386E-01 -.195E-01
   0.102E+03 -.174E+02 -.311E+03   -.103E+03 0.181E+02 0.313E+03   -.506E+00 0.541E+00 -.158E+01   0.503E-01 -.440E-01 0.701E-01
   0.134E+03 -.316E+03 0.749E+03   -.135E+03 0.319E+03 -.751E+03   0.136E-01 -.126E+01 0.152E+01   -.127E+00 0.833E-02 -.428E-01
   0.419E+03 -.231E+03 -.126E+04   -.419E+03 0.236E+03 0.126E+04   -.160E+01 -.343E+01 -.661E+00   -.193E+00 0.342E-01 0.658E-01
   -.121E+03 -.327E+03 0.694E+03   0.123E+03 0.331E+03 -.697E+03   -.180E+01 -.205E+01 0.305E+01   -.357E-01 -.692E-03 0.278E-01
   -.157E+03 0.757E+02 -.156E+04   0.159E+03 -.739E+02 0.156E+04   -.145E+01 -.145E+01 -.205E+01   0.541E-01 -.298E-01 0.116E+00
   -.939E+02 0.262E+02 -.724E+03   0.929E+02 -.245E+02 0.727E+03   0.179E+01 -.209E+01 -.161E+01   0.277E-01 -.113E+00 0.290E-02
   0.738E+02 -.671E+02 0.134E+04   -.750E+02 0.668E+02 -.135E+04   0.711E+00 0.741E+00 0.441E+01   0.294E-01 -.714E-01 0.247E-01
   0.207E+03 -.231E+03 0.834E+03   -.208E+03 0.232E+03 -.837E+03   0.273E+00 0.278E+00 0.200E+01   -.119E-01 0.669E-01 0.173E-01
   0.410E+03 -.122E+03 -.125E+04   -.414E+03 0.123E+03 0.125E+04   0.299E+01 -.107E+00 -.663E+00   -.334E-01 -.149E-01 0.714E-02
   -.113E+03 0.713E+02 0.115E+03   0.112E+03 -.700E+02 -.115E+03   0.132E+01 -.283E+00 0.145E+00   0.307E+00 0.878E-02 0.149E+00
   -.842E+01 -.248E+03 -.162E+04   0.710E+01 0.252E+03 0.163E+04   0.732E+00 -.176E+01 -.106E+01   0.147E+00 -.689E-01 0.108E+00
   0.163E+03 0.263E+03 0.872E+03   -.164E+03 -.264E+03 -.875E+03   0.149E+00 0.103E+01 0.216E+01   -.143E+00 -.577E-01 -.491E-01
   0.417E+03 -.897E+02 -.147E+04   -.418E+03 0.908E+02 0.147E+04   0.570E-01 -.186E+01 -.418E+01   -.165E+00 -.714E-01 0.103E+00
   -.511E+02 0.336E+02 0.175E+04   0.511E+02 -.344E+02 -.175E+04   -.271E+00 0.164E+00 0.215E+01   0.494E-01 0.153E-01 -.521E-02
   0.658E+02 0.109E+03 -.347E+03   -.664E+02 -.110E+03 0.350E+03   -.106E+01 -.917E+00 -.202E+01   -.132E-01 0.780E-02 0.244E-01
   -.348E+03 0.125E+03 -.632E+03   0.351E+03 -.125E+03 0.636E+03   -.192E+01 -.844E+00 -.186E+01   -.135E-01 0.714E-01 0.625E-02
   0.365E+02 0.885E+02 0.161E+04   -.387E+02 -.898E+02 -.161E+04   0.184E+01 0.513E+00 0.358E+01   0.180E-01 0.316E-01 0.300E-01
   0.168E+03 0.553E+02 0.320E+03   -.170E+03 -.580E+02 -.318E+03   0.121E+01 0.189E+01 -.192E+01   -.132E+00 0.489E-01 0.530E-01
   -.700E+02 -.652E+02 -.153E+04   0.716E+02 0.636E+02 0.153E+04   -.140E+01 0.125E+01 -.209E+01   0.269E-01 0.128E+00 0.135E+00
   0.946E+02 0.108E+03 0.372E+03   -.969E+02 -.110E+03 -.375E+03   0.836E+00 0.143E+01 0.186E+01   0.152E+00 -.962E-01 0.126E+00
   0.986E+00 0.270E+03 -.158E+04   -.220E+01 -.273E+03 0.158E+04   0.764E+00 0.193E+01 -.126E+01   0.959E-01 -.162E-01 0.135E+00
   0.181E+03 0.114E+03 0.943E+03   -.181E+03 -.114E+03 -.947E+03   -.857E+00 -.140E+00 0.246E+01   -.434E-01 -.693E-01 0.281E-01
   -.298E+03 -.652E+02 -.136E+04   0.301E+03 0.662E+02 0.136E+04   -.122E+01 -.170E+00 -.192E+01   -.155E-01 -.512E-01 0.555E-01
   0.498E+01 0.913E+01 -.297E+02   -.125E-11 0.952E-12 0.205E-11   -.431E+01 -.908E+01 0.247E+02   -.797E+00 -.120E+00 0.504E+01

 POSITION                                       TOTAL-FORCE (eV/Angst)
     13.17084      1.39171      2.05636         0.097211      0.494754      1.158715
     13.73132      1.39019      4.85809        -0.610104     -0.103158      0.612727
      3.67773      6.33753      1.63475         1.265228     -0.374499     -0.191479
      5.02033      6.18092      3.59863         0.172685      0.057902      0.034673
      6.59799      1.55664      2.12154         0.718870     -0.255895     -0.602514
      7.93172      1.39171      4.11272        -0.903320      0.166239     -0.240944
     16.08224      6.18092      2.57045        -0.926005      1.358683      0.046975
     15.98574      6.12167      4.94170         0.954141      0.214962      0.767413
      2.86973      1.36839      0.81176        -1.084250     -0.276842     -1.575029
      2.10894      1.39171      3.08454        -1.384925      0.721305      0.301772
      0.78044      1.25612      5.13347        -0.045449      0.464237      0.132705
      9.61901      6.34994      2.67448         0.777210     -0.503461     -0.491795
     10.84312      6.18092      4.62682        -0.709218     -0.437742     -0.751429
     15.34518      0.00385      1.97078         0.729496      0.985447      0.106543
     15.86526      9.55315      4.40364        -0.196919     -0.877726     -0.104576
      6.04870      6.19055      1.03978        -0.237417     -0.000222     -1.621277
      7.17375      4.91558      3.19116         0.545043      0.290051     -1.346630
      7.97302      4.38260      5.44677        -0.057745      0.434991      0.740457
     10.37016      8.94110      1.47180         0.028132     -0.224092     -0.953435
     10.08514      0.12638      3.70525         0.686983      0.065268     -0.220182
      1.35096      4.91558      2.16298         0.130196     -0.789394      0.215222
      4.26235      0.12638      2.67707         0.711413     -0.911270      0.639698
     12.90048      4.15911      2.01281        -0.726558      0.896876      0.069947
     12.99653      4.91558      4.21934         0.357802      0.202536     -0.979818
     15.33217      3.87247      2.22725         0.429072     -0.651574      0.484529
     15.89575      2.75137      4.41748         0.284222      1.194993     -0.109019
      8.07116      8.11786      0.92823         0.099717      0.694282     -0.817659
      7.17375      7.44626      3.19116         0.623059     -0.081072     -1.411453
      7.90051      7.84227      5.56229        -0.096064     -0.199708      1.199755
      8.95387      1.38236      1.50846        -0.571699      0.023571     -1.687231
     10.08514      2.65705      3.70525         0.713985      0.380547     -1.473432
      1.35096      7.44626      2.16298        -0.887530      0.159034     -0.187090
      2.27283      8.22272      4.17463        -0.964061      0.036579     -0.132866
      4.26235      2.65705      2.67707         0.415645      0.112682     -0.932160
      6.05736      3.11023      4.23566         1.078442     -0.747598      0.659048
     12.89429      8.40074      2.00339        -0.547947     -1.254345      0.256276
     12.99653      7.44626      4.21934         0.861870      0.200544     -1.654535
     15.65082      1.36089      5.90935         0.022656      0.222254      4.378794
     16.74052      1.39171      3.05601         1.619410     -0.089208     -1.610841
      8.00634      6.18092      1.51374         1.016042     -1.799265     -2.672397
      8.59001      6.18092      4.59828         1.837351     -0.328427      0.971737
     10.91773      1.39171      2.02783         1.610891      0.086065     -1.692616
     11.59154      1.40619      4.60134         0.253233     -0.141788      2.469243
      1.94806      6.19697      0.60735         0.131159     -0.079348     -3.658974
      2.58687      6.18009      3.41085         0.517499     -1.051794      1.848280
      3.65942      7.01182      5.07168         0.477858     -0.251612      2.137625
      4.86681      1.36639      1.04147         1.689737      0.079252     -3.227229
      5.68882      1.10218      3.93312        -0.055481     -1.268942      2.202223
     13.82913      6.18092      2.54192        -0.140654      0.437282     -1.474064
     14.06277      6.18062      5.48810         0.581187     -0.091569      2.795568
     14.02388      2.90611      0.88708         0.622271     -0.124261     -3.650882
     13.99844      3.00295      3.57488        -2.166320      1.140520      0.742313
      5.26426      7.79215      2.03261        -0.941449      1.812220     -0.705895
      6.01755      7.76713      4.84058        -1.357631      1.831887      2.212005
      8.17565      3.00295      2.54670        -0.278272      1.698331     -0.551672
      8.97417      2.64617      5.44804         0.434701      0.288550      2.782946
      0.02514      7.79215      4.08897         0.880667     -0.515475      1.444361
     16.34700      7.88040      1.35206        -0.442407      0.414382     -2.840166
      2.35657      3.07643      1.83803        -0.841991      1.104486     -0.941358
      4.01522      3.23446      4.60152        -1.414937      0.784398      2.600345
     11.08705      7.79215      3.06079        -0.001855      1.006559     -0.361265
     11.69642      7.61776      5.77668        -0.433364      1.724733      3.572961
      5.26426      4.56969      2.03261        -0.748839     -0.543292     -0.688676
      6.05811      5.01411      5.05691        -1.848548     -0.749312      2.292913
     13.78306      0.02993      0.63928        -0.199144     -0.573051     -3.807424
     13.99844      9.35889      3.57488        -1.618785     -1.809112      0.719865
     16.76718      4.57419      3.76242         1.103266     -0.907144      2.082241
     16.52216      4.92657      0.95652        -0.351607     -0.691497     -3.650313
      8.17565      9.35889      2.54670        -0.660561     -0.816460     -0.196979
      8.88015      9.57823      5.39250         0.235179     -0.218437      2.705274
     11.08705      4.56969      3.06079        -1.278043     -0.519772     -1.077914
     11.66012      4.69462      5.74081        -0.356562     -1.641211      3.310331
      2.37773      9.24021      1.90512        -0.756760     -0.589114     -1.521783
      2.67202      0.51699      4.86477         1.128893      0.702289      3.119525
    total drift:                               -0.118991     -0.069718      0.064877

  FREE ENERGIE OF THE ION-ELECTRON SYSTEM (eV)
  free  energy   TOTEN  =      -347.55828096 eV

  energy  without entropy=     -346.35836816  energy(sigma->0) =     -346.95832456