 vasp.5.4.4.18Apr17-6-g9f103f2a35 (build Aug 13 2019 17:33:20) gamma-only

 executed on             LinuxIFC date 2020.05.12  03:34:42

 INCAR:
 POTCAR:    PAW_PBE Ni_pv 06Sep2000
 POTCAR:    PAW_PBE S 06Sep2000
 POTCAR:    PAW_PBE Ni_pv 06Sep2000
   VRHFIN =Ni:

   TITEL  = PAW_PBE Ni_pv 06Sep2000
   POMASS =   58.690; ZVAL   =   16.000    mass and valenz
   ENMAX  =  367.986; ENMIN  =  275.989 eV

 POTCAR:    PAW_PBE S 06Sep2000
   VRHFIN =S : s2p4

   TITEL  = PAW_PBE S 06Sep2000
   POMASS =   32.066; ZVAL   =    6.000    mass and valenz
   ENMAX  =  258.689; ENMIN  =  194.016 eV

 Optimization of the real space projectors (new method)

 maximal supplied QI-value         = 18.90
 optimisation between [QCUT,QGAM] = [ 10.77, 21.73] = [ 32.49,132.25] Ry
 Optimized for a Real-space Cutoff    1.38 Angstroem

   l    n(q)    QCUT    max X(q) W(low)/X(q) W(high)/X(q)  e(spline)
   1      8    10.771     2.836    0.40E-04    0.29E-04    0.12E-06
   1      8    10.771     4.023    0.10E-03    0.48E-04    0.29E-06
   2      8    10.771    73.368    0.42E-03    0.97E-04    0.44E-06
   2      8    10.771    69.010    0.42E-03    0.99E-04    0.45E-06
   0      9    10.771    54.797    0.10E-03    0.56E-04    0.74E-07
   0      9    10.771    24.266    0.89E-04    0.49E-04    0.67E-07
 Optimization of the real space projectors (new method)

 maximal supplied QI-value         = 19.84
 optimisation between [QCUT,QGAM] = [ 10.71, 21.63] = [ 32.15,130.99] Ry
 Optimized for a Real-space Cutoff    1.19 Angstroem

   l    n(q)    QCUT    max X(q) W(low)/X(q) W(high)/X(q)  e(spline)
   0      8    10.715   187.594    0.41E-03    0.53E-04    0.66E-07
   0      8    10.715   164.243    0.41E-03    0.53E-04    0.65E-07
   1      7    10.715    67.533    0.19E-03    0.59E-03    0.68E-07
   1      7    10.715    50.729    0.19E-03    0.58E-03    0.67E-07
  PAW_PBE Ni_pv 06Sep2000               :
  PAW_PBE S 06Sep2000                   :

 POSCAR: Type_037 Type_137
  positions in cartesian coordinates
 exchange correlation table for  LEXCH =        8
   RHO(1)=    0.500       N(1)  =     2000
   RHO(2)=  100.500       N(2)  =     4000

 ion  position               nearest neighbor table
   1  0.780  0.145  0.123-  65 2.08  51 2.11  52 2.16  42 2.25   2 2.30  66 2.36  14 2.39  36 2.46

   2  0.731  0.093  0.249-  43 2.00  66 2.07   1 2.30  52 2.39  20 2.43  42 2.60
   3  0.220  0.667  0.089-  44 2.04  45 2.05  53 2.16  27 2.41  63 2.46   4 2.50
   4  0.297  0.645  0.216-  64 2.16  46 2.22  54 2.24  53 2.26  63 2.26  45 2.34   3 2.50  17 2.53
                            28 2.53
   5  0.387  0.162  0.128-  47 2.04  48 2.13  55 2.23   6 2.43  69 2.45  30 2.47
   6  0.470  0.145  0.247-  70 2.09  56 2.10  48 2.25  55 2.26  69 2.26   5 2.43  31 2.53  20 2.53

   7  0.952  0.645  0.154-  68 2.08  67 2.09  58 2.16  49 2.25  57 2.36   8 2.41  32 2.53  21 2.53

   8  0.961  0.633  0.299-  50 2.02  67 2.06  57 2.06   7 2.41
   9  0.058  0.150  0.060-  39 2.05  59 2.08  73 2.10  10 2.38  15 2.52
  10  0.125  0.145  0.185-  38 2.08  73 2.10  59 2.13  60 2.19  74 2.36   9 2.38  15 2.39  11 2.48
                            34 2.53  22 2.53
  11  0.145  0.158  0.332-  74 2.03  60 2.04  38 2.08  10 2.48
  12  0.570  0.649  0.161-  40 2.00  61 2.18  41 2.18  71 2.23  13 2.29
  13  0.642  0.645  0.278-  72 2.02  62 2.04  41 2.25  61 2.26  71 2.26  12 2.29  37 2.53  25 2.53

  14  0.890  0.992  0.100-  65 2.05  58 2.06  39 2.11  66 2.17   1 2.39  15 2.42  36 2.49
  15  0.015  0.990  0.172-  57 2.10  38 2.15  39 2.16  73 2.22  58 2.25  10 2.39  32 2.42  14 2.42
                             9 2.52
  16  0.412  0.400  0.065-  55 2.08  63 2.08  17 2.39  27 2.52  40 2.61
  17  0.425  0.513  0.192-  64 2.20  55 2.25  40 2.26  63 2.26  41 2.36  16 2.39  18 2.50   4 2.53
                            28 2.53
  18  0.449  0.497  0.340-  64 2.04  56 2.04  41 2.05  17 2.50
  19  0.611  0.937  0.090-  61 2.10  42 2.15  20 2.33  69 2.42  30 2.44  36 2.53
  20  0.597  0.013  0.222-  43 2.12  70 2.16  61 2.25  69 2.26  42 2.26  19 2.33   2 2.43  31 2.53
                             6 2.53
  21  0.080  0.513  0.130-  45 2.08  44 2.09  68 2.12  67 2.20  59 2.20   7 2.53  32 2.53
  22  0.252  0.013  0.161-  47 2.05  53 2.25  48 2.36  74 2.36  73 2.37  10 2.53  34 2.53
  23  0.285  0.003  0.320-  74 2.02  48 2.04  54 2.09
  24  0.763  0.443  0.119-  51 2.02  71 2.11  52 2.15  49 2.23  25 2.33  26 2.46
  25  0.770  0.513  0.253-  72 2.02  50 2.09  52 2.17  71 2.26  49 2.26  24 2.33  13 2.53  37 2.53

[...]

  38  0.038  0.122  0.273-  11 2.08  10 2.08  15 2.15  74 2.68
  39  0.956  0.174  0.125-   9 2.05  14 2.11  15 2.16  26 2.19
  40  0.474  0.645  0.091-  27 2.00  12 2.00  17 2.26  28 2.26  16 2.61
  41  0.509  0.645  0.276-  29 2.04  18 2.05  12 2.18  13 2.25  28 2.36  17 2.36
  42  0.647  0.145  0.122-  30 2.05  19 2.15   1 2.25  20 2.26  31 2.26   2 2.60
  43  0.637  0.150  0.314-   2 2.00  31 2.07  20 2.12  56 2.70  70 2.71
  44  0.112  0.646  0.035-   3 2.04  32 2.09  21 2.09  45 2.78
  45  0.161  0.632  0.194-   3 2.05  21 2.08  33 2.08  32 2.23   4 2.34  46 2.43  44 2.78
  46  0.222  0.689  0.322-  33 2.05   4 2.22  45 2.43  54 2.56
  47  0.282  0.144  0.068-   5 2.04  22 2.05  34 2.07
  48  0.336  0.145  0.245-  23 2.04  35 2.05   5 2.13   6 2.25  34 2.36  22 2.36
  49  0.819  0.645  0.153-  24 2.23   7 2.25  25 2.26  37 2.26  36 2.64
  50  0.843  0.646  0.320-   8 2.02  37 2.09  25 2.09
  51  0.826  0.308  0.052-  24 2.02  26 2.11   1 2.11  52 2.74
  52  0.799  0.303  0.214-  24 2.15   1 2.16  25 2.17  26 2.21   2 2.39  51 2.74
  53  0.312  0.814  0.122-  27 2.06   3 2.16  22 2.25   4 2.26  28 2.26
  54  0.347  0.824  0.287-  29 2.03  23 2.09  28 2.10   4 2.24  46 2.56
  55  0.484  0.314  0.153-  30 2.04  16 2.08   5 2.23  17 2.25   6 2.26  31 2.26  56 2.70
  56  0.509  0.319  0.313-  18 2.04   6 2.10  31 2.15  43 2.70  55 2.70
  57  0.001  0.814  0.246-   8 2.06  15 2.10  33 2.11  32 2.36   7 2.36  58 2.76
  58  0.969  0.832  0.084-  14 2.06  32 2.09   7 2.16  15 2.25  57 2.76
  59  0.132  0.310  0.099-   9 2.08  10 2.13  21 2.20  34 2.31  60 2.72
  60  0.172  0.318  0.257-  11 2.04  35 2.04  34 2.14  10 2.19  59 2.72
  61  0.657  0.814  0.184-  36 2.08  19 2.10  12 2.18  20 2.25  37 2.26  13 2.26  62 2.75
  62  0.692  0.801  0.345-  37 2.03  13 2.04  61 2.75
  63  0.312  0.477  0.122-  27 2.06  16 2.08  34 2.25   4 2.26  17 2.26   3 2.46
  64  0.340  0.475  0.289-  18 2.04  35 2.11   4 2.16  17 2.20
  65  0.792  0.007  0.028-  36 2.04  14 2.05   1 2.08
  66  0.829  0.977  0.215-   2 2.07  36 2.11  14 2.17  37 2.25   1 2.36
  67  0.990  0.473  0.222-   8 2.06   7 2.09  26 2.18  21 2.20  68 2.62
  68  0.972  0.496  0.066-   7 2.08  26 2.08  21 2.12  67 2.62
  69  0.484  0.977  0.153-  30 2.06  28 2.25   6 2.26  20 2.26  19 2.42   5 2.45  70 2.75
  70  0.510  0.977  0.316-  29 2.03   6 2.09  20 2.16  43 2.71  69 2.75
  71  0.657  0.477  0.184-  24 2.11  12 2.23  31 2.25  25 2.26  13 2.26
  72  0.695  0.501  0.348-  13 2.02  25 2.02
  73  0.126  0.981  0.101-   9 2.10  10 2.10  32 2.16  15 2.22  22 2.37
  74  0.174  0.977  0.276-  23 2.02  11 2.03  33 2.10  10 2.36  22 2.36  38 2.68

  LATTYP: Found a simple orthorhombic cell.
 ALAT       =     9.5784100000
 B/A-ratio  =     1.7387693453
 C/A-ratio  =     1.7627867312

  Lattice vectors:

 A1 = (   0.0000000000,   9.5784100000,   0.0000000000)
 A2 = (   0.0000000000,   0.0000000000, -16.6546456851)
 A3 = ( -16.8846940542,   0.0000000000,   0.0000000000)

Analysis of symmetry for initial positions (statically):
 Subroutine PRICEL returns:
 Original cell was already a primitive cell.

 Routine SETGRP: Setting up the symmetry group for a
 simple orthorhombic supercell.

 Subroutine GETGRP returns: Found  1 space group operations
 (whereof  1 operations were pure point group operations)
 out of a pool of  8 trial point group operations.

The static configuration has the point symmetry C_1 .

Analysis of symmetry for dynamics (positions and initial velocities):
 Subroutine PRICEL returns:
 Original cell was already a primitive cell.

 Routine SETGRP: Setting up the symmetry group for a
 simple orthorhombic supercell.

 Subroutine GETGRP returns: Found  1 space group operations
 (whereof  1 operations were pure point group operations)
 out of a pool of  8 trial point group operations.

The dynamic configuration has the point symmetry C_1 .

 Subroutine INISYM returns: Found  1 space group operations
 (whereof  1 operations are pure point group operations),
 and found     1 'primitive' translations

 KPOINTS: gamma-point-only calculation. no periodi

Automatic generation of k-mesh.
Space group operators:
 irot       det(A)        alpha          n_x          n_y          n_z        tau_x        tau_y        tau_z
    1     1.000000     0.000000     1.000000     0.000000     0.000000     0.000000     0.000000     0.000000

 Subroutine IBZKPT returns following result:

 Found      1 irreducible k-points:

 Following reciprocal coordinates:
            Coordinates               Weight
  0.000000  0.000000  0.000000      1.000000

 Following cartesian coordinates:
            Coordinates               Weight
  0.000000  0.000000  0.000000      1.000000

 SYSTEM =  "Millerite NiS"
 POSCAR =  Type_037 Type_137

 Startparameter for this run:
   NWRITE =      2    write-flag & timer
   PREC   = normal    normal or accurate (medium, high low for compatibility)
   ISTART =      0    job   : 0-new  1-cont  2-samecut
   ICHARG =      2    charge: 1-file 2-atom 10-const
   ISPIN  =      1    spin polarized calculation?
   LNONCOLLINEAR =      F non collinear calculations
   LSORBIT =      F    spin-orbit coupling
   INIWAV =      1    electr: 0-lowe 1-rand  2-diag
   LASPH  =      F    aspherical Exc in radial PAW
   METAGGA=      F    non-selfconsistent MetaGGA calc.

 Electronic Relaxation 1
   ENCUT  =  450.0 eV  33.07 Ry    5.75 a.u.  29.20 16.57 28.81*2*pi/ulx,y,z
   ENINI  =  450.0     initial cutoff
   ENAUG  =  703.4 eV  augmentation charge cutoff
   NELM   =    100;   NELMIN=  2; NELMDL= -5     # of ELM steps
   EDIFF  = 0.1E-03   stopping-criterion for ELM
   LREAL  =      T    real-space projection
   NLSPLINE    = F    spline interpolate recip. space projectors
   LCOMPAT=      F    compatible to vasp.4.4
   GGA_COMPAT  = T    GGA compatible to vasp.4.4-vasp.4.6
   LMAXPAW     = -100 max onsite density
   LMAXMIX     =    2 max onsite mixed and CHGCAR
   VOSKOWN=      0    Vosko Wilk Nusair interpolation
   ROPT   =   -0.00050  -0.00050
 Ionic relaxation
   EDIFFG = 0.1E-02   stopping-criterion for IOM
   NSW    =      0    number of steps for IOM
   NBLOCK =      1;   KBLOCK =      1    inner block; outer block
   IBRION =     -1    ionic relax: 0-MD 1-quasi-New 2-CG
   NFREE  =      0    steps in history (QN), initial steepest desc. (CG)
   ISIF   =      2    stress and relaxation
   IWAVPR =     10    prediction:  0-non 1-charg 2-wave 3-comb
   ISYM   =      2    0-nonsym 1-usesym 2-fastsym
   LCORR  =      T    Harris-Foulkes like correction to forces

   POTIM  = 0.5000    time-step for ionic-motion
   TEIN   =    0.0    initial temperature
[...]
     0.000000000  9.578410000  0.000000000     0.000000000  0.104401461  0.000000000
     0.000000000  0.000000000 16.654645685     0.000000000  0.000000000  0.060043307

  length of vectors
    16.884694054  9.578410000 16.654645685     0.059225237  0.104401461  0.060043307

 FORCES acting on ions
    electron-ion (+dipol)            ewald-force                    non-local-force                 convergence-correction
   -.140E+03 -.534E+03 0.181E+04   0.138E+03 0.536E+03 -.182E+04   0.136E+01 -.108E+01 0.416E+01   0.671E-02 -.156E-02 -.117E-01
   -.844E+03 -.289E+03 -.252E+04   0.845E+03 0.290E+03 0.252E+04   -.392E+00 -.365E+00 -.392E+01   -.207E-02 -.509E-03 -.105E-01
   0.281E+03 -.265E+02 0.301E+04   -.281E+03 0.272E+02 -.302E+04   0.129E+01 -.475E+00 0.785E+01   -.783E-02 0.354E-02 0.639E-02
   0.676E+03 0.651E+02 -.115E+04   -.676E+03 -.651E+02 0.115E+04   -.734E-01 0.574E+00 -.302E+01   -.396E-02 0.528E-02 0.914E-04
   0.752E+02 0.366E+03 0.223E+04   -.758E+02 -.366E+03 -.224E+04   0.113E+01 -.436E-01 0.867E+01   -.236E-02 -.130E-02 0.494E-02
   0.153E+03 0.119E+02 -.202E+04   -.157E+03 -.120E+02 0.202E+04   0.323E+01 -.431E-01 -.839E+01   0.638E-02 -.110E-02 0.222E-02
   0.616E+03 -.364E+02 0.977E+03   -.621E+03 0.405E+02 -.979E+03   0.388E+01 -.236E+01 0.181E+01   0.741E-02 0.305E-02 -.541E-02
   -.253E+02 0.272E+03 -.341E+04   0.212E+02 -.275E+03 0.341E+04   0.454E+01 0.316E+01 0.188E+01   0.574E-02 0.172E-02 -.101E-01
   0.264E+03 -.327E+03 0.374E+04   -.264E+03 0.331E+03 -.374E+04   0.621E+00 -.346E+01 -.441E+00   -.269E-02 -.256E-02 0.856E-02
   0.570E+03 -.430E+03 -.582E+02   -.569E+03 0.432E+03 0.584E+02   0.107E+01 -.170E+01 0.122E+01   0.458E-03 -.459E-02 0.754E-03
   0.101E+04 -.301E+03 -.393E+04   -.101E+04 0.303E+03 0.394E+04   -.219E+01 -.175E+01 -.177E+01   -.101E-02 -.318E-03 -.578E-02
   -.510E+03 0.217E+03 0.168E+04   0.514E+03 -.219E+03 -.168E+04   -.241E+01 0.110E+01 0.428E+01   -.283E-02 -.103E-02 0.218E-02
   -.746E+02 0.139E+03 -.250E+04   0.719E+02 -.139E+03 0.250E+04   0.194E+01 0.525E+00 -.760E+01   -.500E-03 0.344E-02 -.474E-02
   -.194E+03 0.130E+03 0.232E+04   0.195E+03 -.130E+03 -.232E+04   -.397E+00 0.561E+00 0.353E+01   -.215E-02 0.369E-02 0.502E-03
   0.699E+03 -.159E+03 -.255E+03   -.701E+03 0.160E+03 0.258E+03   0.127E+01 -.684E+00 -.291E+01   0.362E-02 -.424E-02 -.312E-02
   -.351E+03 0.205E+03 0.390E+04   0.348E+03 -.206E+03 -.390E+04   0.272E+01 0.352E+00 -.854E+00   0.406E-03 0.313E-02 0.430E-02
   -.379E+03 0.323E+03 -.571E+02   0.380E+03 -.324E+03 0.584E+02   -.429E+00 0.183E+01 -.107E+01   0.377E-02 0.273E-02 0.269E-02
   -.157E+03 0.239E+03 -.392E+04   0.155E+03 -.241E+03 0.392E+04   0.223E+01 0.179E+01 0.129E+01   0.674E-03 -.152E-02 -.106E-01
   -.301E+02 0.573E+03 0.351E+04   0.318E+02 -.570E+03 -.351E+04   -.188E+01 -.307E+01 -.583E+00   0.304E-02 -.769E-03 0.641E-02
   -.267E+03 0.369E+03 -.129E+04   0.269E+03 -.374E+03 0.129E+04   -.265E+01 0.424E+01 -.324E+01   -.818E-02 -.221E-02 0.123E-02
   0.884E+02 0.683E+03 0.134E+04   -.895E+02 -.690E+03 -.134E+04   0.371E+00 0.578E+01 0.811E+00   0.379E-02 0.717E-02 0.136E-02
   0.282E+02 0.526E+03 0.123E+04   -.297E+02 -.528E+03 -.123E+04   0.969E+00 0.159E+01 0.339E+01   -.598E-02 -.684E-02 -.219E-02
   -.225E+02 0.281E+03 -.356E+04   0.212E+02 -.282E+03 0.356E+04   0.180E+01 0.591E+00 0.486E+00   -.485E-02 -.408E-02 -.776E-02
   0.344E+03 -.296E+03 0.252E+04   -.345E+03 0.298E+03 -.253E+04   0.313E+00 -.843E+00 0.686E+01   0.843E-03 -.290E-02 0.456E-02
   -.568E+03 0.536E+03 -.201E+04   0.571E+03 -.537E+03 0.202E+04   -.235E+01 0.184E+01 -.528E+01   -.947E-03 0.121E-02 -.812E-02
   -.262E+03 0.226E+03 0.775E+03   0.265E+03 -.226E+03 -.774E+03   -.241E+01 -.129E+00 -.123E+00   0.843E-03 -.223E-02 -.343E-02
   -.143E+03 -.396E+03 0.399E+04   0.141E+03 0.396E+03 -.400E+04   0.125E+01 -.757E+00 0.589E+01   -.312E-02 0.372E-02 0.647E-02
   -.253E+03 -.583E+03 0.359E+03   0.255E+03 0.585E+03 -.362E+03   -.964E+00 -.227E+01 0.151E+01   0.233E-03 -.513E-03 -.529E-05
   -.173E+03 -.195E+03 -.391E+04   0.171E+03 0.197E+03 0.391E+04   0.204E+01 -.167E+01 0.799E+00   0.141E-02 0.615E-03 -.109E-01
   -.228E+03 -.232E+03 0.353E+04   0.227E+03 0.231E+03 -.354E+04   0.456E+00 0.447E+00 0.593E+01   0.208E-02 -.125E-02 0.789E-02
   -.646E+03 -.710E+03 -.874E+03   0.650E+03 0.716E+03 0.876E+03   -.405E+01 -.513E+01 -.253E+01   -.233E-02 0.185E-02 -.324E-04
   0.910E+02 -.806E+02 0.175E+04   -.888E+02 0.813E+02 -.176E+04   -.125E+01 -.836E+00 0.390E+01   0.276E-02 -.812E-03 0.547E-02
   0.411E+03 0.223E+03 -.293E+04   -.413E+03 -.221E+03 0.293E+04   0.185E+01 -.200E+01 -.241E+01   0.439E-02 -.214E-02 -.108E-01
   0.344E+03 -.567E+03 0.113E+04   -.345E+03 0.569E+03 -.114E+04   0.906E+00 -.134E+01 0.272E+01   -.633E-02 0.123E-03 0.105E-03
   0.135E+03 -.500E+03 -.349E+04   -.137E+03 0.500E+03 0.349E+04   0.242E+01 -.469E+00 -.641E+00   -.414E-02 0.377E-02 -.400E-02
   -.187E+03 0.715E+03 0.217E+04   0.186E+03 -.718E+03 -.217E+04   0.981E+00 0.103E+01 0.624E+01   0.447E-02 0.471E-02 -.307E-02
   -.718E+03 -.277E+03 -.196E+04   0.722E+03 0.280E+03 0.197E+04   -.309E+01 -.242E+01 -.532E+01   -.397E-02 -.225E-02 -.436E-02
   0.598E+03 -.172E+03 -.114E+04   -.604E+03 0.175E+03 0.114E+04   0.313E+01 -.127E+01 -.120E+01   0.270E-02 -.146E-02 -.350E-02
   0.130E+03 -.244E+03 0.420E+03   -.129E+03 0.245E+03 -.420E+03   -.568E+00 -.731E+00 -.608E+00   -.565E-03 -.237E-02 0.336E-03
   -.373E+03 -.928E+02 0.137E+04   0.376E+03 0.951E+02 -.137E+04   -.192E+01 -.265E+01 0.250E+01   0.398E-03 0.646E-03 0.490E-02
   -.258E+03 0.237E+02 -.865E+03   0.258E+03 -.236E+02 0.869E+03   0.119E+01 -.187E+00 -.379E+01   0.328E-05 0.141E-03 -.481E-02
   -.225E+03 -.305E+03 0.962E+03   0.226E+03 0.309E+03 -.967E+03   -.123E+00 -.291E+01 0.328E+01   0.211E-02 0.653E-03 0.808E-03
   -.210E+03 -.105E+03 -.161E+04   0.213E+03 0.106E+03 0.161E+04   -.184E+01 -.524E+00 -.224E+01   -.670E-02 0.131E-02 -.169E-03
   0.129E+03 0.565E+02 0.170E+04   -.129E+03 -.565E+02 -.170E+04   0.658E+00 -.549E-01 0.217E+01   -.647E-03 0.701E-03 0.499E-02
   0.648E+02 0.256E+03 -.349E+03   -.674E+02 -.260E+03 0.350E+03   0.274E+01 0.393E+01 0.845E+00   -.280E-02 0.276E-02 -.477E-03
   0.132E+03 0.172E+03 -.144E+04   -.132E+03 -.173E+03 0.145E+04   0.186E+00 0.396E+00 -.446E+01   -.264E-02 0.816E-03 -.356E-02
   0.959E+02 0.729E+02 0.164E+04   -.969E+02 -.732E+02 -.164E+04   0.147E+01 0.181E+00 0.179E+01   -.383E-02 -.127E-02 0.354E-02
   -.125E+03 0.218E+02 -.607E+03   0.126E+03 -.216E+02 0.611E+03   0.372E+00 -.157E+00 -.363E+01   -.117E-02 0.945E-03 -.223E-02
   -.478E+02 -.668E+02 0.627E+03   0.487E+02 0.681E+02 -.631E+03   -.102E+01 -.967E+00 0.289E+01   0.127E-03 0.372E-03 0.106E-02
   -.170E+03 0.941E+01 -.144E+04   0.172E+03 -.953E+01 0.144E+04   -.138E+01 -.122E+00 -.287E+01   -.384E-02 -.107E-03 -.325E-02
   -.340E+02 -.603E+02 0.155E+04   0.352E+02 0.607E+02 -.156E+04   -.109E+01 -.111E+00 0.358E+01   0.282E-04 -.374E-02 0.249E-02
   -.221E+03 0.103E+03 -.668E+03   0.223E+03 -.104E+03 0.673E+03   -.142E+01 0.571E+00 -.302E+01   0.105E-03 0.187E-02 -.430E-02
   0.252E+02 -.348E+03 0.868E+03   -.260E+02 0.352E+03 -.871E+03   -.340E-01 -.194E+01 0.175E+01   -.176E-02 0.226E-02 0.260E-02
   0.196E+03 -.373E+02 -.102E+04   -.195E+03 0.402E+02 0.102E+04   -.147E+01 -.262E+01 0.889E+00   -.486E-04 -.233E-02 -.461E-02
   -.243E+03 -.214E+03 0.450E+03   0.244E+03 0.219E+03 -.451E+03   -.171E+01 -.296E+01 0.757E-01   0.151E-02 0.215E-02 0.358E-02
   -.175E+03 0.124E+02 -.136E+04   0.175E+03 -.117E+02 0.136E+04   0.668E+00 -.725E+00 -.183E+01   0.806E-03 -.141E-02 -.338E-02
   0.295E+03 -.174E+03 -.900E+03   -.298E+03 0.175E+03 0.905E+03   0.261E+01 -.154E+01 -.231E+01   0.522E-02 0.218E-02 -.540E-02
   0.201E+03 0.982E+02 0.128E+04   -.202E+03 -.992E+02 -.129E+04   0.199E+00 0.555E+00 0.452E+01   0.237E-02 0.611E-03 0.306E-02
   0.376E+02 -.216E+03 0.103E+04   -.377E+02 0.218E+03 -.103E+04   0.209E+00 -.693E+00 0.290E+01   0.670E-03 0.190E-02 0.225E-02
   0.430E+03 -.485E+03 -.742E+03   -.432E+03 0.492E+03 0.744E+03   0.170E+01 -.435E+01 -.355E-01   0.149E-03 -.833E-03 -.177E-02
   -.624E+02 0.159E+03 0.139E+03   0.606E+02 -.157E+03 -.139E+03   0.321E+00 -.163E+01 -.992E-01   -.106E-03 -.836E-03 0.741E-03
   -.109E+03 -.233E+03 -.162E+04   0.108E+03 0.237E+03 0.163E+04   0.223E+00 -.160E+01 -.896E+00   -.114E-02 -.307E-03 -.168E-02
   0.332E+03 0.189E+03 0.749E+03   -.335E+03 -.193E+03 -.750E+03   0.168E+01 0.195E+01 -.359E+00   -.185E-02 -.792E-03 0.178E-02
   0.267E+03 0.281E+02 -.110E+04   -.269E+03 -.292E+02 0.111E+04   0.808E+00 0.491E+00 -.367E+00   -.549E-03 0.105E-03 -.214E-02
   0.517E+02 0.489E+02 0.176E+04   -.522E+02 -.489E+02 -.177E+04   -.234E+00 -.686E+00 0.167E+01   0.119E-02 0.224E-02 0.450E-02
   -.427E+03 -.587E+02 -.724E+03   0.431E+03 0.596E+02 0.730E+03   -.325E+01 -.144E+01 -.396E+01   0.354E-02 -.191E-02 -.621E-02
   -.488E+02 0.407E+03 -.712E+03   0.500E+02 -.410E+03 0.717E+03   -.420E+00 0.133E+01 -.263E+01   0.286E-02 -.165E-03 -.436E-02
   0.116E+03 0.787E+02 0.145E+04   -.117E+03 -.794E+02 -.145E+04   0.421E+00 0.208E+00 0.332E+01   0.207E-02 0.106E-02 0.194E-02
   0.137E+03 0.261E+03 0.586E+03   -.140E+03 -.264E+03 -.587E+03   0.134E+01 0.223E+01 0.455E-01   -.282E-03 -.261E-02 0.318E-02
   -.138E+03 -.357E+02 -.138E+04   0.137E+03 0.356E+02 0.139E+04   0.954E+00 0.246E+00 -.263E+01   0.121E-02 0.122E-02 -.297E-02
   0.108E+02 0.101E+03 0.310E+03   -.129E+02 -.103E+03 -.312E+03   0.287E+00 0.188E+01 0.185E+01   -.239E-03 -.889E-04 0.114E-02
   -.116E+03 0.287E+03 -.160E+04   0.115E+03 -.290E+03 0.161E+04   0.529E+00 0.207E+01 -.100E+01   -.360E-04 0.139E-02 -.400E-02
   -.142E+03 0.131E+03 0.115E+04   0.144E+03 -.132E+03 -.116E+04   -.946E+00 0.357E+00 0.369E+01   -.881E-04 -.320E-02 0.396E-02
   0.240E+03 0.196E+03 -.914E+03   -.240E+03 -.199E+03 0.915E+03   0.433E-01 0.195E+01 -.118E+01   -.336E-02 -.169E-02 -.409E-02
   -.183E+02 0.190E+02 -.217E+02   -.111E-11 -.162E-11 -.455E-11   0.184E+02 -.190E+02 0.218E+02   -.108E-01 0.522E-02 -.666E-01

 POSITION                                       TOTAL-FORCE (eV/Angst)
     13.17084      1.39171      2.05636        -0.505167      1.028787     -0.363268
     12.34717      0.89287      4.14080         0.853259      0.449215      0.479257
      3.70953      6.39197      1.48173         1.311638      0.233024     -0.506420
      5.02033      6.18092      3.59863        -0.727586      0.498733      0.511870
      6.53301      1.55074      2.13452         0.599634     -0.182863     -0.219720
      7.93172      1.39171      4.11272        -0.889260     -0.083263     -0.816428
     16.08224      6.18092      2.57045        -0.796039      1.678434     -0.087198
     16.21894      6.06564      4.97371         0.456050      0.353837      1.066016
      0.97909      1.43556      0.99203        -0.213013      0.199689     -1.271406
      2.10894      1.39171      3.08454         1.576207      0.577565      1.335699
      2.44158      1.51466      5.53645         0.370904     -0.158751      1.408464
      9.63143      6.21261      2.67881         0.685699     -0.148238     -0.222367
     10.84312      6.18092      4.62682        -0.755823     -0.097119     -0.849435
     15.02284      9.50358      1.67191         0.405932      0.126062      0.122585
      0.24882      9.48461      2.85841        -0.617752      0.081294     -0.097954
      6.96047      3.82898      1.07587         0.194519     -0.079978     -0.834541
      7.17375      4.91558      3.19116         0.229823      0.306035      0.264487
      7.57362      4.75696      5.65776         0.166454      0.120384      0.776955
     10.32498      8.97291      1.50363        -0.244305     -0.415274     -0.937022
     10.08514      0.12638      3.70525        -0.587628     -0.517545      0.439746
      1.35096      4.91558      2.16298        -0.694623     -1.341492     -0.078834
      4.26235      0.12638      2.67707        -0.504298     -0.759458      0.779146
      4.80922      0.02974      5.33139         0.519336      0.357866      0.642165
     12.87840      4.24069      1.98856        -0.675936      1.071715     -0.254385
     12.99653      4.91558      4.21934         0.228230      0.346608     -1.058053
     15.22422      3.61982      2.39087         0.354299     -0.767861      0.917433
      6.06489      6.17949      1.03451        -0.381919     -0.021702     -1.362477
      7.17375      7.44626      3.19116         0.428472      0.058663     -1.163595
      7.65692      7.62261      5.69311         0.086539     -0.123552      0.770078
      8.92564      1.39851      1.52539        -0.254543      0.170476     -1.597053
     10.08514      2.65705      3.70525        -0.114475      0.966558     -0.937894
      1.35096      7.44626      2.16298         0.885945     -0.198571      0.739616
      2.04305      7.45635      4.61217        -0.710658      0.107167      0.487854
      4.26235      2.65705      2.67707        -0.102406      0.502748     -0.229055
      4.68443      2.76571      5.22924         0.596665      0.195346      0.825345
     12.75791      8.54765      2.06899         0.024763     -1.696921     -0.369166
     12.99653      7.44626      4.21934         1.340934      0.020378     -1.846347
      0.64447      1.16805      4.55103        -2.892775      1.026043      2.067690
     16.14499      1.66217      2.08211        -0.179980      0.453508     -0.693749
      8.00634      6.18092      1.51374         1.308877     -0.347642     -2.708858
      8.59001      6.18092      4.59828         1.171556     -0.049946      0.530875
     10.91773      1.39171      2.02783         1.256415      0.575404     -1.103382
     10.76045      1.43510      5.22844         0.892664      0.253133      3.311149
      1.89102      6.18697      0.58982         0.213137     -0.016501     -3.700528
      2.71668      6.05027      3.23915         0.164352     -0.797343      1.516212
      3.74107      6.59999      5.36786         0.635659     -0.814768      1.933389
      4.76396      1.37617      1.12894         0.436166     -0.066182     -3.802863
      5.67861      1.39171      4.08419         1.368482      0.044156      0.487094
     13.82913      6.18092      2.54192        -0.093692      0.361049     -0.990478
     14.23314      6.18398      5.33349         0.784379     -0.238342      2.634945
     13.94518      2.95160      0.85777         0.092738      0.297588     -3.869626
     13.48812      2.90586      3.55827         0.522337     -0.704285      2.492373
      5.26426      7.79215      2.03261        -0.866011      1.865563     -0.803638
      5.86679      7.89242      4.77320        -0.608034      0.261278      2.200703
      8.17565      3.00295      2.54670        -0.386987      1.538563     -0.568959
      8.60195      3.05427      5.21589         0.266413     -0.072571      2.518220
      0.02514      7.79215      4.08897        -0.273833     -0.125605      1.995654
     16.36771      7.96451      1.39197        -1.066965     -0.492805     -2.666771
      2.22074      2.96513      1.64773         0.161244      1.216472     -1.605279
      2.90245      3.04980      4.27561        -1.030180      2.364968      1.028570
     11.08705      7.79215      3.06079        -1.512816     -0.008426     -0.464094
     11.68271      7.67160      5.74548        -0.709818      1.604792      3.724108
      5.26426      4.56969      2.03261        -1.442041     -1.314693     -1.286005
      5.73328      4.54576      4.81081        -0.302911     -0.634589      1.868529
     13.37188      0.06687      0.46267        -0.677589     -0.680641     -3.427058
     13.99844      9.35889      3.57488         1.087597     -0.473577      1.842231
     16.71170      4.53206      3.69741         0.731565     -2.208060      2.130231
     16.40934      4.74824      1.10250        -0.426828     -0.571856     -3.211180
      8.17565      9.35889      2.54670        -0.925177     -1.357190     -1.109190
      8.61840      9.35759      5.25676         0.494123      0.164273      2.554718
     11.08705      4.56969      3.06079        -1.723225     -0.512423     -0.897151
     11.73832      4.80069      5.80141        -0.280745     -1.368986      3.826463
      2.13231      9.40012      1.68421         1.363528     -0.763525     -2.090693
      2.93654      9.35889      4.60306        -0.091496     -1.264828     -0.127748
    total drift:                                0.069669     -0.056401      0.038475

  FREE ENERGIE OF THE ION-ELECTRON SYSTEM (eV)
  free  energy   TOTEN  =      -347.58072810 eV

  energy  without entropy=     -346.45224698  energy(sigma->0) =     -347.01648754