 vasp.5.4.4.18Apr17-6-g9f103f2a35 (build Aug 13 2019 17:33:20) gamma-only

 executed on             LinuxIFC date 2020.05.10  20:39:10

 INCAR:
 POTCAR:    PAW_PBE Ni_pv 06Sep2000
 POTCAR:    PAW_PBE S 06Sep2000
 POTCAR:    PAW_PBE Ni_pv 06Sep2000
   VRHFIN =Ni:

   TITEL  = PAW_PBE Ni_pv 06Sep2000
   POMASS =   58.690; ZVAL   =   16.000    mass and valenz
   ENMAX  =  367.986; ENMIN  =  275.989 eV

 POTCAR:    PAW_PBE S 06Sep2000
   VRHFIN =S : s2p4

   TITEL  = PAW_PBE S 06Sep2000
   POMASS =   32.066; ZVAL   =    6.000    mass and valenz
   ENMAX  =  258.689; ENMIN  =  194.016 eV

 Optimization of the real space projectors (new method)

 maximal supplied QI-value         = 18.90
 optimisation between [QCUT,QGAM] = [ 10.77, 21.73] = [ 32.49,132.25] Ry
 Optimized for a Real-space Cutoff    1.38 Angstroem

   l    n(q)    QCUT    max X(q) W(low)/X(q) W(high)/X(q)  e(spline)
   1      8    10.771     2.836    0.40E-04    0.29E-04    0.12E-06
   1      8    10.771     4.023    0.10E-03    0.48E-04    0.29E-06
   2      8    10.771    73.368    0.42E-03    0.97E-04    0.44E-06
   2      8    10.771    69.010    0.42E-03    0.99E-04    0.45E-06
   0      9    10.771    54.797    0.10E-03    0.56E-04    0.74E-07
   0      9    10.771    24.266    0.89E-04    0.49E-04    0.67E-07
 Optimization of the real space projectors (new method)

 maximal supplied QI-value         = 19.84
 optimisation between [QCUT,QGAM] = [ 10.71, 21.63] = [ 32.15,130.99] Ry
 Optimized for a Real-space Cutoff    1.19 Angstroem

   l    n(q)    QCUT    max X(q) W(low)/X(q) W(high)/X(q)  e(spline)
   0      8    10.715   187.594    0.41E-03    0.53E-04    0.66E-07
   0      8    10.715   164.243    0.41E-03    0.53E-04    0.65E-07
   1      7    10.715    67.533    0.19E-03    0.59E-03    0.68E-07
   1      7    10.715    50.729    0.19E-03    0.58E-03    0.67E-07
  PAW_PBE Ni_pv 06Sep2000               :
  PAW_PBE S 06Sep2000                   :

 POSCAR: Type_048 Type_148
  positions in cartesian coordinates
 exchange correlation table for  LEXCH =        8
   RHO(1)=    0.500       N(1)  =     2000
   RHO(2)=  100.500       N(2)  =     4000

 ion  position               nearest neighbor table
   1  0.261  0.479  0.253-  73 2.25  58 2.26  80 2.26  54 2.36  59 2.36   7 2.53  21 2.53
   2  0.355  0.385  0.388-  74 2.25  54 2.26  59 2.26  60 2.36  66 2.36   3 2.38   8 2.53  22 2.53

   3  0.375  0.365  0.497-  52 2.04  66 2.09  60 2.09   2 2.38
   4  0.167  0.073  0.118-  81 2.04  55 2.11  64 2.25  56 2.36  82 2.36
   5  0.049  0.055  0.472-  50 2.05  76 2.08  72 2.10  77 2.15
   6  0.283  0.269  0.110-  55 2.05  57 2.08  58 2.09  51 2.24  36 2.44   7 2.49  56 2.58
   7  0.368  0.239  0.218-  56 2.25  58 2.26  51 2.26  59 2.36  61 2.36   6 2.49   1 2.53  21 2.53

[...]

  41  0.549  0.555  0.472-  86 2.05  65 2.08  84 2.10  66 2.15
  42  0.809  0.930  0.123-  88 2.02  93 2.05  87 2.06  94 2.12  68 2.12  16 2.39  48 2.48
  43  0.868  0.739  0.218-  92 2.25  94 2.26  88 2.26  95 2.36  73 2.36  37 2.53  33 2.53
  44  0.962  0.645  0.353-  67 2.25  95 2.26  73 2.26  96 2.36  74 2.36  38 2.53  34 2.53
  45  0.500  0.872  0.218-  94 2.25  75 2.26  56 2.26  85 2.36  78 2.36  25 2.53  31 2.53
  46  0.594  0.778  0.353-  95 2.25  85 2.26  78 2.26  90 2.36  86 2.36  32 2.53  26 2.53
  47  0.685  0.691  0.472-  86 2.05  65 2.08  90 2.10  96 2.15
  48  0.032  0.922  0.112-  87 2.00  81 2.06  82 2.12  88 2.21  33 2.44  42 2.48  68 2.52
  49  0.073  0.167  0.270-  25 2.25  10 2.26  20 2.26   9 2.36  19 2.36
  50  0.167  0.073  0.405-   5 2.05  11 2.05  26 2.25  10 2.36  20 2.36  76 2.69
  51  0.479  0.261  0.135-  16 1.99   6 2.24   7 2.26  21 2.26  36 2.32  93 2.58
  52  0.211  0.529  0.526-   3 2.04  35 2.08  29 2.08  74 2.69
  53  0.030  0.378  0.451-  15 2.09  11 2.10  29 2.15  10 2.36  14 2.36
  54  0.436  0.472  0.315-  32 2.25   2 2.26  22 2.26   1 2.36  21 2.36
  55  0.308  0.100  0.064-   6 2.05   4 2.11  36 2.13  56 2.56
  56  0.342  0.066  0.180-  36 2.05   7 2.25  25 2.26  45 2.26   4 2.36  55 2.56   6 2.58
  57  0.174  0.434  0.056-  28 2.04  24 2.06   6 2.08  58 2.74
  58  0.174  0.397  0.180-   6 2.09  24 2.12   9 2.25   7 2.26   1 2.26  28 2.36  57 2.74
  59  0.268  0.303  0.315-  10 2.25   2 2.26   8 2.26   7 2.36   1 2.36
  60  0.362  0.209  0.451-   3 2.09  17 2.10  11 2.15   8 2.36   2 2.36
  61  0.573  0.167  0.270-  16 2.19  37 2.25  22 2.26   8 2.26  21 2.36   7 2.36
  62  0.667  0.073  0.405-  23 2.05  17 2.05  38 2.25  22 2.36   8 2.36  89 2.69
  63  0.898  0.457  0.045-  24 2.00  18 2.06  69 2.65  64 2.78
  64  0.979  0.261  0.135-  18 2.02  24 2.21   4 2.25  19 2.26   9 2.26  63 2.78
  65  0.711  0.529  0.527-  15 2.04  41 2.08  47 2.08  86 2.69
  66  0.530  0.378  0.451-   3 2.09  23 2.10  41 2.15  22 2.36   2 2.36
  67  0.936  0.472  0.315-  44 2.25  14 2.26  10 2.26  13 2.36   9 2.36
  68  0.842  0.066  0.180-  42 2.12  16 2.17  19 2.25  37 2.26  33 2.26  48 2.52
  69  0.643  0.554  0.075-  12 2.02  18 2.05  40 2.25  75 2.58  63 2.65
  70  0.674  0.397  0.180-  18 2.12  40 2.25  21 2.25  19 2.26  13 2.26  12 2.51
  71  0.768  0.303  0.315-  22 2.25  14 2.26  20 2.26  19 2.36  13 2.36
  72  0.862  0.209  0.451-  15 2.09   5 2.10  23 2.15  20 2.36  14 2.36
  73  0.073  0.667  0.270-   1 2.25  34 2.26  44 2.26  33 2.36  43 2.36
  74  0.167  0.573  0.405-  29 2.05  35 2.05   2 2.25  34 2.36  44 2.36  52 2.69
  75  0.479  0.761  0.135-  40 1.99  30 2.24  31 2.26  45 2.26  12 2.32  69 2.58
  76  0.211  0.029  0.526-  27 2.04  11 2.08   5 2.08  50 2.69
  77  0.030  0.878  0.451-  39 2.09  35 2.10   5 2.15  34 2.36  38 2.36
  78  0.436  0.972  0.315-   8 2.25  26 2.26  46 2.26  25 2.36  45 2.36
  79  0.308  0.600  0.064-  30 2.05  28 2.11  12 2.13  80 2.56
  80  0.342  0.566  0.180-  12 2.05  31 2.25   1 2.26  21 2.26  28 2.36  79 2.56  30 2.58
  81  0.174  0.934  0.056-   4 2.04  48 2.06  30 2.08  82 2.74
  82  0.174  0.897  0.180-  30 2.09  48 2.12  33 2.25  31 2.26  25 2.26   4 2.36  81 2.74
  83  0.268  0.803  0.315-  34 2.25  26 2.26  32 2.26  31 2.36  25 2.36
  84  0.362  0.709  0.451-  27 2.09  41 2.10  35 2.15  32 2.36  26 2.36
  85  0.573  0.667  0.270-  40 2.19  13 2.25  46 2.26  32 2.26  45 2.36  31 2.36
  86  0.667  0.573  0.405-  47 2.05  41 2.05  14 2.25  46 2.36  32 2.36  65 2.69
  87  0.898  0.957  0.045-  48 2.00  42 2.06  93 2.65  88 2.78
  88  0.979  0.761  0.135-  42 2.02  48 2.21  28 2.25  43 2.26  33 2.26  87 2.78
  89  0.711  0.029  0.527-  39 2.04  17 2.08  23 2.08  62 2.69
  90  0.530  0.878  0.451-  27 2.09  47 2.10  17 2.15  46 2.36  26 2.36
  91  0.936  0.972  0.315-  20 2.25  38 2.26  34 2.26  37 2.36  33 2.36
  92  0.842  0.566  0.180-  18 2.12  40 2.17  43 2.25  13 2.26   9 2.26  24 2.52
  93  0.643  0.054  0.075-  36 2.02  42 2.05  16 2.25  51 2.58  87 2.65
  94  0.674  0.897  0.180-  42 2.12  16 2.25  45 2.25  43 2.26  37 2.26  36 2.51
  95  0.768  0.803  0.315-  46 2.25  38 2.26  44 2.26  43 2.36  37 2.36
  96  0.862  0.709  0.451-  39 2.09  29 2.10  47 2.15  44 2.36  38 2.36

  LATTYP: Found a base centered orthorhombic cell.
 ALAT       =    11.8257374459
 B/A-ratio  =     1.6199260857
 C/A-ratio  =     1.8387210052

  Lattice vectors:

 A1 = (  11.2564630382,   0.0000000000,   0.0000000000)
 A2 = (  -5.0445621212, -10.0628203371,   0.0000000000)
 A3 = (   0.0000000000,   0.0000000000, -21.7442318436)

Analysis of symmetry for initial positions (statically):
 Subroutine PRICEL returns following result:

  LATTYP: Found a simple monoclinic cell.
 ALAT       =    11.2564630382
 B/A-ratio  =     1.9317108553
 C/A-ratio  =     1.8313120628
 COS(beta)  =    -0.9697560585

[...]

   2 primitive cells build up your supercell.

 Routine SETGRP: Setting up the symmetry group for a
 base centered orthorhombic supercell.

 Subroutine GETGRP returns: Found  1 space group operations
 (whereof  1 operations were pure point group operations)
 out of a pool of  8 trial point group operations.

The static configuration has the point symmetry C_1 .

Analysis of symmetry for dynamics (positions and initial velocities):
 Subroutine PRICEL returns following result:

  LATTYP: Found a simple monoclinic cell.
 ALAT       =    11.2564630382
 B/A-ratio  =     1.9317108553
 C/A-ratio  =     1.8313120628
 COS(beta)  =    -0.9697560585

  Lattice vectors:

 A1 = ( -11.2564630382,   0.0000000000,   0.0000000000)
 A2 = (   0.0000000000,   0.0000000000, -21.7442318436)
 A3 = (  19.9906450157,  -5.0314101685,   0.0000000000)

   2 primitive cells build up your supercell.

 Routine SETGRP: Setting up the symmetry group for a
 base centered orthorhombic supercell.

 Subroutine GETGRP returns: Found  1 space group operations
 (whereof  1 operations were pure point group operations)
 out of a pool of  8 trial point group operations.

The dynamic configuration has the point symmetry C_1 .

 Subroutine INISYM returns: Found  1 space group operations
 (whereof  1 operations are pure point group operations),
 and found     2 'primitive' translations

 KPOINTS: gamma-point-only calculation. no periodi

Automatic generation of k-mesh.
Space group operators:
 irot       det(A)        alpha          n_x          n_y          n_z        tau_x        tau_y        tau_z
    1     1.000000     0.000000     1.000000     0.000000     0.000000     0.000000     0.000000     0.000000

 Subroutine IBZKPT returns following result:

 Found      1 irreducible k-points:

 Following reciprocal coordinates:
            Coordinates               Weight
  0.000000  0.000000  0.000000      1.000000

 Following cartesian coordinates:
            Coordinates               Weight
  0.000000  0.000000  0.000000      1.000000

 SYSTEM =  "Millerite NiS"
 POSCAR =  Type_048 Type_148

 Startparameter for this run:
   NWRITE =      2    write-flag & timer
   PREC   = normal    normal or accurate (medium, high low for compatibility)
   ISTART =      0    job   : 0-new  1-cont  2-samecut
   ICHARG =      2    charge: 1-file 2-atom 10-const
   ISPIN  =      1    spin polarized calculation?
   LNONCOLLINEAR =      F non collinear calculations
   LSORBIT =      F    spin-orbit coupling
   INIWAV =      1    electr: 0-lowe 1-rand  2-diag
   LASPH  =      F    aspherical Exc in radial PAW
   METAGGA=      F    non-selfconsistent MetaGGA calc.

 Electronic Relaxation 1
   ENCUT  =  450.0 eV  33.07 Ry    5.75 a.u.  19.47 19.47 37.61*2*pi/ulx,y,z
   ENINI  =  450.0     initial cutoff
   ENAUG  =  703.4 eV  augmentation charge cutoff
   NELM   =    100;   NELMIN=  2; NELMDL= -5     # of ELM steps
   EDIFF  = 0.1E-03   stopping-criterion for ELM
   LREAL  =      T    real-space projection
   NLSPLINE    = F    spline interpolate recip. space projectors
   LCOMPAT=      F    compatible to vasp.4.4
   GGA_COMPAT  = T    GGA compatible to vasp.4.4-vasp.4.6
   LMAXPAW     = -100 max onsite density
   LMAXMIX     =    2 max onsite mixed and CHGCAR
   VOSKOWN=      0    Vosko Wilk Nusair interpolation
   ROPT   =   -0.00050  -0.00050
 Ionic relaxation
   EDIFFG = 0.1E-02   stopping-criterion for IOM
   NSW    =      0    number of steps for IOM
   NBLOCK =      1;   KBLOCK =      1    inner block; outer block
[...]
     0.000000000  0.000000000 21.744231844     0.000000000  0.000000000  0.045989208

  length of vectors
    11.256463038 11.256463038 21.744231844     0.099375718  0.099375718  0.045989208

 FORCES acting on ions
    electron-ion (+dipol)            ewald-force                    non-local-force                 convergence-correction
   0.263E+03 -.431E+03 0.753E+03   -.263E+03 0.432E+03 -.749E+03   0.527E+00 -.419E+00 -.317E+01   -.493E-02 -.493E-02 -.269E-01
   0.246E+03 -.388E+03 -.241E+04   -.247E+03 0.389E+03 0.241E+04   0.636E+00 -.939E+00 0.168E+00   0.509E-01 -.492E-01 0.345E-01
   -.104E+02 0.205E+02 -.566E+04   0.806E+01 -.165E+02 0.566E+04   0.284E+01 -.469E+01 0.542E+00   0.365E-02 -.720E-02 0.777E-01
   0.144E+03 -.235E+03 0.460E+04   -.144E+03 0.237E+03 -.461E+04   0.164E+00 -.133E+01 0.408E+01   0.424E-02 0.257E-02 0.153E-01
   0.301E+03 0.229E+03 -.492E+04   -.306E+03 -.233E+03 0.492E+04   0.359E+01 0.326E+01 -.230E+01   0.199E-01 -.255E-02 0.499E-01
   -.114E+03 -.604E+02 0.516E+04   0.114E+03 0.609E+02 -.517E+04   -.305E-02 -.867E-01 0.732E+01   -.417E-02 -.283E-01 0.105E-01
   0.300E+03 0.204E+03 0.161E+04   -.301E+03 -.204E+03 -.161E+04   0.128E+01 -.565E-01 -.278E+01   -.620E-01 0.268E-02 -.123E-01
   0.284E+03 0.424E+03 -.146E+04   -.287E+03 -.424E+03 0.146E+04   0.204E+01 0.427E+00 0.866E+00   0.651E-02 0.183E-01 0.337E-01
   -.457E+03 0.591E+02 0.162E+04   0.458E+03 -.602E+02 -.161E+04   -.113E+01 0.119E+01 -.238E+01   0.471E-01 -.375E-01 -.558E-01
   -.497E+03 -.293E+02 -.140E+04   0.498E+03 0.299E+02 0.140E+04   -.741E+00 -.701E+00 0.193E+01   0.558E-02 -.185E-01 0.310E-01
   -.337E+03 -.169E+03 -.492E+04   0.342E+03 0.171E+03 0.493E+04   -.455E+01 -.173E+01 -.230E+01   0.413E-01 -.773E-03 0.580E-01
   -.131E+02 0.622E+03 0.516E+04   0.125E+02 -.626E+03 -.517E+04   0.234E+00 0.282E+01 0.742E+01   -.737E-01 0.208E-01 -.464E-01
   0.880E+02 -.153E+03 0.429E+03   -.871E+02 0.151E+03 -.425E+03   -.346E+00 0.107E+01 -.342E+01   -.519E-02 -.255E-01 0.453E-01
   0.217E+03 -.361E+03 -.241E+04   -.217E+03 0.362E+03 0.241E+04   0.739E+00 -.111E+01 -.223E-01   -.122E-01 -.200E-01 0.367E-01
   -.176E+02 0.250E+02 -.566E+04   0.150E+02 -.208E+02 0.566E+04   0.310E+01 -.493E+01 0.695E+00   -.136E-02 -.157E-02 0.602E-01
   -.288E+03 -.427E+03 0.338E+04   0.291E+03 0.428E+03 -.338E+04   -.198E+01 -.171E+01 -.108E+01   -.790E-01 -.317E-01 -.555E-01
   0.305E+03 0.229E+03 -.494E+04   -.309E+03 -.232E+03 0.494E+04   0.358E+01 0.321E+01 -.222E+01   -.390E-01 0.184E-01 0.237E-01
   0.321E+03 0.259E+03 0.516E+04   -.325E+03 -.262E+03 -.516E+04   0.269E+01 0.168E+01 0.636E+01   0.175E-01 -.611E-01 -.462E-01
   0.280E+03 0.554E+03 0.208E+04   -.280E+03 -.557E+03 -.208E+04   0.380E+00 0.165E+01 -.353E+00   0.476E-01 -.183E-01 -.842E-02
   0.240E+03 0.439E+03 -.139E+04   -.241E+03 -.439E+03 0.139E+04   0.852E+00 0.873E-01 0.198E+01   0.266E-02 0.185E-01 0.283E-01
   -.457E+03 -.989E+02 0.203E+04   0.456E+03 0.100E+03 -.203E+04   0.635E+00 -.121E+01 -.124E+01   -.620E-01 0.597E-01 0.240E-01
   -.512E+03 -.504E+02 -.145E+04   0.513E+03 0.518E+02 0.145E+04   -.986E+00 -.138E+01 0.949E+00   -.440E-01 0.117E-01 0.542E-01
   -.344E+03 -.167E+03 -.493E+04   0.349E+03 0.169E+03 0.494E+04   -.451E+01 -.159E+01 -.218E+01   -.267E-01 0.397E-01 0.221E-01
   0.661E+02 -.322E+03 0.504E+04   -.658E+02 0.324E+03 -.505E+04   0.497E-01 -.904E+00 0.652E+01   0.678E-01 -.160E-01 0.506E-02
   0.263E+03 -.431E+03 0.753E+03   -.263E+03 0.432E+03 -.749E+03   0.527E+00 -.419E+00 -.317E+01   -.450E-02 -.461E-02 -.270E-01
   0.246E+03 -.388E+03 -.241E+04   -.247E+03 0.389E+03 0.241E+04   0.636E+00 -.939E+00 0.168E+00   0.509E-01 -.491E-01 0.348E-01
   -.104E+02 0.205E+02 -.566E+04   0.806E+01 -.165E+02 0.566E+04   0.284E+01 -.469E+01 0.542E+00   0.369E-02 -.700E-02 0.774E-01
   0.144E+03 -.235E+03 0.460E+04   -.144E+03 0.237E+03 -.461E+04   0.164E+00 -.133E+01 0.408E+01   0.405E-02 0.211E-02 0.152E-01
   0.301E+03 0.229E+03 -.492E+04   -.306E+03 -.233E+03 0.492E+04   0.359E+01 0.326E+01 -.230E+01   0.198E-01 -.241E-02 0.501E-01
   -.114E+03 -.604E+02 0.516E+04   0.114E+03 0.609E+02 -.517E+04   -.305E-02 -.867E-01 0.732E+01   -.394E-02 -.278E-01 0.108E-01
   0.300E+03 0.204E+03 0.161E+04   -.301E+03 -.204E+03 -.161E+04   0.128E+01 -.565E-01 -.278E+01   -.618E-01 0.300E-02 -.123E-01
   0.284E+03 0.424E+03 -.146E+04   -.287E+03 -.424E+03 0.146E+04   0.204E+01 0.427E+00 0.866E+00   0.665E-02 0.183E-01 0.337E-01
   -.457E+03 0.591E+02 0.162E+04   0.458E+03 -.602E+02 -.161E+04   -.113E+01 0.119E+01 -.238E+01   0.472E-01 -.374E-01 -.558E-01
   -.497E+03 -.293E+02 -.140E+04   0.498E+03 0.299E+02 0.140E+04   -.741E+00 -.701E+00 0.193E+01   0.554E-02 -.183E-01 0.315E-01
   -.337E+03 -.169E+03 -.492E+04   0.342E+03 0.171E+03 0.493E+04   -.455E+01 -.173E+01 -.230E+01   0.415E-01 -.516E-03 0.579E-01
   -.131E+02 0.622E+03 0.516E+04   0.125E+02 -.626E+03 -.517E+04   0.234E+00 0.282E+01 0.742E+01   -.741E-01 0.216E-01 -.465E-01
   0.880E+02 -.153E+03 0.429E+03   -.871E+02 0.151E+03 -.425E+03   -.346E+00 0.107E+01 -.342E+01   -.552E-02 -.251E-01 0.457E-01
   0.217E+03 -.361E+03 -.241E+04   -.217E+03 0.362E+03 0.241E+04   0.739E+00 -.111E+01 -.223E-01   -.122E-01 -.198E-01 0.369E-01
   -.176E+02 0.250E+02 -.566E+04   0.150E+02 -.208E+02 0.566E+04   0.310E+01 -.493E+01 0.695E+00   -.112E-02 -.153E-02 0.600E-01
   -.288E+03 -.427E+03 0.338E+04   0.291E+03 0.428E+03 -.338E+04   -.198E+01 -.171E+01 -.108E+01   -.786E-01 -.320E-01 -.553E-01
   0.305E+03 0.229E+03 -.494E+04   -.309E+03 -.232E+03 0.494E+04   0.358E+01 0.321E+01 -.222E+01   -.391E-01 0.186E-01 0.237E-01
   0.321E+03 0.259E+03 0.516E+04   -.325E+03 -.262E+03 -.516E+04   0.269E+01 0.168E+01 0.636E+01   0.175E-01 -.607E-01 -.460E-01
   0.280E+03 0.554E+03 0.208E+04   -.280E+03 -.557E+03 -.208E+04   0.380E+00 0.165E+01 -.353E+00   0.472E-01 -.184E-01 -.841E-02
   0.240E+03 0.439E+03 -.139E+04   -.241E+03 -.439E+03 0.139E+04   0.852E+00 0.873E-01 0.198E+01   0.242E-02 0.187E-01 0.284E-01
   -.457E+03 -.989E+02 0.203E+04   0.456E+03 0.100E+03 -.203E+04   0.635E+00 -.121E+01 -.124E+01   -.620E-01 0.600E-01 0.244E-01
   -.512E+03 -.504E+02 -.145E+04   0.513E+03 0.518E+02 0.145E+04   -.986E+00 -.138E+01 0.949E+00   -.437E-01 0.116E-01 0.540E-01
   -.344E+03 -.167E+03 -.493E+04   0.349E+03 0.169E+03 0.494E+04   -.451E+01 -.159E+01 -.218E+01   -.267E-01 0.398E-01 0.220E-01
   0.661E+02 -.322E+03 0.504E+04   -.658E+02 0.324E+03 -.505E+04   0.497E-01 -.904E+00 0.652E+01   0.683E-01 -.152E-01 0.524E-02
   -.636E+02 0.129E+03 0.297E+03   0.650E+02 -.131E+03 -.299E+03   -.132E+01 0.166E+01 0.237E+01   0.112E-01 -.186E-01 -.639E-02
   -.749E+02 0.125E+03 -.912E+03   0.761E+02 -.126E+03 0.908E+03   -.757E+00 0.902E+00 0.861E+00   0.141E-01 0.700E-03 0.787E-02
   -.233E+03 -.237E+03 0.194E+04   0.237E+03 0.243E+03 -.195E+04   -.404E+01 -.363E+01 0.385E+01   -.515E-01 0.748E-02 -.296E-01
   -.361E+01 0.663E+01 -.236E+04   0.415E+01 -.745E+01 0.237E+04   -.366E+00 0.563E+00 -.214E+01   0.251E-01 -.166E-01 0.418E-01
   -.126E+03 -.110E+03 -.158E+04   0.128E+03 0.112E+03 0.159E+04   -.146E+01 -.549E+00 -.172E+01   -.487E-02 -.137E-01 0.162E-01
   -.573E+02 -.152E+03 -.220E+03   0.584E+02 0.154E+03 0.220E+03   -.112E+01 -.233E+01 0.258E-01   -.343E-02 0.143E-02 0.201E-01
   0.196E+02 0.166E+03 0.240E+04   -.192E+02 -.167E+03 -.241E+04   -.408E+00 -.727E+00 0.528E+01   -.341E-02 -.523E-02 0.105E-01
   0.126E+03 0.148E+02 0.104E+04   -.127E+03 -.142E+02 -.104E+04   -.433E+00 -.213E+00 0.289E+00   -.139E-01 0.187E-01 -.342E-01
   -.728E+02 -.706E+02 0.246E+04   0.742E+02 0.713E+02 -.247E+04   -.123E+01 -.585E+00 0.371E+01   0.157E-01 0.178E-01 0.122E-01
   0.350E+02 -.125E+03 0.933E+03   -.357E+02 0.126E+03 -.931E+03   0.760E+00 -.227E+00 0.407E+00   0.228E-01 0.143E-01 -.263E-01
   0.181E+03 -.133E+02 -.220E+03   -.184E+03 0.134E+02 0.220E+03   0.307E+01 -.946E-01 -.882E-02   0.193E-01 -.758E-02 -.267E-02
   0.158E+03 0.609E+02 -.159E+04   -.160E+03 -.618E+02 0.159E+04   0.119E+01 0.124E+01 -.147E+01   0.551E-02 0.150E-01 0.158E-01
[...]
   0.181E+03 -.133E+02 -.220E+03   -.184E+03 0.134E+02 0.220E+03   0.307E+01 -.946E-01 -.882E-02   0.194E-01 -.747E-02 -.262E-02
   0.158E+03 0.609E+02 -.159E+04   -.160E+03 -.618E+02 0.159E+04   0.119E+01 0.124E+01 -.147E+01   0.546E-02 0.151E-01 0.158E-01
   -.601E+02 0.585E+02 0.125E+03   0.606E+02 -.595E+02 -.124E+03   -.458E+00 0.113E+01 -.986E+00   -.284E-01 0.186E-01 0.468E-01
   -.803E+02 0.127E+03 -.926E+03   0.814E+02 -.129E+03 0.922E+03   -.593E+00 0.118E+01 0.148E+01   -.792E-02 0.119E-01 -.652E-02
   0.898E+02 -.124E+03 0.244E+04   -.892E+02 0.125E+03 -.244E+04   -.916E+00 -.291E+00 0.154E+01   -.420E-03 -.130E-01 -.632E-02
   0.119E+03 0.301E+03 0.177E+04   -.120E+03 -.305E+03 -.177E+04   0.202E+01 0.109E+01 0.328E+01   0.229E-01 -.163E-01 -.198E-01
   -.507E+01 0.750E+01 -.236E+04   0.558E+01 -.829E+01 0.237E+04   -.346E+00 0.524E+00 -.213E+01   0.160E-02 -.272E-02 0.475E-01
   -.124E+03 -.111E+03 -.159E+04   0.126E+03 0.113E+03 0.159E+04   -.161E+01 -.546E+00 -.146E+01   -.249E-01 -.716E-02 0.810E-02
   -.900E+02 -.150E+03 -.217E+03   0.913E+02 0.153E+03 0.217E+03   -.142E+01 -.297E+01 -.178E-01   0.856E-02 0.125E-02 0.248E-01
   -.202E+03 -.304E+03 0.120E+04   0.205E+03 0.309E+03 -.121E+04   -.420E+00 -.275E+01 0.318E+01   0.260E-01 -.178E-01 -.232E-01
   -.718E+02 -.808E+02 0.244E+04   0.718E+02 0.838E+02 -.244E+04   0.751E+00 -.159E+01 0.259E+01   -.347E-01 -.160E-01 -.207E-01
   0.216E+03 0.246E+03 0.124E+04   -.219E+03 -.249E+03 -.124E+04   0.990E+00 0.218E+01 0.282E+01   0.223E-02 0.425E-02 -.329E-01
   0.158E+03 0.117E+02 -.213E+03   -.160E+03 -.118E+02 0.213E+03   0.281E+01 0.884E-01 -.935E-02   -.102E-01 -.665E-02 0.319E-01
   0.153E+03 0.638E+02 -.159E+04   -.155E+03 -.644E+02 0.159E+04   0.122E+01 0.956E+00 -.168E+01   -.148E-02 0.155E-01 0.519E-02
   -.995E+01 0.251E+02 -.717E+02   -.682E-12 -.134E-11 0.209E-10   0.996E+01 -.248E+02 0.709E+02   -.218E+00 -.286E+00 0.879E+00

 POSITION                                       TOTAL-FORCE (eV/Angst)
      5.35228      4.81788      5.50842        -0.123983      0.141737      0.361057
      5.93595      3.87238      8.44448        -0.053786      0.067381     -1.030319
      6.05784      3.67497     10.81368         0.458084     -0.718825      0.758933
      2.24633      0.73197      2.57236         0.266614      0.554862      1.150207
      0.82604      0.54868     10.27215        -0.570474     -0.023902      0.430481
      4.53812      2.70315      2.39333         0.431924      0.415813     -0.048876
      5.35228      2.40903      4.73270        -0.098479     -0.118937      0.834971
      5.93595      1.46353      7.66876        -0.147161     -0.232579      0.039653
      1.87746      3.73836      4.73270        -0.080229     -0.032729      1.047801
      2.46113      2.79286      7.66876         0.000454     -0.114340     -0.042120
      3.04671      1.91951     10.27215         0.279429      0.483540      0.473932
      8.22553      5.59634      2.54969        -0.409352     -1.255949     -0.041191
     10.98051      4.81788      5.50842         0.541373     -0.737666      1.405698
     11.56418      3.87238      8.44448        -0.066483      0.089168     -0.911998
     11.68633      3.67448     10.81382         0.435086     -0.753991      0.790129
      7.69808      1.12170      3.79542         0.295529     -0.303375     -0.207108
      6.45445      0.54864     10.27316        -0.517006     -0.025111      0.524141
     11.27977      4.33121      2.67835        -0.964772     -0.938945     -1.084372
     10.98051      2.40903      4.73270        -0.028143     -0.538966      0.507819
     11.56418      1.46353      7.66876         0.123291     -0.072619     -0.083847
      7.50570      3.73836      4.73270        -0.142647     -0.018031      0.123096
      8.08937      2.79286      7.66876         0.219902     -0.011426     -0.035699
      8.67487      1.91935     10.27313         0.248992      0.492335      0.494998
      2.48892      4.24339      2.42709         0.430217      0.488148      0.512419
      7.87456      9.84929      5.50842        -0.123983      0.141737      0.361057
      8.45823      8.90379      8.44448        -0.053786      0.067381     -1.030319
      8.58012      8.70638     10.81368         0.458084     -0.718825      0.758933
      4.76861      5.76338      2.57236         0.266614      0.554862      1.150207
      3.34832      5.58009     10.27215        -0.570474     -0.023902      0.430481
      7.06040      7.73456      2.39333         0.431924      0.415813     -0.048876
      7.87456      7.44044      4.73270        -0.098479     -0.118937      0.834971
      8.45823      6.49494      7.66876        -0.147161     -0.232579      0.039653
      4.39975      8.76977      4.73270        -0.080229     -0.032729      1.047801
      4.98341      7.82427      7.66876         0.000454     -0.114340     -0.042120
      5.56899      6.95092     10.27215         0.279429      0.483540      0.473932
      5.70325      0.56493      2.54969        -0.409352     -1.255949     -0.041191
     13.50279      9.84929      5.50842         0.541373     -0.737666      1.405698
     14.08646      8.90379      8.44448        -0.066483      0.089168     -0.911998
     14.20861      8.70589     10.81382         0.435086     -0.753991      0.790129
     10.22037      6.15311      3.79542         0.295529     -0.303375     -0.207108
      8.97673      5.58005     10.27316        -0.517006     -0.025111      0.524141
     13.80205      9.36262      2.67835        -0.964772     -0.938945     -1.084372
     13.50279      7.44044      4.73270        -0.028143     -0.538966      0.507819
     14.08646      6.49494      7.66876         0.123291     -0.072619     -0.083847
     10.02798      8.76977      4.73270        -0.142647     -0.018031      0.123096
     10.61165      7.82427      7.66876         0.219902     -0.011426     -0.035699
     11.19715      6.95076     10.27313         0.248992      0.492335      0.494998
      5.01120      9.27480      2.42709         0.430217      0.488148      0.512419
      1.66190      1.67871      5.87212         0.053613     -0.034310      0.103002
      2.24556      0.73321      8.80817         0.465745     -0.717193     -3.102156
      6.70646      2.62422      2.93606        -0.596462      2.689107     -1.301508
      5.04085      5.32241     11.44826         0.196889     -0.272145      2.753022
      2.24556      3.80055      9.79595         0.129253      1.018291     -0.143151
      7.29013      4.74605      6.85989        -0.079298      0.148500     -0.020357
      3.97255      1.00260      1.39275         0.001847     -1.024610     -3.060261
      4.18418      0.66015      3.92384        -1.535099      0.415051      2.334727
      4.15032      4.36927      1.21126         0.145863      0.142860     -3.117015
      3.96438      3.99884      3.92384         0.091864      0.752762      2.706841
      4.54805      3.05334      6.85989         0.001913      0.007472     -0.025302
      5.13172      2.10784      9.79595        -0.978500      0.349165     -0.072488
[...]
      6.48666      9.03025      3.92384         0.091864      0.752762      2.706841
      7.07033      8.08475      6.85989         0.001913      0.007472     -0.025302
      7.65400      7.13925      9.79595        -0.978500      0.349165     -0.072488
      9.81241      6.71012      5.87212        -0.082008      0.225863      0.784271
     10.39608      5.76462      8.80817         0.494276     -0.771509     -3.139069
     14.93237      9.63330      0.98163        -0.291378      0.604902     -3.909352
     14.85697      7.65563      2.93606         0.975042     -3.584155      0.550781
      8.14709      0.29050     11.44867         0.165236     -0.267915      2.754720
     10.39608      8.83196      9.79595         0.099499      1.025746     -0.063236
     15.44064      9.77746      6.85989        -0.097136     -0.025771     -0.030493
     12.33469      5.69156      3.92384         2.292253      2.048836      1.741145
      7.50813      0.54256      1.63315         0.719164      1.380055     -3.216463
     12.11489      9.03025      3.92384        -1.811579     -1.316940      1.594403
     12.69856      8.08475      6.85989         0.051583      0.008210     -0.011732
     13.28223      7.13925      9.79595        -0.940959      0.362132     -0.080129
    total drift:                               -0.205418      0.074755      0.069630

  FREE ENERGIE OF THE ION-ELECTRON SYSTEM (eV)
  free  energy   TOTEN  =      -470.25714974 eV

  energy  without entropy=     -468.98803650  energy(sigma->0) =     -469.62259312