 vasp.5.4.4.18Apr17-6-g9f103f2a35 (build Aug 13 2019 17:33:20) gamma-only

 executed on             LinuxIFC date 2020.05.12  11:01:07

 INCAR:
 POTCAR:    PAW_PBE Ni_pv 06Sep2000
 POTCAR:    PAW_PBE S 06Sep2000
 POTCAR:    PAW_PBE Ni_pv 06Sep2000
   VRHFIN =Ni:

   TITEL  = PAW_PBE Ni_pv 06Sep2000
   POMASS =   58.690; ZVAL   =   16.000    mass and valenz
   ENMAX  =  367.986; ENMIN  =  275.989 eV

 POTCAR:    PAW_PBE S 06Sep2000
   VRHFIN =S : s2p4

   TITEL  = PAW_PBE S 06Sep2000
   POMASS =   32.066; ZVAL   =    6.000    mass and valenz
   ENMAX  =  258.689; ENMIN  =  194.016 eV

 Optimization of the real space projectors (new method)

 maximal supplied QI-value         = 18.90
 optimisation between [QCUT,QGAM] = [ 10.77, 21.73] = [ 32.49,132.25] Ry
 Optimized for a Real-space Cutoff    1.38 Angstroem

   l    n(q)    QCUT    max X(q) W(low)/X(q) W(high)/X(q)  e(spline)
   1      8    10.771     2.836    0.40E-04    0.29E-04    0.12E-06
   1      8    10.771     4.023    0.10E-03    0.48E-04    0.29E-06
   2      8    10.771    73.368    0.42E-03    0.97E-04    0.44E-06
   2      8    10.771    69.010    0.42E-03    0.99E-04    0.45E-06
   0      9    10.771    54.797    0.10E-03    0.56E-04    0.74E-07
   0      9    10.771    24.266    0.89E-04    0.49E-04    0.67E-07
 Optimization of the real space projectors (new method)

 maximal supplied QI-value         = 19.84
 optimisation between [QCUT,QGAM] = [ 10.71, 21.63] = [ 32.15,130.99] Ry
 Optimized for a Real-space Cutoff    1.19 Angstroem

   l    n(q)    QCUT    max X(q) W(low)/X(q) W(high)/X(q)  e(spline)
   0      8    10.715   187.594    0.41E-03    0.53E-04    0.66E-07
   0      8    10.715   164.243    0.41E-03    0.53E-04    0.65E-07
   1      7    10.715    67.533    0.19E-03    0.59E-03    0.68E-07
   1      7    10.715    50.729    0.19E-03    0.58E-03    0.67E-07
  PAW_PBE Ni_pv 06Sep2000               :
  PAW_PBE S 06Sep2000                   :

 POSCAR: Type_048 Type_148
  positions in cartesian coordinates
 exchange correlation table for  LEXCH =        8
   RHO(1)=    0.500       N(1)  =     2000
   RHO(2)=  100.500       N(2)  =     4000

 ion  position               nearest neighbor table
   1  0.256  0.016  0.152-  73 2.25  64 2.26  80 2.26  53 2.36  93 2.36   5 2.39   9 2.48
   2  0.256  0.016  0.481-  74 2.25  65 2.26  81 2.26  54 2.36  94 2.36  10 2.53   6 2.53
   3  0.006  0.266  0.317-  61 2.25  67 2.26  70 2.26  56 2.36  59 2.36   7 2.53  23 2.53
   4  0.091  0.103  0.643-  60 2.00  71 2.17  79 2.21  48 2.30
   5  0.297  0.027  0.071-  90 2.02  49 2.14  93 2.16  77 2.20   1 2.39  80 2.44   9 2.52
   6  0.256  0.016  0.394-  78 2.25  61 2.26  81 2.26  50 2.36  94 2.36   2 2.53  10 2.53
   7  0.006  0.266  0.230-  64 2.25  70 2.26  62 2.26  59 2.36  51 2.36   3 2.53  23 2.53
   8  0.006  0.266  0.558-  65 2.25  71 2.26  63 2.26  60 2.36  52 2.36
   9  0.185  0.219  0.116-  64 2.11  49 2.12  77 2.17  57 2.21  53 2.26   1 2.48   5 2.52
  10  0.190  0.215  0.438-  58 2.25  65 2.26  61 2.26  54 2.36  50 2.36   2 2.53   6 2.53
  11  0.440  0.465  0.273-  82 2.25  51 2.26  56 2.26  62 2.36  67 2.36  19 2.53  15 2.53
  12  0.441  0.547  0.550-  63 2.06  83 2.08  76 2.17  52 2.21  26 2.38
  13  0.756  0.016  0.152-  86 2.25  53 2.26  93 2.26  64 2.36  80 2.36  17 2.42  21 2.49
  14  0.756  0.016  0.481-  87 2.25  54 2.26  94 2.26  65 2.36  81 2.36  22 2.53  18 2.53
  15  0.506  0.266  0.317-  50 2.25  56 2.26  59 2.26  67 2.36  70 2.36  19 2.53  11 2.53
  16  0.591  0.103  0.643-  71 2.00  60 2.17  92 2.21  36 2.30
  17  0.715  0.031  0.070-  90 2.02  49 2.11  93 2.13  77 2.18  13 2.42  21 2.52  80 2.54
  18  0.756  0.016  0.394-  91 2.25  50 2.26  94 2.26  61 2.36  81 2.36  14 2.53  22 2.53
  19  0.506  0.266  0.230-  53 2.25  59 2.26  51 2.26  70 2.36  62 2.36  15 2.53  11 2.53
  20  0.506  0.266  0.558-  54 2.25  60 2.26  52 2.26  71 2.36  63 2.36
  21  0.701  0.221  0.117-  49 2.14  64 2.18  53 2.18  77 2.19  68 2.21  13 2.49  17 2.52
  22  0.690  0.215  0.438-  69 2.25  54 2.26  50 2.26  65 2.36  61 2.36  14 2.53  18 2.53
  23  0.940  0.465  0.273-  95 2.25  62 2.26  67 2.26  51 2.36  56 2.36   7 2.53   3 2.53
  24  0.941  0.547  0.550-  52 2.06  96 2.08  89 2.17  63 2.21  38 2.38
  25  0.256  0.516  0.152-  51 2.25  88 2.26  57 2.26  75 2.36  68 2.36  29 2.42  33 2.49
  26  0.256  0.516  0.481-  52 2.25  89 2.26  58 2.26  76 2.36  69 2.36  12 2.38  34 2.53  30 2.53

  27  0.006  0.766  0.317-  85 2.25  91 2.26  95 2.26  78 2.36  82 2.36  31 2.53  47 2.53
  28  0.011  0.769  0.638-  79 2.17  96 2.19  92 2.23  83 2.25  32 2.34  48 2.42
  29  0.215  0.531  0.070-  55 2.02  84 2.11  57 2.13  66 2.18  25 2.42  33 2.52  68 2.54
  30  0.256  0.516  0.394-  56 2.25  85 2.26  58 2.26  72 2.36  69 2.36  26 2.53  34 2.53
  31  0.006  0.766  0.230-  88 2.25  95 2.26  86 2.26  82 2.36  73 2.36  27 2.53  47 2.53
  32  0.006  0.766  0.558-  89 2.25  96 2.26  87 2.26  28 2.34  83 2.36  74 2.36  48 2.53
  33  0.201  0.721  0.117-  84 2.14  75 2.18  88 2.18  66 2.19  80 2.21  25 2.49  29 2.52
  34  0.190  0.715  0.438-  81 2.25  89 2.26  85 2.26  76 2.36  72 2.36  26 2.53  30 2.53
  35  0.440  0.965  0.273-  59 2.25  73 2.26  78 2.26  86 2.36  91 2.36  43 2.53  39 2.53
  36  0.440  0.965  0.602-  92 2.15  79 2.16  60 2.25  74 2.26  16 2.30  87 2.36  40 2.42  44 2.53

[...]

  49  0.455  0.180  0.071-  17 2.11   9 2.12   5 2.14  21 2.14  90 2.64  53 2.71
  50  0.468  0.167  0.382-  15 2.25  18 2.26  22 2.26   6 2.36  10 2.36
  51  0.218  0.417  0.218-  25 2.25  11 2.26  19 2.26  23 2.36   7 2.36
  52  0.218  0.417  0.547-  24 2.06  12 2.21  26 2.25  20 2.26   8 2.36
  53  0.468  0.167  0.164-  21 2.18  19 2.25   9 2.26  13 2.26   1 2.36  49 2.71
  54  0.468  0.167  0.493-  20 2.25  22 2.26  14 2.26  10 2.36   2 2.36
  55  0.021  0.482  0.021-  41 2.02  29 2.02  84 2.64  57 2.67
  56  0.218  0.417  0.329-  30 2.25  15 2.26  11 2.26   3 2.36  23 2.36
  57  0.053  0.414  0.109-  29 2.13  41 2.16   9 2.21  25 2.26  37 2.36  55 2.67
  58  0.053  0.414  0.438-  10 2.25  26 2.26  30 2.26  38 2.36  42 2.36
  59  0.303  0.164  0.273-  35 2.25  19 2.26  15 2.26   7 2.36   3 2.36
  60  0.303  0.164  0.602-   4 2.00  16 2.17  36 2.25  20 2.26   8 2.36
  61  0.968  0.167  0.382-   3 2.25   6 2.26  10 2.26  18 2.36  22 2.36
  62  0.718  0.417  0.218-  37 2.25  23 2.26   7 2.26  11 2.36  19 2.36
  63  0.718  0.417  0.547-  12 2.06  24 2.21  38 2.25   8 2.26  20 2.36
  64  0.968  0.167  0.164-   9 2.11  21 2.18   7 2.25   1 2.26  13 2.36  77 2.70
  65  0.968  0.167  0.493-   8 2.25  10 2.26   2 2.26  22 2.36  14 2.36
  66  0.470  0.638  0.072-  45 2.17  29 2.18  33 2.19  41 2.20  75 2.70  68 2.70
  67  0.718  0.417  0.329-  42 2.25   3 2.26  23 2.26  15 2.36  11 2.36
  68  0.553  0.414  0.109-  21 2.21  37 2.26  25 2.36  41 2.44  29 2.54  66 2.70
  69  0.553  0.414  0.438-  22 2.25  38 2.26  42 2.26  26 2.36  30 2.36
  70  0.803  0.164  0.273-  47 2.25   7 2.26   3 2.26  19 2.36  15 2.36
  71  0.803  0.164  0.602-  16 2.00   4 2.17  48 2.25   8 2.26  20 2.36
  72  0.468  0.667  0.382-  39 2.25  42 2.26  46 2.26  30 2.36  34 2.36
  73  0.218  0.917  0.218-   1 2.25  35 2.26  43 2.26  47 2.36  31 2.36
  74  0.218  0.917  0.547-   2 2.25  36 2.26  44 2.26  48 2.36  32 2.36
  75  0.468  0.667  0.164-  45 2.11  33 2.18  43 2.25  37 2.26  25 2.36  66 2.70
  76  0.468  0.667  0.493-  12 2.17  44 2.25  46 2.26  38 2.26  34 2.36  26 2.36
  77  0.970  0.138  0.072-   9 2.17  17 2.18  21 2.19   5 2.20  64 2.70  80 2.70
  78  0.218  0.917  0.329-   6 2.25  39 2.26  35 2.26  27 2.36  47 2.36
  79  0.208  0.906  0.647-  48 2.15  36 2.16  28 2.17   4 2.21  40 2.23
  80  0.053  0.914  0.109-  33 2.21   1 2.26  13 2.36   5 2.44  17 2.54  77 2.70
  81  0.053  0.914  0.438-  34 2.25   2 2.26   6 2.26  14 2.36  18 2.36
  82  0.303  0.664  0.273-  11 2.25  43 2.26  39 2.26  31 2.36  27 2.36
  83  0.303  0.664  0.602-  12 2.08  40 2.19  28 2.25  44 2.26  32 2.36
  84  0.955  0.680  0.071-  29 2.11  45 2.12  41 2.14  33 2.14  55 2.64  88 2.71
  85  0.968  0.667  0.382-  27 2.25  30 2.26  34 2.26  42 2.36  46 2.36
  86  0.718  0.917  0.218-  13 2.25  47 2.26  31 2.26  35 2.36  43 2.36
  87  0.718  0.917  0.547-  14 2.25  48 2.26  32 2.26  36 2.36  44 2.36
  88  0.968  0.667  0.164-  33 2.18  31 2.25  45 2.26  25 2.26  37 2.36  84 2.71
  89  0.968  0.667  0.493-  24 2.17  32 2.25  34 2.26  26 2.26  46 2.36  38 2.36
  90  0.521  0.982  0.021-   5 2.02  17 2.02  49 2.64  93 2.67
  91  0.718  0.917  0.329-  18 2.25  27 2.26  47 2.26  39 2.36  35 2.36
  92  0.708  0.906  0.647-  36 2.15  48 2.16  40 2.17  16 2.21  28 2.23
  93  0.553  0.914  0.109-  17 2.13   5 2.16  45 2.21  13 2.26   1 2.36  90 2.67
  94  0.553  0.914  0.438-  46 2.25  14 2.26  18 2.26   2 2.36   6 2.36
  95  0.803  0.664  0.273-  23 2.25  31 2.26  27 2.26  43 2.36  39 2.36
  96  0.803  0.664  0.602-  24 2.08  28 2.19  40 2.25  32 2.26  44 2.36

  LATTYP: Found a simple monoclinic cell.
 ALAT       =    13.8711386352
 B/A-ratio  =     2.1019774055
 C/A-ratio  =     1.3233367991
 COS(beta)  =    -0.9620914447

  Lattice vectors:

 A1 = (  -8.3714133957, -11.0601955134,   0.0000000000)
 A2 = (   0.0000000000,   0.0000000000, -29.1568200000)
 A3 = (  14.6499733957,  11.0601955134,   0.0000000000)

Analysis of symmetry for initial positions (statically):
 Subroutine PRICEL returns:
 Original cell was already a primitive cell.

 Routine SETGRP: Setting up the symmetry group for a
 simple monoclinic supercell.

 Subroutine GETGRP returns: Found  1 space group operations
 (whereof  1 operations were pure point group operations)
 out of a pool of  4 trial point group operations.

The static configuration has the point symmetry C_1 .

Analysis of symmetry for dynamics (positions and initial velocities):
 Subroutine PRICEL returns:
 Original cell was already a primitive cell.

 Routine SETGRP: Setting up the symmetry group for a
 simple monoclinic supercell.

 Subroutine GETGRP returns: Found  1 space group operations
 (whereof  1 operations were pure point group operations)
 out of a pool of  4 trial point group operations.

The dynamic configuration has the point symmetry C_1 .

 Subroutine INISYM returns: Found  1 space group operations
 (whereof  1 operations are pure point group operations),
 and found     1 'primitive' translations

 KPOINTS: gamma-point-only calculation. no periodi

Automatic generation of k-mesh.
Space group operators:
 irot       det(A)        alpha          n_x          n_y          n_z        tau_x        tau_y        tau_z
    1     1.000000     0.000000     1.000000     0.000000     0.000000     0.000000     0.000000     0.000000

 Subroutine IBZKPT returns following result:

 Found      1 irreducible k-points:

 Following reciprocal coordinates:
            Coordinates               Weight
  0.000000  0.000000  0.000000      1.000000

 Following cartesian coordinates:
            Coordinates               Weight
  0.000000  0.000000  0.000000      1.000000

 SYSTEM =  "Millerite NiS"
 POSCAR =  Type_048 Type_148

 Startparameter for this run:
   NWRITE =      2    write-flag & timer
   PREC   = normal    normal or accurate (medium, high low for compatibility)
[...]
     0.000000000  0.000000000 29.156820000     0.000000000  0.000000000  0.034297293

  length of vectors
     6.278560000 11.256463038 29.156820000     0.162098538  0.090414315  0.034297293

 FORCES acting on ions
    electron-ion (+dipol)            ewald-force                    non-local-force                 convergence-correction
   0.317E+02 0.333E+03 0.415E+04   -.326E+02 -.336E+03 -.414E+04   0.755E+00 0.221E+01 -.108E+01   0.574E-02 0.253E-01 0.239E+00
   -.414E+02 0.101E+03 -.353E+04   0.406E+02 -.101E+03 0.354E+04   0.986E+00 0.444E+00 -.126E+01   -.621E-05 0.137E+00 -.384E+00
   -.413E+02 0.266E+03 0.282E+03   0.404E+02 -.267E+03 -.281E+03   0.966E+00 0.457E+00 -.108E+01   0.401E-02 0.443E-01 0.703E-01
   -.279E+02 -.118E+04 -.722E+04   0.263E+02 0.118E+04 0.722E+04   0.930E+00 0.935E-01 0.488E+00   0.268E-01 0.296E+00 -.573E-01
   0.385E+03 0.338E+03 0.714E+04   -.390E+03 -.341E+03 -.714E+04   0.279E+01 0.271E+01 0.756E+01   0.199E-01 0.247E-01 -.981E-01
   -.413E+02 0.212E+03 -.619E+03   0.404E+02 -.212E+03 0.618E+03   0.982E+00 0.511E+00 0.111E+01   0.725E-02 0.177E-02 -.874E-01
   -.405E+02 0.252E+03 0.317E+04   0.394E+02 -.252E+03 -.317E+04   0.117E+01 0.608E+00 0.146E+01   0.695E-02 0.137E-01 0.420E+00
   -.347E+02 -.339E+03 -.542E+04   0.329E+02 0.338E+03 0.542E+04   0.196E+01 0.632E+00 0.232E+01   0.407E-02 0.171E+00 -.182E+00
   0.133E+02 -.634E+03 0.566E+04   -.117E+02 0.637E+03 -.566E+04   -.100E+01 -.311E+01 0.642E+00   -.656E-02 -.482E-01 0.716E-01
   -.412E+02 -.512E+03 -.216E+04   0.406E+02 0.512E+03 0.216E+04   0.802E+00 -.128E+01 -.230E+00   0.847E-02 -.380E-01 -.129E+00
   -.412E+02 -.507E+03 0.175E+04   0.405E+02 0.508E+03 -.175E+04   0.900E+00 -.125E+01 -.824E-01   0.969E-04 -.240E-01 0.328E+00
   -.146E+02 0.641E+03 -.581E+04   0.131E+02 -.641E+03 0.581E+04   0.855E+00 0.677E+00 -.219E+01   -.169E-01 -.337E+00 -.213E+00
   -.107E+03 0.335E+03 0.416E+04   0.106E+03 -.337E+03 -.416E+04   0.137E+01 0.221E+01 -.106E+01   0.860E-02 0.246E-01 0.272E+00
   -.415E+02 0.101E+03 -.353E+04   0.406E+02 -.101E+03 0.354E+04   0.994E+00 0.445E+00 -.127E+01   0.954E-03 0.134E+00 -.369E+00
   -.413E+02 0.266E+03 0.282E+03   0.404E+02 -.266E+03 -.281E+03   0.951E+00 0.447E+00 -.111E+01   0.318E-02 0.520E-01 0.786E-01
   -.279E+02 -.118E+04 -.722E+04   0.263E+02 0.118E+04 0.722E+04   0.931E+00 0.958E-01 0.489E+00   0.222E-01 0.294E+00 -.539E-01
   -.407E+03 0.303E+03 0.715E+04   0.413E+03 -.306E+03 -.716E+04   -.320E+01 0.282E+01 0.717E+01   -.482E-01 0.322E-01 -.108E+00
   -.413E+02 0.212E+03 -.619E+03   0.404E+02 -.212E+03 0.618E+03   0.975E+00 0.505E+00 0.110E+01   0.601E-02 -.161E-02 -.937E-01
   -.392E+02 0.249E+03 0.318E+04   0.382E+02 -.249E+03 -.318E+04   0.102E+01 0.561E+00 0.125E+01   0.813E-02 0.224E-01 0.445E+00
   -.347E+02 -.339E+03 -.542E+04   0.329E+02 0.338E+03 0.542E+04   0.196E+01 0.632E+00 0.232E+01   -.471E-02 0.176E+00 -.178E+00
   -.722E+02 -.659E+03 0.567E+04   0.719E+02 0.664E+03 -.567E+04   0.123E+00 -.474E+01 0.679E-02   0.185E-01 -.246E-01 0.832E-01
   -.412E+02 -.512E+03 -.216E+04   0.405E+02 0.512E+03 0.216E+04   0.799E+00 -.129E+01 -.238E+00   0.323E-02 -.277E-01 -.126E+00
   -.411E+02 -.507E+03 0.174E+04   0.403E+02 0.508E+03 -.174E+04   0.974E+00 -.119E+01 0.451E-01   0.357E-02 -.207E-01 0.312E+00
   -.146E+02 0.641E+03 -.581E+04   0.131E+02 -.641E+03 0.581E+04   0.858E+00 0.678E+00 -.219E+01   0.378E-02 -.346E+00 -.207E+00
   -.107E+03 0.337E+03 0.416E+04   0.106E+03 -.340E+03 -.416E+04   0.137E+01 0.221E+01 -.108E+01   0.251E-02 0.775E-02 0.285E+00
   0.147E+02 0.565E+03 -.326E+04   -.151E+02 -.567E+03 0.326E+04   0.669E-01 0.225E+01 -.329E+00   0.102E-01 -.104E+00 -.176E+00
   -.413E+02 0.247E+03 0.310E+03   0.404E+02 -.248E+03 -.309E+03   0.950E+00 0.620E+00 -.127E+01   0.656E-02 0.455E-01 0.962E-01
   -.849E+01 0.105E+04 -.748E+04   0.842E+01 -.105E+04 0.748E+04   0.108E+00 -.687E+00 0.270E+01   0.434E-02 -.199E+00 0.900E-01
   -.407E+03 0.306E+03 0.715E+04   0.413E+03 -.309E+03 -.716E+04   -.321E+01 0.282E+01 0.717E+01   -.465E-01 0.366E-01 -.159E+00
   -.411E+02 0.312E+03 -.550E+03   0.402E+02 -.312E+03 0.550E+03   0.994E+00 0.717E+00 0.696E+00   0.662E-02 0.143E-01 -.861E-01
   -.392E+02 0.244E+03 0.318E+04   0.382E+02 -.245E+03 -.318E+04   0.100E+01 0.610E+00 0.119E+01   0.915E-02 0.630E-01 0.479E+00
   -.723E+02 0.172E+03 -.457E+04   0.725E+02 -.170E+03 0.457E+04   0.104E+00 -.121E+01 0.526E+00   0.594E-02 -.210E+00 -.356E+00
   -.722E+02 -.658E+03 0.567E+04   0.719E+02 0.662E+03 -.567E+04   0.120E+00 -.473E+01 -.847E-02   0.147E-01 0.658E-01 0.617E-01
   -.394E+02 -.576E+03 -.193E+04   0.390E+02 0.577E+03 0.193E+04   0.508E+00 -.131E+01 0.589E+00   0.104E-01 -.835E-01 -.272E+00
   -.411E+02 -.523E+03 0.174E+04   0.403E+02 0.524E+03 -.174E+04   0.965E+00 -.116E+01 0.721E-01   -.927E-03 -.294E-01 0.315E+00
   0.434E+02 -.495E+03 -.559E+04   -.439E+02 0.497E+03 0.559E+04   -.360E+00 -.258E+01 0.143E+01   0.165E-01 0.334E+00 -.846E-01
   0.317E+02 0.336E+03 0.415E+04   -.326E+02 -.338E+03 -.415E+04   0.758E+00 0.221E+01 -.110E+01   0.147E-01 0.842E-03 0.251E+00
   0.147E+02 0.565E+03 -.326E+04   -.151E+02 -.567E+03 0.326E+04   0.637E-01 0.225E+01 -.328E+00   -.695E-02 -.105E+00 -.184E+00
   -.413E+02 0.248E+03 0.309E+03   0.404E+02 -.248E+03 -.309E+03   0.966E+00 0.630E+00 -.124E+01   -.234E-02 0.423E-01 0.111E+00
   -.848E+01 0.105E+04 -.748E+04   0.841E+01 -.105E+04 0.748E+04   0.109E+00 -.687E+00 0.271E+01   0.544E-03 -.196E+00 0.757E-01
   0.385E+03 0.340E+03 0.714E+04   -.390E+03 -.344E+03 -.715E+04   0.279E+01 0.271E+01 0.756E+01   0.187E-01 0.240E-01 -.155E+00
   -.410E+02 0.312E+03 -.550E+03   0.401E+02 -.312E+03 0.550E+03   0.100E+01 0.718E+00 0.701E+00   0.833E-02 0.117E-01 -.101E+00
   -.404E+02 0.247E+03 0.317E+04   0.394E+02 -.248E+03 -.317E+04   0.115E+01 0.661E+00 0.141E+01   0.306E-02 0.579E-01 0.463E+00
   -.723E+02 0.172E+03 -.457E+04   0.725E+02 -.170E+03 0.457E+04   0.104E+00 -.121E+01 0.527E+00   -.928E-02 -.213E+00 -.355E+00
   0.133E+02 -.633E+03 0.566E+04   -.117E+02 0.636E+03 -.566E+04   -.102E+01 -.311E+01 0.623E+00   -.403E-02 0.418E-01 0.412E-01
   -.394E+02 -.576E+03 -.193E+04   0.390E+02 0.577E+03 0.193E+04   0.513E+00 -.130E+01 0.596E+00   0.311E-02 -.754E-01 -.279E+00
   -.412E+02 -.523E+03 0.174E+04   0.405E+02 0.523E+03 -.174E+04   0.887E+00 -.122E+01 -.568E-01   0.415E-02 -.472E-01 0.313E+00
   0.434E+02 -.495E+03 -.559E+04   -.439E+02 0.497E+03 0.559E+04   -.359E+00 -.258E+01 0.143E+01   0.168E-02 0.339E+00 -.840E-01
   -.571E+01 -.340E+03 0.276E+04   0.524E+01 0.349E+03 -.277E+04   0.436E+00 -.589E+01 0.493E+01   -.139E-01 -.902E-02 -.172E-01
   0.397E+02 -.858E+02 -.161E+03   -.404E+02 0.869E+02 0.158E+03   0.552E+00 -.132E+01 0.254E+01   -.520E-02 -.251E-01 -.110E-01
   0.368E+02 -.850E+02 0.128E+04   -.375E+02 0.864E+02 -.128E+04   0.547E+00 -.159E+01 0.256E+01   -.380E-02 -.329E-01 0.211E+00
   0.496E+01 0.239E+03 -.211E+04   -.604E+01 -.239E+03 0.211E+04   0.235E+01 -.145E+01 -.238E+01   0.599E-02 -.234E-01 -.647E-01
   0.370E+02 -.762E+02 0.145E+04   -.375E+02 0.776E+02 -.145E+04   0.341E+00 -.153E+01 -.173E+01   -.679E-02 0.266E-01 0.119E+00
   0.398E+02 -.138E+03 -.147E+04   -.405E+02 0.140E+03 0.147E+04   0.536E+00 -.159E+01 -.328E+01   -.276E-02 0.360E-01 -.955E-01
   0.307E+01 0.180E+03 0.286E+04   -.311E+01 -.182E+03 -.287E+04   0.929E-01 0.203E+00 0.268E+01   -.168E-01 -.363E-03 -.455E-01
   0.396E+02 -.755E+02 0.322E+02   -.403E+02 0.767E+02 -.299E+02   0.574E+00 -.141E+01 -.268E+01   0.116E-01 0.170E-01 0.276E-01
   0.234E+02 0.267E+03 0.215E+04   -.244E+02 -.270E+03 -.214E+04   0.950E+00 0.294E+01 -.354E+00   -.201E-01 -.446E-01 -.311E-02
   0.385E+02 0.226E+03 -.770E+03   -.396E+02 -.228E+03 0.770E+03   0.941E+00 0.273E+01 -.193E-02   0.865E-02 0.732E-02 -.724E-01
   0.394E+02 0.167E+03 0.648E+03   -.402E+02 -.169E+03 -.649E+03   0.730E+00 0.269E+01 -.102E+00   0.251E-02 0.352E-03 0.992E-01
   -.372E+01 -.468E+03 -.221E+04   0.302E+01 0.468E+03 0.222E+04   0.216E+01 0.444E+00 -.174E+01   -.587E-02 0.963E-01 -.382E-01
[...]
   0.564E+02 0.505E+03 -.258E+04   -.573E+02 -.509E+03 0.258E+04   0.180E+00 0.481E+01 -.125E+01   0.375E-02 -.164E+00 -.648E-01
   -.572E+01 -.339E+03 0.276E+04   0.524E+01 0.347E+03 -.277E+04   0.439E+00 -.588E+01 0.493E+01   -.125E-01 0.113E-01 -.279E-01
   0.394E+02 -.845E+02 -.123E+03   -.404E+02 0.858E+02 0.121E+03   0.912E+00 -.154E+01 0.218E+01   0.603E-02 -.236E-01 -.293E-01
   0.369E+02 -.875E+02 0.128E+04   -.375E+02 0.888E+02 -.128E+04   0.480E+00 -.161E+01 0.252E+01   0.502E-02 -.117E-01 0.195E+00
   0.389E+02 -.136E+03 -.154E+04   -.393E+02 0.137E+03 0.153E+04   0.513E+00 -.159E+01 0.150E+01   -.776E-02 0.689E-01 -.178E+00
   0.370E+02 -.759E+02 0.145E+04   -.375E+02 0.773E+02 -.145E+04   0.341E+00 -.153E+01 -.176E+01   -.204E-02 0.546E-01 0.125E+00
   0.184E+02 -.182E+03 -.127E+04   -.184E+02 0.186E+03 0.127E+04   -.198E+00 -.270E+01 -.937E+00   0.506E-02 -.664E-01 -.146E+00
   0.307E+01 0.179E+03 0.286E+04   -.311E+01 -.181E+03 -.287E+04   0.919E-01 0.204E+00 0.267E+01   -.161E-01 0.395E-02 -.297E-01
   0.397E+02 -.908E+02 0.327E+02   -.403E+02 0.919E+02 -.305E+02   0.519E+00 -.133E+01 -.265E+01   0.891E-02 -.612E-02 0.216E-01
   -.242E+02 0.383E+02 -.287E+04   0.244E+02 -.382E+02 0.288E+04   0.438E-01 -.832E-01 -.321E+01   -.560E-02 0.763E-01 0.602E-01
   0.234E+02 0.267E+03 0.214E+04   -.244E+02 -.270E+03 -.214E+04   0.950E+00 0.294E+01 -.323E+00   -.208E-01 -.146E-01 0.474E-02
   0.395E+02 0.131E+03 -.763E+03   -.404E+02 -.133E+03 0.763E+03   0.735E+00 0.240E+01 0.235E-01   -.387E-02 0.340E-01 -.114E+00
   0.394E+02 0.167E+03 0.655E+03   -.402E+02 -.170E+03 -.655E+03   0.710E+00 0.274E+01 -.730E-01   0.106E-01 0.864E-02 0.127E+00
   0.565E+02 0.505E+03 -.258E+04   -.573E+02 -.509E+03 0.258E+04   0.181E+00 0.481E+01 -.125E+01   -.796E-02 -.159E+00 -.581E-01
   -.630E+02 0.100E+02 -.465E+02   0.341E-12 0.307E-11 -.909E-12   0.629E+02 -.104E+02 0.460E+02   0.127E+00 0.471E+00 0.538E+00

 POSITION                                       TOTAL-FORCE (eV/Angst)
      1.64370      0.18204      4.44331        -0.069455     -0.285537      0.674472
      1.64370      0.18204     14.02172         0.125439      0.079699     -0.434625
      0.59727      2.94708      9.23251         0.086189      0.140622     -0.372963
      0.78970      1.14458     18.73657        -0.680709      0.547365      1.055151
      1.92442      0.29893      2.07018        -2.434132     -0.428977      1.211339
      1.64370      0.18204     11.49105         0.067326      0.146365      0.329386
      0.59727      2.94708      6.70184         0.124907      0.160839      0.587011
      0.59727      2.94708     16.28025         0.103214      0.043787     -0.277662
      1.61795      2.42349      3.38780         0.551221     -0.133170      0.549563
      1.64370      2.37366     12.75638         0.190896     -0.382746     -0.074614
      3.73655      5.13871      7.96718         0.166670     -0.407480      0.006079
      3.91159      6.05339     16.03843        -0.602760     -0.194666      0.274877
      4.78298      0.18204      4.44331         0.173475     -0.207562      0.454983
      4.78298      0.18204     14.02172         0.126770      0.076719     -0.434377
      3.73655      2.94708      9.23251         0.091213      0.144744     -0.385596
      3.92898      1.14458     18.73657        -0.680268      0.547973      1.053856
      4.55639      0.34014      2.04400         2.153857     -0.233923      1.124289
      4.78298      0.18204     11.49105         0.064283      0.145054      0.329103
      3.73655      2.94708      6.70184         0.057995      0.118797      0.527111
      3.73655      2.94708     16.28025         0.104094      0.043898     -0.276737
      4.86185      2.44596      3.40102        -0.198663     -0.387538      0.349791
      4.78298      2.37366     12.75638         0.189250     -0.381886     -0.075567
      6.87583      5.13871      7.96718         0.168156     -0.413641      0.001773
      7.05087      6.05339     16.03843        -0.601640     -0.195988      0.273668
      2.69013      5.71213      4.44331         0.178418     -0.209980      0.453975
      2.69013      5.71213     14.02172        -0.327817     -0.450950     -1.349598
      1.64370      8.47718      9.23251         0.070972      0.147340     -0.397331
      1.67571      8.50009     18.61515         0.044476     -0.123913     -0.054464
      2.46353      5.87024      2.04400         2.151601     -0.238620      1.126438
      2.69013      5.71213     11.49105         0.106696      0.134167      0.203784
      1.64370      8.47718      6.70184         0.068326      0.129134      0.513975
      1.64370      8.47718     16.28025         0.311712      0.642785     -0.806927
      2.76900      7.97606      3.40102        -0.197249     -0.386708      0.345304
      2.69013      7.90376     12.75638         0.128267     -0.255050     -0.117992
      4.78298     10.66881      7.96718         0.173332     -0.395288      0.017664
      4.78298     10.66881     17.54559        -0.878525     -0.864396     -2.766368
      5.82941      5.71213      4.44331        -0.062919     -0.287578      0.673163
      5.82941      5.71213     14.02172        -0.327949     -0.447758     -1.349612
      4.78298      8.47718      9.23251         0.065916      0.144602     -0.385140
      4.81499      8.50009     18.61515         0.044373     -0.123544     -0.053962
      6.11013      5.82903      2.07018        -2.434592     -0.434658      1.212015
      5.82941      5.71213     11.49105         0.109970      0.134481      0.204524
      4.78298      8.47718      6.70184         0.136503      0.169514      0.572880
      4.78298      8.47718     16.28025         0.311220      0.642671     -0.806373
      5.80366      7.95358      3.38780         0.552904     -0.131961      0.546332
      5.82941      7.90376     12.75638         0.130116     -0.255081     -0.116215
      7.92226     10.66881      7.96718         0.172400     -0.388752      0.022514
      7.92226     10.66881     17.54559        -0.878370     -0.864619     -2.766247
      3.23325      1.98788      2.08376        -0.047349      2.410298     -2.445809
      3.28961      1.84282     11.14515        -0.167165     -0.261658      0.424301
      2.24318      4.60787      6.35595        -0.119790     -0.277281      0.370512
      2.24318      4.60787     15.93436         1.278112     -1.216921      0.325057
      3.28961      1.84282      4.78920        -0.202956     -0.100705      1.208027
      3.28961      1.84282     14.36761        -0.222879     -0.150999     -0.265660
      1.13886      5.33228      0.61158         0.030923     -1.907177     -4.240636
      2.24318      4.60787      9.57841        -0.118900     -0.221861     -0.393998
      1.19676      4.58218      3.17797         0.002536     -0.105073      1.558652
      1.19676      4.58218     12.75638        -0.099894      0.552681     -0.085809
      2.24318      1.81714      7.96718        -0.158589      0.541921     -0.052271
      2.24318      1.81714     17.54559         1.450835      1.003707     -0.139228
[...]
      3.28961      7.34723      7.96718        -0.113798      0.565508     -0.010574
      3.28961      7.34723     17.54559        -0.639577      0.495091      1.366513
      7.41895      7.51797      2.08376        -0.047425      2.414104     -2.445447
      7.47532      7.37292     11.14515        -0.008518     -0.278901      0.396937
      6.42889     10.13797      6.35595        -0.123842     -0.287281      0.365242
      6.42889     10.13797     15.93436         0.037321     -0.344128     -0.051863
      7.47532      7.37292      4.78920        -0.207178     -0.101862      1.207485
      7.47532      7.37292     14.36761        -0.198911      0.483566     -0.621700
      5.32457     10.86238      0.61158         0.030261     -1.904884     -4.242248
      6.42889     10.13797      9.57841        -0.091525     -0.253920     -0.416725
      6.34406     10.02295     18.86832         0.154724      0.031594      3.160181
      5.38246     10.11228      3.17797         0.006192     -0.113126      1.565025
      5.38246     10.11228     12.75638        -0.156846      0.390813      0.045044
      6.42889      7.34723      7.96718        -0.144679      0.551887     -0.027212
      6.42889      7.34723     17.54559        -0.640635      0.495415      1.367039
    total drift:                                0.026675      0.038065      0.057677

  FREE ENERGIE OF THE ION-ELECTRON SYSTEM (eV)
  free  energy   TOTEN  =      -477.50922631 eV

  energy  without entropy=     -476.21910080  energy(sigma->0) =     -476.86416355