 vasp.5.4.4.18Apr17-6-g9f103f2a35 (build Aug 13 2019 17:33:20) gamma-only

 executed on             LinuxIFC date 2020.05.12  22:51:17

 INCAR:
 POTCAR:    PAW_PBE Ni_pv 06Sep2000
 POTCAR:    PAW_PBE S 06Sep2000
 POTCAR:    PAW_PBE Ni_pv 06Sep2000
   VRHFIN =Ni:

   TITEL  = PAW_PBE Ni_pv 06Sep2000
   POMASS =   58.690; ZVAL   =   16.000    mass and valenz
   ENMAX  =  367.986; ENMIN  =  275.989 eV

 POTCAR:    PAW_PBE S 06Sep2000
   VRHFIN =S : s2p4

   TITEL  = PAW_PBE S 06Sep2000
   POMASS =   32.066; ZVAL   =    6.000    mass and valenz
   ENMAX  =  258.689; ENMIN  =  194.016 eV

 Optimization of the real space projectors (new method)

 maximal supplied QI-value         = 18.90
 optimisation between [QCUT,QGAM] = [ 10.77, 21.73] = [ 32.49,132.25] Ry
 Optimized for a Real-space Cutoff    1.38 Angstroem

   l    n(q)    QCUT    max X(q) W(low)/X(q) W(high)/X(q)  e(spline)
   1      8    10.771     2.836    0.40E-04    0.29E-04    0.12E-06
   1      8    10.771     4.023    0.10E-03    0.48E-04    0.29E-06
   2      8    10.771    73.368    0.42E-03    0.97E-04    0.44E-06
   2      8    10.771    69.010    0.42E-03    0.99E-04    0.45E-06
   0      9    10.771    54.797    0.10E-03    0.56E-04    0.74E-07
   0      9    10.771    24.266    0.89E-04    0.49E-04    0.67E-07
 Optimization of the real space projectors (new method)

 maximal supplied QI-value         = 19.84
 optimisation between [QCUT,QGAM] = [ 10.71, 21.63] = [ 32.15,130.99] Ry
 Optimized for a Real-space Cutoff    1.19 Angstroem

   l    n(q)    QCUT    max X(q) W(low)/X(q) W(high)/X(q)  e(spline)
   0      8    10.715   187.594    0.41E-03    0.53E-04    0.66E-07
   0      8    10.715   164.243    0.41E-03    0.53E-04    0.65E-07
   1      7    10.715    67.533    0.19E-03    0.59E-03    0.68E-07
   1      7    10.715    50.729    0.19E-03    0.58E-03    0.67E-07
  PAW_PBE Ni_pv 06Sep2000               :
  PAW_PBE S 06Sep2000                   :

 POSCAR: Type_036 Type_136
  positions in cartesian coordinates
 exchange correlation table for  LEXCH =        8
   RHO(1)=    0.500       N(1)  =     2000
   RHO(2)=  100.500       N(2)  =     4000

 ion  position               nearest neighbor table
   1  0.411  0.800  0.154-  49 2.06  61 2.09  42 2.12  62 2.21  50 2.26   2 2.52
   2  0.547  0.645  0.245-  50 2.06  62 2.07  43 2.25  63 2.36  51 2.36   1 2.52  26 2.53  13 2.53

   3  0.698  0.494  0.372-  44 2.25  51 2.26  63 2.26  52 2.36  64 2.36  14 2.53  27 2.53
   4  0.837  0.342  0.480-  52 2.00  64 2.00  25 2.47  15 2.49
   5  0.114  0.412  0.160-  53 2.06  45 2.25  68 2.26   8 2.28  54 2.36  65 2.36  28 2.53  16 2.53

[...]

  43  0.453  0.872  0.278-   2 2.25  30 2.26  18 2.26  29 2.36  17 2.36
  44  0.603  0.722  0.405-  31 2.05  19 2.09   3 2.25  30 2.36  18 2.36  67 2.72
  45  0.019  0.639  0.193-   8 2.15   5 2.25  24 2.26  33 2.26  23 2.36  32 2.36
  46  0.170  0.489  0.320-  21 2.03   6 2.25  34 2.26  33 2.36  24 2.36
  47  0.306  0.356  0.434-  35 2.08  34 2.13  21 2.29   7 2.35
  48  0.869  0.789  0.066-  36 2.00   8 2.01  32 2.26  23 2.26  22 2.27
  49  0.496  0.843  0.070-  22 2.02   1 2.06  50 2.64  42 2.72
  50  0.648  0.685  0.164-   2 2.06  26 2.14  23 2.18   1 2.26  49 2.64
  51  0.787  0.542  0.278-  24 2.25   3 2.26  27 2.26  26 2.36   2 2.36
  52  0.937  0.391  0.405-   4 2.00  25 2.15  21 2.22   3 2.36  27 2.36
  53  0.199  0.452  0.075-  20 2.03   5 2.06  28 2.16   8 2.18
  54  0.353  0.308  0.193-  13 2.25   6 2.26  29 2.26  28 2.36   5 2.36
  55  0.503  0.158  0.320-  14 2.25   7 2.26  30 2.26   6 2.36  29 2.36  56 2.75
  56  0.634  0.032  0.433-  31 2.04   7 2.10  15 2.13  30 2.16  55 2.75
  57  0.070  0.925  0.236-  17 2.25  33 2.26  12 2.26  11 2.36  32 2.36
  58  0.220  0.775  0.363-   9 2.04  18 2.25  34 2.26  33 2.36  12 2.36
  59  0.282  0.626  0.485-  19 2.06  35 2.06   9 2.12  34 2.13
  60  0.920  0.075  0.109-  36 1.99  10 2.22  16 2.25  11 2.26  32 2.26
  61  0.222  0.803  0.112-  32 2.03   1 2.09  62 2.67  42 2.74
  62  0.360  0.634  0.208-   2 2.07  13 2.14  33 2.15   1 2.21  61 2.67
  63  0.501  0.491  0.321-  34 2.25   3 2.26  14 2.26   2 2.36  13 2.36
  64  0.651  0.341  0.448-   4 2.00  35 2.06  15 2.16  14 2.36   3 2.36
  65  0.067  0.258  0.236-  27 2.25   6 2.26  17 2.26   5 2.36  16 2.36
  66  0.218  0.108  0.363-  25 2.12  18 2.26   7 2.26  17 2.36   6 2.36
  67  0.408  0.935  0.472-  18 2.00   7 2.16  19 2.21  44 2.72
  68  0.917  0.408  0.109-  20 2.05   8 2.18  26 2.25  16 2.26   5 2.26
  69  0.506  0.155  0.051-  22 2.12  10 2.13  28 2.15  70 2.55
  70  0.634  0.025  0.152-  22 2.04  10 2.05  29 2.25  11 2.26  23 2.26  69 2.55
  71  0.784  0.874  0.279-  30 2.25  24 2.26  12 2.26  23 2.36  11 2.36
  72  0.934  0.724  0.405-  31 2.06   9 2.09  21 2.14  12 2.36  24 2.36

  LATTYP: Found a base centered orthorhombic cell.
 ALAT       =    11.4527836704
 B/A-ratio  =     1.4485816945
 C/A-ratio  =     1.8059804630

  Lattice vectors:

 A1 = (  10.0797329849,   0.0000000000,   0.0000000000)
 A2 = (  -3.5732980427,  -9.4251025535,   0.0000000000)
 A3 = (   0.0000000000,   0.0000000000, -20.6835035552)

Analysis of symmetry for initial positions (statically):
 Subroutine PRICEL returns:
 Original cell was already a primitive cell.

 Routine SETGRP: Setting up the symmetry group for a
 base centered orthorhombic supercell.

 Subroutine GETGRP returns: Found  1 space group operations
 (whereof  1 operations were pure point group operations)
 out of a pool of  8 trial point group operations.

The static configuration has the point symmetry C_1 .

Analysis of symmetry for dynamics (positions and initial velocities):
 Subroutine PRICEL returns:
 Original cell was already a primitive cell.

 Routine SETGRP: Setting up the symmetry group for a
 base centered orthorhombic supercell.

 Subroutine GETGRP returns: Found  1 space group operations
 (whereof  1 operations were pure point group operations)
 out of a pool of  8 trial point group operations.

The dynamic configuration has the point symmetry C_1 .

 Subroutine INISYM returns: Found  1 space group operations
 (whereof  1 operations are pure point group operations),
 and found     1 'primitive' translations

 KPOINTS: gamma-point-only calculation. no periodi

Automatic generation of k-mesh.
Space group operators:
 irot       det(A)        alpha          n_x          n_y          n_z        tau_x        tau_y        tau_z
    1     1.000000     0.000000     1.000000     0.000000     0.000000     0.000000     0.000000     0.000000

 Subroutine IBZKPT returns following result:

 Found      1 irreducible k-points:

 Following reciprocal coordinates:
            Coordinates               Weight
  0.000000  0.000000  0.000000      1.000000

 Following cartesian coordinates:
            Coordinates               Weight
  0.000000  0.000000  0.000000      1.000000

 SYSTEM =  "Millerite NiS"
 POSCAR =  Type_036 Type_136

 Startparameter for this run:
   NWRITE =      2    write-flag & timer
   PREC   = normal    normal or accurate (medium, high low for compatibility)
   ISTART =      0    job   : 0-new  1-cont  2-samecut
   ICHARG =      2    charge: 1-file 2-atom 10-const
   ISPIN  =      1    spin polarized calculation?
   LNONCOLLINEAR =      F non collinear calculations
   LSORBIT =      F    spin-orbit coupling
   INIWAV =      1    electr: 0-lowe 1-rand  2-diag
   LASPH  =      F    aspherical Exc in radial PAW
   METAGGA=      F    non-selfconsistent MetaGGA calc.

 Electronic Relaxation 1
   ENCUT  =  450.0 eV  33.07 Ry    5.75 a.u.  17.43 17.43 35.78*2*pi/ulx,y,z
   ENINI  =  450.0     initial cutoff
   ENAUG  =  703.4 eV  augmentation charge cutoff
   NELM   =    100;   NELMIN=  2; NELMDL= -5     # of ELM steps
   EDIFF  = 0.1E-03   stopping-criterion for ELM
   LREAL  =      T    real-space projection
   NLSPLINE    = F    spline interpolate recip. space projectors
   LCOMPAT=      F    compatible to vasp.4.4
   GGA_COMPAT  = T    GGA compatible to vasp.4.4-vasp.4.6
   LMAXPAW     = -100 max onsite density
   LMAXMIX     =    2 max onsite mixed and CHGCAR
   VOSKOWN=      0    Vosko Wilk Nusair interpolation
   ROPT   =   -0.00050  -0.00050
 Ionic relaxation
   EDIFFG = 0.1E-02   stopping-criterion for IOM
   NSW    =      0    number of steps for IOM
   NBLOCK =      1;   KBLOCK =      1    inner block; outer block
   IBRION =     -1    ionic relax: 0-MD 1-quasi-New 2-CG
   NFREE  =      0    steps in history (QN), initial steepest desc. (CG)
   ISIF   =      2    stress and relaxation
   IWAVPR =     10    prediction:  0-non 1-charg 2-wave 3-comb
   ISYM   =      2    0-nonsym 1-usesym 2-fastsym
   LCORR  =      T    Harris-Foulkes like correction to forces

   POTIM  = 0.5000    time-step for ionic-motion
   TEIN   =    0.0    initial temperature
   TEBEG  =    0.0;   TEEND  =   0.0 temperature during run
   SMASS  =  -3.00    Nose mass-parameter (am)
   estimated Nose-frequenzy (Omega)   =  0.10E-29 period in steps =****** mass=  -0.232E-26a.u.
   SCALEE = 1.0000    scale energy and forces
   NPACO  =    256;   APACO  = 16.0  distance and # of slots for P.C.
   PSTRESS=    0.0 pullay stress

  Mass of Ions in am
   POMASS =  58.69 32.07
  Ionic Valenz
   ZVAL   =  16.00  6.00
  Atomic Wigner-Seitz radii
  virtual crystal weights
   VCA    =   1.00  1.00
   NELECT =     792.0000    total number of electrons
   NUPDOWN=      -1.0000    fix difference up-down

 DOS related values:
   EMIN   =  10.00;   EMAX   =-10.00  energy-range for DOS
   EFERMI =   0.00
   ISMEAR =     0;   SIGMA  =   0.20  broadening in eV -4-tet -1-fermi 0-gaus

 Electronic relaxation 2 (details)
   IALGO  =     38    algorithm
   LDIAG  =      T    sub-space diagonalisation (order eigenvalues)
   LSUBROT=      F    optimize rotation matrix (better conditioning)
   TURBO    =      0    0=normal 1=particle mesh
   IRESTART =      0    0=no restart 2=restart with 2 vectors
   NREBOOT  =      0    no. of reboots
   NMIN     =      0    reboot dimension
   EREF     =   0.00    reference energy to select bands
   IMIX   =      4    mixing-type and parameters
     AMIX     =   0.40;   BMIX     =  1.00
     AMIX_MAG =   1.60;   BMIX_MAG =  1.00
     AMIN     =   0.10
     WC   =   100.;   INIMIX=   1;  MIXPRE=   1;  MAXMIX= -45

 Intra band minimization:
   WEIMIN = 0.0000     energy-eigenvalue tresh-hold
   EBREAK =  0.53E-07  absolut break condition
   DEPER  =   0.30     relativ break condition

   TIME   =   0.40     timestep for ELM

  volume/ion in A,a.u.               =      27.29       184.17
  Fermi-wavevector in a.u.,A,eV,Ry     =   1.209289  2.285225 19.896891  1.462380
  Thomas-Fermi vector in A             =   2.344871

 Write flags
   LWAVE        =      F    write WAVECAR
   LDOWNSAMPLE  =      F    k-point downsampling of WAVECAR
   LCHARG       =      F    write CHGCAR
   LVTOT        =      F    write LOCPOT, total local potential
   LVHAR        =      F    write LOCPOT, Hartree potential only
   LELF         =      F    write electronic localiz. function (ELF)
   LORBIT       =      0    0 simple, 1 ext, 2 COOP (PROOUT), +10 PAW based schemes

 Dipole corrections
   LMONO  =      F    monopole corrections only (constant potential shift)
[...]
  Fock        0.00000     0.00000     0.00000     0.00000     0.00000     0.00000
  Total      77.29712    73.57101    93.16110     1.18371    -0.43477    -2.94908
  in kB      63.02526    59.98713    75.96018     0.96516    -0.35450    -2.40457

 VOLUME and BASIS-vectors are now :
  energy-cutoff  :      450.00
  volume of cell :     1964.98
      direct lattice vectors                 reciprocal lattice vectors
    10.079732985  0.000000000  0.000000000     0.099208977 -0.037612667  0.000000000
     3.573298043  9.425102554  0.000000000     0.000000000  0.106099641  0.000000000
     0.000000000  0.000000000 20.683503555     0.000000000  0.000000000  0.048347708

  length of vectors
    10.079732985 10.079732985 20.683503555     0.106099641  0.106099641  0.048347708

 FORCES acting on ions
    electron-ion (+dipol)            ewald-force                    non-local-force                 convergence-correction
   0.222E+03 0.290E+03 0.341E+04   -.223E+03 -.292E+03 -.342E+04   0.577E+00 0.691E+00 0.169E+01   -.117E-01 0.194E-01 -.753E-02
   0.282E+01 -.210E+03 0.484E+03   -.160E+01 0.211E+03 -.480E+03   -.688E+00 -.155E+01 -.214E+01   -.271E-02 -.311E-02 0.107E-02
   -.159E+03 -.507E+03 -.273E+04   0.160E+03 0.509E+03 0.273E+04   -.222E+00 -.176E+01 0.829E+00   0.248E-02 -.157E-01 -.425E-02
   -.404E+03 -.450E+03 -.550E+04   0.404E+03 0.448E+03 0.550E+04   0.539E+00 0.218E+01 0.556E+01   0.100E-02 -.129E-02 0.355E-02
   -.308E+03 -.254E+03 0.200E+04   0.309E+03 0.253E+03 -.200E+04   -.421E+00 0.122E+00 -.358E+01   -.729E-02 -.210E-01 -.157E-01
   -.326E+02 -.443E+03 -.723E+03   0.321E+02 0.444E+03 0.722E+03   0.511E+00 -.118E+01 0.708E+00   -.178E-01 -.122E-01 -.289E-02
   0.171E+03 -.555E+03 -.414E+04   -.173E+03 0.558E+03 0.414E+04   0.102E+01 -.189E+01 -.231E+01   -.143E-02 0.700E-02 -.599E-02
   0.851E+02 -.283E+03 0.454E+04   -.868E+02 0.282E+03 -.455E+04   0.150E+01 0.633E+00 0.459E+01   0.469E-02 -.226E-02 -.180E-01
   0.172E+03 -.238E+03 -.477E+04   -.174E+03 0.243E+03 0.477E+04   0.139E+01 -.410E+01 -.168E+01   -.144E-02 -.492E-02 0.992E-03
   -.292E+01 -.991E+03 0.419E+04   0.522E+01 0.998E+03 -.420E+04   -.189E+01 -.680E+01 0.197E+01   0.823E-02 -.118E-01 0.118E-01
   -.113E+03 -.445E+03 0.119E+04   0.113E+03 0.445E+03 -.119E+04   0.120E+00 -.167E+00 -.103E+01   0.166E-01 0.472E-02 -.113E-01
   -.706E+01 -.426E+03 -.159E+04   0.651E+01 0.427E+03 0.159E+04   0.582E+00 -.163E+01 0.184E+01   0.131E-01 0.177E-01 -.337E-02
   0.499E+03 0.772E+02 0.179E+04   -.502E+03 -.785E+02 -.179E+04   0.257E+01 0.726E+00 0.216E+01   0.821E-02 -.984E-02 0.540E-03
   0.459E+03 0.255E+03 -.154E+04   -.460E+03 -.255E+03 0.154E+04   0.137E+01 -.182E+00 0.199E+01   0.179E-01 0.417E-02 -.572E-03
   0.348E+03 0.391E+03 -.477E+04   -.350E+03 -.393E+03 0.477E+04   0.159E+01 0.208E+01 -.330E+01   0.125E-01 0.254E-02 -.613E-02
   0.561E+03 0.505E+03 0.328E+04   -.565E+03 -.506E+03 -.327E+04   0.267E+01 0.851E+00 0.213E+00   -.867E-02 -.140E-01 -.136E-01
   0.418E+03 0.258E+03 0.350E+03   -.419E+03 -.257E+03 -.350E+03   0.146E+01 -.352E+00 0.393E+00   -.150E-01 0.784E-02 -.881E-02
   0.375E+03 -.400E+02 -.262E+04   -.378E+03 0.399E+02 0.262E+04   0.257E+01 0.239E+00 0.523E+00   -.148E-01 0.719E-02 -.106E-01
   -.293E+03 -.350E+02 -.498E+04   0.290E+03 0.346E+02 0.499E+04   0.259E+01 0.188E+00 -.245E+01   -.117E-01 -.997E-02 0.154E-02
   0.350E+03 -.211E+03 0.576E+04   -.349E+03 0.210E+03 -.577E+04   -.964E+00 0.129E+01 0.605E+01   -.981E-02 -.210E-01 -.443E-01
   0.441E+03 0.375E+03 -.398E+04   -.444E+03 -.377E+03 0.398E+04   0.213E+01 0.152E+01 0.218E+00   0.665E-02 -.246E-03 0.474E-02
   0.694E+03 0.373E+03 0.507E+04   -.697E+03 -.376E+03 -.507E+04   0.384E+01 0.280E+01 0.365E+01   -.402E-02 0.101E-01 -.187E-02
   0.535E+03 0.358E+03 0.225E+04   -.537E+03 -.357E+03 -.225E+04   0.181E+01 -.521E+00 -.219E+01   0.160E-01 0.347E-01 -.772E-02
   0.422E+03 0.353E+03 -.673E+03   -.424E+03 -.353E+03 0.673E+03   0.152E+01 -.415E+00 0.428E+00   0.810E-02 -.179E-02 0.131E-01
   -.757E+03 0.128E+03 -.383E+04   0.763E+03 -.129E+03 0.383E+04   -.440E+01 0.105E+01 -.159E+01   -.128E-01 -.512E-02 -.136E-01
   -.166E+03 0.271E+02 0.282E+04   0.168E+03 -.275E+02 -.282E+04   -.176E+00 0.105E+00 0.367E+01   0.308E-02 -.187E-01 -.324E-02
   -.453E+03 0.105E+03 -.550E+03   0.453E+03 -.105E+03 0.548E+03   -.232E+00 -.348E+00 0.250E+01   -.239E-02 -.106E-01 0.271E-02
   -.783E+03 0.136E+03 0.433E+04   0.790E+03 -.138E+03 -.433E+04   -.454E+01 0.171E+01 0.294E+01   -.196E-01 -.812E-02 -.248E-01
   -.395E+03 0.721E+02 0.136E+04   0.396E+03 -.714E+02 -.136E+04   -.263E+00 -.530E+00 0.782E+00   -.136E-01 -.167E-03 -.315E-02
   -.293E+03 0.115E+03 -.158E+04   0.294E+03 -.116E+03 0.157E+04   -.220E+01 0.101E+01 0.252E+01   0.387E-02 0.757E-02 -.130E-01
   -.199E+03 0.325E+03 -.485E+04   0.200E+03 -.327E+03 0.485E+04   -.258E+00 0.115E+01 0.216E+01   0.125E-01 -.587E-02 0.741E-02
   -.855E+03 0.261E+03 0.348E+04   0.858E+03 -.261E+03 -.348E+04   -.288E+01 -.192E-02 0.160E+00   0.706E-02 0.300E-01 0.958E-02
   -.480E+03 0.244E+03 0.534E+03   0.482E+03 -.244E+03 -.534E+03   -.164E+01 -.260E+00 0.483E+00   0.451E-02 0.173E-01 0.198E-02
   -.809E+02 0.191E+03 -.251E+04   0.843E+02 -.192E+03 0.251E+04   -.360E+01 0.161E+01 0.221E+01   -.217E-01 0.306E-03 0.440E-02
   0.291E+01 0.475E+03 -.532E+04   -.213E+01 -.478E+03 0.532E+04   -.582E-01 0.329E+01 0.259E+01   -.312E-02 -.520E-02 0.483E-02
   -.545E+03 -.995E+02 0.565E+04   0.543E+03 0.102E+03 -.565E+04   0.285E+01 -.222E+01 -.405E+01   0.971E-02 0.855E-02 -.417E-02
   -.121E+03 0.950E+02 -.203E+04   0.123E+03 -.960E+02 0.203E+04   -.544E+00 0.835E+00 -.223E+01   -.249E-02 -.961E-03 -.163E-02
   0.130E+03 -.241E+03 0.176E+04   -.132E+03 0.243E+03 -.177E+04   0.800E+00 -.207E+01 0.188E+01   0.210E-02 -.629E-02 -.290E-02
   0.135E+02 0.734E+02 0.431E+03   -.140E+02 -.757E+02 -.433E+03   0.665E+00 0.215E+01 0.259E+01   0.525E-02 -.107E-01 -.688E-03
   0.237E+01 0.143E+03 -.656E+03   -.331E+01 -.145E+03 0.651E+03   0.321E+00 0.137E+01 0.131E+01   0.225E-02 0.275E-02 0.221E-03
   0.447E+02 0.460E+03 0.216E+04   -.453E+02 -.463E+03 -.217E+04   0.704E-01 0.114E+01 0.424E+00   -.685E-02 0.827E-02 -.617E-02
   0.573E+02 0.157E+03 0.129E+04   -.577E+02 -.155E+03 -.129E+04   0.412E+00 -.244E+00 0.155E+01   -.868E-02 0.123E-02 0.271E-02
   0.829E+01 0.110E+03 0.150E+02   -.835E+01 -.112E+03 -.153E+02   0.170E+00 0.231E+01 0.445E+00   -.681E-02 0.618E-02 -.470E-02
   -.112E+03 0.154E+03 -.125E+04   0.114E+03 -.156E+03 0.125E+04   -.114E+01 0.851E+00 -.156E+01   -.335E-03 -.993E-02 -.421E-02
   -.969E+02 0.109E+03 0.664E+03   0.981E+02 -.109E+03 -.662E+03   -.107E+01 0.565E+00 -.109E+01   0.343E-02 0.820E-02 -.407E-02
   -.117E+02 0.160E+03 -.298E+03   0.119E+02 -.162E+03 0.296E+03   0.308E+00 0.206E+01 -.371E+00   -.279E-03 -.332E-02 0.116E-01
   0.218E+03 0.271E+03 -.162E+04   -.220E+03 -.273E+03 0.162E+04   0.129E+01 0.176E+00 -.666E+00   -.537E-02 0.923E-02 -.150E-02
   0.612E+02 0.248E+03 0.201E+04   -.612E+02 -.250E+03 -.201E+04   -.116E+01 0.260E+01 0.290E+01   0.167E-02 0.366E-02 0.550E-03
   0.240E+03 0.246E+03 0.195E+04   -.241E+03 -.247E+03 -.195E+04   0.937E+00 -.460E+00 0.341E+01   -.637E-03 0.453E-02 -.447E-02
   0.183E+02 0.192E+02 0.126E+04   -.157E+02 -.193E+02 -.126E+04   -.206E+01 0.102E+01 0.171E+00   0.113E-02 0.267E-02 -.241E-02
   -.109E+03 -.964E+02 -.312E+02   0.111E+03 0.978E+02 0.318E+02   -.189E+01 -.158E+01 -.326E+00   -.433E-02 -.872E-02 0.569E-02
   -.249E+03 -.173E+03 -.128E+04   0.250E+03 0.175E+03 0.128E+04   -.379E+00 -.424E+00 -.131E+01   0.474E-02 0.125E-02 -.579E-02
   -.623E+03 -.335E+03 0.186E+04   0.628E+03 0.338E+03 -.186E+04   -.269E+01 -.134E+01 -.216E+00   -.623E-02 -.509E-02 -.123E-01
   -.177E+03 -.196E+03 0.769E+03   0.179E+03 0.197E+03 -.770E+03   -.161E+01 -.101E+01 0.818E+00   -.113E-02 -.437E-02 0.154E-02
   -.875E+02 -.132E+03 -.420E+03   0.896E+02 0.133E+03 0.419E+03   -.226E+01 -.152E+01 0.838E-01   0.191E-02 0.266E-02 -.363E-02
   -.299E+02 -.121E+03 -.172E+04   0.309E+02 0.121E+03 0.172E+04   0.111E-01 0.412E+00 -.716E+00   0.799E-02 0.902E-02 0.621E-03
   -.144E+03 -.104E+03 0.363E+03   0.146E+03 0.105E+03 -.362E+03   -.191E+01 -.135E+01 0.447E+00   -.497E-03 0.107E-01 -.691E-02
   -.129E+03 -.108E+03 -.728E+03   0.130E+03 0.110E+03 0.726E+03   -.801E+00 -.163E+01 -.163E+00   -.732E-02 -.405E-03 0.317E-02
   0.197E+03 -.605E+02 -.219E+04   -.198E+03 0.614E+02 0.219E+04   0.412E+00 -.957E-01 -.249E+01   -.113E-01 0.386E-03 -.220E-03
   -.266E+03 -.202E+03 0.147E+04   0.268E+03 0.204E+03 -.147E+04   -.814E+00 -.200E+00 0.165E+01   0.365E-02 -.122E-02 0.103E-01
   -.138E+03 0.181E+03 0.171E+04   0.136E+03 -.183E+03 -.172E+04   0.162E+01 0.619E+00 0.422E+01   -.723E-02 0.804E-02 -.255E-03
   0.191E+03 0.386E+02 0.818E+03   -.193E+03 -.400E+02 -.819E+03   0.564E+00 0.186E+01 0.186E+00   -.103E-02 0.380E-02 -.820E-03
   0.147E+03 -.479E+02 -.424E+03   -.149E+03 0.487E+02 0.426E+03   0.219E+01 -.966E+00 -.160E+01   0.270E-02 -.265E-02 0.504E-02
   0.155E+03 -.300E+02 -.171E+04   -.157E+03 0.311E+02 0.171E+04   0.730E+00 -.632E+00 -.255E+01   -.620E-03 -.334E-02 -.386E-02
   0.144E+03 -.659E+02 0.249E+03   -.147E+03 0.674E+02 -.249E+03   0.282E+01 -.144E+01 -.381E+00   -.232E-02 -.120E-01 0.200E-02
   0.934E+02 -.935E+02 -.970E+03   -.962E+02 0.948E+02 0.970E+03   0.321E+01 -.115E+01 -.822E+00   -.795E-02 0.292E-02 -.956E-02
   0.254E+02 -.168E+03 -.219E+04   -.258E+02 0.170E+03 0.219E+04   -.391E+00 -.118E+01 -.201E+01   -.257E-02 0.247E-02 0.562E-02
   0.479E+03 -.706E+02 0.149E+04   -.483E+03 0.712E+02 -.149E+04   0.208E+01 -.128E+00 0.299E+01   0.338E-02 -.122E-01 -.117E-01
   0.794E+02 -.253E+03 0.200E+04   -.804E+02 0.256E+03 -.201E+04   0.781E+00 -.159E+01 0.348E+01   0.112E-02 -.233E-02 -.456E-02
   0.219E+03 -.828E+02 0.898E+03   -.220E+03 0.827E+02 -.894E+03   0.831E+00 -.615E+00 -.298E+00   0.886E-02 0.894E-03 -.486E-03
   0.150E+03 -.640E+02 -.118E+03   -.153E+03 0.646E+02 0.119E+03   0.245E+01 -.543E+00 -.152E+01   0.591E-02 0.103E-01 -.771E-02
   0.177E+03 0.563E+02 -.142E+04   -.179E+03 -.555E+02 0.142E+04   0.145E+01 -.949E+00 -.217E+01   0.132E-01 -.714E-02 0.405E-02
   -.139E+02 0.387E+01 -.343E+02   0.796E-12 -.182E-11 -.205E-11   0.141E+02 -.381E+01 0.346E+02   -.383E-01 0.469E-02 -.204E+00

 POSITION                                       TOTAL-FORCE (eV/Angst)
      6.99858      7.53957      3.19305         0.072322     -1.233689      0.922877
      7.82056      6.07621      5.06951         0.526599     -0.382865      2.302579
      8.79827      4.65991      7.69501         0.059764     -0.060825      0.066077
      9.66381      3.22545      9.92093         0.352401      0.036742      1.301587
      2.61774      3.87870      3.31918         0.117868     -1.259478      2.895309
      3.59545      2.46241      5.94468         0.080025     -0.155326     -0.013626
      4.57317      1.04611      8.57018        -0.780919      1.082542     -0.786632
     12.00165      5.57414      1.97059        -0.196397     -0.142947     -0.907995
      3.79426      7.33871      9.15919        -0.391772     -0.048107      0.908930
      7.52704      1.62868      2.06665         0.417127      0.123152     -0.946695
      8.47237      0.26490      4.19434         0.009553     -0.076370      0.291779
     13.02338      8.27371      6.81985         0.048357     -0.204796     -0.322837
      6.61816      3.96023      4.37584        -0.351009     -0.604564      1.333470
      7.59587      2.54394      7.00134         0.335556      0.118708     -0.024770
      8.41634      1.15261      9.31700        -0.747301      0.204636      0.918321
      1.41534      1.76273      2.62550        -0.809708     -0.478426      1.863548
      2.39305      0.34643      5.25100         0.026333      0.143102      0.032198
      6.94406      8.35524      7.87651        -0.779642      0.163410     -2.675308
      6.91515      6.67704      9.52288         0.514194     -0.233993      0.660156
      1.95735      3.38100      0.77758        -0.643715      0.865360     -1.844231
      2.66786      4.81796      8.47790        -0.868080     -0.600535      1.222218
      9.81424      8.86192      1.27700         0.815474     -0.104203     -1.056285
     10.84326      7.57403      3.50067         0.198727      0.019296      0.352836
     11.82097      6.15773      6.12617        -0.011559     -0.132807     -0.009993
      0.84590      1.55233      8.61602         0.796357      0.250860      0.665511
      9.02296      4.33443      3.68216         1.191958     -0.306794      1.154945
     10.00068      2.91813      6.30767        -0.091397     -0.069674     -0.029009
      3.82015      2.13692      1.93183         1.746882     -0.548225      1.226230
      4.79786      0.72063      4.55733        -0.035239      0.171174     -0.020343
      9.34887      8.72943      7.18283        -0.358705      0.271839     -1.462558
     10.31846      7.71126      9.16174         0.481749     -0.676939      1.153727
      3.16834      7.94822      2.80700        -0.753014      0.248712      0.498763
      4.14605      6.53193      5.43250        -0.050554     -0.001085      0.494136
      5.12376      5.11563      8.05800        -0.302497      1.089024     -2.339378
      6.03833      4.07849      9.94860         0.723289     -0.244844      0.928465
     12.16549      9.24864      0.73598         0.246360      0.178012     -1.463473
      3.59550      9.37825      9.73965         0.640012     -0.200879      1.956542
      7.47023      3.65085      2.53712        -0.644313      0.695194     -2.979017
      8.33317      2.41029      4.86908         0.144165     -0.223595      0.855168
      9.31088      0.99399      7.49458        -0.618224     -0.526055     -3.360300
      2.27084      1.39991      0.79094        -0.496569     -2.269731     -3.501818
      3.13035      0.21279      3.11874        -0.003207      1.189858      1.124393
      7.68136      8.22159      5.74425         0.099840      0.369787      0.161905
      8.65907      6.80530      8.36975         0.373943     -1.699615     -0.443604
      2.47854      6.02409      3.99391         0.108718      0.291970      1.003519
      3.45626      4.60779      6.61941         0.455929      0.171893     -2.440699
      4.35231      3.35236      8.96675        -0.744206     -1.916981      1.622171
     11.58056      7.44039      1.36841        -1.172035      0.198411     -1.388061
      8.01627      7.94538      1.44316        -0.594906     -1.142432     -2.308267
      8.97609      6.45821      3.40175         0.599012      0.869252     -1.612309
      9.86427      5.10469      5.75238         0.417945     -0.192476      0.283963
     10.84198      3.68840      8.37788         1.380347      1.168388     -0.517574
      3.61515      4.25628      1.55965         2.643010      1.993935     -1.930698
      4.66145      2.90719      4.00204        -0.134030     -0.090323      0.336826
      5.63916      1.49089      6.62754        -0.185734      0.290720     -0.812537
      6.50190      0.29790      8.95414         0.969101      0.070433      1.947242
      4.00964      8.71849      4.87721         0.013389      0.113099      0.708427
      4.98735      7.30220      7.50271         0.976612      0.293211     -1.756821
      5.08089      5.90279     10.03720        -0.298935      0.756355      3.276946
      9.53836      0.70969      2.25171         1.193430      1.384188      0.809453
      5.10262      7.56526      2.31483         0.263370     -0.939433     -2.302807
      5.89935      5.97653      4.31161        -1.974063      0.449207     -0.970319
      6.80207      4.62821      6.63567         0.107958     -0.185679     -0.042703
      7.77979      3.21191      9.26118        -1.195459      0.472810      0.073717
      1.59925      2.43070      4.88534        -0.031680      0.093564     -0.171081
      2.57697      1.01441      7.51084         0.369112      0.082677     -0.540792
      7.44893      8.80948      9.76161        -0.761121      0.612237      3.642532
     10.70128      3.84700      2.25984        -2.074025      0.482688      0.410965
      5.65842      1.46085      1.05319        -0.225390      0.775760     -1.811265
      6.47617      0.23320      3.13500        -0.405431     -0.713191      3.896136
     11.02718      8.24201      5.76051         0.188642      0.043180     -0.273136
     12.00489      6.82571      8.38601        -0.974594     -0.168504     -0.236625
    total drift:                                0.152137      0.067638      0.018037

  FREE ENERGIE OF THE ION-ELECTRON SYSTEM (eV)
  free  energy   TOTEN  =      -351.06751504 eV

  energy  without entropy=     -350.06573319  energy(sigma->0) =     -350.56662411