 vasp.5.4.4.18Apr17-6-g9f103f2a35 (build Aug 13 2019 17:33:20) gamma-only

 executed on             LinuxIFC date 2020.05.12  02:16:34

 INCAR:
 POTCAR:    PAW_PBE Ni_pv 06Sep2000
 POTCAR:    PAW_PBE S 06Sep2000
 POTCAR:    PAW_PBE Ni_pv 06Sep2000
   VRHFIN =Ni:

   TITEL  = PAW_PBE Ni_pv 06Sep2000
   POMASS =   58.690; ZVAL   =   16.000    mass and valenz
   ENMAX  =  367.986; ENMIN  =  275.989 eV

 POTCAR:    PAW_PBE S 06Sep2000
   VRHFIN =S : s2p4

   TITEL  = PAW_PBE S 06Sep2000
   POMASS =   32.066; ZVAL   =    6.000    mass and valenz
   ENMAX  =  258.689; ENMIN  =  194.016 eV

 Optimization of the real space projectors (new method)

 maximal supplied QI-value         = 18.90
 optimisation between [QCUT,QGAM] = [ 10.77, 21.73] = [ 32.49,132.25] Ry
 Optimized for a Real-space Cutoff    1.38 Angstroem

   l    n(q)    QCUT    max X(q) W(low)/X(q) W(high)/X(q)  e(spline)
   1      8    10.771     2.836    0.40E-04    0.29E-04    0.12E-06
   1      8    10.771     4.023    0.10E-03    0.48E-04    0.29E-06
   2      8    10.771    73.368    0.42E-03    0.97E-04    0.44E-06
   2      8    10.771    69.010    0.42E-03    0.99E-04    0.45E-06
   0      9    10.771    54.797    0.10E-03    0.56E-04    0.74E-07
   0      9    10.771    24.266    0.89E-04    0.49E-04    0.67E-07
 Optimization of the real space projectors (new method)

 maximal supplied QI-value         = 19.84
 optimisation between [QCUT,QGAM] = [ 10.71, 21.63] = [ 32.15,130.99] Ry
 Optimized for a Real-space Cutoff    1.19 Angstroem

   l    n(q)    QCUT    max X(q) W(low)/X(q) W(high)/X(q)  e(spline)
   0      8    10.715   187.594    0.41E-03    0.53E-04    0.66E-07
   0      8    10.715   164.243    0.41E-03    0.53E-04    0.65E-07
   1      7    10.715    67.533    0.19E-03    0.59E-03    0.68E-07
   1      7    10.715    50.729    0.19E-03    0.58E-03    0.67E-07
  PAW_PBE Ni_pv 06Sep2000               :
  PAW_PBE S 06Sep2000                   :

 POSCAR: Type_037 Type_137
  positions in cartesian coordinates
 exchange correlation table for  LEXCH =        8
   RHO(1)=    0.500       N(1)  =     2000
   RHO(2)=  100.500       N(2)  =     4000

 ion  position               nearest neighbor table
   1  0.780  0.145  0.123-  65 2.08  51 2.08  42 2.25  52 2.36  66 2.36
   2  0.803  0.146  0.286-  52 2.05  66 2.05  43 2.08
   3  0.218  0.651  0.099-  44 2.03  45 2.13  53 2.25  63 2.34   4 2.37  28 2.51
   4  0.297  0.645  0.216-  64 2.11  54 2.13  45 2.25  53 2.26  63 2.26   3 2.37  29 2.53  16 2.53

   5  0.391  0.159  0.129-  47 2.04  48 2.09  55 2.20   6 2.38  69 2.38  18 2.43
   6  0.470  0.145  0.247-  70 2.08  56 2.10  55 2.26  69 2.26   5 2.38  48 2.40  32 2.53  19 2.53

   7  0.952  0.645  0.154-  68 2.07  58 2.07  49 2.25  57 2.36  67 2.36  33 2.53  20 2.53
   8  0.975  0.645  0.318-  46 2.05  67 2.06  57 2.06  50 2.10
   9  0.172  0.148  0.047-  47 2.00  73 2.05  59 2.05  10 2.43
  10  0.125  0.145  0.185-  60 2.12  59 2.14  73 2.16  39 2.25  74 2.36  11 2.36   9 2.43  35 2.53
                            22 2.53
  11  0.068  0.096  0.312-  38 2.05  60 2.07  74 2.20  10 2.36  14 2.44  39 2.54
  12  0.642  0.645  0.278-  62 2.01  72 2.01  41 2.25  61 2.30  71 2.31  37 2.53  25 2.53
  13  0.910  0.005  0.119-  65 2.06  58 2.10  66 2.11  39 2.21
  14  0.940  0.007  0.268-  38 2.05  66 2.09  39 2.13  57 2.16  11 2.44
  15  0.437  0.429  0.060-  55 2.06  40 2.13  16 2.34  63 2.39  28 2.44
  16  0.425  0.513  0.192-  40 2.08  64 2.10  55 2.25  63 2.26  15 2.34  41 2.36  17 2.47   4 2.53
                            29 2.53
  17  0.459  0.482  0.335-  56 2.02  64 2.02  41 2.03  16 2.47
  18  0.530  0.145  0.092-  42 2.03  69 2.06  55 2.06   5 2.43  31 2.52
  19  0.597  0.013  0.222-  70 2.06  43 2.12  61 2.20  69 2.26  42 2.26  32 2.53   6 2.53
  20  0.080  0.513  0.130-  44 2.06  68 2.09  59 2.11  67 2.36  45 2.36   7 2.53  33 2.53
  21  0.112  0.501  0.293-  67 2.04  46 2.05  45 2.10  60 2.13
  22  0.252  0.013  0.161-  73 2.14  47 2.15  48 2.19  53 2.25  74 2.36  23 2.39  10 2.53  35 2.53

[...]

  38  0.961  0.139  0.363-  11 2.05  27 2.05  14 2.05
  39  0.991  0.145  0.183-  27 2.08  14 2.13  26 2.20  13 2.21  10 2.25  11 2.54
  40  0.479  0.627  0.100-  28 2.03  16 2.08  15 2.13  29 2.29
  41  0.509  0.645  0.276-  17 2.03  30 2.05  12 2.25  29 2.36  16 2.36
  42  0.647  0.145  0.122-  18 2.03  31 2.07   1 2.25  19 2.26  32 2.26  43 2.73
  43  0.679  0.145  0.282-   2 2.08  19 2.12  32 2.13  42 2.73
  44  0.113  0.645  0.039-   3 2.03  33 2.06  20 2.06
  45  0.164  0.645  0.214-  34 2.10  21 2.10   3 2.13   4 2.25  33 2.36  20 2.36
  46  0.080  0.641  0.380-  21 2.05   8 2.05  34 2.05
  47  0.289  0.145  0.063-   9 2.00   5 2.04  22 2.15  35 2.15
  48  0.328  0.146  0.236-  23 2.07   5 2.09  35 2.19  22 2.19   6 2.40
  49  0.819  0.645  0.153-  36 2.20   7 2.25  25 2.26  37 2.26  24 2.37  50 2.73
  50  0.851  0.644  0.313-   8 2.10  25 2.11  37 2.12  49 2.73
  51  0.818  0.290  0.039-  24 2.03  26 2.06   1 2.08
  52  0.829  0.314  0.215-   2 2.05  26 2.10  24 2.14  27 2.20  25 2.25   1 2.36
  53  0.312  0.814  0.122-  28 2.03  22 2.25   3 2.25   4 2.26  29 2.26
  54  0.356  0.780  0.299-  23 2.02  30 2.06  29 2.13   4 2.13
  55  0.484  0.314  0.153-  18 2.06  15 2.06   5 2.20  16 2.25   6 2.26  32 2.26  31 2.61
  56  0.519  0.302  0.319-  17 2.02  32 2.09   6 2.10  70 2.78
  57  0.001  0.814  0.246-  34 2.06   8 2.06  14 2.16  33 2.36   7 2.36  58 2.77
  58  0.967  0.821  0.083-   7 2.07  33 2.10  13 2.10  57 2.77
  59  0.142  0.324  0.110-   9 2.05  35 2.10  20 2.11  10 2.14
  60  0.127  0.280  0.286-  11 2.07  10 2.12  21 2.13
  61  0.667  0.827  0.191-  37 2.07  36 2.20  19 2.20  12 2.30  62 2.75
  62  0.698  0.780  0.351-  12 2.01  37 2.03  72 2.72  61 2.75
  63  0.312  0.477  0.122-  28 2.06  35 2.25   4 2.26  16 2.26   3 2.34  15 2.39
  64  0.348  0.488  0.289-  17 2.02  16 2.10   4 2.11
  65  0.816  0.997  0.040-  36 2.02  13 2.06   1 2.08
  66  0.829  0.977  0.215-   2 2.05  14 2.09  13 2.11  36 2.14  37 2.25   1 2.36
  67  0.001  0.477  0.246-  21 2.04   8 2.06  27 2.18  20 2.36   7 2.36  68 2.77
  68  0.968  0.470  0.083-   7 2.07  20 2.09  26 2.10  67 2.77
  69  0.484  0.977  0.153-  18 2.06  29 2.25   6 2.26  19 2.26   5 2.38
  70  0.529  0.013  0.325-  30 2.00  19 2.06   6 2.08  56 2.78
  71  0.662  0.469  0.185-  31 2.07  24 2.14  25 2.18  32 2.22  12 2.31  72 2.74
  72  0.693  0.497  0.346-  12 2.01  25 2.02  62 2.72  71 2.74
  73  0.140  0.969  0.106-   9 2.05  33 2.13  22 2.14  10 2.16
  74  0.174  0.977  0.276-  23 2.10  34 2.13  11 2.20  10 2.36  22 2.36

  LATTYP: Found a simple orthorhombic cell.
 ALAT       =     9.5784100000
 B/A-ratio  =     1.7387693453
 C/A-ratio  =     1.7627867312

  Lattice vectors:

 A1 = (   0.0000000000,   9.5784100000,   0.0000000000)
 A2 = (   0.0000000000,   0.0000000000, -16.6546456851)
 A3 = ( -16.8846940542,   0.0000000000,   0.0000000000)

Analysis of symmetry for initial positions (statically):
 Subroutine PRICEL returns:
 Original cell was already a primitive cell.

 Routine SETGRP: Setting up the symmetry group for a
 simple orthorhombic supercell.

 Subroutine GETGRP returns: Found  1 space group operations
 (whereof  1 operations were pure point group operations)
 out of a pool of  8 trial point group operations.

The static configuration has the point symmetry C_1 .

Analysis of symmetry for dynamics (positions and initial velocities):
 Subroutine PRICEL returns:
 Original cell was already a primitive cell.

 Routine SETGRP: Setting up the symmetry group for a
 simple orthorhombic supercell.

 Subroutine GETGRP returns: Found  1 space group operations
 (whereof  1 operations were pure point group operations)
 out of a pool of  8 trial point group operations.

The dynamic configuration has the point symmetry C_1 .

 Subroutine INISYM returns: Found  1 space group operations
 (whereof  1 operations are pure point group operations),
 and found     1 'primitive' translations

 KPOINTS: gamma-point-only calculation. no periodi

Automatic generation of k-mesh.
Space group operators:
 irot       det(A)        alpha          n_x          n_y          n_z        tau_x        tau_y        tau_z
    1     1.000000     0.000000     1.000000     0.000000     0.000000     0.000000     0.000000     0.000000

 Subroutine IBZKPT returns following result:

 Found      1 irreducible k-points:

 Following reciprocal coordinates:
            Coordinates               Weight
  0.000000  0.000000  0.000000      1.000000

 Following cartesian coordinates:
            Coordinates               Weight
  0.000000  0.000000  0.000000      1.000000

 SYSTEM =  "Millerite NiS"
 POSCAR =  Type_037 Type_137

 Startparameter for this run:
   NWRITE =      2    write-flag & timer
   PREC   = normal    normal or accurate (medium, high low for compatibility)
   ISTART =      0    job   : 0-new  1-cont  2-samecut
   ICHARG =      2    charge: 1-file 2-atom 10-const
   ISPIN  =      1    spin polarized calculation?
   LNONCOLLINEAR =      F non collinear calculations
   LSORBIT =      F    spin-orbit coupling
   INIWAV =      1    electr: 0-lowe 1-rand  2-diag
   LASPH  =      F    aspherical Exc in radial PAW
   METAGGA=      F    non-selfconsistent MetaGGA calc.

 Electronic Relaxation 1
   ENCUT  =  450.0 eV  33.07 Ry    5.75 a.u.  29.20 16.57 28.81*2*pi/ulx,y,z
   ENINI  =  450.0     initial cutoff
   ENAUG  =  703.4 eV  augmentation charge cutoff
   NELM   =    100;   NELMIN=  2; NELMDL= -5     # of ELM steps
   EDIFF  = 0.1E-03   stopping-criterion for ELM
   LREAL  =      T    real-space projection
   NLSPLINE    = F    spline interpolate recip. space projectors
   LCOMPAT=      F    compatible to vasp.4.4
   GGA_COMPAT  = T    GGA compatible to vasp.4.4-vasp.4.6
   LMAXPAW     = -100 max onsite density
   LMAXMIX     =    2 max onsite mixed and CHGCAR
   VOSKOWN=      0    Vosko Wilk Nusair interpolation
   ROPT   =   -0.00050  -0.00050
 Ionic relaxation
   EDIFFG = 0.1E-02   stopping-criterion for IOM
   NSW    =      0    number of steps for IOM
   NBLOCK =      1;   KBLOCK =      1    inner block; outer block
   IBRION =     -1    ionic relax: 0-MD 1-quasi-New 2-CG
   NFREE  =      0    steps in history (QN), initial steepest desc. (CG)
   ISIF   =      2    stress and relaxation
   IWAVPR =     10    prediction:  0-non 1-charg 2-wave 3-comb
   ISYM   =      2    0-nonsym 1-usesym 2-fastsym
   LCORR  =      T    Harris-Foulkes like correction to forces

   POTIM  = 0.5000    time-step for ionic-motion
   TEIN   =    0.0    initial temperature
   TEBEG  =    0.0;   TEEND  =   0.0 temperature during run
   SMASS  =  -3.00    Nose mass-parameter (am)
   estimated Nose-frequenzy (Omega)   =  0.10E-29 period in steps =****** mass=  -0.652E-26a.u.
   SCALEE = 1.0000    scale energy and forces
   NPACO  =    256;   APACO  = 16.0  distance and # of slots for P.C.
   PSTRESS=    0.0 pullay stress

  Mass of Ions in am
   POMASS =  58.69 32.07
  Ionic Valenz
   ZVAL   =  16.00  6.00
  Atomic Wigner-Seitz radii
  virtual crystal weights
   VCA    =   1.00  1.00
   NELECT =     814.0000    total number of electrons
   NUPDOWN=      -1.0000    fix difference up-down

 DOS related values:
[...]
     0.000000000  9.578410000  0.000000000     0.000000000  0.104401461  0.000000000
     0.000000000  0.000000000 16.654645685     0.000000000  0.000000000  0.060043307

  length of vectors
    16.884694054  9.578410000 16.654645685     0.059225237  0.104401461  0.060043307

 FORCES acting on ions
    electron-ion (+dipol)            ewald-force                    non-local-force                 convergence-correction
   0.665E+03 0.197E+03 0.205E+04   -.668E+03 -.198E+03 -.205E+04   0.318E+01 0.337E+00 0.547E+01   0.105E+00 0.272E-01 -.747E-01
   0.578E+03 0.820E+01 -.300E+04   -.582E+03 -.795E+01 0.300E+04   0.438E+01 -.327E+00 0.118E+01   -.864E-01 0.304E-01 -.962E-01
   0.483E+02 -.405E+01 0.283E+04   -.484E+02 0.457E+01 -.284E+04   0.120E+01 -.450E+00 0.758E+01   -.116E+00 -.132E+00 -.906E-02
   0.367E+03 0.139E+03 -.132E+04   -.369E+03 -.138E+03 0.132E+04   0.195E+01 0.597E-01 -.434E+01   0.133E+00 -.254E+00 0.626E-01
   0.102E+02 0.269E+03 0.205E+04   -.873E+01 -.270E+03 -.206E+04   -.105E+01 0.851E+00 0.365E+01   0.219E+00 0.136E+00 -.114E+00
   0.372E+03 0.552E+02 -.202E+04   -.376E+03 -.569E+02 0.202E+04   0.261E+01 0.107E+01 -.616E+01   0.237E+00 0.256E+00 0.490E-01
   0.710E+03 0.257E+02 0.137E+04   -.716E+03 -.256E+02 -.137E+04   0.521E+01 -.252E-01 0.465E+01   -.103E+00 -.550E-01 -.134E+00
   0.603E+03 0.517E+02 -.329E+04   -.608E+03 -.518E+02 0.330E+04   0.356E+01 0.125E+00 -.412E+01   -.217E+00 -.500E-01 -.461E-01
   0.372E+03 -.117E+02 0.412E+04   -.375E+03 0.116E+02 -.413E+04   0.299E+01 0.492E-02 0.400E+01   -.248E+00 0.111E+00 -.177E+00
   0.277E+03 -.146E+03 0.201E+03   -.279E+03 0.147E+03 -.201E+03   0.140E+01 -.623E+00 0.623E+00   -.309E+00 0.166E+00 -.420E-01
   -.432E+03 -.239E+01 -.337E+04   0.432E+03 0.283E+01 0.338E+04   0.194E+00 -.115E+01 -.509E+01   -.778E-01 0.103E+00 0.307E-01
   0.553E+03 -.968E+02 -.178E+04   -.560E+03 0.973E+02 0.178E+04   0.541E+01 -.227E+00 -.301E+01   0.122E+00 -.152E+00 -.119E-01
   -.360E+03 0.254E+03 0.255E+04   0.366E+03 -.256E+03 -.255E+04   -.496E+01 0.274E+01 0.590E+01   -.109E+00 0.511E-01 -.119E+00
   0.256E+03 0.562E+03 -.216E+04   -.254E+03 -.566E+03 0.216E+04   -.140E+01 0.335E+01 -.480E+01   -.161E+00 -.287E-01 -.127E+00
   -.399E+03 0.153E+03 0.380E+04   0.400E+03 -.151E+03 -.380E+04   -.737E+00 -.297E+01 -.395E+00   0.167E+00 0.272E-01 -.287E-01
   -.459E+03 0.240E+03 -.235E+03   0.459E+03 -.242E+03 0.238E+03   -.564E+00 0.165E+01 -.232E+01   0.804E-01 0.116E-01 0.175E+00
   -.235E+02 0.194E+03 -.371E+04   0.238E+02 -.196E+03 0.370E+04   -.968E-01 0.135E+01 0.254E+01   0.463E-01 -.131E+00 -.213E-01
   -.213E+03 0.683E+03 0.342E+04   0.212E+03 -.685E+03 -.343E+04   0.592E+00 0.172E+01 0.552E+01   0.235E+00 0.396E-01 -.117E+00
   -.405E+03 0.779E+03 -.643E+03   0.408E+03 -.785E+03 0.644E+03   -.234E+01 0.633E+01 -.290E+01   0.198E+00 0.455E-01 -.962E-01
   0.151E+02 0.562E+03 0.194E+04   -.164E+02 -.565E+03 -.194E+04   0.180E+01 0.271E+01 0.462E+01   -.244E+00 -.432E-01 -.781E-01
   -.652E+03 0.538E+03 -.276E+04   0.655E+03 -.543E+03 0.277E+04   -.179E+01 0.315E+01 -.445E+01   -.418E-01 -.110E+00 -.165E-01
   -.248E+03 0.462E+03 0.948E+03   0.248E+03 -.466E+03 -.948E+03   0.650E-01 0.375E+01 0.786E+00   -.149E+00 0.629E-01 -.152E+00
   -.107E+03 -.185E+03 -.316E+04   0.108E+03 0.182E+03 0.316E+04   -.159E+01 0.308E+01 0.996E+00   0.517E-02 -.115E-02 0.217E+00
   0.227E+03 -.697E+03 0.248E+04   -.230E+03 0.700E+03 -.249E+04   0.242E+01 -.147E+01 0.826E+01   0.698E-01 -.439E-01 -.448E-02
   -.512E+02 0.188E+03 -.171E+04   0.549E+02 -.191E+03 0.171E+04   -.243E+01 0.214E+01 -.606E+01   -.524E-01 -.510E-02 -.115E-01
   -.409E+03 -.282E+03 0.245E+04   0.415E+03 0.284E+03 -.246E+04   -.504E+01 -.297E+01 0.638E+01   -.871E-01 0.292E-02 -.149E+00
   0.759E+02 -.614E+03 -.228E+04   -.754E+02 0.618E+03 0.229E+04   -.152E+01 -.260E+01 -.503E+01   -.136E+00 0.446E-01 -.147E+00
   -.279E+03 -.505E+03 0.382E+04   0.281E+03 0.506E+03 -.383E+04   -.296E+01 -.965E+00 0.548E+01   0.144E+00 -.512E-01 0.134E-01
   -.713E+03 -.501E+03 0.475E+03   0.714E+03 0.504E+03 -.477E+03   -.935E+00 -.308E+01 0.685E-01   0.142E+00 -.254E+00 -.139E+00
   -.287E+03 -.122E+03 -.343E+04   0.290E+03 0.125E+03 0.343E+04   -.332E+01 -.350E+01 0.148E+01   0.134E+00 -.179E+00 -.252E-01
   -.974E+02 -.692E+03 0.328E+04   0.995E+02 0.691E+03 -.328E+04   -.250E+01 0.116E+01 -.479E+00   0.121E+00 0.602E-02 0.170E-01
   -.337E+03 -.412E+03 -.125E+04   0.340E+03 0.417E+03 0.126E+04   -.342E+01 -.465E+01 -.565E+01   0.111E+00 0.172E+00 0.170E-01
   0.630E+02 -.507E+03 0.199E+04   -.641E+02 0.510E+03 -.199E+04   0.128E+01 -.290E+01 0.469E+01   -.307E+00 -.913E-01 -.143E+00
   -.462E+03 -.273E+03 -.280E+04   0.466E+03 0.278E+03 0.281E+04   -.259E+01 -.367E+01 -.399E+01   -.160E+00 -.905E-01 0.160E-01
   -.156E+03 -.649E+03 0.339E+03   0.156E+03 0.652E+03 -.339E+03   0.724E+00 -.251E+01 0.179E+00   -.120E+00 0.262E+00 0.260E-01
   0.698E+03 0.526E+03 0.261E+04   -.701E+03 -.528E+03 -.262E+04   0.262E+01 0.182E+01 0.879E+01   0.613E-01 0.227E-01 -.937E-01
   0.578E+02 -.263E+03 -.166E+04   -.540E+02 0.265E+03 0.166E+04   -.223E+01 -.220E+01 -.540E+01   -.102E-02 -.101E+00 -.538E-01
   0.140E+03 -.528E+02 -.177E+04   -.139E+03 0.532E+02 0.178E+04   -.989E+00 -.208E+00 -.205E+01   -.362E-01 -.125E-01 0.946E-01
   -.182E+03 -.228E+02 0.396E+03   0.184E+03 0.235E+02 -.399E+03   0.999E-01 -.114E+01 0.974E+00   -.463E-01 0.484E-02 -.112E+00
   -.678E+03 -.310E+03 0.107E+04   0.684E+03 0.311E+03 -.107E+04   -.278E+01 -.575E+00 0.338E-01   0.686E-01 -.238E-02 0.815E-02
   -.293E+03 -.138E+02 -.670E+03   0.295E+03 0.137E+02 0.672E+03   0.157E+00 0.449E+00 -.188E+01   0.560E-01 -.142E+00 -.408E-01
   -.184E+03 0.320E+03 0.902E+03   0.186E+03 -.322E+03 -.906E+03   -.330E+00 0.194E+01 0.207E+01   0.616E-01 0.330E-01 -.310E-01
   -.353E+02 0.340E+02 -.111E+04   0.361E+02 -.341E+02 0.111E+04   -.252E+00 0.105E+00 -.221E+01   0.451E-01 0.528E-01 -.499E-02
   0.935E+02 0.101E+02 0.174E+04   -.936E+02 -.995E+01 -.175E+04   0.343E+00 -.168E+00 0.205E+01   -.974E-01 -.244E-01 -.420E-01
   -.175E+03 0.557E+02 -.321E+03   0.176E+03 -.558E+02 0.324E+03   0.525E+00 0.130E+00 -.281E+01   -.119E-01 -.793E-01 -.459E-01
   -.141E+03 0.419E+02 -.177E+04   0.141E+03 -.419E+02 0.178E+04   0.233E+00 0.888E-01 -.110E+01   -.287E-01 -.480E-01 0.124E+00
   -.220E+03 0.572E+02 0.153E+04   0.222E+03 -.579E+02 -.154E+04   -.347E+00 0.471E+00 0.336E+01   0.114E-01 0.553E-01 -.132E+00
   -.447E+02 -.213E+03 -.820E+03   0.441E+02 0.215E+03 0.826E+03   0.149E+01 -.129E+01 -.333E+01   0.491E-01 0.151E+00 0.427E-01
   0.677E+02 0.157E+02 0.721E+03   -.667E+02 -.159E+02 -.725E+03   -.521E+00 -.325E+00 0.210E+01   0.106E-01 -.149E-01 -.165E-01
   0.120E+02 0.647E+01 -.126E+04   -.107E+02 -.620E+01 0.127E+04   -.548E+00 -.185E+00 -.240E+01   -.496E-01 -.277E-01 -.140E-01
   0.345E+02 -.973E+02 0.174E+04   -.341E+02 0.981E+02 -.175E+04   -.583E+00 0.615E-01 0.289E+01   0.245E-01 -.178E-01 -.444E-02
   0.108E+03 -.169E+03 -.369E+03   -.107E+03 0.169E+03 0.373E+03   -.535E+00 0.650E+00 -.177E+01   -.504E-01 0.644E-02 -.629E-01
   -.474E+02 -.321E+03 0.876E+03   0.476E+02 0.323E+03 -.879E+03   -.122E+01 -.104E+01 0.245E+01   0.661E-01 -.892E-01 -.325E-01
   0.129E+03 0.702E+02 -.127E+04   -.131E+03 -.687E+02 0.128E+04   -.204E+00 -.550E+00 -.270E+01   -.247E-04 -.176E+00 -.111E-01
   -.594E+02 -.180E+03 0.332E+03   0.585E+02 0.182E+03 -.331E+03   0.654E+00 -.652E+00 -.165E+01   0.882E-01 0.625E-01 0.280E-01
   -.814E+02 0.197E+02 -.141E+04   0.819E+02 -.186E+02 0.141E+04   -.410E+00 -.110E+01 -.206E+01   0.448E-01 0.775E-01 0.363E-01
   0.152E+03 -.121E+03 -.445E+03   -.153E+03 0.123E+03 0.445E+03   0.402E+00 -.668E+00 -.507E+00   -.109E+00 -.226E-01 -.798E-01
   0.125E+03 -.357E+02 0.137E+04   -.127E+03 0.352E+02 -.137E+04   0.116E+01 0.122E+01 0.416E+01   -.546E-01 -.880E-02 -.194E-01
   0.147E+03 -.199E+03 0.936E+03   -.146E+03 0.200E+03 -.938E+03   -.111E+01 -.234E+00 0.113E+01   -.934E-01 0.404E-01 -.715E-02
   -.274E+03 -.147E+03 -.107E+04   0.276E+03 0.148E+03 0.107E+04   -.450E+00 -.129E+00 -.384E-01   -.166E-01 0.137E-01 0.430E-02
   0.303E+03 0.619E+02 0.353E+03   -.306E+03 -.627E+02 -.356E+03   0.862E+00 0.852E+00 0.238E+01   0.440E-01 -.372E-01 -.264E-01
   0.606E+02 -.222E+03 -.155E+04   -.615E+02 0.225E+03 0.155E+04   0.630E+00 -.246E+01 -.131E+01   0.186E-01 -.454E-01 0.148E-01
   0.177E+03 0.264E+03 0.724E+03   -.179E+03 -.267E+03 -.725E+03   0.151E+01 0.147E+01 0.188E+00   0.188E-01 0.691E-02 0.457E-01
   0.324E+03 0.257E+03 -.120E+04   -.327E+03 -.261E+03 0.120E+04   0.732E+00 0.212E+01 -.161E+01   0.530E-01 0.232E-02 0.220E-01
   0.140E+03 0.132E+03 0.172E+04   -.140E+03 -.133E+03 -.173E+04   -.492E+00 0.337E+00 0.259E+01   0.600E-02 0.182E-01 -.118E-01
   0.191E+03 0.166E+03 -.328E+03   -.191E+03 -.167E+03 0.332E+03   -.661E+00 -.107E+01 -.234E+01   -.211E-01 0.234E-01 -.621E-01
   0.142E+03 0.166E+03 -.465E+03   -.144E+03 -.169E+03 0.464E+03   0.118E+01 0.996E+00 -.165E+00   -.449E-01 0.288E-01 -.863E-01
   0.122E+03 0.404E+02 0.136E+04   -.124E+03 -.400E+02 -.137E+04   0.926E+00 -.118E+01 0.407E+01   -.428E-01 -.127E-01 -.520E-02
   -.797E+02 0.389E+03 0.655E+03   0.791E+02 -.392E+03 -.657E+03   -.596E+00 0.149E+01 0.218E+01   0.800E-01 -.344E-01 -.635E-01
   -.138E+03 -.415E+02 -.146E+04   0.139E+03 0.398E+02 0.147E+04   -.593E+00 0.154E+01 -.187E+01   0.104E+00 0.101E+00 0.562E-01
   0.178E+03 -.284E+03 0.163E+03   -.181E+03 0.285E+03 -.164E+03   0.165E+01 -.784E+00 0.120E+01   0.235E-01 -.333E-02 0.264E-01
   0.676E+02 0.226E+03 -.154E+04   -.688E+02 -.230E+03 0.154E+04   0.682E+00 0.252E+01 -.426E+00   0.775E-02 0.507E-02 -.192E-01
   0.157E+03 0.180E+03 0.103E+04   -.157E+03 -.182E+03 -.103E+04   -.846E+00 0.327E+00 0.125E+01   -.154E+00 -.925E-02 -.621E-01
   -.956E+02 -.154E+02 -.963E+03   0.962E+02 0.130E+02 0.965E+03   -.369E+00 0.214E+01 -.986E+00   -.117E+00 0.616E-01 0.411E-01
   0.902E+00 -.608E+01 -.184E+02   -.142E-13 -.377E-12 0.100E-10   -.478E+00 0.628E+01 0.205E+02   -.489E+00 -.259E+00 -.206E+01

 POSITION                                       TOTAL-FORCE (eV/Angst)
     13.17084      1.39171      2.05636         0.199223     -0.043196      0.933942
     13.55379      1.39434      4.75690        -0.148526     -0.052957      0.930776
      3.67663      6.23949      1.64520         0.992480     -0.057870     -0.340355
      5.02033      6.18092      3.59863        -0.469009      0.229488      0.063769
      6.60251      1.52227      2.14085         0.661953     -0.112355     -0.811372
      7.93172      1.39171      4.11272        -1.126771     -0.330299     -0.787817
     16.08224      6.18092      2.57045        -0.475187      0.055694      2.065766
     16.46451      6.17812      5.29239        -1.418685     -0.016145      0.344548
      2.89712      1.41674      0.78613        -0.843313      0.085579     -1.969563
      2.10894      1.39171      3.08454        -0.788584     -0.080673      0.264235
      1.15022      0.91637      5.19315         0.692228     -0.598086      0.549806
     10.84312      6.18092      4.62682        -1.859945      0.108366     -2.953839
     15.35710      0.04652      1.97773         1.063526      0.693894      0.202155
     15.86900      0.06624      4.46994        -0.324114     -1.063536     -0.305793
      7.37387      4.10704      0.99910        -0.211073     -0.795850     -0.820336
      7.17375      4.91558      3.19116         0.168722     -0.178185      1.019564
      7.74404      4.61307      5.57588         0.341248     -0.154985      1.022759
      8.95363      1.39031      1.53236        -0.171114      0.052572     -1.807078
     10.08514      0.12638      3.70525         0.782138     -0.276459     -1.641820
      1.35096      4.91558      2.16298         0.204597     -0.333222      1.520604
      1.89324      4.79555      4.88136         1.032869     -1.500063     -0.017891
      4.26235      0.12638      2.67707         0.270695     -0.775444     -0.056070
      5.00711      9.22477      4.89664        -0.546629      0.221970      1.287107
     12.97618      4.03692      1.99963        -0.335642      0.993310     -0.093226
     12.99653      4.91558      4.21934         1.201559     -0.172565     -1.190236
     15.36913      2.75581      2.00386         0.831034     -0.617795      0.224971
     15.95604      2.65359      4.50901        -1.193501      1.238554     -0.470631
      6.13542      6.20038      1.12439        -0.511220      0.308301     -1.951979
      7.17375      7.44626      3.19116         0.456910      0.140339     -1.435767
      7.96172      7.95612      5.41686        -0.174231     -0.315263      1.080096
     10.53234      3.34830      1.48409        -0.277941      0.572437     -1.234513
     10.08514      2.65705      3.70525         0.493330      0.147097      0.018724
      1.35096      7.44626      2.16298        -0.071342      0.462090      1.499067
      1.89562      7.53037      4.91597         1.008284      1.218482      0.220237
      4.26235      2.65705      2.67707         0.736235      0.708565      0.758360
     13.11160      8.19590      2.01247        -0.482685     -0.766482      0.263885
     12.99653      7.44626      4.21934         1.530773      0.104603     -0.523596
     16.21885      1.32769      6.04983        -0.757904      0.185084      4.054098
     16.74052      1.39171      3.05601         1.381482     -0.428866     -2.449732
      8.07957      6.00457      1.66493         3.120057      1.189640     -2.138175
      8.59001      6.18092      4.59828         2.082100      0.217687      0.317273
     10.91773      1.39171      2.02783         1.855134     -0.798571     -1.526192
     11.47249      1.38806      4.69828         0.615734      0.049597      2.722020
      1.91470      6.18232      0.64127         0.187797     -0.028304     -3.886283
      2.76722      6.18092      3.57010         1.514197     -0.106376     -0.176138
      1.34925      6.14143      6.32367         0.677588      0.087922      4.393726
      4.88216      1.39131      1.05379         1.555622     -0.134571     -3.027966
      5.53810      1.39831      3.93030         0.848762      1.062182      2.344551
     13.82913      6.18092      2.54192         0.481315     -0.493482     -1.864029
     14.36778      6.16877      5.21639         0.792501      0.060438      2.561082
     13.81575      2.77946      0.64657        -0.171318      0.811701     -3.741807
     13.99844      3.00295      3.57488        -0.323696      1.278410      1.661460
      5.26426      7.79215      2.03261        -0.933261      1.473223     -0.085587
      6.01265      7.47053      4.97866        -1.353192      0.800865      1.846160
      8.17565      3.00295      2.54670        -0.165046      1.183530     -0.354959
      8.77133      2.89625      5.31470         0.187994      0.095023      2.744778
      0.02514      7.79215      4.08897        -1.066875      1.279427     -0.737423
     16.33246      7.86240      1.38500        -0.353935      0.666481     -2.682587
      2.39400      3.10649      1.83288        -0.748681      0.820218     -1.120405
      2.13737      2.68466      4.76983         1.631910      0.881515      1.475969
     11.26751      7.92442      3.18091        -2.154890      0.020766     -1.219836
     11.78235      7.47409      5.84226        -0.287609      1.177932      3.840995
      5.26426      4.56969      2.03261        -0.974268     -1.484028     -0.982178
      5.87044      4.67386      4.81446        -2.091185     -1.813207      1.952422
     13.77168      9.54688      0.66518        -0.448769     -0.742360     -3.989945
     13.99844      9.35889      3.57488        -0.871569     -1.305801      1.287534
      0.02514      4.56969      4.08897        -1.246064     -1.240069     -0.774426
     16.34232      4.50596      1.37938        -0.525685     -0.731439     -2.806052
      8.17565      9.35889      2.54670        -1.080009     -1.446521      0.055801
      8.94011      0.12470      5.41890         0.286585     -0.090892      3.027330
     11.18526      4.48830      3.08923        -1.603869      0.713881     -0.207340
     11.69894      4.75575      5.76506        -0.497355     -1.278399      3.824368
      2.36860      9.27704      1.77209        -0.880793     -0.892764     -1.438718
      2.93654      9.35889      4.60306         0.078904     -0.139782      1.241719
    total drift:                               -0.065841     -0.061085      0.022009

  FREE ENERGIE OF THE ION-ELECTRON SYSTEM (eV)
  free  energy   TOTEN  =      -351.51413110 eV

  energy  without entropy=     -350.41343255  energy(sigma->0) =     -350.96378183