 vasp.5.4.4.18Apr17-6-g9f103f2a35 (build Aug 13 2019 17:33:20) gamma-only

 executed on             LinuxIFC date 2020.05.12  01:50:47

 INCAR:
 POTCAR:    PAW_PBE Ni_pv 06Sep2000
 POTCAR:    PAW_PBE S 06Sep2000
 POTCAR:    PAW_PBE Ni_pv 06Sep2000
   VRHFIN =Ni:

   TITEL  = PAW_PBE Ni_pv 06Sep2000
   POMASS =   58.690; ZVAL   =   16.000    mass and valenz
   ENMAX  =  367.986; ENMIN  =  275.989 eV

 POTCAR:    PAW_PBE S 06Sep2000
   VRHFIN =S : s2p4

   TITEL  = PAW_PBE S 06Sep2000
   POMASS =   32.066; ZVAL   =    6.000    mass and valenz
   ENMAX  =  258.689; ENMIN  =  194.016 eV

 Optimization of the real space projectors (new method)

 maximal supplied QI-value         = 18.90
 optimisation between [QCUT,QGAM] = [ 10.77, 21.73] = [ 32.49,132.25] Ry
 Optimized for a Real-space Cutoff    1.38 Angstroem

   l    n(q)    QCUT    max X(q) W(low)/X(q) W(high)/X(q)  e(spline)
   1      8    10.771     2.836    0.40E-04    0.29E-04    0.12E-06
   1      8    10.771     4.023    0.10E-03    0.48E-04    0.29E-06
   2      8    10.771    73.368    0.42E-03    0.97E-04    0.44E-06
   2      8    10.771    69.010    0.42E-03    0.99E-04    0.45E-06
   0      9    10.771    54.797    0.10E-03    0.56E-04    0.74E-07
   0      9    10.771    24.266    0.89E-04    0.49E-04    0.67E-07
 Optimization of the real space projectors (new method)

 maximal supplied QI-value         = 19.84
 optimisation between [QCUT,QGAM] = [ 10.71, 21.63] = [ 32.15,130.99] Ry
 Optimized for a Real-space Cutoff    1.19 Angstroem

   l    n(q)    QCUT    max X(q) W(low)/X(q) W(high)/X(q)  e(spline)
   0      8    10.715   187.594    0.41E-03    0.53E-04    0.66E-07
   0      8    10.715   164.243    0.41E-03    0.53E-04    0.65E-07
   1      7    10.715    67.533    0.19E-03    0.59E-03    0.68E-07
   1      7    10.715    50.729    0.19E-03    0.58E-03    0.67E-07
  PAW_PBE Ni_pv 06Sep2000               :
  PAW_PBE S 06Sep2000                   :

 POSCAR: Type_037 Type_137
  positions in cartesian coordinates
 exchange correlation table for  LEXCH =        8
   RHO(1)=    0.500       N(1)  =     2000
   RHO(2)=  100.500       N(2)  =     4000

 ion  position               nearest neighbor table
   1  0.780  0.145  0.123-  65 2.07  51 2.08  42 2.25  52 2.36  66 2.36
   2  0.803  0.145  0.288-  38 2.05  66 2.07  52 2.07  43 2.10
   3  0.216  0.658  0.099-  44 2.03  45 2.11  53 2.24   4 2.39  63 2.41  27 2.47
   4  0.297  0.645  0.216-  64 2.10  54 2.21  45 2.25  53 2.26  63 2.26   3 2.39  28 2.53  16 2.53

   5  0.390  0.150  0.130-  47 2.04  48 2.12  55 2.26  69 2.33   6 2.36  17 2.46
   6  0.470  0.145  0.247-  56 2.05  70 2.09  48 2.25  55 2.26  69 2.26   5 2.36  31 2.53  18 2.53

[...]

  56  0.520  0.300  0.315-  31 2.03   6 2.05  70 2.70  55 2.77
  57  0.001  0.814  0.246-   8 2.05  33 2.07  14 2.18  32 2.36   7 2.36  58 2.76
  58  0.967  0.821  0.084-   7 2.07  13 2.10  32 2.10  57 2.76
  59  0.139  0.321  0.105-   9 2.03  19 2.13  10 2.16  34 2.17  60 2.69
  60  0.170  0.307  0.263-  35 2.03  20 2.15  10 2.16  34 2.22  59 2.69
  61  0.657  0.814  0.184-  11 2.17  18 2.25  37 2.26  12 2.26  36 2.32
  62  0.695  0.792  0.348-  37 2.02  12 2.03  72 2.78
  63  0.312  0.477  0.122-  27 2.04  34 2.25   4 2.26  16 2.26   3 2.41  15 2.60
  64  0.347  0.488  0.288-  35 2.01  16 2.09   4 2.10  54 2.79
  65  0.816  0.997  0.041-  36 2.02  13 2.06   1 2.07
  66  0.829  0.977  0.215-   2 2.07  14 2.11  13 2.11  36 2.14  37 2.25   1 2.36
  67  0.001  0.477  0.246-   8 2.05  20 2.06  26 2.18  19 2.36   7 2.36  68 2.76
  68  0.968  0.469  0.084-   7 2.07  19 2.09  25 2.10  67 2.76
  69  0.484  0.977  0.153-  17 2.05  28 2.25   6 2.26  18 2.26   5 2.33
  70  0.532  0.020  0.328-  29 1.99  18 2.07   6 2.09  56 2.70
  71  0.657  0.477  0.184-  30 2.09  11 2.12  23 2.21  31 2.25  24 2.26  12 2.26
  72  0.696  0.502  0.348-  24 2.02  12 2.03  62 2.78
  73  0.139  0.969  0.106-   9 2.04  32 2.12  10 2.15  21 2.17  74 2.74
  74  0.179  0.984  0.265-  22 2.08  21 2.15  33 2.15  10 2.24  73 2.74

  LATTYP: Found a simple orthorhombic cell.
 ALAT       =     9.5784100000
 B/A-ratio  =     1.7387693453
 C/A-ratio  =     1.7627867312

  Lattice vectors:

 A1 = (   0.0000000000,   9.5784100000,   0.0000000000)
 A2 = (   0.0000000000,   0.0000000000, -16.6546456851)
 A3 = ( -16.8846940542,   0.0000000000,   0.0000000000)

Analysis of symmetry for initial positions (statically):
 Subroutine PRICEL returns:
 Original cell was already a primitive cell.

 Routine SETGRP: Setting up the symmetry group for a
 simple orthorhombic supercell.

 Subroutine GETGRP returns: Found  1 space group operations
 (whereof  1 operations were pure point group operations)
 out of a pool of  8 trial point group operations.

The static configuration has the point symmetry C_1 .

Analysis of symmetry for dynamics (positions and initial velocities):
 Subroutine PRICEL returns:
 Original cell was already a primitive cell.

 Routine SETGRP: Setting up the symmetry group for a
 simple orthorhombic supercell.

 Subroutine GETGRP returns: Found  1 space group operations
 (whereof  1 operations were pure point group operations)
 out of a pool of  8 trial point group operations.

The dynamic configuration has the point symmetry C_1 .

 Subroutine INISYM returns: Found  1 space group operations
 (whereof  1 operations are pure point group operations),
 and found     1 'primitive' translations

 KPOINTS: gamma-point-only calculation. no periodi

Automatic generation of k-mesh.
Space group operators:
 irot       det(A)        alpha          n_x          n_y          n_z        tau_x        tau_y        tau_z
    1     1.000000     0.000000     1.000000     0.000000     0.000000     0.000000     0.000000     0.000000

 Subroutine IBZKPT returns following result:

 Found      1 irreducible k-points:

 Following reciprocal coordinates:
            Coordinates               Weight
  0.000000  0.000000  0.000000      1.000000

 Following cartesian coordinates:
            Coordinates               Weight
  0.000000  0.000000  0.000000      1.000000

 SYSTEM =  "Millerite NiS"
 POSCAR =  Type_037 Type_137

 Startparameter for this run:
   NWRITE =      2    write-flag & timer
   PREC   = normal    normal or accurate (medium, high low for compatibility)
   ISTART =      0    job   : 0-new  1-cont  2-samecut
   ICHARG =      2    charge: 1-file 2-atom 10-const
   ISPIN  =      1    spin polarized calculation?
   LNONCOLLINEAR =      F non collinear calculations
   LSORBIT =      F    spin-orbit coupling
   INIWAV =      1    electr: 0-lowe 1-rand  2-diag
   LASPH  =      F    aspherical Exc in radial PAW
   METAGGA=      F    non-selfconsistent MetaGGA calc.

 Electronic Relaxation 1
   ENCUT  =  450.0 eV  33.07 Ry    5.75 a.u.  29.20 16.57 28.81*2*pi/ulx,y,z
   ENINI  =  450.0     initial cutoff
   ENAUG  =  703.4 eV  augmentation charge cutoff
   NELM   =    100;   NELMIN=  2; NELMDL= -5     # of ELM steps
   EDIFF  = 0.1E-03   stopping-criterion for ELM
   LREAL  =      T    real-space projection
   NLSPLINE    = F    spline interpolate recip. space projectors
   LCOMPAT=      F    compatible to vasp.4.4
   GGA_COMPAT  = T    GGA compatible to vasp.4.4-vasp.4.6
   LMAXPAW     = -100 max onsite density
   LMAXMIX     =    2 max onsite mixed and CHGCAR
   VOSKOWN=      0    Vosko Wilk Nusair interpolation
   ROPT   =   -0.00050  -0.00050
 Ionic relaxation
   EDIFFG = 0.1E-02   stopping-criterion for IOM
   NSW    =      0    number of steps for IOM
   NBLOCK =      1;   KBLOCK =      1    inner block; outer block
   IBRION =     -1    ionic relax: 0-MD 1-quasi-New 2-CG
   NFREE  =      0    steps in history (QN), initial steepest desc. (CG)
   ISIF   =      2    stress and relaxation
   IWAVPR =     10    prediction:  0-non 1-charg 2-wave 3-comb
   ISYM   =      2    0-nonsym 1-usesym 2-fastsym
   LCORR  =      T    Harris-Foulkes like correction to forces

   POTIM  = 0.5000    time-step for ionic-motion
   TEIN   =    0.0    initial temperature
   TEBEG  =    0.0;   TEEND  =   0.0 temperature during run
   SMASS  =  -3.00    Nose mass-parameter (am)
   estimated Nose-frequenzy (Omega)   =  0.10E-29 period in steps =****** mass=  -0.652E-26a.u.
   SCALEE = 1.0000    scale energy and forces
   NPACO  =    256;   APACO  = 16.0  distance and # of slots for P.C.
   PSTRESS=    0.0 pullay stress

  Mass of Ions in am
   POMASS =  58.69 32.07
  Ionic Valenz
   ZVAL   =  16.00  6.00
  Atomic Wigner-Seitz radii
  virtual crystal weights
   VCA    =   1.00  1.00
   NELECT =     814.0000    total number of electrons
   NUPDOWN=      -1.0000    fix difference up-down

 DOS related values:
   EMIN   =  10.00;   EMAX   =-10.00  energy-range for DOS
   EFERMI =   0.00
   ISMEAR =     0;   SIGMA  =   0.20  broadening in eV -4-tet -1-fermi 0-gaus

 Electronic relaxation 2 (details)
   IALGO  =     38    algorithm
   LDIAG  =      T    sub-space diagonalisation (order eigenvalues)
   LSUBROT=      F    optimize rotation matrix (better conditioning)
   TURBO    =      0    0=normal 1=particle mesh
   IRESTART =      0    0=no restart 2=restart with 2 vectors
   NREBOOT  =      0    no. of reboots
   NMIN     =      0    reboot dimension
   EREF     =   0.00    reference energy to select bands
   IMIX   =      4    mixing-type and parameters
     AMIX     =   0.40;   BMIX     =  1.00
     AMIX_MAG =   1.60;   BMIX_MAG =  1.00
     AMIN     =   0.10
     WC   =   100.;   INIMIX=   1;  MIXPRE=   1;  MAXMIX= -45

 Intra band minimization:
   WEIMIN = 0.0000     energy-eigenvalue tresh-hold
   EBREAK =  0.51E-07  absolut break condition
   DEPER  =   0.30     relativ break condition

   TIME   =   0.40     timestep for ELM

  volume/ion in A,a.u.               =      36.40       245.63
  Fermi-wavevector in a.u.,A,eV,Ry     =   1.098607  2.076066 16.421374  1.206937
  Thomas-Fermi vector in A             =   2.234987

 Write flags
   LWAVE        =      F    write WAVECAR
   LDOWNSAMPLE  =      F    k-point downsampling of WAVECAR
   LCHARG       =      F    write CHGCAR
   LVTOT        =      F    write LOCPOT, total local potential
   LVHAR        =      F    write LOCPOT, Hartree potential only
   LELF         =      F    write electronic localiz. function (ELF)
   LORBIT       =      0    0 simple, 1 ext, 2 COOP (PROOUT), +10 PAW based schemes

 Dipole corrections
   LMONO  =      F    monopole corrections only (constant potential shift)
   LDIPOL =      F    correct potential (dipole corrections)
   IDIPOL =      0    1-x, 2-y, 3-z, 4-all directions
   EPSILON=  1.0000000 bulk dielectric constant

 Exchange correlation treatment:
   GGA     =    --    GGA type
   VOSKOWN=      0    Vosko Wilk Nusair interpolation
   LHFCALC =     F    Hartree Fock is set to
   LHFONE  =     F    Hartree Fock one center treatment
   AEXX    =    0.0000 exact exchange contribution

 Linear response parameters
   LEPSILON=     F    determine dielectric tensor
   LRPA    =     F    only Hartree local field effects (RPA)
   LNABLA  =     F    use nabla operator in PAW spheres
   LVEL    =     F    velocity operator in full k-point grid
   LINTERFAST=   F  fast interpolation
[...]
     0.000000000  9.578410000  0.000000000     0.000000000  0.104401461  0.000000000
     0.000000000  0.000000000 16.654645685     0.000000000  0.000000000  0.060043307

  length of vectors
    16.884694054  9.578410000 16.654645685     0.059225237  0.104401461  0.060043307

 FORCES acting on ions
    electron-ion (+dipol)            ewald-force                    non-local-force                 convergence-correction
   0.591E+03 0.141E+03 0.201E+04   -.594E+03 -.141E+03 -.201E+04   0.338E+01 0.462E-02 0.552E+01   0.356E-01 0.494E-01 0.117E+00
   0.533E+03 0.196E+02 -.299E+04   -.537E+03 -.195E+02 0.299E+04   0.231E+01 -.851E-01 -.556E+01   -.138E+00 -.256E-03 0.119E+00
   0.155E+03 -.448E+02 0.280E+04   -.155E+03 0.452E+02 -.281E+04   0.136E+01 -.613E+00 0.761E+01   -.136E+00 0.120E-01 -.193E-01
   0.373E+03 0.233E+02 -.142E+04   -.376E+03 -.234E+02 0.142E+04   0.233E+01 0.224E+00 -.469E+01   -.868E-01 0.116E+00 0.140E+00
   0.404E+02 0.250E+03 0.209E+04   -.390E+02 -.251E+03 -.209E+04   -.107E+01 0.110E+01 0.467E+01   0.148E+00 -.287E-01 0.179E+00
   0.273E+03 -.394E+02 -.218E+04   -.277E+03 0.380E+02 0.219E+04   0.264E+01 0.678E+00 -.739E+01   0.139E+00 0.601E-01 0.356E+00
   0.636E+03 0.652E+01 0.127E+04   -.642E+03 -.660E+01 -.127E+04   0.505E+01 0.973E-01 0.440E+01   -.176E-02 -.156E-01 0.143E+00
   0.508E+03 -.215E+01 -.336E+04   -.512E+03 0.228E+01 0.336E+04   0.267E+01 -.236E+00 -.370E+01   -.109E+00 -.961E-02 0.592E-01
   0.476E+03 0.169E+02 0.408E+04   -.480E+03 -.171E+02 -.409E+04   0.323E+01 0.147E+00 0.418E+01   -.347E-01 -.149E-01 -.948E-01
   0.812E+03 0.164E+02 -.371E+03   -.817E+03 -.170E+02 0.374E+03   0.383E+01 0.448E+00 -.240E+01   -.959E-01 -.479E-01 0.204E+00
   -.412E+03 -.488E+03 0.176E+04   0.414E+03 0.489E+03 -.176E+04   -.128E+01 -.147E+01 0.309E+01   0.113E+00 0.143E-01 0.531E-01
   0.322E+03 0.179E+02 -.254E+04   -.325E+03 -.181E+02 0.255E+04   0.204E+01 0.271E+00 -.753E+01   0.168E+00 -.310E-01 0.273E+00
   -.493E+03 0.224E+03 0.239E+04   0.499E+03 -.226E+03 -.240E+04   -.469E+01 0.270E+01 0.580E+01   -.484E-01 -.146E-01 0.540E-01
   -.446E+03 0.367E+03 -.241E+04   0.450E+03 -.370E+03 0.242E+04   -.279E+01 0.244E+01 -.469E+01   -.125E+00 -.861E-01 0.105E+00
   -.576E+02 0.207E+03 0.390E+04   0.611E+02 -.206E+03 -.390E+04   -.376E+01 -.168E+01 -.919E+00   0.257E-01 -.500E-01 -.126E+00
   -.240E+03 0.353E+03 -.757E+03   0.240E+03 -.356E+03 0.762E+03   0.294E+00 0.304E+01 -.471E+01   0.102E+00 -.117E+00 0.161E+00
   -.271E+03 0.726E+03 0.343E+04   0.271E+03 -.728E+03 -.344E+04   -.234E+00 0.197E+01 0.549E+01   0.265E-01 -.346E-01 0.623E-01
   -.526E+03 0.563E+03 -.768E+03   0.530E+03 -.569E+03 0.769E+03   -.252E+01 0.525E+01 -.240E+01   0.177E-01 0.123E+00 0.306E+00
   0.114E+03 0.596E+03 0.186E+04   -.115E+03 -.599E+03 -.186E+04   0.134E+01 0.269E+01 0.449E+01   -.181E+00 0.165E+00 0.912E-01
   -.271E+03 0.588E+03 -.289E+04   0.274E+03 -.593E+03 0.289E+04   -.158E+01 0.390E+01 -.361E+01   -.178E+00 0.104E+00 0.142E+00
   -.420E+02 0.492E+03 0.917E+03   0.427E+02 -.496E+03 -.918E+03   -.262E+00 0.399E+01 0.628E+00   0.112E+00 -.116E+00 0.305E+00
   0.883E+02 0.801E+01 -.325E+04   -.873E+02 -.102E+02 0.325E+04   -.133E+01 0.274E+01 0.303E+00   0.811E-01 -.895E-02 0.257E+00
   0.127E+03 -.481E+03 0.247E+04   -.128E+03 0.483E+03 -.248E+04   0.860E+00 -.855E+00 0.714E+01   0.955E-01 -.157E-02 0.933E-01
   -.243E+03 0.284E+03 -.185E+04   0.246E+03 -.286E+03 0.185E+04   -.192E+01 0.261E+01 -.631E+01   0.740E-01 0.546E-02 0.191E+00
   -.514E+03 -.236E+03 0.238E+04   0.519E+03 0.238E+03 -.239E+04   -.454E+01 -.285E+01 0.574E+01   -.100E+00 0.532E-01 0.185E-01
   -.452E+03 -.365E+03 -.241E+04   0.456E+03 0.369E+03 0.242E+04   -.277E+01 -.231E+01 -.473E+01   -.143E+00 0.604E-01 0.801E-01
   -.274E+02 -.411E+03 0.388E+04   0.253E+02 0.412E+03 -.389E+04   0.182E+01 -.583E+00 0.539E+01   -.282E-01 0.312E-01 -.166E+00
   -.300E+03 -.516E+03 0.255E+03   0.300E+03 0.520E+03 -.257E+03   0.710E+00 -.404E+01 -.647E+00   -.238E-02 0.147E+00 0.192E+00
   -.191E+03 0.584E+02 -.359E+04   0.192E+03 -.550E+02 0.359E+04   -.105E+01 -.453E+01 0.558E+00   0.391E-01 0.225E+00 0.244E+00
   -.640E+03 -.303E+03 0.320E+04   0.638E+03 0.303E+03 -.320E+04   0.238E+01 -.115E-02 0.180E+01   0.934E-01 -.422E-01 0.775E-02
   -.460E+03 -.299E+03 -.147E+04   0.465E+03 0.303E+03 0.148E+04   -.330E+01 -.380E+01 -.651E+01   -.513E-01 -.888E-01 0.425E+00
   0.169E+03 -.591E+03 0.186E+04   -.170E+03 0.594E+03 -.186E+04   0.138E+01 -.269E+01 0.434E+01   -.162E+00 -.154E+00 0.777E-01
   -.243E+03 -.602E+03 -.285E+04   0.246E+03 0.609E+03 0.285E+04   -.207E+01 -.464E+01 -.335E+01   -.930E-01 -.573E-01 0.134E+00
   0.168E+02 -.508E+03 0.818E+03   -.163E+02 0.512E+03 -.820E+03   -.171E+00 -.346E+01 0.105E+01   0.732E-01 0.103E-01 0.875E-01
   -.267E+02 -.574E+02 -.355E+04   0.267E+02 0.601E+02 0.355E+04   0.225E+00 -.274E+01 0.280E+01   0.739E-01 -.110E+00 0.214E+00
   0.456E+03 0.398E+03 0.255E+04   -.459E+03 -.401E+03 -.256E+04   0.150E+01 0.162E+01 0.737E+01   0.614E-01 -.704E-02 0.830E-01
   -.172E+03 -.344E+03 -.179E+04   0.174E+03 0.347E+03 0.179E+04   -.143E+01 -.265E+01 -.558E+01   0.837E-01 -.522E-01 0.238E+00
   -.931E+02 0.113E+01 -.174E+04   0.936E+02 -.112E+01 0.174E+04   0.143E+00 0.209E-01 -.753E+00   -.579E-01 -.171E-01 0.461E-01
   -.299E+03 0.767E+00 0.187E+03   0.301E+03 -.746E+00 -.188E+03   0.211E+00 -.686E-01 -.384E+00   -.678E-01 -.108E-01 0.155E-01
   -.320E+03 -.344E+03 0.124E+04   0.322E+03 0.347E+03 -.125E+04   -.131E+01 -.220E+01 0.273E+01   0.135E-01 0.134E-01 -.610E-01
   -.515E+02 0.181E+03 -.935E+03   0.508E+02 -.183E+03 0.941E+03   0.914E+00 0.116E+01 -.386E+01   0.235E-01 -.141E-01 0.109E+00
   -.247E+03 0.213E+03 0.925E+03   0.249E+03 -.215E+03 -.927E+03   -.678E+00 0.247E+01 0.143E+01   0.410E-01 -.994E-02 0.397E-01
   -.710E+02 0.111E+02 -.113E+04   0.726E+02 -.111E+02 0.113E+04   -.957E+00 0.156E-01 -.160E+01   0.873E-02 0.787E-02 0.819E-01
   0.125E+03 0.142E+02 0.174E+04   -.125E+03 -.142E+02 -.174E+04   0.395E+00 0.239E-01 0.179E+01   -.411E-01 0.665E-04 0.139E-02
   -.111E+03 0.209E+02 -.350E+03   0.112E+03 -.209E+02 0.352E+03   0.439E+00 0.509E-01 -.268E+01   -.739E-01 -.155E-03 0.318E-01
   -.116E+03 -.141E+02 -.176E+04   0.116E+03 0.142E+02 0.177E+04   0.197E+00 0.386E-01 -.117E+01   -.539E-01 -.151E-01 0.378E-01
   -.184E+03 0.474E+02 0.155E+04   0.186E+03 -.476E+02 -.156E+04   -.145E+00 0.221E+00 0.246E+01   0.815E-01 -.617E-02 -.319E-01
   -.664E+02 -.200E+02 -.807E+03   0.667E+02 0.198E+02 0.812E+03   0.506E+00 0.243E-01 -.399E+01   0.760E-01 -.108E+00 0.906E-01
   -.294E+02 0.147E+02 0.694E+03   0.306E+02 -.149E+02 -.698E+03   -.859E+00 -.214E+00 0.216E+01   0.515E-01 -.291E-01 0.596E-01
   -.509E+02 -.142E+01 -.129E+04   0.528E+02 0.153E+01 0.129E+04   -.118E+01 -.106E+00 -.229E+01   0.223E-01 -.733E-02 0.270E-01
   0.237E+02 -.899E+02 0.173E+04   -.236E+02 0.909E+02 -.173E+04   -.386E+00 -.215E+00 0.253E+01   0.116E-01 0.787E-02 -.879E-02
   0.779E+02 -.146E+03 -.372E+03   -.779E+02 0.148E+03 0.374E+03   -.129E+01 -.762E-01 -.178E+01   -.342E-01 -.210E-03 0.416E-01
   -.485E+01 -.320E+03 0.853E+03   0.530E+01 0.323E+03 -.856E+03   -.137E+01 -.137E+01 0.238E+01   -.127E-01 0.107E-01 0.116E-01
   0.113E+03 0.128E+03 -.140E+04   -.115E+03 -.126E+03 0.140E+04   0.494E+00 -.136E+01 -.220E+01   -.373E-01 0.108E+00 0.107E+00
   0.759E+02 -.837E+02 0.227E+03   -.778E+02 0.860E+02 -.226E+03   0.845E+00 -.111E+01 -.201E+01   0.121E-01 -.455E-01 0.105E+00
   0.386E+02 -.242E+03 -.153E+04   -.394E+02 0.245E+03 0.154E+04   0.281E+00 -.170E+01 -.888E+00   0.187E-01 -.538E-01 0.793E-01
   0.118E+03 -.226E+03 -.530E+03   -.119E+03 0.229E+03 0.530E+03   0.539E+00 -.120E+01 -.157E+00   -.512E-01 -.734E-01 0.376E-01
   0.107E+03 -.536E+02 0.132E+04   -.109E+03 0.532E+02 -.133E+04   0.899E+00 0.102E+01 0.405E+01   -.125E-01 -.453E-01 0.311E-01
   0.222E+03 -.170E+03 0.978E+03   -.223E+03 0.171E+03 -.981E+03   0.197E+00 -.222E+00 0.225E+01   -.589E-01 0.907E-01 0.192E-01
   0.226E+03 0.547E+02 -.959E+03   -.227E+03 -.545E+02 0.962E+03   0.450E+00 -.304E-01 -.176E+01   -.676E-01 0.252E-01 0.718E-01
   0.429E+02 -.140E+03 0.359E+03   -.453E+02 0.142E+03 -.361E+03   0.244E+01 -.107E+01 0.126E+01   0.346E-01 0.328E-01 0.606E-01
   0.279E+02 -.233E+03 -.159E+04   -.287E+02 0.237E+03 0.159E+04   0.318E+00 -.238E+01 -.933E+00   0.259E-01 0.151E-01 0.609E-01
   0.181E+03 0.257E+03 0.761E+03   -.182E+03 -.259E+03 -.762E+03   0.850E+00 0.140E+01 0.642E+00   -.771E-02 0.619E-02 -.156E-01
   -.852E+02 0.113E+02 -.132E+04   0.861E+02 -.122E+02 0.133E+04   -.673E+00 0.610E+00 -.305E+01   0.534E-01 0.143E-01 0.888E-01
   0.945E+02 0.109E+03 0.171E+04   -.945E+02 -.111E+03 -.172E+04   -.354E+00 0.420E+00 0.242E+01   0.107E-01 0.159E-01 -.334E-01
   0.115E+03 0.145E+03 -.359E+03   -.116E+03 -.147E+03 0.361E+03   -.885E+00 0.736E-01 -.180E+01   -.351E-02 0.241E-01 0.742E-01
   0.116E+03 0.227E+03 -.526E+03   -.118E+03 -.230E+03 0.525E+03   0.584E+00 0.119E+01 -.659E-01   -.264E-01 0.954E-01 0.379E-01
   0.109E+03 0.538E+02 0.132E+04   -.110E+03 -.536E+02 -.133E+04   0.639E+00 -.102E+01 0.382E+01   -.236E-01 0.397E-01 0.341E-01
   -.485E+02 0.321E+03 0.638E+03   0.486E+02 -.324E+03 -.640E+03   -.117E+01 0.163E+01 0.190E+01   0.133E-01 0.425E-01 0.682E-01
   -.123E+03 -.862E+02 -.157E+04   0.124E+03 0.838E+02 0.157E+04   -.931E+00 0.257E+01 -.194E+01   0.240E-02 0.745E-01 0.639E-01
   -.858E+02 -.249E+02 0.840E+02   0.847E+02 0.231E+02 -.842E+02   0.132E+01 0.718E+00 -.310E+00   0.666E-01 -.318E-01 0.807E-01
   0.645E+02 0.240E+03 -.162E+04   -.656E+02 -.244E+03 0.162E+04   0.504E+00 0.240E+01 -.548E+00   0.241E-01 -.241E-01 0.487E-01
   0.220E+03 0.155E+03 0.967E+03   -.221E+03 -.156E+03 -.970E+03   0.771E-01 -.241E-01 0.175E+01   -.521E-01 -.928E-01 0.299E-01
   0.220E+03 -.766E+02 -.102E+04   -.221E+03 0.767E+02 0.102E+04   0.999E-01 -.403E+00 -.205E+01   0.608E-01 -.374E-01 0.106E+00
   -.340E+01 0.193E+01 -.116E+02   0.239E-11 -.105E-11 0.819E-11   0.371E+01 -.200E+01 0.502E+01   -.180E+00 0.904E-01 0.645E+01

 POSITION                                       TOTAL-FORCE (eV/Angst)
     13.17084      1.39171      2.05636         0.090625     -0.078131      1.070932
     13.56216      1.39151      4.80351        -1.991365     -0.053339      0.446807
      3.64082      6.30382      1.64792         1.121619     -0.154328     -0.288646
      5.02033      6.18092      3.59863        -0.303750      0.215501     -0.166187
      6.58691      1.44007      2.16894         0.538634     -0.008266     -0.442155
      7.93172      1.39171      4.11272        -0.800387     -0.710728     -0.700751
     16.08224      6.18092      2.57045        -0.431171     -0.001273      2.006588
     16.48241      6.18206      5.28559        -1.924254     -0.108836      0.738882
      2.89619      1.38458      0.75778        -0.862342     -0.055165     -1.979461
      2.10894      1.39171      3.08454        -1.461253     -0.167709      1.173780
      9.78312      6.14150      2.50803         0.762052      0.126190     -1.072134
     10.84312      6.18092      4.62682        -0.907172      0.051943     -1.469437
     15.36824      0.05626      1.98965         1.051134      0.665808     -0.015085
     15.88731      0.09691      4.46209         0.919356     -1.363480     -0.059226
      7.59714      4.20435      0.95311        -0.212961     -0.457599     -0.807269
      7.17375      4.91558      3.19116         0.206704      0.156177      0.245953
      8.95720      1.37939      1.52925        -0.390092      0.022947     -1.841523
     10.08514      0.12638      3.70525         0.685011     -0.512400     -1.826836
      1.35096      4.91558      2.16298         0.170173     -0.469153      1.478643
      1.91923      4.80684      4.86807         0.959514     -1.729361      0.323260
      4.26235      0.12638      2.67707         0.500402     -0.617052     -0.520286
      5.04284      9.13215      4.85964        -0.250207      0.505540      1.206732
     12.97010      4.06806      2.00974        -0.696616      1.120517      0.161617
     12.99653      4.91558      4.21934         1.118265     -0.104052     -1.307431
     15.36789      2.73039      1.99246         0.982932     -0.594542     -0.014182
     15.88735      2.68536      4.46336         0.987656      1.407261     -0.075362
      6.03278      6.17482      1.04555        -0.240852      0.010509     -1.724462
      7.17375      7.44626      3.19116         0.146028      0.244293     -1.958897
      8.15719      7.96091      5.27760        -0.131024     -0.904545      1.026715
     10.01064      3.61068      1.54160         0.076606      0.241855     -1.098017
     10.08514      2.65705      3.70525         1.236404     -0.175348     -0.517405
      1.35096      7.44626      2.16298        -0.039199      0.404370      1.318355
      1.94580      7.60579      4.82871         1.136156      1.666589      0.098509
      4.26235      2.65705      2.67707         0.339700      0.616643     -0.219818
      4.78807      2.99149      5.04857         0.238653     -0.139736      0.822412
     13.11849      8.19160      2.00952        -1.056274     -0.764619      0.323284
     12.99653      7.44626      4.21934         0.610621      0.072928     -1.251266
     15.27928      1.39078      5.92301         0.565610      0.015184      4.706742
     16.74052      1.39171      3.05601         2.086585     -0.057903     -1.471702
      8.00634      6.18092      1.51374         1.383103      0.601862     -2.837610
      8.65830      6.19599      4.30132         0.202937     -1.118753      2.050493
     10.91773      1.39171      2.02783         1.534860      0.368998     -1.269889
     11.46697      1.38981      4.69472         0.686139      0.006125      2.481422
      1.88607      6.17952      0.63147         0.180998      0.003754     -3.849516
      2.76722      6.18092      3.57010         1.601887      0.060799     -0.479157
      1.40340      6.22890      6.25158         0.718778      0.064246      4.221781
      4.88268      1.38348      1.05666         1.847488      0.042168     -2.979726
      5.67861      1.39171      4.08419         0.846892     -0.289148      1.662926
     13.82913      6.18092      2.54192         0.410414     -0.389306     -1.650394
     14.37771      6.18168      5.20137         0.770839     -0.001197      2.549762
     13.79261      2.80124      0.66616        -0.276028      0.861385     -3.883750
     13.99844      3.00295      3.57488        -1.328221      1.596358      0.716078
      5.26426      7.79215      2.03261        -0.937944      1.456670     -0.092929
      6.14585      7.43943      5.01933        -1.232500      0.321038      2.296669
      8.17565      3.00295      2.54670        -1.056814      1.076940     -0.462292
      8.77752      2.87675      5.24588        -0.561501      1.581757      3.345059
      0.02514      7.79215      4.08897        -0.808318      1.717818     -0.543039
     16.32839      7.86660      1.39164        -0.485715      0.645947     -2.822209
      2.34661      3.07519      1.74612        -0.892052      0.922587     -1.432650
      2.86811      2.94010      4.38207        -0.574408      0.169783      1.914234
     11.08705      7.79215      3.06079         0.101487      1.302245     -1.002750
     11.73444      7.58265      5.78867        -0.425444      1.292355      3.834528
      5.26426      4.56969      2.03261        -0.867868     -1.287011     -0.724092
      5.86274      4.67662      4.80270         0.284105     -0.222220      2.559884
     13.78142      9.54927      0.67528        -0.346833     -0.752730     -4.001541
     13.99844      9.35889      3.57488        -1.255191     -1.517963      0.741238
      0.02514      4.56969      4.08897        -0.836267     -1.661331     -0.593396
     16.33699      4.49346      1.39386        -0.674689     -0.714093     -2.885556
      8.17565      9.35889      2.54670        -1.083982     -1.268956     -0.131507
      8.98494      0.18886      5.45573         0.161864      0.319529      3.021921
     11.08705      4.56969      3.06079         0.279392     -1.176641     -0.390977
     11.75351      4.80449      5.80226        -0.491382     -1.267093      3.868585
      2.34213      9.28193      1.76716        -0.804137     -0.770134     -1.432935
      3.02932      9.42061      4.41890        -0.903409     -0.292482      1.879663
    total drift:                                0.134558      0.011472     -0.095584

  FREE ENERGIE OF THE ION-ELECTRON SYSTEM (eV)
  free  energy   TOTEN  =      -351.43096626 eV

  energy  without entropy=     -350.21693484  energy(sigma->0) =     -350.82395055