 vasp.5.4.4.18Apr17-6-g9f103f2a35 (build Aug 13 2019 17:33:20) gamma-only

 executed on             LinuxIFC date 2020.05.11  23:30:53

 INCAR:
 POTCAR:    PAW_PBE Ni_pv 06Sep2000
 POTCAR:    PAW_PBE S 06Sep2000
 POTCAR:    PAW_PBE Ni_pv 06Sep2000
   VRHFIN =Ni:

   TITEL  = PAW_PBE Ni_pv 06Sep2000
   POMASS =   58.690; ZVAL   =   16.000    mass and valenz
   ENMAX  =  367.986; ENMIN  =  275.989 eV

 POTCAR:    PAW_PBE S 06Sep2000
   VRHFIN =S : s2p4

   TITEL  = PAW_PBE S 06Sep2000
   POMASS =   32.066; ZVAL   =    6.000    mass and valenz
   ENMAX  =  258.689; ENMIN  =  194.016 eV

 Optimization of the real space projectors (new method)

 maximal supplied QI-value         = 18.90
 optimisation between [QCUT,QGAM] = [ 10.77, 21.73] = [ 32.49,132.25] Ry
 Optimized for a Real-space Cutoff    1.38 Angstroem

   l    n(q)    QCUT    max X(q) W(low)/X(q) W(high)/X(q)  e(spline)
   1      8    10.771     2.836    0.40E-04    0.29E-04    0.12E-06
   1      8    10.771     4.023    0.10E-03    0.48E-04    0.29E-06
   2      8    10.771    73.368    0.42E-03    0.97E-04    0.44E-06
   2      8    10.771    69.010    0.42E-03    0.99E-04    0.45E-06
   0      9    10.771    54.797    0.10E-03    0.56E-04    0.74E-07
   0      9    10.771    24.266    0.89E-04    0.49E-04    0.67E-07
 Optimization of the real space projectors (new method)

 maximal supplied QI-value         = 19.84
 optimisation between [QCUT,QGAM] = [ 10.71, 21.63] = [ 32.15,130.99] Ry
 Optimized for a Real-space Cutoff    1.19 Angstroem

   l    n(q)    QCUT    max X(q) W(low)/X(q) W(high)/X(q)  e(spline)
   0      8    10.715   187.594    0.41E-03    0.53E-04    0.66E-07
   0      8    10.715   164.243    0.41E-03    0.53E-04    0.65E-07
   1      7    10.715    67.533    0.19E-03    0.59E-03    0.68E-07
   1      7    10.715    50.729    0.19E-03    0.58E-03    0.67E-07
  PAW_PBE Ni_pv 06Sep2000               :
  PAW_PBE S 06Sep2000                   :

 POSCAR: Type_037 Type_137
  positions in cartesian coordinates
 exchange correlation table for  LEXCH =        8
   RHO(1)=    0.500       N(1)  =     2000
   RHO(2)=  100.500       N(2)  =     4000

 ion  position               nearest neighbor table
   1  0.780  0.145  0.118-  51 2.07  65 2.07  42 2.25  52 2.36  66 2.36
   2  0.803  0.145  0.280-  66 2.04  52 2.04  43 2.06
   3  0.223  0.645  0.092-  44 2.02  45 2.19  63 2.23  53 2.23   4 2.34
   4  0.297  0.645  0.211-  64 2.16  54 2.16  45 2.25  53 2.26  63 2.26   3 2.34  28 2.53  15 2.53

   5  0.470  0.145  0.242-  69 2.11  55 2.11  70 2.15  56 2.15  48 2.25  31 2.53  18 2.53
   6  0.952  0.645  0.149-  58 2.07  68 2.07  49 2.25  57 2.36  67 2.36  32 2.53  19 2.53
   7  0.971  0.645  0.312-  46 2.05  67 2.06  57 2.06  50 2.09
   8  0.125  0.145  0.180-  59 2.09  73 2.09  39 2.25   9 2.36  60 2.36  74 2.36  34 2.53  21 2.53

[...]

  38  0.992  0.145  0.350-   9 2.02  13 2.06  26 2.06
  39  0.991  0.145  0.178-  13 2.08  26 2.08  25 2.19  12 2.19   8 2.25
  40  0.474  0.645  0.085-  10 2.01  14 2.02  27 2.02  15 2.26  28 2.26
  41  0.509  0.645  0.271-  16 2.11  29 2.11  10 2.16  11 2.25  28 2.36  15 2.36
  42  0.647  0.145  0.116-  17 2.04  30 2.04   1 2.25  18 2.26  31 2.26  43 2.71
  43  0.681  0.145  0.276-   2 2.06  18 2.13  31 2.13  42 2.71
  44  0.118  0.645  0.034-   3 2.02  19 2.06  32 2.06
  45  0.164  0.645  0.209-  33 2.08  20 2.08   3 2.19   4 2.25  32 2.36  19 2.36
  46  0.075  0.645  0.376-  20 2.05  33 2.05   7 2.05
  47  0.274  0.145  0.064-  21 2.00  34 2.00
  48  0.336  0.145  0.240-  22 2.03  35 2.03   5 2.25  34 2.36  21 2.36
  49  0.819  0.645  0.147-  36 2.22  23 2.22   6 2.25  24 2.26  37 2.26  50 2.78
  50  0.847  0.645  0.313-   7 2.09  24 2.10  37 2.10  49 2.78
  51  0.818  0.293  0.035-  23 2.02  25 2.06   1 2.07
  52  0.829  0.314  0.210-   2 2.04  25 2.10  23 2.14  26 2.18  24 2.25   1 2.36
  53  0.312  0.814  0.116-  27 1.99   3 2.23  21 2.25   4 2.26  28 2.26
  54  0.353  0.793  0.292-  22 2.04  29 2.08  28 2.13   4 2.16
  55  0.483  0.322  0.167-  30 2.02  15 2.10   5 2.11  31 2.15  56 2.79
  56  0.533  0.276  0.325-  16 1.98  31 2.08   5 2.15  70 2.51  55 2.79
  57  0.001  0.814  0.241-  33 2.06   7 2.06  13 2.18  32 2.36   6 2.36  58 2.77
  58  0.968  0.820  0.077-   6 2.07  32 2.09  12 2.10  57 2.77
  59  0.140  0.323  0.108-   8 2.09  34 2.09  19 2.10  60 2.77
  60  0.174  0.314  0.272-  35 2.05   9 2.12  20 2.14   8 2.36  34 2.36  59 2.77
  61  0.657  0.814  0.179-  10 2.20  18 2.25  37 2.26  11 2.26  36 2.31
  62  0.695  0.793  0.343-  37 2.02  11 2.03
  63  0.312  0.477  0.116-  14 1.99   3 2.23  34 2.25   4 2.26  15 2.26
  64  0.353  0.497  0.292-  35 2.04  16 2.08  15 2.13   4 2.16
  65  0.818  0.997  0.035-  36 2.02  12 2.06   1 2.07
  66  0.829  0.977  0.210-   2 2.04  12 2.10  36 2.14  13 2.18  37 2.25   1 2.36
  67  0.001  0.477  0.241-  20 2.06   7 2.06  26 2.18  19 2.36   6 2.36  68 2.77
  68  0.968  0.470  0.077-   6 2.07  19 2.09  25 2.10  67 2.77
  69  0.483  0.968  0.167-  17 2.02  28 2.10   5 2.11  18 2.15  70 2.79
  70  0.533  0.014  0.325-  29 1.98  18 2.08   5 2.15  56 2.51  69 2.79
  71  0.657  0.477  0.179-  10 2.20  31 2.25  24 2.26  11 2.26  23 2.31
  72  0.695  0.498  0.343-  24 2.02  11 2.03
  73  0.140  0.968  0.108-   8 2.09  21 2.09  32 2.10  74 2.77
  74  0.174  0.977  0.272-  22 2.05   9 2.12  33 2.14   8 2.36  21 2.36  73 2.77

  LATTYP: Found a simple orthorhombic cell.
 ALAT       =     9.5784100000
 B/A-ratio  =     1.7276387782
 C/A-ratio  =     1.7627867312

  Lattice vectors:

 A1 = (   0.0000000000,   9.5784100000,   0.0000000000)
 A2 = (   0.0000000000,   0.0000000000, -16.5480325497)
 A3 = ( -16.8846940542,   0.0000000000,   0.0000000000)

Analysis of symmetry for initial positions (statically):
 Subroutine PRICEL returns:
 Original cell was already a primitive cell.

 Routine SETGRP: Setting up the symmetry group for a
 simple orthorhombic supercell.

 Subroutine GETGRP returns: Found  2 space group operations
 (whereof  1 operations were pure point group operations)
 out of a pool of  8 trial point group operations.

The static configuration has the point symmetry C_1 .
 The point group associated with its full space group is C_1h.

Analysis of symmetry for dynamics (positions and initial velocities):
 Subroutine PRICEL returns:
 Original cell was already a primitive cell.

 Routine SETGRP: Setting up the symmetry group for a
 simple orthorhombic supercell.

 Subroutine GETGRP returns: Found  2 space group operations
 (whereof  1 operations were pure point group operations)
 out of a pool of  8 trial point group operations.

The dynamic configuration has the point symmetry C_1 .
 The point group associated with its full space group is C_1h.

 Subroutine INISYM returns: Found  2 space group operations
 (whereof  1 operations are pure point group operations),
 and found     1 'primitive' translations

 KPOINTS: gamma-point-only calculation. no periodi

Automatic generation of k-mesh.
Space group operators:
 irot       det(A)        alpha          n_x          n_y          n_z        tau_x        tau_y        tau_z
    1     1.000000     0.000001     1.000000     0.000000     0.000000     0.000000     0.000000     0.000000
    2    -1.000000   180.000000     0.000000     1.000000     0.000000     0.000000     0.290594    -0.000000

 Subroutine IBZKPT returns following result:

 Found      1 irreducible k-points:

 Following reciprocal coordinates:
            Coordinates               Weight
  0.000000  0.000000  0.000000      1.000000

 Following cartesian coordinates:
            Coordinates               Weight
  0.000000  0.000000  0.000000      1.000000

 SYSTEM =  "Millerite NiS"
 POSCAR =  Type_037 Type_137

 Startparameter for this run:
   NWRITE =      2    write-flag & timer
   PREC   = normal    normal or accurate (medium, high low for compatibility)
   ISTART =      0    job   : 0-new  1-cont  2-samecut
   ICHARG =      2    charge: 1-file 2-atom 10-const
   ISPIN  =      1    spin polarized calculation?
   LNONCOLLINEAR =      F non collinear calculations
   LSORBIT =      F    spin-orbit coupling
   INIWAV =      1    electr: 0-lowe 1-rand  2-diag
   LASPH  =      F    aspherical Exc in radial PAW
   METAGGA=      F    non-selfconsistent MetaGGA calc.

 Electronic Relaxation 1
   ENCUT  =  450.0 eV  33.07 Ry    5.75 a.u.  29.20 16.57 28.62*2*pi/ulx,y,z
   ENINI  =  450.0     initial cutoff
   ENAUG  =  703.4 eV  augmentation charge cutoff
   NELM   =    100;   NELMIN=  2; NELMDL= -5     # of ELM steps
   EDIFF  = 0.1E-03   stopping-criterion for ELM
   LREAL  =      T    real-space projection
   NLSPLINE    = F    spline interpolate recip. space projectors
   LCOMPAT=      F    compatible to vasp.4.4
   GGA_COMPAT  = T    GGA compatible to vasp.4.4-vasp.4.6
   LMAXPAW     = -100 max onsite density
   LMAXMIX     =    2 max onsite mixed and CHGCAR
   VOSKOWN=      0    Vosko Wilk Nusair interpolation
   ROPT   =   -0.00050  -0.00050
 Ionic relaxation
   EDIFFG = 0.1E-02   stopping-criterion for IOM
   NSW    =      0    number of steps for IOM
   NBLOCK =      1;   KBLOCK =      1    inner block; outer block
   IBRION =     -1    ionic relax: 0-MD 1-quasi-New 2-CG
   NFREE  =      0    steps in history (QN), initial steepest desc. (CG)
   ISIF   =      2    stress and relaxation
   IWAVPR =     10    prediction:  0-non 1-charg 2-wave 3-comb
   ISYM   =      2    0-nonsym 1-usesym 2-fastsym
   LCORR  =      T    Harris-Foulkes like correction to forces

   POTIM  = 0.5000    time-step for ionic-motion
   TEIN   =    0.0    initial temperature
   TEBEG  =    0.0;   TEEND  =   0.0 temperature during run
   SMASS  =  -3.00    Nose mass-parameter (am)
   estimated Nose-frequenzy (Omega)   =  0.10E-29 period in steps =****** mass=  -0.652E-26a.u.
   SCALEE = 1.0000    scale energy and forces
   NPACO  =    256;   APACO  = 16.0  distance and # of slots for P.C.
   PSTRESS=    0.0 pullay stress

  Mass of Ions in am
   POMASS =  58.69 32.07
  Ionic Valenz
   ZVAL   =  16.00  6.00
  Atomic Wigner-Seitz radii
  virtual crystal weights
   VCA    =   1.00  1.00
   NELECT =     814.0000    total number of electrons
   NUPDOWN=      -1.0000    fix difference up-down

 DOS related values:
   EMIN   =  10.00;   EMAX   =-10.00  energy-range for DOS
   EFERMI =   0.00
   ISMEAR =     0;   SIGMA  =   0.20  broadening in eV -4-tet -1-fermi 0-gaus

 Electronic relaxation 2 (details)
   IALGO  =     38    algorithm
   LDIAG  =      T    sub-space diagonalisation (order eigenvalues)
   LSUBROT=      F    optimize rotation matrix (better conditioning)
   TURBO    =      0    0=normal 1=particle mesh
   IRESTART =      0    0=no restart 2=restart with 2 vectors
   NREBOOT  =      0    no. of reboots
   NMIN     =      0    reboot dimension
   EREF     =   0.00    reference energy to select bands
   IMIX   =      4    mixing-type and parameters
     AMIX     =   0.40;   BMIX     =  1.00
     AMIX_MAG =   1.60;   BMIX_MAG =  1.00
     AMIN     =   0.10
     WC   =   100.;   INIMIX=   1;  MIXPRE=   1;  MAXMIX= -45

 Intra band minimization:
   WEIMIN = 0.0000     energy-eigenvalue tresh-hold
   EBREAK =  0.51E-07  absolut break condition
[...]
     0.000000000  9.578410000  0.000000000     0.000000000  0.104401461  0.000000000
     0.000000000  0.000000000 16.548032550     0.000000000  0.000000000  0.060430145

  length of vectors
    16.884694054  9.578410000 16.548032550     0.059225237  0.104401461  0.060430145

 FORCES acting on ions
    electron-ion (+dipol)            ewald-force                    non-local-force                 convergence-correction
   0.599E+03 -.929E-03 0.210E+04   -.603E+03 -.161E-06 -.210E+04   0.379E+01 0.000E+00 0.599E+01   0.478E+00 0.171E-05 0.109E+00
   0.419E+03 -.713E-03 -.295E+04   -.422E+03 -.855E-08 0.295E+04   0.245E+01 0.000E+00 0.135E+01   0.541E-01 0.141E-05 -.442E-01
   0.933E+02 -.669E-03 0.299E+04   -.943E+02 0.721E-09 -.299E+04   0.193E+01 0.000E+00 0.571E+01   0.446E-01 0.317E-06 0.584E-02
   0.422E+03 -.850E-03 -.999E+03   -.422E+03 0.245E-07 0.100E+04   0.125E+01 0.000E+00 -.277E+01   -.238E-02 -.393E-06 0.488E-01
   0.578E+03 -.806E-03 -.125E+04   -.584E+03 0.750E-07 0.125E+04   0.506E+01 0.000E+00 0.136E+00   -.418E-01 0.117E-05 0.394E+00
   0.598E+03 -.823E-03 0.144E+04   -.603E+03 0.199E-07 -.144E+04   0.496E+01 0.000E+00 0.454E+01   0.141E-01 -.306E-06 -.195E-01
   0.587E+03 -.956E-03 -.317E+04   -.593E+03 0.275E-07 0.318E+04   0.415E+01 0.000E+00 -.353E+01   -.381E-01 -.393E-06 0.131E+00
   0.391E+03 -.759E-03 0.950E+03   -.395E+03 -.641E-08 -.952E+03   0.410E+01 0.000E+00 0.282E+01   -.317E-01 0.952E-06 -.121E+00
   -.447E+02 -.870E-03 -.341E+04   0.417E+02 0.498E-08 0.341E+04   0.391E+01 0.000E+00 -.674E-01   -.243E-01 0.141E-05 -.152E+00
   -.486E+03 -.864E-03 0.175E+04   0.489E+03 0.326E-06 -.176E+04   -.286E+01 0.000E+00 0.380E+01   0.420E-01 0.342E-06 0.139E+00
   0.135E+03 -.916E-03 -.232E+04   -.138E+03 0.972E-07 0.232E+04   0.215E+01 0.000E+00 -.654E+01   0.593E-02 0.415E-06 0.994E-01
   -.532E+03 0.194E+03 0.251E+04   0.538E+03 -.196E+03 -.251E+04   -.525E+01 0.281E+01 0.590E+01   0.642E-01 0.249E+00 0.221E-01
   0.217E+02 0.465E+03 -.221E+04   -.201E+02 -.469E+03 0.222E+04   -.247E+01 0.210E+01 -.402E+01   -.588E-01 0.124E+00 -.132E+00
   -.938E+02 0.776E+03 0.394E+04   0.918E+02 -.773E+03 -.394E+04   0.251E+01 -.440E+01 -.229E+01   -.165E+00 0.170E+00 -.861E-01
   -.105E+03 0.538E+03 0.347E+03   0.104E+03 -.540E+03 -.349E+03   0.783E+00 0.290E+01 0.814E-01   -.178E+00 0.194E+00 0.310E-01
   -.141E+03 0.121E+03 -.348E+04   0.144E+03 -.123E+03 0.348E+04   -.396E+01 0.299E+01 -.173E+01   0.206E-01 0.601E-01 0.189E+00
   0.748E+02 0.432E+03 0.350E+04   -.775E+02 -.427E+03 -.350E+04   0.235E+01 -.511E+01 -.699E+00   0.127E+00 -.374E+00 0.140E+00
   -.487E+03 0.379E+03 -.827E+03   0.491E+03 -.385E+03 0.828E+03   -.300E+01 0.475E+01 -.197E+01   0.362E+00 -.875E-01 0.599E+00
   -.139E+02 0.629E+03 0.212E+04   0.138E+02 -.633E+03 -.212E+04   0.221E+00 0.436E+01 0.466E+01   -.144E-01 -.195E+00 -.668E-01
   -.333E+03 0.410E+03 -.263E+04   0.336E+03 -.415E+03 0.263E+04   -.151E+01 0.442E+01 -.370E+01   -.518E-01 -.106E+00 0.142E-01
   -.267E+03 0.183E+03 0.149E+04   0.270E+03 -.186E+03 -.149E+04   -.179E+01 0.202E+01 0.433E+01   -.217E+00 0.654E-01 0.219E-01
   -.971E+02 0.405E+02 -.303E+04   0.982E+02 -.430E+02 0.303E+04   -.942E+00 0.242E+01 0.211E+01   -.110E+00 -.120E-02 0.175E-01
   0.412E+03 -.442E+03 0.261E+04   -.414E+03 0.445E+03 -.262E+04   0.158E+01 -.201E+01 0.797E+01   0.223E+00 -.144E+00 0.436E-01
   -.171E+03 0.335E+03 -.167E+04   0.173E+03 -.338E+03 0.167E+04   -.177E+01 0.258E+01 -.546E+01   -.282E-01 -.859E-01 0.114E+00
   -.532E+03 -.194E+03 0.251E+04   0.538E+03 0.196E+03 -.251E+04   -.525E+01 -.281E+01 0.590E+01   0.642E-01 -.249E+00 0.221E-01
   0.217E+02 -.465E+03 -.221E+04   -.201E+02 0.469E+03 0.222E+04   -.247E+01 -.210E+01 -.402E+01   -.588E-01 -.124E+00 -.132E+00
   -.938E+02 -.776E+03 0.394E+04   0.918E+02 0.773E+03 -.394E+04   0.251E+01 0.440E+01 -.229E+01   -.165E+00 -.170E+00 -.861E-01
   -.105E+03 -.538E+03 0.347E+03   0.104E+03 0.540E+03 -.349E+03   0.783E+00 -.290E+01 0.814E-01   -.178E+00 -.194E+00 0.310E-01
   -.141E+03 -.121E+03 -.348E+04   0.144E+03 0.123E+03 0.348E+04   -.396E+01 -.299E+01 -.173E+01   0.206E-01 -.601E-01 0.189E+00
   0.748E+02 -.432E+03 0.350E+04   -.775E+02 0.427E+03 -.350E+04   0.235E+01 0.511E+01 -.699E+00   0.127E+00 0.374E+00 0.140E+00
   -.487E+03 -.379E+03 -.827E+03   0.491E+03 0.385E+03 0.828E+03   -.300E+01 -.475E+01 -.197E+01   0.362E+00 0.875E-01 0.599E+00
   -.139E+02 -.629E+03 0.212E+04   0.138E+02 0.633E+03 -.212E+04   0.221E+00 -.436E+01 0.466E+01   -.144E-01 0.195E+00 -.668E-01
   -.333E+03 -.410E+03 -.263E+04   0.336E+03 0.415E+03 0.263E+04   -.151E+01 -.442E+01 -.370E+01   -.518E-01 0.106E+00 0.142E-01
   -.267E+03 -.183E+03 0.149E+04   0.270E+03 0.186E+03 -.149E+04   -.179E+01 -.202E+01 0.433E+01   -.217E+00 -.654E-01 0.219E-01
   -.971E+02 -.405E+02 -.303E+04   0.982E+02 0.430E+02 0.303E+04   -.942E+00 -.242E+01 0.211E+01   -.110E+00 0.120E-02 0.175E-01
   0.412E+03 0.442E+03 0.261E+04   -.414E+03 -.445E+03 -.262E+04   0.158E+01 0.201E+01 0.797E+01   0.223E+00 0.144E+00 0.436E-01
   -.171E+03 -.335E+03 -.167E+04   0.173E+03 0.338E+03 0.167E+04   -.177E+01 -.258E+01 -.546E+01   -.282E-01 0.859E-01 0.114E+00
   0.957E+02 -.337E-04 -.161E+04   -.945E+02 0.832E-08 0.162E+04   -.134E+01 0.000E+00 -.153E+01   -.610E-01 0.325E-06 -.108E-01
   -.264E+03 -.174E-04 0.411E+03   0.266E+03 -.158E-07 -.414E+03   0.150E+00 0.000E+00 0.657E+00   -.411E-01 0.382E-06 -.519E-01
   -.403E+03 0.199E-05 0.121E+04   0.406E+03 0.602E-07 -.121E+04   -.186E+01 0.000E+00 0.198E+01   -.635E-01 -.183E-06 -.372E-01
   -.117E+03 -.608E-04 -.940E+03   0.118E+03 0.409E-07 0.945E+03   0.481E+00 0.000E+00 -.382E+01   0.439E-01 -.888E-07 0.372E-01
   -.259E+03 -.724E-05 0.891E+03   0.259E+03 -.296E-06 -.894E+03   0.426E+00 0.000E+00 0.101E+01   0.354E+00 0.219E-06 0.202E+00
   -.796E+02 -.182E-05 -.106E+04   0.807E+02 -.193E-07 0.106E+04   -.616E+00 0.000E+00 -.239E+01   0.603E-01 0.161E-06 0.567E-01
   0.777E+02 -.136E-04 0.173E+04   -.777E+02 0.171E-07 -.174E+04   0.191E+00 0.000E+00 0.188E+01   -.314E-01 0.260E-07 -.513E-01
   -.147E+03 0.203E-04 -.206E+03   0.147E+03 0.554E-08 0.209E+03   0.109E+01 0.000E+00 -.330E+01   0.322E-01 -.162E-06 -.172E-01
   -.718E+02 0.413E-05 -.175E+04   0.723E+02 0.104E-07 0.175E+04   0.121E+00 0.000E+00 -.990E+00   -.563E-01 -.206E-06 0.759E-01
   -.146E+03 0.121E-04 0.153E+04   0.148E+03 -.748E-09 -.153E+04   0.271E+00 0.000E+00 0.980E+00   -.104E+00 0.119E-06 0.315E-01
   -.198E+03 -.335E-06 -.333E+03   0.200E+03 0.546E-08 0.335E+03   0.585E-01 0.000E+00 -.215E+01   -.150E+00 0.406E-06 0.251E-01
   -.871E+01 0.386E-04 0.728E+03   0.100E+02 -.361E-09 -.731E+03   -.756E+00 0.000E+00 0.189E+01   0.767E-02 -.477E-06 0.979E-02
   -.280E+02 -.123E-04 -.130E+04   0.297E+02 0.146E-07 0.130E+04   -.729E+00 0.000E+00 -.231E+01   0.341E-01 -.235E-06 0.422E-01
   0.591E+02 -.930E+02 0.172E+04   -.592E+02 0.941E+02 -.173E+04   -.413E+00 -.186E+00 0.256E+01   0.121E+00 -.659E-01 0.297E-01
   0.103E+03 -.140E+03 -.334E+03   -.104E+03 0.140E+03 0.338E+03   -.481E+00 0.758E+00 -.205E+01   0.740E-01 -.958E-01 -.102E-01
   0.141E+03 -.319E+03 0.812E+03   -.143E+03 0.321E+03 -.816E+03   -.495E+00 -.828E+00 0.300E+01   -.270E-01 0.100E-01 -.985E-02
   0.171E+03 0.446E+02 -.119E+04   -.172E+03 -.440E+02 0.119E+04   -.609E-01 -.471E+00 -.286E+01   -.546E-01 -.149E-01 0.281E-01
   0.198E+03 0.235E+02 0.447E+03   -.200E+03 -.251E+02 -.451E+03   0.964E+00 0.154E+01 0.232E+01   -.108E+00 0.137E+00 0.174E+00
   -.154E+03 0.716E+02 -.149E+04   0.156E+03 -.698E+02 0.150E+04   -.150E+01 -.154E+01 -.288E+01   0.816E-01 0.205E-01 0.102E+00
   0.133E+03 -.186E+03 -.421E+03   -.134E+03 0.188E+03 0.421E+03   -.120E+00 -.106E+01 -.623E+00   -.433E-01 0.608E-01 0.155E-01
   0.691E+02 -.698E+02 0.138E+04   -.705E+02 0.690E+02 -.139E+04   0.105E+01 0.129E+01 0.416E+01   -.793E-02 0.122E+00 -.168E-01
   0.945E+02 0.520E+02 0.114E+04   -.957E+02 -.528E+02 -.115E+04   0.461E+00 0.867E+00 0.370E+01   -.155E-01 -.762E-01 0.306E-01
   0.219E+02 -.103E+03 -.786E+03   -.223E+02 0.105E+03 0.788E+03   -.143E+00 -.154E+01 -.109E+01   0.199E-01 -.500E-01 -.586E-01
   0.808E+01 -.686E+02 0.383E+03   -.100E+02 0.710E+02 -.385E+03   0.176E+01 -.145E+01 0.100E+01   0.390E-01 -.533E-01 0.107E+00
   0.128E+02 -.247E+03 -.156E+04   -.138E+02 0.250E+03 0.156E+04   0.530E+00 -.223E+01 -.822E+00   -.922E-02 0.392E-02 0.288E-01
   0.141E+03 0.319E+03 0.812E+03   -.143E+03 -.321E+03 -.816E+03   -.495E+00 0.828E+00 0.300E+01   -.270E-01 -.100E-01 -.985E-02
   0.171E+03 -.446E+02 -.119E+04   -.172E+03 0.440E+02 0.119E+04   -.609E-01 0.471E+00 -.286E+01   -.546E-01 0.149E-01 0.281E-01
   0.591E+02 0.930E+02 0.172E+04   -.592E+02 -.941E+02 -.173E+04   -.413E+00 0.186E+00 0.256E+01   0.121E+00 0.659E-01 0.297E-01
   0.103E+03 0.140E+03 -.334E+03   -.104E+03 -.140E+03 0.338E+03   -.481E+00 -.758E+00 -.205E+01   0.739E-01 0.958E-01 -.102E-01
   0.133E+03 0.186E+03 -.421E+03   -.134E+03 -.188E+03 0.421E+03   -.120E+00 0.106E+01 -.623E+00   -.433E-01 -.608E-01 0.155E-01
   0.691E+02 0.698E+02 0.138E+04   -.705E+02 -.690E+02 -.139E+04   0.105E+01 -.129E+01 0.416E+01   -.793E-02 -.122E+00 -.168E-01
   0.198E+03 -.235E+02 0.447E+03   -.200E+03 0.251E+02 -.451E+03   0.964E+00 -.154E+01 0.232E+01   -.108E+00 -.137E+00 0.174E+00
   -.154E+03 -.716E+02 -.149E+04   0.156E+03 0.698E+02 0.150E+04   -.150E+01 0.154E+01 -.288E+01   0.816E-01 -.205E-01 0.102E+00
   0.808E+01 0.686E+02 0.383E+03   -.100E+02 -.710E+02 -.385E+03   0.176E+01 0.145E+01 0.100E+01   0.390E-01 0.533E-01 0.107E+00
   0.128E+02 0.247E+03 -.156E+04   -.138E+02 -.250E+03 0.156E+04   0.530E+00 0.223E+01 -.822E+00   -.922E-02 -.392E-02 0.288E-01
   0.945E+02 -.520E+02 0.114E+04   -.957E+02 0.528E+02 -.115E+04   0.461E+00 -.867E+00 0.370E+01   -.155E-01 0.762E-01 0.306E-01
   0.219E+02 0.103E+03 -.786E+03   -.223E+02 -.105E+03 0.788E+03   -.143E+00 0.154E+01 -.109E+01   0.199E-01 0.500E-01 -.586E-01
   -.540E+01 -.862E-02 -.300E+02   -.551E-12 0.242E-12 0.568E-12   0.498E+01 0.400E-14 0.266E+02   0.612E+00 0.336E-05 0.356E+01

 POSITION                                       TOTAL-FORCE (eV/Angst)
     13.17084      1.39171      1.94975        -0.039792      0.000000      0.990941
     13.56137      1.39171      4.64124         0.127166      0.000000      0.808216
      3.77233      6.18092      1.51503         0.949514      0.000000     -0.241376
      5.02033      6.18092      3.49202         0.323837      0.000000      0.177837
      7.93172      1.39171      4.00611        -0.889193      0.000000      0.460566
     16.08224      6.18092      2.46384        -0.306586      0.000000      2.185648
     16.39223      6.18092      5.15799        -1.535941      0.000000      0.362066
      2.10894      1.39171      2.97793        -0.680170      0.000000      0.504376
      1.83470      1.39171      5.31902         0.964674      0.000000      0.964078
      9.63211      6.18092      2.59708         0.496232      0.000000     -0.787379
     10.84312      6.18092      4.52020        -0.680987      0.000000     -1.073256
     15.38005      0.03251      1.90100         0.862399      0.574790      0.108890
     15.93996      0.11972      4.39248        -0.902817     -0.899850      0.014873
      6.64131      4.96951      0.54708         0.308351     -0.563388     -1.081027
      7.17375      4.91558      3.08454        -0.073727      0.584537     -1.330051
      7.93992      4.31249      5.21775        -0.711557      1.101434      0.970266
      9.42060      0.17826      1.26001        -0.151349     -0.326994     -1.296676
     10.08514      0.12638      3.59863         1.314102     -0.599454     -0.550303
      1.35096      4.91558      2.05636         0.168283     -0.388770      1.806265
      1.89179      4.84726      4.79958         1.207447     -1.093482      0.635973
      4.26235      0.12638      2.57045         0.578107     -1.080625      1.849430
      4.93429      9.36246      4.96252         0.078560     -0.125413      0.977241
     13.10401      4.15422      1.90214        -0.901100      0.833945      0.395024
     12.99653      4.91558      4.11272         0.579917     -0.005591     -1.355088
     15.38005      2.75092      1.90100         0.862399     -0.574790      0.108890
     15.93996      2.66371      4.39248        -0.902817      0.899850      0.014873
      6.64131      7.39233      0.54708         0.308351      0.563388     -1.081027
      7.17375      7.44626      3.08454        -0.073727     -0.584537     -1.330051
      7.93992      8.04935      5.21775        -0.711557     -1.101434      0.970266
      9.42060      2.60517      1.26001        -0.151349      0.326994     -1.296676
     10.08514      2.65705      3.59863         1.314102      0.599454     -0.550303
      1.35096      7.44626      2.05636         0.168283      0.388770      1.806265
      1.89179      7.51458      4.79958         1.207447      1.093482      0.635973
      4.26235      2.65705      2.57045         0.578107      1.080625      1.849430
      4.93429      2.99937      4.96252         0.078560      0.125413      0.977241
     13.10401      8.20762      1.90214        -0.901100     -0.833945      0.395024
     12.99653      7.44626      4.11272         0.579917      0.005591     -1.355088
     16.75262      1.39171      5.79946        -0.217434      0.000000      3.199581
     16.74052      1.39171      2.94940         1.910975      0.000000     -2.403432
      8.00634      6.18092      1.40713         1.534405      0.000000     -1.916232
      8.59001      6.18092      4.49167         1.369308      0.000000      1.611535
     10.91773      1.39171      1.92122         1.187992      0.000000     -1.924469
     11.49914      1.39171      4.56710         0.566311      0.000000      2.369378
      1.98654      6.18092      0.56385         0.089777      0.000000     -4.046650
      2.76722      6.18092      3.46349         1.683158      0.000000     -0.932861
      1.26234      6.18092      6.22294         0.530330      0.000000      4.114166
      4.63383      1.39171      1.06678         1.394015      0.000000     -4.200816
      5.67861      1.39171      3.97758         1.170852      0.000000     -0.364725
     13.82913      6.18092      2.43531         0.561027      0.000000     -1.657752
     14.30225      6.18092      5.17313         0.993293      0.000000      2.584908
     13.80452      2.80793      0.57250        -0.335490      0.822163     -3.878779
     13.99844      3.00295      3.46826        -0.701778      1.346145      1.680547
      5.26426      7.79215      1.92599        -1.751076      1.074162     -0.127490
      5.95274      7.59799      4.82556        -1.354097      0.155201      2.137096
      8.15544      3.08723      2.76181        -1.026756      0.029548     -1.746460
      9.00703      2.64835      5.37698         0.570099      0.251485      2.935566
      0.02514      7.79215      3.98236        -1.219561      1.507515     -0.613228
     16.34569      7.85690      1.27127        -0.364835      0.684210     -2.874194
      2.36886      3.09240      1.79080        -0.782636     -0.036428     -2.708051
      2.93654      3.00295      4.49645        -0.548067      0.092299      0.943126
     11.08705      7.79215      2.95417        -0.131392      0.841830     -1.059224
     11.72883      7.59435      5.67637        -0.462409      1.280514      3.774099
      5.26426      4.56969      1.92599        -1.751076     -1.074162     -0.127490
      5.95274      4.76385      4.82556        -1.354097     -0.155201      2.137096
     13.80452      9.55391      0.57250        -0.335490     -0.822163     -3.878779
     13.99844      9.35889      3.46826        -0.701778     -1.346145      1.680547
      0.02514      4.56969      3.98236        -1.219561     -1.507515     -0.613228
     16.34569      4.50493      1.27127        -0.364835     -0.684210     -2.874194
      8.15544      9.27461      2.76181        -1.026756     -0.029548     -1.746460
      9.00703      0.13508      5.37698         0.570099     -0.251485      2.935566
     11.08705      4.56969      2.95417        -0.131392     -0.841830     -1.059224
     11.72883      4.76749      5.67637        -0.462409     -1.280514      3.774099
      2.36886      9.26944      1.79080        -0.782636      0.036428     -2.708051
      2.93654      9.35889      4.49645        -0.548067     -0.092299      0.943126
    total drift:                                0.194915     -0.008618      0.097381

  FREE ENERGIE OF THE ION-ELECTRON SYSTEM (eV)
  free  energy   TOTEN  =      -350.19010550 eV

  energy  without entropy=     -349.04962508  energy(sigma->0) =     -349.61986529