 vasp.5.4.4.18Apr17-6-g9f103f2a35 (build Aug 13 2019 17:33:20) gamma-only

 executed on             LinuxIFC date 2020.05.11  07:02:45

 INCAR:
 POTCAR:    PAW_PBE Ni_pv 06Sep2000
 POTCAR:    PAW_PBE S 06Sep2000
 POTCAR:    PAW_PBE Ni_pv 06Sep2000
   VRHFIN =Ni:

   TITEL  = PAW_PBE Ni_pv 06Sep2000
   POMASS =   58.690; ZVAL   =   16.000    mass and valenz
   ENMAX  =  367.986; ENMIN  =  275.989 eV

 POTCAR:    PAW_PBE S 06Sep2000
   VRHFIN =S : s2p4

   TITEL  = PAW_PBE S 06Sep2000
   POMASS =   32.066; ZVAL   =    6.000    mass and valenz
   ENMAX  =  258.689; ENMIN  =  194.016 eV

 Optimization of the real space projectors (new method)

 maximal supplied QI-value         = 18.90
 optimisation between [QCUT,QGAM] = [ 10.77, 21.73] = [ 32.49,132.25] Ry
 Optimized for a Real-space Cutoff    1.38 Angstroem

   l    n(q)    QCUT    max X(q) W(low)/X(q) W(high)/X(q)  e(spline)
   1      8    10.771     2.836    0.40E-04    0.29E-04    0.12E-06
   1      8    10.771     4.023    0.10E-03    0.48E-04    0.29E-06
   2      8    10.771    73.368    0.42E-03    0.97E-04    0.44E-06
   2      8    10.771    69.010    0.42E-03    0.99E-04    0.45E-06
   0      9    10.771    54.797    0.10E-03    0.56E-04    0.74E-07
   0      9    10.771    24.266    0.89E-04    0.49E-04    0.67E-07
 Optimization of the real space projectors (new method)

 maximal supplied QI-value         = 19.84
 optimisation between [QCUT,QGAM] = [ 10.71, 21.63] = [ 32.15,130.99] Ry
 Optimized for a Real-space Cutoff    1.19 Angstroem

   l    n(q)    QCUT    max X(q) W(low)/X(q) W(high)/X(q)  e(spline)
   0      8    10.715   187.594    0.41E-03    0.53E-04    0.66E-07
   0      8    10.715   164.243    0.41E-03    0.53E-04    0.65E-07
   1      7    10.715    67.533    0.19E-03    0.59E-03    0.68E-07
   1      7    10.715    50.729    0.19E-03    0.58E-03    0.67E-07
  PAW_PBE Ni_pv 06Sep2000               :
  PAW_PBE S 06Sep2000                   :

 POSCAR: Type_052 Type_152
  positions in cartesian coordinates
 exchange correlation table for  LEXCH =        8
   RHO(1)=    0.500       N(1)  =     2000
   RHO(2)=  100.500       N(2)  =     4000

 ion  position               nearest neighbor table
   1  0.261  0.479  0.291-  79 2.25  63 2.26  87 2.26  59 2.36  64 2.36   9 2.53  24 2.53
   2  0.355  0.385  0.419-  57 2.09  59 2.26  64 2.26  80 2.27  65 2.36  71 2.36  10 2.53  25 2.53

   3  0.443  0.297  0.533-  57 2.03  65 2.04  71 2.04  96 2.05
   4  0.022  0.201  0.091-  68 1.99  69 2.10  88 2.15   5 2.31  60 2.38  32 2.43
   5  0.167  0.073  0.162-  69 2.25  60 2.26  88 2.26   4 2.31  61 2.36  89 2.36  38 2.53  33 2.53

[...]

  50  0.679  0.715  0.488-  70 2.00  93 2.06  97 2.07 104 2.09  49 2.52
  51  0.906  0.965  0.128-  94 2.13  73 2.15  88 2.25  95 2.36  74 2.36  19 2.53  45 2.53
  52  0.705  0.523  0.050-  68 1.98  75 2.05  99 2.07  41 2.37
  53  0.073  0.167  0.306-  28 2.25  12 2.26  23 2.26  11 2.36  22 2.36
  54  0.167  0.073  0.435-  13 2.04   6 2.06  29 2.25  12 2.36  23 2.36
  55  0.389  0.371  0.052-   7 1.98  18 2.00  14 2.10   8 2.32
  56  0.479  0.261  0.178-  18 2.10  19 2.25   9 2.26  24 2.26   8 2.36  14 2.36
  57  0.281  0.458  0.502-   3 2.03   2 2.09  80 2.58  65 2.59  71 2.59
  58  0.018  0.376  0.463-  13 2.04  17 2.05  12 2.06
  59  0.436  0.472  0.350-  35 2.25   2 2.26  25 2.26   1 2.36  24 2.36
  60  0.248  0.160  0.093-  32 2.06  15 2.19   8 2.25   5 2.26  38 2.26   4 2.38
  61  0.342  0.066  0.221-   9 2.25  28 2.26  48 2.26   5 2.36  38 2.36
  62  0.080  0.491  0.093-   7 2.05  30 2.15  27 2.25   8 2.26  31 2.26
  63  0.174  0.397  0.221-  11 2.25   9 2.26   1 2.26   8 2.36  31 2.36
  64  0.268  0.303  0.350-  12 2.25   2 2.26  10 2.26   1 2.36   9 2.36
  65  0.362  0.209  0.478-   3 2.04  20 2.07  13 2.15   2 2.36  10 2.36  57 2.59
  66  0.573  0.167  0.306-  39 2.25  25 2.26  10 2.26  24 2.36   9 2.36
  67  0.667  0.073  0.435-  26 2.04  20 2.04  40 2.25  25 2.36  10 2.36
  68  0.881  0.365  0.055-  52 1.98   4 1.99  27 2.11  21 2.19
  69  0.979  0.261  0.178-   4 2.10   5 2.25  22 2.26  11 2.26  21 2.36  27 2.36
  70  0.597  0.654  0.551-  43 2.00  50 2.00
  71  0.530  0.378  0.478-   3 2.04  26 2.07  43 2.15  25 2.36   2 2.36  57 2.59
  72  0.936  0.472  0.350-  47 2.25  17 2.26  12 2.26  16 2.36  11 2.36
  73  0.756  0.161  0.107-  44 2.05  21 2.10  19 2.12  51 2.15
  74  0.842  0.066  0.221-  22 2.25  39 2.26  36 2.26  19 2.36  51 2.36
  75  0.572  0.499  0.104-  52 2.05  42 2.09  14 2.13  21 2.28  41 2.37
  76  0.674  0.397  0.221-  24 2.25  22 2.26  16 2.26  21 2.36  42 2.36
  77  0.768  0.303  0.350-  25 2.25  17 2.26  23 2.26  16 2.36  22 2.36  78 2.77
  78  0.850  0.221  0.463-   6 2.07  17 2.12  26 2.13  23 2.13  77 2.77
  79  0.073  0.667  0.306-   1 2.25  37 2.26  47 2.26  36 2.36  46 2.36  80 2.54
  80  0.164  0.575  0.407-  47 2.11  37 2.11   2 2.27  79 2.54  57 2.58
  81  0.385  0.855  0.050-  41 1.97  32 2.01  38 2.26  33 2.26  15 2.34
  82  0.479  0.761  0.178-  41 2.08  42 2.25  34 2.26  48 2.26  33 2.36  38 2.36
  83  0.086  0.143  0.551-  13 2.00   6 2.00
  84  0.018  0.886  0.461-  40 2.08  37 2.08   6 2.09  98 2.73
  85  0.436  0.972  0.350-  10 2.25  29 2.26  49 2.26  28 2.36  48 2.36  97 2.77
  86  0.239  0.670  0.105-   7 2.06  31 2.09  33 2.12  14 2.29  30 2.42
  87  0.342  0.566  0.221-  34 2.25   1 2.26  24 2.26  31 2.36  14 2.36
  88  0.080  0.991  0.093-  32 2.03   4 2.15  51 2.25  33 2.26   5 2.26
  89  0.174  0.897  0.221-  36 2.25  34 2.26  28 2.26  33 2.36   5 2.36
  90  0.268  0.803  0.350-  37 2.25  29 2.26  35 2.26  28 2.36  34 2.36
  91  0.364  0.722  0.463-  43 2.04  29 2.05  35 2.06
  92  0.573  0.667  0.306-  16 2.25  49 2.26  35 2.26  48 2.36  34 2.36
  93  0.667  0.573  0.435-  43 2.04  50 2.06  17 2.25  49 2.36  35 2.36
  94  0.873  0.868  0.055-  44 2.01  30 2.01  51 2.13  45 2.15
  95  0.979  0.761  0.178-  30 2.08  31 2.25  46 2.26  36 2.26  45 2.36  51 2.36
  96  0.605  0.134  0.563-   3 2.05  26 2.05  20 2.05
  97  0.518  0.889  0.463-  50 2.07  29 2.12  20 2.13  49 2.13  85 2.77
  98  0.936  0.972  0.350-  23 2.25  40 2.26  37 2.26  39 2.36  36 2.36  84 2.73
  99  0.748  0.660  0.093-  52 2.07  41 2.12  45 2.25  42 2.26  27 2.26
 100  0.842  0.566  0.221-  46 2.25  16 2.26  11 2.26  42 2.36  27 2.36
 101  0.580  0.991  0.093-  44 2.07  18 2.07  15 2.10  38 2.25  45 2.26  19 2.26
 102  0.674  0.897  0.221-  48 2.25  46 2.26  39 2.26  45 2.36  19 2.36
 103  0.768  0.803  0.350-  49 2.25  40 2.26  47 2.26  39 2.36  46 2.36 104 2.73
 104  0.853  0.722  0.461-  40 2.08  47 2.08  50 2.09 103 2.73

  LATTYP: Found a base centered orthorhombic cell.
 ALAT       =    11.8257374459
 B/A-ratio  =     1.6199260857
 C/A-ratio  =     1.9350716598

  Lattice vectors:

 A1 = (  11.2564630382,   0.0000000000,   0.0000000000)
 A2 = (  -5.0445621212, -10.0628203371,   0.0000000000)
 A3 = (   0.0000000000,   0.0000000000, -22.8836493875)

Analysis of symmetry for initial positions (statically):
 Subroutine PRICEL returns:
 Original cell was already a primitive cell.

 Routine SETGRP: Setting up the symmetry group for a
 base centered orthorhombic supercell.

 Subroutine GETGRP returns: Found  1 space group operations
 (whereof  1 operations were pure point group operations)
 out of a pool of  8 trial point group operations.

The static configuration has the point symmetry C_1 .

Analysis of symmetry for dynamics (positions and initial velocities):
 Subroutine PRICEL returns:
 Original cell was already a primitive cell.

 Routine SETGRP: Setting up the symmetry group for a
 base centered orthorhombic supercell.

 Subroutine GETGRP returns: Found  1 space group operations
 (whereof  1 operations were pure point group operations)
 out of a pool of  8 trial point group operations.

The dynamic configuration has the point symmetry C_1 .

 Subroutine INISYM returns: Found  1 space group operations
 (whereof  1 operations are pure point group operations),
 and found     1 'primitive' translations

 KPOINTS: gamma-point-only calculation. no periodi

Automatic generation of k-mesh.
Space group operators:
 irot       det(A)        alpha          n_x          n_y          n_z        tau_x        tau_y        tau_z
    1     1.000000     0.000001     1.000000     0.000000     0.000000     0.000000     0.000000     0.000000

 Subroutine IBZKPT returns following result:

 Found      1 irreducible k-points:

 Following reciprocal coordinates:
            Coordinates               Weight
  0.000000  0.000000  0.000000      1.000000

 Following cartesian coordinates:
            Coordinates               Weight
  0.000000  0.000000  0.000000      1.000000

 SYSTEM =  "Millerite NiS"
 POSCAR =  Type_052 Type_152

 Startparameter for this run:
   NWRITE =      2    write-flag & timer
   PREC   = normal    normal or accurate (medium, high low for compatibility)
   ISTART =      0    job   : 0-new  1-cont  2-samecut
   ICHARG =      2    charge: 1-file 2-atom 10-const
   ISPIN  =      1    spin polarized calculation?
   LNONCOLLINEAR =      F non collinear calculations
   LSORBIT =      F    spin-orbit coupling
   INIWAV =      1    electr: 0-lowe 1-rand  2-diag
   LASPH  =      F    aspherical Exc in radial PAW
   METAGGA=      F    non-selfconsistent MetaGGA calc.

 Electronic Relaxation 1
   ENCUT  =  450.0 eV  33.07 Ry    5.75 a.u.  19.47 19.47 39.58*2*pi/ulx,y,z
   ENINI  =  450.0     initial cutoff
   ENAUG  =  703.4 eV  augmentation charge cutoff
   NELM   =    100;   NELMIN=  2; NELMDL= -5     # of ELM steps
   EDIFF  = 0.1E-03   stopping-criterion for ELM
   LREAL  =      T    real-space projection
   NLSPLINE    = F    spline interpolate recip. space projectors
   LCOMPAT=      F    compatible to vasp.4.4
   GGA_COMPAT  = T    GGA compatible to vasp.4.4-vasp.4.6
   LMAXPAW     = -100 max onsite density
   LMAXMIX     =    2 max onsite mixed and CHGCAR
   VOSKOWN=      0    Vosko Wilk Nusair interpolation
   ROPT   =   -0.00050  -0.00050
 Ionic relaxation
   EDIFFG = 0.1E-02   stopping-criterion for IOM
   NSW    =      0    number of steps for IOM
   NBLOCK =      1;   KBLOCK =      1    inner block; outer block
   IBRION =     -1    ionic relax: 0-MD 1-quasi-New 2-CG
   NFREE  =      0    steps in history (QN), initial steepest desc. (CG)
   ISIF   =      2    stress and relaxation
   IWAVPR =     10    prediction:  0-non 1-charg 2-wave 3-comb
   ISYM   =      2    0-nonsym 1-usesym 2-fastsym
   LCORR  =      T    Harris-Foulkes like correction to forces

   POTIM  = 0.5000    time-step for ionic-motion
   TEIN   =    0.0    initial temperature
   TEBEG  =    0.0;   TEEND  =   0.0 temperature during run
   SMASS  =  -3.00    Nose mass-parameter (am)
   estimated Nose-frequenzy (Omega)   =  0.10E-29 period in steps =****** mass=  -0.290E-26a.u.
   SCALEE = 1.0000    scale energy and forces
   NPACO  =    256;   APACO  = 16.0  distance and # of slots for P.C.
   PSTRESS=    0.0 pullay stress

  Mass of Ions in am
   POMASS =  58.69 32.07
  Ionic Valenz
   ZVAL   =  16.00  6.00
  Atomic Wigner-Seitz radii
  virtual crystal weights
   VCA    =   1.00  1.00
   NELECT =    1144.0000    total number of electrons
   NUPDOWN=      -1.0000    fix difference up-down

[...]
     0.000000000  0.000000000 22.883649388     0.000000000  0.000000000  0.043699324

  length of vectors
    11.256463038 11.256463038 22.883649388     0.099375718  0.099375718  0.043699324

 FORCES acting on ions
    electron-ion (+dipol)            ewald-force                    non-local-force                 convergence-correction
   0.272E+03 -.452E+03 -.906E+03   -.272E+03 0.452E+03 0.904E+03   0.295E+00 -.433E+00 0.109E+01   0.243E-01 0.930E-01 0.440E-01
   0.456E+03 -.743E+03 -.375E+04   -.456E+03 0.743E+03 0.375E+04   0.109E-01 0.263E-02 0.283E+01   0.288E-01 -.218E-01 0.326E+00
   0.379E+03 -.616E+03 -.608E+04   -.379E+03 0.616E+03 0.609E+04   -.108E+00 0.186E+00 -.632E+01   0.210E-01 -.967E-01 0.798E-01
   0.260E+03 -.237E+03 0.511E+04   -.260E+03 0.234E+03 -.512E+04   0.448E+00 0.254E+01 0.511E+01   -.112E+00 0.725E-01 0.343E+00
   0.235E+03 -.230E+03 0.198E+04   -.235E+03 0.228E+03 -.198E+04   0.355E-01 0.888E+00 -.332E+01   -.133E+00 -.551E-01 0.386E+00
   0.159E+03 0.636E+03 -.559E+04   -.162E+03 -.640E+03 0.560E+04   0.184E+01 0.338E+01 -.312E+01   0.539E-01 0.774E-01 -.155E-01
   -.481E+02 -.174E+03 0.644E+04   0.474E+02 0.176E+03 -.645E+04   0.516E+00 -.138E+01 0.439E+01   -.115E+00 0.102E+00 0.179E+00
   0.555E+03 0.193E+03 0.353E+04   -.557E+03 -.194E+03 -.353E+04   0.194E+01 0.362E+00 -.454E+00   -.143E+00 0.861E-01 0.315E+00
   0.276E+03 0.395E+03 0.147E+03   -.278E+03 -.396E+03 -.147E+03   0.147E+01 0.765E+00 0.169E+00   0.286E-01 -.223E+00 0.639E-01
   0.315E+03 0.418E+03 -.262E+04   -.315E+03 -.418E+03 0.261E+04   0.912E+00 0.175E+00 0.274E+01   -.153E-01 -.161E+00 0.201E+00
   -.519E+03 -.647E+02 0.170E+03   0.520E+03 0.660E+02 -.170E+03   -.116E+01 -.127E+01 0.289E+00   -.803E-01 -.978E-02 0.715E-01
   -.493E+03 -.167E+03 -.276E+04   0.496E+03 0.167E+03 0.276E+04   -.271E+01 -.424E+00 0.120E+01   -.827E-01 -.107E+00 0.193E+00
   -.187E+03 -.206E+03 -.556E+04   0.190E+03 0.207E+03 0.557E+04   -.158E+01 -.756E+00 -.361E+01   0.290E-01 -.591E-01 0.184E-01
   -.697E+03 -.194E+03 0.364E+04   0.699E+03 0.196E+03 -.364E+04   -.180E+01 -.955E+00 0.256E-01   0.431E-01 0.656E-01 0.361E+00
   -.288E+03 -.112E+03 0.649E+04   0.287E+03 0.112E+03 -.649E+04   0.141E+01 -.355E+00 -.225E+01   0.320E-01 0.168E-01 0.133E-01
   0.208E+03 -.404E+03 -.889E+03   -.208E+03 0.405E+03 0.888E+03   0.653E+00 -.134E+01 0.637E+00   -.359E-01 0.634E-01 0.152E+00
   0.969E+02 -.576E+03 -.413E+04   -.985E+02 0.579E+03 0.413E+04   0.479E+00 -.215E+01 -.248E+01   -.185E-01 -.138E-01 0.960E-01
   -.211E+03 -.353E+03 0.491E+04   0.210E+03 0.352E+03 -.491E+04   0.109E+01 0.589E+00 0.512E+01   0.638E-01 0.126E+00 0.319E+00
   0.608E+01 -.262E+03 0.201E+04   -.616E+01 0.263E+03 -.200E+04   0.388E-01 -.414E+00 -.397E+01   0.154E+00 -.101E+00 0.440E+00
   0.228E+03 0.820E+03 -.542E+04   -.230E+03 -.826E+03 0.542E+04   0.326E+00 0.380E+01 -.237E+01   -.188E-01 0.402E-01 0.141E+00
   0.467E+03 0.442E+03 0.367E+04   -.469E+03 -.443E+03 -.367E+04   0.229E+01 0.919E+00 -.119E+00   0.102E+00 -.637E-01 0.337E+00
   0.245E+03 0.439E+03 0.195E+03   -.247E+03 -.440E+03 -.195E+03   0.137E+01 0.581E+00 0.423E-01   -.289E-01 -.838E-01 0.129E+00
   0.178E+03 0.450E+03 -.267E+04   -.179E+03 -.453E+03 0.266E+04   0.107E+01 0.219E+01 0.205E+01   0.372E-01 -.177E-01 0.137E+00
   -.525E+03 -.704E+02 0.204E+03   0.526E+03 0.720E+02 -.203E+03   -.130E+01 -.128E+01 -.603E+00   0.305E+00 -.636E-01 0.806E-01
   -.522E+03 -.971E+02 -.261E+04   0.522E+03 0.976E+02 0.261E+04   -.577E+00 -.684E+00 0.273E+01   0.173E+00 -.141E-01 0.124E+00
   -.837E+03 0.163E+03 -.542E+04   0.843E+03 -.164E+03 0.542E+04   -.354E+01 0.136E+01 -.237E+01   -.762E-01 0.190E-01 0.118E+00
   -.648E+03 -.156E+03 0.365E+04   0.651E+03 0.158E+03 -.365E+04   -.217E+01 -.211E+01 -.244E+00   0.973E-01 0.524E-01 0.294E+00
   0.294E+03 -.367E+03 -.915E+03   -.294E+03 0.368E+03 0.914E+03   0.894E+00 -.114E+01 0.706E+00   -.483E-01 0.231E-01 0.100E+00
   0.474E+03 -.342E+03 -.413E+04   -.476E+03 0.345E+03 0.413E+04   0.168E+01 -.141E+01 -.250E+01   0.721E-01 -.511E-02 0.119E+00
   0.132E+03 -.114E+03 0.517E+04   -.131E+03 0.112E+03 -.518E+04   0.190E-02 0.249E+01 0.611E+01   -.129E+00 0.118E+00 0.355E+00
   0.147E+03 -.235E+03 0.204E+04   -.148E+03 0.233E+03 -.204E+04   0.300E+00 0.996E+00 -.330E+01   -.160E+00 0.182E+00 0.237E+00
   0.605E+03 0.312E+02 0.641E+04   -.607E+03 -.299E+02 -.642E+04   0.179E+01 -.899E+00 0.533E+01   -.272E+00 -.640E-01 0.168E+00
   0.544E+03 0.579E+03 0.361E+04   -.546E+03 -.579E+03 -.361E+04   0.248E+01 0.254E+00 -.131E+01   -.175E+00 0.230E-01 0.374E+00
   0.304E+03 0.466E+03 0.153E+03   -.306E+03 -.467E+03 -.153E+03   0.160E+01 0.270E+00 0.820E-03   0.411E-01 0.433E-02 0.122E+00
   0.370E+03 0.374E+03 -.276E+04   -.372E+03 -.377E+03 0.276E+04   0.157E+01 0.219E+01 0.114E+01   0.167E+00 0.401E-02 0.139E+00
   -.529E+03 0.405E+01 0.151E+03   0.531E+03 -.245E+01 -.151E+03   -.115E+01 -.155E+01 0.126E+00   -.686E-01 0.771E-01 0.519E-01
   -.490E+03 0.154E+03 -.329E+04   0.495E+03 -.153E+03 0.329E+04   -.453E+01 -.778E+00 -.265E+01   0.495E-01 0.156E+00 0.449E-01
   -.398E+03 0.436E+02 0.306E+04   0.399E+03 -.429E+02 -.306E+04   -.706E+00 -.101E+01 -.265E+01   -.130E+00 -.798E-01 0.576E+00
   0.195E+03 -.342E+03 -.888E+03   -.195E+03 0.342E+03 0.888E+03   0.748E+00 -.105E+01 0.665E+00   0.167E-01 -.269E-01 0.747E-01
   0.371E+02 -.626E+02 -.422E+04   -.389E+02 0.657E+02 0.423E+04   0.113E+01 -.191E+01 -.516E+01   -.943E-01 0.102E+00 0.456E-01
   0.104E+03 0.126E+02 0.504E+04   -.101E+03 -.140E+02 -.505E+04   -.280E+01 0.901E+00 0.496E+01   0.384E-02 0.219E-01 0.295E+00
   0.106E+03 -.141E+03 0.202E+04   -.104E+03 0.140E+03 -.202E+04   -.985E+00 0.746E-01 -.368E+01   0.146E+00 -.587E-01 0.377E+00
   0.268E+03 0.763E+02 -.556E+04   -.270E+03 -.789E+02 0.557E+04   0.134E+01 0.105E+01 -.357E+01   0.791E-01 -.275E-01 0.102E-01
   -.378E+03 -.156E+03 0.641E+04   0.378E+03 0.160E+03 -.641E+04   -.481E+00 -.320E+01 0.395E+01   0.203E+00 -.120E+00 0.158E+00
   0.348E+03 0.526E+03 0.359E+04   -.351E+03 -.528E+03 -.359E+04   0.204E+01 0.173E+01 -.572E+00   0.172E+00 -.148E+00 0.351E+00
   0.221E+03 0.481E+03 0.135E+03   -.223E+03 -.481E+03 -.136E+03   0.158E+01 0.318E+00 0.790E+00   -.452E-01 0.858E-01 0.825E-01
   0.815E+02 0.509E+03 -.329E+04   -.849E+02 -.513E+03 0.329E+04   0.273E+01 0.369E+01 -.261E+01   -.195E+00 0.250E-01 0.502E-01
   -.505E+03 0.856E+01 0.133E+03   0.506E+03 -.735E+01 -.134E+03   -.131E+01 -.110E+01 0.552E+00   0.119E+00 -.598E-01 0.199E+00
   -.484E+03 0.495E+02 -.267E+04   0.486E+03 -.495E+02 0.267E+04   -.249E+01 -.159E-02 0.199E+01   0.298E-01 -.674E-01 0.144E+00
   -.640E+03 0.145E+03 -.559E+04   0.645E+03 -.144E+03 0.560E+04   -.383E+01 -.134E+00 -.314E+01   -.735E-01 0.158E-01 -.377E-01
   -.708E+03 -.914E+02 0.364E+04   0.711E+03 0.929E+02 -.364E+04   -.230E+01 -.133E+01 0.180E+00   0.100E+00 -.121E+00 0.370E+00
   0.107E+03 0.113E+03 0.647E+04   -.109E+03 -.112E+03 -.648E+04   0.151E+01 -.993E+00 0.445E+01   0.170E+00 -.890E-01 0.122E+00
   -.718E+02 0.118E+03 -.293E+03   0.731E+02 -.120E+03 0.291E+03   -.113E+01 0.189E+01 0.144E+01   -.364E-01 0.304E-02 0.754E-01
   -.979E+02 0.235E+03 -.147E+04   0.990E+02 -.238E+03 0.146E+04   -.332E+00 0.149E+01 0.105E+01   -.208E-01 0.542E-01 0.852E-01
   -.185E+03 -.402E+01 0.248E+04   0.187E+03 0.371E+01 -.248E+04   -.161E+01 -.425E+00 0.263E+01   0.457E-01 -.374E-01 -.719E-02
   -.112E+03 0.188E+02 0.707E+03   0.113E+03 -.197E+02 -.705E+03   -.141E+01 0.120E+01 -.293E+00   0.520E-01 -.780E-02 0.112E+00
   0.320E+03 -.519E+03 -.212E+04   -.323E+03 0.523E+03 0.213E+04   0.749E+00 -.133E+01 -.240E+01   0.353E-01 -.711E-01 0.903E-01
   -.103E+03 -.438E+03 -.208E+04   0.105E+03 0.442E+03 0.208E+04   -.776E+00 -.180E+01 -.694E+00   0.107E-01 -.714E-01 0.389E-01
   -.516E+02 -.193E+03 -.754E+03   0.519E+02 0.195E+03 0.754E+03   -.564E-01 -.263E+01 -.461E+00   0.125E+00 0.371E-01 0.695E-01
   -.399E+01 -.379E+03 0.172E+04   0.496E+01 0.383E+03 -.172E+04   -.158E+00 -.265E+01 0.290E+00   -.649E-01 0.810E-01 0.174E+00
[...]
   0.438E+03 -.104E+03 -.208E+04   -.443E+03 0.104E+03 0.208E+04   0.196E+01 -.132E+00 -.734E+00   0.600E-01 -.311E-01 0.346E-01
   -.728E+02 0.127E+03 -.294E+03   0.740E+02 -.129E+03 0.293E+03   -.111E+01 0.181E+01 0.147E+01   0.268E-01 0.190E-01 0.880E-01
   -.166E+03 0.194E+03 -.146E+04   0.168E+03 -.197E+03 0.146E+04   -.119E+01 0.100E+01 0.107E+01   -.139E-01 0.587E-01 0.665E-01
   -.120E+03 0.124E+03 0.248E+04   0.121E+03 -.126E+03 -.249E+04   -.440E+00 0.660E+00 0.269E+01   0.648E-01 -.971E-01 0.665E-01
   -.703E+02 0.645E+02 0.722E+03   0.715E+02 -.653E+02 -.720E+03   -.151E+01 0.116E+01 0.109E+00   -.804E-02 0.100E-01 0.511E-01
   -.159E+03 0.257E+03 -.245E+04   0.160E+03 -.258E+03 0.245E+04   0.208E+00 -.339E+00 -.167E+00   -.442E-01 0.406E-01 -.400E-01
   0.676E+02 -.979E+02 -.195E+04   -.678E+02 0.996E+02 0.196E+04   0.446E+00 -.706E+00 -.363E+00   0.461E-01 -.392E-01 0.458E-01
   -.812E+02 -.979E+02 -.767E+03   0.827E+02 0.101E+03 0.768E+03   -.179E+01 -.290E+01 -.712E+00   -.222E-02 0.407E-01 0.438E-02
   -.285E+03 -.147E+03 0.189E+04   0.289E+03 0.149E+03 -.189E+04   -.180E+01 -.111E+01 0.285E+01   0.131E+00 -.413E-03 0.118E+00
   -.864E+02 -.144E+03 0.379E+03   0.874E+02 0.147E+03 -.379E+03   -.878E+00 -.267E+01 0.299E+00   0.182E-01 0.175E-01 0.273E-01
   0.310E+02 0.254E+03 0.172E+04   -.338E+02 -.257E+03 -.172E+04   0.136E+01 0.136E+01 0.126E+00   0.626E-01 -.763E-01 0.183E+00
   0.148E+03 0.188E+02 0.361E+03   -.151E+03 -.182E+02 -.362E+03   0.282E+01 -.477E+00 0.311E+00   0.409E-01 -.234E-01 0.101E+00
   0.122E+03 0.301E+02 -.770E+03   -.125E+03 -.299E+02 0.770E+03   0.338E+01 0.115E+00 -.452E+00   -.507E-01 0.872E-02 0.105E-01
   -.165E+03 0.179E+03 -.211E+04   0.166E+03 -.180E+03 0.211E+04   -.880E+00 0.667E+00 -.187E+01   -.107E+00 -.751E-03 0.533E-01
   -.787E+01 0.805E+01 -.290E+02   -.739E-12 0.315E-11 -.728E-11   0.734E+01 -.752E+01 0.161E+02   0.403E+00 -.510E+00 0.128E+02

 POSITION                                       TOTAL-FORCE (eV/Angst)
      5.35228      4.81788      6.64784         0.151655     -0.287367     -0.121541
      5.93595      3.87238      9.58390         0.084963     -0.162168     -0.660358
      6.48117      2.98917     12.19169        -0.190861      0.300008      2.004688
      1.25971      2.02055      2.07148         0.146711     -0.234727     -0.738430
      2.24633      0.73197      3.71178         0.463539     -0.616141      1.468822
      0.58614      0.60621     11.16119        -1.114074     -1.056852      0.468923
      5.13615      5.37988      1.16774        -0.228367      0.701945     -1.661053
      4.76861      3.35453      2.93606        -0.516888      0.003761      0.472299
      5.35228      2.40903      5.87212        -0.091854      0.012100     -0.045730
      5.93595      1.46353      8.80817         0.233141      0.014262     -0.176855
      1.87746      3.73836      5.87212         0.079533      0.042777     -0.024366
      2.46113      2.79286      8.80817         0.246850     -0.495462     -1.573719
      3.01199      2.08967     11.26919         1.934808      0.181982      0.677047
      6.92203      4.68386      2.93606         0.583870      0.584785      1.566403
      4.92765      0.44284      0.82682         0.120136      0.226691     -0.984803
     10.98051      4.81788      6.64784         0.062353     -0.309762      0.002155
     11.56418      3.87238      9.58390        -1.129865      0.765925     -0.982942
      6.57915      1.97900      2.08540         0.356254     -0.405116     -0.904618
      7.87456      0.73197      3.71178         0.115661     -0.038283      1.808522
      6.40165      0.53176     11.35208        -1.431746     -1.966853     -0.097379
     10.39684      3.35453      2.93606        -0.252223      0.064198      0.813868
     10.98051      2.40903      5.87212        -0.090869      0.064235     -0.043234
     11.56418      1.46353      8.80817         0.109053      0.097430     -1.427865
      7.50570      3.73836      5.87212         0.176101      0.176522      0.079947
      8.08937      2.79286      8.80817        -0.172017     -0.202703     -0.182804
      8.71363      1.95897     11.35208         2.404627      0.356780     -0.075118
     12.55026      4.68386      2.93606         0.684235      0.306250      1.111282
      7.87456      9.84929      6.64784         0.144753     -0.245899     -0.016964
      8.45823      8.90379      9.58390        -0.194767      1.346425     -0.997379
      3.69998      7.06898      2.08587         0.426194     -0.115133     -0.836796
      4.76861      5.76338      3.71178        -0.142869     -0.767144      2.344621
      2.52707      0.23685      1.01467        -0.309121      0.403550     -1.591838
      7.29089      8.38594      2.93606         0.039664      0.032705      0.645481
      7.87456      7.44044      5.87212        -0.207061     -0.065177     -0.001480
      8.45823      6.49494      8.80817         0.307572     -0.488132     -1.587417
      4.39975      8.76977      5.87212         0.059255      0.130971      0.016716
      4.98341      7.82427      8.80817         0.545884      0.595567     -1.694233
      9.44431      9.71527      2.93606        -0.115054     -0.436081      1.915556
     13.50279      9.84929      6.64784         0.187223     -0.282513      0.023721
     14.08646      8.90379      9.58390        -0.817323      1.274604     -1.638006
      9.71820      7.25155      2.09973        -0.269755     -0.467194     -0.570338
     10.39684      5.76338      3.71178         0.718712     -0.486361      2.520996
      8.83999      5.68736     11.26919        -1.028147     -1.647640      0.685297
      8.23518      0.45263      1.16413        -0.268556      0.864364     -1.547878
     12.91912      8.38594      2.93606        -0.399375     -0.504156      0.808714
     13.50279      7.44044      5.87212        -0.007178      0.090803     -0.046913
     14.08646      6.49494      8.80817        -0.823708     -0.221314     -1.684732
     10.02798      8.76977      5.87212         0.013957      0.054191     -0.015597
     10.61165      7.82427      8.80817        -0.151092     -0.057240     -1.443487
     11.25328      7.19117     11.16120         1.469940      0.552159      0.471987
     15.07254      9.71527      2.93606         1.021108      0.010893      1.255842
     10.57016      5.25798      1.13847        -0.756767      0.270897     -1.637895
      1.66190      1.67871      7.01153         0.122025     -0.200110     -0.048218
      2.24556      0.73321      9.94759         0.742474     -1.349965     -2.069326
      6.24659      3.73706      1.18740         0.656234     -0.780020     -2.896361
      6.70646      2.62422      4.07548        -0.262574      0.241120      1.409612
      5.47848      4.61345     11.48763        -1.781304      2.904948      1.499343
      2.09888      3.77887     10.58433         1.140241      2.519243      1.786012
      7.29013      4.74605      7.99931         0.355825     -0.245075     -0.437369
      3.60051      1.60565      2.12720         0.754141      1.840324      0.084422
[...]
      7.07033      8.08475      7.99931        -0.012157      0.303337     -0.430461
      7.73912      7.26066     10.58434        -2.782272      0.098186      1.795425
      9.81241      6.71012      7.01153         0.095562     -0.179843     -0.096058
     10.39608      5.76462      9.94759         0.874702     -1.274820     -2.075250
     14.20649      8.73796      1.25357         0.579829     -0.966599     -3.231810
     14.85697      7.65563      4.07548        -0.309839      0.370138      1.735885
      7.49266      1.35062     12.88307         0.982653     -1.573218      4.159885
     10.32210      8.94990     10.59472         0.285669      1.001250      1.522605
     15.44064      9.77746      7.99931        -0.233185      0.154281     -0.525321
     11.75102      6.63706      2.12720         1.750964      1.318019     -0.031463
     12.33469      5.69156      5.06325         0.122936      0.082490     -0.022979
     11.53122      9.97575      2.12720        -1.381563     -1.821585      0.138747
     12.11489      9.03025      5.06325        -0.190296      0.061297     -0.111726
     12.69856      8.08475      7.99931        -0.024771      0.261709     -0.512770
     13.24803      7.26582     10.54499         0.279472     -0.820971      2.788267
    total drift:                               -0.131725      0.024008     -0.084505

  FREE ENERGIE OF THE ION-ELECTRON SYSTEM (eV)
  free  energy   TOTEN  =      -510.34590434 eV

  energy  without entropy=     -508.95689408  energy(sigma->0) =     -509.65139921