 vasp.5.4.4.18Apr17-6-g9f103f2a35 (build Aug 13 2019 17:33:20) gamma-only

 executed on             LinuxIFC date 2020.05.12  14:55:28

 INCAR:
 POTCAR:    PAW_PBE Ni_pv 06Sep2000
 POTCAR:    PAW_PBE S 06Sep2000
 POTCAR:    PAW_PBE Ni_pv 06Sep2000
   VRHFIN =Ni:

   TITEL  = PAW_PBE Ni_pv 06Sep2000
   POMASS =   58.690; ZVAL   =   16.000    mass and valenz
   ENMAX  =  367.986; ENMIN  =  275.989 eV

 POTCAR:    PAW_PBE S 06Sep2000
   VRHFIN =S : s2p4

   TITEL  = PAW_PBE S 06Sep2000
   POMASS =   32.066; ZVAL   =    6.000    mass and valenz
   ENMAX  =  258.689; ENMIN  =  194.016 eV

 Optimization of the real space projectors (new method)

 maximal supplied QI-value         = 18.90
 optimisation between [QCUT,QGAM] = [ 10.77, 21.73] = [ 32.49,132.25] Ry
 Optimized for a Real-space Cutoff    1.38 Angstroem

   l    n(q)    QCUT    max X(q) W(low)/X(q) W(high)/X(q)  e(spline)
   1      8    10.771     2.836    0.40E-04    0.29E-04    0.12E-06
   1      8    10.771     4.023    0.10E-03    0.48E-04    0.29E-06
   2      8    10.771    73.368    0.42E-03    0.97E-04    0.44E-06
   2      8    10.771    69.010    0.42E-03    0.99E-04    0.45E-06
   0      9    10.771    54.797    0.10E-03    0.56E-04    0.74E-07
   0      9    10.771    24.266    0.89E-04    0.49E-04    0.67E-07
 Optimization of the real space projectors (new method)

 maximal supplied QI-value         = 19.84
 optimisation between [QCUT,QGAM] = [ 10.71, 21.63] = [ 32.15,130.99] Ry
 Optimized for a Real-space Cutoff    1.19 Angstroem

   l    n(q)    QCUT    max X(q) W(low)/X(q) W(high)/X(q)  e(spline)
   0      8    10.715   187.594    0.41E-03    0.53E-04    0.66E-07
   0      8    10.715   164.243    0.41E-03    0.53E-04    0.65E-07
   1      7    10.715    67.533    0.19E-03    0.59E-03    0.68E-07
   1      7    10.715    50.729    0.19E-03    0.58E-03    0.67E-07
  PAW_PBE Ni_pv 06Sep2000               :
  PAW_PBE S 06Sep2000                   :

 POSCAR: Type_036 Type_136
  positions in cartesian coordinates
 exchange correlation table for  LEXCH =        8
   RHO(1)=    0.500       N(1)  =     2000
   RHO(2)=  100.500       N(2)  =     4000

 ion  position               nearest neighbor table
   1  0.374  0.751  0.095-  60 2.03  41 2.25  49 2.28  61 2.36  50 2.36  14 2.41
   2  0.525  0.601  0.223-  42 2.25  50 2.26  61 2.26  62 2.36  51 2.36  15 2.39  27 2.53
   3  0.675  0.451  0.351-  43 2.25  62 2.26  51 2.26  24 2.29  63 2.36  52 2.36   4 2.45  28 2.53
                            16 2.53
   4  0.735  0.357  0.462-  64 2.06  52 2.08  63 2.10  44 2.10   3 2.45
   5  0.549  0.080  0.070-  67 2.03  47 2.11  46 2.16  49 2.17  21 2.29
   6  0.775  0.012  0.145-  45 2.08  68 2.11  53 2.25  67 2.27  47 2.39  20 2.44
   7  0.060  0.735  0.382-  55 2.05  65 2.06  54 2.14  66 2.29  18 2.40  31 2.45
   8  0.908  0.884  0.266-  48 2.25  53 2.26  68 2.26  54 2.36  65 2.36  30 2.53  17 2.53
   9  0.141  0.318  0.180-  69 2.05  40 2.25  56 2.26  70 2.36  57 2.36  34 2.53  21 2.53
  10  0.291  0.168  0.308-  37 2.25  57 2.26  70 2.26  58 2.36  71 2.36  35 2.53  22 2.53
  11  0.414  0.035  0.424-  71 2.04  58 2.09  38 2.09  72 2.13
  12  0.990  0.479  0.077-  56 2.02  59 2.12  39 2.15  69 2.19
  13  0.010  0.116  0.412-  64 2.05  38 2.11  54 2.25  63 2.26  37 2.26  25 2.49
  14  0.573  0.562  0.050-  61 2.03  39 2.05  60 2.06   1 2.41
  15  0.715  0.423  0.169-  40 2.16  62 2.18  27 2.38  39 2.38   2 2.39  61 2.39
  16  0.860  0.266  0.283-  53 2.25  62 2.26  40 2.26  37 2.36  63 2.36   3 2.53  28 2.53
  17  0.093  0.700  0.198-  56 2.25  41 2.26  68 2.26  42 2.36  65 2.36  30 2.53   8 2.53
  18  0.243  0.549  0.326-  66 2.10  57 2.25  65 2.26  42 2.26  43 2.36   7 2.40  31 2.53
  19  0.372  0.415  0.436-  43 2.04  66 2.11  44 2.13  58 2.17
  20  0.943  0.850  0.070-  67 2.03  45 2.06  59 2.13  68 2.36  41 2.36   6 2.44
  21  0.326  0.133  0.113-  49 2.11  46 2.13  69 2.18   5 2.29  70 2.36  47 2.36  34 2.53   9 2.53

  22  0.476  0.983  0.241-  50 2.25  70 2.26  47 2.26  48 2.36  71 2.36  35 2.53  10 2.53
  23  0.608  0.846  0.357-  71 2.04  48 2.11  51 2.21  72 2.49  24 2.49
  24  0.619  0.636  0.423-  72 2.03  52 2.08   3 2.29  43 2.37  32 2.37  23 2.49  51 2.63
  25  0.039  0.347  0.433-  37 2.05  64 2.09  52 2.13  38 2.15  66 2.29  13 2.49
  26  0.625  0.784  0.082-  50 2.05  67 2.10  49 2.12  39 2.17
  27  0.749  0.641  0.189-  68 2.25  50 2.26  39 2.26  40 2.36  51 2.36  15 2.38   2 2.53
  28  0.899  0.491  0.317-  65 2.25  51 2.26  40 2.26  52 2.36  37 2.36   3 2.53  16 2.53
  29  0.071  0.080  0.141-  45 2.09  69 2.13  53 2.20  41 2.22  70 2.30  30 2.38
  30  0.133  0.924  0.232-  70 2.25  53 2.26  41 2.26  54 2.36  42 2.36  29 2.38   8 2.53  17 2.53

  31  0.283  0.774  0.360-  55 2.08  71 2.25  54 2.26  42 2.26  43 2.36   7 2.45  18 2.53
  32  0.400  0.655  0.472-  55 2.04  43 2.09  44 2.09  72 2.18  24 2.37
  33  0.258  0.515  0.047-  56 2.03  60 2.05  59 2.16  46 2.25
  34  0.366  0.358  0.147-  46 2.05  61 2.25  56 2.26  47 2.36  57 2.36  21 2.53   9 2.53
  35  0.516  0.207  0.275-  62 2.25  57 2.26  47 2.26  48 2.36  58 2.36  10 2.53  22 2.53
  36  0.652  0.086  0.384-  58 2.02  48 2.03  63 2.09
  37  0.064  0.262  0.341-  25 2.05  10 2.25  13 2.26  16 2.36  28 2.36  38 2.59
  38  0.199  0.138  0.445-  11 2.09  13 2.11  25 2.15  37 2.59  64 2.64
  39  0.763  0.563  0.085-  14 2.05  12 2.15  26 2.17  27 2.26  15 2.38
  40  0.914  0.412  0.213-  15 2.16   9 2.25  16 2.26  28 2.26  27 2.36
  41  0.147  0.846  0.128-  29 2.22   1 2.25  17 2.26  30 2.26  20 2.36  45 2.78
  42  0.297  0.696  0.256-   2 2.25  31 2.26  18 2.26  30 2.36  17 2.36
  43  0.447  0.545  0.384-  19 2.04  32 2.09   3 2.25  31 2.36  18 2.36  24 2.37  44 2.55
  44  0.527  0.448  0.498-  32 2.09   4 2.10  19 2.13  43 2.55
  45  0.909  0.062  0.081-  20 2.06   6 2.08  29 2.09  53 2.74  67 2.76  41 2.78
  46  0.380  0.280  0.053-  34 2.05  21 2.13   5 2.16  33 2.25
  47  0.530  0.129  0.171-   5 2.11  22 2.26  35 2.26  34 2.36  21 2.36   6 2.39
  48  0.680  0.979  0.299-  36 2.03  23 2.11   8 2.25  35 2.36  22 2.36
  49  0.426  0.942  0.061-  21 2.11  26 2.12   5 2.17   1 2.28  50 2.69
  50  0.528  0.798  0.171-  26 2.05  22 2.25  27 2.26   2 2.26   1 2.36  49 2.69
  51  0.678  0.648  0.299-  23 2.21  28 2.26   3 2.26  27 2.36   2 2.36  24 2.63
  52  0.829  0.497  0.427-   4 2.08  24 2.08  25 2.13  28 2.36   3 2.36  64 2.76
  53  0.911  0.081  0.214-  29 2.20   6 2.25  16 2.25   8 2.26  30 2.26  45 2.74
  54  0.062  0.931  0.342-   7 2.14  13 2.25  31 2.26  30 2.36   8 2.36
  55  0.193  0.768  0.451-  32 2.04   7 2.05  31 2.08
  56  0.145  0.515  0.129-  12 2.02  33 2.03  17 2.25  34 2.26   9 2.26  59 2.45
  57  0.295  0.364  0.257-  18 2.25  10 2.26  35 2.26   9 2.36  34 2.36
  58  0.445  0.214  0.385-  36 2.02  11 2.09  19 2.17  35 2.36  10 2.36
  59  0.038  0.643  0.029-  12 2.12  20 2.13  33 2.16  56 2.45
  60  0.369  0.637  0.014-   1 2.03  33 2.05  14 2.06  61 2.71
  61  0.477  0.512  0.128-  14 2.03  34 2.25   2 2.26   1 2.36  15 2.39  60 2.71
  62  0.628  0.362  0.256-  15 2.18  35 2.25   3 2.26  16 2.26   2 2.36
  63  0.778  0.212  0.384-  36 2.09   4 2.10  13 2.26  16 2.36   3 2.36
  64  0.938  0.241  0.492-  13 2.05   4 2.06  25 2.09  38 2.64  52 2.76
  65  0.011  0.645  0.299-   7 2.06  28 2.25  18 2.26   8 2.36  17 2.36
  66  0.155  0.501  0.412-  18 2.10  19 2.11  25 2.29   7 2.29
  67  0.731  0.917  0.051-   5 2.03  20 2.03  26 2.10   6 2.27  45 2.76
  68  0.861  0.795  0.171-   6 2.11  27 2.25  17 2.26   8 2.26  20 2.36
  69  0.103  0.250  0.090-   9 2.05  29 2.13  21 2.18  12 2.19
  70  0.244  0.079  0.214-  30 2.25  22 2.26  10 2.26  29 2.30   9 2.36  21 2.36
  71  0.395  0.928  0.342-  23 2.04  11 2.04  31 2.25  10 2.36  22 2.36  72 2.66
  72  0.486  0.823  0.459-  24 2.03  11 2.13  32 2.18  23 2.49  71 2.66

  LATTYP: Found a base centered orthorhombic cell.
 ALAT       =    11.4527836704
 B/A-ratio  =     1.4485816945
 C/A-ratio  =     1.7908432109

  Lattice vectors:

 A1 = (  10.0797329849,   0.0000000000,   0.0000000000)
 A2 = (  -3.5732980427,  -9.4251025535,   0.0000000000)
 A3 = (   0.0000000000,   0.0000000000, -20.5101398818)

Analysis of symmetry for initial positions (statically):
 Subroutine PRICEL returns:
 Original cell was already a primitive cell.

 Routine SETGRP: Setting up the symmetry group for a
 base centered orthorhombic supercell.

 Subroutine GETGRP returns: Found  1 space group operations
 (whereof  1 operations were pure point group operations)
 out of a pool of  8 trial point group operations.

The static configuration has the point symmetry C_1 .

Analysis of symmetry for dynamics (positions and initial velocities):
 Subroutine PRICEL returns:
 Original cell was already a primitive cell.

 Routine SETGRP: Setting up the symmetry group for a
 base centered orthorhombic supercell.

 Subroutine GETGRP returns: Found  1 space group operations
 (whereof  1 operations were pure point group operations)
 out of a pool of  8 trial point group operations.

The dynamic configuration has the point symmetry C_1 .

 Subroutine INISYM returns: Found  1 space group operations
 (whereof  1 operations are pure point group operations),
 and found     1 'primitive' translations

 KPOINTS: gamma-point-only calculation. no periodi

Automatic generation of k-mesh.
Space group operators:
 irot       det(A)        alpha          n_x          n_y          n_z        tau_x        tau_y        tau_z
    1     1.000000     0.000000     1.000000     0.000000     0.000000     0.000000     0.000000     0.000000

 Subroutine IBZKPT returns following result:

 Found      1 irreducible k-points:

 Following reciprocal coordinates:
            Coordinates               Weight
  0.000000  0.000000  0.000000      1.000000

 Following cartesian coordinates:
            Coordinates               Weight
  0.000000  0.000000  0.000000      1.000000

 SYSTEM =  "Millerite NiS"
 POSCAR =  Type_036 Type_136

 Startparameter for this run:
   NWRITE =      2    write-flag & timer
   PREC   = normal    normal or accurate (medium, high low for compatibility)
   ISTART =      0    job   : 0-new  1-cont  2-samecut
   ICHARG =      2    charge: 1-file 2-atom 10-const
   ISPIN  =      1    spin polarized calculation?
   LNONCOLLINEAR =      F non collinear calculations
   LSORBIT =      F    spin-orbit coupling
   INIWAV =      1    electr: 0-lowe 1-rand  2-diag
   LASPH  =      F    aspherical Exc in radial PAW
   METAGGA=      F    non-selfconsistent MetaGGA calc.

 Electronic Relaxation 1
   ENCUT  =  450.0 eV  33.07 Ry    5.75 a.u.  17.43 17.43 35.48*2*pi/ulx,y,z
   ENINI  =  450.0     initial cutoff
   ENAUG  =  703.4 eV  augmentation charge cutoff
   NELM   =    100;   NELMIN=  2; NELMDL= -5     # of ELM steps
   EDIFF  = 0.1E-03   stopping-criterion for ELM
   LREAL  =      T    real-space projection
   NLSPLINE    = F    spline interpolate recip. space projectors
   LCOMPAT=      F    compatible to vasp.4.4
   GGA_COMPAT  = T    GGA compatible to vasp.4.4-vasp.4.6
   LMAXPAW     = -100 max onsite density
   LMAXMIX     =    2 max onsite mixed and CHGCAR
   VOSKOWN=      0    Vosko Wilk Nusair interpolation
   ROPT   =   -0.00050  -0.00050
[...]
  Fock        0.00000     0.00000     0.00000     0.00000     0.00000     0.00000
  Total      89.28332    73.80981    96.02190    -5.01364     8.63320    -0.21852
  in kB      73.41371    60.69053    78.95455    -4.12249     7.09870    -0.17968

 VOLUME and BASIS-vectors are now :
  energy-cutoff  :      450.00
  volume of cell :     1948.51
      direct lattice vectors                 reciprocal lattice vectors
    10.079732985  0.000000000  0.000000000     0.099208977 -0.037612667  0.000000000
     3.573298043  9.425102554  0.000000000     0.000000000  0.106099641  0.000000000
     0.000000000  0.000000000 20.510139882     0.000000000  0.000000000  0.048756372

  length of vectors
    10.079732985 10.079732985 20.510139882     0.106099641  0.106099641  0.048756372

 FORCES acting on ions
    electron-ion (+dipol)            ewald-force                    non-local-force                 convergence-correction
   0.485E+03 -.453E+03 0.377E+04   -.489E+03 0.456E+03 -.377E+04   0.310E+01 -.221E+01 0.233E+01   0.193E-01 0.249E+00 -.818E-02
   0.488E+03 -.114E+03 0.497E+03   -.490E+03 0.115E+03 -.497E+03   0.119E+01 -.871E+00 0.615E+00   -.726E-01 0.575E-02 0.841E-01
   0.300E+03 0.181E+03 -.211E+04   -.301E+03 -.183E+03 0.211E+04   0.576E+00 0.308E+00 0.174E+01   0.194E-01 0.292E-01 -.797E-01
   0.108E+03 0.489E+03 -.524E+04   -.112E+03 -.490E+03 0.525E+04   0.345E+01 0.110E+01 -.442E+01   0.172E+00 -.802E-01 -.133E+00
   -.506E+03 -.330E+03 0.490E+04   0.509E+03 0.333E+03 -.490E+04   -.177E+01 -.239E+01 0.417E+01   -.215E+00 -.347E-01 -.101E+00
   0.402E+01 -.608E+03 0.254E+04   -.524E+01 0.612E+03 -.253E+04   0.369E+00 -.303E+01 -.194E+01   -.273E+00 0.193E+00 -.676E-01
   0.989E+03 -.393E+03 -.391E+04   -.989E+03 0.392E+03 0.391E+04   -.360E+00 0.223E+00 -.566E+00   -.468E-01 -.364E-01 0.326E-01
   0.428E+03 -.159E+03 -.828E+03   -.429E+03 0.159E+03 0.828E+03   0.117E+01 -.136E+00 0.240E+00   0.284E+00 -.602E-01 0.118E+00
   0.404E+03 -.195E+03 0.145E+04   -.404E+03 0.197E+03 -.145E+04   0.122E+00 -.791E+00 -.135E+01   0.703E-01 -.257E+00 0.197E+00
   0.450E+03 -.194E+03 -.160E+04   -.451E+03 0.195E+03 0.160E+04   0.492E+00 -.136E+01 0.858E+00   -.187E+00 0.793E-01 -.573E-01
   -.224E+02 -.134E+03 -.483E+04   0.238E+02 0.135E+03 0.484E+04   -.102E+01 -.157E+01 -.224E+01   -.715E-01 0.229E+00 -.784E-01
   0.487E+03 0.258E+03 0.459E+04   -.492E+03 -.257E+03 -.459E+04   0.487E+01 -.203E+01 0.252E+01   0.744E-01 -.238E+00 0.346E-01
   0.260E+03 0.816E+03 -.396E+04   -.263E+03 -.822E+03 0.396E+04   0.135E+01 0.481E+01 -.137E+00   0.183E+00 0.161E-01 -.188E-01
   -.268E+03 0.777E+03 0.522E+04   0.268E+03 -.776E+03 -.522E+04   0.448E+00 -.106E+01 0.909E+00   0.382E-01 0.727E-01 -.181E+00
   0.213E+02 0.945E+03 0.267E+04   -.216E+02 -.941E+03 -.267E+04   -.485E+00 -.374E+01 -.311E+01   0.817E-01 -.120E+00 0.299E-01
   -.193E+02 0.609E+03 -.501E+03   0.190E+02 -.609E+03 0.500E+03   0.243E-01 0.155E+00 0.765E+00   0.211E+00 0.114E-02 0.970E-01
   0.561E+01 0.405E+03 0.147E+04   -.585E+01 -.404E+03 -.147E+04   0.161E+00 -.274E+00 0.113E+01   0.206E+00 -.113E-01 0.198E+00
   0.128E+03 0.416E+03 -.149E+04   -.128E+03 -.418E+03 0.148E+04   0.518E+00 0.174E+01 0.259E+01   -.144E+00 -.620E-01 0.214E-02
   0.442E+03 0.545E+03 -.464E+04   -.445E+03 -.550E+03 0.464E+04   0.243E+01 0.399E+01 -.854E+00   -.231E+00 -.857E-01 -.872E-01
   -.310E+03 -.202E+02 0.484E+04   0.315E+03 0.142E+02 -.485E+04   -.239E+01 0.451E+01 0.441E+01   0.315E-01 0.279E-01 -.131E+00
   0.426E+03 0.279E+03 0.378E+04   -.430E+03 -.280E+03 -.378E+04   0.244E+01 0.176E+01 0.145E+01   0.990E-01 -.118E-01 -.517E-02
   -.256E+02 0.413E+03 0.452E+03   0.261E+02 -.414E+03 -.454E+03   -.230E+00 0.643E+00 0.132E+01   -.248E+00 0.232E+00 -.181E-01
   -.678E+03 0.169E+03 -.277E+04   0.681E+03 -.171E+03 0.277E+04   -.248E+01 0.141E+01 0.751E+00   0.300E-01 0.838E-01 0.670E-01
   -.704E+03 -.507E+03 -.439E+04   0.707E+03 0.512E+03 0.439E+04   -.234E+01 -.424E+01 0.958E+00   0.918E-01 -.708E-02 -.147E+00
   -.535E+03 -.398E+03 -.464E+04   0.540E+03 0.402E+03 0.464E+04   -.360E+01 -.273E+01 -.257E+01   0.179E+00 -.124E+00 -.691E-01
   -.280E+03 -.692E+02 0.444E+04   0.283E+03 0.683E+02 -.445E+04   -.347E+01 0.247E+00 0.395E+01   -.561E-01 0.317E+00 -.178E+00
   -.530E+03 -.201E+03 0.139E+04   0.531E+03 0.202E+03 -.139E+04   -.373E+00 -.455E+00 -.115E+01   0.447E-01 0.207E-02 -.141E-01
   -.593E+03 -.379E+03 -.162E+04   0.593E+03 0.380E+03 0.162E+04   0.178E-02 -.984E+00 0.147E+01   0.141E+00 -.160E+00 0.872E-01
   0.203E+03 -.280E+03 0.336E+04   -.204E+03 0.282E+03 -.336E+04   0.191E+01 -.187E+01 0.420E+01   0.356E+00 0.482E-01 0.224E+00
   -.315E+03 -.127E+03 0.275E+03   0.316E+03 0.126E+03 -.273E+03   -.287E+00 0.709E+00 -.125E+01   0.163E+00 0.115E+00 -.180E-01
   -.160E+03 -.496E+03 -.254E+04   0.161E+03 0.498E+03 0.254E+04   -.107E+01 -.204E+01 0.118E+01   -.163E+00 0.679E-01 -.130E+00
   0.331E+03 -.418E+03 -.549E+04   -.331E+03 0.420E+03 0.549E+04   0.993E+00 -.221E+01 -.489E+01   -.115E+00 -.122E-01 -.290E-02
   -.182E+02 0.144E+02 0.507E+04   0.217E+02 -.116E+02 -.508E+04   -.376E+01 -.337E+01 0.547E+01   0.653E-01 -.172E+00 -.920E-01
   -.546E+03 -.209E+03 0.242E+04   0.548E+03 0.209E+03 -.242E+04   -.838E+00 0.132E+00 -.995E+00   -.208E+00 -.203E+00 0.134E-01
   -.469E+03 -.281E+03 -.460E+03   0.470E+03 0.283E+03 0.460E+03   -.980E-01 -.141E+01 0.268E+00   -.268E+00 0.698E-02 0.737E-01
   -.569E+03 0.360E+03 -.389E+04   0.572E+03 -.360E+03 0.389E+04   -.199E+01 -.384E+00 0.249E+00   -.493E-01 -.371E-01 0.945E-01
   -.106E+03 0.704E+02 -.666E+03   0.107E+03 -.698E+02 0.661E+03   -.159E+01 -.651E+00 0.168E+01   0.956E-01 -.337E-01 0.315E-01
   -.851E+02 0.100E+03 -.189E+04   0.866E+02 -.101E+03 0.190E+04   -.526E+00 -.384E+00 -.174E+01   -.447E-01 0.727E-01 -.441E-01
   -.159E+03 0.233E+03 0.173E+04   0.160E+03 -.234E+03 -.174E+04   0.560E-01 -.942E-01 0.256E+01   -.318E-01 0.599E-01 -.193E-01
   -.141E+03 0.676E+02 0.477E+03   0.143E+03 -.673E+02 -.479E+03   -.164E+01 0.191E+00 0.245E+01   0.118E+00 -.699E-01 0.302E-01
   -.701E+02 0.563E+01 0.138E+04   0.723E+02 -.811E+01 -.138E+04   -.153E+01 0.131E+01 0.182E+01   0.849E-01 0.688E-01 0.136E+00
   -.908E+02 0.245E+02 0.974E+02   0.931E+02 -.258E+02 -.991E+02   -.200E+01 0.111E+01 0.138E+01   -.108E+00 0.701E-01 -.102E-02
   0.173E+02 0.838E+02 -.957E+03   -.169E+02 -.840E+02 0.950E+03   0.506E+00 0.830E+00 0.358E+01   -.230E-01 -.621E-01 -.572E-01
   0.492E+02 0.213E+03 -.219E+04   -.488E+02 -.215E+03 0.219E+04   -.394E+00 0.137E+01 -.229E+01   -.116E+00 -.252E-01 0.646E-01
   -.671E+02 -.391E+03 0.189E+04   0.665E+02 0.395E+03 -.189E+04   0.895E+00 -.227E+01 0.397E+01   0.102E+00 0.118E+00 -.431E-01
   -.964E+02 -.123E+02 0.212E+04   0.959E+02 0.127E+02 -.213E+04   0.729E+00 0.299E+00 0.232E+01   0.256E-01 -.136E+00 -.204E-01
   -.238E+03 -.598E+02 0.730E+03   0.240E+03 0.598E+02 -.728E+03   -.819E+00 0.123E+00 -.258E+00   -.108E+00 -.879E-02 -.130E+00
   -.226E+03 0.980E+02 -.365E+03   0.228E+03 -.985E+02 0.363E+03   -.112E+01 -.701E-01 -.246E+00   -.354E-01 0.370E-01 0.490E-01
   0.242E+03 -.407E+02 0.196E+04   -.246E+03 0.417E+02 -.196E+04   0.228E+01 -.126E+01 0.393E+01   0.125E+00 0.920E-01 -.197E-01
   0.904E+02 -.152E+03 0.613E+03   -.915E+02 0.153E+03 -.611E+03   -.815E-01 -.147E+01 0.284E+00   0.119E-01 0.101E+00 -.717E-01
   -.983E+02 -.190E+03 -.414E+03   0.982E+02 0.192E+03 0.413E+03   0.170E+00 -.204E+01 0.474E+00   0.204E-01 -.547E-01 0.548E-01
   -.369E+03 -.305E+03 -.175E+04   0.371E+03 0.311E+03 0.175E+04   -.126E+01 -.405E+01 -.266E+01   0.120E+00 0.573E-02 -.567E-01
   0.108E+03 -.208E+03 0.348E+03   -.109E+03 0.211E+03 -.348E+03   0.498E+00 -.258E+01 0.453E+00   0.182E+00 -.300E-02 0.278E-01
   0.100E+03 -.201E+03 -.962E+03   -.100E+03 0.203E+03 0.963E+03   0.174E-01 -.224E+01 -.144E+01   0.461E-01 0.311E-01 -.846E-02
   0.308E+03 -.269E+03 -.208E+04   -.309E+03 0.272E+03 0.208E+04   0.437E+00 -.157E+01 -.147E+01   -.111E+00 0.359E-01 0.246E-02
   0.320E+02 -.140E+03 0.101E+04   -.313E+02 0.141E+03 -.100E+04   -.264E+00 -.339E+00 -.175E-01   0.596E-01 -.775E-01 0.106E+00
   0.200E+02 -.166E+03 -.770E+02   -.198E+02 0.169E+03 0.783E+02   -.915E-01 -.253E+01 -.160E+01   -.121E+00 -.755E-01 0.170E-01
   0.107E+02 -.126E+03 -.136E+04   -.953E+01 0.128E+03 0.136E+04   -.145E+01 -.508E+00 -.602E+00   -.870E-01 0.631E-02 -.200E-01
   0.680E+02 -.904E+02 0.206E+04   -.699E+02 0.925E+02 -.207E+04   0.154E+01 -.169E+01 0.413E+01   0.516E-01 -.475E-01 -.118E+00
   0.841E+02 -.101E+03 0.220E+04   -.839E+02 0.103E+03 -.221E+04   -.219E+00 -.162E+01 0.119E+01   -.331E-01 0.469E-02 -.995E-01
   0.929E+02 0.199E+03 0.110E+04   -.945E+02 -.200E+03 -.110E+04   0.167E+01 0.639E+00 -.204E+00   -.673E-01 -.481E-01 -.264E-02
   0.165E+03 0.141E+03 0.511E+02   -.168E+03 -.142E+03 -.511E+02   0.241E+01 0.111E+01 0.383E+00   -.489E-02 -.811E-02 0.646E-01
   0.659E+02 0.312E+03 -.121E+04   -.688E+02 -.314E+03 0.121E+04   0.248E+01 0.151E+01 -.536E+00   0.350E-01 -.589E-01 -.492E-01
   -.169E+02 0.202E+03 -.224E+04   0.169E+02 -.204E+03 0.224E+04   -.403E+00 0.133E+01 -.305E+01   0.156E+00 -.783E-01 0.914E-02
   0.205E+03 0.477E+02 -.428E+03   -.207E+03 -.492E+02 0.428E+03   0.118E+01 0.136E+01 -.123E+01   0.590E-01 -.502E-01 0.327E-01
   0.254E+03 -.158E+02 -.166E+04   -.255E+03 0.155E+02 0.166E+04   -.217E+00 0.140E+00 -.684E+00   -.303E-01 -.517E-01 -.300E-02
   -.921E+02 -.389E+02 0.207E+04   0.914E+02 0.384E+02 -.207E+04   0.506E+00 -.192E+00 0.275E+01   -.273E+00 0.114E+00 -.840E-01
   0.837E+02 0.104E+03 0.730E+03   -.856E+02 -.106E+03 -.731E+03   0.197E+01 0.234E+00 0.236E+01   -.245E-02 -.738E-01 0.570E-01
   0.278E+03 0.601E+02 0.189E+04   -.279E+03 -.609E+02 -.190E+04   0.135E+00 0.283E+00 0.175E+01   0.519E-01 -.102E+00 0.936E-01
   0.873E+02 0.672E+02 0.313E+03   -.872E+02 -.679E+02 -.311E+03   0.217E-01 0.349E+00 -.105E+01   -.522E-01 0.684E-01 0.337E-01
   0.206E+03 0.437E+02 -.753E+03   -.210E+03 -.453E+02 0.751E+03   0.184E+01 0.162E+01 0.137E+00   -.483E-01 0.130E+00 -.413E-01
   -.127E+03 -.248E+03 -.205E+04   0.128E+03 0.248E+03 0.206E+04   0.135E+00 0.779E+00 -.290E+01   0.418E-01 0.519E-01 0.309E-01
   -.511E+01 0.284E+02 -.334E+02   -.568E-13 -.995E-12 -.318E-11   0.490E+01 -.284E+02 0.337E+02   0.303E+00 0.638E-01 -.310E+00

 POSITION                                       TOTAL-FORCE (eV/Angst)
      6.45801      7.08167      1.95077         0.079967      1.387307      1.783823
      7.43572      5.66537      4.57627        -0.144889      0.354983      0.367578
      8.41343      4.24907      7.20177        -0.215282     -0.737963     -1.340993
      8.68872      3.36703      9.46998        -0.807142      0.400837      0.842625
      5.82255      0.75759      1.43658         0.865213      0.288174     -0.610321
      7.85315      0.11003      2.98277        -1.129221      1.382302      0.299369
      3.23530      6.92916      7.82675        -0.871922     -0.539180      0.865596
     12.31264      8.33497      5.45144        -0.178118     -0.054102      0.288537
      2.55881      2.99577      3.70110         0.395649      0.477903      1.516950
      3.53652      1.57947      6.32660         0.082545     -0.102106     -0.169562
      4.30008      0.33224      8.68696         0.304887     -0.163740      1.072072
     11.69227      4.51381      1.57872        -0.791518     -0.621390     -0.981205
      0.51382      1.09100      8.43993        -0.850185     -1.282271     -1.883923
      7.78478      5.29671      1.02544         0.533103     -0.729911     -1.192648
      8.72261      3.98503      3.46665        -0.743301     -0.376616     -1.336321
      9.61584      2.50729      5.81443        -0.012758     -0.129390     -0.057367
      3.43531      6.59319      4.06409         0.126733      0.271837      0.100701
      4.41302      5.17689      6.68959         0.494449     -0.364059     -1.704951
      5.22921      3.90985      8.94613        -0.361373     -0.502922      0.553001
     12.53733      8.00949      1.43859         2.301580     -1.463348      0.448136
      3.76121      1.25399      2.31376        -1.270236      0.601331      0.960320
      8.31222      9.26279      4.93926         0.035577     -0.189476     -0.066577
      9.15323      7.97418      7.32303         0.947256     -0.911803      0.287641
      8.50973      5.99666      8.68592         0.306169      0.036362      0.625563
      1.63547      3.26661      8.88875         1.738803      1.756957      0.699163
      9.10228      7.38579      1.69004         0.170595     -0.348130     -0.587357
      9.84053      6.03956      3.88260         0.373634      0.678041      0.281036
     10.81824      4.62327      6.50810        -0.004691     -0.171271     -0.037438
      1.00148      0.75187      2.88185         0.497991      0.296580      0.103631
      4.63771      8.70917      4.75776         0.056369     -0.755038      0.768572
      5.61542      7.29287      7.38327         0.462632      0.122004     -1.494567
      6.36800      6.17098      9.68844         0.040674      0.181717      0.670760
      4.44414      4.85239      0.96477        -0.240745     -0.753411     -0.779409
      4.96362      3.36996      3.00743         0.304668      0.142737      1.695097
      5.94133      1.95367      5.63293         0.178230      0.044396     -0.015257
      6.87285      0.80686      7.88299         0.610487     -0.372657      0.825439
      1.57981      2.47018      7.00134        -0.562138     -0.052039     -2.773384
      2.49764      1.30516      9.11964         0.860536     -0.710095      2.342703
      9.70412      5.30277      1.75033         0.998368     -1.192009     -0.145817
     10.68183      3.88647      4.37584         0.343173      0.428900      0.742292
      4.50130      7.97237      2.62550         0.755584     -1.111310     -0.476034
      5.47901      6.55607      5.25100         0.222955     -0.115701     -0.253786
      6.45673      5.13978      7.87651         0.832212      0.576798     -2.928109
      6.91512      4.22114     10.21007        -0.110330     -1.205734      2.417906
      9.38849      0.58698      1.65878         0.394055      2.539362     -2.262935
      4.82928      2.64115      1.09218         0.258292      0.629102     -3.354264
      5.80492      1.21687      3.50067         0.848169      0.064714      1.360477
     10.35593      9.22568      6.12617         0.569963     -0.582065     -1.351563
      7.66399      8.88156      1.25410        -1.437259     -0.145566     -2.098004
      8.17302      7.52069      3.51693        -1.098874     -0.301409      2.580888
      9.15074      6.10439      6.14243         0.074716      0.148739     -0.237526
     10.12845      4.68809      8.76794         1.105473      1.779368     -0.557009
      9.47664      0.76519      4.39210        -0.644749      0.623662      1.402678
      3.94792      8.77399      7.01760        -0.128910      0.415975     -0.714352
      4.68955      7.23940      9.24190        -1.109785      1.992229      2.997862
      3.29611      4.85108      2.64176         0.587931      0.651704      3.168309
      4.27382      3.43479      5.26727        -0.028737      0.194882     -0.234102
      5.25153      2.01849      7.89277        -0.400684      1.734314      0.064722
      2.68563      6.06054      0.59824        -0.294271      0.383363     -1.870903
      6.00001      6.00591      0.28534        -0.043986      0.307115     -3.522869
      6.64193      4.82628      2.63363         0.012738     -0.775063      2.405003
      7.61964      3.40999      5.25914        -0.178520     -0.090146      0.481192
      8.59735      1.99369      7.88464        -0.365091     -1.183896     -0.557759
     10.32153      2.27288     10.09024        -0.230406     -0.419380      3.553510
      2.41682      6.07959      6.13430        -0.891063     -0.162611     -1.416479
      3.34750      4.72136      8.44199        -1.169765     -0.254374      1.940705
     10.64953      8.64175      1.04331        -0.439606     -0.573563     -2.531196
     11.51884      7.49589      3.50880        -0.000648     -1.615573      1.677948
      1.93489      2.36000      1.85067        -1.366668     -0.603275     -2.284943
      2.74272      0.74039      4.38397         0.094525     -0.305778      0.271886
      7.29374      8.74919      7.00947        -2.066095      0.160818     -2.662742
      7.84131      7.76115      9.42299         1.323070      0.913859      2.027978
    total drift:                                0.085348      0.048007     -0.030816

  FREE ENERGIE OF THE ION-ELECTRON SYSTEM (eV)
  free  energy   TOTEN  =      -352.28297242 eV

  energy  without entropy=     -351.38198914  energy(sigma->0) =     -351.83248078