 vasp.5.4.4.18Apr17-6-g9f103f2a35 (build Aug 13 2019 17:33:20) gamma-only

 executed on             LinuxIFC date 2020.05.12  19:35:14

 INCAR:
 POTCAR:    PAW_PBE Ni_pv 06Sep2000
 POTCAR:    PAW_PBE S 06Sep2000
 POTCAR:    PAW_PBE Ni_pv 06Sep2000
   VRHFIN =Ni:

   TITEL  = PAW_PBE Ni_pv 06Sep2000
   POMASS =   58.690; ZVAL   =   16.000    mass and valenz
   ENMAX  =  367.986; ENMIN  =  275.989 eV

 POTCAR:    PAW_PBE S 06Sep2000
   VRHFIN =S : s2p4

   TITEL  = PAW_PBE S 06Sep2000
   POMASS =   32.066; ZVAL   =    6.000    mass and valenz
   ENMAX  =  258.689; ENMIN  =  194.016 eV

 Optimization of the real space projectors (new method)

 maximal supplied QI-value         = 18.90
 optimisation between [QCUT,QGAM] = [ 10.77, 21.73] = [ 32.49,132.25] Ry
 Optimized for a Real-space Cutoff    1.38 Angstroem

   l    n(q)    QCUT    max X(q) W(low)/X(q) W(high)/X(q)  e(spline)
   1      8    10.771     2.836    0.40E-04    0.29E-04    0.12E-06
   1      8    10.771     4.023    0.10E-03    0.48E-04    0.29E-06
   2      8    10.771    73.368    0.42E-03    0.97E-04    0.44E-06
   2      8    10.771    69.010    0.42E-03    0.99E-04    0.45E-06
   0      9    10.771    54.797    0.10E-03    0.56E-04    0.74E-07
   0      9    10.771    24.266    0.89E-04    0.49E-04    0.67E-07
 Optimization of the real space projectors (new method)

 maximal supplied QI-value         = 19.84
 optimisation between [QCUT,QGAM] = [ 10.71, 21.63] = [ 32.15,130.99] Ry
 Optimized for a Real-space Cutoff    1.19 Angstroem

   l    n(q)    QCUT    max X(q) W(low)/X(q) W(high)/X(q)  e(spline)
   0      8    10.715   187.594    0.41E-03    0.53E-04    0.66E-07
   0      8    10.715   164.243    0.41E-03    0.53E-04    0.65E-07
   1      7    10.715    67.533    0.19E-03    0.59E-03    0.68E-07
   1      7    10.715    50.729    0.19E-03    0.58E-03    0.67E-07
  PAW_PBE Ni_pv 06Sep2000               :
  PAW_PBE S 06Sep2000                   :

 POSCAR: Type_036 Type_136
  positions in cartesian coordinates
 exchange correlation table for  LEXCH =        8
   RHO(1)=    0.500       N(1)  =     2000
   RHO(2)=  100.500       N(2)  =     4000

 ion  position               nearest neighbor table
   1  0.251  0.952  0.071-  41 2.04  49 2.06  61 2.08  42 2.09   2 2.47
   2  0.419  0.776  0.144-  49 2.07  62 2.11  50 2.20  61 2.29  42 2.37   1 2.47
   3  0.547  0.645  0.254-  50 2.08  43 2.25  62 2.26  63 2.36  51 2.36  27 2.53  14 2.53
   4  0.698  0.494  0.381-  64 2.07  52 2.24  44 2.25  51 2.26  63 2.26  15 2.53  28 2.53
   5  0.114  0.412  0.169-  53 2.12  45 2.25  68 2.26   8 2.28  65 2.36  54 2.36  29 2.53  17 2.53

   6  0.264  0.261  0.296-  46 2.25  65 2.26  54 2.26  55 2.36  66 2.36  18 2.53  30 2.53
   7  0.414  0.111  0.423-  56 2.10  67 2.14  55 2.26  66 2.26  47 2.30  31 2.53  19 2.53
   8  0.979  0.595  0.105-  48 1.98  45 2.12  68 2.19  53 2.24   5 2.28  21 2.44
   9  0.096  0.789  0.451-  58 2.04  59 2.07  72 2.10  37 2.12
  10  0.648  0.226  0.147-  38 2.09  70 2.10  69 2.24  39 2.27  14 2.49  36 2.50
  11  0.831  0.028  0.212-  39 2.25  60 2.26  70 2.26  57 2.36  71 2.36  24 2.53  33 2.53
  12  0.981  0.878  0.338-  40 2.25  57 2.26  71 2.26  58 2.36  72 2.36  34 2.53  25 2.53
  13  0.352  0.553  0.114-  62 2.03  53 2.11  38 2.12  61 2.14
  14  0.508  0.420  0.220-  38 2.10  54 2.25  62 2.26  39 2.36  63 2.36  10 2.49  27 2.53   3 2.53

[...]

  20  0.432  0.720  0.472-  59 2.03  44 2.11  67 2.12  19 2.31
  21  0.067  0.370  0.047-  41 2.02  68 2.04  53 2.06   8 2.44  29 2.54
  22  0.080  0.507  0.417-  46 2.01  47 2.16  72 2.17  52 2.18
  23  0.485  0.993  0.098-  49 2.05  70 2.09  69 2.12  42 2.17  29 2.44
  24  0.791  0.804  0.178-  50 2.18  70 2.26  48 2.26  71 2.36  45 2.36  11 2.53  33 2.53
  25  0.941  0.653  0.305-  51 2.25  71 2.26  45 2.26  46 2.36  72 2.36  34 2.53  12 2.53
  26  0.019  0.179  0.421-  40 2.03  52 2.12  37 2.12  66 2.13
  27  0.732  0.460  0.187-  38 2.10  50 2.18  68 2.25  51 2.36  39 2.36  14 2.53   3 2.53
  28  0.882  0.310  0.314-  52 2.11  65 2.25  39 2.26  51 2.26  40 2.36   4 2.53  15 2.53
  29  0.299  0.227  0.102-  41 2.13  69 2.16  53 2.24  54 2.36  42 2.36  23 2.44   5 2.53  17 2.53
                            21 2.54
  30  0.449  0.076  0.229-  70 2.25  42 2.26  54 2.26  55 2.36  43 2.36  18 2.53   6 2.53
  31  0.599  0.926  0.356-  56 2.16  71 2.25  55 2.26  43 2.26  44 2.36  32 2.42   7 2.53  19 2.53

  32  0.734  0.819  0.451-  56 2.04  44 2.05  72 2.06  31 2.42
  33  0.015  0.843  0.144-  61 2.14  48 2.26  60 2.26  45 2.36  57 2.36  24 2.53  11 2.53
  34  0.166  0.693  0.271-  62 2.25  57 2.26  45 2.26  46 2.36  58 2.36  12 2.53  25 2.53
  35  0.316  0.543  0.398-  59 2.06  47 2.14  63 2.25  58 2.26  46 2.26
  36  0.766  0.003  0.084-  70 2.03  48 2.04  60 2.05  10 2.50  69 2.57
  37  0.012  0.005  0.478-  16 2.09   9 2.12  26 2.12  40 2.57
  38  0.573  0.442  0.126-  10 2.09  14 2.10  27 2.10  13 2.12
  39  0.736  0.256  0.244-  11 2.25  28 2.26  15 2.26  10 2.27  14 2.36  27 2.36
  40  0.886  0.105  0.371-  16 2.02  26 2.03  12 2.25  15 2.36  28 2.36  37 2.57  64 2.79
  41  0.167  0.157  0.041-  21 2.02   1 2.04  29 2.13  17 2.15
  42  0.303  0.023  0.160-   1 2.09  23 2.17  30 2.26  18 2.26  17 2.36  29 2.36   2 2.37
  43  0.453  0.872  0.286-   3 2.25  19 2.26  31 2.26  18 2.36  30 2.36
  44  0.603  0.722  0.413-  32 2.05  20 2.11   4 2.25  31 2.36  19 2.36  67 2.76
  45  0.019  0.639  0.202-   8 2.12   5 2.25  25 2.26  34 2.26  24 2.36  33 2.36
  46  0.170  0.489  0.329-  22 2.01   6 2.25  35 2.26  34 2.36  25 2.36  47 2.56
  47  0.290  0.351  0.430-  35 2.14  22 2.16   7 2.30  46 2.56
  48  0.869  0.789  0.075-   8 1.98  36 2.04  33 2.26  24 2.26
  49  0.458  0.826  0.050-  23 2.05   1 2.06   2 2.07
  50  0.644  0.688  0.172-   3 2.08  27 2.18  24 2.18   2 2.20
  51  0.787  0.542  0.287-  25 2.25   4 2.26  28 2.26  27 2.36   3 2.36
  52  0.931  0.398  0.399-  28 2.11  26 2.12  22 2.18   4 2.24
  53  0.204  0.461  0.084-  21 2.06  13 2.11   5 2.12   8 2.24  29 2.24
  54  0.353  0.308  0.202-  14 2.25   6 2.26  30 2.26  29 2.36   5 2.36
  55  0.503  0.158  0.329-  15 2.25   7 2.26  31 2.26   6 2.36  30 2.36  56 2.75
  56  0.634  0.033  0.442-  32 2.04   7 2.10  16 2.12  31 2.16  55 2.75
  57  0.070  0.925  0.245-  18 2.25  34 2.26  12 2.26  11 2.36  33 2.36
  58  0.220  0.775  0.372-   9 2.04  19 2.25  35 2.26  34 2.36  12 2.36  59 2.73
  59  0.279  0.638  0.488-  20 2.03  35 2.06   9 2.07  58 2.73
  60  0.920  0.075  0.118-  36 2.05  17 2.25  11 2.26  33 2.26
  61  0.217  0.767  0.097-   1 2.08  33 2.14  13 2.14   2 2.29  62 2.64
  62  0.350  0.641  0.203-  13 2.03   2 2.11  34 2.25  14 2.26   3 2.26  61 2.64
  63  0.501  0.491  0.330-  35 2.25   4 2.26  15 2.26   3 2.36  14 2.36
  64  0.691  0.329  0.439-  15 2.05   4 2.07  16 2.09  40 2.79
  65  0.067  0.258  0.245-  28 2.25   6 2.26  18 2.26   5 2.36  17 2.36
  66  0.218  0.108  0.372-  26 2.13  19 2.26   7 2.26  18 2.36   6 2.36
  67  0.405  0.938  0.481-  19 2.01  20 2.12   7 2.14  44 2.76
  68  0.917  0.408  0.118-  21 2.04   8 2.19  27 2.25  17 2.26   5 2.26
  69  0.513  0.183  0.069-  23 2.12  29 2.16  10 2.24  70 2.49  36 2.57
  70  0.634  0.025  0.160-  36 2.03  23 2.09  10 2.10  30 2.25  11 2.26  24 2.26  69 2.49
  71  0.784  0.874  0.287-  31 2.25  25 2.26  12 2.26  24 2.36  11 2.36
  72  0.934  0.724  0.414-  32 2.06   9 2.10  22 2.17  12 2.36  25 2.36

  LATTYP: Found a base centered orthorhombic cell.
 ALAT       =    11.4527836704
 B/A-ratio  =     1.4485816945
 C/A-ratio  =     1.8059804630

  Lattice vectors:

 A1 = (  10.0797329849,   0.0000000000,   0.0000000000)
 A2 = (  -3.5732980427,  -9.4251025535,   0.0000000000)
 A3 = (   0.0000000000,   0.0000000000, -20.6835035552)

Analysis of symmetry for initial positions (statically):
 Subroutine PRICEL returns:
 Original cell was already a primitive cell.

 Routine SETGRP: Setting up the symmetry group for a
 base centered orthorhombic supercell.

 Subroutine GETGRP returns: Found  1 space group operations
 (whereof  1 operations were pure point group operations)
 out of a pool of  8 trial point group operations.

The static configuration has the point symmetry C_1 .

Analysis of symmetry for dynamics (positions and initial velocities):
 Subroutine PRICEL returns:
 Original cell was already a primitive cell.

 Routine SETGRP: Setting up the symmetry group for a
 base centered orthorhombic supercell.

 Subroutine GETGRP returns: Found  1 space group operations
 (whereof  1 operations were pure point group operations)
 out of a pool of  8 trial point group operations.

The dynamic configuration has the point symmetry C_1 .

 Subroutine INISYM returns: Found  1 space group operations
 (whereof  1 operations are pure point group operations),
 and found     1 'primitive' translations

 KPOINTS: gamma-point-only calculation. no periodi

Automatic generation of k-mesh.
Space group operators:
 irot       det(A)        alpha          n_x          n_y          n_z        tau_x        tau_y        tau_z
    1     1.000000     0.000000     1.000000     0.000000     0.000000     0.000000     0.000000     0.000000

 Subroutine IBZKPT returns following result:

 Found      1 irreducible k-points:

 Following reciprocal coordinates:
            Coordinates               Weight
  0.000000  0.000000  0.000000      1.000000

 Following cartesian coordinates:
            Coordinates               Weight
  0.000000  0.000000  0.000000      1.000000

 SYSTEM =  "Millerite NiS"
 POSCAR =  Type_036 Type_136

 Startparameter for this run:
   NWRITE =      2    write-flag & timer
   PREC   = normal    normal or accurate (medium, high low for compatibility)
   ISTART =      0    job   : 0-new  1-cont  2-samecut
   ICHARG =      2    charge: 1-file 2-atom 10-const
   ISPIN  =      1    spin polarized calculation?
   LNONCOLLINEAR =      F non collinear calculations
   LSORBIT =      F    spin-orbit coupling
   INIWAV =      1    electr: 0-lowe 1-rand  2-diag
   LASPH  =      F    aspherical Exc in radial PAW
   METAGGA=      F    non-selfconsistent MetaGGA calc.

 Electronic Relaxation 1
   ENCUT  =  450.0 eV  33.07 Ry    5.75 a.u.  17.43 17.43 35.78*2*pi/ulx,y,z
   ENINI  =  450.0     initial cutoff
   ENAUG  =  703.4 eV  augmentation charge cutoff
   NELM   =    100;   NELMIN=  2; NELMDL= -5     # of ELM steps
   EDIFF  = 0.1E-03   stopping-criterion for ELM
   LREAL  =      T    real-space projection
   NLSPLINE    = F    spline interpolate recip. space projectors
   LCOMPAT=      F    compatible to vasp.4.4
   GGA_COMPAT  = T    GGA compatible to vasp.4.4-vasp.4.6
   LMAXPAW     = -100 max onsite density
   LMAXMIX     =    2 max onsite mixed and CHGCAR
   VOSKOWN=      0    Vosko Wilk Nusair interpolation
   ROPT   =   -0.00050  -0.00050
 Ionic relaxation
   EDIFFG = 0.1E-02   stopping-criterion for IOM
   NSW    =      0    number of steps for IOM
   NBLOCK =      1;   KBLOCK =      1    inner block; outer block
   IBRION =     -1    ionic relax: 0-MD 1-quasi-New 2-CG
   NFREE  =      0    steps in history (QN), initial steepest desc. (CG)
   ISIF   =      2    stress and relaxation
   IWAVPR =     10    prediction:  0-non 1-charg 2-wave 3-comb
[...]
  Fock        0.00000     0.00000     0.00000     0.00000     0.00000     0.00000
  Total      82.32930    87.09638   101.58178    -0.04021    -1.43026    -0.28831
  in kB      67.12832    71.01523    82.82609    -0.03278    -1.16619    -0.23508

 VOLUME and BASIS-vectors are now :
  energy-cutoff  :      450.00
  volume of cell :     1964.98
      direct lattice vectors                 reciprocal lattice vectors
    10.079732985  0.000000000  0.000000000     0.099208977 -0.037612667  0.000000000
     3.573298043  9.425102554  0.000000000     0.000000000  0.106099641  0.000000000
     0.000000000  0.000000000 20.683503555     0.000000000  0.000000000  0.048347708

  length of vectors
    10.079732985 10.079732985 20.683503555     0.106099641  0.106099641  0.048347708

 FORCES acting on ions
    electron-ion (+dipol)            ewald-force                    non-local-force                 convergence-correction
   0.573E+03 0.313E+03 0.523E+04   -.577E+03 -.315E+03 -.524E+04   0.279E+01 0.159E+01 0.735E+01   0.461E-01 0.762E-03 -.136E+00
   -.197E+03 0.354E+03 0.305E+04   0.200E+03 -.356E+03 -.305E+04   -.371E+01 0.186E+01 -.277E+00   0.894E-01 0.811E-01 0.980E-01
   -.632E+02 -.295E+03 -.194E+03   0.628E+02 0.297E+03 0.196E+03   0.678E-01 -.170E+01 -.148E+01   0.128E+00 0.293E-01 0.409E+00
   -.664E+02 -.376E+03 -.360E+04   0.668E+02 0.380E+03 0.361E+04   0.113E+00 -.307E+01 -.216E+01   -.303E-01 0.895E-01 0.874E-01
   0.408E+01 -.242E+03 0.164E+04   -.369E+01 0.240E+03 -.163E+04   -.179E+00 0.704E+00 -.361E+01   -.350E-01 0.433E-01 0.231E+00
   -.906E+01 -.461E+03 -.134E+04   0.866E+01 0.461E+03 0.134E+04   0.319E+00 -.110E+01 0.103E+01   0.755E-01 -.846E-01 0.234E+00
   0.540E+02 -.761E+03 -.459E+04   -.557E+02 0.764E+03 0.459E+04   0.874E+00 -.150E+01 -.235E+01   0.111E+00 -.202E+00 0.777E-01
   0.405E+03 -.378E+03 0.449E+04   -.408E+03 0.377E+03 -.449E+04   0.249E+01 0.622E+00 0.426E+01   -.597E-01 0.704E-01 0.162E-02
   0.123E+03 -.837E+02 -.505E+04   -.123E+03 0.873E+02 0.506E+04   -.136E+00 -.315E+01 -.318E+01   0.786E-01 -.159E+00 0.316E+00
   -.246E+03 -.373E+03 0.346E+04   0.244E+03 0.377E+03 -.347E+04   0.179E+01 -.415E+01 0.310E+01   0.968E-02 -.413E-01 0.897E-01
   -.226E+03 -.314E+03 0.796E+03   0.230E+03 0.314E+03 -.792E+03   -.310E+01 -.962E-01 -.297E+01   -.123E+00 0.743E-01 0.956E-01
   0.214E+01 -.430E+03 -.207E+04   -.237E+01 0.432E+03 0.207E+04   0.575E+00 -.169E+01 0.141E+01   -.212E+00 -.931E-01 0.116E+00
   -.127E+03 0.108E+03 0.443E+04   0.126E+03 -.110E+03 -.443E+04   0.162E+01 0.213E+01 0.342E+01   0.187E-01 -.840E-02 -.437E-01
   0.349E+03 0.745E+02 0.768E+03   -.352E+03 -.744E+02 -.765E+03   0.194E+01 0.271E+00 -.197E+01   0.686E-01 -.167E-01 0.353E+00
   0.478E+03 0.144E+03 -.234E+04   -.482E+03 -.144E+03 0.234E+04   0.352E+01 0.489E-01 -.381E+00   -.608E-02 0.108E+00 0.171E+00
   0.238E+03 -.178E+03 -.522E+04   -.240E+03 0.175E+03 0.523E+04   0.148E+01 0.279E+01 -.257E+01   -.292E+00 0.112E+00 0.122E+00
   0.889E+03 0.195E+03 0.301E+04   -.892E+03 -.194E+03 -.301E+04   0.251E+01 -.135E+01 -.832E+00   -.457E-01 -.685E-01 0.697E-01
   0.463E+03 0.272E+03 -.245E+03   -.465E+03 -.272E+03 0.246E+03   0.149E+01 -.552E-01 -.109E+01   0.237E+00 0.473E-01 0.217E+00
   0.375E+03 0.363E+02 -.303E+04   -.378E+03 -.362E+02 0.302E+04   0.211E+01 0.577E+00 0.724E+00   0.339E+00 -.108E+00 0.216E+00
   -.208E+03 0.515E+03 -.532E+04   0.204E+03 -.516E+03 0.532E+04   0.522E+01 0.615E+00 -.201E+01   0.266E+00 0.102E+00 -.457E-01
   0.547E+03 -.313E+03 0.591E+04   -.550E+03 0.314E+03 -.592E+04   0.238E+01 -.287E+00 0.441E+01   -.333E-01 0.109E-01 -.128E+00
   0.379E+03 0.397E+03 -.451E+04   -.382E+03 -.399E+03 0.451E+04   0.281E+01 0.137E+01 -.627E-01   -.147E+00 -.236E-01 0.661E-01
   -.471E+03 0.420E+03 0.457E+04   0.473E+03 -.423E+03 -.458E+04   -.148E+01 0.293E+01 0.773E+01   0.348E-01 -.725E-01 -.696E-02
   0.541E+03 0.394E+03 0.208E+04   -.543E+03 -.395E+03 -.208E+04   0.258E+01 0.103E+01 -.166E+01   -.104E+00 -.560E-01 0.169E+00
   0.459E+03 0.355E+03 -.119E+04   -.460E+03 -.355E+03 0.119E+04   0.130E+01 -.290E+00 0.501E+00   -.349E+00 -.249E+00 0.156E+00
   -.483E+03 -.247E+03 -.444E+04   0.489E+03 0.247E+03 0.444E+04   -.507E+01 -.241E+00 -.566E-01   0.511E-01 0.190E+00 0.717E-01
   -.471E+03 0.365E+02 0.241E+04   0.473E+03 -.349E+02 -.241E+04   -.159E+01 -.121E+01 0.120E+01   0.459E-01 0.532E-01 0.280E+00
   -.379E+03 0.865E+02 -.114E+04   0.382E+03 -.869E+02 0.114E+04   -.280E+01 0.709E-01 0.222E+01   -.135E+00 0.165E+00 0.202E+00
   -.577E+03 -.220E+03 0.429E+04   0.581E+03 0.222E+03 -.429E+04   -.246E+01 -.107E+01 0.215E+01   0.514E-01 -.107E+00 0.336E-02
   -.391E+03 0.146E+03 0.610E+03   0.391E+03 -.144E+03 -.607E+03   -.133E+00 -.176E+01 -.254E+01   -.757E-02 -.508E-01 0.322E+00
   -.301E+03 0.122E+03 -.207E+04   0.303E+03 -.122E+03 0.206E+04   -.207E+01 0.113E+01 0.250E+01   -.123E+00 -.141E+00 0.410E+00
   -.175E+03 0.409E+03 -.512E+04   0.176E+03 -.411E+03 0.512E+04   -.292E+00 0.112E+01 0.220E+01   -.293E+00 -.417E-01 0.873E-01
   -.488E+03 0.494E+02 0.332E+04   0.491E+03 -.487E+02 -.332E+04   -.354E+01 -.713E+00 0.142E+01   -.435E-01 0.580E-02 0.221E-02
   -.447E+03 0.203E+03 -.147E+03   0.448E+03 -.202E+03 0.146E+03   -.610E+00 -.910E+00 0.310E+00   0.573E-01 -.244E+00 0.981E-01
   -.376E+03 0.491E+03 -.351E+04   0.380E+03 -.493E+03 0.351E+04   -.449E+01 0.269E+01 -.158E+01   0.244E+00 -.701E-01 0.117E+00
   -.134E+03 -.118E+03 0.545E+04   0.137E+03 0.118E+03 -.545E+04   -.361E+01 -.281E+00 0.576E+01   -.543E-01 -.436E-01 -.102E+00
   -.142E+03 -.200E+02 -.210E+04   0.143E+03 0.190E+02 0.210E+04   -.216E+00 0.632E+00 -.172E+01   0.884E-02 0.488E-01 0.118E+00
   -.167E+03 -.869E+02 0.184E+04   0.168E+03 0.877E+02 -.184E+04   -.130E+01 -.114E+01 0.212E+01   0.218E-01 0.152E-01 -.613E-02
   -.811E+02 0.724E+02 0.142E+03   0.817E+02 -.732E+02 -.141E+03   -.497E+00 0.365E+00 -.148E+01   0.861E-02 0.487E-01 0.171E+00
   0.100E+02 0.841E+02 -.889E+03   -.109E+02 -.869E+02 0.883E+03   0.293E+00 0.142E+01 0.198E+01   -.732E-01 0.208E+00 0.400E-01
   0.181E+03 0.106E+03 0.232E+04   -.181E+03 -.107E+03 -.233E+04   0.374E-02 0.887E+00 0.176E+01   -.126E-01 -.555E-01 -.829E-01
   0.118E+03 0.103E+03 0.806E+03   -.120E+03 -.103E+03 -.802E+03   0.105E+01 0.110E+01 -.112E+01   0.352E-01 -.186E-01 0.530E-01
   0.103E+02 0.139E+03 -.179E+03   -.107E+02 -.141E+03 0.177E+03   0.293E+00 0.213E+01 0.123E+01   0.526E-01 0.162E-02 0.149E+00
   -.844E+02 0.255E+03 -.142E+04   0.857E+02 -.257E+03 0.143E+04   -.120E+01 0.451E+00 -.128E+01   0.591E-01 0.840E-01 0.894E-01
   -.818E+01 0.818E+02 0.489E+03   0.956E+01 -.825E+02 -.487E+03   -.101E+01 0.929E+00 -.706E+00   -.669E-01 -.835E-02 0.113E+00
   -.320E+02 0.148E+03 -.539E+03   0.321E+02 -.149E+03 0.534E+03   0.596E+00 0.137E+01 0.187E+01   -.319E-01 -.439E-01 0.361E-01
   -.457E+02 0.153E+03 -.180E+04   0.455E+02 -.154E+03 0.181E+04   0.512E+00 0.213E-01 -.499E+00   0.434E-01 -.515E-01 0.312E-01
   0.124E+03 0.849E+02 0.217E+04   -.126E+03 -.864E+02 -.217E+04   0.130E+01 0.180E+01 0.368E+01   -.269E-01 0.278E-01 -.445E-01
   -.212E+03 0.406E+03 0.226E+04   0.214E+03 -.409E+03 -.226E+04   -.942E+00 0.931E+00 0.895E+00   0.156E-01 0.327E-01 -.820E-01
   -.123E+03 0.513E+01 0.111E+04   0.125E+03 -.483E+01 -.111E+04   -.945E+00 0.272E+00 0.162E+01   0.332E-01 0.622E-02 0.914E-01
   -.106E+03 -.975E+02 -.239E+03   0.108E+03 0.992E+02 0.238E+03   -.201E+01 -.169E+01 0.273E-01   0.131E-01 0.160E-01 0.131E+00
   -.950E+02 -.128E+03 -.157E+04   0.959E+02 0.129E+03 0.157E+04   -.193E+00 -.546E-01 -.554E+00   -.631E-01 0.451E-01 -.106E-01
   -.311E+03 -.215E+03 0.193E+04   0.314E+03 0.217E+03 -.193E+04   -.154E+01 -.129E+01 0.994E+00   0.145E-01 0.283E-01 -.436E-01
   -.976E+02 -.154E+03 0.501E+03   0.993E+02 0.156E+03 -.502E+03   -.216E+01 -.187E+01 0.156E+01   -.929E-04 -.467E-01 0.135E+00
   -.105E+03 -.157E+03 -.677E+03   0.107E+03 0.160E+03 0.677E+03   -.156E+01 -.230E+01 -.501E+00   -.499E-02 -.174E-01 0.963E-01
   -.418E+02 -.218E+03 -.185E+04   0.432E+02 0.218E+03 0.186E+04   -.492E+00 0.415E-01 -.750E+00   -.860E-01 -.133E+00 0.362E-01
   -.117E+03 -.118E+03 0.167E+03   0.118E+03 0.119E+03 -.167E+03   -.161E+01 -.197E+01 0.933E+00   0.746E-01 0.322E-01 -.404E-01
   -.143E+03 -.527E+02 -.923E+03   0.145E+03 0.549E+02 0.921E+03   -.156E+01 -.209E+01 0.504E-02   0.222E+00 -.655E-01 0.725E-01
   0.468E+02 0.246E+03 -.221E+04   -.468E+02 -.247E+03 0.222E+04   -.124E+00 0.613E+00 -.206E+01   0.115E+00 -.327E-01 0.535E-01
   -.142E+03 -.212E+03 0.161E+04   0.144E+03 0.213E+03 -.161E+04   -.593E+00 -.469E+00 0.265E+01   -.122E-01 -.451E-02 -.271E-01
   0.129E+03 0.102E+03 0.178E+04   -.133E+03 -.103E+03 -.179E+04   0.288E+01 0.825E+00 0.300E+01   0.102E-02 0.252E-01 -.452E-01
   0.129E+03 -.617E+02 0.434E+03   -.132E+03 0.630E+02 -.432E+03   0.227E+01 -.128E+01 0.151E+01   0.243E-01 -.803E-02 0.922E-01
   0.143E+03 -.410E+02 -.756E+03   -.145E+03 0.424E+02 0.757E+03   0.238E+01 -.899E+00 -.147E+01   0.654E-01 -.239E-01 0.114E+00
   0.113E+03 -.179E+03 -.203E+04   -.115E+03 0.181E+03 0.204E+04   0.121E+01 -.113E+01 -.120E+01   -.348E-01 0.442E-01 -.271E-01
   0.176E+03 -.809E+02 0.633E+02   -.178E+03 0.822E+02 -.631E+02   0.255E+01 -.131E+01 -.635E+00   -.236E-02 0.217E-01 0.136E+00
   0.108E+03 -.104E+03 -.117E+04   -.111E+03 0.105E+03 0.117E+04   0.312E+01 -.133E+01 -.786E+00   0.115E+00 -.117E-01 0.427E-01
   0.195E+02 -.191E+03 -.225E+04   -.204E+02 0.192E+03 0.226E+04   -.530E-01 -.542E+00 -.175E+01   0.826E-01 -.602E-01 -.358E-01
   0.501E+03 -.664E+02 0.147E+04   -.505E+03 0.668E+02 -.147E+04   0.233E+01 -.621E-01 0.265E+01   -.342E-01 0.154E-01 0.139E-01
   -.213E+03 -.235E+03 0.213E+04   0.213E+03 0.239E+03 -.213E+04   0.933E+00 -.310E+01 0.407E+01   0.216E-01 -.470E-01 -.587E-01
   0.880E+02 0.543E+02 0.856E+03   -.906E+02 -.555E+02 -.852E+03   0.128E+01 0.119E+00 -.959E+00   -.439E-01 -.354E-01 0.308E-01
   0.147E+03 -.496E+02 -.300E+03   -.149E+03 0.504E+02 0.301E+03   0.272E+01 -.560E+00 -.143E+01   -.179E+00 -.749E-01 0.753E-01
   0.168E+03 0.107E+03 -.158E+04   -.170E+03 -.106E+03 0.158E+04   0.159E+01 -.102E+01 -.238E+01   -.275E+00 -.485E-01 0.100E+00
   -.118E+02 0.142E+02 -.382E+02   0.568E-13 0.313E-12 0.139E-10   0.121E+02 -.133E+02 0.322E+02   -.616E-01 -.783E+00 0.595E+01

 POSITION                                       TOTAL-FORCE (eV/Angst)
      5.93500      8.96801      1.47574        -0.951009     -0.302382     -0.807398
      6.99687      7.31176      2.97408        -0.123460     -0.076197      0.146034
      7.82056      6.07621      5.25100        -0.275035     -0.333324      1.344578
      8.79827      4.65991      7.87651         0.557134      0.803080     -0.779368
      2.61774      3.87870      3.50067         0.172803     -1.230357      2.321563
      3.59545      2.46241      6.12617        -0.008219     -0.391244     -0.178703
      4.57317      1.04611      8.75167        -0.677098      1.026506     -0.672762
     11.98971      5.60428      2.18105        -0.122554     -0.327064     -0.810123
      3.78362      7.43198      9.33018        -0.515546      0.294751      0.625986
      7.34267      2.12649      3.03172         0.283451     -0.345462     -0.695205
      8.47237      0.26490      4.37584         0.523282     -0.143353      0.583130
     13.02338      8.27371      7.00134         0.134620     -0.299937     -0.348943
      5.52191      5.20893      2.36432         0.291412     -0.129167     -1.319112
      6.61816      3.96023      4.55733        -0.457223      0.407461      1.072269
      7.59587      2.54394      7.18283        -0.169012     -0.365209     -1.464839
      8.44547      1.07706      9.49616        -0.641312      0.352172      1.381625
      1.41534      1.76273      2.80700        -0.561045     -0.591059      0.807753
      2.39305      0.34643      5.43250        -0.098097     -0.019015      0.180774
      6.94406      8.35524      8.05800        -0.812220      0.548771     -2.935044
      6.93084      6.79040      9.76113         0.969812     -0.355686      0.824808
      1.99778      3.48444      0.97491        -0.446408      0.399957     -1.508089
      2.61820      4.77397      8.62351        -0.916306     -0.308293      1.272644
      8.44138      9.35769      2.02287         0.395612      0.014330     -0.413368
     10.84326      7.57403      3.68216         0.103765     -0.169947      0.223674
     11.82097      6.15773      6.30767        -0.020512      0.088006     -0.063590
      0.83284      1.68339      8.71651         0.853913      0.022918      0.995227
      9.02296      4.33443      3.86366         0.841804      0.365521      0.629942
     10.00068      2.91813      6.48916         0.109936     -0.140439     -1.222777
      3.82015      2.13692      2.11332         0.841106      0.612449      0.829896
      4.79786      0.72063      4.73883        -0.069734     -0.009863      0.588641
      9.34887      8.72943      7.36433        -0.333498      0.382167     -1.533616
     10.32171      7.72342      9.33503         0.406800     -0.746656      1.175168
      3.16834      7.94822      2.98849         0.047160      0.055163      0.597139
      4.14605      6.53193      5.61399         0.340766      0.192097     -0.015639
      5.12376      5.11563      8.23950         0.026407      0.047158     -1.797592
      7.73331      0.02904      1.73375        -0.556219      0.409229     -1.598350
      0.14216      0.05133      9.88577         0.875418     -0.331781      2.043550
      7.35113      4.16709      2.60210         0.101234     -0.361779     -2.827974
      8.33317      2.41029      5.05057         0.161018     -0.410748      0.039427
      9.31088      0.99399      7.67607        -0.624796     -1.168267     -3.719548
      2.24260      1.48340      0.84462        -0.855509     -0.049488     -3.490317
      3.13035      0.21279      3.30024        -0.319630      0.689897      2.630309
      7.68136      8.22159      5.92574        -0.021059      0.059526     -0.089716
      8.65907      6.80530      8.55124         0.187350     -1.632977     -0.146598
      2.47854      6.02409      4.17540         0.291958      0.226095      1.539696
      3.45626      4.60779      6.80091         0.663866      0.328453     -2.875689
      4.17937      3.31041      8.88685         0.423691     -0.710641      2.098563
     11.58056      7.44039      1.54990        -0.582929      0.292433     -2.012520
      7.56752      7.78793      1.04397         1.549822     -1.628967     -3.331273
      8.95428      6.48648      3.55404         0.883236      0.575744     -0.805113
      9.86427      5.10469      5.93387         0.106562      0.052381     -0.077937
     10.80887      3.74881      8.25101         0.696865      0.731538      2.069193
      3.70432      4.34110      1.74194         1.395296      0.671001     -1.600048
      4.66145      2.90719      4.18354        -0.457721     -0.209664      0.724086
      5.63916      1.49089      6.80904        -0.154191      0.156804     -0.959183
      6.50577      0.31244      9.13258         0.832854      0.068400      1.879206
      4.00964      8.71849      5.05870         0.121452     -0.079552      0.352117
      4.98735      7.30220      7.68420         0.840137      0.032300     -1.873127
      5.09002      6.01079     10.09013        -0.012822     -0.683587      3.503002
      9.53836      0.70969      2.43320         1.379450      1.038358      0.160416
      4.92481      7.23107      2.00809        -1.364641      0.029290     -1.473913
      5.82436      6.04450      4.19167        -0.442812      0.048985      3.737568
      6.80207      4.62821      6.81717        -0.149118      0.461405     -0.248251
      8.14104      3.10233      9.07847        -1.449639      1.242750      3.048059
      1.59925      2.43070      5.06683         0.187168      0.017489     -0.286707
      2.57697      1.01441      7.69234         0.291916      0.046359     -0.626526
      7.43499      8.84209      9.94965        -0.888668      0.852269      3.572912
     10.70128      3.84700      2.44133        -1.907544      0.354800      0.506852
      5.82787      1.72435      1.42985         0.966531      0.818448     -1.676257
      6.47617      0.23320      3.31650        -1.299163     -1.050456      3.293724
     11.02718      8.24201      5.94200         0.163772      0.106017     -0.329956
     12.00489      6.82571      8.56750        -0.734627     -0.319918     -0.184354
    total drift:                                0.236457      0.107689     -0.003050

  FREE ENERGIE OF THE ION-ELECTRON SYSTEM (eV)
  free  energy   TOTEN  =      -351.21746609 eV

  energy  without entropy=     -350.13618800  energy(sigma->0) =     -350.67682705