 vasp.5.4.4.18Apr17-6-g9f103f2a35 (build Aug 13 2019 17:33:20) gamma-only

 executed on             LinuxIFC date 2020.05.10  18:51:43

 INCAR:
 POTCAR:    PAW_PBE Ni_pv 06Sep2000
 POTCAR:    PAW_PBE S 06Sep2000
 POTCAR:    PAW_PBE Ni_pv 06Sep2000
   VRHFIN =Ni:

   TITEL  = PAW_PBE Ni_pv 06Sep2000
   POMASS =   58.690; ZVAL   =   16.000    mass and valenz
   ENMAX  =  367.986; ENMIN  =  275.989 eV

 POTCAR:    PAW_PBE S 06Sep2000
   VRHFIN =S : s2p4

   TITEL  = PAW_PBE S 06Sep2000
   POMASS =   32.066; ZVAL   =    6.000    mass and valenz
   ENMAX  =  258.689; ENMIN  =  194.016 eV

 Optimization of the real space projectors (new method)

 maximal supplied QI-value         = 18.90
 optimisation between [QCUT,QGAM] = [ 10.77, 21.73] = [ 32.49,132.25] Ry
 Optimized for a Real-space Cutoff    1.38 Angstroem

   l    n(q)    QCUT    max X(q) W(low)/X(q) W(high)/X(q)  e(spline)
   1      8    10.771     2.836    0.40E-04    0.29E-04    0.12E-06
   1      8    10.771     4.023    0.10E-03    0.48E-04    0.29E-06
   2      8    10.771    73.368    0.42E-03    0.97E-04    0.44E-06
   2      8    10.771    69.010    0.42E-03    0.99E-04    0.45E-06
   0      9    10.771    54.797    0.10E-03    0.56E-04    0.74E-07
   0      9    10.771    24.266    0.89E-04    0.49E-04    0.67E-07
 Optimization of the real space projectors (new method)

 maximal supplied QI-value         = 19.84
 optimisation between [QCUT,QGAM] = [ 10.71, 21.63] = [ 32.15,130.99] Ry
 Optimized for a Real-space Cutoff    1.19 Angstroem

   l    n(q)    QCUT    max X(q) W(low)/X(q) W(high)/X(q)  e(spline)
   0      8    10.715   187.594    0.41E-03    0.53E-04    0.66E-07
   0      8    10.715   164.243    0.41E-03    0.53E-04    0.65E-07
   1      7    10.715    67.533    0.19E-03    0.59E-03    0.68E-07
   1      7    10.715    50.729    0.19E-03    0.58E-03    0.67E-07
  PAW_PBE Ni_pv 06Sep2000               :
  PAW_PBE S 06Sep2000                   :

 POSCAR: Type_048 Type_148
  positions in cartesian coordinates
 exchange correlation table for  LEXCH =        8
   RHO(1)=    0.500       N(1)  =     2000
   RHO(2)=  100.500       N(2)  =     4000

 ion  position               nearest neighbor table
   1  0.261  0.479  0.253-  74 2.25  59 2.26  81 2.26  55 2.36  60 2.36   7 2.53  21 2.53
   2  0.355  0.385  0.388-  75 2.25  55 2.26  60 2.26  61 2.36  66 2.36   3 2.38   8 2.53  22 2.53

   3  0.375  0.365  0.497-  53 2.04  61 2.08  66 2.08   2 2.38
   4  0.164  0.081  0.138-  76 2.12  57 2.14  64 2.16  56 2.19  82 2.21  36 2.35
   5  0.049  0.055  0.472-  50 2.05  78 2.08  73 2.10  79 2.15
   6  0.274  0.333  0.083-  51 2.06  56 2.07  58 2.07  52 2.36  59 2.36  28 2.47
   7  0.368  0.239  0.218-  57 2.25  59 2.26  52 2.26  60 2.36  62 2.36   1 2.53  21 2.53
   8  0.462  0.145  0.353-  80 2.25  60 2.26  62 2.26  61 2.36  63 2.36   2 2.53  22 2.53
   9  0.000  0.372  0.218-  59 2.25  64 2.26  93 2.26  49 2.36  67 2.36  13 2.53  19 2.53
  10  0.094  0.278  0.353-  60 2.25  49 2.26  67 2.26  54 2.36  50 2.36  20 2.53  14 2.53
  11  0.185  0.191  0.472-  50 2.05  78 2.08  54 2.10  61 2.15
  12  0.495  0.442  0.114-  70 2.06  51 2.09  52 2.18  81 2.20  71 2.34  21 2.38
  13  0.761  0.479  0.253-  85 2.25  71 2.26  93 2.26  67 2.36  72 2.36  19 2.53   9 2.53
  14  0.855  0.385  0.388-  86 2.25  67 2.26  72 2.26  73 2.36  54 2.36  15 2.38  20 2.53  10 2.53

[...]

  44  0.962  0.645  0.353-  67 2.25  95 2.26  74 2.26  96 2.36  75 2.36  38 2.53  34 2.53
  45  0.500  0.872  0.218-  94 2.25  77 2.26  57 2.26  85 2.36  80 2.36  25 2.53  31 2.53
  46  0.594  0.778  0.353-  95 2.25  85 2.26  80 2.26  90 2.36  86 2.36  32 2.53  26 2.53
  47  0.685  0.691  0.472-  86 2.05  65 2.08  90 2.10  96 2.15
  48  0.806  0.935  0.124-  87 2.02  88 2.06  69 2.10  94 2.12  68 2.13  16 2.45  42 2.48
  49  0.073  0.167  0.270-  25 2.25  10 2.26  20 2.26   9 2.36  19 2.36
  50  0.167  0.073  0.405-  11 2.05   5 2.05  26 2.25  10 2.36  20 2.36  78 2.69
  51  0.325  0.483  0.062-   6 2.06  28 2.09  12 2.09  58 2.69  81 2.78
  52  0.479  0.261  0.135-  16 1.96  12 2.18   7 2.26  21 2.26   6 2.36  68 2.71
  53  0.211  0.529  0.527-   3 2.04  35 2.08  29 2.08  75 2.69
  54  0.030  0.378  0.451-  15 2.08  11 2.10  29 2.15  10 2.36  14 2.36
  55  0.436  0.472  0.315-  32 2.25   2 2.26  22 2.26   1 2.36  21 2.36
  56  0.262  0.156  0.073-   6 2.07  36 2.13   4 2.19  57 2.54  76 2.62
  57  0.342  0.066  0.180-  36 2.08   4 2.14   7 2.25  25 2.26  45 2.26  56 2.54
  58  0.086  0.485  0.067-   6 2.07  24 2.07  28 2.12  59 2.68  51 2.69
  59  0.174  0.397  0.180-  28 2.12   9 2.25   7 2.26   1 2.26   6 2.36  58 2.68
  60  0.268  0.303  0.315-  10 2.25   2 2.26   8 2.26   7 2.36   1 2.36
  61  0.362  0.209  0.451-   3 2.08  17 2.10  11 2.15   8 2.36   2 2.36
  62  0.573  0.167  0.270-  16 2.18  37 2.25  22 2.26   8 2.26  21 2.36   7 2.36
  63  0.667  0.073  0.405-  17 2.05  23 2.05  38 2.25  22 2.36   8 2.36  89 2.69
  64  0.979  0.261  0.135-  24 2.10   4 2.16  19 2.26   9 2.26  18 2.31
  65  0.711  0.529  0.527-  15 2.04  41 2.08  47 2.08  86 2.69
  66  0.530  0.378  0.451-   3 2.08  23 2.10  41 2.15  22 2.36   2 2.36
  67  0.936  0.472  0.315-  44 2.25  14 2.26  10 2.26  13 2.36   9 2.36
  68  0.719  0.125  0.081-  18 2.07  48 2.13  16 2.20  69 2.49  52 2.71
  69  0.842  0.066  0.180-  16 2.01  48 2.10  19 2.25  37 2.26  33 2.26  68 2.49  18 2.52
  70  0.650  0.433  0.061-  12 2.06  40 2.09  18 2.09  71 2.63
  71  0.674  0.397  0.180-  18 2.06  21 2.25  19 2.26  13 2.26  12 2.34  40 2.36  70 2.63
  72  0.768  0.303  0.315-  22 2.25  14 2.26  20 2.26  19 2.36  13 2.36
  73  0.862  0.209  0.451-  15 2.08   5 2.10  23 2.15  20 2.36  14 2.36
  74  0.073  0.667  0.270-   1 2.25  34 2.26  44 2.26  33 2.36  43 2.36
  75  0.167  0.573  0.405-  29 2.05  35 2.05   2 2.25  34 2.36  44 2.36  53 2.69
  76  0.216  0.949  0.062-  30 2.04  36 2.05   4 2.12  56 2.62  82 2.72
  77  0.479  0.761  0.135-  30 2.07  36 2.10  40 2.25  31 2.26  45 2.26
  78  0.211  0.029  0.527-  27 2.04   5 2.08  11 2.08  50 2.69
  79  0.030  0.878  0.451-  39 2.08  35 2.10   5 2.15  34 2.36  38 2.36
  80  0.436  0.972  0.315-   8 2.25  26 2.26  46 2.26  25 2.36  45 2.36
  81  0.342  0.566  0.180-  28 2.15  12 2.20  31 2.25   1 2.26  21 2.26  30 2.65  51 2.78
  82  0.174  0.897  0.180-  30 2.07   4 2.21  33 2.25  31 2.26  25 2.26  76 2.72
  83  0.268  0.803  0.315-  34 2.25  26 2.26  32 2.26  31 2.36  25 2.36
  84  0.362  0.709  0.451-  27 2.08  41 2.10  35 2.15  32 2.36  26 2.36
  85  0.573  0.667  0.270-  13 2.25  46 2.26  32 2.26  45 2.36  31 2.36
  86  0.667  0.573  0.405-  47 2.05  41 2.05  14 2.25  46 2.36  32 2.36  65 2.69
  87  0.760  0.858  0.048-  42 2.02  48 2.02
  88  0.979  0.761  0.135-  48 2.06  42 2.19  43 2.26  33 2.26  28 2.41
  89  0.711  0.029  0.527-  39 2.04  23 2.08  17 2.08  63 2.69
  90  0.530  0.878  0.451-  27 2.08  47 2.10  17 2.15  46 2.36  26 2.36
  91  0.936  0.972  0.315-  20 2.25  38 2.26  34 2.26  37 2.36  33 2.36
  92  0.783  0.591  0.050-  40 2.04  42 2.06  24 2.06
  93  0.842  0.566  0.180-  24 2.07  42 2.14  43 2.25  13 2.26   9 2.26  40 2.36
  94  0.674  0.897  0.180-  48 2.12  45 2.25  43 2.26  37 2.26  42 2.50  16 2.54
  95  0.768  0.803  0.315-  46 2.25  38 2.26  44 2.26  43 2.36  37 2.36
  96  0.862  0.709  0.451-  39 2.08  29 2.10  47 2.15  44 2.36  38 2.36

  LATTYP: Found a base centered orthorhombic cell.
 ALAT       =    11.8257374459
 B/A-ratio  =     1.6199260857
 C/A-ratio  =     1.8387210052

  Lattice vectors:

 A1 = (  11.2564630382,   0.0000000000,   0.0000000000)
 A2 = (  -5.0445621212, -10.0628203371,   0.0000000000)
 A3 = (   0.0000000000,   0.0000000000, -21.7442318436)

Analysis of symmetry for initial positions (statically):
 Subroutine PRICEL returns:
 Original cell was already a primitive cell.

 Routine SETGRP: Setting up the symmetry group for a
 base centered orthorhombic supercell.

 Subroutine GETGRP returns: Found  1 space group operations
 (whereof  1 operations were pure point group operations)
 out of a pool of  8 trial point group operations.

The static configuration has the point symmetry C_1 .

Analysis of symmetry for dynamics (positions and initial velocities):
 Subroutine PRICEL returns:
 Original cell was already a primitive cell.

 Routine SETGRP: Setting up the symmetry group for a
 base centered orthorhombic supercell.

 Subroutine GETGRP returns: Found  1 space group operations
 (whereof  1 operations were pure point group operations)
 out of a pool of  8 trial point group operations.

The dynamic configuration has the point symmetry C_1 .

 Subroutine INISYM returns: Found  1 space group operations
 (whereof  1 operations are pure point group operations),
 and found     1 'primitive' translations

 KPOINTS: gamma-point-only calculation. no periodi

Automatic generation of k-mesh.
Space group operators:
 irot       det(A)        alpha          n_x          n_y          n_z        tau_x        tau_y        tau_z
    1     1.000000     0.000000     1.000000     0.000000     0.000000     0.000000     0.000000     0.000000

 Subroutine IBZKPT returns following result:

 Found      1 irreducible k-points:

 Following reciprocal coordinates:
            Coordinates               Weight
  0.000000  0.000000  0.000000      1.000000

 Following cartesian coordinates:
            Coordinates               Weight
  0.000000  0.000000  0.000000      1.000000

 SYSTEM =  "Millerite NiS"
 POSCAR =  Type_048 Type_148

 Startparameter for this run:
   NWRITE =      2    write-flag & timer
   PREC   = normal    normal or accurate (medium, high low for compatibility)
   ISTART =      0    job   : 0-new  1-cont  2-samecut
   ICHARG =      2    charge: 1-file 2-atom 10-const
   ISPIN  =      1    spin polarized calculation?
   LNONCOLLINEAR =      F non collinear calculations
   LSORBIT =      F    spin-orbit coupling
   INIWAV =      1    electr: 0-lowe 1-rand  2-diag
   LASPH  =      F    aspherical Exc in radial PAW
   METAGGA=      F    non-selfconsistent MetaGGA calc.

 Electronic Relaxation 1
   ENCUT  =  450.0 eV  33.07 Ry    5.75 a.u.  19.47 19.47 37.61*2*pi/ulx,y,z
   ENINI  =  450.0     initial cutoff
   ENAUG  =  703.4 eV  augmentation charge cutoff
   NELM   =    100;   NELMIN=  2; NELMDL= -5     # of ELM steps
   EDIFF  = 0.1E-03   stopping-criterion for ELM
   LREAL  =      T    real-space projection
   NLSPLINE    = F    spline interpolate recip. space projectors
   LCOMPAT=      F    compatible to vasp.4.4
   GGA_COMPAT  = T    GGA compatible to vasp.4.4-vasp.4.6
   LMAXPAW     = -100 max onsite density
   LMAXMIX     =    2 max onsite mixed and CHGCAR
   VOSKOWN=      0    Vosko Wilk Nusair interpolation
   ROPT   =   -0.00050  -0.00050
 Ionic relaxation
   EDIFFG = 0.1E-02   stopping-criterion for IOM
   NSW    =      0    number of steps for IOM
   NBLOCK =      1;   KBLOCK =      1    inner block; outer block
   IBRION =     -1    ionic relax: 0-MD 1-quasi-New 2-CG
   NFREE  =      0    steps in history (QN), initial steepest desc. (CG)
   ISIF   =      2    stress and relaxation
   IWAVPR =     10    prediction:  0-non 1-charg 2-wave 3-comb
   ISYM   =      2    0-nonsym 1-usesym 2-fastsym
[...]
     0.000000000  0.000000000 21.744231844     0.000000000  0.000000000  0.045989208

  length of vectors
    11.256463038 11.256463038 21.744231844     0.099375718  0.099375718  0.045989208

 FORCES acting on ions
    electron-ion (+dipol)            ewald-force                    non-local-force                 convergence-correction
   0.289E+03 -.428E+03 0.661E+03   -.290E+03 0.428E+03 -.659E+03   0.906E+00 0.941E-01 -.212E+01   0.359E-01 -.420E-02 0.109E-02
   0.252E+03 -.390E+03 -.239E+04   -.252E+03 0.391E+03 0.239E+04   0.559E+00 -.884E+00 0.728E-01   -.686E-02 0.194E-01 -.134E+00
   -.878E+01 0.180E+02 -.564E+04   0.629E+01 -.141E+02 0.564E+04   0.294E+01 -.464E+01 0.574E+00   -.139E-01 0.175E-01 0.438E-02
   0.539E+03 -.308E+03 0.410E+04   -.546E+03 0.312E+03 -.410E+04   0.621E+01 -.360E+01 0.395E+00   0.417E-01 -.417E-01 0.564E-01
   0.296E+03 0.233E+03 -.489E+04   -.300E+03 -.236E+03 0.490E+04   0.349E+01 0.336E+01 -.223E+01   0.546E-01 0.154E-01 -.247E-01
   0.128E+02 0.509E+03 0.547E+04   -.134E+02 -.514E+03 -.547E+04   0.105E+01 0.341E+01 0.397E+01   -.677E-02 -.610E-02 0.265E-01
   0.452E+03 0.462E+03 0.192E+04   -.454E+03 -.460E+03 -.192E+04   0.154E+01 -.989E+00 0.623E+00   -.373E-02 0.615E-01 0.543E-01
   0.306E+03 0.444E+03 -.142E+04   -.308E+03 -.445E+03 0.142E+04   0.201E+01 0.307E+00 0.880E+00   -.460E-01 0.869E-02 -.724E-01
   -.538E+03 0.723E+02 0.175E+04   0.539E+03 -.730E+02 -.175E+04   -.109E+01 0.748E+00 -.143E+01   -.141E-01 -.464E-01 0.549E-01
   -.507E+03 -.274E+02 -.137E+04   0.508E+03 0.281E+02 0.137E+04   -.876E+00 -.779E+00 0.220E+01   -.127E-01 -.174E-03 -.552E-01
   -.338E+03 -.165E+03 -.489E+04   0.343E+03 0.167E+03 0.490E+04   -.454E+01 -.169E+01 -.234E+01   -.185E-01 -.205E-01 -.258E-01
   0.546E+01 -.255E+03 0.503E+04   -.600E+01 0.257E+03 -.504E+04   0.890E+00 -.109E+01 0.714E+01   -.232E-01 0.125E-01 0.756E-01
   0.215E+03 -.434E+03 0.666E+03   -.216E+03 0.435E+03 -.663E+03   0.324E+00 -.594E+00 -.263E+01   0.903E-04 -.464E-01 0.303E-01
   0.217E+03 -.379E+03 -.238E+04   -.217E+03 0.380E+03 0.238E+04   0.568E+00 -.104E+01 0.341E-01   -.201E-03 0.582E-02 -.772E-01
   -.173E+02 0.208E+02 -.563E+04   0.146E+02 -.169E+02 0.563E+04   0.308E+01 -.462E+01 0.751E+00   0.150E-02 0.775E-02 -.140E-01
   0.314E+03 0.724E+02 0.330E+04   -.317E+03 -.733E+02 -.330E+04   0.247E+01 -.382E+00 -.577E+00   -.488E-02 0.399E-01 0.976E-01
   0.308E+03 0.233E+03 -.490E+04   -.312E+03 -.237E+03 0.491E+04   0.349E+01 0.326E+01 -.219E+01   -.672E-01 -.540E-02 -.357E-01
   -.305E+03 0.442E+03 0.524E+04   0.307E+03 -.443E+03 -.524E+04   -.225E+00 0.106E+01 0.613E+01   0.216E-01 -.148E-01 0.578E-01
   -.218E+02 0.510E+03 0.175E+04   0.240E+02 -.510E+03 -.175E+04   -.186E+01 -.349E+00 -.166E+01   0.360E-01 0.222E-01 0.395E-01
   0.221E+03 0.450E+03 -.138E+04   -.222E+03 -.451E+03 0.138E+04   0.875E+00 0.243E+00 0.221E+01   0.312E-01 0.268E-01 -.563E-01
   -.306E+03 -.235E+03 0.154E+04   0.306E+03 0.235E+03 -.154E+04   -.212E+00 -.803E+00 -.233E+01   -.568E-01 0.473E-01 0.654E-01
   -.499E+03 -.598E+02 -.147E+04   0.500E+03 0.610E+02 0.147E+04   -.112E+01 -.129E+01 0.119E+01   -.118E-01 0.501E-01 -.864E-01
   -.343E+03 -.166E+03 -.491E+04   0.347E+03 0.168E+03 0.491E+04   -.452E+01 -.161E+01 -.209E+01   0.259E-01 0.457E-01 -.276E-01
   -.196E+03 0.413E+03 0.514E+04   0.199E+03 -.417E+03 -.515E+04   -.297E+01 0.336E+01 0.493E+01   0.197E-01 -.747E-01 0.572E-01
   0.252E+03 -.363E+03 0.672E+03   -.252E+03 0.363E+03 -.670E+03   0.149E-02 -.526E+00 -.180E+01   0.300E-01 -.346E-01 -.248E-01
   0.239E+03 -.376E+03 -.236E+04   -.240E+03 0.377E+03 0.236E+04   0.721E+00 -.104E+01 -.783E-01   -.432E-02 -.303E-01 -.101E+00
   -.107E+02 0.211E+02 -.563E+04   0.815E+01 -.169E+02 0.563E+04   0.301E+01 -.497E+01 0.786E+00   -.169E-01 0.454E-02 -.120E-01
   0.786E+02 -.686E+03 0.421E+04   -.791E+02 0.692E+03 -.421E+04   -.344E-01 -.440E+01 0.352E+00   0.410E-01 -.108E-01 0.997E-01
   0.301E+03 0.229E+03 -.489E+04   -.305E+03 -.232E+03 0.490E+04   0.353E+01 0.335E+01 -.223E+01   -.107E-02 -.423E-01 -.323E-01
   0.534E+03 0.279E+03 0.520E+04   -.537E+03 -.277E+03 -.520E+04   0.162E+01 -.333E+01 0.214E+01   0.432E-01 0.495E-01 0.594E-01
   0.218E+03 0.402E+03 0.171E+04   -.218E+03 -.402E+03 -.171E+04   -.298E+00 0.350E+00 -.154E+01   0.105E-01 0.531E-01 0.473E-01
   0.260E+03 0.407E+03 -.138E+04   -.261E+03 -.408E+03 0.138E+04   0.102E+01 0.298E+00 0.216E+01   -.613E-02 0.315E-01 -.582E-01
   -.698E+03 -.237E+00 0.206E+04   0.701E+03 -.104E+01 -.206E+04   -.235E+01 0.121E+01 -.623E+00   0.398E-01 0.902E-03 0.588E-01
   -.517E+03 -.340E+02 -.136E+04   0.517E+03 0.346E+02 0.136E+04   -.730E+00 -.720E+00 0.205E+01   0.549E-01 -.187E-01 -.804E-01
   -.341E+03 -.169E+03 -.489E+04   0.345E+03 0.171E+03 0.489E+04   -.457E+01 -.166E+01 -.226E+01   0.555E-01 -.125E-02 -.449E-01
   -.713E+03 0.250E+02 0.539E+04   0.717E+03 -.282E+02 -.540E+04   -.208E+01 0.292E+01 0.309E+01   -.599E-01 0.750E-02 0.585E-01
   0.166E+03 -.119E+03 0.450E+03   -.167E+03 0.117E+03 -.445E+03   0.532E+00 0.111E+01 -.335E+01   0.168E-02 0.154E-01 0.151E-01
   0.219E+03 -.356E+03 -.239E+04   -.219E+03 0.357E+03 0.238E+04   0.666E+00 -.106E+01 -.840E-01   0.171E-01 -.144E-01 -.143E+00
   -.161E+02 0.254E+02 -.563E+04   0.136E+02 -.212E+02 0.563E+04   0.288E+01 -.485E+01 0.709E+00   0.129E-01 -.608E-02 0.198E-01
   0.312E+03 -.405E+03 0.447E+04   -.315E+03 0.408E+03 -.447E+04   0.277E+01 -.288E+01 0.331E+01   -.613E-01 0.498E-02 0.526E-01
   0.302E+03 0.222E+03 -.490E+04   -.306E+03 -.226E+03 0.490E+04   0.353E+01 0.332E+01 -.228E+01   0.783E-02 0.276E-01 -.494E-01
   0.780E+02 -.179E+03 0.493E+04   -.785E+02 0.180E+03 -.494E+04   0.112E+00 -.687E+00 0.559E+01   -.537E-02 -.268E-01 0.616E-01
   0.120E+03 0.442E+03 0.160E+04   -.120E+03 -.444E+03 -.160E+04   -.446E+00 0.118E+01 -.229E+01   0.243E-01 0.811E-02 0.904E-01
   0.244E+03 0.439E+03 -.138E+04   -.245E+03 -.440E+03 0.138E+04   0.982E+00 0.302E+00 0.211E+01   0.155E-01 -.274E-01 -.737E-01
   -.527E+03 -.305E+02 0.194E+04   0.528E+03 0.304E+02 -.194E+04   -.297E+00 0.150E+00 -.131E+01   -.103E+00 0.248E-01 0.352E-01
   -.488E+03 -.332E+02 -.137E+04   0.489E+03 0.339E+02 0.137E+04   -.572E+00 -.673E+00 0.182E+01   -.743E-01 -.729E-02 -.605E-01
   -.339E+03 -.167E+03 -.490E+04   0.344E+03 0.169E+03 0.490E+04   -.456E+01 -.163E+01 -.228E+01   -.565E-01 -.270E-01 -.396E-01
   -.297E+03 -.136E+03 0.507E+04   0.298E+03 0.137E+03 -.507E+04   -.740E+00 -.744E+00 0.823E+01   0.394E-01 0.546E-01 0.802E-01
   -.765E+02 0.126E+03 0.285E+03   0.774E+02 -.128E+03 -.287E+03   -.976E+00 0.205E+01 0.245E+01   0.851E-02 -.363E-02 -.221E-01
   -.779E+02 0.127E+03 -.900E+03   0.791E+02 -.129E+03 0.896E+03   -.709E+00 0.122E+01 0.913E+00   0.693E-02 -.595E-02 -.181E-01
   -.987E+02 -.173E+03 0.237E+04   0.998E+02 0.174E+03 -.237E+04   0.137E+00 -.159E+00 0.410E+01   0.169E-02 0.107E-01 -.541E-02
   0.150E+03 0.190E+03 0.185E+04   -.152E+03 -.193E+03 -.185E+04   -.145E+01 0.411E+01 0.212E+01   -.163E-02 0.112E-01 0.383E-01
   -.388E+01 0.610E+01 -.235E+04   0.440E+01 -.702E+01 0.235E+04   -.362E+00 0.617E+00 -.213E+01   -.316E-02 0.109E-01 0.264E-01
   -.127E+03 -.111E+03 -.157E+04   0.128E+03 0.112E+03 0.158E+04   -.152E+01 -.545E+00 -.174E+01   -.411E-02 -.123E-01 -.242E-01
   -.646E+02 -.176E+03 -.221E+03   0.657E+02 0.179E+03 0.221E+03   -.111E+01 -.285E+01 -.256E+00   -.157E-01 0.141E-01 -.399E-01
   -.473E+01 -.307E+02 0.219E+04   0.439E+01 0.329E+02 -.219E+04   0.507E+00 -.145E+01 0.422E+01   -.161E-01 -.350E-01 0.110E-01
   -.162E+03 -.169E+03 0.105E+04   0.163E+03 0.171E+03 -.105E+04   -.527E+00 -.132E+01 0.542E+00   -.299E-01 -.298E-01 0.134E-01
   0.446E+02 -.115E+03 0.227E+04   -.464E+02 0.118E+03 -.227E+04   0.867E+00 -.226E+01 0.310E+01   0.169E-01 -.779E-02 -.324E-02
   0.164E+03 0.573E+02 0.103E+04   -.166E+03 -.584E+02 -.102E+04   0.197E+01 -.593E-01 0.107E+01   0.105E-01 0.558E-02 0.501E-01
   0.185E+03 -.287E+01 -.202E+03   -.188E+03 0.240E+01 0.202E+03   0.265E+01 0.428E+00 0.179E+00   0.816E-02 0.166E-01 -.321E-01
[...]
   0.174E+03 -.729E+01 -.193E+03   -.177E+03 0.732E+01 0.194E+03   0.308E+01 -.226E-01 -.432E+00   0.217E-01 0.280E-03 -.201E-01
   0.157E+03 0.607E+02 -.157E+04   -.159E+03 -.613E+02 0.157E+04   0.110E+01 0.929E+00 -.167E+01   0.100E-01 -.185E-02 -.345E-01
   -.735E+02 0.102E+03 0.291E+03   0.747E+02 -.104E+03 -.293E+03   -.126E+01 0.187E+01 0.208E+01   -.198E-01 0.885E-02 0.703E-02
   -.784E+02 0.122E+03 -.905E+03   0.795E+02 -.123E+03 0.901E+03   -.688E+00 0.106E+01 0.938E+00   -.113E-01 -.294E-02 -.292E-01
   0.858E+02 -.154E+03 0.240E+04   -.870E+02 0.155E+03 -.241E+04   0.174E-01 -.419E+00 0.120E+01   -.551E-02 0.153E-01 -.296E-01
   -.358E+03 0.583E+02 0.177E+04   0.363E+03 -.589E+02 -.178E+04   -.240E+01 -.144E+01 0.463E+01   0.369E-01 -.102E-01 0.300E-01
   -.444E+01 0.808E+01 -.235E+04   0.500E+01 -.898E+01 0.236E+04   -.388E+00 0.611E+00 -.214E+01   -.162E-01 0.223E-01 0.396E-01
   -.123E+03 -.110E+03 -.157E+04   0.125E+03 0.112E+03 0.158E+04   -.150E+01 -.595E+00 -.174E+01   -.193E-01 -.877E-02 -.286E-01
   -.101E+03 -.135E+03 -.203E+03   0.103E+03 0.138E+03 0.203E+03   -.158E+01 -.250E+01 -.237E+00   0.912E-02 -.253E-02 -.269E-01
   0.740E+02 -.806E+02 0.247E+04   -.749E+02 0.807E+02 -.248E+04   0.349E+00 0.367E+00 0.328E+01   -.188E-01 -.154E-01 -.303E-01
   0.117E+02 -.908E+02 0.888E+03   -.113E+02 0.914E+02 -.886E+03   -.857E+00 -.281E+00 0.645E+00   -.351E-02 -.330E-01 0.528E-01
   0.325E+03 -.361E+02 0.116E+04   -.330E+03 0.374E+02 -.116E+04   0.287E+01 -.158E+01 0.256E+01   -.273E-01 0.155E-01 0.494E-01
   0.174E+03 0.102E+02 -.213E+03   -.177E+03 -.102E+02 0.213E+03   0.317E+01 -.801E-01 -.183E+00   -.961E-02 0.208E-02 -.209E-01
   0.155E+03 0.642E+02 -.157E+04   -.157E+03 -.650E+02 0.158E+04   0.115E+01 0.118E+01 -.170E+01   -.204E-01 -.331E-01 -.320E-01
   -.195E+02 0.229E+02 -.590E+02   0.568E-13 -.134E-11 0.200E-10   0.193E+02 -.230E+02 0.592E+02   -.122E-01 0.143E+00 -.132E+00

 POSITION                                       TOTAL-FORCE (eV/Angst)
      5.35228      4.81788      5.50842        -0.214040      0.058663      0.086991
      5.93595      3.87238      8.44448        -0.106235      0.056199     -1.030831
      6.05841      3.67399     10.80988         0.445122     -0.716069      0.803383
      2.25164      0.81483      3.01115        -0.906082      0.810971      0.089636
      0.82543      0.54879     10.27166        -0.505372      0.014912      0.475879
      4.76861      3.35453      1.79664         0.365897     -1.428066      0.851604
      5.35228      2.40903      4.73270        -0.234956      0.089296      0.249418
      5.93595      1.46353      7.66876        -0.136434     -0.170085      0.098806
      1.87746      3.73836      4.73270         0.205657      0.019206      0.096915
      2.46113      2.79286      7.66876        -0.005715     -0.021957      0.008354
      3.04694      1.92016     10.27155         0.244287      0.526642      0.492536
      7.80404      4.44994      2.47891         0.327710      0.592699      0.175207
     10.98051      4.81788      5.50842        -0.233554      0.236207      0.167744
     11.56418      3.87238      8.44448        -0.094488      0.093557     -1.016068
     11.68662      3.67402     10.80973         0.429260     -0.670593      0.823797
      7.92788      1.35857      3.80754        -0.484832     -1.187494      0.230310
      6.45369      0.54872     10.27243        -0.524899     -0.018996      0.487027
     10.08455      2.67602      2.42872         1.448677     -0.850976     -0.303849
     10.98051      2.40903      4.73270         0.359429     -0.040578      0.740608
     11.56418      1.46353      7.66876         0.005242      0.000248      0.054434
      7.50570      3.73836      4.73270        -0.174337     -0.012832      1.310205
      8.08937      2.79286      7.66876         0.159836     -0.052410     -0.084690
      8.67502      1.91994     10.27267         0.264028      0.445361      0.525129
     12.78230      4.55339      2.24997         0.387452     -0.766803     -0.413708
      7.87456      9.84929      5.50842        -0.035895     -0.021406      0.166974
      8.45823      8.90379      8.44448        -0.024571      0.118648     -0.988334
      8.58070      8.70545     10.80972         0.464212     -0.723794      0.838994
      4.84413      5.59226      2.84465        -0.498618      1.891582      0.330913
      3.34764      5.58016     10.27151        -0.503371     -0.000388      0.488446
      7.23263      7.81402      2.42972        -1.244927     -1.748342     -0.629582
      7.87456      7.44044      4.73270         0.042004     -0.112756      0.904452
      8.45823      6.49494      7.66876         0.092717     -0.078385      0.045534
      4.39975      8.76977      4.73270         0.473233     -0.059025      0.288524
      4.98341      7.82427      7.66876        -0.068252     -0.130958     -0.109953
      5.56918      6.95157     10.27153         0.261024      0.487945      0.476080
      9.09186      9.60863      2.17015         2.569795     -0.309045     -1.306771
     13.50279      9.84929      5.50842        -0.040345     -0.648893      1.099138
     14.08646      8.90379      8.44448        -0.114696      0.098556     -0.981460
     14.20917      8.70502     10.80997         0.422986     -0.698189      0.830560
     10.39684      5.76338      2.57236        -0.448930      0.254129      1.304181
      8.97590      5.58022     10.27156        -0.513032     -0.033565      0.452814
     12.79022      7.14842      2.42508        -0.348341     -0.034310      0.453572
     13.50279      7.44044      4.73270         0.036118      0.025285      0.884461
     14.08646      6.49494      7.66876         0.096555     -0.105512     -0.000073
     10.02798      8.76977      4.73270         0.260590      0.051519      0.199215
     10.61165      7.82427      7.66876        -0.012301     -0.058125     -0.118293
     11.19741      6.95157     10.27149         0.265843      0.520772      0.493166
     13.78968      9.40464      2.68692         0.895022      0.750582     -0.942416
      1.66190      1.67871      5.87212        -0.018491      0.029678      0.255675
      2.24556      0.73321      8.80817         0.479111     -0.759795     -3.162539
      6.09748      4.85837      1.34407         1.218123      1.222489     -3.076795
      6.70646      2.62422      2.93606        -2.853881      1.029725     -1.221426
      5.04153      5.32126     11.44852         0.163166     -0.288137      2.726516
      2.24556      3.80055      9.79595         0.166514      0.956743     -0.127483
      7.29013      4.74605      6.85989        -0.007859      0.056900     -0.106149
      3.74020      1.57046      1.59190         0.157250      0.745402     -1.920536
      4.18418      0.66015      3.92384         1.138886      0.650594      2.633736
      3.41178      4.88103      1.45589        -0.887238      0.431830     -2.152927
      3.96438      3.99884      3.92384        -0.188967     -1.171372      1.885840
      4.54805      3.05334      6.85989        -0.066357     -0.024399     -0.054560
[...]
      6.48666      9.03025      3.92384        -1.864414      0.524554      1.773059
      7.07033      8.08475      6.85989         0.028092      0.013320     -0.090108
      7.65400      7.13925      9.79595        -1.010404      0.311647     -0.131208
      9.81241      6.71012      5.87212        -0.089811     -0.076846      0.161651
     10.39608      5.76462      8.80817         0.456616     -0.753728     -3.100909
     12.88505      8.62975      1.05368        -1.181968      0.533988     -3.690544
     14.85697      7.65563      2.93606         2.783647     -2.066979      0.499487
      8.14762      0.28933     11.44895         0.166108     -0.268442      2.710990
     10.39608      8.83196      9.79595         0.140329      1.023424     -0.118481
     15.44064      9.77746      6.85989         0.006810      0.040584     -0.121965
     11.79095      5.94239      1.09070        -0.553005      0.421887     -3.325413
     12.33469      5.69156      3.92384        -0.407735      0.362891      2.731380
     12.11489      9.03025      3.92384        -2.105588     -0.259426      1.637616
     12.69856      8.08475      6.85989         0.125145     -0.016268      0.028788
     13.28223      7.13925      9.79595        -0.985739      0.317726     -0.133714
    total drift:                               -0.233375      0.029127      0.080120

  FREE ENERGIE OF THE ION-ELECTRON SYSTEM (eV)
  free  energy   TOTEN  =      -472.22299198 eV

  energy  without entropy=     -470.99595334  energy(sigma->0) =     -471.60947266