 vasp.6.1.0 28Jan20 (build Mar 31 2020 17:42:31) gamma-only

 executed on             LinuxIFC date 2020.04.11  20:40:51

 INCAR:
 POTCAR:    PAW_PBE Ni_pv 06Sep2000
 POTCAR:    PAW_PBE S 06Sep2000
 POTCAR:    PAW_PBE Ni_pv 06Sep2000
   VRHFIN =Ni:

   TITEL  = PAW_PBE Ni_pv 06Sep2000
   POMASS =   58.690; ZVAL   =   16.000    mass and valenz
   ENMAX  =  367.986; ENMIN  =  275.989 eV

 POTCAR:    PAW_PBE S 06Sep2000
   VRHFIN =S : s2p4

   TITEL  = PAW_PBE S 06Sep2000
   POMASS =   32.066; ZVAL   =    6.000    mass and valenz
   ENMAX  =  258.689; ENMIN  =  194.016 eV

 Optimization of the real space projectors (new method)

 maximal supplied QI-value         = 18.90
 optimisation between [QCUT,QGAM] = [ 10.77, 21.73] = [ 32.49,132.25] Ry
 Optimized for a Real-space Cutoff    1.38 Angstroem

   l    n(q)    QCUT    max X(q) W(low)/X(q) W(high)/X(q)  e(spline)
   1      8    10.771     2.836    0.40E-04    0.29E-04    0.12E-06
   1      8    10.771     4.023    0.10E-03    0.48E-04    0.29E-06
   2      8    10.771    73.368    0.42E-03    0.97E-04    0.44E-06
   2      8    10.771    69.010    0.42E-03    0.99E-04    0.45E-06
   0      9    10.771    54.797    0.10E-03    0.56E-04    0.74E-07
   0      9    10.771    24.266    0.89E-04    0.49E-04    0.67E-07
 Optimization of the real space projectors (new method)

 maximal supplied QI-value         = 19.84
 optimisation between [QCUT,QGAM] = [ 10.71, 21.63] = [ 32.15,130.99] Ry
 Optimized for a Real-space Cutoff    1.19 Angstroem

   l    n(q)    QCUT    max X(q) W(low)/X(q) W(high)/X(q)  e(spline)
   0      8    10.715   187.594    0.41E-03    0.53E-04    0.66E-07
   0      8    10.715   164.243    0.41E-03    0.53E-04    0.65E-07
   1      7    10.715    67.533    0.19E-03    0.59E-03    0.68E-07
   1      7    10.715    50.729    0.19E-03    0.58E-03    0.67E-07
  PAW_PBE Ni_pv 06Sep2000               :
  PAW_PBE S 06Sep2000                   :

 POSCAR: Structure 43 made from -102-8.xsd file
  positions in direct lattice
 exchange correlation table for  LEXCH =        8
   RHO(1)=    0.500       N(1)  =     2000
   RHO(2)=  100.500       N(2)  =     4000

 ion  position               nearest neighbor table
   1  0.439  0.464  0.163-  30 2.25  36 2.26  44 2.26  37 2.36  45 2.36   5 2.53  22 2.53
   2  0.491  0.464  0.342-  31 2.25  37 2.26  45 2.26  46 2.36   6 2.53  23 2.53
   3  0.163  0.964  0.073-  27 2.25  38 2.26  39 2.36  35 2.36  11 2.53   7 2.53
   4  0.215  0.964  0.253-  28 2.25  39 2.26  35 2.26  12 2.53   8 2.53
   5  0.439  0.200  0.163-  35 2.25  36 2.26  40 2.26  37 2.36  41 2.36   1 2.53  22 2.53
   6  0.491  0.200  0.342-  37 2.26  41 2.26  42 2.36   2 2.53  23 2.53
   7  0.163  0.700  0.073-  32 2.25  38 2.26  39 2.36  30 2.36  11 2.53   3 2.53
   8  0.215  0.700  0.253-  33 2.25  39 2.26  30 2.26  31 2.36  12 2.53   4 2.53
   9  0.131  0.332  0.139-  36 2.25  27 2.26  32 2.26  28 2.36  33 2.36  18 2.53  14 2.53
  10  0.182  0.332  0.319-  37 2.25  28 2.26  33 2.26  29 2.36  34 2.36  19 2.53  15 2.53
  11  0.355  0.832  0.049-  51 2.25  30 2.36  35 2.36   7 2.53   3 2.53
  12  0.407  0.832  0.229-  52 2.25  30 2.26  35 2.26  31 2.36   4 2.53   8 2.53
  13  0.458  0.832  0.408-  31 2.26
  14  0.939  0.464  0.163-  43 2.25  49 2.26  32 2.26  50 2.36  33 2.36  18 2.53   9 2.53
  15  0.991  0.464  0.342-  50 2.26  33 2.26  34 2.36  19 2.53  10 2.53
  16  0.663  0.964  0.073-  40 2.25  51 2.26  52 2.36  47 2.36  24 2.53  20 2.53
  17  0.715  0.964  0.253-  41 2.25  52 2.26  47 2.26  48 2.36  25 2.53  21 2.53
  18  0.939  0.200  0.163-  47 2.25  49 2.26  27 2.26  50 2.36  28 2.36  14 2.53   9 2.53
  19  0.991  0.200  0.342-  48 2.25  50 2.26  28 2.26  29 2.36  15 2.53  10 2.53
  20  0.663  0.700  0.073-  44 2.25  51 2.26  52 2.36  43 2.36  24 2.53  16 2.53
  21  0.715  0.700  0.253-  45 2.25  52 2.26  43 2.26  25 2.53  17 2.53
  22  0.631  0.332  0.139-  49 2.25  40 2.26  44 2.26  41 2.36  45 2.36   5 2.53   1 2.53
  23  0.682  0.332  0.319-  50 2.25  41 2.26  45 2.26  42 2.36  46 2.36   6 2.53   2 2.53
  24  0.855  0.832  0.049-  38 2.25  43 2.36  47 2.36  20 2.53  16 2.53
  25  0.907  0.832  0.229-  39 2.25  43 2.26  47 2.26  48 2.36  17 2.53  21 2.53
  26  0.958  0.832  0.408-  48 2.26
  27  0.060  0.164  0.060-   3 2.25   9 2.26  18 2.26
  28  0.111  0.164  0.239-   4 2.25  10 2.26  19 2.26   9 2.36  18 2.36
  29  0.163  0.164  0.418-  10 2.36  19 2.36
  30  0.336  0.664  0.149-   1 2.25  12 2.26   8 2.26  11 2.36   7 2.36
  31  0.387  0.664  0.329-   2 2.25  13 2.26   8 2.36  12 2.36
  32  0.060  0.500  0.060-   7 2.25   9 2.26  14 2.26
  33  0.111  0.500  0.239-   8 2.25  10 2.26  15 2.26   9 2.36  14 2.36
  34  0.163  0.500  0.418-  10 2.36  15 2.36
  35  0.336  1.000  0.149-   5 2.25  12 2.26   4 2.26  11 2.36   3 2.36
  36  0.316  0.332  0.090-   9 2.25   5 2.26   1 2.26
  37  0.368  0.332  0.269-  10 2.25   6 2.26   2 2.26   1 2.36   5 2.36
  38  0.040  0.832  0.000-  24 2.25   7 2.26   3 2.26
  39  0.092  0.832  0.179-  25 2.25   8 2.26   4 2.26   3 2.36   7 2.36
  40  0.560  0.164  0.060-  16 2.25  22 2.26   5 2.26
  41  0.611  0.164  0.239-  17 2.25  23 2.26   6 2.26  22 2.36   5 2.36
  42  0.663  0.164  0.418-  23 2.36   6 2.36
  43  0.836  0.664  0.149-  14 2.25  25 2.26  21 2.26  24 2.36  20 2.36
  44  0.560  0.500  0.060-  20 2.25  22 2.26   1 2.26
  45  0.611  0.500  0.239-  21 2.25  23 2.26   2 2.26  22 2.36   1 2.36
  46  0.663  0.500  0.418-  23 2.36   2 2.36
  47  0.836  1.000  0.149-  18 2.25  25 2.26  17 2.26  24 2.36  16 2.36
  48  0.887  1.000  0.329-  19 2.25  26 2.26  17 2.36  25 2.36
  49  0.816  0.332  0.090-  22 2.25  18 2.26  14 2.26
  50  0.868  0.332  0.269-  23 2.25  19 2.26  15 2.26  14 2.36  18 2.36
  51  0.540  0.832  0.000-  11 2.25  16 2.26  20 2.26
  52  0.592  0.832  0.179-  12 2.25  17 2.26  21 2.26  20 2.36  16 2.36

  LATTYP: Found a simple orthorhombic cell.
 ALAT       =     9.5784100000
 B/A-ratio  =     1.1751911892
 C/A-ratio  =     1.7949213288

  Lattice vectors:

 A1 = (   0.0000000000,  -9.5784100000,   0.0000000000)
 A2 = ( -11.2564630382,   0.0000000000,   0.0000000000)
 A3 = (   0.0000000000,   0.0000000000, -17.1924924047)

Analysis of symmetry for initial positions (statically):
 Subroutine PRICEL returns:
 Original cell was already a primitive cell.

 Routine SETGRP: Setting up the symmetry group for a
 simple orthorhombic supercell.

 Subroutine GETGRP returns: Found  2 space group operations
 (whereof  1 operations were pure point group operations)
 out of a pool of  8 trial point group operations.

The static configuration has the point symmetry C_1 .
 The point group associated with its full space group is C_1h.

Analysis of symmetry for dynamics (positions and initial velocities):
 Subroutine PRICEL returns:
 Original cell was already a primitive cell.

 Routine SETGRP: Setting up the symmetry group for a
 simple orthorhombic supercell.

 Subroutine GETGRP returns: Found  2 space group operations
 (whereof  1 operations were pure point group operations)
 out of a pool of  8 trial point group operations.

The dynamic configuration has the point symmetry C_1 .
 The point group associated with its full space group is C_1h.

 Subroutine INISYM returns: Found  2 space group operations
 (whereof  1 operations are pure point group operations),
 and found     1 'primitive' translations

                                     Primitive cell

  volume of cell :    1853.6777

  direct lattice vectors                    reciprocal lattice vectors
    11.256463038  0.000000000  0.000000000     0.088837852  0.000000000  0.000000000
     0.000000000  9.578410000  0.000000000     0.000000000  0.104401461  0.000000000
     0.000000000  0.000000000 17.192492405     0.000000000  0.000000000  0.058164923

  length of vectors
    11.256463038  9.578410000 17.192492405     0.088837852  0.104401461  0.058164923

  position of ions in fractional coordinates (direct lattice)
     0.439334990  0.463887997  0.162833771
     0.491186924  0.463887997  0.342246010
     0.163409030  0.963887997  0.073127651
     0.215260964  0.963887997  0.252539890
     0.439334990  0.199681997  0.162833771
     0.491186924  0.199681997  0.342246010
     0.163409030  0.699681997  0.073127651
     0.215260964  0.699681997  0.252539890
     0.130639703  0.331784997  0.139132876
     0.182491637  0.331784997  0.318545115
     0.354713728  0.831784997  0.049426756
     0.406565662  0.831784997  0.228838995
     0.458417597  0.831784997  0.408251235
     0.939334990  0.463887997  0.162833771
     0.991186924  0.463887997  0.342246010
     0.663409030  0.963887997  0.073127651
     0.715260964  0.963887997  0.252539890
     0.939334990  0.199681997  0.162833771
     0.991186924  0.199681997  0.342246010
     0.663409030  0.699681997  0.073127651
     0.715260964  0.699681997  0.252539890
     0.630639703  0.331784997  0.139132876
     0.682491637  0.331784997  0.318545115
     0.854713728  0.831784997  0.049426756
     0.906565662  0.831784997  0.228838995
     0.958417597  0.831784997  0.408251235
     0.059637103  0.163569997  0.059526290
     0.111489038  0.163569997  0.238938529
     0.163340972  0.163569997  0.418350768
     0.335563063  0.663569997  0.149232409
     0.387414997  0.663569997  0.328644649
     0.059637103  0.499999997  0.059526290
     0.111489038  0.499999997  0.238938529
     0.163340972  0.499999997  0.418350768
     0.335563063  0.999999997  0.149232409
     0.316036869  0.331784997  0.089706120
     0.367888803  0.331784997  0.269118359
     0.040110910  0.831784997  0.000000000
     0.091962844  0.831784997  0.179412239
     0.559637103  0.163569997  0.059526290
     0.611489038  0.163569997  0.238938529
     0.663340972  0.163569997  0.418350768
     0.835563063  0.663569997  0.149232409
     0.559637103  0.499999997  0.059526290
     0.611489038  0.499999997  0.238938529
     0.663340972  0.499999997  0.418350768
     0.835563063  0.999999997  0.149232409
     0.887414997  0.999999997  0.328644649
     0.816036869  0.331784997  0.089706120
     0.867888803  0.331784997  0.269118359
     0.540110910  0.831784997  0.000000000
     0.591962844  0.831784997  0.179412239

  ion indices of the primitive-cell ions
   primitive index   ion index
                 1           1
                 2           2
                 3           3
                 4           4
                 5           5
                 6           6
                 7           7
                 8           8
                 9           9
                10          10
                11          11
                12          12
                13          13
                14          14
                15          15
                16          16
                17          17
                18          18
                19          19
                20          20
                21          21
                22          22
                23          23
                24          24
                25          25
                26          26
                27          27
                28          28
                29          29
                30          30
[...]
      26 -86.3922      27 -92.1096      28 -93.0720      29 -91.5116      30 -93.1769
      31 -92.6035      32 -92.1333      33 -93.0458      34 -91.6450      35 -93.1601
      36 -92.1817      37 -92.8879      38 -92.0811      39 -93.1580      40 -92.1333
      41 -93.0458      42 -91.6450      43 -93.1602      44 -92.1096      45 -93.0720
      46 -91.5116      47 -93.1769      48 -92.6035      49 -92.1817      50 -92.8879
      51 -92.0811      52 -93.1580

 E-fermi :  -0.4673     XC(G=0):  -5.7990     alpha+bet : -5.1393

 k-point     1 :       0.0000    0.0000    0.0000
  band No.  band energies     occupation
      1     -64.5540      2.00000
      2     -64.5540      2.00000
      3     -64.5249      2.00000
      4     -64.5249      2.00000
      5     -64.4882      2.00000
      6     -64.4881      2.00000
      7     -64.4774      2.00000
      8     -64.4773      2.00000
      9     -64.4619      2.00000
     10     -64.4619      2.00000
     11     -64.4467      2.00000
     12     -64.4467      2.00000
     13     -64.4173      2.00000
     14     -64.4172      2.00000
     15     -64.3953      2.00000
     16     -64.3953      2.00000
     17     -64.3927      2.00000
     18     -64.3927      2.00000
     19     -64.3633      2.00000
     20     -64.3632      2.00000
     21     -64.3431      2.00000
     22     -64.3430      2.00000
     23     -64.3214      2.00000
     24     -64.3213      2.00000
     25     -64.2617      2.00000
     26     -64.2616      2.00000
     27     -64.2403      2.00000
     28     -64.2402      2.00000
     29     -64.2177      2.00000
     30     -64.2175      2.00000
     31     -64.1962      2.00000
     32     -64.1960      2.00000
     33     -64.1328      2.00000
     34     -64.1327      2.00000
     35     -64.1123      2.00000
     36     -64.1123      2.00000
     37     -64.0978      2.00000
     38     -64.0978      2.00000
     39     -64.0944      2.00000
     40     -64.0943      2.00000
     41     -64.0778      2.00000
     42     -64.0778      2.00000
     43     -64.0733      2.00000
     44     -64.0733      2.00000
     45     -64.0645      2.00000
     46     -64.0645      2.00000
     47     -64.0298      2.00000
     48     -64.0298      2.00000
     49     -63.9909      2.00000
     50     -63.9908      2.00000
     51     -63.9697      2.00000
     52     -63.9697      2.00000
     53     -63.9490      2.00000
     54     -63.9490      2.00000
     55     -63.9142      2.00000
     56     -63.9141      2.00000
     57     -63.8259      2.00000
     58     -63.8259      2.00000
     59     -63.8062      2.00000
     60     -63.8062      2.00000
[...]
    330       4.4297      0.00000
    331       4.5414      0.00000
    332       4.5995      0.00000
    333       4.7954      0.00000
    334       4.8568      0.00000
    335       4.8693      0.00000
    336       4.9100      0.00000
    337       4.9344      0.00000
    338       4.9550      0.00000
    339       5.1007      0.00000
    340       5.2106      0.00000
    341       5.2857      0.00000
    342       5.4110      0.00000
    343       5.4183      0.00000
    344       5.5253      0.00000

 soft charge-density along one line, spin component           1
         0         1         2         3         4         5         6         7         8         9
 total charge-density along one line

------------------------ aborting loop because EDIFF is reached ----------------------------------------

  FORCE on cell =-STRESS in cart. coord.  units (eV):
  Direction    XX          YY          ZZ          XY          YZ          ZX
  Alpha Z  1046.73971  1046.73971  1046.73971
  Ewald  122611.72448120813.59816************    -0.00000     0.00000   711.04766
  Hartree148347.99126146786.05321************    -0.00111     0.00042   359.54099
  E(xc)   -3623.12075 -3623.04977 -3626.83086     0.00006    -0.00004     1.48231
  Local  ************************269380.72472     0.00397    -0.00177 -1049.91675
  n-local  -495.38256  -506.67607  -507.77318    -0.00222     0.01138     7.76827
  augment  4179.51743  4187.95849  4182.96939    -0.01920     0.00151   -12.63688
  Kinetic  7898.18634  7886.35355  7915.54203    -0.00052     0.00113   -31.54789
  Fock        0.00000     0.00000     0.00000     0.00000     0.00000     0.00000
  Total     -37.82706   -34.65675   -41.32054     0.00000     0.00000   -14.26230
  in kB     -32.69482   -29.95465   -35.71432     0.00000     0.00000   -12.32724

 VOLUME and BASIS-vectors are now :
  energy-cutoff  :      450.00
  volume of cell :     1853.68
      direct lattice vectors                 reciprocal lattice vectors
    11.256463038  0.000000000  0.000000000     0.088837852  0.000000000  0.000000000
     0.000000000  9.578410000  0.000000000     0.000000000  0.104401461  0.000000000
     0.000000000  0.000000000 17.192492405     0.000000000  0.000000000  0.058164923

  length of vectors
    11.256463038  9.578410000 17.192492405     0.088837852  0.104401461  0.058164923

 FORCES acting on ions
    electron-ion (+dipol)            ewald-force                    non-local-force                 convergence-correction
   0.280E+03 -.347E+03 0.118E+04   -.281E+03 0.347E+03 -.119E+04   0.756E+00 -.427E+00 0.454E+01   0.234E-02 0.934E-02 0.176E-01
   0.276E+03 -.460E+03 -.289E+04   -.273E+03 0.462E+03 0.289E+04   -.305E+01 -.132E+01 -.388E+00   -.475E-02 0.266E-01 0.194E-01
   0.113E+03 -.630E+03 0.277E+04   -.117E+03 0.630E+03 -.277E+04   0.274E+01 -.108E+01 0.228E+01   -.147E-02 0.160E-03 -.125E-02
   0.892E+02 -.314E+03 -.150E+04   -.896E+02 0.312E+03 0.149E+04   -.151E+00 0.209E+01 0.490E+01   -.448E-02 -.883E-02 0.333E-01
   0.294E+03 0.396E+03 0.113E+04   -.295E+03 -.396E+03 -.114E+04   0.862E+00 0.481E+00 0.419E+01   0.184E-02 -.526E-02 0.132E-01
   0.413E+03 0.678E+03 -.287E+04   -.405E+03 -.674E+03 0.287E+04   -.646E+01 -.407E+01 0.846E+00   -.456E-03 -.160E-01 0.193E-01
   0.126E+03 0.628E+03 0.277E+04   -.129E+03 -.628E+03 -.277E+04   0.230E+01 0.102E+01 0.199E+01   -.176E-03 0.544E-02 0.106E-02
   0.271E+03 0.248E+03 -.141E+04   -.270E+03 -.248E+03 0.140E+04   -.103E+01 -.718E+00 0.139E+01   0.215E-02 0.462E-02 0.366E-01
   -.475E+03 -.104E+01 0.185E+04   0.478E+03 0.861E+00 -.185E+04   -.306E+01 0.196E+00 0.493E+01   0.187E-02 -.187E-02 0.105E-01
   -.555E+03 0.226E+02 -.227E+04   0.556E+03 -.225E+02 0.227E+04   -.128E+01 -.826E-02 -.431E+01   0.135E-02 -.203E-02 0.140E-01
   -.348E+03 -.761E+01 0.326E+04   0.352E+03 0.727E+01 -.326E+04   -.272E+01 0.236E+00 -.227E+01   -.762E-03 0.105E-02 -.314E-02
   -.450E+03 -.149E+03 -.722E+03   0.450E+03 0.148E+03 0.722E+03   0.584E+00 0.721E+00 0.442E+00   0.838E-02 -.616E-02 0.473E-01
   -.741E+02 -.180E+03 -.332E+04   0.666E+02 0.170E+03 0.330E+04   0.692E+01 0.952E+01 0.129E+02   0.164E-04 -.293E-02 0.190E-01
   0.294E+03 -.396E+03 0.113E+04   -.295E+03 0.396E+03 -.114E+04   0.862E+00 -.481E+00 0.419E+01   0.184E-02 0.526E-02 0.132E-01
   0.413E+03 -.678E+03 -.287E+04   -.405E+03 0.674E+03 0.287E+04   -.646E+01 0.407E+01 0.846E+00   -.456E-03 0.160E-01 0.193E-01
   0.126E+03 -.628E+03 0.277E+04   -.129E+03 0.628E+03 -.277E+04   0.230E+01 -.102E+01 0.199E+01   -.175E-03 -.544E-02 0.106E-02
   0.271E+03 -.248E+03 -.141E+04   -.270E+03 0.248E+03 0.140E+04   -.103E+01 0.718E+00 0.139E+01   0.215E-02 -.462E-02 0.366E-01
   0.280E+03 0.347E+03 0.118E+04   -.281E+03 -.347E+03 -.119E+04   0.756E+00 0.427E+00 0.454E+01   0.234E-02 -.934E-02 0.176E-01
   0.276E+03 0.460E+03 -.289E+04   -.273E+03 -.462E+03 0.289E+04   -.305E+01 0.132E+01 -.388E+00   -.475E-02 -.266E-01 0.194E-01
   0.113E+03 0.630E+03 0.277E+04   -.117E+03 -.630E+03 -.277E+04   0.274E+01 0.108E+01 0.228E+01   -.147E-02 -.161E-03 -.125E-02
   0.892E+02 0.314E+03 -.150E+04   -.896E+02 -.312E+03 0.149E+04   -.151E+00 -.209E+01 0.490E+01   -.448E-02 0.883E-02 0.333E-01
   -.475E+03 0.105E+01 0.185E+04   0.478E+03 -.861E+00 -.185E+04   -.306E+01 -.196E+00 0.493E+01   0.187E-02 0.187E-02 0.105E-01
   -.555E+03 -.226E+02 -.227E+04   0.556E+03 0.225E+02 0.227E+04   -.128E+01 0.826E-02 -.431E+01   0.135E-02 0.204E-02 0.140E-01
   -.348E+03 0.762E+01 0.326E+04   0.352E+03 -.727E+01 -.326E+04   -.272E+01 -.236E+00 -.227E+01   -.762E-03 -.105E-02 -.314E-02
   -.450E+03 0.149E+03 -.722E+03   0.450E+03 -.148E+03 0.722E+03   0.584E+00 -.721E+00 0.442E+00   0.838E-02 0.616E-02 0.473E-01
   -.741E+02 0.181E+03 -.332E+04   0.666E+02 -.170E+03 0.330E+04   0.692E+01 -.952E+01 0.129E+02   0.161E-04 0.293E-02 0.190E-01
   0.365E+02 -.529E+02 0.135E+04   -.374E+02 0.533E+02 -.136E+04   0.156E+01 -.671E+00 0.561E+01   0.203E-02 -.257E-02 -.180E-02
   -.970E+02 0.171E+03 -.186E+03   0.983E+02 -.173E+03 0.185E+03   -.109E+01 0.250E+01 0.120E+01   -.140E-02 -.143E-02 0.901E-02
   -.146E+03 0.188E+03 -.140E+04   0.148E+03 -.189E+03 0.141E+04   -.214E+01 0.191E+01 -.482E+01   -.168E-02 -.926E-02 0.633E-02
   -.720E+02 0.183E+03 0.538E+03   0.732E+02 -.185E+03 -.539E+03   -.140E+01 0.211E+01 -.288E+00   0.452E-03 0.119E-02 0.532E-02
   0.530E+02 0.160E+02 -.995E+03   -.532E+02 -.177E+02 0.995E+03   0.383E+00 0.348E+01 0.882E+00   0.827E-02 0.177E-01 0.239E-01
   0.402E+02 0.513E+02 0.135E+04   -.412E+02 -.518E+02 -.135E+04   0.157E+01 0.786E+00 0.550E+01   0.960E-03 0.317E-03 -.219E-02
   -.584E+02 -.178E+03 -.192E+03   0.602E+02 0.180E+03 0.190E+03   -.197E+01 -.230E+01 0.169E+01   0.227E-02 0.226E-02 0.775E-02
   -.108E+03 -.181E+03 -.141E+04   0.110E+03 0.183E+03 0.141E+04   -.329E+01 -.218E+01 -.401E+01   0.162E-02 0.870E-02 0.639E-02
   -.802E+02 -.192E+03 0.509E+03   0.807E+02 0.193E+03 -.509E+03   -.599E+00 -.156E+01 0.467E+00   -.111E-02 -.193E-02 0.235E-02
   0.622E+02 0.372E+01 0.121E+04   -.621E+02 -.372E+01 -.122E+04   -.245E+00 0.164E-01 0.621E+01   -.235E-02 0.583E-04 -.854E-03
   0.172E+03 0.298E+02 -.463E+03   -.175E+03 -.299E+02 0.463E+03   0.312E+01 -.143E+00 0.309E+00   -.205E-02 0.269E-02 0.877E-02
   0.784E+02 0.673E+00 0.149E+04   -.787E+02 -.744E+00 -.149E+04   0.500E+00 0.481E-01 0.500E+01   0.855E-03 0.156E-02 -.413E-02
   0.163E+03 0.558E+01 0.157E+03   -.165E+03 -.538E+01 -.157E+03   0.217E+01 -.153E+00 0.108E+01   -.139E-02 0.674E-03 0.704E-02
   0.402E+02 -.513E+02 0.135E+04   -.412E+02 0.518E+02 -.135E+04   0.157E+01 -.786E+00 0.550E+01   0.960E-03 -.316E-03 -.219E-02
   -.584E+02 0.178E+03 -.192E+03   0.602E+02 -.180E+03 0.190E+03   -.197E+01 0.230E+01 0.169E+01   0.227E-02 -.226E-02 0.775E-02
   -.108E+03 0.181E+03 -.141E+04   0.110E+03 -.183E+03 0.141E+04   -.329E+01 0.218E+01 -.401E+01   0.162E-02 -.870E-02 0.639E-02
   -.802E+02 0.192E+03 0.509E+03   0.807E+02 -.193E+03 -.509E+03   -.599E+00 0.156E+01 0.467E+00   -.111E-02 0.193E-02 0.235E-02
   0.365E+02 0.529E+02 0.135E+04   -.374E+02 -.533E+02 -.136E+04   0.156E+01 0.671E+00 0.561E+01   0.203E-02 0.257E-02 -.180E-02
   -.970E+02 -.171E+03 -.186E+03   0.983E+02 0.173E+03 0.185E+03   -.109E+01 -.250E+01 0.120E+01   -.140E-02 0.143E-02 0.901E-02
   -.146E+03 -.188E+03 -.140E+04   0.148E+03 0.189E+03 0.141E+04   -.214E+01 -.191E+01 -.482E+01   -.168E-02 0.926E-02 0.633E-02
   -.720E+02 -.183E+03 0.538E+03   0.732E+02 0.185E+03 -.539E+03   -.140E+01 -.211E+01 -.288E+00   0.452E-03 -.119E-02 0.532E-02
   0.530E+02 -.160E+02 -.995E+03   -.532E+02 0.177E+02 0.995E+03   0.383E+00 -.348E+01 0.882E+00   0.827E-02 -.177E-01 0.239E-01
   0.622E+02 -.372E+01 0.121E+04   -.621E+02 0.372E+01 -.122E+04   -.245E+00 -.164E-01 0.621E+01   -.235E-02 -.580E-04 -.854E-03
   0.172E+03 -.298E+02 -.463E+03   -.175E+03 0.299E+02 0.463E+03   0.312E+01 0.143E+00 0.309E+00   -.205E-02 -.269E-02 0.877E-02
   0.784E+02 -.673E+00 0.149E+04   -.787E+02 0.744E+00 -.149E+04   0.500E+00 -.481E-01 0.500E+01   0.856E-03 -.156E-02 -.413E-02
   0.163E+03 -.558E+01 0.157E+03   -.165E+03 0.538E+01 -.157E+03   0.217E+01 0.153E+00 0.108E+01   -.139E-02 -.674E-03 0.704E-02
   0.103E+02 0.558E-01 -.101E+03   0.711E-12 -.407E-12 -.750E-11   -.999E+01 0.464E-14 0.101E+03   0.247E-01 0.578E-05 0.589E+00

 POSITION                                       TOTAL-FORCE (eV/Angst)
      4.94536      4.44331      2.79952        -0.259362     -0.057434     -0.327478
      5.52903      4.44331      5.88406         0.695465      0.521193     -0.019192
      1.83941      9.23251      1.25725        -0.759710     -0.219342      0.364101
      2.42308      9.23251      4.34179        -0.507575      0.357680     -0.907401
      4.94536      1.91264      2.79952        -0.287519     -0.117055     -0.273738
      5.52903      1.91264      5.88406         1.227579     -0.127889     -0.019553
      1.83941      6.70184      1.25725        -0.810035      0.170210      0.384021
      2.42308      6.70184      4.34179         0.158756     -0.133876     -0.267657
      1.47054      3.17797      2.39204         0.519832      0.006000     -0.337732
      2.05421      3.17797      5.47658        -0.104598      0.076870      0.910047
      3.99282      7.96718      0.84977         0.792429     -0.100885      1.064517
      4.57649      7.96718      3.93431         0.047590     -0.561185     -0.119871
      5.16016      7.96718      7.01886        -0.564888     -0.984774     -1.714946
     10.57359      4.44331      2.79952        -0.287519      0.117055     -0.273738
     11.15726      4.44331      5.88406         1.227579      0.127889     -0.019553
      7.46764      9.23251      1.25725        -0.810035     -0.170210      0.384021
      8.05131      9.23251      4.34179         0.158756      0.133876     -0.267657
     10.57359      1.91264      2.79952        -0.259362      0.057434     -0.327478
     11.15726      1.91264      5.88406         0.695465     -0.521193     -0.019192
      7.46764      6.70184      1.25725        -0.759710      0.219342      0.364101
      8.05131      6.70184      4.34179        -0.507575     -0.357680     -0.907401
      7.09877      3.17797      2.39204         0.519832     -0.006000     -0.337732
      7.68244      3.17797      5.47658        -0.104598     -0.076870      0.910047
      9.62105      7.96718      0.84977         0.792429      0.100885      1.064517
     10.20472      7.96718      3.93431         0.047590      0.561185     -0.119871
     10.78839      7.96718      7.01886        -0.564888      0.984774     -1.714946
      0.67130      1.56674      1.02341         0.602916     -0.289146      0.255012
      1.25497      1.56674      4.10795         0.241851      0.080489      0.052317
      1.83864      1.56674      7.19249        -0.804091      0.472879     -1.366996
      3.77725      6.35595      2.56568        -0.144272      0.333864     -1.135795
      4.36092      6.35595      5.65022         0.147328      1.848469      1.134383
      0.67130      4.78920      1.02341         0.619500      0.271908      0.260851
      1.25497      4.78920      4.10795        -0.162524     -0.123866      0.285064
      1.83864      4.78920      7.19249        -1.351043     -0.648050     -1.311382
      3.77725      9.57841      2.56568        -0.103631     -0.312449     -0.194744
      3.55746      3.17797      1.54227        -0.214792      0.016632      0.783527
      4.14113      3.17797      4.62682         0.270012     -0.284154      0.809850
      0.45151      7.96718      0.00000         0.149001     -0.020793      0.698277
      1.03518      7.96718      3.08454         0.601781      0.041183      0.994517
      6.29953      1.56674      1.02341         0.619500     -0.271908      0.260851
      6.88320      1.56674      4.10795        -0.162524      0.123866      0.285064
      7.46687      1.56674      7.19249        -1.351043      0.648050     -1.311382
      9.40548      6.35595      2.56568        -0.103631      0.312449     -0.194744
      6.29953      4.78920      1.02341         0.602916      0.289146      0.255012
      6.88320      4.78920      4.10795         0.241851     -0.080489      0.052317
      7.46687      4.78920      7.19249        -0.804091     -0.472879     -1.366996
      9.40548      9.57841      2.56568        -0.144272     -0.333864     -1.135795
      9.98915      9.57841      5.65022         0.147328     -1.848469      1.134383
      9.18569      3.17797      1.54227        -0.214792     -0.016632      0.783527
      9.76936      3.17797      4.62682         0.270012      0.284154      0.809850
      6.07974      7.96718      0.00000         0.149001      0.020793      0.698277
      6.66341      7.96718      3.08454         0.601781     -0.041183      0.994517
    total drift:                                0.323198      0.055852      0.081575

  FREE ENERGIE OF THE ION-ELECTRON SYSTEM (eV)
  free  energy   TOTEN  =      -248.81000771 eV

  energy  without entropy=     -247.76426938  energy(sigma->0) =     -248.28713854