 vasp.5.4.4.18Apr17-6-g9f103f2a35 (build Aug 13 2019 17:33:20) gamma-only

 executed on             LinuxIFC date 2020.05.11  19:54:46

 INCAR:
 POTCAR:    PAW_PBE Ni_pv 06Sep2000
 POTCAR:    PAW_PBE S 06Sep2000
 POTCAR:    PAW_PBE Ni_pv 06Sep2000
   VRHFIN =Ni:

   TITEL  = PAW_PBE Ni_pv 06Sep2000
   POMASS =   58.690; ZVAL   =   16.000    mass and valenz
   ENMAX  =  367.986; ENMIN  =  275.989 eV

 POTCAR:    PAW_PBE S 06Sep2000
   VRHFIN =S : s2p4

   TITEL  = PAW_PBE S 06Sep2000
   POMASS =   32.066; ZVAL   =    6.000    mass and valenz
   ENMAX  =  258.689; ENMIN  =  194.016 eV

 Optimization of the real space projectors (new method)

 maximal supplied QI-value         = 18.90
 optimisation between [QCUT,QGAM] = [ 10.77, 21.73] = [ 32.49,132.25] Ry
 Optimized for a Real-space Cutoff    1.38 Angstroem

   l    n(q)    QCUT    max X(q) W(low)/X(q) W(high)/X(q)  e(spline)
   1      8    10.771     2.836    0.40E-04    0.29E-04    0.12E-06
   1      8    10.771     4.023    0.10E-03    0.48E-04    0.29E-06
   2      8    10.771    73.368    0.42E-03    0.97E-04    0.44E-06
   2      8    10.771    69.010    0.42E-03    0.99E-04    0.45E-06
   0      9    10.771    54.797    0.10E-03    0.56E-04    0.74E-07
   0      9    10.771    24.266    0.89E-04    0.49E-04    0.67E-07
 Optimization of the real space projectors (new method)

 maximal supplied QI-value         = 19.84
 optimisation between [QCUT,QGAM] = [ 10.71, 21.63] = [ 32.15,130.99] Ry
 Optimized for a Real-space Cutoff    1.19 Angstroem

   l    n(q)    QCUT    max X(q) W(low)/X(q) W(high)/X(q)  e(spline)
   0      8    10.715   187.594    0.41E-03    0.53E-04    0.66E-07
   0      8    10.715   164.243    0.41E-03    0.53E-04    0.65E-07
   1      7    10.715    67.533    0.19E-03    0.59E-03    0.68E-07
   1      7    10.715    50.729    0.19E-03    0.58E-03    0.67E-07
  PAW_PBE Ni_pv 06Sep2000               :
  PAW_PBE S 06Sep2000                   :

 POSCAR: Type_036 Type_136
  positions in cartesian coordinates
 exchange correlation table for  LEXCH =        8
   RHO(1)=    0.500       N(1)  =     2000
   RHO(2)=  100.500       N(2)  =     4000

 ion  position               nearest neighbor table
   1  0.780  0.145  0.121-  63 2.08  49 2.08  41 2.25  50 2.36  64 2.36
   2  0.793  0.145  0.282-  64 2.05  50 2.05  42 2.05
   3  0.223  0.645  0.094-  43 2.02  44 2.19  61 2.24  51 2.24   4 2.34
   4  0.297  0.645  0.216-  52 2.10  62 2.10  44 2.25  51 2.26  61 2.26   3 2.34  28 2.53  16 2.53

   5  0.394  0.145  0.126-  45 2.03  46 2.16  67 2.26  53 2.26   6 2.35
   6  0.470  0.145  0.248-  54 2.03  68 2.03  46 2.25  53 2.26  67 2.26   5 2.35  30 2.53  18 2.53

[...]

  37  0.988  0.145  0.361-  10 2.01  14 2.06  26 2.06
  38  0.991  0.145  0.182-  26 2.08  14 2.08  25 2.19  13 2.19   9 2.25
  39  0.474  0.645  0.087-  15 2.01  27 2.01  11 2.06  28 2.26  16 2.26  40 2.77
  40  0.512  0.645  0.253-  11 2.06  28 2.19  16 2.19  12 2.24  39 2.77
  41  0.647  0.145  0.119-  17 2.02  29 2.02   1 2.25  30 2.26  18 2.26
  42  0.671  0.145  0.291-   2 2.05  18 2.09  30 2.09
  43  0.118  0.645  0.035-   3 2.02  31 2.06  19 2.06
  44  0.164  0.645  0.214-  32 2.05  20 2.05   3 2.19   4 2.25  31 2.36  19 2.36
  45  0.288  0.145  0.066-   5 2.03  21 2.06  33 2.06
  46  0.336  0.145  0.246-  22 2.07  34 2.07   5 2.16   6 2.25  33 2.36  21 2.36
  47  0.819  0.645  0.151-  23 2.21  35 2.21   7 2.25  36 2.26  24 2.26  48 2.77
  48  0.847  0.645  0.319-   8 2.06  24 2.10  36 2.10  47 2.77
  49  0.818  0.293  0.035-  23 2.02  25 2.06   1 2.08
  50  0.829  0.314  0.214-   2 2.05  25 2.10  23 2.15  26 2.18  24 2.25   1 2.36
  51  0.312  0.814  0.119-  27 1.99   3 2.24  21 2.25   4 2.26  28 2.26
  52  0.355  0.787  0.295-  22 2.01  28 2.06   4 2.10  62 2.71
  53  0.484  0.314  0.151-  29 1.99  16 2.25   5 2.26  30 2.26   6 2.26
  54  0.522  0.293  0.319-  30 2.02   6 2.03
  55  0.001  0.814  0.246-  32 2.03   8 2.03  14 2.17   7 2.36  31 2.36  56 2.78
  56  0.968  0.820  0.078-   7 2.08  31 2.09  13 2.10  55 2.78
  57  0.140  0.322  0.110-   9 2.09  33 2.10  19 2.11  58 2.77
  58  0.174  0.314  0.278-  34 2.05  20 2.09  10 2.16   9 2.36  33 2.36  57 2.77
  59  0.657  0.814  0.183-  11 2.13  18 2.25  36 2.26  12 2.26  35 2.32
  60  0.694  0.792  0.351-  36 2.02  12 2.02
  61  0.312  0.477  0.119-  15 1.99   3 2.24  33 2.25   4 2.26  16 2.26
  62  0.355  0.504  0.295-  34 2.01  16 2.06   4 2.10  52 2.71
  63  0.818  0.998  0.035-  35 2.02  13 2.06   1 2.08
  64  0.829  0.977  0.214-   2 2.05  13 2.10  35 2.15  14 2.18  36 2.25   1 2.36
  65  0.001  0.477  0.246-  20 2.03   8 2.03  26 2.17   7 2.36  19 2.36  66 2.78
  66  0.968  0.471  0.078-   7 2.08  19 2.09  25 2.10  65 2.78
  67  0.484  0.977  0.151-  17 1.99  28 2.25   5 2.26  18 2.26   6 2.26
  68  0.522  0.998  0.319-  18 2.02   6 2.03
  69  0.657  0.477  0.183-  11 2.13  30 2.25  24 2.26  12 2.26  23 2.32
  70  0.694  0.498  0.351-  24 2.02  12 2.02
  71  0.140  0.968  0.110-   9 2.09  21 2.10  31 2.11  72 2.77
  72  0.174  0.977  0.278-  22 2.05  32 2.09  10 2.16   9 2.36  21 2.36  71 2.77

  LATTYP: Found a simple orthorhombic cell.
 ALAT       =     9.5784100000
 B/A-ratio  =     1.6880763216
 C/A-ratio  =     1.7627867312

  Lattice vectors:

 A1 = (   0.0000000000,   9.5784100000,   0.0000000000)
 A2 = (   0.0000000000,   0.0000000000, -16.1690871197)
 A3 = ( -16.8846940542,   0.0000000000,   0.0000000000)

Analysis of symmetry for initial positions (statically):
 Subroutine PRICEL returns:
 Original cell was already a primitive cell.

 Routine SETGRP: Setting up the symmetry group for a
 simple orthorhombic supercell.

 Subroutine GETGRP returns: Found  2 space group operations
 (whereof  1 operations were pure point group operations)
 out of a pool of  8 trial point group operations.

The static configuration has the point symmetry C_1 .
 The point group associated with its full space group is C_1h.

Analysis of symmetry for dynamics (positions and initial velocities):
 Subroutine PRICEL returns:
 Original cell was already a primitive cell.

 Routine SETGRP: Setting up the symmetry group for a
 simple orthorhombic supercell.

 Subroutine GETGRP returns: Found  2 space group operations
 (whereof  1 operations were pure point group operations)
 out of a pool of  8 trial point group operations.

The dynamic configuration has the point symmetry C_1 .
 The point group associated with its full space group is C_1h.

 Subroutine INISYM returns: Found  2 space group operations
 (whereof  1 operations are pure point group operations),
 and found     1 'primitive' translations

 KPOINTS: gamma-point-only calculation. no periodi

Automatic generation of k-mesh.
Space group operators:
 irot       det(A)        alpha          n_x          n_y          n_z        tau_x        tau_y        tau_z
    1     1.000000     0.000000     1.000000     0.000000     0.000000     0.000000     0.000000     0.000000
    2    -1.000000   180.000000     0.000000     1.000000     0.000000    -0.000000     0.290594     0.000000

 Subroutine IBZKPT returns following result:

 Found      1 irreducible k-points:

 Following reciprocal coordinates:
            Coordinates               Weight
  0.000000  0.000000  0.000000      1.000000

 Following cartesian coordinates:
            Coordinates               Weight
  0.000000  0.000000  0.000000      1.000000

 SYSTEM =  "Millerite NiS"
 POSCAR =  Type_036 Type_136

 Startparameter for this run:
   NWRITE =      2    write-flag & timer
   PREC   = normal    normal or accurate (medium, high low for compatibility)
   ISTART =      0    job   : 0-new  1-cont  2-samecut
   ICHARG =      2    charge: 1-file 2-atom 10-const
   ISPIN  =      1    spin polarized calculation?
   LNONCOLLINEAR =      F non collinear calculations
   LSORBIT =      F    spin-orbit coupling
   INIWAV =      1    electr: 0-lowe 1-rand  2-diag
   LASPH  =      F    aspherical Exc in radial PAW
   METAGGA=      F    non-selfconsistent MetaGGA calc.

 Electronic Relaxation 1
   ENCUT  =  450.0 eV  33.07 Ry    5.75 a.u.  29.20 16.57 27.97*2*pi/ulx,y,z
   ENINI  =  450.0     initial cutoff
   ENAUG  =  703.4 eV  augmentation charge cutoff
   NELM   =    100;   NELMIN=  2; NELMDL= -5     # of ELM steps
   EDIFF  = 0.1E-03   stopping-criterion for ELM
   LREAL  =      T    real-space projection
   NLSPLINE    = F    spline interpolate recip. space projectors
   LCOMPAT=      F    compatible to vasp.4.4
   GGA_COMPAT  = T    GGA compatible to vasp.4.4-vasp.4.6
   LMAXPAW     = -100 max onsite density
   LMAXMIX     =    2 max onsite mixed and CHGCAR
   VOSKOWN=      0    Vosko Wilk Nusair interpolation
   ROPT   =   -0.00050  -0.00050
 Ionic relaxation
   EDIFFG = 0.1E-02   stopping-criterion for IOM
   NSW    =      0    number of steps for IOM
   NBLOCK =      1;   KBLOCK =      1    inner block; outer block
   IBRION =     -1    ionic relax: 0-MD 1-quasi-New 2-CG
   NFREE  =      0    steps in history (QN), initial steepest desc. (CG)
   ISIF   =      2    stress and relaxation
   IWAVPR =     10    prediction:  0-non 1-charg 2-wave 3-comb
   ISYM   =      2    0-nonsym 1-usesym 2-fastsym
   LCORR  =      T    Harris-Foulkes like correction to forces

   POTIM  = 0.5000    time-step for ionic-motion
   TEIN   =    0.0    initial temperature
   TEBEG  =    0.0;   TEEND  =   0.0 temperature during run
   SMASS  =  -3.00    Nose mass-parameter (am)
   estimated Nose-frequenzy (Omega)   =  0.10E-29 period in steps =****** mass=  -0.652E-26a.u.
   SCALEE = 1.0000    scale energy and forces
   NPACO  =    256;   APACO  = 16.0  distance and # of slots for P.C.
   PSTRESS=    0.0 pullay stress

  Mass of Ions in am
   POMASS =  58.69 32.07
  Ionic Valenz
   ZVAL   =  16.00  6.00
  Atomic Wigner-Seitz radii
  virtual crystal weights
   VCA    =   1.00  1.00
   NELECT =     792.0000    total number of electrons
   NUPDOWN=      -1.0000    fix difference up-down

 DOS related values:
   EMIN   =  10.00;   EMAX   =-10.00  energy-range for DOS
   EFERMI =   0.00
   ISMEAR =     0;   SIGMA  =   0.20  broadening in eV -4-tet -1-fermi 0-gaus

 Electronic relaxation 2 (details)
   IALGO  =     38    algorithm
   LDIAG  =      T    sub-space diagonalisation (order eigenvalues)
   LSUBROT=      F    optimize rotation matrix (better conditioning)
   TURBO    =      0    0=normal 1=particle mesh
   IRESTART =      0    0=no restart 2=restart with 2 vectors
   NREBOOT  =      0    no. of reboots
   NMIN     =      0    reboot dimension
   EREF     =   0.00    reference energy to select bands
   IMIX   =      4    mixing-type and parameters
     AMIX     =   0.40;   BMIX     =  1.00
     AMIX_MAG =   1.60;   BMIX_MAG =  1.00
     AMIN     =   0.10
     WC   =   100.;   INIMIX=   1;  MIXPRE=   1;  MAXMIX= -45

 Intra band minimization:
   WEIMIN = 0.0000     energy-eigenvalue tresh-hold
   EBREAK =  0.53E-07  absolut break condition
   DEPER  =   0.30     relativ break condition

   TIME   =   0.40     timestep for ELM

  volume/ion in A,a.u.               =      36.32       245.10
  Fermi-wavevector in a.u.,A,eV,Ry     =   1.099409  2.077581 16.445356  1.208700
  Thomas-Fermi vector in A             =   2.235803

 Write flags
[...]
  Fock        0.00000     0.00000     0.00000     0.00000     0.00000     0.00000
  Total     111.21766   106.78518   139.00561     0.00000     0.00000    -2.98841
  in kB      68.14159    65.42586    85.16689     0.00000     0.00000    -1.83096

 VOLUME and BASIS-vectors are now :
  energy-cutoff  :      450.00
  volume of cell :     2615.00
      direct lattice vectors                 reciprocal lattice vectors
    16.884694054  0.000000000  0.000000000     0.059225237  0.000000000  0.000000000
     0.000000000  9.578410000  0.000000000     0.000000000  0.104401461  0.000000000
     0.000000000  0.000000000 16.169087120     0.000000000  0.000000000  0.061846411

  length of vectors
    16.884694054  9.578410000 16.169087120     0.059225237  0.104401461  0.061846411

 FORCES acting on ions
    electron-ion (+dipol)            ewald-force                    non-local-force                 convergence-correction
   0.592E+03 -.855E-03 0.196E+04   -.596E+03 -.631E-07 -.196E+04   0.449E+01 0.000E+00 0.545E+01   -.471E-01 0.137E-05 -.144E+00
   0.422E+03 -.968E-03 -.291E+04   -.427E+03 0.444E-08 0.291E+04   0.554E+01 0.000E+00 0.234E+01   0.208E+00 0.196E-05 0.826E-01
   0.609E+02 -.874E-03 0.281E+04   -.616E+02 0.885E-11 -.282E+04   0.175E+01 0.000E+00 0.654E+01   -.151E+00 -.113E-05 0.108E+00
   0.179E+03 -.764E-03 -.132E+04   -.181E+03 0.126E-08 0.132E+04   0.176E+01 0.000E+00 -.490E+01   -.305E+00 -.211E-05 0.277E-01
   -.972E+02 -.839E-03 0.210E+04   0.966E+02 0.136E-06 -.210E+04   0.150E+01 0.000E+00 0.617E+01   -.581E-01 0.225E-06 -.193E+00
   0.211E+03 -.876E-03 -.208E+04   -.214E+03 0.488E-08 0.209E+04   0.187E+01 0.000E+00 -.630E+01   -.200E+00 0.311E-06 -.216E+00
   0.591E+03 -.824E-03 0.132E+04   -.597E+03 0.244E-07 -.132E+04   0.468E+01 0.000E+00 0.436E+01   0.418E+00 -.216E-05 0.657E-01
   0.283E+03 -.762E-03 -.333E+04   -.285E+03 0.263E-07 0.334E+04   0.174E+01 0.000E+00 0.375E+00   0.499E+00 -.186E-05 0.107E+00
   0.400E+03 -.833E-03 0.804E+03   -.404E+03 -.269E-07 -.807E+03   0.363E+01 0.000E+00 0.312E+01   0.984E-01 0.374E-05 0.152E+00
   -.144E+03 -.832E-03 -.344E+04   0.142E+03 0.930E-08 0.344E+04   0.348E+01 0.000E+00 -.152E+01   0.103E+00 0.409E-05 -.794E-01
   -.281E+03 -.749E-03 0.163E+04   0.282E+03 0.120E-06 -.164E+04   -.257E+00 0.000E+00 0.247E+01   -.199E+00 0.213E-05 -.284E+00
   0.645E+03 -.801E-03 -.252E+04   -.648E+03 0.137E-07 0.253E+04   0.245E+01 0.000E+00 -.726E+01   -.155E+00 0.701E-06 0.700E-01
   -.513E+03 0.191E+03 0.237E+04   0.519E+03 -.193E+03 -.238E+04   -.543E+01 0.317E+01 0.539E+01   0.302E+00 0.600E-01 0.151E-01
   0.846E+02 0.470E+03 -.229E+04   -.832E+02 -.473E+03 0.230E+04   -.280E+01 0.235E+01 -.393E+01   0.381E+00 0.248E-01 0.846E-01
   -.123E+03 0.596E+03 0.373E+04   0.121E+03 -.593E+03 -.373E+04   0.229E+01 -.403E+01 -.207E+01   -.650E-01 -.123E+00 -.140E+00
   -.465E+03 0.440E+03 -.540E+03   0.467E+03 -.445E+03 0.542E+03   -.853E+00 0.432E+01 -.344E+01   -.227E+00 -.966E-01 -.798E-01
   -.159E+03 0.573E+03 0.335E+04   0.158E+03 -.569E+03 -.335E+04   0.168E+01 -.546E+01 -.155E+01   -.164E+00 0.287E+00 -.228E+00
   -.261E+03 0.548E+03 -.117E+04   0.265E+03 -.554E+03 0.117E+04   -.256E+01 0.493E+01 -.416E+01   -.206E+00 0.108E+00 -.361E+00
   -.687E+01 0.602E+03 0.199E+04   0.655E+01 -.607E+03 -.199E+04   0.348E+00 0.441E+01 0.475E+01   0.263E+00 -.147E-01 0.203E+00
   -.288E+03 0.152E+03 -.286E+04   0.288E+03 -.155E+03 0.286E+04   0.166E+00 0.268E+01 -.586E+00   0.849E-01 0.493E-01 0.912E-02
   0.143E+02 0.356E+03 0.122E+04   -.148E+02 -.360E+03 -.122E+04   0.890E+00 0.296E+01 0.424E+01   -.200E+00 0.760E-01 -.907E-02
   -.339E+03 0.168E+03 -.322E+04   0.341E+03 -.172E+03 0.322E+04   -.173E+01 0.482E+01 0.182E+01   -.292E+00 0.108E-01 -.260E-01
   0.428E+03 -.447E+03 0.245E+04   -.430E+03 0.449E+03 -.246E+04   0.106E+01 -.165E+01 0.763E+01   0.104E-01 -.103E+00 -.215E+00
   -.457E+02 0.329E+03 -.179E+04   0.478E+02 -.331E+03 0.180E+04   -.169E+01 0.294E+01 -.535E+01   0.189E+00 -.130E+00 0.275E-01
   -.513E+03 -.191E+03 0.237E+04   0.519E+03 0.193E+03 -.238E+04   -.543E+01 -.317E+01 0.539E+01   0.302E+00 -.600E-01 0.151E-01
   0.846E+02 -.470E+03 -.229E+04   -.832E+02 0.473E+03 0.230E+04   -.280E+01 -.235E+01 -.393E+01   0.381E+00 -.248E-01 0.846E-01
   -.123E+03 -.596E+03 0.373E+04   0.121E+03 0.593E+03 -.373E+04   0.229E+01 0.403E+01 -.207E+01   -.650E-01 0.123E+00 -.140E+00
   -.465E+03 -.440E+03 -.540E+03   0.467E+03 0.445E+03 0.542E+03   -.853E+00 -.432E+01 -.344E+01   -.227E+00 0.966E-01 -.798E-01
   -.159E+03 -.573E+03 0.335E+04   0.158E+03 0.569E+03 -.335E+04   0.168E+01 0.546E+01 -.155E+01   -.164E+00 -.287E+00 -.228E+00
   -.261E+03 -.548E+03 -.117E+04   0.265E+03 0.554E+03 0.117E+04   -.256E+01 -.493E+01 -.416E+01   -.206E+00 -.108E+00 -.361E+00
   -.687E+01 -.602E+03 0.199E+04   0.655E+01 0.607E+03 -.199E+04   0.348E+00 -.441E+01 0.475E+01   0.263E+00 0.147E-01 0.203E+00
   -.288E+03 -.152E+03 -.286E+04   0.288E+03 0.155E+03 0.286E+04   0.166E+00 -.268E+01 -.586E+00   0.849E-01 -.493E-01 0.912E-02
   0.143E+02 -.356E+03 0.122E+04   -.148E+02 0.360E+03 -.122E+04   0.890E+00 -.296E+01 0.424E+01   -.200E+00 -.760E-01 -.906E-02
   -.339E+03 -.168E+03 -.322E+04   0.341E+03 0.172E+03 0.322E+04   -.173E+01 -.482E+01 0.182E+01   -.292E+00 -.107E-01 -.260E-01
   0.428E+03 0.447E+03 0.245E+04   -.430E+03 -.449E+03 -.246E+04   0.106E+01 0.165E+01 0.763E+01   0.104E-01 0.103E+00 -.215E+00
   -.457E+02 -.329E+03 -.179E+04   0.478E+02 0.331E+03 0.180E+04   -.169E+01 -.294E+01 -.535E+01   0.189E+00 0.130E+00 0.275E-01
   0.110E+03 -.673E-05 -.164E+04   -.110E+03 0.470E-08 0.164E+04   -.115E+01 0.000E+00 -.126E+01   0.133E+00 0.864E-06 0.605E-02
   -.249E+03 -.417E-04 0.372E+03   0.250E+03 -.221E-07 -.375E+03   0.484E+00 0.000E+00 0.136E+01   0.141E+00 0.115E-05 0.512E-01
   -.404E+03 -.459E-06 0.102E+04   0.406E+03 -.698E-07 -.103E+04   -.554E+00 0.000E+00 0.253E+01   -.427E-01 0.451E-06 -.841E-01
   0.971E+00 -.144E-04 -.101E+04   -.257E+01 0.102E-07 0.102E+04   0.130E+01 0.000E+00 -.391E+01   -.119E+00 0.203E-06 0.197E-01
   -.253E+03 0.553E-04 0.734E+03   0.255E+03 -.149E-06 -.736E+03   0.303E+00 0.000E+00 0.120E+01   -.202E+00 -.515E-06 -.199E+00
   -.910E+01 -.510E-05 -.121E+04   0.109E+02 -.184E-08 0.122E+04   -.778E+00 0.000E+00 -.225E+01   -.206E-02 0.252E-07 0.166E-01
   0.805E+02 0.425E-05 0.169E+04   -.807E+02 0.934E-08 -.169E+04   0.208E+00 0.000E+00 0.189E+01   0.301E-01 -.506E-06 0.297E-01
   -.163E+03 -.291E-05 -.303E+03   0.164E+03 0.162E-07 0.307E+03   0.147E+01 0.000E+00 -.400E+01   -.688E-01 -.107E-05 0.735E-01
   0.920E+02 0.429E-06 0.155E+04   -.926E+02 0.312E-07 -.156E+04   0.938E+00 0.000E+00 0.172E+01   -.324E-01 0.247E-06 0.823E-02
   -.154E+03 0.279E-04 -.719E+03   0.155E+03 0.322E-07 0.724E+03   0.337E+00 0.000E+00 -.425E+01   -.953E-01 0.759E-06 -.554E-01
   0.220E+01 0.533E-04 0.672E+03   -.114E+01 0.198E-07 -.675E+03   -.628E+00 0.000E+00 0.204E+01   0.715E-01 -.582E-06 -.606E-01
   -.129E+02 0.459E-05 -.132E+04   0.146E+02 0.119E-07 0.132E+04   -.702E+00 0.000E+00 -.258E+01   0.154E+00 -.534E-06 0.817E-01
   0.511E+02 -.935E+02 0.168E+04   -.511E+02 0.945E+02 -.168E+04   -.457E+00 -.208E+00 0.263E+01   0.563E-02 -.176E-01 -.102E+00
   0.104E+03 -.137E+03 -.388E+03   -.104E+03 0.138E+03 0.392E+03   -.456E+00 0.880E+00 -.209E+01   0.102E+00 -.405E-01 0.185E-01
   0.128E+03 -.227E+03 0.712E+03   -.129E+03 0.229E+03 -.715E+03   -.107E+01 -.108E+01 0.303E+01   -.852E-01 0.398E-01 0.550E-02
   -.174E+03 0.509E+02 -.133E+04   0.175E+03 -.498E+02 0.134E+04   -.115E+01 -.761E+00 -.221E+01   -.956E-01 -.935E-02 0.242E-01
   0.561E+02 -.188E+03 0.366E+03   -.575E+02 0.190E+03 -.367E+03   -.493E+00 -.138E+01 0.157E+01   0.134E-01 -.785E-01 -.167E+00
   0.397E+02 -.239E+03 -.147E+04   -.405E+02 0.243E+03 0.147E+04   0.451E+00 -.210E+01 -.925E+00   -.812E-01 -.561E-02 0.361E-01
   0.120E+03 -.163E+03 -.494E+03   -.120E+03 0.165E+03 0.495E+03   -.731E+00 -.668E+00 -.120E+01   0.185E+00 0.127E-01 0.563E-01
   0.715E+02 -.665E+02 0.134E+04   -.732E+02 0.660E+02 -.135E+04   0.115E+01 0.124E+01 0.365E+01   0.119E+00 0.200E-01 -.121E-01
   0.113E+03 0.400E+02 0.110E+04   -.114E+03 -.413E+02 -.111E+04   0.190E+00 0.124E+01 0.431E+01   0.290E-01 -.137E-01 0.610E-01
   -.635E+01 -.923E+02 -.883E+03   0.608E+01 0.933E+02 0.886E+03   -.360E+00 -.148E+01 -.177E+01   -.883E-01 0.467E-03 -.375E-02
   0.806E+02 -.765E+02 0.239E+03   -.824E+02 0.786E+02 -.241E+03   0.220E+01 -.918E+00 0.854E+00   -.562E-01 0.816E-01 -.977E-01
   0.132E+03 -.237E+03 -.155E+04   -.133E+03 0.241E+03 0.156E+04   0.594E+00 -.220E+01 -.768E+00   -.695E-03 0.481E-01 0.114E+00
   0.128E+03 0.227E+03 0.712E+03   -.129E+03 -.229E+03 -.715E+03   -.107E+01 0.108E+01 0.303E+01   -.852E-01 -.398E-01 0.550E-02
   -.174E+03 -.509E+02 -.133E+04   0.175E+03 0.498E+02 0.134E+04   -.115E+01 0.761E+00 -.221E+01   -.956E-01 0.935E-02 0.242E-01
   0.511E+02 0.935E+02 0.168E+04   -.511E+02 -.945E+02 -.168E+04   -.457E+00 0.208E+00 0.263E+01   0.563E-02 0.176E-01 -.102E+00
   0.104E+03 0.137E+03 -.388E+03   -.104E+03 -.138E+03 0.392E+03   -.456E+00 -.880E+00 -.209E+01   0.102E+00 0.405E-01 0.185E-01
   0.120E+03 0.163E+03 -.494E+03   -.120E+03 -.165E+03 0.495E+03   -.731E+00 0.668E+00 -.120E+01   0.185E+00 -.127E-01 0.563E-01
   0.715E+02 0.665E+02 0.134E+04   -.732E+02 -.660E+02 -.135E+04   0.115E+01 -.124E+01 0.365E+01   0.119E+00 -.200E-01 -.121E-01
   0.561E+02 0.188E+03 0.366E+03   -.575E+02 -.190E+03 -.367E+03   -.493E+00 0.138E+01 0.157E+01   0.134E-01 0.785E-01 -.167E+00
   0.397E+02 0.239E+03 -.147E+04   -.405E+02 -.243E+03 0.147E+04   0.451E+00 0.210E+01 -.925E+00   -.812E-01 0.561E-02 0.361E-01
   0.806E+02 0.765E+02 0.239E+03   -.824E+02 -.786E+02 -.241E+03   0.220E+01 0.918E+00 0.854E+00   -.562E-01 -.816E-01 -.977E-01
   0.132E+03 0.237E+03 -.155E+04   -.133E+03 -.241E+03 0.156E+04   0.594E+00 0.220E+01 -.768E+00   -.694E-03 -.481E-01 0.114E+00
   0.113E+03 -.400E+02 0.110E+04   -.114E+03 0.413E+02 -.111E+04   0.190E+00 -.124E+01 0.431E+01   0.290E-01 0.137E-01 0.610E-01
   -.635E+01 0.923E+02 -.883E+03   0.608E+01 -.933E+02 0.886E+03   -.360E+00 0.148E+01 -.177E+01   -.883E-01 -.466E-03 -.375E-02
   -.166E+02 -.131E-01 -.211E+02   -.172E-11 0.995E-12 0.341E-12   0.163E+02 0.178E-14 0.230E+02   0.424E+00 0.198E-05 -.199E+01

 POSITION                                       TOTAL-FORCE (eV/Angst)
     13.17084      1.39171      1.94975         0.080446     -0.000000      0.907421
     13.38425      1.39171      4.56769         0.221508     -0.000000      0.953484
      3.77077      6.18092      1.51460         0.945573     -0.000000     -0.038649
      5.02033      6.18092      3.49202        -0.292922     -0.000000     -0.806885
      6.64628      1.39171      2.04256         0.824209     -0.000000     -0.511955
      7.93172      1.39171      4.00611        -1.044341     -0.000000     -1.338755
     16.08224      6.18092      2.46384        -0.449073     -0.000000      1.957796
     16.36465      6.18092      5.09119         0.135125     -0.000000      0.707815
      2.10894      1.39171      2.97793        -0.536505     -0.000000      0.349926
      1.73012      1.39171      5.27578         1.479548     -0.000000      0.708193
      9.80999      6.18092      2.39667         0.627347     -0.000000     -1.362121
     10.84312      6.18092      4.52020        -1.118558     -0.000000     -1.631930
     15.38554      0.02765      1.90459         0.811665      0.677616     -0.064995
     15.94741      0.11890      4.39512        -1.025793     -0.720485     -0.184660
      6.66159      4.94991      0.55724         0.218492     -0.625765     -1.178241
      7.17375      4.91558      3.08454         0.699729     -0.218379     -1.216147
      9.56376      0.16520      1.06550        -0.017468     -0.480014     -1.248206
     10.08514      0.12638      3.59863         0.818280     -0.444236     -1.981114
      1.35096      4.91558      2.05636         0.295311     -0.498260      1.784894
      1.90545      4.80300      4.70731         0.233187      0.518938      1.128684
      4.26235      0.12638      2.57045         0.265806     -0.865054      0.927576
      4.95212      9.25155      4.86509        -0.096933      0.522279      0.803774
     13.10993      4.16107      1.89644        -0.878551      0.769027      0.403829
     12.99653      4.91558      4.11272         0.586496     -0.030938     -1.433831
     15.38554      2.75578      1.90459         0.811665     -0.677616     -0.064995
     15.94741      2.66453      4.39512        -1.025793      0.720485     -0.184660
      6.66159      7.41193      0.55724         0.218492      0.625765     -1.178241
      7.17375      7.44626      3.08454         0.699729      0.218379     -1.216147
      9.56376      2.61823      1.06550        -0.017468      0.480014     -1.248206
     10.08514      2.65705      3.59863         0.818280      0.444236     -1.981114
      1.35096      7.44626      2.05636         0.295311      0.498260      1.784894
      1.90545      7.55884      4.70731         0.233187     -0.518938      1.128684
      4.26235      2.65705      2.57045         0.265806      0.865054      0.927576
      4.95212      3.11028      4.86509        -0.096933     -0.522279      0.803774
     13.10993      8.20077      1.89644        -0.878551     -0.769027      0.403829
     12.99653      7.44626      4.11272         0.586496      0.030938     -1.433831
     16.68198      1.39171      5.83715        -0.406600     -0.000000      3.529367
     16.74052      1.39171      2.94940         1.902668     -0.000000     -2.344636
      8.00634      6.18092      1.40713         1.643831     -0.000000     -1.827749
      8.64603      6.18092      4.09766        -0.426900     -0.000000      2.564947
     10.91773      1.39171      1.92122         2.340807     -0.000000     -0.799723
     11.33687      1.39171      4.70270         0.993709     -0.000000      2.749710
      1.98776      6.18092      0.56199         0.023761     -0.000000     -4.088422
      2.76722      6.18092      3.46349         1.601855     -0.000000      0.039705
      4.86615      1.39171      1.05969         0.360589     -0.000000     -3.878145
      5.67861      1.39171      3.97758         0.908866     -0.000000      0.994066
     13.82913      6.18092      2.43531         0.506664     -0.000000     -1.734830
     14.30634      6.18092      5.16242         1.095965     -0.000000      2.676653
     13.81334      2.80729      0.57134        -0.387724      0.778552     -3.855731
     13.99844      3.00295      3.46826        -0.703063      1.219685      1.728616
      5.26426      7.79215      1.92599        -1.605484      0.931125     -0.077057
      5.98825      7.53618      4.76997         0.114886      0.317346      2.901842
      8.17565      3.00295      2.44008        -1.884758      1.027421     -0.065131
      8.81434      2.80446      5.16396        -0.435938      1.421742      3.582752
      0.02514      7.79215      3.98236        -0.816889      1.268085      0.463758
     16.34626      7.85314      1.26322        -0.388342      0.718676     -2.796036
      2.36924      3.08791      1.78200        -0.729968     -0.039533     -2.687099
      2.93654      3.00295      4.49645        -0.722498     -0.559306      1.278239
     11.08705      7.79215      2.95417         0.364080      1.305199     -1.017343
     11.72056      7.58852      5.66965        -0.423310      1.451791      3.913984
      5.26426      4.56969      1.92599        -1.605484     -0.931125     -0.077057
      5.98825      4.82566      4.76997         0.114886     -0.317346      2.901842
     13.81334      9.55455      0.57134        -0.387724     -0.778552     -3.855731
     13.99844      9.35889      3.46826        -0.703063     -1.219685      1.728616
      0.02514      4.56969      3.98236        -0.816889     -1.268085      0.463758
     16.34626      4.50870      1.26322        -0.388342     -0.718676     -2.796036
      8.17565      9.35889      2.44008        -1.884758     -1.027421     -0.065131
      8.81434      9.55738      5.16396        -0.435938     -1.421742      3.582752
     11.08705      4.56969      2.95417         0.364080     -1.305199     -1.017343
     11.72056      4.77332      5.66965        -0.423310     -1.451791      3.913984
      2.36924      9.27393      1.78200        -0.729968      0.039533     -2.687099
      2.93654      9.35889      4.49645        -0.722498      0.559306      1.278239
    total drift:                                0.101798     -0.013119     -0.071385

  FREE ENERGIE OF THE ION-ELECTRON SYSTEM (eV)
  free  energy   TOTEN  =      -340.23813009 eV

  energy  without entropy=     -339.12776862  energy(sigma->0) =     -339.68294935