 vasp.5.4.4.18Apr17-6-g9f103f2a35 (build Aug 13 2019 17:33:20) gamma-only

 executed on             LinuxIFC date 2020.05.10  19:58:46

 INCAR:
 POTCAR:    PAW_PBE Ni_pv 06Sep2000
 POTCAR:    PAW_PBE S 06Sep2000
 POTCAR:    PAW_PBE Ni_pv 06Sep2000
   VRHFIN =Ni:

   TITEL  = PAW_PBE Ni_pv 06Sep2000
   POMASS =   58.690; ZVAL   =   16.000    mass and valenz
   ENMAX  =  367.986; ENMIN  =  275.989 eV

 POTCAR:    PAW_PBE S 06Sep2000
   VRHFIN =S : s2p4

   TITEL  = PAW_PBE S 06Sep2000
   POMASS =   32.066; ZVAL   =    6.000    mass and valenz
   ENMAX  =  258.689; ENMIN  =  194.016 eV

 Optimization of the real space projectors (new method)

 maximal supplied QI-value         = 18.90
 optimisation between [QCUT,QGAM] = [ 10.77, 21.73] = [ 32.49,132.25] Ry
 Optimized for a Real-space Cutoff    1.38 Angstroem

   l    n(q)    QCUT    max X(q) W(low)/X(q) W(high)/X(q)  e(spline)
   1      8    10.771     2.836    0.40E-04    0.29E-04    0.12E-06
   1      8    10.771     4.023    0.10E-03    0.48E-04    0.29E-06
   2      8    10.771    73.368    0.42E-03    0.97E-04    0.44E-06
   2      8    10.771    69.010    0.42E-03    0.99E-04    0.45E-06
   0      9    10.771    54.797    0.10E-03    0.56E-04    0.74E-07
   0      9    10.771    24.266    0.89E-04    0.49E-04    0.67E-07
 Optimization of the real space projectors (new method)

 maximal supplied QI-value         = 19.84
 optimisation between [QCUT,QGAM] = [ 10.71, 21.63] = [ 32.15,130.99] Ry
 Optimized for a Real-space Cutoff    1.19 Angstroem

   l    n(q)    QCUT    max X(q) W(low)/X(q) W(high)/X(q)  e(spline)
   0      8    10.715   187.594    0.41E-03    0.53E-04    0.66E-07
   0      8    10.715   164.243    0.41E-03    0.53E-04    0.65E-07
   1      7    10.715    67.533    0.19E-03    0.59E-03    0.68E-07
   1      7    10.715    50.729    0.19E-03    0.58E-03    0.67E-07
  PAW_PBE Ni_pv 06Sep2000               :
  PAW_PBE S 06Sep2000                   :

 POSCAR: Type_048 Type_148
  positions in cartesian coordinates
 exchange correlation table for  LEXCH =        8
   RHO(1)=    0.500       N(1)  =     2000
   RHO(2)=  100.500       N(2)  =     4000

 ion  position               nearest neighbor table
   1  0.261  0.479  0.253-  75 2.25  59 2.26  82 2.26  55 2.36  60 2.36   7 2.53  21 2.53
   2  0.355  0.385  0.388-  76 2.25  55 2.26  60 2.26  61 2.36  67 2.36   3 2.37   8 2.53  22 2.53

   3  0.371  0.368  0.497-  53 2.05  61 2.10  67 2.10   2 2.37
   4  0.184  0.065  0.130-  77 2.08  57 2.10  56 2.15  83 2.23  65 2.37  36 2.46
   5  0.049  0.055  0.473-  50 2.05  79 2.08  74 2.10  80 2.16
   6  0.274  0.333  0.083-  56 2.03  51 2.05  58 2.07  52 2.36  59 2.36  28 2.45
   7  0.368  0.239  0.218-  57 2.25  59 2.26  52 2.26  60 2.36  62 2.36   1 2.53  21 2.53
   8  0.462  0.145  0.353-  81 2.25  60 2.26  62 2.26  61 2.36  63 2.36   2 2.53  22 2.53
   9  0.000  0.372  0.218-  59 2.25  65 2.26  92 2.26  49 2.36  68 2.36  13 2.53  19 2.53
  10  0.094  0.278  0.353-  60 2.25  49 2.26  68 2.26  54 2.36  50 2.36  20 2.53  14 2.53
  11  0.185  0.191  0.473-  50 2.05  79 2.08  54 2.10  61 2.15
  12  0.493  0.442  0.115-  71 2.06  51 2.08  52 2.16  82 2.18  72 2.36  21 2.37
  13  0.761  0.479  0.253-  86 2.25  72 2.26  92 2.26  68 2.36  73 2.36  19 2.53   9 2.53
  14  0.855  0.385  0.388-  87 2.25  68 2.26  73 2.26  74 2.36  54 2.36  15 2.39  20 2.53  10 2.53

[...]

  32  0.462  0.645  0.353-  55 2.25  84 2.26  86 2.26  85 2.36  87 2.36  26 2.53  46 2.53
  33  0.000  0.872  0.218-  83 2.25  88 2.26  70 2.26  75 2.36  90 2.36  37 2.53  43 2.53
  34  0.094  0.778  0.353-  84 2.25  75 2.26  90 2.26  80 2.36  76 2.36  44 2.53  38 2.53
  35  0.189  0.689  0.473-  76 2.05  53 2.08  85 2.12  80 2.13  39 2.47
  36  0.406  0.965  0.083-  77 2.06  56 2.07  93 2.12  78 2.36  57 2.36   4 2.46
  37  0.761  0.979  0.253-  62 2.25  94 2.26  70 2.26  90 2.36  95 2.36  43 2.53  33 2.53
  38  0.855  0.885  0.388-  63 2.25  90 2.26  95 2.26  96 2.36  80 2.36  44 2.53  34 2.53
  39  0.953  0.786  0.505-  96 2.00  80 2.00  35 2.47  29 2.47
  40  0.667  0.573  0.118-  71 2.05  91 2.07  78 2.25  92 2.36  72 2.36  24 2.53  18 2.53
  41  0.549  0.554  0.473-  87 2.05  66 2.08  85 2.10  67 2.15
  42  0.779  0.816  0.102-  94 2.04  91 2.08  93 2.13  88 2.17  48 2.53
  43  0.868  0.739  0.218-  92 2.25  94 2.26  88 2.26  95 2.36  75 2.36  37 2.53  33 2.53
  44  0.962  0.645  0.353-  68 2.25  95 2.26  75 2.26  96 2.36  76 2.36  38 2.53  34 2.53
  45  0.500  0.872  0.218-  94 2.25  78 2.26  57 2.26  86 2.36  81 2.36  25 2.53  31 2.53
  46  0.594  0.778  0.353-  95 2.25  86 2.26  81 2.26  89 2.36  87 2.36  32 2.53  26 2.53
  47  0.685  0.690  0.473-  87 2.05  66 2.08  89 2.10  96 2.16
  48  0.904  0.955  0.103-  70 2.03  88 2.08  69 2.10  16 2.41  42 2.53
  49  0.073  0.167  0.270-  25 2.25  10 2.26  20 2.26   9 2.36  19 2.36
  50  0.167  0.073  0.405-   5 2.05  11 2.05  26 2.25  10 2.36  20 2.36  79 2.69
  51  0.325  0.482  0.062-   6 2.05  12 2.08  28 2.09  58 2.74  82 2.79
  52  0.479  0.261  0.135-  12 2.16  16 2.25   7 2.26  21 2.26   6 2.36
  53  0.208  0.531  0.529-   3 2.05  35 2.08  29 2.08  76 2.74
  54  0.030  0.378  0.451-  15 2.08  11 2.10  29 2.12  10 2.36  14 2.36
  55  0.436  0.472  0.315-  32 2.25   2 2.26  22 2.26   1 2.36  21 2.36
  56  0.265  0.159  0.068-   6 2.03  36 2.07   4 2.15  77 2.49  57 2.64
  57  0.342  0.066  0.180-   4 2.10   7 2.25  25 2.26  45 2.26  36 2.36  56 2.64
  58  0.083  0.480  0.069-   6 2.07  24 2.09  28 2.15  59 2.64  51 2.74
  59  0.174  0.397  0.180-  28 2.08   9 2.25   7 2.26   1 2.26   6 2.36  58 2.64
  60  0.268  0.303  0.315-  10 2.25   2 2.26   8 2.26   7 2.36   1 2.36
  61  0.362  0.209  0.451-  17 2.02   3 2.10  11 2.15   8 2.36   2 2.36
  62  0.573  0.167  0.270-  37 2.25  22 2.26   8 2.26  21 2.36   7 2.36
  63  0.667  0.073  0.405-  17 2.02  23 2.02  38 2.25  22 2.36   8 2.36
  64  0.879  0.361  0.015-  24 1.99  18 2.00
  65  0.979  0.261  0.135-  19 2.26   9 2.26  18 2.36  24 2.36   4 2.37
  66  0.712  0.527  0.526-  15 2.04  47 2.08  41 2.08  87 2.69
  67  0.530  0.378  0.451-  23 2.02   3 2.10  41 2.15  22 2.36   2 2.36
  68  0.936  0.472  0.315-  44 2.25  14 2.26  10 2.26  13 2.36   9 2.36
  69  0.777  0.143  0.067-  16 2.07  48 2.10  18 2.16  70 2.61
  70  0.842  0.066  0.180-  48 2.03  19 2.25  37 2.26  33 2.26  16 2.36  69 2.61
  71  0.603  0.487  0.051-  40 2.05  18 2.05  12 2.06
  72  0.674  0.397  0.180-  21 2.25  19 2.26  13 2.26  12 2.36  18 2.36  40 2.36
  73  0.768  0.303  0.315-  22 2.25  14 2.26  20 2.26  19 2.36  13 2.36
  74  0.862  0.209  0.451-  23 2.07  15 2.08   5 2.10  20 2.36  14 2.36
  75  0.073  0.667  0.270-   1 2.25  34 2.26  44 2.26  33 2.36  43 2.36
  76  0.167  0.573  0.405-  29 2.05  35 2.05   2 2.25  34 2.36  44 2.36  53 2.74
  77  0.241  0.953  0.049-  30 2.01  36 2.06   4 2.08  56 2.49
  78  0.479  0.761  0.135-  30 2.02  40 2.25  31 2.26  45 2.26  36 2.36
  79  0.212  0.028  0.526-  27 2.04   5 2.08  11 2.08  50 2.69
  80  0.030  0.878  0.451-  39 2.00  35 2.13   5 2.16  34 2.36  38 2.36
  81  0.436  0.972  0.315-   8 2.25  26 2.26  46 2.26  25 2.36  45 2.36
  82  0.342  0.566  0.180-  28 2.15  12 2.18  31 2.25   1 2.26  21 2.26  51 2.79
  83  0.174  0.897  0.180-  30 2.03   4 2.23  33 2.25  31 2.26  25 2.26
  84  0.268  0.803  0.315-  34 2.25  26 2.26  32 2.26  31 2.36  25 2.36
  85  0.362  0.709  0.451-  27 2.08  41 2.10  35 2.12  32 2.36  26 2.36
  86  0.573  0.667  0.270-  13 2.25  46 2.26  32 2.26  45 2.36  31 2.36
  87  0.667  0.573  0.405-  47 2.05  41 2.05  14 2.25  46 2.36  32 2.36  66 2.69
  88  0.979  0.761  0.135-  48 2.08  42 2.17  43 2.26  33 2.26  28 2.44
  89  0.530  0.878  0.451-  17 2.07  27 2.08  47 2.10  46 2.36  26 2.36
  90  0.936  0.972  0.315-  20 2.25  38 2.26  34 2.26  37 2.36  33 2.36
  91  0.762  0.655  0.063-  24 2.06  40 2.07  42 2.08  92 2.74
  92  0.842  0.566  0.180-  43 2.25  13 2.26   9 2.26  40 2.36  24 2.36  91 2.74
  93  0.594  0.963  0.068-  16 2.08  36 2.12  42 2.13  94 2.61
  94  0.674  0.897  0.180-  42 2.04  45 2.25  43 2.26  37 2.26  16 2.36  93 2.61
  95  0.768  0.803  0.315-  46 2.25  38 2.26  44 2.26  43 2.36  37 2.36
  96  0.862  0.709  0.451-  39 2.00  29 2.13  47 2.16  44 2.36  38 2.36

  LATTYP: Found a base centered orthorhombic cell.
 ALAT       =    11.8257374459
 B/A-ratio  =     1.6199260857
 C/A-ratio  =     1.8387210052

  Lattice vectors:

 A1 = (  11.2564630382,   0.0000000000,   0.0000000000)
 A2 = (  -5.0445621212, -10.0628203371,   0.0000000000)
 A3 = (   0.0000000000,   0.0000000000, -21.7442318436)

Analysis of symmetry for initial positions (statically):
 Subroutine PRICEL returns:
 Original cell was already a primitive cell.

 Routine SETGRP: Setting up the symmetry group for a
 base centered orthorhombic supercell.

 Subroutine GETGRP returns: Found  1 space group operations
 (whereof  1 operations were pure point group operations)
 out of a pool of  8 trial point group operations.

The static configuration has the point symmetry C_1 .

Analysis of symmetry for dynamics (positions and initial velocities):
 Subroutine PRICEL returns:
 Original cell was already a primitive cell.

 Routine SETGRP: Setting up the symmetry group for a
 base centered orthorhombic supercell.

 Subroutine GETGRP returns: Found  1 space group operations
 (whereof  1 operations were pure point group operations)
 out of a pool of  8 trial point group operations.

The dynamic configuration has the point symmetry C_1 .

 Subroutine INISYM returns: Found  1 space group operations
 (whereof  1 operations are pure point group operations),
 and found     1 'primitive' translations

 KPOINTS: gamma-point-only calculation. no periodi

Automatic generation of k-mesh.
Space group operators:
 irot       det(A)        alpha          n_x          n_y          n_z        tau_x        tau_y        tau_z
    1     1.000000     0.000000     1.000000     0.000000     0.000000     0.000000     0.000000     0.000000

 Subroutine IBZKPT returns following result:

 Found      1 irreducible k-points:

 Following reciprocal coordinates:
            Coordinates               Weight
  0.000000  0.000000  0.000000      1.000000

 Following cartesian coordinates:
            Coordinates               Weight
  0.000000  0.000000  0.000000      1.000000

 SYSTEM =  "Millerite NiS"
 POSCAR =  Type_048 Type_148

 Startparameter for this run:
   NWRITE =      2    write-flag & timer
   PREC   = normal    normal or accurate (medium, high low for compatibility)
   ISTART =      0    job   : 0-new  1-cont  2-samecut
   ICHARG =      2    charge: 1-file 2-atom 10-const
   ISPIN  =      1    spin polarized calculation?
   LNONCOLLINEAR =      F non collinear calculations
   LSORBIT =      F    spin-orbit coupling
   INIWAV =      1    electr: 0-lowe 1-rand  2-diag
   LASPH  =      F    aspherical Exc in radial PAW
   METAGGA=      F    non-selfconsistent MetaGGA calc.

 Electronic Relaxation 1
   ENCUT  =  450.0 eV  33.07 Ry    5.75 a.u.  19.47 19.47 37.61*2*pi/ulx,y,z
   ENINI  =  450.0     initial cutoff
   ENAUG  =  703.4 eV  augmentation charge cutoff
   NELM   =    100;   NELMIN=  2; NELMDL= -5     # of ELM steps
   EDIFF  = 0.1E-03   stopping-criterion for ELM
[...]
     0.000000000  0.000000000 21.744231844     0.000000000  0.000000000  0.045989208

  length of vectors
    11.256463038 11.256463038 21.744231844     0.099375718  0.099375718  0.045989208

 FORCES acting on ions
    electron-ion (+dipol)            ewald-force                    non-local-force                 convergence-correction
   0.277E+03 -.388E+03 0.594E+03   -.278E+03 0.388E+03 -.592E+03   0.777E+00 -.182E+00 -.186E+01   -.366E-02 -.222E-02 0.319E-01
   0.208E+03 -.324E+03 -.236E+04   -.208E+03 0.325E+03 0.236E+04   0.484E+00 -.777E+00 -.134E+00   -.513E-03 -.724E-03 0.142E-01
   -.102E+03 0.169E+03 -.559E+04   0.100E+03 -.165E+03 0.559E+04   0.246E+01 -.421E+01 0.134E+00   -.154E-02 0.632E-02 0.461E-02
   0.567E+03 -.444E+03 0.392E+04   -.574E+03 0.449E+03 -.392E+04   0.548E+01 -.276E+01 -.513E+00   -.106E-01 0.140E-01 0.365E-01
   0.435E+03 0.229E+03 -.487E+04   -.438E+03 -.233E+03 0.487E+04   0.268E+01 0.357E+01 -.175E+01   -.735E-02 -.736E-02 0.190E-02
   0.333E+02 0.349E+03 0.520E+04   -.323E+02 -.354E+03 -.521E+04   -.326E+00 0.315E+01 0.420E+01   0.236E-03 0.102E-02 0.189E-01
   0.258E+03 0.490E+03 0.178E+04   -.259E+03 -.491E+03 -.178E+04   0.915E+00 0.537E+00 0.651E+00   -.633E-04 0.800E-04 0.429E-01
   0.216E+03 0.455E+03 -.139E+04   -.217E+03 -.456E+03 0.139E+04   0.122E+01 0.540E+00 0.176E+01   0.538E-02 -.630E-03 0.671E-02
   -.505E+03 0.104E+02 0.179E+04   0.505E+03 -.101E+02 -.179E+04   -.203E+00 -.302E+00 0.984E+00   -.987E-02 -.108E-02 0.410E-01
   -.488E+03 -.177E+02 -.136E+04   0.489E+03 0.184E+02 0.136E+04   -.788E+00 -.776E+00 0.211E+01   -.531E-02 0.871E-02 0.200E-03
   -.350E+03 -.132E+03 -.486E+04   0.355E+03 0.134E+03 0.486E+04   -.465E+01 -.151E+01 -.176E+01   0.147E-02 0.416E-02 0.336E-02
   0.267E+02 -.979E+02 0.463E+04   -.257E+02 0.995E+02 -.464E+04   -.162E+00 -.171E+01 0.618E+01   -.295E-02 -.133E-03 0.295E-01
   0.200E+03 -.383E+03 0.628E+03   -.200E+03 0.385E+03 -.627E+03   -.190E+00 -.108E+01 -.111E+01   0.825E-02 -.984E-02 0.312E-01
   0.244E+03 -.361E+03 -.237E+04   -.245E+03 0.362E+03 0.237E+04   0.590E+00 -.974E+00 0.199E+00   -.331E-02 0.520E-02 0.131E-01
   0.439E+02 0.626E+02 -.559E+04   -.466E+02 -.581E+02 0.559E+04   0.314E+01 -.524E+01 0.569E+00   -.897E-03 0.504E-02 0.968E-03
   0.299E+03 -.410E+03 0.423E+04   -.302E+03 0.414E+03 -.423E+04   0.182E+01 -.324E+01 0.408E+01   -.410E-02 0.767E-02 0.352E-01
   -.148E+03 0.322E+03 -.498E+04   0.148E+03 -.323E+03 0.498E+04   0.103E+01 0.125E+01 0.977E+00   0.395E-02 0.453E-02 -.160E-04
   0.147E+03 0.635E+03 0.494E+04   -.149E+03 -.641E+03 -.494E+04   0.126E+01 0.398E+01 0.370E+01   -.412E-02 -.593E-02 0.225E-01
   0.191E+03 0.503E+03 0.179E+04   -.190E+03 -.504E+03 -.179E+04   -.737E+00 0.663E+00 0.435E+00   0.594E-02 0.600E-02 0.438E-01
   0.289E+03 0.462E+03 -.140E+04   -.290E+03 -.462E+03 0.140E+04   0.116E+01 0.504E+00 0.215E+01   -.971E-02 0.260E-02 -.129E-02
   -.430E+03 0.115E+03 0.150E+04   0.430E+03 -.117E+03 -.150E+04   -.679E+00 0.892E+00 -.202E+01   0.488E-02 -.452E-02 0.434E-01
   -.501E+03 0.233E+02 -.140E+04   0.502E+03 -.225E+02 0.140E+04   -.113E+01 -.805E+00 0.194E+01   -.164E-02 -.358E-02 0.329E-02
   -.222E+03 0.279E+03 -.498E+04   0.224E+03 -.279E+03 0.498E+04   -.167E+01 -.258E+00 0.102E+01   -.463E-02 0.145E-03 0.206E-02
   -.593E+03 -.227E+02 0.491E+04   0.597E+03 0.227E+02 -.491E+04   -.329E+01 -.101E+00 0.462E+01   0.712E-02 0.113E-03 0.245E-01
   0.258E+03 -.413E+03 0.595E+03   -.258E+03 0.414E+03 -.593E+03   0.142E+00 -.862E+00 -.148E+01   -.543E-02 0.841E-02 0.303E-01
   0.215E+03 -.392E+03 -.237E+04   -.216E+03 0.393E+03 0.237E+04   0.756E+00 -.980E+00 0.759E-01   0.271E-02 -.677E-03 0.145E-01
   -.749E+02 -.139E+02 -.559E+04   0.720E+02 0.183E+02 0.559E+04   0.339E+01 -.520E+01 0.707E+00   -.368E-02 -.480E-02 0.660E-02
   0.170E+03 -.695E+03 0.401E+04   -.170E+03 0.702E+03 -.401E+04   -.616E+00 -.490E+01 0.896E+00   -.280E-02 0.425E-02 0.354E-01
   0.368E+03 0.406E+03 -.474E+04   -.372E+03 -.410E+03 0.474E+04   0.276E+01 0.344E+01 -.240E+01   0.822E-02 0.172E-01 0.249E-02
   0.557E+03 0.443E+03 0.496E+04   -.559E+03 -.443E+03 -.496E+04   0.111E+01 -.121E+01 0.388E+01   -.670E-02 -.114E-02 0.206E-01
   0.240E+03 0.436E+03 0.162E+04   -.240E+03 -.437E+03 -.162E+04   -.288E+00 0.679E+00 -.125E+01   -.251E-03 -.328E-02 0.434E-01
   0.236E+03 0.425E+03 -.139E+04   -.236E+03 -.425E+03 0.139E+04   0.955E+00 0.185E+00 0.208E+01   0.392E-02 -.413E-02 0.101E-01
   -.561E+03 0.212E+01 0.177E+04   0.562E+03 -.207E+01 -.177E+04   -.938E+00 -.272E-01 -.640E+00   -.643E-02 -.193E-02 0.463E-01
   -.468E+03 -.942E+02 -.136E+04   0.468E+03 0.948E+02 0.136E+04   -.489E+00 -.735E+00 0.243E+01   -.112E-01 -.301E-02 0.178E-01
   -.526E+03 -.148E+03 -.474E+04   0.531E+03 0.149E+03 0.474E+04   -.432E+01 -.911E+00 -.240E+01   -.177E-01 -.366E-03 0.535E-02
   -.444E+03 0.914E+02 0.521E+04   0.452E+03 -.945E+02 -.521E+04   -.662E+01 0.197E+01 0.370E+01   -.236E-02 0.506E-02 0.132E-01
   0.238E+03 -.409E+03 0.596E+03   -.239E+03 0.410E+03 -.595E+03   0.566E+00 -.102E+01 -.728E+00   0.356E-02 -.713E-02 0.393E-01
   0.314E+03 -.512E+03 -.268E+04   -.314E+03 0.514E+03 0.268E+04   0.688E+00 -.129E+01 0.123E+01   0.278E-02 -.102E-01 0.105E-01
   0.382E+03 -.620E+03 -.577E+04   -.380E+03 0.617E+03 0.577E+04   -.157E+01 0.243E+01 0.600E+01   0.571E-02 -.542E-02 -.147E-02
   0.181E+03 -.545E+03 0.398E+04   -.182E+03 0.548E+03 -.398E+04   0.142E+01 -.320E+01 0.255E+01   -.425E-02 0.552E-02 0.385E-01
   0.274E+03 0.254E+03 -.487E+04   -.278E+03 -.258E+03 0.487E+04   0.352E+01 0.341E+01 -.186E+01   -.227E-02 -.464E-02 0.292E-02
   0.327E+02 0.297E+03 0.496E+04   -.321E+02 -.301E+03 -.496E+04   0.132E-02 0.394E+01 0.426E+01   -.141E-02 -.150E-01 0.306E-01
   0.183E+03 0.484E+03 0.168E+04   -.184E+03 -.485E+03 -.168E+04   0.440E+00 0.117E+01 -.695E+00   0.114E-02 -.443E-02 0.484E-01
   0.290E+03 0.383E+03 -.136E+04   -.291E+03 -.384E+03 0.136E+04   0.777E+00 0.227E+00 0.240E+01   -.791E-03 0.429E-02 0.111E-01
   -.542E+03 -.420E+02 0.174E+04   0.542E+03 0.423E+02 -.174E+04   -.151E-01 -.324E+00 0.700E+00   0.697E-02 -.960E-03 0.441E-01
   -.547E+03 -.587E+02 -.141E+04   0.548E+03 0.594E+02 0.141E+04   -.893E+00 -.796E+00 0.203E+01   0.123E-01 -.662E-03 0.246E-02
   -.402E+03 -.286E+03 -.487E+04   0.406E+03 0.287E+03 0.488E+04   -.439E+01 -.762E+00 -.184E+01   0.676E-02 -.702E-02 -.349E-02
   -.735E+03 0.110E+03 0.511E+04   0.734E+03 -.111E+03 -.511E+04   0.216E+01 0.460E+00 0.183E+01   0.165E-01 -.595E-02 0.254E-01
   -.637E+02 0.117E+03 0.280E+03   0.647E+02 -.119E+03 -.282E+03   -.980E+00 0.192E+01 0.224E+01   -.455E-02 0.271E-02 0.385E-02
   -.691E+02 0.127E+03 -.898E+03   0.705E+02 -.129E+03 0.894E+03   -.938E+00 0.115E+01 0.115E+01   -.132E-02 -.327E-02 -.986E-03
   -.773E+02 -.194E+03 0.229E+04   0.778E+02 0.196E+03 -.230E+04   0.548E+00 -.109E+01 0.451E+01   0.228E-02 0.266E-02 0.264E-03
   0.846E+01 0.201E+03 0.157E+04   -.750E+01 -.204E+03 -.158E+04   -.125E+01 0.121E+01 0.169E+01   -.862E-03 0.388E-02 0.160E-01
   -.335E+02 0.547E+02 -.235E+04   0.344E+02 -.561E+02 0.235E+04   -.591E+00 0.940E+00 -.210E+01   0.132E-02 0.532E-03 -.579E-02
   -.107E+03 -.932E+02 -.155E+04   0.109E+03 0.952E+02 0.155E+04   -.159E+01 -.122E+01 -.180E+01   -.808E-02 0.776E-02 0.537E-02
   -.744E+02 -.148E+03 -.220E+03   0.759E+02 0.150E+03 0.220E+03   -.139E+01 -.277E+01 -.420E+00   0.520E-03 -.362E-02 0.569E-02
   0.483E+02 -.116E+03 0.209E+04   -.492E+02 0.120E+03 -.210E+04   0.500E+00 -.249E+01 0.403E+01   -.471E-02 0.548E-03 0.330E-02
   -.132E+03 -.164E+03 0.962E+03   0.134E+03 0.166E+03 -.961E+03   -.160E+00 -.160E+01 0.101E+01   -.193E-02 0.441E-02 0.177E-01
   0.394E+02 -.154E+03 0.209E+04   -.399E+02 0.156E+03 -.210E+04   -.410E+00 -.165E+01 0.365E+01   0.280E-02 0.301E-02 0.332E-02
   0.208E+03 0.451E+02 0.972E+03   -.211E+03 -.460E+02 -.971E+03   0.205E+01 -.417E+00 0.615E+00   -.457E-02 -.698E-03 0.186E-01
   0.172E+03 0.584E+01 -.205E+03   -.175E+03 -.621E+01 0.205E+03   0.271E+01 0.245E+00 -.124E+00   0.336E-02 -.122E-02 0.518E-02
[...]
   0.272E+03 -.549E+02 0.999E+03   -.276E+03 0.552E+02 -.999E+03   0.196E+01 0.337E+00 0.165E+01   -.487E-02 0.493E-02 0.189E-01
   0.175E+03 -.115E+02 -.209E+03   -.179E+03 0.116E+02 0.209E+03   0.316E+01 -.816E-01 -.175E+00   -.326E-02 0.101E-02 0.603E-02
   0.132E+03 0.532E+02 -.155E+04   -.135E+03 -.539E+02 0.155E+04   0.182E+01 0.886E+00 -.185E+01   -.400E-02 0.323E-02 0.664E-02
   -.863E+02 0.112E+03 0.262E+03   0.877E+02 -.114E+03 -.265E+03   -.135E+01 0.199E+01 0.246E+01   0.567E-02 -.343E-02 0.110E-01
   -.847E+02 0.120E+03 -.901E+03   0.859E+02 -.122E+03 0.897E+03   -.721E+00 0.125E+01 0.109E+01   0.304E-02 -.438E-02 -.205E-02
   -.204E+03 0.225E+03 0.162E+04   0.207E+03 -.227E+03 -.162E+04   -.176E+01 0.272E+00 0.236E+01   0.248E-03 -.486E-02 0.185E-01
   -.180E+03 -.110E+03 -.159E+04   0.182E+03 0.113E+03 0.159E+04   -.158E+01 -.177E+01 -.181E+01   -.344E-02 0.386E-02 0.182E-02
   -.633E+02 -.157E+03 -.224E+03   0.648E+02 0.159E+03 0.224E+03   -.154E+01 -.242E+01 -.200E+00   -.233E-02 -.488E-03 0.485E-02
   -.204E+02 -.197E+03 0.217E+04   0.193E+02 0.199E+03 -.218E+04   0.106E+01 -.112E+01 0.389E+01   -.123E-02 0.393E-02 0.109E-02
   -.876E+02 -.131E+03 0.965E+03   0.888E+02 0.134E+03 -.965E+03   -.118E+01 -.240E+01 0.947E+00   0.247E-02 -.196E-03 0.246E-01
   0.669E+02 -.466E+02 0.215E+04   -.675E+02 0.477E+02 -.215E+04   -.578E-01 -.123E+01 0.367E+01   -.233E-02 -.185E-02 -.885E-03
   0.203E+03 -.622E+02 0.924E+03   -.206E+03 0.623E+02 -.921E+03   0.167E+01 0.498E+00 0.306E+00   0.187E-02 -.495E-02 0.230E-01
   0.165E+03 -.155E+02 -.230E+03   -.168E+03 0.156E+02 0.231E+03   0.295E+01 -.113E+00 -.416E+00   0.186E-02 -.160E-02 0.472E-02
   0.248E+03 -.669E+02 -.153E+04   -.250E+03 0.673E+02 0.153E+04   0.811E+00 -.764E-01 -.144E+01   0.127E-01 0.241E-02 0.314E-02
   -.750E+01 0.210E+02 -.791E+02   -.159E-11 -.895E-12 0.150E-10   0.724E+01 -.210E+02 0.780E+02   -.288E-01 -.214E-02 0.127E+01

 POSITION                                       TOTAL-FORCE (eV/Angst)
      5.35228      4.81788      5.50842        -0.066601      0.155100     -0.029240
      5.93595      3.87238      8.44448        -0.155248      0.178283     -1.208032
      6.03846      3.70631     10.80904         0.511593     -0.866604      0.928314
      2.39578      0.65157      2.82445        -1.415579      1.799903      0.701486
      0.83329      0.55335     10.27634        -0.823721     -0.029189      0.588393
      4.76861      3.35453      1.79664         0.683255     -1.509141      1.488027
      5.35228      2.40903      4.73270         0.054640     -0.072519      0.127503
      5.93595      1.46353      7.66876        -0.066072      0.066942     -0.294716
      1.87746      3.73836      4.73270        -0.130372      0.006709      0.208135
      2.46113      2.79286      7.66876        -0.008231     -0.081239     -0.055148
      3.04675      1.91839     10.27494         0.165201      0.601173      0.582868
      7.77779      4.45086      2.49131         0.842652     -0.089035      0.127981
     10.98051      4.81788      5.50842         0.062602      0.164247      0.073674
     11.56418      3.87238      8.44448         0.006369      0.105091     -0.927600
     11.69628      3.65228     10.82356         0.503974     -0.740027      0.769275
      7.87456      0.73197      2.57236        -1.159422      0.691421      1.605779
      6.36630      0.54637     10.13719         0.424440     -0.426698      1.008634
     10.39684      3.35453      1.79664        -0.529858     -1.601080      2.308557
     10.98051      2.40903      4.73270         0.047559     -0.114675      0.091220
     11.56418      1.46353      7.66876         0.153945      0.058814     -0.033463
      7.50570      3.73836      4.73270        -0.211663     -0.348301      1.062357
      8.08937      2.79286      7.66876        -0.069121      0.031505     -0.239082
      8.71641      1.99711     10.13721         0.211060     -0.564817      0.985455
     12.55026      4.68386      1.79664         1.227237     -0.148268      2.585364
      7.87456      9.84929      5.50842        -0.016174      0.120935      0.083113
      8.45823      8.90379      8.44448        -0.123184      0.084403     -0.963585
      8.59583      8.68701     10.82361         0.441787     -0.794463      0.809621
      4.84535      5.55873      2.86398        -0.670718      2.056127      0.029337
      3.35149      5.54383     10.27943        -0.840173      0.105530      0.431944
      7.33640      8.05780      2.35685        -1.174289     -1.582870     -0.525127
      7.87456      7.44044      4.73270        -0.160578     -0.050444      0.286232
      8.45823      6.49494      7.66876         0.112707     -0.061255     -0.019401
      4.39975      8.76977      4.73270        -0.022875      0.024697      0.109912
      4.98341      7.82427      7.66876         0.016099     -0.170524     -0.042712
      5.59994      6.93181     10.27950         0.315434      0.799639      0.459022
      9.44431      9.71527      1.79664         1.986328     -1.050560      0.986829
     13.50279      9.84929      5.50842        -0.009884     -0.061444     -0.045840
     14.08646      8.90379      8.44448         0.034625     -0.042748      0.072157
     14.69819      7.91283     10.98189         0.025269     -0.062494      1.357042
     10.39684      5.76338      2.57236         0.165667      0.621558      2.060615
      8.97757      5.57953     10.27497        -0.579232      0.048806      0.537825
     12.88093      8.21089      2.21681         0.555463     -0.282036     -0.982555
     13.50279      7.44044      4.73270        -0.112449      0.116167      0.150359
     14.08646      6.49494      7.66876         0.093604     -0.161056     -0.047798
     10.02798      8.76977      4.73270         0.195502      0.018023      0.161371
     10.61165      7.82427      7.66876        -0.155240     -0.139173     -0.058142
     11.18981      6.94653     10.27628         0.381966      0.781302      0.576301
     14.98871      9.60717      2.23498         1.248602     -0.264706     -1.245628
      1.66190      1.67871      5.87212         0.008377     -0.044060      0.117982
      2.24556      0.73321      8.80817         0.497945     -0.729275     -3.125586
      6.09104      4.85211      1.34023         1.050280      1.514234     -3.129592
      6.70646      2.62422      2.93606        -0.286097     -1.656689     -0.048520
      5.02570      5.34684     11.49943         0.292988     -0.420445      2.467641
      2.24556      3.80055      9.79595         0.083967      0.761307     -0.241316
      7.29013      4.74605      6.85989         0.110059     -0.108285      0.028411
      3.78586      1.60238      1.48567        -0.389715      1.253308     -2.172035
      4.18418      0.66015      3.92384         1.372527     -0.000980      2.002534
      3.35629      4.83280      1.49067        -0.944813      1.030361     -1.977119
      3.96438      3.99884      3.92384        -0.710692     -1.367778      1.915065
      4.54805      3.05334      6.85989        -0.065481     -0.126122      0.061851
[...]
      6.70646      5.69156      3.92384         0.713722      1.194158      1.381343
      6.48666      9.03025      3.92384        -1.605963      0.676525      1.643602
      7.07033      8.08475      6.85989         0.040221      0.009733     -0.012183
      7.65400      7.13925      9.79595        -0.753672      0.225298     -0.222767
      9.81241      6.71012      5.87212        -0.001491      0.018177      0.046759
     10.39608      5.76462      8.80817         0.426535     -0.735992     -3.100270
     14.85697      7.65563      2.93606         0.721699     -1.353869     -0.225485
     10.39608      8.83196      9.79595         0.233943      0.766994     -0.236052
     15.44064      9.77746      6.85989         0.013691      0.087426      0.066429
     11.87920      6.58963      1.38056        -0.006572      1.215901     -2.564731
     12.33469      5.69156      3.92384         0.054995     -0.325680      0.819946
     11.54154      9.69320      1.46933        -0.636753     -0.139840     -2.134427
     12.11489      9.03025      3.92384        -0.658353      0.625921      2.601026
     12.69856      8.08475      6.85989        -0.018254      0.022107      0.017124
     13.28223      7.13925      9.79595        -1.796085      0.364325     -0.680348
    total drift:                               -0.284907      0.027375      0.111459

  FREE ENERGIE OF THE ION-ELECTRON SYSTEM (eV)
  free  energy   TOTEN  =      -475.19595403 eV

  energy  without entropy=     -474.10145092  energy(sigma->0) =     -474.64870247