 vasp.5.4.4.18Apr17-6-g9f103f2a35 (build Aug 13 2019 17:33:20) gamma-only

 executed on             LinuxIFC date 2020.05.12  01:15:27

 INCAR:
 POTCAR:    PAW_PBE Ni_pv 06Sep2000
 POTCAR:    PAW_PBE S 06Sep2000
 POTCAR:    PAW_PBE Ni_pv 06Sep2000
   VRHFIN =Ni:

   TITEL  = PAW_PBE Ni_pv 06Sep2000
   POMASS =   58.690; ZVAL   =   16.000    mass and valenz
   ENMAX  =  367.986; ENMIN  =  275.989 eV

 POTCAR:    PAW_PBE S 06Sep2000
   VRHFIN =S : s2p4

   TITEL  = PAW_PBE S 06Sep2000
   POMASS =   32.066; ZVAL   =    6.000    mass and valenz
   ENMAX  =  258.689; ENMIN  =  194.016 eV

 Optimization of the real space projectors (new method)

 maximal supplied QI-value         = 18.90
 optimisation between [QCUT,QGAM] = [ 10.77, 21.73] = [ 32.49,132.25] Ry
 Optimized for a Real-space Cutoff    1.38 Angstroem

   l    n(q)    QCUT    max X(q) W(low)/X(q) W(high)/X(q)  e(spline)
   1      8    10.771     2.836    0.40E-04    0.29E-04    0.12E-06
   1      8    10.771     4.023    0.10E-03    0.48E-04    0.29E-06
   2      8    10.771    73.368    0.42E-03    0.97E-04    0.44E-06
   2      8    10.771    69.010    0.42E-03    0.99E-04    0.45E-06
   0      9    10.771    54.797    0.10E-03    0.56E-04    0.74E-07
   0      9    10.771    24.266    0.89E-04    0.49E-04    0.67E-07
 Optimization of the real space projectors (new method)

 maximal supplied QI-value         = 19.84
 optimisation between [QCUT,QGAM] = [ 10.71, 21.63] = [ 32.15,130.99] Ry
 Optimized for a Real-space Cutoff    1.19 Angstroem

   l    n(q)    QCUT    max X(q) W(low)/X(q) W(high)/X(q)  e(spline)
   0      8    10.715   187.594    0.41E-03    0.53E-04    0.66E-07
   0      8    10.715   164.243    0.41E-03    0.53E-04    0.65E-07
   1      7    10.715    67.533    0.19E-03    0.59E-03    0.68E-07
   1      7    10.715    50.729    0.19E-03    0.58E-03    0.67E-07
  PAW_PBE Ni_pv 06Sep2000               :
  PAW_PBE S 06Sep2000                   :

 POSCAR: Type_037 Type_137
  positions in cartesian coordinates
 exchange correlation table for  LEXCH =        8
   RHO(1)=    0.500       N(1)  =     2000
   RHO(2)=  100.500       N(2)  =     4000

 ion  position               nearest neighbor table
   1  0.780  0.145  0.123-  51 2.02  65 2.10  66 2.17  42 2.25   2 2.31  52 2.36  25 2.41  36 2.46

   2  0.738  0.187  0.254-  43 1.99  52 2.06  66 2.18   1 2.31
   3  0.216  0.666  0.099-  44 2.02  45 2.12  53 2.18   4 2.39  63 2.45  27 2.48
   4  0.297  0.645  0.216-  64 2.13  54 2.13  45 2.25  53 2.26  63 2.26   3 2.39  28 2.53  16 2.53

[...]

   8  0.974  0.663  0.304-  46 2.04  67 2.08  50 2.08  57 2.11  33 2.50   7 2.52
   9  0.056  0.126  0.062-  39 2.05  73 2.09  59 2.11  10 2.36  26 2.54
  10  0.125  0.145  0.185-  38 2.09  59 2.09  73 2.13   9 2.36  60 2.36  74 2.36  26 2.45  11 2.53
                            34 2.53  22 2.53
  11  0.133  0.146  0.337-  60 2.02  74 2.02  38 2.06  10 2.53
  12  0.570  0.650  0.161-  40 2.00  41 2.18  61 2.18  71 2.21  13 2.29
  13  0.642  0.645  0.278-  62 2.04  72 2.05  71 2.09  41 2.25  61 2.26  12 2.29  37 2.53  24 2.53

[...]

  21  0.111  0.510  0.295-  67 2.04  46 2.05  45 2.07  60 2.19
  22  0.252  0.013  0.161-  47 2.06  73 2.21  53 2.25  48 2.36  74 2.36  10 2.53  34 2.53
  23  0.286  0.999  0.318-  74 2.03  48 2.03  54 2.09
  24  0.770  0.513  0.253-  72 2.00  50 2.06  71 2.22  52 2.25  13 2.53  37 2.53
  25  0.883  0.317  0.102-  51 2.00  68 2.05  52 2.08  39 2.12   1 2.41  26 2.42
  26  0.011  0.301  0.167-  38 2.13  39 2.14  67 2.14  59 2.17  68 2.22  25 2.42  20 2.42  10 2.45
                             9 2.54
  27  0.358  0.645  0.063-  40 2.01  53 2.04  63 2.05   3 2.48  15 2.54
  28  0.425  0.777  0.192-  54 2.18  69 2.25  40 2.26  53 2.26  41 2.36  29 2.51   4 2.53  16 2.53

[...]

  38  0.033  0.170  0.268-  11 2.06  10 2.09  26 2.13  60 2.76
  39  0.947  0.129  0.117-   9 2.05  25 2.12  26 2.14  14 2.23  65 2.72
  40  0.474  0.645  0.091-  12 2.00  27 2.01  16 2.26  28 2.26  15 2.63
  41  0.509  0.645  0.276-  29 2.05  17 2.05  12 2.18  13 2.25  28 2.36  16 2.36
  42  0.647  0.145  0.122-  30 2.05  18 2.22   1 2.25  19 2.26  31 2.26
  43  0.639  0.145  0.313-   2 1.99  19 2.09  31 2.09  56 2.69  70 2.71
  44  0.114  0.644  0.037-   3 2.02  20 2.07  32 2.08
  45  0.164  0.645  0.214-  21 2.07  33 2.10   3 2.12   4 2.25  32 2.36  20 2.36
  46  0.074  0.662  0.373-   8 2.04  33 2.04  21 2.05
  47  0.282  0.147  0.068-   5 2.04  34 2.05  22 2.06
  48  0.336  0.145  0.245-  23 2.03  35 2.04   5 2.13   6 2.25  34 2.36  22 2.36
  49  0.832  0.725  0.146-  37 2.14  36 2.14  14 2.15   7 2.18
  50  0.852  0.642  0.307-  24 2.06   8 2.08  37 2.09
  51  0.785  0.293  0.037-  25 2.00   1 2.02
  52  0.829  0.314  0.215-   2 2.06  25 2.08  24 2.25   1 2.36
  53  0.312  0.814  0.122-  27 2.04   3 2.18  22 2.25   4 2.26  28 2.26
  54  0.341  0.810  0.289-  29 2.03  23 2.09   4 2.13  28 2.18
  55  0.484  0.314  0.153-  30 2.04  15 2.08   5 2.23  16 2.25   6 2.26  31 2.26  56 2.74
  56  0.511  0.314  0.315-  17 2.03   6 2.10  31 2.15  43 2.69  55 2.74
  57  0.990  0.828  0.221-   8 2.11  33 2.13   7 2.17  32 2.21  14 2.26  58 2.64
  58  0.974  0.796  0.065-   7 2.10  32 2.10  14 2.10  57 2.64
  59  0.121  0.304  0.099-  10 2.09   9 2.11  26 2.17  20 2.18  34 2.47
  60  0.174  0.314  0.276-  11 2.02  35 2.03  21 2.19  10 2.36  34 2.36  38 2.76
  61  0.657  0.814  0.184-  36 2.06  18 2.10  12 2.18  19 2.25  37 2.26  13 2.26
  62  0.696  0.791  0.348-  37 2.02  13 2.04  72 2.72
  63  0.312  0.477  0.122-  27 2.05  15 2.08  34 2.25   4 2.26  16 2.26   3 2.45
  64  0.341  0.484  0.292-  17 2.03  35 2.08   4 2.13  16 2.21
  65  0.825  0.994  0.044-  36 2.03   1 2.10  14 2.12  39 2.72
  66  0.803  0.999  0.220-  36 2.12   1 2.17   2 2.18  14 2.25  37 2.26
  67  0.001  0.477  0.246-  21 2.04   8 2.08  26 2.14  20 2.36   7 2.36  68 2.78
  68  0.969  0.464  0.082-  25 2.05  20 2.09   7 2.13  26 2.22  67 2.78
  69  0.484  0.977  0.153-  30 2.07  28 2.25   6 2.26  19 2.26  18 2.31   5 2.45  70 2.74
  70  0.510  0.976  0.315-  29 2.03   6 2.10  19 2.16  43 2.71  69 2.74
  71  0.653  0.481  0.196-  13 2.09  12 2.21  31 2.21  24 2.22  72 2.71
  72  0.700  0.507  0.350-  24 2.00  13 2.05  71 2.71  62 2.72
  73  0.136  0.976  0.104-   9 2.09  10 2.13  32 2.17  22 2.21
  74  0.174  0.977  0.276-  11 2.02  23 2.03  33 2.15  10 2.36  22 2.36

  LATTYP: Found a simple orthorhombic cell.
 ALAT       =     9.5784100000
 B/A-ratio  =     1.7387693453
 C/A-ratio  =     1.7627867312

  Lattice vectors:

 A1 = (   0.0000000000,   9.5784100000,   0.0000000000)
 A2 = (   0.0000000000,   0.0000000000, -16.6546456851)
 A3 = ( -16.8846940542,   0.0000000000,   0.0000000000)

Analysis of symmetry for initial positions (statically):
 Subroutine PRICEL returns:
 Original cell was already a primitive cell.

 Routine SETGRP: Setting up the symmetry group for a
 simple orthorhombic supercell.

 Subroutine GETGRP returns: Found  1 space group operations
 (whereof  1 operations were pure point group operations)
 out of a pool of  8 trial point group operations.

The static configuration has the point symmetry C_1 .

Analysis of symmetry for dynamics (positions and initial velocities):
 Subroutine PRICEL returns:
 Original cell was already a primitive cell.

 Routine SETGRP: Setting up the symmetry group for a
 simple orthorhombic supercell.

 Subroutine GETGRP returns: Found  1 space group operations
 (whereof  1 operations were pure point group operations)
 out of a pool of  8 trial point group operations.

The dynamic configuration has the point symmetry C_1 .

 Subroutine INISYM returns: Found  1 space group operations
 (whereof  1 operations are pure point group operations),
 and found     1 'primitive' translations

 KPOINTS: gamma-point-only calculation. no periodi

Automatic generation of k-mesh.
Space group operators:
 irot       det(A)        alpha          n_x          n_y          n_z        tau_x        tau_y        tau_z
    1     1.000000     0.000000     1.000000     0.000000     0.000000     0.000000     0.000000     0.000000

 Subroutine IBZKPT returns following result:

 Found      1 irreducible k-points:

 Following reciprocal coordinates:
            Coordinates               Weight
  0.000000  0.000000  0.000000      1.000000

 Following cartesian coordinates:
            Coordinates               Weight
  0.000000  0.000000  0.000000      1.000000

 SYSTEM =  "Millerite NiS"
 POSCAR =  Type_037 Type_137

 Startparameter for this run:
   NWRITE =      2    write-flag & timer
   PREC   = normal    normal or accurate (medium, high low for compatibility)
   ISTART =      0    job   : 0-new  1-cont  2-samecut
   ICHARG =      2    charge: 1-file 2-atom 10-const
   ISPIN  =      1    spin polarized calculation?
   LNONCOLLINEAR =      F non collinear calculations
   LSORBIT =      F    spin-orbit coupling
   INIWAV =      1    electr: 0-lowe 1-rand  2-diag
   LASPH  =      F    aspherical Exc in radial PAW
   METAGGA=      F    non-selfconsistent MetaGGA calc.

 Electronic Relaxation 1
   ENCUT  =  450.0 eV  33.07 Ry    5.75 a.u.  29.20 16.57 28.81*2*pi/ulx,y,z
   ENINI  =  450.0     initial cutoff
   ENAUG  =  703.4 eV  augmentation charge cutoff
   NELM   =    100;   NELMIN=  2; NELMDL= -5     # of ELM steps
   EDIFF  = 0.1E-03   stopping-criterion for ELM
   LREAL  =      T    real-space projection
   NLSPLINE    = F    spline interpolate recip. space projectors
   LCOMPAT=      F    compatible to vasp.4.4
   GGA_COMPAT  = T    GGA compatible to vasp.4.4-vasp.4.6
   LMAXPAW     = -100 max onsite density
   LMAXMIX     =    2 max onsite mixed and CHGCAR
   VOSKOWN=      0    Vosko Wilk Nusair interpolation
   ROPT   =   -0.00050  -0.00050
 Ionic relaxation
   EDIFFG = 0.1E-02   stopping-criterion for IOM
   NSW    =      0    number of steps for IOM
   NBLOCK =      1;   KBLOCK =      1    inner block; outer block
   IBRION =     -1    ionic relax: 0-MD 1-quasi-New 2-CG
   NFREE  =      0    steps in history (QN), initial steepest desc. (CG)
   ISIF   =      2    stress and relaxation
   IWAVPR =     10    prediction:  0-non 1-charg 2-wave 3-comb
   ISYM   =      2    0-nonsym 1-usesym 2-fastsym
   LCORR  =      T    Harris-Foulkes like correction to forces

   POTIM  = 0.5000    time-step for ionic-motion
   TEIN   =    0.0    initial temperature
   TEBEG  =    0.0;   TEEND  =   0.0 temperature during run
   SMASS  =  -3.00    Nose mass-parameter (am)
   estimated Nose-frequenzy (Omega)   =  0.10E-29 period in steps =****** mass=  -0.652E-26a.u.
   SCALEE = 1.0000    scale energy and forces
   NPACO  =    256;   APACO  = 16.0  distance and # of slots for P.C.
   PSTRESS=    0.0 pullay stress

  Mass of Ions in am
   POMASS =  58.69 32.07
  Ionic Valenz
   ZVAL   =  16.00  6.00
  Atomic Wigner-Seitz radii
  virtual crystal weights
   VCA    =   1.00  1.00
   NELECT =     814.0000    total number of electrons
   NUPDOWN=      -1.0000    fix difference up-down

 DOS related values:
   EMIN   =  10.00;   EMAX   =-10.00  energy-range for DOS
   EFERMI =   0.00
   ISMEAR =     0;   SIGMA  =   0.20  broadening in eV -4-tet -1-fermi 0-gaus

 Electronic relaxation 2 (details)
   IALGO  =     38    algorithm
[...]
     0.000000000  9.578410000  0.000000000     0.000000000  0.104401461  0.000000000
     0.000000000  0.000000000 16.654645685     0.000000000  0.000000000  0.060043307

  length of vectors
    16.884694054  9.578410000 16.654645685     0.059225237  0.104401461  0.060043307

 FORCES acting on ions
    electron-ion (+dipol)            ewald-force                    non-local-force                 convergence-correction
   0.219E+02 -.415E+03 0.186E+04   -.246E+02 0.417E+03 -.186E+04   0.217E+01 -.166E+01 0.300E+01   -.777E-02 -.105E-01 -.243E-02
   -.703E+03 -.224E+03 -.230E+04   0.704E+03 0.223E+03 0.230E+04   -.104E+01 0.791E+00 -.299E+01   -.109E-01 -.505E-02 0.289E-01
   0.176E+03 -.998E+02 0.289E+04   -.176E+03 0.100E+03 -.290E+04   0.928E+00 -.789E+00 0.750E+01   0.107E-01 0.424E-02 0.180E-01
   0.520E+03 -.540E+02 -.118E+04   -.523E+03 0.545E+02 0.119E+04   0.184E+01 -.286E+00 -.557E+01   -.164E-01 0.625E-02 -.803E-02
   -.224E+02 0.389E+03 0.226E+04   0.221E+02 -.389E+03 -.227E+04   0.877E+00 -.520E+00 0.826E+01   -.108E-01 -.186E-01 0.177E-01
   0.325E+02 0.351E+02 -.195E+04   -.365E+02 -.350E+02 0.196E+04   0.331E+01 -.230E+00 -.826E+01   -.309E-01 -.744E-02 -.654E-02
   0.104E+04 0.249E+03 0.117E+04   -.104E+04 -.255E+03 -.117E+04   0.173E+01 0.411E+01 0.271E+01   0.362E-01 0.200E-02 0.211E-01
   0.922E+03 -.639E+02 -.322E+04   -.927E+03 0.665E+02 0.323E+04   0.306E+01 -.204E+01 -.458E+01   0.470E-01 -.368E-02 0.618E-02
   0.351E+03 0.269E+03 0.374E+04   -.352E+03 -.273E+03 -.374E+04   0.111E+01 0.312E+01 -.769E+00   0.310E-01 -.926E-02 0.816E-02
   0.493E+03 0.258E+03 0.562E+02   -.492E+03 -.261E+03 -.560E+02   0.651E+00 0.265E+01 0.178E+01   0.392E-01 -.106E-01 0.423E-01
   0.843E+03 0.796E+02 -.391E+04   -.844E+03 -.795E+02 0.391E+04   0.112E+01 -.889E-01 0.302E+00   0.184E-01 0.477E-03 -.905E-02
   -.726E+03 0.295E+03 0.174E+04   0.729E+03 -.296E+03 -.174E+04   -.249E+01 0.158E+01 0.450E+01   -.357E-01 0.566E-02 -.864E-02
   -.178E+03 0.123E+03 -.232E+04   0.174E+03 -.123E+03 0.233E+04   0.249E+01 -.192E+00 -.668E+01   -.308E-01 0.116E-01 0.561E-02
   -.155E+03 -.204E+03 0.112E+04   0.159E+03 0.206E+03 -.112E+04   -.338E+01 -.142E+01 0.140E+01   0.276E-01 -.156E-01 0.148E-01
   -.458E+03 0.179E+03 0.393E+04   0.455E+03 -.180E+03 -.393E+04   0.243E+01 0.809E+00 -.110E+01   -.144E-01 0.538E-02 0.162E-01
   -.522E+03 0.316E+03 0.990E+01   0.523E+03 -.318E+03 -.823E+01   -.135E+00 0.196E+01 -.139E+01   -.218E-01 0.624E-02 -.254E-02
   -.307E+03 0.204E+03 -.386E+04   0.305E+03 -.205E+03 0.386E+04   0.207E+01 0.183E+01 0.165E+01   -.240E-01 0.171E-02 -.734E-02
   -.200E+03 0.569E+03 0.346E+04   0.201E+03 -.567E+03 -.346E+04   -.826E+00 -.252E+01 -.939E+00   -.364E-01 0.940E-03 -.921E-02
   -.580E+03 0.352E+03 -.126E+04   0.583E+03 -.356E+03 0.127E+04   -.326E+01 0.378E+01 -.321E+01   -.375E-01 -.288E-02 0.245E-02
   0.462E+02 0.263E+03 0.192E+04   -.430E+02 -.263E+03 -.192E+04   -.219E+01 -.872E-01 0.402E+01   0.315E-01 0.192E-01 0.277E-01
   0.337E+02 0.400E+03 -.300E+04   -.319E+02 -.405E+03 0.301E+04   -.703E+00 0.322E+01 -.470E+01   0.123E-01 0.107E-01 0.226E-02
   -.509E+01 0.549E+03 0.125E+04   0.358E+01 -.551E+03 -.125E+04   0.162E+01 0.164E+01 0.369E+01   0.807E-02 -.103E-01 0.146E-01
   -.592E+02 0.301E+03 -.345E+04   0.587E+02 -.303E+03 0.345E+04   0.695E+00 0.225E+01 0.106E+01   -.120E-01 0.737E-03 -.172E-01
   -.509E+03 0.559E+03 -.120E+04   0.513E+03 -.565E+03 0.120E+04   -.347E+01 0.427E+01 -.780E+00   0.137E-01 0.280E-02 0.556E-02
   0.447E+03 -.482E+03 0.228E+04   -.449E+03 0.485E+03 -.228E+04   0.323E+01 -.357E+01 0.422E+01   0.224E-01 0.147E-01 0.451E-02
   0.823E+03 0.134E+03 0.813E+02   -.825E+03 -.134E+03 -.784E+02   0.120E+01 0.752E+00 -.282E+01   0.411E-01 0.213E-01 0.364E-01
   -.193E+03 -.406E+03 0.404E+04   0.191E+03 0.406E+03 -.405E+04   0.102E+01 -.954E+00 0.533E+01   -.147E-01 0.146E-01 0.114E-01
   -.340E+03 -.598E+03 0.392E+03   0.339E+03 0.601E+03 -.393E+03   0.291E+00 -.250E+01 0.288E+00   -.237E-01 0.697E-02 -.605E-02
   -.252E+03 -.210E+03 -.385E+04   0.250E+03 0.212E+03 0.385E+04   0.243E+01 -.189E+01 0.169E+01   -.220E-01 0.943E-02 -.396E-02
   -.383E+03 -.277E+03 0.354E+04   0.383E+03 0.276E+03 -.355E+04   0.190E+00 0.485E+00 0.589E+01   -.290E-01 -.113E-01 0.576E-02
   -.708E+03 -.742E+03 -.675E+03   0.712E+03 0.748E+03 0.677E+03   -.389E+01 -.586E+01 -.237E+01   -.386E-01 -.553E-02 0.861E-03
   0.215E+03 -.587E+03 0.189E+04   -.214E+03 0.592E+03 -.189E+04   -.683E+00 -.450E+01 0.272E+01   0.318E-01 -.132E-01 0.267E-01
   0.122E+03 -.603E+03 -.262E+04   -.118E+03 0.608E+03 0.263E+04   -.318E+01 -.356E+01 -.455E+01   0.175E-01 -.154E-01 0.621E-02
   0.229E+03 -.467E+03 0.120E+04   -.231E+03 0.469E+03 -.120E+04   0.133E+01 -.106E+01 0.314E+01   0.418E-02 -.790E-02 0.185E-01
   -.588E+02 -.253E+03 -.349E+04   0.584E+02 0.255E+03 0.348E+04   0.602E+00 -.244E+01 0.170E+01   -.171E-01 -.483E-02 -.628E-02
   0.614E+02 0.544E+03 0.234E+04   -.663E+02 -.545E+03 -.235E+04   0.395E+01 -.369E+00 0.744E+01   -.130E-01 -.153E-01 -.330E-02
   -.492E+03 -.238E+03 -.185E+04   0.496E+03 0.239E+03 0.185E+04   -.275E+01 -.801E+00 -.636E+01   0.133E-01 0.153E-01 0.110E-01
   0.632E+03 0.121E+03 -.102E+04   -.638E+03 -.123E+03 0.102E+04   0.319E+01 0.133E+01 -.107E+01   0.170E-01 -.232E-02 0.100E-01
   0.191E+03 0.156E+03 0.591E+03   -.190E+03 -.157E+03 -.593E+03   -.521E+00 0.522E+00 0.451E+00   0.525E-02 -.834E-02 0.752E-02
   -.415E+03 -.777E+02 0.138E+04   0.419E+03 0.799E+02 -.138E+04   -.237E+01 -.248E+01 0.260E+01   -.151E-01 0.363E-02 0.118E-02
   -.299E+03 0.126E+02 -.849E+03   0.299E+03 -.125E+02 0.854E+03   0.114E+01 -.385E-01 -.401E+01   -.129E-01 0.536E-02 -.202E-02
   -.286E+03 -.296E+03 0.964E+03   0.287E+03 0.298E+03 -.967E+03   0.219E+00 -.200E+01 0.237E+01   -.193E-01 -.263E-02 -.396E-02
   -.211E+03 0.164E+02 -.154E+04   0.214E+03 -.173E+02 0.155E+04   -.186E+01 0.425E+00 -.232E+01   -.119E-01 -.265E-02 0.751E-02
   0.115E+03 0.193E+02 0.176E+04   -.115E+03 -.195E+02 -.176E+04   0.348E+00 0.958E-01 0.181E+01   0.915E-02 -.692E-03 0.732E-02
   -.909E+02 0.722E+01 -.343E+03   0.918E+02 -.765E+01 0.345E+03   0.616E+00 0.525E+00 -.266E+01   -.261E-02 -.231E-02 0.854E-02
   0.464E+02 -.397E+02 -.178E+04   -.459E+02 0.398E+02 0.178E+04   0.274E+00 0.670E-01 -.108E+01   0.753E-02 -.414E-02 -.120E-01
   0.794E+02 0.851E+02 0.166E+04   -.806E+02 -.852E+02 -.166E+04   0.162E+01 0.825E-01 0.188E+01   0.486E-02 -.672E-02 0.754E-02
   -.140E+03 0.457E+02 -.585E+03   0.141E+03 -.458E+02 0.590E+03   0.280E+00 0.799E-01 -.437E+01   -.275E-02 -.389E-02 -.287E-02
   0.125E+03 0.364E+03 0.680E+03   -.128E+03 -.370E+03 -.682E+03   0.163E+01 0.313E+01 0.114E+01   0.856E-02 -.176E-02 0.128E-02
   -.567E+02 0.583E+02 -.123E+04   0.573E+02 -.592E+02 0.123E+04   0.241E+00 0.948E+00 -.161E+01   0.184E-01 0.600E-02 0.691E-02
   0.262E+03 -.311E+03 0.148E+04   -.263E+03 0.313E+03 -.149E+04   0.211E+00 -.553E+00 0.239E+00   -.651E-02 0.421E-02 -.125E-01
   -.159E+03 -.101E+03 -.491E+03   0.162E+03 0.101E+03 0.497E+03   -.322E+01 0.114E+01 -.381E+01   0.952E-02 0.147E-02 0.103E-01
   0.143E+01 -.358E+03 0.896E+03   -.217E+01 0.362E+03 -.899E+03   -.784E-01 -.192E+01 0.235E+01   -.198E-02 -.139E-02 0.873E-03
   0.202E+03 -.200E+02 -.106E+04   -.203E+03 0.206E+02 0.106E+04   0.697E+00 -.350E+00 -.728E+00   -.388E-02 0.377E-02 -.199E-02
   -.301E+03 -.223E+03 0.470E+03   0.302E+03 0.228E+03 -.470E+03   -.191E+01 -.316E+01 -.124E+00   -.912E-02 -.576E-02 0.380E-02
   -.214E+03 0.160E+02 -.135E+04   0.213E+03 -.153E+02 0.135E+04   0.148E+01 -.910E+00 -.177E+01   -.840E-02 -.639E-02 -.189E-02
   0.289E+03 -.441E+03 -.487E+03   -.290E+03 0.445E+03 0.489E+03   0.795E+00 -.212E+01 -.171E+01   0.149E-01 -.607E-02 0.103E-01
   0.180E+03 -.502E+02 0.150E+04   -.181E+03 0.507E+02 -.151E+04   0.946E+00 0.478E-01 0.392E+01   0.867E-02 -.472E-02 0.253E-02
   -.129E+03 -.147E+03 0.120E+04   0.131E+03 0.148E+03 -.121E+04   -.777E+00 -.122E+00 0.405E+01   0.146E-01 0.102E-01 0.885E-02
   0.176E+03 -.203E+03 -.848E+03   -.176E+03 0.207E+03 0.849E+03   0.510E+00 -.136E+01 -.763E+00   -.148E-02 0.391E-02 0.603E-02
   -.115E+03 0.157E+03 0.146E+03   0.113E+03 -.155E+03 -.146E+03   -.308E+00 -.166E+01 -.356E-01   -.115E-01 0.250E-02 -.141E-02
   -.109E+03 -.248E+03 -.158E+04   0.109E+03 0.252E+03 0.158E+04   0.612E-01 -.254E+01 0.157E+00   -.232E-02 0.562E-02 0.709E-02
   0.277E+03 0.185E+03 0.790E+03   -.280E+03 -.189E+03 -.791E+03   0.127E+01 0.210E+01 0.335E+00   -.302E-02 0.100E-01 0.309E-02
   0.202E+03 -.117E+02 -.112E+04   -.203E+03 0.111E+02 0.112E+04   0.993E+00 0.222E+00 -.106E+01   -.861E-02 -.168E-02 -.358E-02
   -.563E+02 0.294E+02 0.163E+04   0.566E+02 -.300E+02 -.164E+04   -.345E+00 0.695E+00 0.268E+01   0.417E-02 -.632E-02 -.103E-01
   -.270E+03 -.935E+02 -.745E+03   0.273E+03 0.953E+02 0.751E+03   -.265E+01 -.108E+01 -.222E+01   0.591E-02 -.743E-02 0.116E-01
   0.436E+03 0.286E+03 -.742E+03   -.440E+03 -.290E+03 0.744E+03   0.306E+01 0.196E+01 -.287E+01   0.206E-01 0.109E-01 0.117E-01
   0.302E+03 -.673E+02 0.133E+04   -.303E+03 0.679E+02 -.134E+04   0.152E+00 -.448E-01 0.491E+01   0.145E-01 0.125E-01 0.174E-02
   0.110E+03 0.250E+03 0.584E+03   -.113E+03 -.253E+03 -.585E+03   0.178E+01 0.209E+01 -.601E-01   -.110E-01 0.228E-02 -.806E-03
   -.182E+03 -.254E+02 -.136E+04   0.182E+03 0.247E+02 0.137E+04   0.424E+00 0.651E+00 -.272E+01   -.114E-01 -.513E-03 -.534E-03
   -.227E+03 0.153E+03 0.363E+03   0.228E+03 -.155E+03 -.367E+03   -.437E+00 0.422E+00 0.220E+01   -.137E-01 -.191E-02 -.503E-02
   -.116E+03 0.251E+03 -.155E+04   0.115E+03 -.254E+03 0.156E+04   -.441E+00 0.238E+01 -.152E+01   -.566E-02 -.188E-02 0.135E-01
   0.108E+02 0.146E+03 0.107E+04   -.108E+02 -.147E+03 -.108E+04   -.772E-01 0.639E+00 0.236E+01   0.173E-01 -.827E-02 0.126E-01
   0.198E+03 0.213E+03 -.844E+03   -.199E+03 -.216E+03 0.845E+03   0.355E+00 0.842E+00 -.855E+00   0.171E-02 -.875E-03 0.145E-03
   -.196E+02 0.406E+01 -.117E+02   0.171E-11 -.105E-11 -.171E-11   0.196E+02 -.406E+01 0.113E+02   -.221E-01 -.134E-01 0.365E+00

 POSITION                                       TOTAL-FORCE (eV/Angst)
     13.17084      1.39171      2.05636        -0.496590     -0.106408      0.352539
     12.45899      1.78973      4.22275         0.303690      0.113253      0.316241
      3.65318      6.38055      1.64946         1.000857     -0.368860     -0.084680
      5.02033      6.18092      3.59863        -0.456277      0.200819      0.091526
      6.53092      1.54632      2.13747         0.561930     -0.197171     -0.289923
      7.93172      1.39171      4.11272        -0.778055     -0.143167     -0.804307
     16.08224      6.18092      2.57045         0.334821     -1.129092      0.646024
     16.45041      6.34786      5.05538        -1.400649      0.522128      0.193544
      0.95372      1.20959      1.03712        -0.291222     -0.252267     -1.200042
      2.10894      1.39171      3.08454         1.543825     -0.384969      2.010517
      2.24268      1.39451      5.60809         0.219212      0.028876      1.445006
      9.62603      6.22343      2.68590         0.593873     -0.000621     -0.238018
     10.84312      6.18092      4.62682        -1.074861      0.218587     -0.334593
     15.15641      8.77859      2.28891         0.666038      0.755000      1.041967
      6.94471      3.80952      1.07710         0.239369     -0.119999     -0.889061
      7.17375      4.91558      3.19116         0.204324      0.297211      0.269994
      7.62102      4.72185      5.65848         0.290841      0.170124      0.778687
     10.19960      8.92751      1.52679        -0.140336     -0.241845     -0.822262
     10.08514      0.12638      3.70525        -0.328303     -0.247088      0.521340
      1.35096      4.91558      2.16298         1.041678      0.094011      1.437115
      1.86829      4.88582      4.91611         1.160582     -1.460749      0.442381
      4.26235      0.12638      2.67707         0.114948     -0.486584      0.732164
      4.83243      9.57029      5.29248         0.219764     -0.145172      0.629413
     12.99653      4.91558      4.21934         0.722596     -1.476201     -2.401386
     14.90330      3.03354      1.70555         0.509925      0.022217      0.155872
      0.18312      2.88340      2.78166        -0.578524      0.249984      0.150533
      6.04984      6.18245      1.04711        -0.350512     -0.050627     -1.463824
      7.17375      7.44626      3.19116        -0.018422      0.159634     -0.748513
      7.60383      7.63135      5.65349         0.312463     -0.111223      0.951110
      8.92753      1.40973      1.52005        -0.308690      0.206039     -1.603428
     10.08514      2.65705      3.70525         0.166962      0.741105     -0.886991
      1.35096      7.44626      2.16298         0.485288      0.410976      0.716427
      1.69204      7.60639      4.67060         0.578908      1.496070      0.035787
      4.26235      2.65705      2.67707        -0.938272      0.775329      0.832015
      4.84291      2.81119      5.28135         0.204447      0.125180      0.635793
     12.69285      8.55492      2.01189        -0.927650     -1.017131     -0.916657
     12.99653      7.44626      4.21934         0.850294      0.462529     -0.963784
      0.55191      1.62685      4.46027        -2.793064     -1.174124      1.838154
     15.99571      1.23390      1.94534         0.514772     -0.920024     -1.194242
      8.00634      6.18092      1.51374         1.047744     -0.277625     -2.683980
      8.59001      6.18092      4.59828         0.715395      0.082933      0.740056
     10.91773      1.39171      2.02783         1.077278     -0.119023     -1.186893
     10.78092      1.38756      5.21527         0.886112     -0.501624      3.502354
      1.92771      6.16778      0.62107         0.183221     -0.145679     -3.588568
      2.76722      6.18092      3.57010         1.509254      0.094300     -0.367746
      1.24738      6.34533      6.21735         0.740604      0.166983      4.396479
      4.76047      1.40495      1.13429         0.416251     -0.007335     -3.670215
      5.67861      1.39171      4.08419         1.471871     -0.028534      0.413345
     14.04724      6.94357      2.42417        -0.856177     -1.964814     -1.027600
     14.38176      6.15293      5.10652         0.791176      0.030966      2.115866
     13.24797      2.80417      0.61533        -1.303307      1.734136     -3.149117
     13.99844      3.00295      3.57488         0.030020      1.431226      1.769104
      5.26426      7.79215      2.03261        -0.815240      1.800222     -0.573305
      5.75516      7.76136      4.81899        -0.787780      0.254197      1.795468
      8.17565      3.00295      2.54670        -0.549203      1.664381     -0.376515
      8.63444      3.00952      5.24890         0.313746     -0.131100      2.618048
     16.71816      7.92961      3.68894        -0.096954      1.864982      0.956846
     16.43782      7.62310      1.08405         0.211488      0.562111     -3.346691
      2.03628      2.91454      1.64858         1.710699      0.982609     -2.048563
      2.93654      3.00295      4.60306         0.211321      2.121057     -0.129917
     11.08705      7.79215      3.06079        -2.076674      0.031498     -0.174136
     11.75179      7.57217      5.80346        -0.451230      0.984311      3.846012
      5.26426      4.56969      2.03261        -2.190636     -1.342557     -0.648083
      5.75235      4.63785      4.86311        -0.706228     -0.347666      1.626069
     13.92965      9.52400      0.73314        -0.002363      0.137848     -3.773271
     13.55759      9.56440      3.66577         0.767819      0.681047      3.161764
      0.02514      4.56969      4.08897        -1.325739     -1.119525     -0.166443
     16.36121      4.44181      1.36875        -1.200435      0.532945     -2.722981
      8.17565      9.35889      2.54670        -0.913840     -1.449763     -1.191380
      8.61327      9.34719      5.24899         0.270150      0.005082      2.304557
     11.02084      4.60995      3.25841         0.233702     -1.371341     -1.702369
     11.82483      4.85236      5.83503        -0.624045     -0.705537      3.715244
      2.30423      9.34745      1.72447        -0.049688     -0.848450     -1.904608
      2.93654      9.35889      4.60306        -0.598295     -1.818010      0.088731
    total drift:                                0.029803     -0.012164     -0.009769

  FREE ENERGIE OF THE ION-ELECTRON SYSTEM (eV)
  free  energy   TOTEN  =      -349.23307732 eV

  energy  without entropy=     -348.11932717  energy(sigma->0) =     -348.67620225