 vasp.5.4.4.18Apr17-6-g9f103f2a35 (build Aug 13 2019 17:33:20) gamma-only

 executed on             LinuxIFC date 2020.05.12  16:14:09

 INCAR:
 POTCAR:    PAW_PBE Ni_pv 06Sep2000
 POTCAR:    PAW_PBE S 06Sep2000
 POTCAR:    PAW_PBE Ni_pv 06Sep2000
   VRHFIN =Ni:

   TITEL  = PAW_PBE Ni_pv 06Sep2000
   POMASS =   58.690; ZVAL   =   16.000    mass and valenz
   ENMAX  =  367.986; ENMIN  =  275.989 eV

 POTCAR:    PAW_PBE S 06Sep2000
   VRHFIN =S : s2p4

   TITEL  = PAW_PBE S 06Sep2000
   POMASS =   32.066; ZVAL   =    6.000    mass and valenz
   ENMAX  =  258.689; ENMIN  =  194.016 eV

 Optimization of the real space projectors (new method)

 maximal supplied QI-value         = 18.90
 optimisation between [QCUT,QGAM] = [ 10.77, 21.73] = [ 32.49,132.25] Ry
 Optimized for a Real-space Cutoff    1.38 Angstroem

   l    n(q)    QCUT    max X(q) W(low)/X(q) W(high)/X(q)  e(spline)
   1      8    10.771     2.836    0.40E-04    0.29E-04    0.12E-06
   1      8    10.771     4.023    0.10E-03    0.48E-04    0.29E-06
   2      8    10.771    73.368    0.42E-03    0.97E-04    0.44E-06
   2      8    10.771    69.010    0.42E-03    0.99E-04    0.45E-06
   0      9    10.771    54.797    0.10E-03    0.56E-04    0.74E-07
   0      9    10.771    24.266    0.89E-04    0.49E-04    0.67E-07
 Optimization of the real space projectors (new method)

 maximal supplied QI-value         = 19.84
 optimisation between [QCUT,QGAM] = [ 10.71, 21.63] = [ 32.15,130.99] Ry
 Optimized for a Real-space Cutoff    1.19 Angstroem

   l    n(q)    QCUT    max X(q) W(low)/X(q) W(high)/X(q)  e(spline)
   0      8    10.715   187.594    0.41E-03    0.53E-04    0.66E-07
   0      8    10.715   164.243    0.41E-03    0.53E-04    0.65E-07
   1      7    10.715    67.533    0.19E-03    0.59E-03    0.68E-07
   1      7    10.715    50.729    0.19E-03    0.58E-03    0.67E-07
  PAW_PBE Ni_pv 06Sep2000               :
  PAW_PBE S 06Sep2000                   :

 POSCAR: Type_036 Type_136
  positions in cartesian coordinates
 exchange correlation table for  LEXCH =        8
   RHO(1)=    0.500       N(1)  =     2000
   RHO(2)=  100.500       N(2)  =     4000

 ion  position               nearest neighbor table
   1  0.338  0.722  0.157-  41 1.98  42 2.10  61 2.17   2 2.29  50 2.32  14 2.42
   2  0.525  0.601  0.223-  42 2.25  50 2.26  61 2.26   1 2.29  62 2.36  51 2.36  15 2.53  27 2.53

   3  0.675  0.451  0.351-  43 2.25  62 2.26  51 2.26  63 2.36  52 2.36  28 2.53  16 2.53
   4  0.786  0.329  0.462-  64 2.00  63 2.01  52 2.02
   5  0.553  0.118  0.068-  45 2.06  67 2.07  49 2.07  46 2.12   6 2.41  21 2.42
   6  0.758  0.035  0.138-  53 2.09  67 2.15  46 2.25  54 2.36  68 2.36   5 2.41  26 2.45  29 2.53
                            20 2.53
   7  0.058  0.734  0.394-  56 2.07  66 2.16  65 2.26  55 2.26  48 2.27  18 2.53  31 2.53
   8  0.908  0.884  0.266-  47 2.25  54 2.26  68 2.26  55 2.36  65 2.36  30 2.53  17 2.53
   9  0.141  0.318  0.180-  69 2.10  40 2.25  57 2.26  70 2.36  58 2.36  12 2.37  34 2.53  21 2.53

  10  0.291  0.168  0.308-  37 2.25  58 2.26  70 2.26  59 2.36  71 2.36  35 2.53  22 2.53
  11  0.423  0.033  0.423-  71 2.04  59 2.07  38 2.09  72 2.09
  12  0.956  0.485  0.121-  39 1.96  57 2.04  40 2.13  60 2.19   9 2.37  33 2.38  69 2.52
  13  0.010  0.116  0.412-  64 2.06  38 2.13  55 2.25  63 2.26  37 2.26  25 2.46
  14  0.553  0.663  0.093-  39 2.00  50 2.06  61 2.06   1 2.42  26 2.53
  15  0.709  0.416  0.155-  53 2.11  39 2.26  61 2.26  40 2.36  62 2.36  27 2.53   2 2.53
  16  0.860  0.266  0.283-  54 2.25  62 2.26  40 2.26  37 2.36  63 2.36   3 2.53  28 2.53
  17  0.093  0.700  0.198-  57 2.25  41 2.26  68 2.26  42 2.36  65 2.36  30 2.53   8 2.53
  18  0.243  0.549  0.326-  66 2.17  58 2.25  65 2.26  42 2.26  43 2.36  19 2.41   7 2.53  31 2.53

[...]

  32  0.489  0.711  0.428-  72 2.04  43 2.07  31 2.39  23 2.47  56 2.59
  33  0.151  0.388  0.049-  45 2.04  57 2.06  69 2.11  60 2.16  12 2.38
  34  0.366  0.358  0.147-  45 2.09  61 2.25  57 2.26  46 2.36  58 2.36  21 2.53   9 2.53
  35  0.516  0.207  0.275-  62 2.25  58 2.26  46 2.26  47 2.36  59 2.36  10 2.53  22 2.53
  36  0.662  0.067  0.389-  47 2.03  59 2.16  63 2.17  48 2.25
  37  0.064  0.262  0.341-  25 2.06  10 2.25  13 2.26  16 2.36  28 2.36  38 2.55
  38  0.206  0.134  0.440-  11 2.09  13 2.13  25 2.18  64 2.51  37 2.55
  39  0.763  0.563  0.085-  12 1.96  14 2.00  15 2.26  27 2.26  60 2.72
  40  0.914  0.412  0.213-  12 2.13   9 2.25  16 2.26  28 2.26  27 2.36  15 2.36
  41  0.147  0.846  0.128-   1 1.98  17 2.26  30 2.26  20 2.36  29 2.36  44 2.78
  42  0.297  0.696  0.256-   1 2.10   2 2.25  31 2.26  18 2.26  30 2.36  17 2.36
  43  0.447  0.545  0.384-  19 2.05  32 2.07   3 2.25  31 2.36  18 2.36  56 2.73
  44  0.006  0.982  0.017-  29 1.99  20 2.00  67 2.78  41 2.78
  45  0.366  0.285  0.051-  33 2.04   5 2.06  34 2.09  21 2.13
  46  0.530  0.129  0.171-   5 2.12   6 2.25  22 2.26  35 2.26  34 2.36  21 2.36
  47  0.680  0.979  0.299-  36 2.03   8 2.25  23 2.26  35 2.36  22 2.36  48 2.74
  48  0.822  0.849  0.408-  24 2.06  23 2.20  36 2.25   7 2.27  47 2.74
  49  0.468  0.959  0.061-   5 2.07  21 2.11  26 2.15  50 2.72
  50  0.528  0.798  0.171-  14 2.06  26 2.14  22 2.25  27 2.26   2 2.26   1 2.32  49 2.72
  51  0.678  0.648  0.299-  23 2.25  28 2.26   3 2.26  27 2.36   2 2.36
  52  0.829  0.497  0.427-   4 2.02  24 2.05  25 2.15  28 2.36   3 2.36
  53  0.773  0.224  0.103-   6 2.09  15 2.11  29 2.11  54 2.78
  54  0.911  0.081  0.214-  16 2.25   8 2.26  30 2.26   6 2.36  29 2.36  53 2.78
  55  0.062  0.931  0.342-  13 2.25  31 2.26   7 2.26  30 2.36   8 2.36
  56  0.228  0.738  0.450-  31 2.00   7 2.07  32 2.59  43 2.73
  57  0.145  0.515  0.129-  12 2.04  33 2.06  17 2.25  34 2.26   9 2.26  60 2.33
  58  0.295  0.364  0.257-  18 2.25  10 2.26  35 2.26   9 2.36  34 2.36
  59  0.445  0.214  0.385-  19 2.07  11 2.07  36 2.16  35 2.36  10 2.36
  60  1.000  0.602  0.039-  33 2.16  12 2.19  57 2.33  20 2.45  39 2.72
  61  0.477  0.512  0.128-  14 2.06   1 2.17  34 2.25  15 2.26   2 2.26
  62  0.628  0.362  0.256-  35 2.25   3 2.26  16 2.26   2 2.36  15 2.36
  63  0.778  0.212  0.384-   4 2.01  36 2.17  13 2.26  16 2.36   3 2.36
  64  0.975  0.219  0.500-   4 2.00  13 2.06  25 2.09  38 2.51
  65  0.011  0.645  0.299-  28 2.25   7 2.26  18 2.26   8 2.36  17 2.36  66 2.74
  66  0.135  0.508  0.411-  19 2.04   7 2.16  18 2.17  25 2.24  65 2.74
  67  0.742  0.964  0.040-  20 2.03   5 2.07  26 2.10   6 2.15  44 2.78
  68  0.861  0.795  0.171-  26 2.25  27 2.25  17 2.26   8 2.26   6 2.36  20 2.36
  69  0.096  0.229  0.095-   9 2.10  33 2.11  21 2.21  29 2.24  12 2.52
  70  0.244  0.079  0.214-  30 2.25  22 2.26  10 2.26   9 2.36  21 2.36
  71  0.395  0.928  0.342-  11 2.04  31 2.25  23 2.26  10 2.36  22 2.36
  72  0.563  0.855  0.470-  32 2.04  24 2.05  11 2.09  23 2.15

  LATTYP: Found a base centered orthorhombic cell.
 ALAT       =    11.4527836704
 B/A-ratio  =     1.4485816945
 C/A-ratio  =     1.7908432109

  Lattice vectors:

 A1 = (  10.0797329849,   0.0000000000,   0.0000000000)
 A2 = (  -3.5732980427,  -9.4251025535,   0.0000000000)
 A3 = (   0.0000000000,   0.0000000000, -20.5101398818)

Analysis of symmetry for initial positions (statically):
 Subroutine PRICEL returns:
 Original cell was already a primitive cell.

 Routine SETGRP: Setting up the symmetry group for a
 base centered orthorhombic supercell.

 Subroutine GETGRP returns: Found  1 space group operations
 (whereof  1 operations were pure point group operations)
 out of a pool of  8 trial point group operations.

The static configuration has the point symmetry C_1 .

Analysis of symmetry for dynamics (positions and initial velocities):
 Subroutine PRICEL returns:
 Original cell was already a primitive cell.

 Routine SETGRP: Setting up the symmetry group for a
 base centered orthorhombic supercell.

 Subroutine GETGRP returns: Found  1 space group operations
 (whereof  1 operations were pure point group operations)
 out of a pool of  8 trial point group operations.

The dynamic configuration has the point symmetry C_1 .

 Subroutine INISYM returns: Found  1 space group operations
 (whereof  1 operations are pure point group operations),
 and found     1 'primitive' translations

 KPOINTS: gamma-point-only calculation. no periodi

Automatic generation of k-mesh.
Space group operators:
 irot       det(A)        alpha          n_x          n_y          n_z        tau_x        tau_y        tau_z
    1     1.000000     0.000000     1.000000     0.000000     0.000000     0.000000     0.000000     0.000000

 Subroutine IBZKPT returns following result:

 Found      1 irreducible k-points:

 Following reciprocal coordinates:
            Coordinates               Weight
  0.000000  0.000000  0.000000      1.000000

 Following cartesian coordinates:
            Coordinates               Weight
  0.000000  0.000000  0.000000      1.000000

 SYSTEM =  "Millerite NiS"
 POSCAR =  Type_036 Type_136

 Startparameter for this run:
   NWRITE =      2    write-flag & timer
   PREC   = normal    normal or accurate (medium, high low for compatibility)
   ISTART =      0    job   : 0-new  1-cont  2-samecut
   ICHARG =      2    charge: 1-file 2-atom 10-const
   ISPIN  =      1    spin polarized calculation?
   LNONCOLLINEAR =      F non collinear calculations
   LSORBIT =      F    spin-orbit coupling
   INIWAV =      1    electr: 0-lowe 1-rand  2-diag
   LASPH  =      F    aspherical Exc in radial PAW
   METAGGA=      F    non-selfconsistent MetaGGA calc.

 Electronic Relaxation 1
   ENCUT  =  450.0 eV  33.07 Ry    5.75 a.u.  17.43 17.43 35.48*2*pi/ulx,y,z
   ENINI  =  450.0     initial cutoff
   ENAUG  =  703.4 eV  augmentation charge cutoff
   NELM   =    100;   NELMIN=  2; NELMDL= -5     # of ELM steps
   EDIFF  = 0.1E-03   stopping-criterion for ELM
   LREAL  =      T    real-space projection
   NLSPLINE    = F    spline interpolate recip. space projectors
   LCOMPAT=      F    compatible to vasp.4.4
   GGA_COMPAT  = T    GGA compatible to vasp.4.4-vasp.4.6
   LMAXPAW     = -100 max onsite density
   LMAXMIX     =    2 max onsite mixed and CHGCAR
   VOSKOWN=      0    Vosko Wilk Nusair interpolation
   ROPT   =   -0.00050  -0.00050
 Ionic relaxation
   EDIFFG = 0.1E-02   stopping-criterion for IOM
   NSW    =      0    number of steps for IOM
   NBLOCK =      1;   KBLOCK =      1    inner block; outer block
   IBRION =     -1    ionic relax: 0-MD 1-quasi-New 2-CG
   NFREE  =      0    steps in history (QN), initial steepest desc. (CG)
   ISIF   =      2    stress and relaxation
   IWAVPR =     10    prediction:  0-non 1-charg 2-wave 3-comb
   ISYM   =      2    0-nonsym 1-usesym 2-fastsym
   LCORR  =      T    Harris-Foulkes like correction to forces

   POTIM  = 0.5000    time-step for ionic-motion
   TEIN   =    0.0    initial temperature
   TEBEG  =    0.0;   TEEND  =   0.0 temperature during run
   SMASS  =  -3.00    Nose mass-parameter (am)
   estimated Nose-frequenzy (Omega)   =  0.10E-29 period in steps =****** mass=  -0.232E-26a.u.
   SCALEE = 1.0000    scale energy and forces
   NPACO  =    256;   APACO  = 16.0  distance and # of slots for P.C.
   PSTRESS=    0.0 pullay stress

[...]
  Fock        0.00000     0.00000     0.00000     0.00000     0.00000     0.00000
  Total      95.60822    92.78005   103.12655    -7.84679     0.42027     3.72558
  in kB      78.61440    76.28892    84.79638    -6.45207     0.34557     3.06338

 VOLUME and BASIS-vectors are now :
  energy-cutoff  :      450.00
  volume of cell :     1948.51
      direct lattice vectors                 reciprocal lattice vectors
    10.079732985  0.000000000  0.000000000     0.099208977 -0.037612667  0.000000000
     3.573298043  9.425102554  0.000000000     0.000000000  0.106099641  0.000000000
     0.000000000  0.000000000 20.510139882     0.000000000  0.000000000  0.048756372

  length of vectors
    10.079732985 10.079732985 20.510139882     0.106099641  0.106099641  0.048756372

 FORCES acting on ions
    electron-ion (+dipol)            ewald-force                    non-local-force                 convergence-correction
   0.309E+03 -.213E+03 0.317E+04   -.309E+03 0.212E+03 -.318E+04   -.322E+00 0.465E+00 0.442E+01   0.119E-01 0.400E-02 -.579E-02
   0.295E+03 0.158E+03 0.291E+03   -.294E+03 -.160E+03 -.287E+03   -.241E+00 0.134E+01 -.273E+01   0.198E-01 -.315E-02 0.694E-02
   0.529E+03 0.354E+02 -.264E+04   -.531E+03 -.354E+02 0.263E+04   0.196E+01 -.124E+00 0.202E+01   -.136E-01 0.165E-01 -.140E-02
   0.744E+03 0.600E+02 -.535E+04   -.746E+03 -.601E+02 0.535E+04   0.481E-01 0.951E+00 -.273E+01   -.237E-02 -.221E-02 0.282E-02
   -.225E+03 -.510E+03 0.521E+04   0.226E+03 0.511E+03 -.522E+04   0.258E+00 -.152E+00 0.594E+01   0.102E-01 -.127E-01 0.490E-02
   -.170E+03 -.440E+03 0.253E+04   0.171E+03 0.441E+03 -.253E+04   -.446E-01 -.161E+01 -.139E+01   -.136E-01 -.617E-02 -.362E-02
   0.374E+03 -.295E+03 -.413E+04   -.376E+03 0.297E+03 0.414E+04   0.906E+00 -.943E+00 -.281E+01   -.632E-03 0.109E-01 -.933E-02
   0.284E+03 -.215E+03 -.690E+03   -.284E+03 0.217E+03 0.690E+03   0.867E+00 -.974E+00 -.211E+00   -.238E-01 0.626E-02 -.455E-02
   0.246E+03 0.169E+03 0.133E+04   -.245E+03 -.171E+03 -.133E+04   -.534E-01 0.194E+01 -.334E+01   -.440E-02 0.203E-02 -.774E-02
   0.454E+03 -.173E+03 -.158E+04   -.455E+03 0.174E+03 0.158E+04   0.134E+01 -.125E+01 0.259E+01   0.134E-01 -.139E-01 -.380E-02
   0.242E+03 -.351E+03 -.484E+04   -.241E+03 0.353E+03 0.484E+04   -.157E+01 -.920E+00 -.199E+01   0.155E-01 -.791E-02 -.209E-02
   0.241E+03 -.597E+01 0.373E+04   -.242E+03 0.559E+01 -.373E+04   0.130E+01 -.370E+00 -.492E+00   -.141E-01 0.769E-02 0.452E-02
   0.163E+03 0.834E+03 -.394E+04   -.166E+03 -.841E+03 0.394E+04   0.177E+01 0.515E+01 0.118E+01   0.213E-02 -.195E-02 0.102E-01
   0.496E+03 0.734E+02 0.525E+04   -.499E+03 -.730E+02 -.526E+04   0.321E+01 0.237E+00 0.426E+01   0.199E-01 0.292E-02 -.225E-02
   0.209E+03 0.689E+03 0.297E+04   -.210E+03 -.694E+03 -.297E+04   0.100E+01 0.431E+01 0.840E+00   0.405E-02 -.266E-02 -.727E-02
   0.120E+02 0.582E+03 -.545E+03   -.131E+02 -.583E+03 0.545E+03   0.106E+01 0.790E+00 0.379E+00   -.129E-01 0.457E-02 -.981E-02
   0.115E+02 0.387E+03 0.160E+04   -.124E+02 -.386E+03 -.160E+04   0.107E+01 -.247E+00 -.306E+00   -.218E-01 0.212E-02 -.649E-02
   0.114E+02 0.348E+03 -.159E+04   -.119E+02 -.351E+03 0.159E+04   0.416E+00 0.331E+01 0.178E+01   0.889E-02 -.836E-03 0.107E-03
   -.182E+03 0.270E+03 -.487E+04   0.182E+03 -.272E+03 0.487E+04   0.267E+00 0.114E+01 0.124E+01   0.139E-01 -.754E-02 0.983E-02
   -.428E+03 0.539E+03 0.495E+04   0.432E+03 -.543E+03 -.495E+04   -.305E+01 0.140E+01 0.385E+01   -.183E-01 0.311E-02 -.685E-03
   0.543E+03 0.614E+03 0.383E+04   -.548E+03 -.619E+03 -.383E+04   0.369E+01 0.455E+01 0.137E+01   0.134E-01 -.779E-02 0.690E-03
   0.851E+02 0.354E+03 0.423E+03   -.856E+02 -.353E+03 -.423E+03   0.451E+00 -.722E+00 -.354E+00   0.196E-01 -.129E-01 -.881E-02
   -.217E+03 0.108E+03 -.252E+04   0.217E+03 -.111E+03 0.251E+04   -.870E-01 0.374E+01 0.223E+01   -.815E-02 0.193E-01 -.191E-01
   -.519E+03 0.124E+03 -.536E+04   0.522E+03 -.125E+03 0.535E+04   -.233E+01 0.110E+01 0.175E+01   -.155E-01 0.600E-02 -.873E-02
   -.623E+03 -.282E+03 -.470E+04   0.627E+03 0.288E+03 0.470E+04   -.221E+01 -.377E+01 -.226E+01   0.107E-02 -.749E-02 0.831E-02
   0.179E+03 0.207E+03 0.409E+04   -.180E+03 -.208E+03 -.409E+04   0.452E+00 -.725E+00 0.314E+01   0.943E-02 0.890E-02 0.348E-02
   -.329E+03 -.167E+03 0.129E+04   0.329E+03 0.167E+03 -.129E+04   -.792E+00 -.861E-01 -.329E+01   0.499E-02 0.770E-02 -.283E-02
   -.468E+03 -.223E+03 -.161E+04   0.468E+03 0.224E+03 0.161E+04   -.174E+00 -.119E+01 0.128E+01   -.363E-02 0.197E-01 -.868E-02
   -.544E+03 -.361E+03 0.398E+04   0.547E+03 0.364E+03 -.398E+04   -.104E+01 -.243E+01 0.377E+01   -.137E-01 0.281E-02 -.333E-02
   -.322E+03 -.459E+03 0.474E+03   0.321E+03 0.462E+03 -.474E+03   0.697E+00 -.241E+01 -.589E-01   -.223E-02 0.637E-02 -.973E-03
   -.532E+02 -.385E+03 -.274E+04   0.545E+02 0.388E+03 0.274E+04   -.106E+01 -.242E+01 -.111E+01   0.237E-01 0.494E-02 0.188E-02
   0.333E+03 0.285E+03 -.481E+04   -.333E+03 -.284E+03 0.481E+04   -.713E+00 -.150E+01 -.162E+01   -.472E-02 0.124E-02 -.978E-02
   -.709E+02 -.746E+02 0.571E+04   0.695E+02 0.722E+02 -.572E+04   0.144E+01 0.222E+01 0.792E+01   -.548E-02 0.738E-04 -.128E-02
   -.592E+03 -.508E+03 0.275E+04   0.594E+03 0.509E+03 -.275E+04   -.116E+01 -.972E+00 -.477E+00   0.763E-02 -.136E-01 -.131E-03
   -.462E+03 -.347E+03 -.582E+03   0.462E+03 0.348E+03 0.581E+03   -.369E+00 -.154E+01 0.479E+00   0.201E-01 -.172E-01 -.383E-02
   -.519E+03 -.310E+03 -.392E+04   0.521E+03 0.312E+03 0.393E+04   -.193E+01 -.189E+01 -.858E+00   -.490E-02 -.145E-02 -.141E-01
   -.110E+03 0.881E+02 -.659E+03   0.111E+03 -.881E+02 0.655E+03   -.156E+01 -.108E+00 0.121E+01   -.479E-03 0.404E-02 0.701E-02
   -.913E+02 0.109E+03 -.188E+04   0.931E+02 -.110E+03 0.188E+04   -.132E+01 0.306E+00 -.111E+00   0.726E-03 0.299E-03 0.428E-02
   0.345E+02 0.124E+03 0.209E+04   -.351E+02 -.126E+03 -.210E+04   -.103E+01 0.177E+01 0.381E+01   0.700E-03 0.158E-02 0.217E-02
   -.487E+02 0.145E+03 0.331E+03   0.482E+02 -.147E+03 -.329E+03   0.990E-01 0.669E+00 -.489E+00   0.911E-04 0.844E-02 -.765E-02
   -.153E+03 -.451E+02 0.156E+04   0.154E+03 0.443E+02 -.156E+04   -.268E+01 0.194E+01 0.177E+01   -.543E-02 0.485E-02 -.674E-02
   -.449E+02 0.466E+02 -.791E+02   0.466E+02 -.473E+02 0.811E+02   -.167E+01 0.424E+00 -.103E+01   0.590E-02 0.109E-02 0.450E-02
   -.424E+02 0.158E+03 -.129E+04   0.439E+02 -.161E+03 0.129E+04   -.498E+00 0.978E+00 -.198E+01   0.725E-02 0.179E-02 0.273E-02
   -.257E+03 -.505E+02 0.226E+04   0.260E+03 0.507E+02 -.227E+04   -.108E+01 0.119E+00 0.387E+00   -.426E-02 -.700E-03 -.115E-02
   -.200E+03 -.195E+03 0.221E+04   0.203E+03 0.197E+03 -.221E+04   -.114E+01 -.152E+01 0.190E+01   0.529E-02 -.594E-02 -.780E-04
   -.117E+03 -.801E+02 0.693E+03   0.118E+03 0.801E+02 -.690E+03   -.922E+00 0.508E+00 -.467E+00   0.396E-02 -.565E-02 -.283E-02
   -.160E+03 0.293E+02 -.302E+03   0.161E+03 -.297E+02 0.300E+03   -.158E+01 0.372E-01 -.994E-01   -.157E-02 0.187E-02 0.280E-02
   -.304E+03 -.122E+03 -.157E+04   0.306E+03 0.123E+03 0.157E+04   -.136E+01 -.753E+00 -.174E+00   -.263E-02 0.152E-01 -.978E-02
   0.364E+03 0.214E+03 0.205E+04   -.368E+03 -.216E+03 -.206E+04   0.276E+01 0.443E+00 0.307E+01   0.806E-02 0.423E-03 0.131E-02
   0.140E+03 -.239E+03 0.722E+03   -.142E+03 0.243E+03 -.719E+03   0.497E+00 -.230E+01 0.398E+00   0.103E-01 0.539E-02 0.438E-03
   -.813E+01 -.135E+03 -.448E+03   0.799E+01 0.137E+03 0.449E+03   -.876E-01 -.231E+01 -.968E+00   -.492E-04 0.258E-02 -.222E-02
   -.635E+02 -.138E+03 -.169E+04   0.639E+02 0.141E+03 0.170E+04   -.174E+00 -.207E+01 -.241E+01   -.118E-02 -.686E-02 -.487E-02
   0.646E+01 -.249E+03 0.167E+04   -.674E+01 0.251E+03 -.168E+04   -.356E+00 -.818E+00 0.251E+01   -.341E-02 -.103E-02 0.682E-03
   -.172E+02 -.168E+03 0.322E+03   0.171E+02 0.171E+03 -.322E+03   0.244E+00 -.266E+01 0.330E+00   -.866E-02 -.507E-02 -.787E-02
   0.351E+02 -.175E+03 -.951E+03   -.353E+02 0.178E+03 0.951E+03   0.449E-01 -.328E+01 -.283E+00   -.208E-02 -.235E-03 0.343E-03
   0.412E+02 -.623E+02 -.222E+04   -.423E+02 0.624E+02 0.222E+04   0.167E+01 0.271E+00 -.168E+01   0.775E-02 0.538E-03 0.563E-03
   -.263E+03 -.279E+03 0.124E+04   0.269E+03 0.283E+03 -.124E+04   -.242E+01 -.199E+01 -.842E+00   -.371E-02 -.677E-03 -.839E-03
   0.118E+01 -.152E+03 -.771E+02   -.800E+00 0.155E+03 0.782E+02   -.213E+00 -.244E+01 -.151E+01   0.410E-02 -.161E-04 -.769E-02
   -.783E+02 -.176E+03 -.141E+04   0.786E+02 0.179E+03 0.141E+04   0.337E+00 -.180E+01 -.195E+01   0.116E-01 -.565E-02 0.447E-02
   -.393E+02 -.149E+03 0.214E+04   0.373E+02 0.151E+03 -.215E+04   0.207E+01 -.769E+00 0.312E+01   -.409E-02 0.498E-02 -.745E-03
   0.195E+03 0.212E+03 0.154E+04   -.197E+03 -.214E+03 -.154E+04   0.792E+00 0.648E+00 0.233E+01   0.542E-02 -.638E-02 -.137E-02
   0.151E+03 0.106E+03 0.896E+01   -.153E+03 -.108E+03 -.915E+01   0.201E+01 0.117E+01 0.627E+00   -.500E-02 0.970E-03 -.309E-02
   0.173E+03 0.194E+03 -.121E+04   -.176E+03 -.196E+03 0.121E+04   0.135E+01 0.958E+00 -.130E+01   -.123E-01 -.653E-02 0.252E-02
   -.529E+02 0.225E+03 -.231E+04   0.529E+02 -.226E+03 0.232E+04   0.279E+00 0.264E+00 -.228E+01   0.359E-02 -.148E-03 0.372E-02
   0.118E+03 0.479E+02 -.429E+03   -.121E+03 -.487E+02 0.428E+03   0.254E+01 0.818E+00 0.318E-01   -.941E-02 0.260E-02 -.410E-02
   0.124E+03 0.106E+02 -.169E+04   -.125E+03 -.116E+02 0.169E+04   -.107E+00 0.158E+00 -.128E+00   -.779E-03 -.580E-02 0.402E-02
   -.300E+02 -.330E+02 0.234E+04   0.285E+02 0.321E+02 -.234E+04   0.125E+01 0.304E+00 0.388E+01   -.272E-02 -.189E-03 0.476E-02
   -.294E+02 0.598E+02 0.714E+03   0.294E+02 -.625E+02 -.712E+03   -.131E+00 0.265E+01 -.807E+00   -.833E-02 0.425E-02 -.329E-02
   0.273E+03 0.228E+03 0.172E+04   -.275E+03 -.229E+03 -.173E+04   0.576E+00 -.292E-01 0.865E+00   -.225E-02 -.369E-03 0.451E-03
   0.187E+03 0.736E+02 0.424E+03   -.190E+03 -.751E+02 -.425E+03   0.256E+01 0.127E+01 0.142E+01   0.449E-02 -.275E-02 -.777E-02
   0.205E+03 0.342E+02 -.734E+03   -.208E+03 -.345E+02 0.732E+03   0.244E+01 -.679E+00 0.111E+00   0.627E-02 -.783E-02 0.111E-02
   0.131E+02 -.176E+03 -.230E+04   -.144E+02 0.177E+03 0.230E+04   0.997E+00 -.188E+00 -.238E+01   -.932E-02 0.582E-02 -.369E-02
   -.924E+01 0.166E+01 -.312E+02   0.174E-12 -.171E-12 0.455E-12   0.925E+01 -.163E+01 0.313E+02   0.336E-01 0.225E-01 -.121E+00

 POSITION                                       TOTAL-FORCE (eV/Angst)
      5.98447      6.80372      3.22455         0.626906      0.239787     -0.567553
      7.43572      5.66537      4.57627         0.971259     -0.845032      1.371697
      8.41343      4.24907      7.20177        -0.029618     -0.094568      0.230905
      9.09390      3.10188      9.48094        -1.881798      0.861879      0.734517
      5.99585      1.10964      1.39296         1.175728      1.076690     -1.138564
      7.76163      0.32617      2.82594         0.839980      0.086322      1.982071
      3.21062      6.91868      8.07694        -1.065908      0.807818     -1.089054
     12.31264      8.33497      5.45144         0.180887      0.172381      0.023323
      2.55881      2.99577      3.70110         0.688435     -0.650865      1.882613
      3.53652      1.57947      6.32660         0.247465     -0.138709     -0.234451
      4.38090      0.31227      8.67076         0.208667      0.536712      0.982778
     11.36597      4.56919      2.47643         0.203182     -0.736409      0.343063
      0.51382      1.09100      8.43993        -0.818561     -1.314041     -1.982225
      7.94670      6.25011      1.91615        -0.354135      0.601570     -1.433722
      8.63813      3.92359      3.18892        -0.246642     -0.059318      0.623311
      9.61584      2.50729      5.81443        -0.023627     -0.415250     -0.171014
      3.43531      6.59319      4.06409         0.163940      0.148744      0.164091
      4.41302      5.17689      6.68959        -0.135668      0.381595     -1.732067
      5.00516      3.91919      8.66274         0.652991     -0.524320      1.212191
     12.53733      8.00949      1.43859         0.291464     -2.712367      1.652449
      3.76121      1.25399      2.31376        -1.445574     -0.143432      1.470059
      8.31222      9.26279      4.93926        -0.018027     -0.002687      0.055931
      9.28993      7.84650      7.56476        -0.402762      0.362547     -2.251472
     10.18064      6.63272      9.40078         0.119345     -0.494899      0.857623
      1.63042      3.23498      8.91717         1.778914      1.854088      0.399917
      9.77248      7.98019      2.17812        -0.387084     -1.171231     -0.489489
      9.84053      6.03956      3.88260         0.159580      0.097131      0.330530
     10.81824      4.62327      6.50810         0.099316      0.024896     -0.090961
     10.16643      0.70036      2.13226         1.080291      0.703293      2.594241
      4.63771      8.70917      4.75776        -0.001197      0.121575     -0.117865
      5.61542      7.29287      7.38327         0.321147      0.869004     -2.248434
      7.46948      6.70212      8.77486        -0.649820     -0.478326      0.450392
      2.91370      3.66041      1.00435         0.012704     -0.171229     -2.247724
      4.96362      3.36996      3.00743         0.311748      0.333580      1.409302
      5.94133      1.95367      5.63293         0.213940      0.051555      0.170514
      6.90768      0.62887      7.98021         0.668167      0.887154      1.032977
      1.57981      2.47018      7.00134        -0.560774     -0.069216     -2.822200
      2.55849      1.26282      9.02423         0.491314     -0.818921      1.986171
      9.70412      5.30277      1.75033        -1.620217      0.287752     -2.614562
     10.68183      3.88647      4.37584        -0.391175     -0.400533      1.440683
      4.50130      7.97237      2.62550        -1.339576      1.145681     -0.882998
      5.47901      6.55607      5.25100         0.070294     -0.244753      1.035364
      6.45673      5.13978      7.87651         0.988354     -1.279928     -0.509953
      3.57403      9.25823      0.34258         1.314591      0.357260     -4.223107
      4.70881      2.68348      1.05433         1.310503      0.873073     -3.159864
      5.80492      1.21687      3.50067         0.101187      0.578816      2.338406
     10.35593      9.22568      6.12617        -0.588707     -0.284663     -2.477595
     11.32550      8.00567      8.37731         1.367244     -0.011836      1.644889
      8.14228      9.03519      1.25904        -1.810584     -1.551261     -2.076767
      8.17302      7.52069      3.51693        -0.754487      1.342655      2.655137
      9.15074      6.10439      6.14243        -0.220182     -0.180752     -0.587173
     10.12845      4.68809      8.76794         0.260715      1.190979     -0.375789
      8.59659      2.11014      2.11912        -0.635320      1.777835     -1.746307
      9.47664      0.76519      4.39210         0.143649     -0.234225      0.635538
      3.94792      8.77399      7.01760        -0.133003      0.083548     -0.164456
      4.92854      6.95102      9.23270         0.555448      0.401031      3.776753
      3.29611      4.85108      2.64176         2.697026      1.824471      2.239928
      4.27382      3.43479      5.26727         0.166713      0.026905     -0.438762
      5.25153      2.01849      7.89277         0.714746      1.110523     -0.425517
     12.22438      5.66941      0.79250         0.021843      1.187335     -1.446487
      6.64193      4.82628      2.63363        -1.231142     -1.581486     -0.185573
      7.61964      3.40999      5.25914         0.030580      0.002325      0.426086
      8.59735      1.99369      7.88464        -0.949920     -1.219266     -1.069941
     10.60907      2.06338     10.25947         0.231789     -0.915276      4.285954
      2.41682      6.07959      6.13430        -0.348496      0.047574     -0.882166
      3.17560      4.78422      8.42489        -0.760586     -0.775003      1.994498
     10.92512      9.08461      0.81811        -0.252111     -0.554536     -3.375798
     11.51884      7.49589      3.50880        -0.125035     -0.094436      0.549846
      1.78160      2.15393      1.94264        -1.660511     -1.490459     -1.435126
      2.74272      0.74039      4.38397         0.062354     -0.216894      0.393644
      7.29374      8.74919      7.00947        -0.392914     -0.982451     -2.059811
      8.72929      8.05739      9.63361        -0.309242      0.402492      3.377153
    total drift:                                0.043613      0.047031      0.022365

  FREE ENERGIE OF THE ION-ELECTRON SYSTEM (eV)
  free  energy   TOTEN  =      -348.23869939 eV

  energy  without entropy=     -347.27810940  energy(sigma->0) =     -347.75840439