 vasp.5.4.4.18Apr17-6-g9f103f2a35 (build Aug 13 2019 17:33:20) gamma-only

 executed on             LinuxIFC date 2020.05.12  16:55:52

 INCAR:
 POTCAR:    PAW_PBE Ni_pv 06Sep2000
 POTCAR:    PAW_PBE S 06Sep2000
 POTCAR:    PAW_PBE Ni_pv 06Sep2000
   VRHFIN =Ni:

   TITEL  = PAW_PBE Ni_pv 06Sep2000
   POMASS =   58.690; ZVAL   =   16.000    mass and valenz
   ENMAX  =  367.986; ENMIN  =  275.989 eV

 POTCAR:    PAW_PBE S 06Sep2000
   VRHFIN =S : s2p4

   TITEL  = PAW_PBE S 06Sep2000
   POMASS =   32.066; ZVAL   =    6.000    mass and valenz
   ENMAX  =  258.689; ENMIN  =  194.016 eV

 Optimization of the real space projectors (new method)

 maximal supplied QI-value         = 18.90
 optimisation between [QCUT,QGAM] = [ 10.77, 21.73] = [ 32.49,132.25] Ry
 Optimized for a Real-space Cutoff    1.38 Angstroem

   l    n(q)    QCUT    max X(q) W(low)/X(q) W(high)/X(q)  e(spline)
   1      8    10.771     2.836    0.40E-04    0.29E-04    0.12E-06
   1      8    10.771     4.023    0.10E-03    0.48E-04    0.29E-06
   2      8    10.771    73.368    0.42E-03    0.97E-04    0.44E-06
   2      8    10.771    69.010    0.42E-03    0.99E-04    0.45E-06
   0      9    10.771    54.797    0.10E-03    0.56E-04    0.74E-07
   0      9    10.771    24.266    0.89E-04    0.49E-04    0.67E-07
 Optimization of the real space projectors (new method)

 maximal supplied QI-value         = 19.84
 optimisation between [QCUT,QGAM] = [ 10.71, 21.63] = [ 32.15,130.99] Ry
 Optimized for a Real-space Cutoff    1.19 Angstroem

   l    n(q)    QCUT    max X(q) W(low)/X(q) W(high)/X(q)  e(spline)
   0      8    10.715   187.594    0.41E-03    0.53E-04    0.66E-07
   0      8    10.715   164.243    0.41E-03    0.53E-04    0.65E-07
   1      7    10.715    67.533    0.19E-03    0.59E-03    0.68E-07
   1      7    10.715    50.729    0.19E-03    0.58E-03    0.67E-07
  PAW_PBE Ni_pv 06Sep2000               :
  PAW_PBE S 06Sep2000                   :

 POSCAR: Type_036 Type_136
  positions in cartesian coordinates
 exchange correlation table for  LEXCH =        8
   RHO(1)=    0.500       N(1)  =     2000
   RHO(2)=  100.500       N(2)  =     4000

 ion  position               nearest neighbor table
   1  0.251  0.951  0.072-  41 2.04  49 2.06  61 2.08  42 2.09   2 2.47
   2  0.420  0.775  0.145-  49 2.07  62 2.11  50 2.20  61 2.29  42 2.38   1 2.47
   3  0.547  0.645  0.256-  50 2.08  43 2.25  62 2.26  51 2.36  63 2.36  15 2.53  27 2.53
   4  0.698  0.494  0.384-  64 2.16  44 2.25  51 2.26  63 2.26  52 2.36  16 2.53  28 2.53
   5  0.825  0.342  0.487-  52 2.00  64 2.00  17 2.45  26 2.47
   6  0.114  0.412  0.171-  53 2.12  45 2.25  68 2.26   9 2.29  54 2.36  65 2.36  29 2.53  18 2.53

   7  0.264  0.261  0.299-  46 2.25  65 2.26  54 2.26  55 2.36  66 2.36  30 2.53  19 2.53
   8  0.414  0.111  0.427-  67 2.01  56 2.14  47 2.21  66 2.26  55 2.26  31 2.53  20 2.53
   9  0.979  0.595  0.106-  48 1.98  45 2.12  68 2.20  53 2.23   6 2.29  21 2.44
  10  0.082  0.808  0.453-  59 2.05  58 2.07  72 2.08  37 2.11  13 2.49
  11  0.647  0.226  0.148-  38 2.09  70 2.10  69 2.23  39 2.27  15 2.49  36 2.50
  12  0.831  0.028  0.213-  39 2.25  60 2.26  70 2.26  71 2.36  57 2.36  24 2.53  33 2.53
  13  0.981  0.878  0.341-  40 2.25  57 2.26  71 2.26  72 2.36  58 2.36  10 2.49  34 2.53  25 2.53

[...]

  32  0.729  0.799  0.451-  44 2.05  56 2.05  72 2.06  31 2.39
  33  0.015  0.843  0.146-  61 2.14  48 2.26  60 2.26  45 2.36  57 2.36  24 2.53  12 2.53
  34  0.166  0.693  0.274-  62 2.25  57 2.26  45 2.26  58 2.36  46 2.36  25 2.53  13 2.53
  35  0.316  0.543  0.402-  59 2.04  47 2.15  63 2.25  58 2.26  46 2.26  22 2.46
  36  0.766  0.003  0.085-  70 2.03  48 2.04  60 2.06  11 2.50  69 2.57
  37  0.989  0.015  0.490-  26 2.10  17 2.10  10 2.11  40 2.62
  38  0.572  0.442  0.127-  11 2.09  15 2.10  27 2.10  14 2.12
  39  0.736  0.256  0.246-  12 2.25  28 2.26  16 2.26  11 2.27  15 2.36  27 2.36
  40  0.886  0.105  0.374-  17 2.04  26 2.05  13 2.25  16 2.36  28 2.36  37 2.62
  41  0.167  0.157  0.041-  21 2.02   1 2.04  29 2.13  18 2.15
  42  0.303  0.023  0.161-   1 2.09  23 2.17  19 2.26  30 2.26  29 2.36  18 2.36   2 2.38
  43  0.453  0.872  0.289-   3 2.25  31 2.26  20 2.26  30 2.36  19 2.36  44 2.79
  44  0.591  0.730  0.400-  32 2.05  31 2.18  20 2.20   4 2.25  43 2.79
  45  0.019  0.639  0.204-   9 2.12   6 2.25  25 2.26  34 2.26  33 2.36  24 2.36
  46  0.170  0.489  0.332-  22 2.06   7 2.25  35 2.26  25 2.36  34 2.36  47 2.57
  47  0.302  0.343  0.430-  35 2.15  22 2.20   8 2.21  46 2.57  59 2.72
  48  0.869  0.789  0.076-   9 1.98  36 2.04  33 2.26  24 2.26
  49  0.458  0.826  0.051-  23 2.05   1 2.06   2 2.07
  50  0.644  0.688  0.173-   3 2.08  27 2.17  24 2.18   2 2.20
  51  0.787  0.542  0.289-  25 2.25  28 2.26   4 2.26   3 2.36  27 2.36
  52  0.937  0.391  0.417-   5 2.00  26 2.14  22 2.28   4 2.36  28 2.36
  53  0.204  0.460  0.085-  21 2.06  14 2.11   6 2.12   9 2.23  29 2.23
  54  0.353  0.308  0.204-  15 2.25   7 2.26  30 2.26  29 2.36   6 2.36
  55  0.503  0.158  0.332-  16 2.25   8 2.26  31 2.26  30 2.36   7 2.36
  56  0.635  0.016  0.448-  32 2.05  17 2.12  31 2.13   8 2.14
  57  0.070  0.925  0.247-  19 2.25  34 2.26  13 2.26  12 2.36  33 2.36
  58  0.220  0.775  0.375-  10 2.07  20 2.25  35 2.26  34 2.36  13 2.36
  59  0.196  0.607  0.484-  35 2.04  10 2.05  22 2.07  47 2.72
  60  0.920  0.075  0.119-  36 2.06  18 2.25  33 2.26  12 2.26
  61  0.217  0.767  0.098-   1 2.08  33 2.14  14 2.14   2 2.29  62 2.64
  62  0.350  0.641  0.204-  14 2.03   2 2.11  34 2.25   3 2.26  15 2.26  61 2.64
  63  0.501  0.491  0.333-  35 2.25   4 2.26  16 2.26  15 2.36   3 2.36
  64  0.646  0.344  0.445-   5 2.00  16 2.06   4 2.16  17 2.16
  65  0.067  0.258  0.247-  28 2.25   7 2.26  19 2.26  18 2.36   6 2.36
  66  0.218  0.108  0.375-  26 2.13   8 2.26  20 2.26  19 2.36   7 2.36
  67  0.392  0.957  0.483-  20 2.00   8 2.01
  68  0.917  0.408  0.119-  21 2.04   9 2.20  27 2.25  18 2.26   6 2.26
  69  0.513  0.183  0.070-  23 2.12  29 2.16  11 2.23  70 2.49  36 2.57
  70  0.634  0.025  0.162-  36 2.03  23 2.09  11 2.10  30 2.25  24 2.26  12 2.26  69 2.49
  71  0.784  0.874  0.290-  31 2.25  25 2.26  13 2.26  12 2.36  24 2.36
  72  0.934  0.724  0.418-  32 2.06  10 2.08  22 2.17  13 2.36  25 2.36

  LATTYP: Found a base centered orthorhombic cell.
 ALAT       =    11.4527836704
 B/A-ratio  =     1.4485816945
 C/A-ratio  =     1.7901333131

  Lattice vectors:

 A1 = (  10.0797329849,   0.0000000000,   0.0000000000)
 A2 = (  -3.5732980427,  -9.4251025535,   0.0000000000)
 A3 = (   0.0000000000,   0.0000000000, -20.5020095760)

Analysis of symmetry for initial positions (statically):
 Subroutine PRICEL returns:
 Original cell was already a primitive cell.

 Routine SETGRP: Setting up the symmetry group for a
 base centered orthorhombic supercell.

 Subroutine GETGRP returns: Found  1 space group operations
 (whereof  1 operations were pure point group operations)
 out of a pool of  8 trial point group operations.

The static configuration has the point symmetry C_1 .

Analysis of symmetry for dynamics (positions and initial velocities):
 Subroutine PRICEL returns:
 Original cell was already a primitive cell.

 Routine SETGRP: Setting up the symmetry group for a
 base centered orthorhombic supercell.

 Subroutine GETGRP returns: Found  1 space group operations
 (whereof  1 operations were pure point group operations)
 out of a pool of  8 trial point group operations.

The dynamic configuration has the point symmetry C_1 .

 Subroutine INISYM returns: Found  1 space group operations
 (whereof  1 operations are pure point group operations),
 and found     1 'primitive' translations

 KPOINTS: gamma-point-only calculation. no periodi

Automatic generation of k-mesh.
Space group operators:
 irot       det(A)        alpha          n_x          n_y          n_z        tau_x        tau_y        tau_z
    1     1.000000     0.000001     1.000000     0.000000     0.000000     0.000000     0.000000     0.000000

 Subroutine IBZKPT returns following result:

 Found      1 irreducible k-points:

 Following reciprocal coordinates:
            Coordinates               Weight
  0.000000  0.000000  0.000000      1.000000

 Following cartesian coordinates:
            Coordinates               Weight
  0.000000  0.000000  0.000000      1.000000

 SYSTEM =  "Millerite NiS"
 POSCAR =  Type_036 Type_136

 Startparameter for this run:
   NWRITE =      2    write-flag & timer
   PREC   = normal    normal or accurate (medium, high low for compatibility)
   ISTART =      0    job   : 0-new  1-cont  2-samecut
   ICHARG =      2    charge: 1-file 2-atom 10-const
   ISPIN  =      1    spin polarized calculation?
   LNONCOLLINEAR =      F non collinear calculations
   LSORBIT =      F    spin-orbit coupling
   INIWAV =      1    electr: 0-lowe 1-rand  2-diag
   LASPH  =      F    aspherical Exc in radial PAW
   METAGGA=      F    non-selfconsistent MetaGGA calc.

 Electronic Relaxation 1
   ENCUT  =  450.0 eV  33.07 Ry    5.75 a.u.  17.43 17.43 35.46*2*pi/ulx,y,z
   ENINI  =  450.0     initial cutoff
   ENAUG  =  703.4 eV  augmentation charge cutoff
   NELM   =    100;   NELMIN=  2; NELMDL= -5     # of ELM steps
   EDIFF  = 0.1E-03   stopping-criterion for ELM
   LREAL  =      T    real-space projection
   NLSPLINE    = F    spline interpolate recip. space projectors
   LCOMPAT=      F    compatible to vasp.4.4
   GGA_COMPAT  = T    GGA compatible to vasp.4.4-vasp.4.6
   LMAXPAW     = -100 max onsite density
   LMAXMIX     =    2 max onsite mixed and CHGCAR
   VOSKOWN=      0    Vosko Wilk Nusair interpolation
   ROPT   =   -0.00050  -0.00050
 Ionic relaxation
   EDIFFG = 0.1E-02   stopping-criterion for IOM
   NSW    =      0    number of steps for IOM
   NBLOCK =      1;   KBLOCK =      1    inner block; outer block
   IBRION =     -1    ionic relax: 0-MD 1-quasi-New 2-CG
   NFREE  =      0    steps in history (QN), initial steepest desc. (CG)
   ISIF   =      2    stress and relaxation
   IWAVPR =     10    prediction:  0-non 1-charg 2-wave 3-comb
   ISYM   =      2    0-nonsym 1-usesym 2-fastsym
   LCORR  =      T    Harris-Foulkes like correction to forces

   POTIM  = 0.5000    time-step for ionic-motion
   TEIN   =    0.0    initial temperature
   TEBEG  =    0.0;   TEEND  =   0.0 temperature during run
   SMASS  =  -3.00    Nose mass-parameter (am)
   estimated Nose-frequenzy (Omega)   =  0.10E-29 period in steps =****** mass=  -0.232E-26a.u.
   SCALEE = 1.0000    scale energy and forces
   NPACO  =    256;   APACO  = 16.0  distance and # of slots for P.C.
   PSTRESS=    0.0 pullay stress

  Mass of Ions in am
   POMASS =  58.69 32.07
  Ionic Valenz
   ZVAL   =  16.00  6.00
  Atomic Wigner-Seitz radii
  virtual crystal weights
   VCA    =   1.00  1.00
   NELECT =     792.0000    total number of electrons
   NUPDOWN=      -1.0000    fix difference up-down

 DOS related values:
   EMIN   =  10.00;   EMAX   =-10.00  energy-range for DOS
   EFERMI =   0.00
   ISMEAR =     0;   SIGMA  =   0.20  broadening in eV -4-tet -1-fermi 0-gaus

 Electronic relaxation 2 (details)
   IALGO  =     38    algorithm
   LDIAG  =      T    sub-space diagonalisation (order eigenvalues)
[...]
  Fock        0.00000     0.00000     0.00000     0.00000     0.00000     0.00000
  Total      83.11636    91.23965    99.98975     1.27726    -2.05311    -1.15582
  in kB      68.36999    75.05207    82.24974     1.05065    -1.68885    -0.95076

 VOLUME and BASIS-vectors are now :
  energy-cutoff  :      450.00
  volume of cell :     1947.74
      direct lattice vectors                 reciprocal lattice vectors
    10.079732985  0.000000000  0.000000000     0.099208977 -0.037612667  0.000000000
     3.573298043  9.425102554  0.000000000     0.000000000  0.106099641  0.000000000
     0.000000000  0.000000000 20.502009576     0.000000000  0.000000000  0.048775706

  length of vectors
    10.079732985 10.079732985 20.502009576     0.106099641  0.106099641  0.048775706

 FORCES acting on ions
    electron-ion (+dipol)            ewald-force                    non-local-force                 convergence-correction
   0.573E+03 0.317E+03 0.517E+04   -.577E+03 -.319E+03 -.518E+04   0.267E+01 0.162E+01 0.739E+01   -.362E-01 -.236E-01 0.682E-01
   -.196E+03 0.350E+03 0.302E+04   0.200E+03 -.352E+03 -.302E+04   -.378E+01 0.187E+01 -.264E+00   -.242E-01 0.176E+00 0.356E+00
   -.205E+02 -.327E+03 -.235E+03   0.203E+02 0.327E+03 0.237E+03   0.138E+00 -.178E+01 -.116E+01   -.196E+00 0.325E+00 0.599E+00
   0.127E+03 -.713E+03 -.337E+04   -.126E+03 0.714E+03 0.337E+04   -.474E+00 -.142E+01 0.428E+00   -.246E+00 0.364E+00 0.755E+00
   -.112E+03 -.616E+03 -.565E+04   0.112E+03 0.614E+03 0.564E+04   0.246E+00 0.203E+01 0.565E+01   -.415E-01 0.638E-01 0.266E+00
   0.213E+01 -.246E+03 0.162E+04   -.192E+01 0.244E+03 -.161E+04   -.986E-01 0.656E+00 -.368E+01   0.152E+00 -.161E-01 0.362E+00
   -.541E+01 -.453E+03 -.132E+04   0.471E+01 0.454E+03 0.132E+04   0.474E+00 -.132E+01 0.117E+01   0.193E+00 -.289E+00 0.385E+00
   0.728E+02 -.584E+03 -.455E+04   -.734E+02 0.587E+03 0.455E+04   0.792E+00 -.115E+01 -.413E+01   -.495E-01 -.289E+00 0.169E+00
   0.402E+03 -.380E+03 0.445E+04   -.405E+03 0.379E+03 -.446E+04   0.240E+01 0.469E+00 0.435E+01   0.690E-01 0.207E+00 0.828E-01
   -.314E+03 -.471E+02 -.501E+04   0.315E+03 0.520E+02 0.501E+04   -.629E+00 -.393E+01 -.423E+01   0.100E-01 0.708E-01 -.676E-01
   -.249E+03 -.368E+03 0.344E+04   0.247E+03 0.372E+03 -.344E+04   0.168E+01 -.426E+01 0.321E+01   -.127E+00 -.157E+00 0.235E+00
   -.229E+03 -.303E+03 0.802E+03   0.232E+03 0.303E+03 -.799E+03   -.310E+01 -.329E-01 -.303E+01   0.115E-01 -.262E+00 0.396E+00
   -.434E+02 -.376E+03 -.201E+04   0.426E+02 0.378E+03 0.201E+04   0.700E+00 -.193E+01 0.117E+01   0.312E-01 -.121E+00 0.304E+00
   -.127E+03 0.922E+02 0.438E+04   0.126E+03 -.944E+02 -.438E+04   0.149E+01 0.208E+01 0.365E+01   -.567E-01 0.383E-01 0.141E+00
   0.358E+03 0.458E+02 0.752E+03   -.360E+03 -.457E+02 -.750E+03   0.188E+01 0.360E+00 -.189E+01   -.316E+00 -.111E+00 0.498E+00
   0.557E+03 0.132E+03 -.212E+04   -.558E+03 -.133E+03 0.212E+04   0.237E+01 0.827E+00 0.143E+01   -.522E+00 -.133E+00 0.571E+00
   0.521E+03 0.258E+03 -.497E+04   -.523E+03 -.260E+03 0.497E+04   0.209E+01 0.231E+01 -.350E+01   -.594E-01 -.885E-02 0.217E+00
   0.885E+03 0.202E+03 0.298E+04   -.888E+03 -.201E+03 -.298E+04   0.256E+01 -.137E+01 -.747E+00   0.380E-01 -.206E+00 0.280E+00
   0.446E+03 0.316E+03 -.268E+03   -.448E+03 -.316E+03 0.268E+03   0.156E+01 -.227E-01 -.117E+01   0.213E+00 -.145E+00 0.477E+00
   0.436E+03 0.491E+03 -.349E+04   -.440E+03 -.493E+03 0.349E+04   0.218E+01 0.191E+01 -.275E+01   0.145E+00 0.118E+00 0.342E+00
   0.551E+03 -.312E+03 0.586E+04   -.553E+03 0.313E+03 -.587E+04   0.250E+01 -.496E+00 0.429E+01   -.126E-02 0.105E-01 -.128E+00
   0.328E+03 0.383E+03 -.437E+04   -.334E+03 -.385E+03 0.437E+04   0.393E+01 0.115E+01 -.221E+01   0.939E-01 0.865E-01 0.234E+00
   -.468E+03 0.428E+03 0.453E+04   0.470E+03 -.431E+03 -.454E+04   -.155E+01 0.282E+01 0.773E+01   0.274E-01 -.368E-04 0.200E+00
   0.544E+03 0.396E+03 0.206E+04   -.547E+03 -.398E+03 -.206E+04   0.257E+01 0.998E+00 -.161E+01   0.155E+00 0.131E+00 0.385E+00
   0.428E+03 0.365E+03 -.117E+04   -.429E+03 -.365E+03 0.117E+04   0.115E+01 -.221E+00 0.543E+00   0.226E+00 0.416E+00 0.479E+00
   -.786E+03 0.141E+03 -.415E+04   0.791E+03 -.142E+03 0.415E+04   -.435E+01 0.117E+01 -.105E+01   0.140E+00 -.192E+00 0.509E+00
   -.466E+03 0.265E+02 0.240E+04   0.469E+03 -.251E+02 -.240E+04   -.154E+01 -.105E+01 0.122E+01   -.100E+00 0.693E-01 0.120E+00
   -.458E+03 0.623E+02 -.103E+04   0.460E+03 -.614E+02 0.103E+04   -.160E+01 -.737E+00 0.175E+01   0.338E-01 -.126E+00 0.541E+00
   -.571E+03 -.219E+03 0.425E+04   0.575E+03 0.221E+03 -.425E+04   -.254E+01 -.104E+01 0.215E+01   0.667E-01 -.752E-01 0.221E+00
   -.374E+03 0.166E+03 0.594E+03   0.374E+03 -.165E+03 -.592E+03   -.530E-01 -.157E+01 -.241E+01   -.141E+00 -.190E-01 0.617E+00
   -.207E+03 0.121E+03 -.210E+04   0.210E+03 -.122E+03 0.210E+04   -.313E+01 0.107E+01 0.213E+01   -.138E+00 0.190E-01 0.443E+00
   0.599E+02 0.436E+03 -.507E+04   -.602E+02 -.437E+03 0.507E+04   0.935E+00 0.413E+00 0.126E+01   -.159E+00 0.134E+00 0.275E-01
   -.495E+03 0.524E+02 0.329E+04   0.499E+03 -.516E+02 -.329E+04   -.355E+01 -.796E+00 0.148E+01   -.402E-02 0.345E-01 0.363E+00
   -.495E+03 0.197E+03 -.193E+03   0.496E+03 -.196E+03 0.193E+03   -.547E+00 -.802E+00 0.145E+00   -.630E-01 0.251E+00 0.544E+00
   -.703E+03 0.129E+03 -.367E+04   0.709E+03 -.129E+03 0.367E+04   -.466E+01 0.599E+00 0.475E+00   0.539E-01 0.707E-01 0.221E+00
   -.136E+03 -.117E+03 0.540E+04   0.139E+03 0.117E+03 -.541E+04   -.368E+01 -.198E+00 0.587E+01   0.693E-01 -.544E-01 0.681E-01
   -.148E+03 0.127E+03 -.214E+04   0.149E+03 -.129E+03 0.215E+04   -.510E+00 0.118E+01 -.186E+01   0.255E-01 -.148E-01 0.313E-01
   -.169E+03 -.899E+02 0.183E+04   0.170E+03 0.908E+02 -.183E+04   -.139E+01 -.124E+01 0.201E+01   -.535E-01 -.421E-01 0.429E-02
   -.790E+02 0.715E+02 0.159E+03   0.800E+02 -.721E+02 -.158E+03   -.512E+00 0.401E+00 -.111E+01   -.211E+00 -.149E+00 0.567E-01
   -.503E+01 0.144E+03 -.817E+03   0.448E+01 -.146E+03 0.812E+03   0.268E+00 0.128E+01 0.167E+01   -.440E-01 -.259E+00 0.185E+00
   0.180E+03 0.108E+03 0.230E+04   -.181E+03 -.109E+03 -.231E+04   0.930E-01 0.843E+00 0.184E+01   -.125E-01 -.215E-01 -.718E-01
   0.119E+03 0.110E+03 0.793E+03   -.120E+03 -.110E+03 -.789E+03   0.870E+00 0.847E+00 -.912E+00   0.855E-02 -.289E-02 0.254E+00
   0.317E+02 0.149E+03 -.206E+03   -.322E+02 -.151E+03 0.205E+03   0.217E+00 0.224E+01 0.535E+00   -.192E-01 0.118E+00 0.226E+00
   0.172E+03 0.241E+03 -.139E+04   -.173E+03 -.243E+03 0.139E+04   0.571E+00 0.113E+00 -.575E+00   -.854E-02 0.128E+00 0.129E+00
   -.116E+02 0.811E+02 0.482E+03   0.130E+02 -.817E+02 -.480E+03   -.111E+01 0.714E+00 -.737E+00   0.563E-01 0.995E-01 0.165E+00
   -.314E+02 0.134E+03 -.533E+03   0.307E+02 -.135E+03 0.529E+03   0.609E+00 0.140E+01 0.125E+01   0.807E-01 0.209E-01 0.134E+00
   -.697E+02 0.106E+03 -.174E+04   0.691E+02 -.106E+03 0.174E+04   0.104E+01 -.126E+00 0.305E+00   0.357E-01 -.430E-01 0.563E-01
   0.123E+03 0.854E+02 0.215E+04   -.125E+03 -.869E+02 -.216E+04   0.121E+01 0.174E+01 0.370E+01   0.353E-01 0.318E-02 -.233E-02
   -.212E+03 0.405E+03 0.223E+04   0.214E+03 -.407E+03 -.224E+04   -.924E+00 0.106E+01 0.949E+00   0.272E-01 -.253E-01 -.656E-01
   -.119E+03 0.172E+01 0.110E+04   0.121E+03 -.142E+01 -.110E+04   -.952E+00 0.183E+00 0.146E+01   0.120E-02 0.137E+00 0.939E-01
   -.107E+03 -.107E+03 -.225E+03   0.109E+03 0.109E+03 0.225E+03   -.148E+01 -.209E+01 0.117E+00   0.249E-01 0.268E+00 0.206E+00
   -.252E+03 -.205E+03 -.143E+04   0.254E+03 0.207E+03 0.143E+04   -.430E+00 -.458E+00 -.111E+01   0.684E-02 0.431E-01 0.335E+00
   -.309E+03 -.216E+03 0.192E+04   0.313E+03 0.218E+03 -.192E+04   -.167E+01 -.135E+01 0.115E+01   0.315E-02 0.203E-01 -.168E-02
   -.947E+02 -.156E+03 0.494E+03   0.963E+02 0.157E+03 -.495E+03   -.203E+01 -.162E+01 0.139E+01   -.380E-02 -.768E-01 0.223E+00
   -.862E+02 -.139E+03 -.662E+03   0.880E+02 0.141E+03 0.661E+03   -.177E+01 -.170E+01 -.592E+00   -.896E-01 -.798E-01 0.142E+00
   0.454E+01 -.113E+03 -.189E+04   -.233E+01 0.113E+03 0.190E+04   -.118E+01 0.677E+00 -.695E+00   -.102E+00 -.708E-01 0.855E-02
   -.128E+03 -.107E+03 0.162E+03   0.130E+03 0.109E+03 -.162E+03   -.172E+01 -.175E+01 0.536E+00   0.120E-01 -.664E-01 0.210E+00
   -.255E+03 -.751E+01 -.104E+04   0.258E+03 0.940E+01 0.104E+04   -.134E+01 -.201E+01 -.501E+00   -.128E-01 0.449E-01 0.745E-01
   -.179E+03 0.101E+03 -.224E+04   0.180E+03 -.101E+03 0.225E+04   -.730E+00 0.636E+00 -.256E+01   0.362E-01 0.746E-02 0.830E-02
   -.141E+03 -.211E+03 0.160E+04   0.143E+03 0.212E+03 -.160E+04   -.611E+00 -.515E+00 0.254E+01   0.134E-01 -.648E-01 0.680E-01
   0.127E+03 0.103E+03 0.176E+04   -.131E+03 -.104E+03 -.177E+04   0.286E+01 0.757E+00 0.306E+01   -.667E-01 0.410E-01 0.604E-01
   0.128E+03 -.698E+02 0.415E+03   -.130E+03 0.710E+02 -.413E+03   0.214E+01 -.115E+01 0.154E+01   -.555E-01 0.644E-01 0.214E+00
   0.168E+03 -.110E+03 -.775E+03   -.171E+03 0.112E+03 0.775E+03   0.266E+01 -.104E+01 -.124E+01   -.956E-01 0.352E-01 0.205E+00
   0.449E+03 -.243E+03 -.188E+04   -.454E+03 0.246E+03 0.188E+04   0.287E+01 -.155E+01 -.130E+01   0.133E-01 0.277E-01 0.146E+00
   0.169E+03 -.791E+02 0.655E+02   -.172E+03 0.807E+02 -.654E+02   0.264E+01 -.130E+01 -.241E+00   0.260E+00 -.159E+00 0.601E-01
   0.821E+02 -.550E+02 -.114E+04   -.850E+02 0.564E+02 0.114E+04   0.273E+01 -.146E+01 -.118E+01   0.124E+00 -.111E+00 0.946E-01
   0.113E+03 0.113E+03 -.224E+04   -.114E+03 -.115E+03 0.225E+04   -.284E-02 0.475E+00 -.104E+00   0.257E-01 -.591E-02 -.358E-01
   0.500E+03 -.677E+02 0.146E+04   -.505E+03 0.681E+02 -.146E+04   0.236E+01 -.303E-01 0.257E+01   0.321E-01 -.911E-02 -.124E-01
   -.213E+03 -.233E+03 0.211E+04   0.213E+03 0.237E+03 -.212E+04   0.802E+00 -.313E+01 0.418E+01   0.177E-01 -.187E-04 -.255E-01
   0.921E+02 0.590E+02 0.848E+03   -.945E+02 -.600E+02 -.844E+03   0.110E+01 -.384E-01 -.926E+00   -.216E-01 0.255E-02 0.174E+00
   0.151E+03 -.451E+02 -.294E+03   -.153E+03 0.461E+02 0.295E+03   0.298E+01 -.729E+00 -.141E+01   0.385E-01 0.156E-01 0.229E+00
   0.156E+03 0.825E+02 -.155E+04   -.160E+03 -.811E+02 0.155E+04   0.295E+01 -.152E+01 -.224E+01   -.705E-02 0.902E-01 0.277E-01
   -.110E+02 0.118E+02 -.501E+02   -.114E-11 -.136E-11 0.250E-11   0.116E+02 -.120E+02 0.352E+02   -.478E+00 0.323E+00 0.149E+02

 POSITION                                       TOTAL-FORCE (eV/Angst)
      5.93265      8.96221      1.47620        -0.888766     -0.314892     -0.765064
      6.99865      7.30245      2.96831        -0.125059     -0.001516      0.100526
      7.82056      6.07621      5.25100        -0.298646     -0.468167      1.369617
      8.79827      4.65991      7.87651         0.197941      0.428550     -0.275215
      9.53431      3.21951      9.99343         0.373709      0.060639      1.506529
      2.61774      3.87870      3.50067         0.257799     -1.194054      2.289515
      3.59545      2.46241      6.12617        -0.033698     -0.359106     -0.250693
      4.57317      1.04611      8.75167         0.205994      1.651106     -1.251545
     11.99144      5.60378      2.17851        -0.125099     -0.366855     -0.725245
      3.70980      7.61667      9.27917         0.030864      1.066149      0.964294
      7.32918      2.12887      3.03288         0.269593     -0.374891     -0.638416
      8.47237      0.26490      4.37584         0.543941     -0.093603      0.586034
     13.02338      8.27371      7.00134        -0.030786     -0.123843     -0.474993
      5.51180      5.19697      2.37228         0.269155     -0.113674     -1.296238
      6.61816      3.96023      4.55733        -0.556115      0.345812      1.083129
      7.59587      2.54394      7.18283        -0.022034     -0.524292     -1.358212
      8.30065      1.18301      9.43375        -0.855303      0.281566      0.825290
      1.41534      1.76273      2.80700        -0.550128     -0.622734      0.791396
      2.39305      0.34643      5.43250        -0.030603      0.000188      0.057781
      6.94406      8.35524      8.05800        -1.216774     -0.642102     -2.160300
      1.99112      3.47949      0.97199        -0.422413      0.359841     -1.554919
      2.73379      4.81577      8.71511        -2.388647     -0.982641      0.894952
      8.43633      9.36423      2.01840         0.433958     -0.051551     -0.405930
     10.84326      7.57403      3.68216         0.073031     -0.180159      0.237767
     11.82097      6.15773      6.30767        -0.216017     -0.093563     -0.151177
      0.84412      1.56301      8.79786         0.870007      0.455630      0.507137
      9.02296      4.33443      3.86366         0.944630      0.434448      0.647733
     10.00068      2.91813      6.48916         0.319447      0.051487     -0.005553
      3.82015      2.13692      2.11332         0.792480      0.652817      0.857548
      4.79786      0.72063      4.73883        -0.133927      0.015783      0.600187
      9.34887      8.72943      7.36433        -0.194308      0.742854     -2.483791
     10.19880      7.53172      9.24922         0.431181     -0.945792      1.163955
      3.16834      7.94822      2.98849         0.058867      0.044848      0.607303
      4.14605      6.53193      5.61399         0.384798      0.155903      0.042387
      5.12376      5.11563      8.23950         1.475845      0.212980     -1.749163
      7.72857      0.02595      1.73656        -0.499261      0.483320     -1.613782
     10.01963      0.14497     10.04963         0.499881     -0.612168      2.064237
      7.34944      4.16993      2.60068         0.159701     -0.394549     -2.814481
      8.33317      2.41029      5.05057         0.288115     -0.342317      0.017309
      9.31088      0.99399      7.67607        -0.336982     -0.829514     -3.418930
      2.24344      1.47861      0.84479        -0.827331     -0.029421     -3.405954
      3.13035      0.21279      3.30024        -0.291331      0.589599      2.581686
      7.68136      8.22159      5.92574        -0.251136      0.432474     -0.565674
      8.56706      6.87765      8.20358        -0.234057     -1.423571      1.339184
      2.47854      6.02409      4.17540         0.372100      0.220439      1.569027
      3.45626      4.60779      6.80091         0.050207      0.340322     -2.659397
      4.26480      3.23294      8.82125         0.517306     -0.762101      1.738072
     11.58056      7.44039      1.54990        -0.582247      0.271770     -2.047085
      7.56783      7.78402      1.03902         1.549668     -1.515642     -3.302027
      8.95504      6.48582      3.55440         0.823705      0.627887     -0.805936
      9.86427      5.10469      5.93387         0.588390     -0.397010      0.266639
     10.84198      3.68840      8.55937         1.534412      1.242849     -0.555197
      3.69827      4.33633      1.73631         1.392051      0.735025     -1.626325
      4.66145      2.90719      4.18354        -0.462804     -0.164931      0.631587
      5.63916      1.49089      6.80904         0.017672     -0.010807     -0.776073
      6.46359      0.15439      9.19082         0.925990      0.251344      2.224641
      4.00964      8.71849      5.05870         0.090296     -0.088241      0.278341
      4.98735      7.30220      7.68420         1.274976     -0.082889     -0.992223
      4.14703      5.71971      9.92779         0.651114     -0.160028      3.702900
      9.53836      0.70969      2.43320         1.282975      0.992315      0.115874
      4.92464      7.22586      2.00878        -1.394027     -0.046668     -1.455425
      5.82436      6.04450      4.19167        -0.440538      0.106685      3.718873
      6.80207      4.62821      6.81717        -0.151660      0.385693     -0.764023
      7.73741      3.24530      9.11822        -2.309348      1.003089      2.371925
      1.59925      2.43070      5.06683         0.029633      0.150573     -0.033619
      2.57697      1.01441      7.69234         0.027516     -0.130102     -0.627128
      7.36702      9.01837      9.89549        -0.817217     -0.673486      4.103632
     10.70128      3.84700      2.44133        -1.903432      0.378964      0.530004
      5.82832      1.72774      1.42724         0.946739      0.789185     -1.722688
      6.47617      0.23320      3.31650        -1.404614     -1.047826      3.272097
     11.02718      8.24201      5.94200         0.336143      0.274209     -0.459520
     12.00489      6.82571      8.56750        -1.297521     -0.071641     -0.467164
    total drift:                                0.139696      0.066328      0.003640

  FREE ENERGIE OF THE ION-ELECTRON SYSTEM (eV)
  free  energy   TOTEN  =      -351.02653267 eV

  energy  without entropy=     -349.99790676  energy(sigma->0) =     -350.51221971