 vasp.5.4.4.18Apr17-6-g9f103f2a35 (build Aug 13 2019 17:33:20) gamma-only

 executed on             LinuxIFC date 2020.05.12  10:53:27

 INCAR:
 POTCAR:    PAW_PBE Ni_pv 06Sep2000
 POTCAR:    PAW_PBE S 06Sep2000
 POTCAR:    PAW_PBE Ni_pv 06Sep2000
   VRHFIN =Ni:

   TITEL  = PAW_PBE Ni_pv 06Sep2000
   POMASS =   58.690; ZVAL   =   16.000    mass and valenz
   ENMAX  =  367.986; ENMIN  =  275.989 eV

 POTCAR:    PAW_PBE S 06Sep2000
   VRHFIN =S : s2p4

   TITEL  = PAW_PBE S 06Sep2000
   POMASS =   32.066; ZVAL   =    6.000    mass and valenz
   ENMAX  =  258.689; ENMIN  =  194.016 eV

 Optimization of the real space projectors (new method)

 maximal supplied QI-value         = 18.90
 optimisation between [QCUT,QGAM] = [ 10.77, 21.73] = [ 32.49,132.25] Ry
 Optimized for a Real-space Cutoff    1.38 Angstroem

   l    n(q)    QCUT    max X(q) W(low)/X(q) W(high)/X(q)  e(spline)
   1      8    10.771     2.836    0.40E-04    0.29E-04    0.12E-06
   1      8    10.771     4.023    0.10E-03    0.48E-04    0.29E-06
   2      8    10.771    73.368    0.42E-03    0.97E-04    0.44E-06
   2      8    10.771    69.010    0.42E-03    0.99E-04    0.45E-06
   0      9    10.771    54.797    0.10E-03    0.56E-04    0.74E-07
   0      9    10.771    24.266    0.89E-04    0.49E-04    0.67E-07
 Optimization of the real space projectors (new method)

 maximal supplied QI-value         = 19.84
 optimisation between [QCUT,QGAM] = [ 10.71, 21.63] = [ 32.15,130.99] Ry
 Optimized for a Real-space Cutoff    1.19 Angstroem

   l    n(q)    QCUT    max X(q) W(low)/X(q) W(high)/X(q)  e(spline)
   0      8    10.715   187.594    0.41E-03    0.53E-04    0.66E-07
   0      8    10.715   164.243    0.41E-03    0.53E-04    0.65E-07
   1      7    10.715    67.533    0.19E-03    0.59E-03    0.68E-07
   1      7    10.715    50.729    0.19E-03    0.58E-03    0.67E-07
  PAW_PBE Ni_pv 06Sep2000               :
  PAW_PBE S 06Sep2000                   :

 POSCAR: Type_048 Type_148
  positions in cartesian coordinates
 exchange correlation table for  LEXCH =        8
   RHO(1)=    0.500       N(1)  =     2000
   RHO(2)=  100.500       N(2)  =     4000

 ion  position               nearest neighbor table
   1  0.256  0.016  0.152-  74 2.25  64 2.26  81 2.26   5 2.31  53 2.36  93 2.36   9 2.46
   2  0.256  0.016  0.481-  75 2.25  65 2.26  82 2.26  54 2.36  94 2.36  10 2.53   6 2.53
   3  0.006  0.266  0.317-  61 2.25  67 2.26  71 2.26  55 2.36  59 2.36   7 2.53  23 2.53
   4  0.014  0.262  0.638-  56 2.11  68 2.14  72 2.15  60 2.20   8 2.33  24 2.48
   5  0.268  0.017  0.073-  49 2.11  78 2.13  81 2.20  93 2.20   1 2.31   9 2.53
   6  0.256  0.016  0.394-  79 2.25  61 2.26  82 2.26  50 2.36  94 2.36   2 2.53  10 2.53
   7  0.006  0.266  0.230-  64 2.25  71 2.26  62 2.26  59 2.36  51 2.36   3 2.53  23 2.53
   8  0.006  0.266  0.558-  65 2.25  72 2.26  63 2.26   4 2.33  60 2.36  52 2.36  24 2.53
   9  0.196  0.217  0.116-  64 2.16  78 2.17  49 2.18  53 2.21  57 2.25   1 2.46   5 2.53
  10  0.190  0.215  0.438-  58 2.25  65 2.26  61 2.26  54 2.36  50 2.36   2 2.53   6 2.53
  11  0.440  0.465  0.273-  83 2.25  51 2.26  55 2.26  62 2.36  67 2.36  19 2.53  15 2.53
  12  0.440  0.465  0.602-  56 2.11  68 2.14  84 2.25  52 2.26  63 2.36  16 2.48  20 2.53
  13  0.756  0.016  0.152-  87 2.25  53 2.26  93 2.26  17 2.31  64 2.36  81 2.36  21 2.46
  14  0.756  0.016  0.481-  88 2.25  54 2.26  94 2.26  65 2.36  82 2.36  22 2.53  18 2.53
  15  0.506  0.266  0.317-  50 2.25  55 2.26  59 2.26  67 2.36  71 2.36  19 2.53  11 2.53
  16  0.514  0.262  0.638-  68 2.11  56 2.14  60 2.15  72 2.20  20 2.33  12 2.48
  17  0.765  0.017  0.073-  78 2.11  49 2.13  93 2.18  81 2.21  13 2.31  21 2.53
  18  0.756  0.016  0.394-  91 2.25  50 2.26  94 2.26  61 2.36  82 2.36  14 2.53  22 2.53
  19  0.506  0.266  0.230-  53 2.25  59 2.26  51 2.26  71 2.36  62 2.36  15 2.53  11 2.53
  20  0.506  0.266  0.558-  54 2.25  60 2.26  52 2.26  16 2.33  72 2.36  63 2.36  12 2.53
  21  0.697  0.216  0.116-  49 2.16  53 2.16  78 2.18  64 2.21  69 2.25  13 2.46  17 2.53
  22  0.690  0.215  0.438-  70 2.25  54 2.26  50 2.26  65 2.36  61 2.36  14 2.53  18 2.53
  23  0.940  0.465  0.273-  95 2.25  62 2.26  67 2.26  51 2.36  55 2.36   7 2.53   3 2.53
  24  0.940  0.465  0.602-  68 2.11  56 2.14  96 2.25  63 2.26  52 2.36   4 2.48   8 2.53
  25  0.256  0.516  0.152-  51 2.25  89 2.26  57 2.26  29 2.31  76 2.36  69 2.36  33 2.46
  26  0.256  0.516  0.481-  52 2.25  90 2.26  58 2.26  77 2.36  70 2.36  34 2.53  30 2.53
  27  0.006  0.766  0.317-  86 2.25  91 2.26  95 2.26  79 2.36  83 2.36  31 2.53  47 2.53
  28  0.014  0.762  0.638-  80 2.11  92 2.14  96 2.15  84 2.20  32 2.33  48 2.48
  29  0.265  0.517  0.073-  66 2.11  85 2.13  57 2.18  69 2.21  25 2.31  33 2.53
  30  0.256  0.516  0.394-  55 2.25  86 2.26  58 2.26  73 2.36  70 2.36  26 2.53  34 2.53
  31  0.006  0.766  0.230-  89 2.25  95 2.26  87 2.26  83 2.36  74 2.36  27 2.53  47 2.53
  32  0.006  0.766  0.558-  90 2.25  96 2.26  88 2.26  28 2.33  84 2.36  75 2.36  48 2.53
  33  0.197  0.716  0.116-  85 2.16  89 2.16  66 2.18  76 2.21  81 2.25  25 2.46  29 2.53
  34  0.190  0.715  0.438-  82 2.25  90 2.26  86 2.26  77 2.36  73 2.36  26 2.53  30 2.53
  35  0.440  0.965  0.273-  59 2.25  74 2.26  79 2.26  87 2.36  91 2.36  43 2.53  39 2.53
  36  0.440  0.965  0.602-  80 2.11  92 2.14  60 2.25  75 2.26  88 2.36  40 2.48  44 2.53
  37  0.756  0.516  0.152-  62 2.25  76 2.26  69 2.26  41 2.31  89 2.36  57 2.36  45 2.46
  38  0.756  0.516  0.481-  63 2.25  77 2.26  70 2.26  90 2.36  58 2.36  46 2.53  42 2.53
  39  0.506  0.766  0.317-  73 2.25  79 2.26  83 2.26  91 2.36  95 2.36  43 2.53  35 2.53
  40  0.514  0.762  0.638-  92 2.11  80 2.14  84 2.15  96 2.20  44 2.33  36 2.48
  41  0.768  0.517  0.073-  85 2.11  66 2.13  69 2.20  57 2.20  37 2.31  45 2.53
  42  0.756  0.516  0.394-  67 2.25  73 2.26  70 2.26  86 2.36  58 2.36  38 2.53  46 2.53
  43  0.506  0.766  0.230-  76 2.25  83 2.26  74 2.26  95 2.36  87 2.36  39 2.53  35 2.53
  44  0.506  0.766  0.558-  77 2.25  84 2.26  75 2.26  40 2.33  96 2.36  88 2.36  36 2.53
  45  0.696  0.717  0.116-  76 2.16  66 2.17  85 2.18  89 2.21  93 2.25  37 2.46  41 2.53
  46  0.690  0.715  0.438-  94 2.25  77 2.26  73 2.26  90 2.36  86 2.36  38 2.53  42 2.53
  47  0.940  0.965  0.273-  71 2.25  87 2.26  91 2.26  74 2.36  79 2.36  31 2.53  27 2.53
  48  0.940  0.965  0.602-  92 2.11  80 2.14  72 2.25  88 2.26  75 2.36  28 2.48  32 2.53
  49  0.472  0.146  0.072-   5 2.11  17 2.13  21 2.16   9 2.18  53 2.70  93 2.78
  50  0.468  0.167  0.382-  15 2.25  18 2.26  22 2.26   6 2.36  10 2.36
  51  0.218  0.417  0.218-  25 2.25  11 2.26  19 2.26  23 2.36   7 2.36
  52  0.218  0.417  0.547-  26 2.25  12 2.26  20 2.26  24 2.36   8 2.36
  53  0.468  0.167  0.164-  21 2.16   9 2.21  19 2.25  13 2.26   1 2.36  49 2.70
  54  0.468  0.167  0.493-  20 2.25  22 2.26  14 2.26  10 2.36   2 2.36
  55  0.218  0.417  0.329-  30 2.25  15 2.26  11 2.26   3 2.36  23 2.36
  56  0.218  0.391  0.642-   4 2.11  12 2.11  24 2.14  16 2.14  60 2.77
  57  0.053  0.414  0.109-  29 2.18  41 2.20   9 2.25  25 2.26  37 2.36  85 2.78
  58  0.053  0.414  0.438-  10 2.25  26 2.26  30 2.26  38 2.36  42 2.36
  59  0.303  0.164  0.273-  35 2.25  19 2.26  15 2.26   7 2.36   3 2.36
  60  0.303  0.164  0.602-  16 2.15   4 2.20  36 2.25  20 2.26   8 2.36  56 2.77
[...]
  82  0.053  0.914  0.438-  34 2.25   2 2.26   6 2.26  14 2.36  18 2.36
  83  0.303  0.664  0.273-  11 2.25  43 2.26  39 2.26  31 2.36  27 2.36
  84  0.303  0.664  0.602-  40 2.15  28 2.20  12 2.25  44 2.26  32 2.36  80 2.77
  85  0.972  0.646  0.072-  41 2.11  29 2.13  33 2.16  45 2.18  89 2.70  57 2.78
  86  0.968  0.667  0.382-  27 2.25  30 2.26  34 2.26  42 2.36  46 2.36
  87  0.718  0.917  0.218-  13 2.25  47 2.26  31 2.26  35 2.36  43 2.36
  88  0.718  0.917  0.547-  14 2.25  48 2.26  32 2.26  36 2.36  44 2.36
  89  0.968  0.667  0.164-  33 2.16  45 2.21  31 2.25  25 2.26  37 2.36  85 2.70
  90  0.968  0.667  0.493-  32 2.25  34 2.26  26 2.26  46 2.36  38 2.36
  91  0.718  0.917  0.329-  18 2.25  27 2.26  47 2.26  39 2.36  35 2.36
  92  0.718  0.891  0.642-  40 2.11  48 2.11  36 2.14  28 2.14  96 2.77
  93  0.553  0.914  0.109-  17 2.18   5 2.20  45 2.25  13 2.26   1 2.36  49 2.78
  94  0.553  0.914  0.438-  46 2.25  14 2.26  18 2.26   2 2.36   6 2.36
  95  0.803  0.664  0.273-  23 2.25  31 2.26  27 2.26  43 2.36  39 2.36
  96  0.803  0.664  0.602-  28 2.15  40 2.20  24 2.25  32 2.26  44 2.36  92 2.77

  LATTYP: Found a simple monoclinic cell.
 ALAT       =    13.8711386352
 B/A-ratio  =     2.1019774055
 C/A-ratio  =     1.3233367991
 COS(beta)  =    -0.9620914447

  Lattice vectors:

 A1 = (  -8.3714133957, -11.0601955134,   0.0000000000)
 A2 = (   0.0000000000,   0.0000000000, -29.1568200000)
 A3 = (  14.6499733957,  11.0601955134,   0.0000000000)

Analysis of symmetry for initial positions (statically):
 Subroutine PRICEL returns following result:

[...]

   2 primitive cells build up your supercell.

 Routine SETGRP: Setting up the symmetry group for a
 simple monoclinic supercell.

 Subroutine GETGRP returns: Found  1 space group operations
 (whereof  1 operations were pure point group operations)
 out of a pool of  4 trial point group operations.

The static configuration has the point symmetry C_1 .

Analysis of symmetry for dynamics (positions and initial velocities):
 Subroutine PRICEL returns following result:

  LATTYP: Found a simple monoclinic cell.
 ALAT       =    10.0330724044
 B/A-ratio  =     2.9060709247
 C/A-ratio  =     1.5175735465
 COS(beta)  =    -0.9738277425

  Lattice vectors:

 A1 = (  -8.3714133020,   5.5300977567,   0.0000000000)
 A2 = (   0.0000000000,   0.0000000000, -29.1568200000)
 A3 = (  10.4642666041, -11.0601955134,   0.0000000000)

   2 primitive cells build up your supercell.

 Routine SETGRP: Setting up the symmetry group for a
 simple monoclinic supercell.

 Subroutine GETGRP returns: Found  1 space group operations
 (whereof  1 operations were pure point group operations)
 out of a pool of  4 trial point group operations.

The dynamic configuration has the point symmetry C_1 .

 Subroutine INISYM returns: Found  1 space group operations
 (whereof  1 operations are pure point group operations),
 and found     2 'primitive' translations

 KPOINTS: gamma-point-only calculation. no periodi

Automatic generation of k-mesh.
Space group operators:
 irot       det(A)        alpha          n_x          n_y          n_z        tau_x        tau_y        tau_z
    1     1.000000     0.000000     1.000000     0.000000     0.000000     0.000000     0.000000     0.000000

 Subroutine IBZKPT returns following result:

 Found      1 irreducible k-points:

 Following reciprocal coordinates:
            Coordinates               Weight
  0.000000  0.000000  0.000000      1.000000

 Following cartesian coordinates:
            Coordinates               Weight
  0.000000  0.000000  0.000000      1.000000

 SYSTEM =  "Millerite NiS"
 POSCAR =  Type_048 Type_148

 Startparameter for this run:
   NWRITE =      2    write-flag & timer
   PREC   = normal    normal or accurate (medium, high low for compatibility)
[...]
     0.000000000  0.000000000 29.156820000     0.000000000  0.000000000  0.034297293

  length of vectors
     6.278560000 11.256463038 29.156820000     0.162098538  0.090414315  0.034297293

 FORCES acting on ions
    electron-ion (+dipol)            ewald-force                    non-local-force                 convergence-correction
   -.297E+02 0.330E+03 0.422E+04   0.286E+02 -.332E+03 -.422E+04   0.116E+01 0.164E+01 -.196E+01   0.134E-01 -.161E-01 -.236E+00
   -.413E+02 0.256E+03 -.336E+04   0.405E+02 -.256E+03 0.336E+04   0.989E+00 0.501E+00 -.791E+00   -.237E-01 -.662E-01 0.583E+00
   -.413E+02 0.257E+03 0.420E+03   0.404E+02 -.258E+03 -.420E+03   0.955E+00 0.514E+00 -.113E+01   -.109E-01 -.535E-01 0.131E+01
   -.126E+02 0.455E+03 -.730E+04   0.128E+02 -.456E+03 0.730E+04   -.134E+00 0.103E+01 0.565E+00   -.179E-01 -.200E-01 -.199E+00
   -.323E+01 0.421E+03 0.741E+04   0.327E+01 -.423E+03 -.741E+04   -.183E+00 0.686E+00 -.209E+00   0.707E-02 -.616E-01 -.938E+00
   -.413E+02 0.258E+03 -.468E+03   0.404E+02 -.258E+03 0.466E+03   0.961E+00 0.525E+00 0.113E+01   -.229E-01 -.449E-01 0.102E+01
   -.401E+02 0.248E+03 0.330E+04   0.391E+02 -.249E+03 -.330E+04   0.103E+01 0.492E+00 0.981E+00   0.822E-02 -.801E-01 0.841E+00
   -.370E+02 0.274E+03 -.416E+04   0.360E+02 -.275E+03 0.416E+04   0.118E+01 0.820E+00 0.213E+01   -.228E-01 0.106E-01 0.257E+00
   -.263E+02 -.678E+03 0.585E+04   0.265E+02 0.682E+03 -.584E+04   -.244E+00 -.451E+01 -.528E+00   0.170E-01 -.170E-01 -.551E+00
   -.411E+02 -.514E+03 -.191E+04   0.404E+02 0.515E+03 0.191E+04   0.896E+00 -.128E+01 0.194E-01   -.131E-01 0.733E-02 0.791E+00
   -.412E+02 -.514E+03 0.187E+04   0.404E+02 0.515E+03 -.187E+04   0.918E+00 -.122E+01 -.348E-01   0.326E-02 0.246E-01 0.119E+01
   -.283E+02 -.672E+03 -.588E+04   0.282E+02 0.677E+03 0.588E+04   0.223E+00 -.414E+01 -.303E+00   -.167E-02 -.682E-01 -.402E-01
   -.349E+02 0.330E+03 0.422E+04   0.337E+02 -.331E+03 -.422E+04   0.121E+01 0.163E+01 -.197E+01   0.954E-02 -.157E-01 -.267E+00
   -.413E+02 0.256E+03 -.336E+04   0.405E+02 -.256E+03 0.336E+04   0.988E+00 0.498E+00 -.789E+00   0.107E-01 0.111E-01 0.564E+00
   -.413E+02 0.257E+03 0.420E+03   0.404E+02 -.258E+03 -.420E+03   0.954E+00 0.513E+00 -.113E+01   0.899E-02 -.330E-01 0.133E+01
   -.127E+02 0.455E+03 -.730E+04   0.128E+02 -.456E+03 0.730E+04   -.135E+00 0.103E+01 0.566E+00   0.492E-02 0.310E-01 -.205E+00
   -.177E+02 0.422E+03 0.741E+04   0.178E+02 -.423E+03 -.741E+04   -.877E-01 0.699E+00 -.154E+00   -.106E-01 -.573E-01 -.866E+00
   -.413E+02 0.258E+03 -.468E+03   0.404E+02 -.258E+03 0.466E+03   0.960E+00 0.522E+00 0.113E+01   0.561E-02 0.326E-01 0.107E+01
   -.402E+02 0.248E+03 0.330E+04   0.393E+02 -.249E+03 -.330E+04   0.103E+01 0.487E+00 0.970E+00   0.944E-02 -.604E-01 0.804E+00
   -.371E+02 0.274E+03 -.416E+04   0.360E+02 -.275E+03 0.416E+04   0.118E+01 0.820E+00 0.213E+01   0.563E-02 0.535E-01 0.278E+00
   -.313E+02 -.680E+03 0.585E+04   0.314E+02 0.684E+03 -.584E+04   -.174E+00 -.455E+01 -.572E+00   -.142E-02 -.112E+00 -.542E+00
   -.411E+02 -.514E+03 -.191E+04   0.404E+02 0.515E+03 0.191E+04   0.895E+00 -.128E+01 0.195E-01   -.548E-02 0.108E-02 0.804E+00
   -.411E+02 -.514E+03 0.187E+04   0.404E+02 0.515E+03 -.187E+04   0.919E+00 -.121E+01 -.334E-01   0.113E-01 -.244E-01 0.120E+01
   -.283E+02 -.672E+03 -.588E+04   0.282E+02 0.677E+03 0.588E+04   0.224E+00 -.414E+01 -.303E+00   -.425E-02 -.590E-01 -.479E-01
   -.349E+02 0.330E+03 0.422E+04   0.337E+02 -.331E+03 -.422E+04   0.121E+01 0.163E+01 -.197E+01   0.947E-02 -.158E-01 -.267E+00
   -.413E+02 0.256E+03 -.336E+04   0.405E+02 -.256E+03 0.336E+04   0.988E+00 0.498E+00 -.789E+00   0.102E-01 0.110E-01 0.563E+00
   -.413E+02 0.257E+03 0.420E+03   0.404E+02 -.258E+03 -.420E+03   0.954E+00 0.513E+00 -.113E+01   0.909E-02 -.346E-01 0.133E+01
   -.127E+02 0.455E+03 -.730E+04   0.128E+02 -.456E+03 0.730E+04   -.135E+00 0.103E+01 0.566E+00   0.447E-02 0.295E-01 -.204E+00
   -.177E+02 0.422E+03 0.741E+04   0.178E+02 -.423E+03 -.741E+04   -.877E-01 0.699E+00 -.154E+00   -.109E-01 -.573E-01 -.866E+00
   -.413E+02 0.258E+03 -.468E+03   0.404E+02 -.258E+03 0.466E+03   0.960E+00 0.522E+00 0.113E+01   0.478E-02 0.315E-01 0.107E+01
   -.402E+02 0.248E+03 0.330E+04   0.393E+02 -.249E+03 -.330E+04   0.103E+01 0.487E+00 0.970E+00   0.955E-02 -.616E-01 0.804E+00
   -.371E+02 0.274E+03 -.416E+04   0.360E+02 -.275E+03 0.416E+04   0.118E+01 0.820E+00 0.213E+01   0.578E-02 0.528E-01 0.278E+00
   -.313E+02 -.680E+03 0.585E+04   0.314E+02 0.684E+03 -.584E+04   -.174E+00 -.455E+01 -.572E+00   -.168E-02 -.112E+00 -.542E+00
   -.411E+02 -.514E+03 -.191E+04   0.404E+02 0.515E+03 0.191E+04   0.895E+00 -.128E+01 0.195E-01   -.618E-02 0.144E-02 0.806E+00
   -.411E+02 -.514E+03 0.187E+04   0.404E+02 0.515E+03 -.187E+04   0.919E+00 -.121E+01 -.334E-01   0.111E-01 -.243E-01 0.120E+01
   -.283E+02 -.672E+03 -.588E+04   0.282E+02 0.677E+03 0.588E+04   0.224E+00 -.414E+01 -.303E+00   -.443E-02 -.596E-01 -.483E-01
   -.297E+02 0.330E+03 0.422E+04   0.286E+02 -.332E+03 -.422E+04   0.116E+01 0.164E+01 -.196E+01   0.134E-01 -.156E-01 -.236E+00
   -.413E+02 0.256E+03 -.336E+04   0.405E+02 -.256E+03 0.336E+04   0.989E+00 0.501E+00 -.791E+00   -.231E-01 -.670E-01 0.582E+00
   -.413E+02 0.257E+03 0.420E+03   0.404E+02 -.258E+03 -.420E+03   0.955E+00 0.514E+00 -.113E+01   -.109E-01 -.542E-01 0.131E+01
   -.126E+02 0.455E+03 -.730E+04   0.128E+02 -.456E+03 0.730E+04   -.134E+00 0.103E+01 0.565E+00   -.176E-01 -.216E-01 -.199E+00
   -.323E+01 0.421E+03 0.741E+04   0.327E+01 -.423E+03 -.741E+04   -.183E+00 0.686E+00 -.209E+00   0.730E-02 -.621E-01 -.938E+00
   -.413E+02 0.258E+03 -.468E+03   0.404E+02 -.258E+03 0.466E+03   0.961E+00 0.525E+00 0.113E+01   -.221E-01 -.459E-01 0.102E+01
   -.401E+02 0.248E+03 0.330E+04   0.391E+02 -.249E+03 -.330E+04   0.103E+01 0.492E+00 0.981E+00   0.795E-02 -.813E-01 0.840E+00
   -.370E+02 0.274E+03 -.416E+04   0.360E+02 -.275E+03 0.416E+04   0.118E+01 0.820E+00 0.213E+01   -.229E-01 0.105E-01 0.258E+00
   -.263E+02 -.678E+03 0.585E+04   0.265E+02 0.682E+03 -.584E+04   -.244E+00 -.451E+01 -.528E+00   0.173E-01 -.167E-01 -.551E+00
   -.411E+02 -.514E+03 -.191E+04   0.404E+02 0.515E+03 0.191E+04   0.896E+00 -.128E+01 0.194E-01   -.120E-01 0.744E-02 0.791E+00
   -.412E+02 -.514E+03 0.187E+04   0.404E+02 0.515E+03 -.187E+04   0.918E+00 -.122E+01 -.348E-01   0.330E-02 0.244E-01 0.119E+01
   -.283E+02 -.672E+03 -.588E+04   0.282E+02 0.677E+03 0.588E+04   0.223E+00 -.414E+01 -.303E+00   -.159E-02 -.686E-01 -.405E-01
   0.648E+00 -.222E+03 0.282E+04   -.994E+00 0.226E+03 -.282E+04   0.312E+00 -.257E+01 0.450E+01   0.213E-01 -.987E-01 -.323E+00
   0.397E+02 -.833E+02 -.962E+02   -.404E+02 0.844E+02 0.937E+02   0.544E+00 -.133E+01 0.249E+01   0.320E-01 0.206E-01 0.380E+00
   0.396E+02 -.846E+02 0.133E+04   -.402E+02 0.856E+02 -.133E+04   0.477E+00 -.135E+01 0.247E+01   0.174E-02 0.228E-01 0.198E+00
   0.391E+02 -.987E+02 -.151E+04   -.399E+02 0.100E+03 0.151E+04   0.764E+00 -.135E+01 0.218E+01   0.200E-01 0.275E-01 0.839E-01
   0.352E+02 -.755E+02 0.150E+04   -.359E+02 0.771E+02 -.149E+04   0.588E+00 -.166E+01 -.146E+01   0.202E-01 -.349E-02 -.448E-02
   0.399E+02 -.806E+02 -.134E+04   -.405E+02 0.817E+02 0.134E+04   0.474E+00 -.132E+01 -.248E+01   0.356E-01 -.260E-01 0.167E+00
   0.398E+02 -.834E+02 0.786E+02   -.404E+02 0.845E+02 -.770E+02   0.551E+00 -.133E+01 -.251E+01   -.526E-02 -.553E-01 0.479E+00
   0.251E-01 -.194E+03 -.280E+04   -.427E+00 0.198E+03 0.281E+04   0.369E+00 -.232E+01 -.433E+01   0.309E-01 -.449E-01 -.101E+00
   0.332E+02 0.238E+03 0.225E+04   -.336E+02 -.241E+03 -.225E+04   0.438E+00 0.236E+01 0.221E+00   0.301E-01 0.627E-01 -.284E+00
   0.396E+02 0.166E+03 -.717E+03   -.404E+02 -.169E+03 0.716E+03   0.721E+00 0.272E+01 0.269E-01   0.305E-03 0.316E-01 0.315E+00
   0.395E+02 0.167E+03 0.698E+03   -.404E+02 -.169E+03 -.698E+03   0.728E+00 0.271E+01 -.501E-01   -.192E-01 0.348E-01 0.471E+00
   0.364E+02 0.238E+03 -.219E+04   -.366E+02 -.241E+03 0.219E+04   0.934E-01 0.204E+01 -.103E+00   0.212E-02 0.330E-01 0.317E-01
[...]
   0.395E+02 0.167E+03 0.698E+03   -.404E+02 -.169E+03 -.698E+03   0.730E+00 0.271E+01 -.453E-01   0.163E-01 0.256E-01 0.471E+00
   0.364E+02 0.238E+03 -.219E+04   -.366E+02 -.241E+03 0.219E+04   0.966E-01 0.204E+01 -.103E+00   -.482E-02 0.104E-01 0.299E-01
   0.648E+00 -.222E+03 0.282E+04   -.994E+00 0.226E+03 -.282E+04   0.312E+00 -.257E+01 0.450E+01   0.213E-01 -.987E-01 -.323E+00
   0.397E+02 -.833E+02 -.962E+02   -.404E+02 0.844E+02 0.937E+02   0.544E+00 -.133E+01 0.249E+01   0.319E-01 0.204E-01 0.380E+00
   0.396E+02 -.846E+02 0.133E+04   -.402E+02 0.856E+02 -.133E+04   0.477E+00 -.135E+01 0.247E+01   0.181E-02 0.227E-01 0.198E+00
   0.391E+02 -.987E+02 -.151E+04   -.399E+02 0.100E+03 0.151E+04   0.764E+00 -.135E+01 0.218E+01   0.201E-01 0.277E-01 0.838E-01
   0.352E+02 -.755E+02 0.150E+04   -.359E+02 0.771E+02 -.149E+04   0.588E+00 -.166E+01 -.146E+01   0.202E-01 -.356E-02 -.434E-02
   0.399E+02 -.806E+02 -.134E+04   -.405E+02 0.817E+02 0.134E+04   0.474E+00 -.132E+01 -.248E+01   0.357E-01 -.259E-01 0.167E+00
   0.398E+02 -.834E+02 0.786E+02   -.404E+02 0.845E+02 -.770E+02   0.551E+00 -.133E+01 -.251E+01   -.509E-02 -.552E-01 0.479E+00
   0.249E-01 -.194E+03 -.280E+04   -.427E+00 0.198E+03 0.281E+04   0.369E+00 -.232E+01 -.433E+01   0.311E-01 -.453E-01 -.101E+00
   0.332E+02 0.238E+03 0.225E+04   -.336E+02 -.241E+03 -.225E+04   0.438E+00 0.236E+01 0.221E+00   0.301E-01 0.627E-01 -.284E+00
   0.396E+02 0.166E+03 -.717E+03   -.404E+02 -.169E+03 0.716E+03   0.721E+00 0.272E+01 0.269E-01   0.422E-03 0.317E-01 0.315E+00
   0.395E+02 0.167E+03 0.698E+03   -.404E+02 -.169E+03 -.698E+03   0.728E+00 0.271E+01 -.501E-01   -.190E-01 0.345E-01 0.471E+00
   0.364E+02 0.238E+03 -.219E+04   -.366E+02 -.241E+03 0.219E+04   0.934E-01 0.204E+01 -.103E+00   0.223E-02 0.330E-01 0.321E-01
   -.558E+02 0.346E+02 -.250E+02   0.711E-12 0.233E-11 0.591E-11   0.559E+02 -.332E+02 0.309E+01   -.834E-01 -.145E+01 0.220E+02

 POSITION                                       TOTAL-FORCE (eV/Angst)
      1.64370      0.18204      4.44331         0.083297     -0.060920      1.333237
      1.64370      0.18204     14.02172         0.108812      0.128097     -0.349882
      0.59727      2.94708      9.23251         0.071828      0.146565     -0.348240
      0.63826      2.89373     18.60505         0.029818     -0.612388     -0.099357
      1.71749      0.18745      2.13481        -0.142871     -0.910541      0.183442
      1.64370      0.18204     11.49105         0.083725      0.149167      0.311086
      0.59727      2.94708      6.70184         0.088818      0.127249      0.462636
      0.59727      2.94708     16.28025         0.087798      0.239053     -1.035237
      1.68597      2.39482      3.37144        -0.025680     -0.143492      0.528077
      1.64370      2.37366     12.75638         0.160726     -0.351571     -0.018632
      3.73655      5.13871      7.96718         0.172616     -0.357897      0.021117
      3.73655      5.13871     17.54559         0.081399      0.006580     -2.110254
      4.78298      0.18204      4.44331         0.080153     -0.061858      1.333021
      4.78298      0.18204     14.02172         0.108178      0.127454     -0.348936
      3.73655      2.94708      9.23251         0.072663      0.146220     -0.348082
      3.77754      2.89373     18.60505         0.029949     -0.612549     -0.099423
      4.83842      0.18497      2.13428         0.006773     -0.902391      0.178982
      4.78298      0.18204     11.49105         0.083363      0.148218      0.309658
      3.73655      2.94708      6.70184         0.087480      0.125366      0.460024
      3.73655      2.94708     16.28025         0.087837      0.239410     -1.034089
      4.82707      2.39399      3.37136        -0.031101     -0.128361      0.541976
      4.78298      2.37366     12.75638         0.158950     -0.352679     -0.018447
      6.87583      5.13871      7.96718         0.173668     -0.356451      0.020274
      6.87583      5.13871     17.54559         0.082277      0.007275     -2.110094
      2.69013      5.71213      4.44331         0.080153     -0.061858      1.333021
      2.69013      5.71213     14.02172         0.108178      0.127454     -0.348936
      1.64370      8.47718      9.23251         0.072663      0.146220     -0.348082
      1.68469      8.42382     18.60505         0.029949     -0.612549     -0.099423
      2.74557      5.71507      2.13428         0.006773     -0.902391      0.178982
      2.69013      5.71213     11.49105         0.083363      0.148218      0.309658
      1.64370      8.47718      6.70184         0.087480      0.125366      0.460024
      1.64370      8.47718     16.28025         0.087837      0.239410     -1.034089
      2.73422      7.92409      3.37136        -0.031101     -0.128361      0.541976
      2.69013      7.90376     12.75638         0.158950     -0.352679     -0.018447
      4.78298     10.66881      7.96718         0.173668     -0.356451      0.020274
      4.78298     10.66881     17.54559         0.082277      0.007275     -2.110094
      5.82941      5.71213      4.44331         0.083297     -0.060920      1.333237
      5.82941      5.71213     14.02172         0.108812      0.128097     -0.349882
      4.78298      8.47718      9.23251         0.071828      0.146565     -0.348240
      4.82397      8.42382     18.60505         0.029818     -0.612388     -0.099357
      5.90320      5.71755      2.13481        -0.142871     -0.910541      0.183442
      5.82941      5.71213     11.49105         0.083725      0.149167      0.311086
      4.78298      8.47718      6.70184         0.088818      0.127249      0.462636
      4.78298      8.47718     16.28025         0.087798      0.239053     -1.035237
      5.87167      7.92492      3.37144        -0.025680     -0.143492      0.528077
      5.82941      7.90376     12.75638         0.160726     -0.351571     -0.018632
      7.92226     10.66881      7.96718         0.172616     -0.357897      0.021117
      7.92226     10.66881     17.54559         0.081399      0.006580     -2.110254
      3.26708      1.61574      2.09439        -0.013043      1.637795     -3.696234
      3.28961      1.84282     11.14515        -0.113784     -0.251364      0.394603
      2.24318      4.60787      6.35595        -0.103315     -0.258052      0.388308
      2.24318      4.60787     15.93436        -0.081067     -0.074603     -0.271464
      3.28961      1.84282      4.78920        -0.061581     -0.071335      1.397708
      3.28961      1.84282     14.36761        -0.112628     -0.214245     -0.402679
      2.24318      4.60787      9.57841        -0.096152     -0.244971     -0.394717
      2.18558      4.32168     18.72375        -0.001444      1.282127      3.826394
      1.19676      4.58218      3.17797         0.033876     -0.469781     -0.073804
      1.19676      4.58218     12.75638        -0.116674      0.527136      0.005409
      2.24318      1.81714      7.96718        -0.126723      0.542419     -0.007312
      2.24318      1.81714     17.54559        -0.114355     -0.819658     -0.012912
[...]
      2.24318     10.11228     12.75638        -0.116413      0.525942      0.005415
      3.28961      7.34723      7.96718        -0.124316      0.542426     -0.007173
      3.28961      7.34723     17.54559        -0.114579     -0.820899     -0.013125
      7.45279      7.14584      2.09439        -0.013043      1.637795     -3.696234
      7.47532      7.37292     11.14515        -0.113784     -0.251364      0.394603
      6.42889     10.13797      6.35595        -0.103315     -0.258052      0.388308
      6.42889     10.13797     15.93436        -0.081067     -0.074603     -0.271464
      7.47532      7.37292      4.78920        -0.061581     -0.071335      1.397708
      7.47532      7.37292     14.36761        -0.112628     -0.214245     -0.402679
      6.42889     10.13797      9.57841        -0.096152     -0.244971     -0.394717
      6.37128      9.85178     18.72375        -0.001444      1.282127      3.826394
      5.38246     10.11228      3.17797         0.033876     -0.469781     -0.073804
      5.38246     10.11228     12.75638        -0.116674      0.527136      0.005409
      6.42889      7.34723      7.96718        -0.126723      0.542419     -0.007312
      6.42889      7.34723     17.54559        -0.114355     -0.819658     -0.012912
    total drift:                               -0.014300     -0.010086      0.120261

  FREE ENERGIE OF THE ION-ELECTRON SYSTEM (eV)
  free  energy   TOTEN  =      -482.64502377 eV

  energy  without entropy=     -481.40485586  energy(sigma->0) =     -482.02493981