 vasp.5.4.4.18Apr17-6-g9f103f2a35 (build Aug 13 2019 17:33:20) gamma-only

 executed on             LinuxIFC date 2020.05.12  06:50:09

 INCAR:
 POTCAR:    PAW_PBE Ni_pv 06Sep2000
 POTCAR:    PAW_PBE S 06Sep2000
 POTCAR:    PAW_PBE Ni_pv 06Sep2000
   VRHFIN =Ni:

   TITEL  = PAW_PBE Ni_pv 06Sep2000
   POMASS =   58.690; ZVAL   =   16.000    mass and valenz
   ENMAX  =  367.986; ENMIN  =  275.989 eV

 POTCAR:    PAW_PBE S 06Sep2000
   VRHFIN =S : s2p4

   TITEL  = PAW_PBE S 06Sep2000
   POMASS =   32.066; ZVAL   =    6.000    mass and valenz
   ENMAX  =  258.689; ENMIN  =  194.016 eV

 Optimization of the real space projectors (new method)

 maximal supplied QI-value         = 18.90
 optimisation between [QCUT,QGAM] = [ 10.77, 21.73] = [ 32.49,132.25] Ry
 Optimized for a Real-space Cutoff    1.38 Angstroem

   l    n(q)    QCUT    max X(q) W(low)/X(q) W(high)/X(q)  e(spline)
   1      8    10.771     2.836    0.40E-04    0.29E-04    0.12E-06
   1      8    10.771     4.023    0.10E-03    0.48E-04    0.29E-06
   2      8    10.771    73.368    0.42E-03    0.97E-04    0.44E-06
   2      8    10.771    69.010    0.42E-03    0.99E-04    0.45E-06
   0      9    10.771    54.797    0.10E-03    0.56E-04    0.74E-07
   0      9    10.771    24.266    0.89E-04    0.49E-04    0.67E-07
 Optimization of the real space projectors (new method)

 maximal supplied QI-value         = 19.84
 optimisation between [QCUT,QGAM] = [ 10.71, 21.63] = [ 32.15,130.99] Ry
 Optimized for a Real-space Cutoff    1.19 Angstroem

   l    n(q)    QCUT    max X(q) W(low)/X(q) W(high)/X(q)  e(spline)
   0      8    10.715   187.594    0.41E-03    0.53E-04    0.66E-07
   0      8    10.715   164.243    0.41E-03    0.53E-04    0.65E-07
   1      7    10.715    67.533    0.19E-03    0.59E-03    0.68E-07
   1      7    10.715    50.729    0.19E-03    0.58E-03    0.67E-07
  PAW_PBE Ni_pv 06Sep2000               :
  PAW_PBE S 06Sep2000                   :

 POSCAR: Type_048 Type_148
  positions in cartesian coordinates
 exchange correlation table for  LEXCH =        8
   RHO(1)=    0.500       N(1)  =     2000
   RHO(2)=  100.500       N(2)  =     4000

 ion  position               nearest neighbor table
   1  0.256  0.016  0.104-  75 2.25  65 2.26  81 2.26   5 2.33  53 2.36  93 2.36   9 2.53
   2  0.256  0.016  0.451-  76 2.25  66 2.26  82 2.26  54 2.36  94 2.36   6 2.53  10 2.53
   3  0.006  0.266  0.278-  62 2.25  71 2.26  67 2.26  59 2.36  55 2.36   7 2.53  23 2.53
   4  0.014  0.261  0.618-  56 2.11  68 2.15  72 2.15  60 2.20   8 2.33  24 2.49
   5  0.264  0.011  0.020-  49 2.11  61 2.15  81 2.15  93 2.20   1 2.33   9 2.49
   6  0.256  0.016  0.360-  79 2.25  62 2.26  82 2.26  50 2.36  94 2.36   2 2.53  10 2.53
   7  0.006  0.266  0.186-  65 2.25  71 2.26  63 2.26  59 2.36  51 2.36   3 2.53  23 2.53
   8  0.006  0.266  0.533-  66 2.25  72 2.26  64 2.26   4 2.33  60 2.36  52 2.36  24 2.53
   9  0.190  0.215  0.058-  61 2.12  49 2.14  57 2.25  65 2.26  53 2.36   5 2.49   1 2.53
  10  0.190  0.215  0.406-  58 2.25  62 2.26  66 2.26  50 2.36  54 2.36   6 2.53   2 2.53
  11  0.440  0.465  0.232-  83 2.25  55 2.26  51 2.26  67 2.36  63 2.36  19 2.53  15 2.53
  12  0.440  0.465  0.579-  56 2.12  68 2.14  84 2.25  52 2.26  64 2.36  16 2.49  20 2.53
  13  0.756  0.016  0.104-  87 2.25  53 2.26  93 2.26  17 2.33  65 2.36  81 2.36  21 2.53
  14  0.756  0.016  0.451-  88 2.25  54 2.26  94 2.26  66 2.36  82 2.36  18 2.53  22 2.53
  15  0.506  0.266  0.278-  50 2.25  59 2.26  55 2.26  71 2.36  67 2.36  19 2.53  11 2.53
  16  0.514  0.261  0.618-  68 2.11  56 2.15  60 2.15  72 2.20  20 2.33  12 2.49
  17  0.764  0.011  0.020-  61 2.11  49 2.15  93 2.15  81 2.20  13 2.33  21 2.49
  18  0.756  0.016  0.360-  91 2.25  50 2.26  94 2.26  62 2.36  82 2.36  14 2.53  22 2.53
  19  0.506  0.266  0.186-  53 2.25  59 2.26  51 2.26  71 2.36  63 2.36  15 2.53  11 2.53
  20  0.506  0.266  0.533-  54 2.25  60 2.26  52 2.26  16 2.33  72 2.36  64 2.36  12 2.53
  21  0.690  0.215  0.058-  49 2.12  61 2.14  69 2.25  53 2.26  65 2.36  17 2.49  13 2.53
  22  0.690  0.215  0.406-  70 2.25  50 2.26  54 2.26  62 2.36  66 2.36  18 2.53  14 2.53
  23  0.940  0.465  0.232-  95 2.25  67 2.26  63 2.26  55 2.36  51 2.36   7 2.53   3 2.53
  24  0.940  0.465  0.579-  68 2.12  56 2.14  96 2.25  64 2.26  52 2.36   4 2.49   8 2.53
  25  0.256  0.516  0.104-  51 2.25  89 2.26  57 2.26  29 2.33  77 2.36  69 2.36  33 2.53
  26  0.256  0.516  0.451-  52 2.25  90 2.26  58 2.26  78 2.36  70 2.36  30 2.53  34 2.53
  27  0.006  0.766  0.278-  86 2.25  95 2.26  91 2.26  83 2.36  79 2.36  31 2.53  47 2.53
  28  0.014  0.761  0.618-  80 2.11  92 2.15  96 2.15  84 2.20  32 2.33  48 2.49
  29  0.264  0.511  0.020-  73 2.11  85 2.15  57 2.15  69 2.20  25 2.33  33 2.49
  30  0.256  0.516  0.360-  55 2.25  86 2.26  58 2.26  74 2.36  70 2.36  26 2.53  34 2.53
  31  0.006  0.766  0.186-  89 2.25  95 2.26  87 2.26  83 2.36  75 2.36  27 2.53  47 2.53
  32  0.006  0.766  0.533-  90 2.25  96 2.26  88 2.26  28 2.33  84 2.36  76 2.36  48 2.53
  33  0.190  0.715  0.058-  85 2.12  73 2.14  81 2.25  89 2.26  77 2.36  29 2.49  25 2.53
  34  0.190  0.715  0.406-  82 2.25  86 2.26  90 2.26  74 2.36  78 2.36  30 2.53  26 2.53
  35  0.440  0.965  0.232-  59 2.25  79 2.26  75 2.26  91 2.36  87 2.36  43 2.53  39 2.53
  36  0.440  0.965  0.579-  80 2.12  92 2.14  60 2.25  76 2.26  88 2.36  40 2.49  44 2.53
  37  0.756  0.516  0.104-  63 2.25  77 2.26  69 2.26  41 2.33  89 2.36  57 2.36  45 2.53
  38  0.756  0.516  0.451-  64 2.25  78 2.26  70 2.26  90 2.36  58 2.36  42 2.53  46 2.53
  39  0.506  0.766  0.278-  74 2.25  83 2.26  79 2.26  95 2.36  91 2.36  43 2.53  35 2.53
  40  0.514  0.761  0.618-  92 2.11  80 2.15  84 2.15  96 2.20  44 2.33  36 2.49
  41  0.764  0.511  0.020-  85 2.11  73 2.15  69 2.15  57 2.20  37 2.33  45 2.49
  42  0.756  0.516  0.360-  67 2.25  74 2.26  70 2.26  86 2.36  58 2.36  38 2.53  46 2.53
  43  0.506  0.766  0.186-  77 2.25  83 2.26  75 2.26  95 2.36  87 2.36  39 2.53  35 2.53
  44  0.506  0.766  0.533-  78 2.25  84 2.26  76 2.26  40 2.33  96 2.36  88 2.36  36 2.53
  45  0.690  0.715  0.058-  73 2.12  85 2.14  93 2.25  77 2.26  89 2.36  41 2.49  37 2.53
  46  0.690  0.715  0.406-  94 2.25  74 2.26  78 2.26  86 2.36  90 2.36  42 2.53  38 2.53
  47  0.940  0.965  0.232-  71 2.25  91 2.26  87 2.26  79 2.36  75 2.36  31 2.53  27 2.53
  48  0.940  0.965  0.579-  92 2.12  80 2.14  72 2.25  88 2.26  76 2.36  28 2.49  32 2.53
  49  0.467  0.141  0.016-   5 2.11  21 2.12   9 2.14  17 2.15  93 2.77
  50  0.468  0.167  0.347-  15 2.25  22 2.26  18 2.26  10 2.36   6 2.36
  51  0.218  0.417  0.174-  25 2.25  19 2.26  11 2.26   7 2.36  23 2.36
  52  0.218  0.417  0.521-  26 2.25  12 2.26  20 2.26  24 2.36   8 2.36
  53  0.468  0.167  0.117-  19 2.25  21 2.26  13 2.26   9 2.36   1 2.36
  54  0.468  0.167  0.464-  20 2.25  14 2.26  22 2.26   2 2.36  10 2.36
  55  0.218  0.417  0.290-  30 2.25  11 2.26  15 2.26  23 2.36   3 2.36
  56  0.217  0.391  0.622-   4 2.11  12 2.12  24 2.14  16 2.15  60 2.77
  57  0.053  0.414  0.058-  29 2.15  41 2.20   9 2.25  25 2.26  37 2.36  85 2.77
  58  0.053  0.414  0.406-  10 2.25  30 2.26  26 2.26  42 2.36  38 2.36
  59  0.303  0.164  0.232-  35 2.25  19 2.26  15 2.26   7 2.36   3 2.36
  60  0.303  0.164  0.579-  16 2.15   4 2.20  36 2.25  20 2.26   8 2.36  56 2.77
[...]
  82  0.053  0.914  0.406-  34 2.25   6 2.26   2 2.26  18 2.36  14 2.36
  83  0.303  0.664  0.232-  11 2.25  43 2.26  39 2.26  31 2.36  27 2.36
  84  0.303  0.664  0.579-  40 2.15  28 2.20  12 2.25  44 2.26  32 2.36  80 2.77
  85  0.967  0.641  0.016-  41 2.11  33 2.12  45 2.14  29 2.15  57 2.77
  86  0.968  0.667  0.347-  27 2.25  34 2.26  30 2.26  46 2.36  42 2.36
  87  0.718  0.917  0.174-  13 2.25  31 2.26  47 2.26  43 2.36  35 2.36
  88  0.718  0.917  0.521-  14 2.25  48 2.26  32 2.26  36 2.36  44 2.36
  89  0.968  0.667  0.117-  31 2.25  33 2.26  25 2.26  45 2.36  37 2.36
  90  0.968  0.667  0.464-  32 2.25  26 2.26  34 2.26  38 2.36  46 2.36
  91  0.718  0.917  0.290-  18 2.25  47 2.26  27 2.26  35 2.36  39 2.36
  92  0.717  0.891  0.622-  40 2.11  48 2.12  36 2.14  28 2.15  96 2.77
  93  0.553  0.914  0.058-  17 2.15   5 2.20  45 2.25  13 2.26   1 2.36  49 2.77
  94  0.553  0.914  0.406-  46 2.25  18 2.26  14 2.26   6 2.36   2 2.36
  95  0.803  0.664  0.232-  23 2.25  31 2.26  27 2.26  43 2.36  39 2.36
  96  0.803  0.664  0.579-  28 2.15  40 2.20  24 2.25  32 2.26  44 2.36  92 2.77

  LATTYP: Found a simple monoclinic cell.
 ALAT       =    13.8711386352
 B/A-ratio  =     1.9890277361
 C/A-ratio  =     1.3233367991
 COS(beta)  =    -0.9620914447

  Lattice vectors:

 A1 = (  -8.3714133957, -11.0601955134,   0.0000000000)
 A2 = (   0.0000000000,   0.0000000000, -27.5900794763)
 A3 = (  14.6499733957,  11.0601955134,   0.0000000000)

Analysis of symmetry for initial positions (statically):
 Subroutine PRICEL returns following result:

[...]

   4 primitive cells build up your supercell.

 Routine SETGRP: Setting up the symmetry group for a
 simple monoclinic supercell.

 Subroutine GETGRP returns: Found  2 space group operations
 (whereof  1 operations were pure point group operations)
 out of a pool of  4 trial point group operations.

The static configuration has the point symmetry C_1 .
 The point group associated with its full space group is C_1h.

Analysis of symmetry for dynamics (positions and initial velocities):
 Subroutine PRICEL returns following result:

  LATTYP: Found a simple monoclinic cell.
 ALAT       =     6.9355693176
 B/A-ratio  =     3.9780554721
 C/A-ratio  =     1.3233367991
 COS(beta)  =    -0.9620914447

  Lattice vectors:

 A1 = (  -4.1857066979,  -5.5300977567,   0.0000000000)
 A2 = (   0.0000000000,   0.0000000000, -27.5900794763)
 A3 = (   7.3249866979,   5.5300977567,   0.0000000000)

   4 primitive cells build up your supercell.

 Routine SETGRP: Setting up the symmetry group for a
 simple monoclinic supercell.

 Subroutine GETGRP returns: Found  2 space group operations
 (whereof  1 operations were pure point group operations)
 out of a pool of  4 trial point group operations.

The dynamic configuration has the point symmetry C_1 .
 The point group associated with its full space group is C_1h.

 Subroutine INISYM returns: Found  2 space group operations
 (whereof  1 operations are pure point group operations),
 and found     4 'primitive' translations

 KPOINTS: gamma-point-only calculation. no periodi

Automatic generation of k-mesh.
Space group operators:
 irot       det(A)        alpha          n_x          n_y          n_z        tau_x        tau_y        tau_z
    1     1.000000     0.000000     1.000000     0.000000     0.000000     0.000000     0.000000     0.000000
    2    -1.000000   179.999999     0.000000     0.000000     1.000000    -0.250000    -0.250000    -0.362449

 Subroutine IBZKPT returns following result:

 Found      1 irreducible k-points:

 Following reciprocal coordinates:
            Coordinates               Weight
  0.000000  0.000000  0.000000      1.000000

 Following cartesian coordinates:
            Coordinates               Weight
  0.000000  0.000000  0.000000      1.000000

 SYSTEM =  "Millerite NiS"
[...]
     0.000000000  0.000000000 27.590079476     0.000000000  0.000000000  0.036244912

  length of vectors
     6.278560000 11.256463038 27.590079476     0.162098538  0.090414315  0.036244912

 FORCES acting on ions
    electron-ion (+dipol)            ewald-force                    non-local-force                 convergence-correction
   -.371E+02 0.273E+03 0.363E+04   0.360E+02 -.274E+03 -.363E+04   0.118E+01 0.831E+00 -.214E+01   -.133E-01 0.588E-02 -.146E-01
   -.413E+02 0.256E+03 -.302E+04   0.405E+02 -.257E+03 0.302E+04   0.989E+00 0.484E+00 -.794E+00   -.403E-02 0.111E-01 0.619E+00
   -.413E+02 0.258E+03 0.348E+03   0.404E+02 -.258E+03 -.347E+03   0.951E+00 0.507E+00 -.114E+01   0.834E-02 -.350E-01 -.326E+00
   -.120E+02 0.453E+03 -.657E+04   0.121E+02 -.455E+03 0.657E+04   -.143E+00 0.102E+01 0.571E+00   0.161E-01 0.568E-01 -.249E+00
   -.120E+02 0.453E+03 0.657E+04   0.121E+02 -.455E+03 -.657E+04   -.143E+00 0.102E+01 -.571E+00   0.161E-01 0.568E-01 0.249E+00
   -.413E+02 0.258E+03 -.348E+03   0.404E+02 -.258E+03 0.347E+03   0.951E+00 0.507E+00 0.114E+01   0.834E-02 -.350E-01 0.326E+00
   -.413E+02 0.256E+03 0.302E+04   0.405E+02 -.257E+03 -.302E+04   0.989E+00 0.484E+00 0.794E+00   -.403E-02 0.111E-01 -.619E+00
   -.371E+02 0.273E+03 -.363E+04   0.360E+02 -.274E+03 0.363E+04   0.118E+01 0.831E+00 0.214E+01   -.133E-01 0.588E-02 0.147E-01
   -.274E+02 -.670E+03 0.524E+04   0.272E+02 0.675E+03 -.524E+04   0.229E+00 -.415E+01 0.329E+00   -.121E-02 -.696E-01 0.146E+00
   -.411E+02 -.514E+03 -.168E+04   0.404E+02 0.515E+03 0.168E+04   0.898E+00 -.126E+01 0.256E-01   -.433E-02 0.218E-01 0.635E+00
   -.411E+02 -.514E+03 0.168E+04   0.404E+02 0.515E+03 -.168E+04   0.898E+00 -.126E+01 -.256E-01   -.433E-02 0.218E-01 -.635E+00
   -.274E+02 -.670E+03 -.524E+04   0.272E+02 0.675E+03 0.524E+04   0.229E+00 -.415E+01 -.329E+00   -.121E-02 -.696E-01 -.146E+00
   -.371E+02 0.273E+03 0.363E+04   0.360E+02 -.274E+03 -.363E+04   0.118E+01 0.831E+00 -.214E+01   -.133E-01 0.588E-02 -.146E-01
   -.413E+02 0.256E+03 -.302E+04   0.405E+02 -.257E+03 0.302E+04   0.989E+00 0.484E+00 -.794E+00   -.403E-02 0.111E-01 0.619E+00
   -.413E+02 0.258E+03 0.348E+03   0.404E+02 -.258E+03 -.347E+03   0.951E+00 0.507E+00 -.114E+01   0.834E-02 -.350E-01 -.326E+00
   -.120E+02 0.453E+03 -.657E+04   0.121E+02 -.455E+03 0.657E+04   -.143E+00 0.102E+01 0.571E+00   0.161E-01 0.568E-01 -.249E+00
   -.120E+02 0.453E+03 0.657E+04   0.121E+02 -.455E+03 -.657E+04   -.143E+00 0.102E+01 -.571E+00   0.161E-01 0.568E-01 0.249E+00
   -.413E+02 0.258E+03 -.348E+03   0.404E+02 -.258E+03 0.347E+03   0.951E+00 0.507E+00 0.114E+01   0.834E-02 -.350E-01 0.326E+00
   -.413E+02 0.256E+03 0.302E+04   0.405E+02 -.257E+03 -.302E+04   0.989E+00 0.484E+00 0.794E+00   -.403E-02 0.111E-01 -.619E+00
   -.371E+02 0.273E+03 -.363E+04   0.360E+02 -.274E+03 0.363E+04   0.118E+01 0.831E+00 0.214E+01   -.133E-01 0.588E-02 0.147E-01
   -.274E+02 -.670E+03 0.524E+04   0.272E+02 0.675E+03 -.524E+04   0.229E+00 -.415E+01 0.329E+00   -.121E-02 -.696E-01 0.146E+00
   -.411E+02 -.514E+03 -.168E+04   0.404E+02 0.515E+03 0.168E+04   0.898E+00 -.126E+01 0.256E-01   -.433E-02 0.218E-01 0.635E+00
   -.411E+02 -.514E+03 0.168E+04   0.404E+02 0.515E+03 -.168E+04   0.898E+00 -.126E+01 -.256E-01   -.433E-02 0.218E-01 -.635E+00
   -.274E+02 -.670E+03 -.524E+04   0.272E+02 0.675E+03 0.524E+04   0.229E+00 -.415E+01 -.329E+00   -.121E-02 -.696E-01 -.146E+00
   -.371E+02 0.273E+03 0.363E+04   0.360E+02 -.274E+03 -.363E+04   0.118E+01 0.831E+00 -.214E+01   -.133E-01 0.588E-02 -.146E-01
   -.413E+02 0.256E+03 -.302E+04   0.405E+02 -.257E+03 0.302E+04   0.989E+00 0.484E+00 -.794E+00   -.403E-02 0.111E-01 0.619E+00
   -.413E+02 0.258E+03 0.348E+03   0.404E+02 -.258E+03 -.347E+03   0.951E+00 0.507E+00 -.114E+01   0.834E-02 -.350E-01 -.326E+00
   -.120E+02 0.453E+03 -.657E+04   0.121E+02 -.455E+03 0.657E+04   -.143E+00 0.102E+01 0.571E+00   0.161E-01 0.568E-01 -.249E+00
   -.120E+02 0.453E+03 0.657E+04   0.121E+02 -.455E+03 -.657E+04   -.143E+00 0.102E+01 -.571E+00   0.161E-01 0.568E-01 0.249E+00
   -.413E+02 0.258E+03 -.348E+03   0.404E+02 -.258E+03 0.347E+03   0.951E+00 0.507E+00 0.114E+01   0.834E-02 -.350E-01 0.326E+00
   -.413E+02 0.256E+03 0.302E+04   0.405E+02 -.257E+03 -.302E+04   0.989E+00 0.484E+00 0.794E+00   -.403E-02 0.111E-01 -.619E+00
   -.371E+02 0.273E+03 -.363E+04   0.360E+02 -.274E+03 0.363E+04   0.118E+01 0.831E+00 0.214E+01   -.133E-01 0.588E-02 0.147E-01
   -.274E+02 -.670E+03 0.524E+04   0.272E+02 0.675E+03 -.524E+04   0.229E+00 -.415E+01 0.329E+00   -.121E-02 -.696E-01 0.146E+00
   -.411E+02 -.514E+03 -.168E+04   0.404E+02 0.515E+03 0.168E+04   0.898E+00 -.126E+01 0.256E-01   -.433E-02 0.218E-01 0.635E+00
   -.411E+02 -.514E+03 0.168E+04   0.404E+02 0.515E+03 -.168E+04   0.898E+00 -.126E+01 -.256E-01   -.433E-02 0.218E-01 -.635E+00
   -.274E+02 -.670E+03 -.524E+04   0.272E+02 0.675E+03 0.524E+04   0.229E+00 -.415E+01 -.329E+00   -.121E-02 -.696E-01 -.146E+00
   -.371E+02 0.273E+03 0.363E+04   0.360E+02 -.274E+03 -.363E+04   0.118E+01 0.831E+00 -.214E+01   -.133E-01 0.588E-02 -.146E-01
   -.413E+02 0.256E+03 -.302E+04   0.405E+02 -.257E+03 0.302E+04   0.989E+00 0.484E+00 -.794E+00   -.403E-02 0.111E-01 0.619E+00
   -.413E+02 0.258E+03 0.348E+03   0.404E+02 -.258E+03 -.347E+03   0.951E+00 0.507E+00 -.114E+01   0.834E-02 -.350E-01 -.326E+00
   -.120E+02 0.453E+03 -.657E+04   0.121E+02 -.455E+03 0.657E+04   -.143E+00 0.102E+01 0.571E+00   0.161E-01 0.568E-01 -.249E+00
   -.120E+02 0.453E+03 0.657E+04   0.121E+02 -.455E+03 -.657E+04   -.143E+00 0.102E+01 -.571E+00   0.161E-01 0.568E-01 0.249E+00
   -.413E+02 0.258E+03 -.348E+03   0.404E+02 -.258E+03 0.347E+03   0.951E+00 0.507E+00 0.114E+01   0.834E-02 -.350E-01 0.326E+00
   -.413E+02 0.256E+03 0.302E+04   0.405E+02 -.257E+03 -.302E+04   0.989E+00 0.484E+00 0.794E+00   -.403E-02 0.111E-01 -.619E+00
   -.371E+02 0.273E+03 -.363E+04   0.360E+02 -.274E+03 0.363E+04   0.118E+01 0.831E+00 0.214E+01   -.133E-01 0.588E-02 0.147E-01
   -.274E+02 -.670E+03 0.524E+04   0.272E+02 0.675E+03 -.524E+04   0.229E+00 -.415E+01 0.329E+00   -.121E-02 -.696E-01 0.146E+00
   -.411E+02 -.514E+03 -.168E+04   0.404E+02 0.515E+03 0.168E+04   0.898E+00 -.126E+01 0.256E-01   -.433E-02 0.218E-01 0.635E+00
   -.411E+02 -.514E+03 0.168E+04   0.404E+02 0.515E+03 -.168E+04   0.898E+00 -.126E+01 -.256E-01   -.433E-02 0.218E-01 -.635E+00
   -.274E+02 -.670E+03 -.524E+04   0.272E+02 0.675E+03 0.524E+04   0.229E+00 -.415E+01 -.329E+00   -.121E-02 -.696E-01 -.146E+00
   -.180E+01 -.194E+03 0.253E+04   0.140E+01 0.197E+03 -.254E+04   0.450E+00 -.231E+01 0.434E+01   -.115E-03 0.742E-01 0.475E-01
   0.397E+02 -.834E+02 -.622E+02   -.404E+02 0.844E+02 0.601E+02   0.545E+00 -.132E+01 0.250E+01   -.651E-02 0.211E-01 0.701E-01
   0.399E+02 -.807E+02 0.120E+04   -.405E+02 0.818E+02 -.120E+04   0.461E+00 -.132E+01 0.246E+01   0.273E-02 0.193E-01 -.265E+00
   0.391E+02 -.985E+02 -.132E+04   -.399E+02 0.999E+02 0.132E+04   0.734E+00 -.137E+01 0.218E+01   0.495E-02 -.767E-01 0.858E-01
   0.391E+02 -.985E+02 0.132E+04   -.399E+02 0.999E+02 -.132E+04   0.734E+00 -.137E+01 -.218E+01   0.495E-02 -.767E-01 -.858E-01
   0.399E+02 -.807E+02 -.120E+04   -.405E+02 0.818E+02 0.120E+04   0.461E+00 -.132E+01 -.246E+01   0.273E-02 0.193E-01 0.265E+00
   0.397E+02 -.834E+02 0.622E+02   -.404E+02 0.844E+02 -.601E+02   0.545E+00 -.132E+01 -.250E+01   -.651E-02 0.211E-01 -.701E-01
   -.180E+01 -.194E+03 -.253E+04   0.140E+01 0.197E+03 0.254E+04   0.450E+00 -.231E+01 -.434E+01   -.115E-03 0.742E-01 -.474E-01
   0.366E+02 0.238E+03 0.195E+04   -.368E+02 -.241E+03 -.195E+04   0.817E-01 0.203E+01 0.146E+00   0.207E-02 0.121E-01 0.151E+00
   0.396E+02 0.166E+03 -.631E+03   -.404E+02 -.169E+03 0.631E+03   0.720E+00 0.269E+01 0.204E-01   -.295E-02 -.128E-01 0.242E+00
   0.396E+02 0.166E+03 0.631E+03   -.404E+02 -.169E+03 -.631E+03   0.720E+00 0.269E+01 -.204E-01   -.295E-02 -.128E-01 -.241E+00
   0.366E+02 0.238E+03 -.195E+04   -.368E+02 -.241E+03 0.195E+04   0.817E-01 0.203E+01 -.146E+00   0.207E-02 0.121E-01 -.151E+00
[...]
   0.396E+02 0.166E+03 0.631E+03   -.404E+02 -.169E+03 -.631E+03   0.720E+00 0.269E+01 -.204E-01   -.295E-02 -.128E-01 -.241E+00
   0.366E+02 0.238E+03 -.195E+04   -.368E+02 -.241E+03 0.195E+04   0.817E-01 0.203E+01 -.146E+00   0.207E-02 0.121E-01 -.151E+00
   -.180E+01 -.194E+03 0.253E+04   0.140E+01 0.197E+03 -.254E+04   0.450E+00 -.231E+01 0.434E+01   -.115E-03 0.742E-01 0.475E-01
   0.397E+02 -.834E+02 -.622E+02   -.404E+02 0.844E+02 0.601E+02   0.545E+00 -.132E+01 0.250E+01   -.651E-02 0.211E-01 0.701E-01
   0.399E+02 -.807E+02 0.120E+04   -.405E+02 0.818E+02 -.120E+04   0.461E+00 -.132E+01 0.246E+01   0.273E-02 0.193E-01 -.265E+00
   0.391E+02 -.985E+02 -.132E+04   -.399E+02 0.999E+02 0.132E+04   0.734E+00 -.137E+01 0.218E+01   0.495E-02 -.767E-01 0.858E-01
   0.391E+02 -.985E+02 0.132E+04   -.399E+02 0.999E+02 -.132E+04   0.734E+00 -.137E+01 -.218E+01   0.495E-02 -.767E-01 -.858E-01
   0.399E+02 -.807E+02 -.120E+04   -.405E+02 0.818E+02 0.120E+04   0.461E+00 -.132E+01 -.246E+01   0.273E-02 0.193E-01 0.265E+00
   0.397E+02 -.834E+02 0.622E+02   -.404E+02 0.844E+02 -.601E+02   0.545E+00 -.132E+01 -.250E+01   -.651E-02 0.211E-01 -.701E-01
   -.180E+01 -.194E+03 -.253E+04   0.140E+01 0.197E+03 0.254E+04   0.450E+00 -.231E+01 -.434E+01   -.115E-03 0.742E-01 -.474E-01
   0.366E+02 0.238E+03 0.195E+04   -.368E+02 -.241E+03 -.195E+04   0.817E-01 0.203E+01 0.146E+00   0.207E-02 0.121E-01 0.151E+00
   0.396E+02 0.166E+03 -.631E+03   -.404E+02 -.169E+03 0.631E+03   0.720E+00 0.269E+01 0.204E-01   -.295E-02 -.128E-01 0.242E+00
   0.396E+02 0.166E+03 0.631E+03   -.404E+02 -.169E+03 -.631E+03   0.720E+00 0.269E+01 -.204E-01   -.295E-02 -.128E-01 -.241E+00
   0.366E+02 0.238E+03 -.195E+04   -.368E+02 -.241E+03 0.195E+04   0.817E-01 0.203E+01 -.146E+00   0.207E-02 0.121E-01 -.151E+00
   -.571E+02 0.331E+02 -.134E+00   -.355E-13 -.455E-12 0.107E-10   0.568E+02 -.334E+02 -.178E-14   0.137E-01 0.225E+00 0.148E-02

 POSITION                                       TOTAL-FORCE (eV/Angst)
      1.64370      0.18204      2.87657         0.086158      0.247131      1.056526
      1.64370      0.18204     12.45498         0.106588      0.125599     -0.361680
      0.59727      2.94708      7.66577         0.085801      0.148546     -0.324191
      0.63735      2.89023     17.03872         0.015975     -0.580463     -0.084426
      1.68378      0.12518      0.55135         0.015975     -0.580463      0.084426
      1.64370      0.18204      9.92431         0.085801      0.148546      0.324191
      0.59727      2.94708      5.13510         0.106588      0.125599      0.361680
      0.59727      2.94708     14.71351         0.086158      0.247131     -1.056526
      1.64370      2.37366      1.61123         0.044233     -0.008479      2.105674
      1.64370      2.37366     11.18964         0.166152     -0.357285     -0.017099
      3.73655      5.13871      6.40044         0.166152     -0.357285      0.017099
      3.73655      5.13871     15.97885         0.044233     -0.008479     -2.105674
      4.78298      0.18204      2.87657         0.086158      0.247131      1.056526
      4.78298      0.18204     12.45498         0.106588      0.125599     -0.361680
      3.73655      2.94708      7.66577         0.085801      0.148546     -0.324191
      3.77663      2.89023     17.03872         0.015975     -0.580463     -0.084426
      4.82306      0.12518      0.55135         0.015975     -0.580463      0.084426
      4.78298      0.18204      9.92431         0.085801      0.148546      0.324191
      3.73655      2.94708      5.13510         0.106588      0.125599      0.361680
      3.73655      2.94708     14.71351         0.086158      0.247131     -1.056526
      4.78298      2.37366      1.61123         0.044233     -0.008479      2.105674
      4.78298      2.37366     11.18964         0.166152     -0.357285     -0.017099
      6.87583      5.13871      6.40044         0.166152     -0.357285      0.017099
      6.87583      5.13871     15.97885         0.044233     -0.008479     -2.105674
      2.69013      5.71213      2.87657         0.086158      0.247131      1.056526
      2.69013      5.71213     12.45498         0.106588      0.125599     -0.361680
      1.64370      8.47718      7.66577         0.085801      0.148546     -0.324191
      1.68378      8.42033     17.03872         0.015975     -0.580463     -0.084426
      2.73020      5.65528      0.55135         0.015975     -0.580463      0.084426
      2.69013      5.71213      9.92431         0.085801      0.148546      0.324191
      1.64370      8.47718      5.13510         0.106588      0.125599      0.361680
      1.64370      8.47718     14.71351         0.086158      0.247131     -1.056526
      2.69013      7.90376      1.61123         0.044233     -0.008479      2.105674
      2.69013      7.90376     11.18964         0.166152     -0.357285     -0.017099
      4.78298     10.66881      6.40044         0.166152     -0.357285      0.017099
      4.78298     10.66881     15.97885         0.044233     -0.008479     -2.105674
      5.82941      5.71213      2.87657         0.086158      0.247131      1.056526
      5.82941      5.71213     12.45498         0.106588      0.125599     -0.361680
      4.78298      8.47718      7.66577         0.085801      0.148546     -0.324191
      4.82306      8.42033     17.03872         0.015975     -0.580463     -0.084426
      5.86948      5.65528      0.55135         0.015975     -0.580463      0.084426
      5.82941      5.71213      9.92431         0.085801      0.148546      0.324191
      4.78298      8.47718      5.13510         0.106588      0.125599      0.361680
      4.78298      8.47718     14.71351         0.086158      0.247131     -1.056526
      5.82941      7.90376      1.61123         0.044233     -0.008479      2.105674
      5.82941      7.90376     11.18964         0.166152     -0.357285     -0.017099
      7.92226     10.66881      6.40044         0.166152     -0.357285      0.017099
      7.92226     10.66881     15.97885         0.044233     -0.008479     -2.105674
      3.22777      1.55525      0.43352         0.061330      1.284593     -3.816278
      3.28961      1.84282      9.57841        -0.119585     -0.251227      0.391003
      2.24318      4.60787      4.78920        -0.113812     -0.208557      0.386593
      2.24318      4.60787     14.36762        -0.101171     -0.076642     -0.271125
      3.28961      1.84282      3.22246        -0.101171     -0.076642      0.271125
      3.28961      1.84282     12.80087        -0.113812     -0.208557     -0.386593
      2.24318      4.60787      8.01167        -0.119585     -0.251227     -0.391003
      2.18134      4.32030     17.15656         0.061330      1.284593      3.816278
      1.19676      4.58218      1.61123        -0.114934     -0.844984      0.021808
      1.19676      4.58218     11.18964        -0.116734      0.521770      0.009668
      2.24318      1.81714      6.40044        -0.116734      0.521770     -0.009668
      2.24318      1.81714     15.97885        -0.114934     -0.844984     -0.021808
[...]
      2.24318     10.11228     11.18964        -0.116734      0.521770      0.009668
      3.28961      7.34723      6.40044        -0.116734      0.521770     -0.009668
      3.28961      7.34723     15.97885        -0.114934     -0.844984     -0.021808
      7.41348      7.08535      0.43352         0.061330      1.284593     -3.816278
      7.47532      7.37292      9.57841        -0.119585     -0.251227      0.391003
      6.42889     10.13797      4.78920        -0.113812     -0.208557      0.386593
      6.42889     10.13797     14.36762        -0.101171     -0.076642     -0.271125
      7.47532      7.37292      3.22246        -0.101171     -0.076642      0.271125
      7.47532      7.37292     12.80087        -0.113812     -0.208557     -0.386593
      6.42889     10.13797      8.01167        -0.119585     -0.251227     -0.391003
      6.36705      9.85040     17.15656         0.061330      1.284593      3.816278
      5.38246     10.11228      1.61123        -0.114934     -0.844984      0.021808
      5.38246     10.11228     11.18964        -0.116734      0.521770      0.009668
      6.42889      7.34723      6.40044        -0.116734      0.521770     -0.009668
      6.42889      7.34723     15.97885        -0.114934     -0.844984     -0.021808
    total drift:                               -0.293353     -0.066209     -0.132231

  FREE ENERGIE OF THE ION-ELECTRON SYSTEM (eV)
  free  energy   TOTEN  =      -482.91429931 eV

  energy  without entropy=     -481.67220752  energy(sigma->0) =     -482.29325341