 vasp.5.4.4.18Apr17-6-g9f103f2a35 (build Aug 13 2019 17:33:20) gamma-only

 executed on             LinuxIFC date 2020.05.10  12:42:09

 INCAR:
 POTCAR:    PAW_PBE Ni_pv 06Sep2000
 POTCAR:    PAW_PBE S 06Sep2000
 POTCAR:    PAW_PBE Ni_pv 06Sep2000
   VRHFIN =Ni:

   TITEL  = PAW_PBE Ni_pv 06Sep2000
   POMASS =   58.690; ZVAL   =   16.000    mass and valenz
   ENMAX  =  367.986; ENMIN  =  275.989 eV

 POTCAR:    PAW_PBE S 06Sep2000
   VRHFIN =S : s2p4

   TITEL  = PAW_PBE S 06Sep2000
   POMASS =   32.066; ZVAL   =    6.000    mass and valenz
   ENMAX  =  258.689; ENMIN  =  194.016 eV

 Optimization of the real space projectors (new method)

 maximal supplied QI-value         = 18.90
 optimisation between [QCUT,QGAM] = [ 10.77, 21.73] = [ 32.49,132.25] Ry
 Optimized for a Real-space Cutoff    1.38 Angstroem

   l    n(q)    QCUT    max X(q) W(low)/X(q) W(high)/X(q)  e(spline)
   1      8    10.771     2.836    0.40E-04    0.29E-04    0.12E-06
   1      8    10.771     4.023    0.10E-03    0.48E-04    0.29E-06
   2      8    10.771    73.368    0.42E-03    0.97E-04    0.44E-06
   2      8    10.771    69.010    0.42E-03    0.99E-04    0.45E-06
   0      9    10.771    54.797    0.10E-03    0.56E-04    0.74E-07
   0      9    10.771    24.266    0.89E-04    0.49E-04    0.67E-07
 Optimization of the real space projectors (new method)

 maximal supplied QI-value         = 19.84
 optimisation between [QCUT,QGAM] = [ 10.71, 21.63] = [ 32.15,130.99] Ry
 Optimized for a Real-space Cutoff    1.19 Angstroem

   l    n(q)    QCUT    max X(q) W(low)/X(q) W(high)/X(q)  e(spline)
   0      8    10.715   187.594    0.41E-03    0.53E-04    0.66E-07
   0      8    10.715   164.243    0.41E-03    0.53E-04    0.65E-07
   1      7    10.715    67.533    0.19E-03    0.59E-03    0.68E-07
   1      7    10.715    50.729    0.19E-03    0.58E-03    0.67E-07
  PAW_PBE Ni_pv 06Sep2000               :
  PAW_PBE S 06Sep2000                   :

 POSCAR: Type_026 Type_126
  positions in cartesian coordinates
 exchange correlation table for  LEXCH =        8
   RHO(1)=    0.500       N(1)  =     2000
   RHO(2)=  100.500       N(2)  =     4000

 ion  position               nearest neighbor table
   1  0.439  0.464  0.163-  44 2.08  36 2.08  30 2.25  37 2.36  45 2.36   5 2.53  22 2.53
   2  0.460  0.506  0.309-  46 2.04  37 2.08  45 2.09  31 2.12  13 2.48
   3  0.159  0.970  0.095-  38 2.05  27 2.09  39 2.10  35 2.22   4 2.48
   4  0.212  0.979  0.235-  35 2.03  28 2.10  39 2.17  26 2.32  12 2.43   3 2.48
   5  0.439  0.200  0.163-  40 2.06  36 2.07  35 2.25  37 2.36  41 2.36   1 2.53  22 2.53
   6  0.497  0.226  0.331-  42 2.04  37 2.06  46 2.08  41 2.13  23 2.33
   7  0.159  0.688  0.099-  38 2.06  32 2.08  39 2.10  30 2.18
   8  0.211  0.690  0.243-  33 2.14  31 2.15  30 2.15  39 2.20  12 2.44
   9  0.131  0.332  0.139-  32 2.07  27 2.07  36 2.11  28 2.36  33 2.36  18 2.53  14 2.53
  10  0.182  0.332  0.319-  34 2.03  29 2.08  37 2.25  28 2.26  33 2.26  15 2.33
  11  0.457  0.836  0.093-  51 2.03  52 2.13  35 2.29  30 2.35  12 2.36
  12  0.387  0.832  0.222-  31 2.10  35 2.12  30 2.13  13 2.33  11 2.36  52 2.42   4 2.43   8 2.44

  13  0.540  0.746  0.300-  31 2.05  52 2.31  21 2.32  12 2.33   2 2.48
  14  0.939  0.464  0.163-  32 2.06  49 2.07  43 2.25  50 2.36  33 2.36  18 2.53   9 2.53
  15  0.997  0.438  0.331-  34 2.04  50 2.06  29 2.08  33 2.13  10 2.33
  16  0.659  0.976  0.099-  51 2.06  40 2.08  52 2.10  47 2.18
  17  0.711  0.973  0.243-  41 2.14  48 2.15  47 2.15  52 2.20  25 2.44
  18  0.939  0.200  0.163-  27 2.08  49 2.08  47 2.25  50 2.36  28 2.36  14 2.53   9 2.53
  19  0.960  0.158  0.309-  29 2.04  50 2.08  28 2.09  48 2.12  26 2.48
  20  0.659  0.694  0.095-  51 2.05  44 2.09  52 2.10  43 2.22  21 2.48
  21  0.712  0.684  0.235-  43 2.03  45 2.10  52 2.17  13 2.32  25 2.43  20 2.48
  22  0.631  0.332  0.139-  40 2.07  44 2.07  49 2.11  41 2.36  45 2.36   5 2.53   1 2.53
  23  0.682  0.332  0.319-  42 2.03  46 2.08  50 2.25  41 2.26  45 2.26   6 2.33
  24  0.957  0.827  0.093-  38 2.03  39 2.13  43 2.29  47 2.35  25 2.36
  25  0.887  0.831  0.222-  48 2.10  43 2.12  47 2.13  26 2.33  24 2.36  39 2.42  21 2.43  17 2.44

  26  0.040  0.918  0.300-  48 2.05  39 2.31   4 2.32  25 2.33  19 2.48
  27  0.069  0.158  0.080-   9 2.07  18 2.08   3 2.09  28 2.78
  28  0.111  0.164  0.239-  19 2.09   4 2.10  10 2.26   9 2.36  18 2.36  27 2.78
  29  0.050  0.263  0.393-  19 2.04  10 2.08  15 2.08  34 2.51
  30  0.336  0.664  0.149-  12 2.13   8 2.15   7 2.18   1 2.25  11 2.35
  31  0.365  0.697  0.317-  13 2.05  12 2.10   2 2.12   8 2.15
  32  0.067  0.503  0.079-  14 2.06   9 2.07   7 2.08  33 2.79
  33  0.111  0.500  0.239-  15 2.13   8 2.14  10 2.26   9 2.36  14 2.36  34 2.59  32 2.79
  34  0.147  0.499  0.388-  10 2.03  15 2.04  29 2.51  33 2.59
  35  0.336  1.000  0.149-   4 2.03  12 2.12   3 2.22   5 2.25  11 2.29
  36  0.314  0.331  0.113-   5 2.07   1 2.08   9 2.11  37 2.75
  37  0.368  0.332  0.269-   6 2.06   2 2.08  10 2.25   1 2.36   5 2.36  36 2.75
  38  0.095  0.825  0.017-  24 2.03   3 2.05   7 2.06
  39  0.092  0.832  0.179-   7 2.10   3 2.10  24 2.13   4 2.17   8 2.20  26 2.31  25 2.42
  40  0.567  0.161  0.079-   5 2.06  22 2.07  16 2.08  41 2.79
  41  0.611  0.164  0.239-   6 2.13  17 2.14  23 2.26  22 2.36   5 2.36  42 2.59  40 2.79
  42  0.647  0.165  0.388-  23 2.03   6 2.04  46 2.51  41 2.59
  43  0.836  0.664  0.149-  21 2.03  25 2.12  20 2.22  14 2.25  24 2.29
  44  0.569  0.505  0.080-  22 2.07   1 2.08  20 2.09  45 2.78
  45  0.611  0.500  0.239-   2 2.09  21 2.10  23 2.26  22 2.36   1 2.36  44 2.78
  46  0.550  0.401  0.393-   2 2.04  23 2.08   6 2.08  42 2.51
  47  0.836  1.000  0.149-  25 2.13  17 2.15  16 2.18  18 2.25  24 2.35
  48  0.865  0.967  0.317-  26 2.05  25 2.10  19 2.12  17 2.15
  49  0.814  0.332  0.113-  14 2.07  18 2.08  22 2.11  50 2.75
  50  0.868  0.332  0.269-  15 2.06  19 2.08  23 2.25  14 2.36  18 2.36  49 2.75
  51  0.595  0.838  0.017-  11 2.03  20 2.05  16 2.06
  52  0.592  0.832  0.179-  16 2.10  20 2.10  11 2.13  21 2.17  17 2.20  13 2.31  12 2.42

  LATTYP: Found a simple orthorhombic cell.
 ALAT       =     9.5784100000
 B/A-ratio  =     1.1751911892
 C/A-ratio  =     1.7949213288

  Lattice vectors:

 A1 = (   0.0000000000,  -9.5784100000,   0.0000000000)
 A2 = ( -11.2564630382,   0.0000000000,   0.0000000000)
 A3 = (   0.0000000000,   0.0000000000, -17.1924924047)

Analysis of symmetry for initial positions (statically):
 Subroutine PRICEL returns:
 Original cell was already a primitive cell.

 Routine SETGRP: Setting up the symmetry group for a
 simple orthorhombic supercell.

 Subroutine GETGRP returns: Found  2 space group operations
 (whereof  1 operations were pure point group operations)
 out of a pool of  8 trial point group operations.

The static configuration has the point symmetry C_1 .
 The point group associated with its full space group is C_1h.

Analysis of symmetry for dynamics (positions and initial velocities):
 Subroutine PRICEL returns:
 Original cell was already a primitive cell.

 Routine SETGRP: Setting up the symmetry group for a
 simple orthorhombic supercell.

 Subroutine GETGRP returns: Found  2 space group operations
 (whereof  1 operations were pure point group operations)
 out of a pool of  8 trial point group operations.

The dynamic configuration has the point symmetry C_1 .
 The point group associated with its full space group is C_1h.

 Subroutine INISYM returns: Found  2 space group operations
 (whereof  1 operations are pure point group operations),
 and found     1 'primitive' translations

 KPOINTS: gamma-point-only calculation. no periodi

Automatic generation of k-mesh.
Space group operators:
 irot       det(A)        alpha          n_x          n_y          n_z        tau_x        tau_y        tau_z
    1     1.000000     0.000000     1.000000     0.000000     0.000000     0.000000     0.000000     0.000000
    2    -1.000000   180.000000     0.000000     1.000000     0.000000    -0.500000    -0.336430     0.000000

 Subroutine IBZKPT returns following result:

 Found      1 irreducible k-points:

 Following reciprocal coordinates:
            Coordinates               Weight
  0.000000  0.000000  0.000000      1.000000

 Following cartesian coordinates:
            Coordinates               Weight
  0.000000  0.000000  0.000000      1.000000

 SYSTEM =  "Millerite NiS"
 POSCAR =  Type_026 Type_126

 Startparameter for this run:
   NWRITE =      2    write-flag & timer
   PREC   = normal    normal or accurate (medium, high low for compatibility)
   ISTART =      0    job   : 0-new  1-cont  2-samecut
   ICHARG =      2    charge: 1-file 2-atom 10-const
   ISPIN  =      1    spin polarized calculation?
   LNONCOLLINEAR =      F non collinear calculations
   LSORBIT =      F    spin-orbit coupling
   INIWAV =      1    electr: 0-lowe 1-rand  2-diag
   LASPH  =      F    aspherical Exc in radial PAW
   METAGGA=      F    non-selfconsistent MetaGGA calc.

 Electronic Relaxation 1
   ENCUT  =  450.0 eV  33.07 Ry    5.75 a.u.  19.47 16.57 29.74*2*pi/ulx,y,z
   ENINI  =  450.0     initial cutoff
   ENAUG  =  703.4 eV  augmentation charge cutoff
   NELM   =    100;   NELMIN=  2; NELMDL= -5     # of ELM steps
   EDIFF  = 0.1E-03   stopping-criterion for ELM
   LREAL  =      T    real-space projection
   NLSPLINE    = F    spline interpolate recip. space projectors
   LCOMPAT=      F    compatible to vasp.4.4
   GGA_COMPAT  = T    GGA compatible to vasp.4.4-vasp.4.6
   LMAXPAW     = -100 max onsite density
   LMAXMIX     =    2 max onsite mixed and CHGCAR
   VOSKOWN=      0    Vosko Wilk Nusair interpolation
   ROPT   =   -0.00050  -0.00050
 Ionic relaxation
   EDIFFG = 0.1E-02   stopping-criterion for IOM
   NSW    =      0    number of steps for IOM
   NBLOCK =      1;   KBLOCK =      1    inner block; outer block
   IBRION =     -1    ionic relax: 0-MD 1-quasi-New 2-CG
   NFREE  =      0    steps in history (QN), initial steepest desc. (CG)
   ISIF   =      2    stress and relaxation
   IWAVPR =     10    prediction:  0-non 1-charg 2-wave 3-comb
   ISYM   =      2    0-nonsym 1-usesym 2-fastsym
   LCORR  =      T    Harris-Foulkes like correction to forces

   POTIM  = 0.5000    time-step for ionic-motion
   TEIN   =    0.0    initial temperature
   TEBEG  =    0.0;   TEEND  =   0.0 temperature during run
   SMASS  =  -3.00    Nose mass-parameter (am)
   estimated Nose-frequenzy (Omega)   =  0.10E-29 period in steps =****** mass=  -0.290E-26a.u.
   SCALEE = 1.0000    scale energy and forces
   NPACO  =    256;   APACO  = 16.0  distance and # of slots for P.C.
   PSTRESS=    0.0 pullay stress

  Mass of Ions in am
   POMASS =  58.69 32.07
  Ionic Valenz
   ZVAL   =  16.00  6.00
  Atomic Wigner-Seitz radii
  virtual crystal weights
   VCA    =   1.00  1.00
   NELECT =     572.0000    total number of electrons
   NUPDOWN=      -1.0000    fix difference up-down

 DOS related values:
   EMIN   =  10.00;   EMAX   =-10.00  energy-range for DOS
   EFERMI =   0.00
   ISMEAR =     0;   SIGMA  =   0.20  broadening in eV -4-tet -1-fermi 0-gaus

 Electronic relaxation 2 (details)
   IALGO  =     38    algorithm
[...]
      26 -86.9487      27 -92.3051      28 -93.3717      29 -92.9241      30 -93.1719
      31 -92.5332      32 -92.4274      33 -93.4690      34 -92.3596      35 -92.9857
      36 -92.3139      37 -93.0627      38 -92.2495      39 -94.0785      40 -92.4275
      41 -93.4690      42 -92.3596      43 -92.9857      44 -92.3049      45 -93.3716
      46 -92.9241      47 -93.1719      48 -92.5332      49 -92.3139      50 -93.0627
      51 -92.2494      52 -94.0784

 E-fermi :  -0.1912     XC(G=0):  -5.3953     alpha+bet : -5.1393

 k-point     1 :       0.0000    0.0000    0.0000
  band No.  band energies     occupation
      1     -64.8523      2.00000
      2     -64.8520      2.00000
      3     -64.7955      2.00000
      4     -64.7953      2.00000
      5     -64.7800      2.00000
      6     -64.7799      2.00000
      7     -64.7657      2.00000
      8     -64.7655      2.00000
      9     -64.7239      2.00000
     10     -64.7238      2.00000
     11     -64.7173      2.00000
     12     -64.7172      2.00000
     13     -64.7001      2.00000
     14     -64.6998      2.00000
     15     -64.6510      2.00000
     16     -64.6510      2.00000
     17     -64.6413      2.00000
     18     -64.6410      2.00000
     19     -64.6226      2.00000
     20     -64.6226      2.00000
     21     -64.6102      2.00000
     22     -64.6101      2.00000
     23     -64.5966      2.00000
     24     -64.5966      2.00000
     25     -64.5889      2.00000
     26     -64.5887      2.00000
     27     -64.5758      2.00000
     28     -64.5757      2.00000
     29     -64.5636      2.00000
     30     -64.5636      2.00000
     31     -64.5395      2.00000
     32     -64.5395      2.00000
     33     -64.5323      2.00000
     34     -64.5323      2.00000
     35     -64.5091      2.00000
     36     -64.5091      2.00000
     37     -64.4937      2.00000
     38     -64.4937      2.00000
     39     -64.4797      2.00000
     40     -64.4796      2.00000
     41     -64.4281      2.00000
     42     -64.4281      2.00000
     43     -64.4177      2.00000
     44     -64.4177      2.00000
     45     -64.3181      2.00000
     46     -64.3177      2.00000
     47     -64.3087      2.00000
     48     -64.3085      2.00000
     49     -64.3085      2.00000
     50     -64.3084      2.00000
     51     -64.2897      2.00000
     52     -64.2896      2.00000
     53     -64.2508      2.00000
     54     -64.2501      2.00000
     55     -64.2253      2.00000
     56     -64.2248      2.00000
     57     -64.2224      2.00000
     58     -64.2222      2.00000
     59     -64.2161      2.00000
     60     -64.2160      2.00000
[...]
    330       4.9180      0.00000
    331       4.9978      0.00000
    332       5.0154      0.00000
    333       5.0973      0.00000
    334       5.2064      0.00000
    335       5.2218      0.00000
    336       5.3097      0.00000
    337       5.3423      0.00000
    338       5.3824      0.00000
    339       5.4484      0.00000
    340       5.5244      0.00000
    341       5.5377      0.00000
    342       5.6208      0.00000
    343       5.6677      0.00000
    344       5.7469      0.00000

 soft charge-density along one line, spin component           1
         0         1         2         3         4         5         6         7         8         9
 total charge-density along one line

------------------------ aborting loop because EDIFF is reached ----------------------------------------

  FORCE on cell =-STRESS in cart. coord.  units (eV):
  Direction    XX          YY          ZZ          XY          YZ          ZX
  Alpha Z  1046.73971  1046.73971  1046.73971
  Ewald  161054.81408157592.97923************     0.00000    -0.00000  -425.95642
  Hartree185342.91280182687.42157************     0.00048     0.00143  -341.23047
  E(xc)   -3648.30549 -3649.31291 -3653.23355    -0.00005    -0.00001     0.01531
  Local  ************************344393.79054    -0.00034    -0.00360   767.28432
  n-local  -411.71031  -427.02016  -432.45951    -0.00264    -0.02660    -0.20129
  augment  4170.87648  4190.97413  4191.59667    -0.00111    -0.00657     0.51187
  Kinetic  7990.65843  8010.51342  8068.59296     0.00056    -0.00008    -0.63823
  Fock        0.00000     0.00000     0.00000     0.00000     0.00000     0.00000
  Total      83.63742    77.86114    94.54784     0.00000     0.00000    -0.21491
  in kB      72.28979    67.29722    81.71993     0.00000     0.00000    -0.18575

 VOLUME and BASIS-vectors are now :
  energy-cutoff  :      450.00
  volume of cell :     1853.68
      direct lattice vectors                 reciprocal lattice vectors
    11.256463038  0.000000000  0.000000000     0.088837852  0.000000000  0.000000000
     0.000000000  9.578410000  0.000000000     0.000000000  0.104401461  0.000000000
     0.000000000  0.000000000 17.192492405     0.000000000  0.000000000  0.058164923

  length of vectors
    11.256463038  9.578410000 17.192492405     0.088837852  0.104401461  0.058164923

 FORCES acting on ions
    electron-ion (+dipol)            ewald-force                    non-local-force                 convergence-correction
   0.365E+03 -.138E+03 0.157E+04   -.368E+03 0.141E+03 -.157E+04   0.209E+01 -.274E+01 0.481E+01   -.989E-02 -.149E+00 -.211E+00
   0.301E+03 -.187E+03 -.291E+04   -.304E+03 0.194E+03 0.292E+04   0.243E+01 -.444E+01 -.338E+01   -.130E+00 -.453E+00 -.118E+00
   -.308E+03 -.588E+03 0.322E+04   0.309E+03 0.594E+03 -.323E+04   -.122E+00 -.632E+01 0.468E+01   0.212E-01 0.583E-01 -.184E+00
   -.433E+03 -.455E+03 -.143E+04   0.432E+03 0.455E+03 0.143E+04   -.289E+00 -.449E+00 -.370E+01   0.321E+00 0.189E+00 -.432E+00
   0.354E+03 0.361E+03 0.126E+04   -.356E+03 -.365E+03 -.126E+04   0.180E+01 0.240E+01 0.442E+01   0.230E-01 0.774E-01 -.148E+00
   0.620E+03 0.846E+03 -.318E+04   -.626E+03 -.850E+03 0.318E+04   0.376E+01 0.183E+01 -.118E+01   0.153E-01 0.750E-01 -.122E+00
   -.251E+03 0.617E+03 0.304E+04   0.253E+03 -.625E+03 -.304E+04   -.129E+01 0.687E+01 0.558E+01   -.269E-02 -.594E-01 -.134E+00
   0.284E+03 0.318E+03 -.163E+04   -.284E+03 -.318E+03 0.163E+04   -.548E+00 0.153E+01 -.271E+01   0.174E-01 -.230E+00 -.289E+00
   -.488E+03 -.323E+02 0.212E+04   0.493E+03 0.318E+02 -.212E+04   -.403E+01 0.232E+00 0.443E+01   -.164E-01 0.213E-01 -.120E+00
   -.698E+03 0.247E+03 -.275E+04   0.706E+03 -.250E+03 0.275E+04   -.577E+01 0.146E+01 0.126E-03   -.686E-03 0.562E-01 -.128E+00
   0.455E+03 -.616E+02 0.331E+04   -.458E+03 0.616E+02 -.332E+04   0.183E+01 -.405E-01 0.514E+01   0.252E-02 0.192E-01 -.195E+00
   -.109E+03 -.450E+03 -.924E+03   0.108E+03 0.452E+03 0.928E+03   0.107E+01 -.200E+01 -.361E+01   -.265E+00 0.144E+00 -.473E+00
   -.217E+03 -.457E+03 -.328E+04   0.217E+03 0.456E+03 0.327E+04   0.136E+01 0.166E+01 0.228E+01   -.434E-02 -.580E-01 -.207E+00
   0.354E+03 -.361E+03 0.126E+04   -.356E+03 0.365E+03 -.126E+04   0.180E+01 -.240E+01 0.442E+01   0.230E-01 -.775E-01 -.148E+00
   0.620E+03 -.846E+03 -.318E+04   -.626E+03 0.850E+03 0.318E+04   0.376E+01 -.183E+01 -.118E+01   0.153E-01 -.750E-01 -.122E+00
   -.251E+03 -.617E+03 0.304E+04   0.253E+03 0.625E+03 -.304E+04   -.129E+01 -.687E+01 0.558E+01   -.269E-02 0.594E-01 -.134E+00
   0.284E+03 -.318E+03 -.163E+04   -.284E+03 0.318E+03 0.163E+04   -.548E+00 -.153E+01 -.271E+01   0.174E-01 0.230E+00 -.289E+00
   0.365E+03 0.138E+03 0.157E+04   -.368E+03 -.141E+03 -.157E+04   0.209E+01 0.274E+01 0.481E+01   -.987E-02 0.149E+00 -.211E+00
   0.301E+03 0.187E+03 -.291E+04   -.304E+03 -.194E+03 0.292E+04   0.243E+01 0.444E+01 -.338E+01   -.130E+00 0.453E+00 -.118E+00
   -.308E+03 0.588E+03 0.322E+04   0.309E+03 -.594E+03 -.323E+04   -.122E+00 0.632E+01 0.468E+01   0.212E-01 -.583E-01 -.184E+00
   -.433E+03 0.455E+03 -.143E+04   0.432E+03 -.455E+03 0.143E+04   -.289E+00 0.449E+00 -.370E+01   0.321E+00 -.189E+00 -.432E+00
   -.488E+03 0.323E+02 0.212E+04   0.493E+03 -.318E+02 -.212E+04   -.403E+01 -.232E+00 0.443E+01   -.164E-01 -.213E-01 -.120E+00
   -.698E+03 -.247E+03 -.275E+04   0.706E+03 0.250E+03 0.275E+04   -.577E+01 -.146E+01 0.126E-03   -.685E-03 -.562E-01 -.128E+00
   0.455E+03 0.616E+02 0.331E+04   -.458E+03 -.616E+02 -.332E+04   0.183E+01 0.405E-01 0.514E+01   0.254E-02 -.192E-01 -.195E+00
   -.109E+03 0.450E+03 -.924E+03   0.108E+03 -.452E+03 0.928E+03   0.107E+01 0.200E+01 -.361E+01   -.265E+00 -.144E+00 -.473E+00
   -.217E+03 0.457E+03 -.328E+04   0.217E+03 -.456E+03 0.327E+04   0.136E+01 -.166E+01 0.228E+01   -.433E-02 0.580E-01 -.207E+00
   0.127E+02 -.664E+02 0.149E+04   -.134E+02 0.663E+02 -.150E+04   0.945E+00 -.159E+00 0.272E+01   0.699E-02 0.231E-01 -.242E-01
   -.215E+03 -.250E+01 -.292E+03   0.217E+03 0.156E+01 0.292E+03   -.110E+01 0.671E+00 0.674E+00   0.316E-01 0.135E+00 -.115E+00
   -.307E+02 0.173E+03 -.180E+04   0.302E+02 -.176E+03 0.180E+04   0.685E+00 0.278E+01 -.323E+01   0.297E-02 0.592E-01 -.709E-02
   -.362E+02 0.230E+03 0.770E+03   0.369E+02 -.232E+03 -.772E+03   -.724E-01 0.713E+00 0.467E+00   -.306E-01 -.378E-01 -.917E-01
   0.208E+03 -.930E+02 -.144E+04   -.208E+03 0.938E+02 0.145E+04   -.495E+00 -.183E+00 -.273E+01   -.186E+00 -.890E-01 -.232E-01
   0.283E+02 0.525E+02 0.148E+04   -.293E+02 -.528E+02 -.148E+04   0.130E+01 0.625E+00 0.337E+01   -.113E-02 -.230E-01 -.492E-02
   -.338E+02 -.147E+03 -.284E+03   0.355E+02 0.149E+03 0.282E+03   -.163E+01 -.217E+01 0.171E+01   -.244E-02 -.508E-01 -.745E-01
   -.131E+03 -.357E+03 -.163E+04   0.133E+03 0.361E+03 0.163E+04   -.112E+01 -.164E+01 -.504E+00   -.478E-02 -.486E-01 -.165E-01
   -.105E+03 -.269E+03 0.699E+03   0.105E+03 0.271E+03 -.699E+03   0.190E+01 -.356E+00 -.630E+00   -.461E-03 0.424E-01 -.847E-01
   0.101E+03 0.141E+02 0.119E+04   -.101E+03 -.143E+02 -.120E+04   -.115E+01 0.128E+00 0.478E+01   0.381E-03 -.442E-02 -.188E-01
   0.249E+03 0.141E+03 -.584E+03   -.252E+03 -.141E+03 0.586E+03   0.117E+01 0.101E-01 -.225E+01   -.166E-03 -.138E-01 -.656E-01
   -.172E+02 0.186E+02 0.186E+04   0.169E+02 -.187E+02 -.187E+04   0.229E+00 0.662E-01 0.128E+01   0.539E-02 0.419E-02 -.317E-02
   0.926E+02 0.890E+02 0.101E+03   -.925E+02 -.892E+02 -.983E+02   -.153E+01 0.431E+00 0.106E+01   0.503E-01 -.590E-01 -.223E+00
   0.283E+02 -.525E+02 0.148E+04   -.293E+02 0.528E+02 -.148E+04   0.130E+01 -.625E+00 0.337E+01   -.113E-02 0.230E-01 -.492E-02
   -.338E+02 0.147E+03 -.284E+03   0.355E+02 -.149E+03 0.282E+03   -.163E+01 0.217E+01 0.171E+01   -.244E-02 0.508E-01 -.745E-01
   -.131E+03 0.357E+03 -.163E+04   0.133E+03 -.361E+03 0.163E+04   -.112E+01 0.164E+01 -.504E+00   -.478E-02 0.486E-01 -.165E-01
   -.105E+03 0.269E+03 0.699E+03   0.105E+03 -.271E+03 -.699E+03   0.190E+01 0.356E+00 -.630E+00   -.455E-03 -.424E-01 -.847E-01
   0.127E+02 0.664E+02 0.149E+04   -.134E+02 -.663E+02 -.150E+04   0.945E+00 0.159E+00 0.272E+01   0.698E-02 -.231E-01 -.242E-01
   -.215E+03 0.250E+01 -.292E+03   0.217E+03 -.156E+01 0.292E+03   -.110E+01 -.671E+00 0.674E+00   0.316E-01 -.135E+00 -.115E+00
   -.307E+02 -.173E+03 -.180E+04   0.302E+02 0.176E+03 0.180E+04   0.685E+00 -.278E+01 -.323E+01   0.297E-02 -.592E-01 -.709E-02
   -.362E+02 -.230E+03 0.770E+03   0.369E+02 0.232E+03 -.772E+03   -.724E-01 -.713E+00 0.467E+00   -.306E-01 0.378E-01 -.917E-01
   0.208E+03 0.930E+02 -.144E+04   -.208E+03 -.938E+02 0.145E+04   -.495E+00 0.183E+00 -.273E+01   -.186E+00 0.890E-01 -.232E-01
   0.101E+03 -.141E+02 0.119E+04   -.101E+03 0.143E+02 -.120E+04   -.115E+01 -.128E+00 0.478E+01   0.387E-03 0.442E-02 -.188E-01
   0.249E+03 -.141E+03 -.584E+03   -.252E+03 0.141E+03 0.586E+03   0.117E+01 -.101E-01 -.225E+01   -.161E-03 0.138E-01 -.656E-01
   -.172E+02 -.186E+02 0.186E+04   0.169E+02 0.187E+02 -.187E+04   0.229E+00 -.662E-01 0.128E+01   0.539E-02 -.418E-02 -.317E-02
   0.926E+02 -.890E+02 0.101E+03   -.925E+02 0.892E+02 -.983E+02   -.153E+01 -.431E+00 0.106E+01   0.503E-01 0.590E-01 -.223E+00
   -.250E+01 -.267E-02 -.398E+02   -.284E-12 0.583E-12 0.254E-11   0.284E+01 0.194E-14 0.469E+02   -.315E+00 0.188E-04 -.703E+01

 POSITION                                       TOTAL-FORCE (eV/Angst)
      4.94536      4.44331      2.79952        -0.284864      0.608629      1.627982
      5.17629      4.84473      5.31207        -0.429912      1.218625     -0.143583
      1.78491      9.28707      1.62627         0.664619      0.101185     -0.335502
      2.38643      9.38199      4.03470        -0.452778     -0.016862      0.910522
      4.94536      1.91264      2.79952        -0.612399     -0.749528      1.472851
      5.59000      2.16499      5.69285        -1.950013     -1.480885     -0.056795
      1.79259      6.58924      1.69498         0.757996     -0.239425     -0.228264
      2.37302      6.61065      4.17951        -0.628391      0.724161      0.388137
      1.47054      3.17797      2.39204         0.805040     -0.226710      1.608991
      2.05421      3.17797      5.47658         2.199647     -1.738503     -1.735903
      5.13999      8.00914      1.59478        -1.040320     -0.022273      0.405341
      4.35894      7.97366      3.81623         0.423650      0.581309     -0.040176
      6.07634      7.14585      5.16058         1.155369      0.395727      0.060765
     10.57359      4.44331      2.79952        -0.612399      0.749528      1.472851
     11.21823      4.19096      5.69285        -1.950013      1.480885     -0.056795
      7.42082      9.34512      1.69498         0.757996      0.239425     -0.228264
      8.00125      9.32371      4.17951        -0.628391     -0.724161      0.388137
     10.57359      1.91264      2.79952        -0.284864     -0.608629      1.627982
     10.80452      1.51122      5.31207        -0.429912     -1.218625     -0.143583
      7.41314      6.64728      1.62627         0.664619     -0.101185     -0.335502
      8.01466      6.55237      4.03470        -0.452778      0.016862      0.910522
      7.09877      3.17797      2.39204         0.805040      0.226710      1.608991
      7.68244      3.17797      5.47658         2.199647      1.738503     -1.735903
     10.76822      7.92522      1.59478        -1.040320      0.022273      0.405341
      9.98717      7.96070      3.81623         0.423650     -0.581309     -0.040176
      0.44811      8.78851      5.16058         1.155369     -0.395727      0.060765
      0.77159      1.51676      1.36771         0.225119     -0.261102     -2.915349
      1.25497      1.56674      4.10795         1.196918     -0.128253      0.068740
      0.56584      2.51913      6.76486         0.178617     -0.848860      3.323008
      3.77725      6.35595      2.56568         0.655504     -0.781412     -1.892777
      4.10529      6.67455      5.45081        -1.016281      0.505914      2.706306
      0.74981      4.81854      1.36251         0.296992      0.349044     -2.542267
      1.25497      4.78920      4.10795         0.063469      0.087277     -0.329362
      1.65651      4.77844      6.66851         1.185053      2.408401      2.511121
      3.77725      9.57841      2.56568         1.506993      1.179290     -1.404622
      3.53679      3.17169      1.94444        -1.217097     -0.151118     -2.501257
      4.14113      3.17797      4.62682        -2.227886     -0.441584     -0.312496
      1.06433      7.90563      0.28667        -0.065095     -0.006311     -4.237592
      1.03518      7.96718      3.08454        -1.389950      0.183234      3.592183
      6.37804      1.53740      1.36251         0.296992     -0.349044     -2.542267
      6.88320      1.56674      4.10795         0.063469     -0.087277     -0.329362
      7.28474      1.57750      6.66851         1.185053     -2.408401      2.511121
      9.40548      6.35595      2.56568         1.506993     -1.179290     -1.404622
      6.39983      4.83919      1.36771         0.225119      0.261102     -2.915349
      6.88320      4.78920      4.10795         1.196918      0.128253      0.068740
      6.19407      3.83681      6.76486         0.178617      0.848860      3.323008
      9.40548      9.57841      2.56568         0.655504      0.781412     -1.892777
      9.73352      9.25981      5.45081        -1.016281     -0.505914      2.706306
      9.16503      3.18426      1.94444        -1.217097      0.151118     -2.501257
      9.76936      3.17797      4.62682        -2.227886      0.441584     -0.312496
      6.69256      8.02873      0.28667        -0.065095      0.006311     -4.237592
      6.66341      7.96718      3.08454        -1.389950     -0.183234      3.592183
    total drift:                                0.029288     -0.002647      0.095835

  FREE ENERGIE OF THE ION-ELECTRON SYSTEM (eV)
  free  energy   TOTEN  =      -248.00148682 eV

  energy  without entropy=     -247.28936183  energy(sigma->0) =     -247.64542432