 vasp.5.4.4.18Apr17-6-g9f103f2a35 (build Aug 13 2019 17:33:20) gamma-only

 executed on             LinuxIFC date 2020.05.11  20:05:52

 INCAR:
 POTCAR:    PAW_PBE Ni_pv 06Sep2000
 POTCAR:    PAW_PBE S 06Sep2000
 POTCAR:    PAW_PBE Ni_pv 06Sep2000
   VRHFIN =Ni:

   TITEL  = PAW_PBE Ni_pv 06Sep2000
   POMASS =   58.690; ZVAL   =   16.000    mass and valenz
   ENMAX  =  367.986; ENMIN  =  275.989 eV

 POTCAR:    PAW_PBE S 06Sep2000
   VRHFIN =S : s2p4

   TITEL  = PAW_PBE S 06Sep2000
   POMASS =   32.066; ZVAL   =    6.000    mass and valenz
   ENMAX  =  258.689; ENMIN  =  194.016 eV

 Optimization of the real space projectors (new method)

 maximal supplied QI-value         = 18.90
 optimisation between [QCUT,QGAM] = [ 10.77, 21.73] = [ 32.49,132.25] Ry
 Optimized for a Real-space Cutoff    1.38 Angstroem

   l    n(q)    QCUT    max X(q) W(low)/X(q) W(high)/X(q)  e(spline)
   1      8    10.771     2.836    0.40E-04    0.29E-04    0.12E-06
   1      8    10.771     4.023    0.10E-03    0.48E-04    0.29E-06
   2      8    10.771    73.368    0.42E-03    0.97E-04    0.44E-06
   2      8    10.771    69.010    0.42E-03    0.99E-04    0.45E-06
   0      9    10.771    54.797    0.10E-03    0.56E-04    0.74E-07
   0      9    10.771    24.266    0.89E-04    0.49E-04    0.67E-07
 Optimization of the real space projectors (new method)

 maximal supplied QI-value         = 19.84
 optimisation between [QCUT,QGAM] = [ 10.71, 21.63] = [ 32.15,130.99] Ry
 Optimized for a Real-space Cutoff    1.19 Angstroem

   l    n(q)    QCUT    max X(q) W(low)/X(q) W(high)/X(q)  e(spline)
   0      8    10.715   187.594    0.41E-03    0.53E-04    0.66E-07
   0      8    10.715   164.243    0.41E-03    0.53E-04    0.65E-07
   1      7    10.715    67.533    0.19E-03    0.59E-03    0.68E-07
   1      7    10.715    50.729    0.19E-03    0.58E-03    0.67E-07
  PAW_PBE Ni_pv 06Sep2000               :
  PAW_PBE S 06Sep2000                   :

 POSCAR: Type_036 Type_136
  positions in cartesian coordinates
 exchange correlation table for  LEXCH =        8
   RHO(1)=    0.500       N(1)  =     2000
   RHO(2)=  100.500       N(2)  =     4000

 ion  position               nearest neighbor table
   1  0.780  0.145  0.121-  49 2.07  63 2.08  41 2.25  50 2.36  64 2.36
   2  0.802  0.145  0.286-  64 2.04  50 2.04  42 2.07
   3  0.215  0.628  0.097-  43 2.03  44 2.09  61 2.22   4 2.39  51 2.45  15 2.49
   4  0.297  0.645  0.216-  52 2.01  44 2.25  51 2.26  61 2.26   3 2.39  34 2.45  28 2.53  16 2.53

   5  0.389  0.145  0.124-  45 2.04  46 2.07  67 2.32  53 2.33   6 2.42  29 2.47
   6  0.470  0.145  0.248-  68 2.05  54 2.07  46 2.20  53 2.26  67 2.26   5 2.42  30 2.53  19 2.53

[...]

   8  0.944  0.644  0.301-  48 2.01  65 2.07  55 2.09   7 2.41
   9  0.125  0.145  0.184-  71 2.08  57 2.12  72 2.15  38 2.25  10 2.31  58 2.36  32 2.37  33 2.53
                            22 2.53
  10  0.089  0.162  0.322-  37 2.03  58 2.16  72 2.20   9 2.31
  11  0.577  0.647  0.152-  39 2.03  40 2.11  59 2.15  69 2.17  12 2.34
  12  0.642  0.645  0.280-  60 2.03  70 2.04  40 2.17  59 2.26  69 2.26  11 2.34  17 2.46  36 2.53
                            24 2.53
  13  0.911  0.002  0.118-  63 2.06  56 2.09  64 2.09  38 2.20
  14  0.948  0.011  0.273-  37 2.06  38 2.08  55 2.14  64 2.24
  15  0.357  0.646  0.058-  51 2.03  39 2.04  61 2.04  27 2.49   3 2.49
  16  0.425  0.513  0.191-  62 2.07  53 2.25  39 2.26  61 2.26  40 2.51  17 2.52  28 2.53   4 2.53

[...]

  68  0.520  0.992  0.318-  19 2.03   6 2.05  54 2.65  67 2.78
  69  0.657  0.477  0.183-  11 2.17  30 2.25  24 2.26  12 2.26  70 2.47  23 2.50
  70  0.658  0.456  0.335-  12 2.04  17 2.17  24 2.36  69 2.47
  71  0.140  0.963  0.116-  31 2.06   9 2.08  22 2.08  32 2.19
  72  0.195  0.048  0.279-  32 2.01   9 2.15  22 2.19  10 2.20  58 2.57

  LATTYP: Found a simple orthorhombic cell.
 ALAT       =     9.5784100000
 B/A-ratio  =     1.6880763216
 C/A-ratio  =     1.7627867312

  Lattice vectors:

 A1 = (   0.0000000000,   9.5784100000,   0.0000000000)
 A2 = (   0.0000000000,   0.0000000000, -16.1690871197)
 A3 = ( -16.8846940542,   0.0000000000,   0.0000000000)

Analysis of symmetry for initial positions (statically):
 Subroutine PRICEL returns:
 Original cell was already a primitive cell.

 Routine SETGRP: Setting up the symmetry group for a
 simple orthorhombic supercell.

 Subroutine GETGRP returns: Found  1 space group operations
 (whereof  1 operations were pure point group operations)
 out of a pool of  8 trial point group operations.

The static configuration has the point symmetry C_1 .

Analysis of symmetry for dynamics (positions and initial velocities):
 Subroutine PRICEL returns:
 Original cell was already a primitive cell.

 Routine SETGRP: Setting up the symmetry group for a
 simple orthorhombic supercell.

 Subroutine GETGRP returns: Found  1 space group operations
 (whereof  1 operations were pure point group operations)
 out of a pool of  8 trial point group operations.

The dynamic configuration has the point symmetry C_1 .

 Subroutine INISYM returns: Found  1 space group operations
 (whereof  1 operations are pure point group operations),
 and found     1 'primitive' translations

 KPOINTS: gamma-point-only calculation. no periodi

Automatic generation of k-mesh.
Space group operators:
 irot       det(A)        alpha          n_x          n_y          n_z        tau_x        tau_y        tau_z
    1     1.000000     0.000000     1.000000     0.000000     0.000000     0.000000     0.000000     0.000000

 Subroutine IBZKPT returns following result:

 Found      1 irreducible k-points:

 Following reciprocal coordinates:
            Coordinates               Weight
  0.000000  0.000000  0.000000      1.000000

 Following cartesian coordinates:
            Coordinates               Weight
  0.000000  0.000000  0.000000      1.000000

 SYSTEM =  "Millerite NiS"
 POSCAR =  Type_036 Type_136

 Startparameter for this run:
   NWRITE =      2    write-flag & timer
   PREC   = normal    normal or accurate (medium, high low for compatibility)
   ISTART =      0    job   : 0-new  1-cont  2-samecut
   ICHARG =      2    charge: 1-file 2-atom 10-const
   ISPIN  =      1    spin polarized calculation?
   LNONCOLLINEAR =      F non collinear calculations
   LSORBIT =      F    spin-orbit coupling
   INIWAV =      1    electr: 0-lowe 1-rand  2-diag
   LASPH  =      F    aspherical Exc in radial PAW
   METAGGA=      F    non-selfconsistent MetaGGA calc.

 Electronic Relaxation 1
   ENCUT  =  450.0 eV  33.07 Ry    5.75 a.u.  29.20 16.57 27.97*2*pi/ulx,y,z
   ENINI  =  450.0     initial cutoff
   ENAUG  =  703.4 eV  augmentation charge cutoff
   NELM   =    100;   NELMIN=  2; NELMDL= -5     # of ELM steps
   EDIFF  = 0.1E-03   stopping-criterion for ELM
   LREAL  =      T    real-space projection
   NLSPLINE    = F    spline interpolate recip. space projectors
   LCOMPAT=      F    compatible to vasp.4.4
   GGA_COMPAT  = T    GGA compatible to vasp.4.4-vasp.4.6
   LMAXPAW     = -100 max onsite density
   LMAXMIX     =    2 max onsite mixed and CHGCAR
   VOSKOWN=      0    Vosko Wilk Nusair interpolation
   ROPT   =   -0.00050  -0.00050
 Ionic relaxation
   EDIFFG = 0.1E-02   stopping-criterion for IOM
   NSW    =      0    number of steps for IOM
   NBLOCK =      1;   KBLOCK =      1    inner block; outer block
   IBRION =     -1    ionic relax: 0-MD 1-quasi-New 2-CG
   NFREE  =      0    steps in history (QN), initial steepest desc. (CG)
   ISIF   =      2    stress and relaxation
   IWAVPR =     10    prediction:  0-non 1-charg 2-wave 3-comb
   ISYM   =      2    0-nonsym 1-usesym 2-fastsym
   LCORR  =      T    Harris-Foulkes like correction to forces

   POTIM  = 0.5000    time-step for ionic-motion
   TEIN   =    0.0    initial temperature
   TEBEG  =    0.0;   TEEND  =   0.0 temperature during run
   SMASS  =  -3.00    Nose mass-parameter (am)
   estimated Nose-frequenzy (Omega)   =  0.10E-29 period in steps =****** mass=  -0.652E-26a.u.
   SCALEE = 1.0000    scale energy and forces
   NPACO  =    256;   APACO  = 16.0  distance and # of slots for P.C.
   PSTRESS=    0.0 pullay stress

  Mass of Ions in am
   POMASS =  58.69 32.07
  Ionic Valenz
   ZVAL   =  16.00  6.00
  Atomic Wigner-Seitz radii
  virtual crystal weights
   VCA    =   1.00  1.00
   NELECT =     792.0000    total number of electrons
   NUPDOWN=      -1.0000    fix difference up-down

 DOS related values:
   EMIN   =  10.00;   EMAX   =-10.00  energy-range for DOS
   EFERMI =   0.00
   ISMEAR =     0;   SIGMA  =   0.20  broadening in eV -4-tet -1-fermi 0-gaus

 Electronic relaxation 2 (details)
   IALGO  =     38    algorithm
   LDIAG  =      T    sub-space diagonalisation (order eigenvalues)
   LSUBROT=      F    optimize rotation matrix (better conditioning)
   TURBO    =      0    0=normal 1=particle mesh
   IRESTART =      0    0=no restart 2=restart with 2 vectors
   NREBOOT  =      0    no. of reboots
   NMIN     =      0    reboot dimension
   EREF     =   0.00    reference energy to select bands
   IMIX   =      4    mixing-type and parameters
     AMIX     =   0.40;   BMIX     =  1.00
     AMIX_MAG =   1.60;   BMIX_MAG =  1.00
     AMIN     =   0.10
     WC   =   100.;   INIMIX=   1;  MIXPRE=   1;  MAXMIX= -45

 Intra band minimization:
   WEIMIN = 0.0000     energy-eigenvalue tresh-hold
   EBREAK =  0.53E-07  absolut break condition
   DEPER  =   0.30     relativ break condition

   TIME   =   0.40     timestep for ELM

  volume/ion in A,a.u.               =      36.32       245.10
  Fermi-wavevector in a.u.,A,eV,Ry     =   1.099409  2.077581 16.445356  1.208700
  Thomas-Fermi vector in A             =   2.235803

 Write flags
   LWAVE        =      F    write WAVECAR
   LDOWNSAMPLE  =      F    k-point downsampling of WAVECAR
   LCHARG       =      F    write CHGCAR
   LVTOT        =      F    write LOCPOT, total local potential
   LVHAR        =      F    write LOCPOT, Hartree potential only
   LELF         =      F    write electronic localiz. function (ELF)
   LORBIT       =      0    0 simple, 1 ext, 2 COOP (PROOUT), +10 PAW based schemes

 Dipole corrections
   LMONO  =      F    monopole corrections only (constant potential shift)
   LDIPOL =      F    correct potential (dipole corrections)
   IDIPOL =      0    1-x, 2-y, 3-z, 4-all directions
   EPSILON=  1.0000000 bulk dielectric constant

 Exchange correlation treatment:
   GGA     =    --    GGA type
   VOSKOWN=      0    Vosko Wilk Nusair interpolation
   LHFCALC =     F    Hartree Fock is set to
   LHFONE  =     F    Hartree Fock one center treatment
   AEXX    =    0.0000 exact exchange contribution

 Linear response parameters
   LEPSILON=     F    determine dielectric tensor
   LRPA    =     F    only Hartree local field effects (RPA)
   LNABLA  =     F    use nabla operator in PAW spheres
   LVEL    =     F    velocity operator in full k-point grid
   LINTERFAST=   F  fast interpolation
   KINTER  =     0    interpolate to denser k-point grid
   CSHIFT  =0.1000    complex shift for real part using Kramers Kronig
   OMEGAMAX=  -1.0    maximum frequency
   DEG_THRESHOLD= 0.2000000E-02 threshold for treating states as degnerate
[...]
  Fock        0.00000     0.00000     0.00000     0.00000     0.00000     0.00000
  Total     110.88290   128.54816   146.54182     7.92602     1.58578     0.36547
  in kB      67.93648    78.75975    89.78423     4.85617     0.97159     0.22392

 VOLUME and BASIS-vectors are now :
  energy-cutoff  :      450.00
  volume of cell :     2615.00
      direct lattice vectors                 reciprocal lattice vectors
    16.884694054  0.000000000  0.000000000     0.059225237  0.000000000  0.000000000
     0.000000000  9.578410000  0.000000000     0.000000000  0.104401461  0.000000000
     0.000000000  0.000000000 16.169087120     0.000000000  0.000000000  0.061846411

  length of vectors
    16.884694054  9.578410000 16.169087120     0.059225237  0.104401461  0.061846411

 FORCES acting on ions
    electron-ion (+dipol)            ewald-force                    non-local-force                 convergence-correction
   0.582E+03 -.162E+03 0.203E+04   -.586E+03 0.162E+03 -.203E+04   0.354E+01 -.188E-01 0.531E+01   0.314E+00 0.131E+00 -.641E-01
   0.365E+03 -.495E+01 -.300E+04   -.369E+03 0.463E+01 0.300E+04   0.367E+01 0.321E+00 0.179E+01   0.276E+00 0.130E-01 -.212E+00
   0.137E+03 -.232E+02 0.266E+04   -.137E+03 0.225E+02 -.267E+04   0.131E+01 0.679E+00 0.632E+01   0.372E-01 -.613E-01 0.167E-01
   0.516E+03 -.422E+03 -.160E+04   -.519E+03 0.423E+03 0.160E+04   0.125E+01 -.109E+01 -.781E+01   -.374E-01 -.340E+00 0.255E+00
   0.291E+03 -.862E+02 0.204E+04   -.293E+03 0.856E+02 -.205E+04   0.281E+01 0.260E+00 0.732E+01   0.368E-01 0.166E+00 -.589E-01
   0.688E+03 0.210E+03 -.223E+04   -.693E+03 -.210E+03 0.223E+04   0.335E+01 0.171E+00 -.748E+01   0.232E-01 0.179E+00 0.771E-01
   0.403E+03 -.207E+02 0.133E+04   -.408E+03 0.209E+02 -.133E+04   0.530E+01 -.942E-01 0.326E+01   -.461E+00 -.368E-01 0.250E+00
   -.187E+03 -.632E+02 -.317E+04   0.184E+03 0.617E+02 0.317E+04   0.406E+01 0.177E+01 -.465E+00   -.134E+00 -.226E-01 0.999E-01
   0.140E+03 -.234E+03 0.831E+03   -.145E+03 0.238E+03 -.836E+03   0.494E+01 -.233E+01 0.409E+01   -.455E+00 0.597E-01 0.425E+00
   -.424E+03 -.896E+02 -.362E+04   0.421E+03 0.890E+02 0.362E+04   0.446E+01 0.610E+00 -.518E+01   -.322E+00 0.281E-01 0.192E+00
   -.327E+03 0.363E+03 0.181E+04   0.329E+03 -.363E+03 -.181E+04   -.161E+01 0.648E+00 0.407E+01   0.332E+00 -.983E-01 -.144E+00
   0.977E+02 -.269E+03 -.254E+04   -.961E+02 0.274E+03 0.255E+04   -.167E+01 -.337E+01 -.883E+01   0.284E+00 0.524E-01 0.523E-01
   -.532E+03 0.236E+03 0.241E+04   0.538E+03 -.238E+03 -.241E+04   -.494E+01 0.313E+01 0.569E+01   -.277E+00 0.188E+00 0.591E-01
   0.580E+02 0.557E+03 -.239E+04   -.580E+02 -.560E+03 0.240E+04   -.816E+00 0.234E+01 -.466E+01   -.753E-01 0.108E+00 0.619E-02
   0.114E+03 0.351E+03 0.378E+04   -.116E+03 -.350E+03 -.379E+04   0.104E+01 -.672E+00 0.560E+01   0.133E+00 -.156E+00 -.220E+00
   -.136E+03 0.403E+03 0.153E+03   0.135E+03 -.405E+03 -.153E+03   0.155E+01 0.325E+01 -.722E+00   -.648E-01 -.171E+00 0.648E-01
   0.254E+03 -.107E+01 -.291E+04   -.255E+03 0.472E+00 0.291E+04   0.333E+00 0.140E+01 -.402E+01   0.111E+00 -.876E-01 0.706E-01
   -.529E+03 0.289E+03 0.316E+04   0.526E+03 -.289E+03 -.316E+04   0.207E+01 -.176E+00 0.176E+01   0.469E+00 0.426E-01 -.214E+00
   -.309E+03 0.298E+03 -.144E+04   0.313E+03 -.303E+03 0.144E+04   -.335E+01 0.437E+01 -.644E+01   0.409E+00 0.108E+00 -.601E-01
   0.159E+02 0.540E+03 0.186E+04   -.161E+02 -.545E+03 -.186E+04   0.519E+00 0.469E+01 0.406E+01   -.503E+00 -.208E+00 0.139E+00
   -.260E+03 -.276E+03 -.297E+04   0.260E+03 0.274E+03 0.297E+04   -.427E+00 0.272E+01 0.196E+01   -.287E+00 -.147E+00 0.386E+00
   -.209E+03 0.473E+03 0.642E+03   0.210E+03 -.476E+03 -.644E+03   -.646E+00 0.203E+01 0.354E+01   -.139E+00 0.154E+00 0.574E-01
   0.463E+03 -.425E+03 0.259E+04   -.466E+03 0.428E+03 -.260E+04   0.103E+01 -.235E+01 0.766E+01   0.240E+00 -.234E+00 -.199E+00
   -.163E+03 0.380E+03 -.178E+04   0.164E+03 -.381E+03 0.178E+04   -.336E+01 0.750E+00 -.427E+01   0.402E+00 -.106E+00 -.296E+00
   -.593E+03 -.177E+03 0.242E+04   0.600E+03 0.179E+03 -.243E+04   -.557E+01 -.247E+01 0.553E+01   -.400E+00 -.463E-01 0.306E-01
   -.179E+02 -.564E+03 -.232E+04   0.188E+02 0.568E+03 0.232E+04   -.161E+01 -.328E+01 -.470E+01   -.573E-01 -.892E-01 -.480E-01
   0.131E+03 -.300E+03 0.376E+04   -.128E+03 0.298E+03 -.376E+04   -.340E+01 0.259E+01 -.124E+01   0.149E+00 0.298E-03 -.261E+00
   0.118E+03 -.546E+03 -.864E+03   -.120E+03 0.549E+03 0.869E+03   0.181E+01 -.360E+01 -.551E+01   0.834E-01 -.121E+00 -.385E-02
   -.123E+03 -.661E+03 0.338E+04   0.123E+03 0.663E+03 -.339E+04   -.571E+00 -.160E+01 0.583E+01   0.288E+00 0.156E+00 -.209E+00
   -.481E+03 -.229E+03 -.590E+03   0.484E+03 0.231E+03 0.588E+03   -.259E+01 -.146E+01 0.293E+00   0.307E+00 0.255E-01 -.110E+00
   -.943E+02 -.362E+03 0.190E+04   0.933E+02 0.363E+03 -.190E+04   0.155E+01 -.157E+01 0.399E+01   -.492E+00 0.214E+00 0.126E+00
   -.405E+03 0.581E+03 -.194E+04   0.406E+03 -.582E+03 0.194E+04   -.572E+00 0.396E+00 -.190E+01   -.431E+00 0.235E+00 0.369E+00
   0.113E+03 -.110E+03 0.112E+04   -.116E+03 0.113E+03 -.112E+04   0.208E+01 -.216E+01 0.453E+01   0.585E-02 0.796E-01 0.231E+00
   0.255E+03 0.149E+03 -.277E+04   -.253E+03 -.150E+03 0.277E+04   -.208E+01 0.246E+00 -.162E+01   -.115E+00 -.280E-01 0.206E+00
   0.132E+03 0.475E+03 0.245E+04   -.134E+03 -.478E+03 -.246E+04   0.122E+01 0.983E+00 0.720E+01   0.283E+00 0.159E+00 -.112E+00
   -.258E+03 -.327E+03 -.179E+04   0.261E+03 0.330E+03 0.179E+04   -.211E+01 -.243E+01 -.523E+01   0.329E+00 0.106E+00 -.123E+00
   0.745E+02 0.171E+02 -.172E+04   -.743E+02 -.170E+02 0.173E+04   -.952E+00 0.305E-01 -.157E+01   0.744E-01 0.616E-02 -.513E-01
   -.239E+03 -.341E+02 0.392E+03   0.240E+03 0.343E+02 -.396E+03   0.232E+00 0.293E+00 0.114E+01   -.182E+00 0.182E-01 0.572E-01
   -.262E+03 0.312E+03 0.125E+04   0.265E+03 -.315E+03 -.125E+04   -.165E+01 0.261E+01 0.215E+01   0.694E-01 -.816E-01 -.744E-01
   0.163E+03 -.284E+03 -.105E+04   -.164E+03 0.288E+03 0.106E+04   0.599E+00 -.253E+01 -.409E+01   0.690E-01 -.379E-01 0.408E-01
   -.223E+03 -.198E+03 0.932E+03   0.225E+03 0.200E+03 -.935E+03   -.935E+00 -.191E+01 0.143E+01   0.218E+00 0.477E-01 -.647E-01
   -.592E+02 0.182E+02 -.113E+04   0.603E+02 -.183E+02 0.113E+04   -.668E+00 -.236E-01 -.222E+01   0.156E+00 0.274E-01 -.180E-01
   0.757E+02 -.214E+02 0.170E+04   -.759E+02 0.214E+02 -.171E+04   0.376E+00 0.109E+00 0.218E+01   -.138E+00 0.197E-01 -.155E+00
   -.643E+02 -.190E+03 -.574E+03   0.638E+02 0.192E+03 0.579E+03   0.130E+01 -.436E+00 -.347E+01   -.619E-01 -.197E-01 0.187E+00
   0.125E+03 -.103E+02 0.155E+04   -.126E+03 0.998E+01 -.156E+04   0.139E+01 0.232E+00 0.198E+01   -.141E-01 0.357E-01 -.834E-01
   0.632E+02 0.216E+03 -.884E+03   -.654E+02 -.219E+03 0.890E+03   0.231E+01 0.131E+01 -.350E+01   -.482E-01 0.109E+00 0.813E-01
   -.214E+02 -.528E+02 0.700E+03   0.219E+02 0.535E+02 -.704E+03   -.603E-01 0.488E+00 0.279E+01   0.177E-01 -.654E-01 -.697E-01
   -.668E+02 0.342E+01 -.151E+04   0.690E+02 -.541E+01 0.152E+04   -.161E+01 0.186E+01 -.173E+01   0.190E+00 0.250E-01 0.845E-02
   0.876E+02 -.875E+02 0.171E+04   -.875E+02 0.887E+02 -.171E+04   -.576E+00 -.652E+00 0.242E+01   0.269E-02 0.330E-01 0.147E+00
   0.103E+03 -.133E+03 -.370E+03   -.103E+03 0.133E+03 0.374E+03   -.387E+00 0.806E+00 -.155E+01   0.657E-01 -.317E-01 -.180E+00
   0.246E+03 -.327E+03 0.663E+03   -.248E+03 0.329E+03 -.664E+03   0.157E+01 -.122E+01 0.407E+00   -.223E-02 -.977E-03 -.122E-01
   0.135E+03 -.286E+03 -.142E+04   -.135E+03 0.288E+03 0.142E+04   0.183E+00 -.589E+00 -.883E+00   -.558E-01 -.505E-01 0.822E-01
   0.317E+02 -.263E+03 0.651E+03   -.319E+02 0.266E+03 -.654E+03   -.580E+00 -.164E+01 0.199E+01   0.551E-01 0.159E-01 -.261E-01
   0.838E+02 0.136E+03 -.162E+04   -.831E+02 -.137E+03 0.162E+04   -.173E+01 -.266E+00 -.384E+01   0.374E-01 0.144E-01 0.621E-01
   -.269E+02 0.546E+02 -.681E+03   0.267E+02 -.545E+02 0.685E+03   -.555E+00 -.984E+00 -.267E+01   -.174E+00 -.335E-02 0.117E+00
   0.602E+02 -.485E+02 0.136E+04   -.616E+02 0.483E+02 -.136E+04   0.105E+01 0.808E+00 0.374E+01   -.170E+00 0.821E-01 0.678E-02
   0.956E+02 0.599E+02 0.110E+04   -.958E+02 -.608E+02 -.111E+04   -.503E+00 0.591E+00 0.358E+01   -.847E-01 -.748E-01 -.644E-03
   -.178E+03 -.300E+02 -.102E+04   0.178E+03 0.330E+02 0.102E+04   0.179E+01 -.259E+01 -.129E+01   -.104E+00 -.522E-01 0.152E+00
   -.700E+02 0.121E+02 0.108E+03   0.695E+02 -.988E+01 -.108E+03   0.633E+00 -.120E+01 -.255E+00   0.202E+00 0.637E-02 -.641E-01
   0.760E+02 -.258E+03 -.160E+04   -.772E+02 0.261E+03 0.160E+04   0.102E+01 -.165E+01 -.804E+00   0.104E+00 0.152E-01 0.524E-01
   0.370E+02 0.319E+03 0.905E+03   -.366E+02 -.322E+03 -.909E+03   -.151E+01 0.144E+01 0.432E+01   0.504E-01 -.652E-01 0.645E-01
   0.116E+03 -.297E+02 -.153E+04   -.118E+03 0.318E+02 0.154E+04   0.195E+01 -.192E+01 -.318E+01   -.954E-01 -.675E-01 0.463E-01
   -.563E+00 0.904E+02 0.171E+04   0.638E+00 -.918E+02 -.172E+04   -.303E+00 0.592E+00 0.275E+01   0.459E-02 0.481E-01 0.926E-01
   0.461E+02 0.145E+03 -.387E+03   -.460E+02 -.146E+03 0.391E+03   -.683E+00 -.481E+00 -.195E+01   0.595E-01 0.509E-01 -.954E-01
   0.141E+02 0.705E+02 -.581E+03   -.145E+02 -.724E+02 0.584E+03   -.761E+00 0.160E+01 -.119E+01   -.177E+00 -.469E-02 0.126E+00
   0.310E+02 0.551E+02 0.134E+04   -.325E+02 -.546E+02 -.134E+04   0.153E+01 -.105E+01 0.397E+01   -.236E+00 -.114E+00 0.921E-02
   0.187E+03 0.608E+02 0.188E+03   -.190E+03 -.636E+02 -.187E+03   0.100E+01 0.171E+01 -.163E+01   0.609E-01 0.547E-01 -.227E-01
   0.162E+03 0.231E+03 -.152E+04   -.163E+03 -.234E+03 0.152E+04   0.355E+00 0.137E+01 -.993E+00   0.385E-01 0.227E-01 0.112E+00
   -.462E+02 0.142E+03 0.473E+03   0.457E+02 -.144E+03 -.479E+03   0.118E+01 0.145E+01 0.354E+01   0.161E+00 -.577E-01 -.108E+00
   -.146E+03 0.230E+03 -.149E+04   0.147E+03 -.233E+03 0.150E+04   -.545E-01 0.245E+01 -.376E+01   0.701E-01 -.199E-01 0.486E-01
   0.224E+01 -.320E+02 0.113E+04   -.269E+01 0.333E+02 -.114E+04   0.699E-01 -.123E+01 0.558E+01   -.126E+00 0.551E-01 -.808E-02
   -.456E+03 0.154E+03 -.121E+04   0.460E+03 -.157E+03 0.122E+04   -.252E+01 0.228E+01 -.295E+01   -.174E+00 0.864E-01 0.163E+00
   -.152E+02 -.654E+01 -.217E+02   -.966E-12 -.597E-12 -.477E-11   0.151E+02 0.633E+01 0.202E+02   0.127E+00 0.279E+00 0.140E+01

 POSITION                                       TOTAL-FORCE (eV/Angst)
     13.17084      1.39171      1.94975         0.102624      0.071826      0.943928
     13.53657      1.38948      4.63090         0.036151      0.018753      0.879701
      3.62214      6.01454      1.56550         1.210643     -0.039974     -0.585520
      5.02033      6.18092      3.49202        -1.037394     -0.560664     -0.640499
      6.56041      1.38410      2.01281         0.926269     -0.221314     -0.680187
      7.93172      1.39171      4.00611        -0.998078      0.673307     -1.059715
     16.08224      6.18092      2.46384        -0.355521      0.112213      1.325876
     15.94518      6.17063      4.87009         0.912563      0.223834      0.946471
      2.10894      1.39171      2.97793        -0.709574      1.499285     -0.918100
      1.51045      1.55004      5.20518         0.996344      0.011331      0.507614
      9.73620      6.20007      2.46243         0.879979     -0.166614     -1.215803
     10.84312      6.18092      4.52020         0.141315      0.874626     -0.569275
     15.37840      0.01529      1.91045         0.940879      0.698513     -0.021681
     16.00299      0.10486      4.40702        -0.895311     -0.811954     -0.128483
      6.02525      6.18889      0.94081        -0.303883     -0.163034     -1.690283
      7.17375      4.91558      3.08454         0.363206      0.392859     -1.178005
      9.05275      4.49949      4.71051        -0.387256      0.715099     -0.059504
      9.96562      8.70462      1.44128         0.103775     -0.163985     -0.991324
     10.08514      0.12638      3.59863         1.097604     -0.109525     -0.819237
      1.35096      4.91558      2.05636        -0.172186     -0.492372      1.432662
      1.93365      4.73936      4.62356         0.159993      0.851090      1.116491
      4.26235      0.12638      2.57045         0.882257     -0.694131      0.778602
     13.31000      4.20574      1.86784        -1.467566      0.518816      0.400891
     12.99653      4.91558      4.11272        -1.292731     -0.656628     -0.746445
     15.38530      2.72117      1.89583         0.992314     -0.672886      0.131740
     15.94906      2.67657      4.40283        -0.814019      0.430219     -0.365793
      7.51866      8.17607      0.86092        -0.253794      0.385860     -0.814084
      7.17375      7.44626      3.08454         0.101112     -0.238927     -0.642649
      8.95859      1.39698      1.42384        -0.314219      0.141722     -1.784861
     10.08514      2.65705      3.59863         1.015083      0.088867     -1.800546
      1.35096      7.44626      2.05636         0.084630     -0.708621      0.734657
      1.78067      8.83392      3.94962        -0.041303     -0.867738      0.239919
      4.26235      2.65705      2.57045        -0.434668      0.670335     -0.087368
      5.19980      3.87807      4.30736        -0.564163     -0.273786      0.739801
     12.93093      8.34291      1.91287        -0.527409     -1.265022      0.332945
     12.99653      7.44626      4.11272         0.908583     -0.060906     -1.585094
     16.50360      1.40671      5.92239        -0.659664      0.110015      4.038742
     16.74052      1.39171      2.94940         1.529468      0.545012     -2.479702
      8.00634      6.18092      1.40713         1.205903     -0.375375     -3.048323
      8.70959      6.50670      4.27525        -0.732309      1.933376      2.056122
     10.91773      1.39171      1.92122         1.462814     -0.422517     -1.161654
     11.47057      1.36490      4.59619         0.536184     -0.108391      2.686970
      1.88900      6.17375      0.51888         0.035683      0.153537     -3.692385
      2.76722      6.18092      3.46349         0.762130      1.398705      1.430276
      4.77318      1.37489      1.02612         0.373544     -0.046077     -3.949142
      5.79400      1.89087      3.87204         0.016667     -1.481303      2.433750
     13.82913      6.18092      2.43531         0.498338      1.101888     -1.206757
     14.00293      6.13936      5.40304         0.792820     -0.110514      3.006617
     13.82386      2.77287      0.54663        -0.453370      0.603998     -4.055025
     13.99844      3.00295      3.46826        -0.478246      1.413158      1.835456
      5.26426      7.79215      1.92599        -0.764276      1.526999     -0.205519
      5.96668      7.45088      4.72608        -0.332104      1.455444      3.401632
      8.17565      3.00295      2.44008        -0.751222      1.083062     -0.779129
      8.96624      2.55656      5.36424        -0.960194     -1.150787      3.529263
      0.02514      7.79215      3.98236        -0.950776     -0.877280      1.450750
     16.34102      7.85331      1.25528        -0.512867      0.676664     -2.832654
      2.37666      3.11019      1.76178        -0.845761     -0.404078     -2.709592
      2.93654      3.00295      4.49645         1.028779      0.305167      1.206580
     11.08705      7.79215      2.95417         0.299720      1.038301     -0.907737
     11.71100      7.59536      5.68152        -0.059468      1.544888      3.674061
      5.26426      4.56969      1.92599        -1.057899     -1.410439      0.352990
      6.94255      4.54990      5.10853        -0.697555      0.122353      2.945422
     13.81496      9.56121      0.56507        -0.223505     -0.748579     -3.827336
     13.99844      9.35889      3.46826        -0.487352     -1.434737      1.765345
      0.02514      4.56969      3.98236        -1.296083     -0.317507      1.137561
     16.32203      4.49233      1.27669        -0.194255     -0.625041     -2.746868
      8.17565      9.35889      2.44008        -1.213238     -0.983267     -0.261918
      8.78362      9.50218      5.14818        -0.430290     -1.769365      3.527936
     11.08705      4.56969      2.95417         0.828288     -0.813861     -2.275713
     11.10476      4.36830      5.41829         1.217416     -1.168824      2.705408
      2.36207      9.22738      1.87826        -0.508843      0.124825     -2.352290
      3.29305      0.45874      4.51089         1.735278     -1.099926      3.180018
    total drift:                                0.013541      0.064106     -0.119547

  FREE ENERGIE OF THE ION-ELECTRON SYSTEM (eV)
  free  energy   TOTEN  =      -339.19670310 eV

  energy  without entropy=     -338.12186411  energy(sigma->0) =     -338.65928360