 vasp.5.4.4.18Apr17-6-g9f103f2a35 (build Aug 13 2019 17:33:20) gamma-only

 executed on             LinuxIFC date 2020.05.10  12:00:17

 INCAR:
 POTCAR:    PAW_PBE Ni_pv 06Sep2000
 POTCAR:    PAW_PBE S 06Sep2000
 POTCAR:    PAW_PBE Ni_pv 06Sep2000
   VRHFIN =Ni:

   TITEL  = PAW_PBE Ni_pv 06Sep2000
   POMASS =   58.690; ZVAL   =   16.000    mass and valenz
   ENMAX  =  367.986; ENMIN  =  275.989 eV

 POTCAR:    PAW_PBE S 06Sep2000
   VRHFIN =S : s2p4

   TITEL  = PAW_PBE S 06Sep2000
   POMASS =   32.066; ZVAL   =    6.000    mass and valenz
   ENMAX  =  258.689; ENMIN  =  194.016 eV

 Optimization of the real space projectors (new method)

 maximal supplied QI-value         = 18.90
 optimisation between [QCUT,QGAM] = [ 10.77, 21.73] = [ 32.49,132.25] Ry
 Optimized for a Real-space Cutoff    1.38 Angstroem

   l    n(q)    QCUT    max X(q) W(low)/X(q) W(high)/X(q)  e(spline)
   1      8    10.771     2.836    0.40E-04    0.29E-04    0.12E-06
   1      8    10.771     4.023    0.10E-03    0.48E-04    0.29E-06
   2      8    10.771    73.368    0.42E-03    0.97E-04    0.44E-06
   2      8    10.771    69.010    0.42E-03    0.99E-04    0.45E-06
   0      9    10.771    54.797    0.10E-03    0.56E-04    0.74E-07
   0      9    10.771    24.266    0.89E-04    0.49E-04    0.67E-07
 Optimization of the real space projectors (new method)

 maximal supplied QI-value         = 19.84
 optimisation between [QCUT,QGAM] = [ 10.71, 21.63] = [ 32.15,130.99] Ry
 Optimized for a Real-space Cutoff    1.19 Angstroem

   l    n(q)    QCUT    max X(q) W(low)/X(q) W(high)/X(q)  e(spline)
   0      8    10.715   187.594    0.41E-03    0.53E-04    0.66E-07
   0      8    10.715   164.243    0.41E-03    0.53E-04    0.65E-07
   1      7    10.715    67.533    0.19E-03    0.59E-03    0.68E-07
   1      7    10.715    50.729    0.19E-03    0.58E-03    0.67E-07
  PAW_PBE Ni_pv 06Sep2000               :
  PAW_PBE S 06Sep2000                   :

 POSCAR: Type_026 Type_126
  positions in cartesian coordinates
 exchange correlation table for  LEXCH =        8
   RHO(1)=    0.500       N(1)  =     2000
   RHO(2)=  100.500       N(2)  =     4000

 ion  position               nearest neighbor table
   1  0.439  0.464  0.163-  44 2.06  35 2.09  29 2.25  36 2.36  45 2.36   5 2.53  22 2.53
   2  0.483  0.469  0.324-  46 2.01  36 2.07  45 2.07  30 2.14
   3  0.132  0.052  0.134-  27 2.04  28 2.12  37 2.30  33 2.36   4 2.40   7 2.48
   4  0.215  0.964  0.253-  38 2.16  34 2.18  28 2.25  37 2.26  33 2.26   3 2.40  12 2.53   8 2.53

   5  0.439  0.200  0.163-  39 2.06  35 2.10  33 2.25  36 2.36  40 2.36  16 2.53   1 2.53  22 2.53

   6  0.483  0.194  0.323-  41 2.01  40 2.07  36 2.07  34 2.14
   7  0.241  0.830  0.113-  29 2.02  37 2.03  33 2.04   3 2.48  11 2.52
   8  0.215  0.700  0.253-  38 2.14  30 2.15  31 2.25  37 2.26  29 2.26  12 2.53   4 2.53
   9  0.135  0.330  0.159-  27 2.06  35 2.10  28 2.12  31 2.15  18 2.53  10 2.53
  10  0.180  0.333  0.303-  32 2.04  31 2.09  28 2.11  36 2.19   9 2.53
  11  0.463  0.818  0.093-  51 2.07  52 2.09  29 2.28  12 2.43  33 2.46   7 2.52
  12  0.407  0.832  0.229-  34 2.18  30 2.18  52 2.25  29 2.26  33 2.26  11 2.43  13 2.52   8 2.53
                             4 2.53
  13  0.319  0.831  0.364-  38 2.03  30 2.04  34 2.04  12 2.52
  14  0.926  0.473  0.185-  50 2.08  49 2.10  42 2.18  31 2.30  15 2.50
  15  0.985  0.467  0.326-  32 2.04  31 2.08  50 2.09  43 2.15  14 2.50
  16  0.607  0.035  0.127-  39 2.03  51 2.10  52 2.15  40 2.28  17 2.45  24 2.48   5 2.53  47 2.63

[...]

  26  0.964  0.827  0.364-  38 2.04  48 2.04  43 2.05  25 2.41
  27  0.057  0.211  0.072-   3 2.04  18 2.05   9 2.06
  28  0.111  0.164  0.239-  19 2.08  10 2.11   3 2.12   9 2.12   4 2.25  18 2.36
  29  0.336  0.664  0.149-   7 2.02   1 2.25  12 2.26   8 2.26  11 2.28
  30  0.382  0.657  0.309-  13 2.04   2 2.14   8 2.15  12 2.18
  31  0.111  0.500  0.239-  15 2.08  10 2.09   9 2.15   8 2.25  14 2.30
  32  0.062  0.315  0.392-  10 2.04  15 2.04  19 2.06
  33  0.336  1.000  0.149-   7 2.04   5 2.25  12 2.26   4 2.26   3 2.36  11 2.46
  34  0.384  0.005  0.310-  13 2.04   6 2.14   4 2.18  12 2.18
  35  0.309  0.333  0.116-   1 2.09   5 2.10   9 2.10  36 2.72
  36  0.368  0.332  0.269-   2 2.07   6 2.07  10 2.19   1 2.36   5 2.36  35 2.72
  37  0.092  0.832  0.179-   7 2.03  25 2.25   8 2.26   4 2.26   3 2.30
  38  0.142  0.830  0.341-  13 2.03  26 2.04   8 2.14   4 2.16
  39  0.542  0.198  0.064-  16 2.03   5 2.06  22 2.08  44 2.65
  40  0.611  0.164  0.239-   6 2.07  17 2.24  23 2.26  16 2.28  22 2.36   5 2.36  41 2.77
  41  0.619  0.197  0.399-   6 2.01  23 2.02  46 2.57  40 2.77
  42  0.836  0.664  0.149-  24 2.08  21 2.09  14 2.18  25 2.26  20 2.45
  43  0.889  0.658  0.309-  26 2.05  21 2.12  15 2.15  25 2.17
  44  0.545  0.475  0.065-  20 2.02   1 2.06  22 2.10  39 2.65
  45  0.611  0.500  0.239-   2 2.07  20 2.14  23 2.26  21 2.27  22 2.36   1 2.36  46 2.78
  46  0.618  0.466  0.399-   2 2.01  23 2.02  41 2.57  45 2.78
  47  0.836  1.000  0.149-  24 2.07  17 2.08  18 2.25  25 2.26  16 2.63
  48  0.874  0.990  0.315-  26 2.04  17 2.13  19 2.15  25 2.15
  49  0.816  0.344  0.117-  14 2.10  18 2.10  22 2.13  50 2.67
  50  0.868  0.332  0.269-  19 2.07  14 2.08  15 2.09  23 2.25  18 2.36  49 2.67
  51  0.605  0.899  0.031-  11 2.07  24 2.09  16 2.10  52 2.63
  52  0.592  0.832  0.179-  11 2.09  24 2.09  16 2.15  20 2.20  17 2.24  12 2.25  21 2.35  51 2.63

  LATTYP: Found a simple orthorhombic cell.
 ALAT       =     9.5784100000
 B/A-ratio  =     1.1751911892
 C/A-ratio  =     1.7949213288

  Lattice vectors:

 A1 = (   0.0000000000,  -9.5784100000,   0.0000000000)
 A2 = ( -11.2564630382,   0.0000000000,   0.0000000000)
 A3 = (   0.0000000000,   0.0000000000, -17.1924924047)

Analysis of symmetry for initial positions (statically):
 Subroutine PRICEL returns:
 Original cell was already a primitive cell.

 Routine SETGRP: Setting up the symmetry group for a
 simple orthorhombic supercell.

 Subroutine GETGRP returns: Found  1 space group operations
 (whereof  1 operations were pure point group operations)
 out of a pool of  8 trial point group operations.

The static configuration has the point symmetry C_1 .

Analysis of symmetry for dynamics (positions and initial velocities):
 Subroutine PRICEL returns:
 Original cell was already a primitive cell.

 Routine SETGRP: Setting up the symmetry group for a
 simple orthorhombic supercell.

 Subroutine GETGRP returns: Found  1 space group operations
 (whereof  1 operations were pure point group operations)
 out of a pool of  8 trial point group operations.

The dynamic configuration has the point symmetry C_1 .

 Subroutine INISYM returns: Found  1 space group operations
 (whereof  1 operations are pure point group operations),
 and found     1 'primitive' translations

 KPOINTS: gamma-point-only calculation. no periodi

Automatic generation of k-mesh.
Space group operators:
 irot       det(A)        alpha          n_x          n_y          n_z        tau_x        tau_y        tau_z
    1     1.000000     0.000000     1.000000     0.000000     0.000000     0.000000     0.000000     0.000000

 Subroutine IBZKPT returns following result:

 Found      1 irreducible k-points:

 Following reciprocal coordinates:
            Coordinates               Weight
  0.000000  0.000000  0.000000      1.000000

 Following cartesian coordinates:
            Coordinates               Weight
  0.000000  0.000000  0.000000      1.000000

 SYSTEM =  "Millerite NiS"
 POSCAR =  Type_026 Type_126

 Startparameter for this run:
   NWRITE =      2    write-flag & timer
   PREC   = normal    normal or accurate (medium, high low for compatibility)
   ISTART =      0    job   : 0-new  1-cont  2-samecut
   ICHARG =      2    charge: 1-file 2-atom 10-const
   ISPIN  =      1    spin polarized calculation?
   LNONCOLLINEAR =      F non collinear calculations
   LSORBIT =      F    spin-orbit coupling
   INIWAV =      1    electr: 0-lowe 1-rand  2-diag
   LASPH  =      F    aspherical Exc in radial PAW
   METAGGA=      F    non-selfconsistent MetaGGA calc.

 Electronic Relaxation 1
   ENCUT  =  450.0 eV  33.07 Ry    5.75 a.u.  19.47 16.57 29.74*2*pi/ulx,y,z
   ENINI  =  450.0     initial cutoff
   ENAUG  =  703.4 eV  augmentation charge cutoff
   NELM   =    100;   NELMIN=  2; NELMDL= -5     # of ELM steps
   EDIFF  = 0.1E-03   stopping-criterion for ELM
   LREAL  =      T    real-space projection
   NLSPLINE    = F    spline interpolate recip. space projectors
   LCOMPAT=      F    compatible to vasp.4.4
   GGA_COMPAT  = T    GGA compatible to vasp.4.4-vasp.4.6
   LMAXPAW     = -100 max onsite density
   LMAXMIX     =    2 max onsite mixed and CHGCAR
   VOSKOWN=      0    Vosko Wilk Nusair interpolation
   ROPT   =   -0.00050  -0.00050
 Ionic relaxation
   EDIFFG = 0.1E-02   stopping-criterion for IOM
   NSW    =      0    number of steps for IOM
   NBLOCK =      1;   KBLOCK =      1    inner block; outer block
   IBRION =     -1    ionic relax: 0-MD 1-quasi-New 2-CG
   NFREE  =      0    steps in history (QN), initial steepest desc. (CG)
   ISIF   =      2    stress and relaxation
   IWAVPR =     10    prediction:  0-non 1-charg 2-wave 3-comb
   ISYM   =      2    0-nonsym 1-usesym 2-fastsym
   LCORR  =      T    Harris-Foulkes like correction to forces

   POTIM  = 0.5000    time-step for ionic-motion
   TEIN   =    0.0    initial temperature
   TEBEG  =    0.0;   TEEND  =   0.0 temperature during run
   SMASS  =  -3.00    Nose mass-parameter (am)
   estimated Nose-frequenzy (Omega)   =  0.10E-29 period in steps =****** mass=  -0.290E-26a.u.
   SCALEE = 1.0000    scale energy and forces
   NPACO  =    256;   APACO  = 16.0  distance and # of slots for P.C.
   PSTRESS=    0.0 pullay stress

  Mass of Ions in am
   POMASS =  58.69 32.07
  Ionic Valenz
   ZVAL   =  16.00  6.00
  Atomic Wigner-Seitz radii
  virtual crystal weights
   VCA    =   1.00  1.00
   NELECT =     572.0000    total number of electrons
   NUPDOWN=      -1.0000    fix difference up-down

 DOS related values:
   EMIN   =  10.00;   EMAX   =-10.00  energy-range for DOS
   EFERMI =   0.00
   ISMEAR =     0;   SIGMA  =   0.20  broadening in eV -4-tet -1-fermi 0-gaus

 Electronic relaxation 2 (details)
   IALGO  =     38    algorithm
   LDIAG  =      T    sub-space diagonalisation (order eigenvalues)
   LSUBROT=      F    optimize rotation matrix (better conditioning)
   TURBO    =      0    0=normal 1=particle mesh
   IRESTART =      0    0=no restart 2=restart with 2 vectors
   NREBOOT  =      0    no. of reboots
   NMIN     =      0    reboot dimension
   EREF     =   0.00    reference energy to select bands
   IMIX   =      4    mixing-type and parameters
     AMIX     =   0.40;   BMIX     =  1.00
     AMIX_MAG =   1.60;   BMIX_MAG =  1.00
     AMIN     =   0.10
     WC   =   100.;   INIMIX=   1;  MIXPRE=   1;  MAXMIX= -45

 Intra band minimization:
   WEIMIN = 0.0000     energy-eigenvalue tresh-hold
   EBREAK =  0.73E-07  absolut break condition
   DEPER  =   0.30     relativ break condition

   TIME   =   0.40     timestep for ELM

  volume/ion in A,a.u.               =      35.65       240.56
[...]
      26 -87.5504      27 -92.2990      28 -93.6437      29 -93.0814      30 -92.6974
      31 -93.1971      32 -92.1526      33 -93.3794      34 -92.7310      35 -92.4141
      36 -93.0493      37 -92.9427      38 -92.7802      39 -92.7838      40 -93.3798
      41 -92.1581      42 -93.0381      43 -92.8917      44 -92.6432      45 -93.4655
      46 -92.1471      47 -92.8757      48 -92.6018      49 -92.3249      50 -93.3941
      51 -92.4574      52 -94.0209

 E-fermi :  -0.1516     XC(G=0):  -5.4001     alpha+bet : -5.1393

 k-point     1 :       0.0000    0.0000    0.0000
  band No.  band energies     occupation
      1     -64.8881      2.00000
      2     -64.8757      2.00000
      3     -64.8406      2.00000
      4     -64.8233      2.00000
      5     -64.8202      2.00000
      6     -64.8164      2.00000
      7     -64.7937      2.00000
      8     -64.7523      2.00000
      9     -64.7416      2.00000
     10     -64.7167      2.00000
     11     -64.6846      2.00000
     12     -64.6753      2.00000
     13     -64.6624      2.00000
     14     -64.6485      2.00000
     15     -64.6323      2.00000
     16     -64.6087      2.00000
     17     -64.5995      2.00000
     18     -64.5885      2.00000
     19     -64.5856      2.00000
     20     -64.5829      2.00000
     21     -64.5693      2.00000
     22     -64.5628      2.00000
     23     -64.5501      2.00000
     24     -64.5451      2.00000
     25     -64.5412      2.00000
     26     -64.5243      2.00000
     27     -64.4752      2.00000
     28     -64.4715      2.00000
     29     -64.4697      2.00000
     30     -64.4696      2.00000
     31     -64.4606      2.00000
     32     -64.4603      2.00000
     33     -64.4561      2.00000
     34     -64.4538      2.00000
     35     -64.4463      2.00000
     36     -64.4458      2.00000
     37     -64.4452      2.00000
     38     -64.4071      2.00000
     39     -64.4029      2.00000
     40     -64.3947      2.00000
     41     -64.3864      2.00000
     42     -64.3709      2.00000
     43     -64.3636      2.00000
     44     -64.3552      2.00000
     45     -64.3508      2.00000
     46     -64.3421      2.00000
     47     -64.3412      2.00000
     48     -64.3357      2.00000
     49     -64.3177      2.00000
     50     -64.3103      2.00000
     51     -64.2950      2.00000
     52     -64.2867      2.00000
     53     -64.2858      2.00000
     54     -64.2827      2.00000
     55     -64.2802      2.00000
     56     -64.2622      2.00000
     57     -64.2437      2.00000
     58     -64.2401      2.00000
     59     -64.2254      2.00000
     60     -64.2192      2.00000
[...]
    330       4.8440      0.00000
    331       4.9328      0.00000
    332       5.0213      0.00000
    333       5.0883      0.00000
    334       5.2402      0.00000
    335       5.2792      0.00000
    336       5.4103      0.00000
    337       5.4594      0.00000
    338       5.4962      0.00000
    339       5.5298      0.00000
    340       5.5589      0.00000
    341       5.6385      0.00000
    342       5.6517      0.00000
    343       5.6943      0.00000
    344       5.7966      0.00000

 soft charge-density along one line, spin component           1
         0         1         2         3         4         5         6         7         8         9
 total charge-density along one line

------------------------ aborting loop because EDIFF is reached ----------------------------------------

  FORCE on cell =-STRESS in cart. coord.  units (eV):
  Direction    XX          YY          ZZ          XY          YZ          ZX
  Alpha Z  1046.73971  1046.73971  1046.73971
  Ewald  162211.24049164273.93239************ -1215.04001    26.28666  1453.90254
  Hartree186983.32065188837.61248************ -1012.09734    62.20147   942.39996
  E(xc)   -3652.18282 -3651.50412 -3656.53653    -0.23875    -0.15254     1.33303
  Local  ************************350944.08614  2223.50090   -93.12392 -2367.36717
  n-local  -420.77038  -430.64017  -429.06629     1.28724    -3.02280     5.43229
  augment  4175.25987  4181.66316  4189.37132     0.52830     3.84676   -10.01809
  Kinetic  8026.84556  7999.68260  8083.58850     2.89198     1.92786   -24.40351
  Fock        0.00000     0.00000     0.00000     0.00000     0.00000     0.00000
  Total      88.73176    80.48511   108.15079     0.83232    -2.03651     1.27906
  in kB      76.69296    69.56518    93.47728     0.71940    -1.76020     1.10552

 VOLUME and BASIS-vectors are now :
  energy-cutoff  :      450.00
  volume of cell :     1853.68
      direct lattice vectors                 reciprocal lattice vectors
    11.256463038  0.000000000  0.000000000     0.088837852  0.000000000  0.000000000
     0.000000000  9.578410000  0.000000000     0.000000000  0.104401461  0.000000000
     0.000000000  0.000000000 17.192492405     0.000000000  0.000000000  0.058164923

  length of vectors
    11.256463038  9.578410000 17.192492405     0.088837852  0.104401461  0.058164923

 FORCES acting on ions
    electron-ion (+dipol)            ewald-force                    non-local-force                 convergence-correction
   0.685E+03 -.270E+03 0.160E+04   -.688E+03 0.272E+03 -.160E+04   0.297E+01 -.924E+00 0.423E+01   -.686E-01 -.230E+00 0.367E-01
   0.340E+03 -.479E+03 -.307E+04   -.342E+03 0.481E+03 0.308E+04   0.990E+00 -.158E+01 -.483E+01   -.665E-01 0.334E-01 0.128E+00
   0.273E+03 0.763E+02 0.293E+04   -.274E+03 -.780E+02 -.294E+04   0.110E+01 0.704E+00 0.720E+01   -.149E+00 0.115E+00 0.970E-01
   0.309E+03 -.503E+03 -.127E+04   -.310E+03 0.507E+03 0.127E+04   0.127E+01 -.298E+01 -.358E+01   -.117E+00 -.111E+00 0.292E+00
   0.555E+03 0.128E+03 0.155E+04   -.558E+03 -.129E+03 -.155E+04   0.244E+01 0.109E+01 0.360E+01   0.118E+00 -.942E-01 -.194E-01
   0.309E+03 0.450E+03 -.309E+04   -.311E+03 -.452E+03 0.310E+04   0.107E+01 0.145E+01 -.468E+01   -.269E-01 -.118E+00 -.488E-02
   0.704E+03 0.495E+03 0.364E+04   -.706E+03 -.497E+03 -.365E+04   0.174E+01 0.111E+01 0.550E+01   -.874E-01 0.603E-01 0.204E+00
   0.509E+03 0.843E+03 -.815E+03   -.512E+03 -.849E+03 0.815E+03   0.219E+01 0.442E+01 -.169E+01   -.130E+00 0.144E+00 0.322E+00
   -.246E+03 -.653E+03 0.229E+04   0.249E+03 0.658E+03 -.229E+04   -.376E+01 -.347E+01 0.427E+01   -.811E-01 -.372E-01 0.104E+00
   -.602E+03 -.981E+02 -.254E+04   0.609E+03 0.991E+02 0.255E+04   -.496E+01 -.889E+00 -.401E+01   -.223E-01 -.760E-01 0.702E-01
   0.348E+03 0.218E+03 0.372E+04   -.349E+03 -.219E+03 -.373E+04   0.357E+00 -.134E+00 0.661E+01   0.111E+00 0.211E+00 0.130E-01
   -.577E+03 0.771E+02 -.701E+03   0.582E+03 -.772E+02 0.703E+03   -.345E+01 -.326E-01 -.295E+01   -.820E-01 0.104E+00 0.297E+00
   -.334E+03 0.353E+02 -.428E+04   0.336E+03 -.356E+02 0.428E+04   -.177E+01 0.310E+00 -.512E+01   -.236E+00 0.940E-03 -.172E-01
   -.118E+03 -.491E+03 0.161E+04   0.117E+03 0.493E+03 -.161E+04   0.977E+00 -.183E+01 0.370E+01   0.429E-01 -.282E-01 -.563E-01
   0.140E+03 -.494E+03 -.312E+04   -.142E+03 0.497E+03 0.312E+04   0.899E+00 -.861E+00 -.399E+01   0.828E-01 0.606E-01 0.553E-01
   -.202E+03 -.383E+03 0.252E+04   0.203E+03 0.387E+03 -.253E+04   0.246E+00 -.313E+01 0.458E+01   0.140E+00 0.112E+00 0.203E-01
   0.124E+03 -.274E+03 -.154E+04   -.123E+03 0.277E+03 0.154E+04   -.229E+01 -.327E+01 -.417E+01   0.123E+00 0.249E-01 0.327E-01
   0.419E+03 0.193E+03 0.192E+04   -.423E+03 -.194E+03 -.192E+04   0.319E+01 0.124E+01 0.529E+01   -.469E-01 -.748E-01 0.569E-01
   0.245E+03 0.421E+03 -.295E+04   -.248E+03 -.426E+03 0.296E+04   0.215E+01 0.330E+01 -.405E+01   0.285E-01 -.241E+00 0.669E-01
   -.222E+03 0.287E+03 0.253E+04   0.222E+03 -.288E+03 -.254E+04   -.731E-01 0.171E+01 0.592E+01   0.203E+00 0.478E-01 -.127E-01
   0.152E+03 0.230E+03 -.166E+04   -.152E+03 -.233E+03 0.166E+04   -.214E+01 0.278E+01 -.357E+01   0.215E+00 0.212E+00 0.229E+00
   -.694E+03 0.663E+01 0.231E+04   0.701E+03 -.673E+01 -.231E+04   -.569E+01 0.569E+00 0.153E+01   0.104E+00 -.303E+00 -.246E-01
   -.624E+03 0.431E+01 -.264E+04   0.631E+03 -.390E+01 0.264E+04   -.579E+01 -.270E+00 -.348E+01   0.156E+00 -.963E-01 -.481E-03
   -.919E+03 0.126E+03 0.356E+04   0.923E+03 -.127E+03 -.358E+04   -.323E+01 0.170E+00 0.976E+01   0.189E+00 0.251E+00 -.549E-01
   -.573E+03 0.775E+02 0.972E+02   0.577E+03 -.762E+02 -.992E+02   -.424E+01 -.140E+01 -.272E+00   0.704E-01 0.128E+00 0.330E+00
   0.909E+02 0.361E+02 -.393E+04   -.909E+02 -.355E+02 0.393E+04   0.322E+00 -.741E+00 0.131E+01   0.102E+00 0.109E+00 0.127E+00
   0.597E+02 -.102E+03 0.178E+04   -.599E+02 0.103E+03 -.178E+04   0.247E+00 -.117E+00 0.191E+01   -.304E-01 0.585E-02 -.248E-01
   -.696E+02 0.107E+03 -.299E+03   0.712E+02 -.108E+03 0.302E+03   -.819E+00 -.134E+01 -.202E+01   -.236E-01 0.102E-01 0.782E-01
   0.194E+03 0.384E+03 0.874E+03   -.195E+03 -.387E+03 -.877E+03   0.148E+01 0.173E+01 0.158E+01   -.477E-01 -.106E-01 0.105E+00
   -.137E+03 0.208E+03 -.106E+04   0.138E+03 -.209E+03 0.106E+04   -.101E+00 0.168E+00 0.230E+00   -.892E-01 0.988E-01 0.311E-01
   -.110E+03 -.279E+03 -.216E+01   0.112E+03 0.280E+03 0.649E+00   -.675E+00 0.597E+00 -.672E-01   0.339E-01 -.461E-02 0.387E-01
   -.882E+02 0.335E+02 -.180E+04   0.887E+02 -.335E+02 0.181E+04   0.169E-01 -.166E+00 -.951E+00   0.502E-01 -.609E-01 0.134E-01
   -.206E+02 -.270E+03 0.859E+03   0.225E+02 0.272E+03 -.860E+03   -.153E+01 -.167E+01 0.963E+00   0.396E-01 0.730E-01 0.865E-01
   -.163E+03 -.187E+03 -.110E+04   0.164E+03 0.189E+03 0.110E+04   -.483E+00 -.408E+00 -.346E-01   -.445E-01 -.723E-01 0.660E-02
   0.215E+03 -.991E+02 0.130E+04   -.216E+03 0.994E+02 -.131E+04   0.179E+00 0.122E+00 0.493E+01   -.240E-01 -.528E-01 -.393E-02
   0.252E+03 -.268E+02 -.548E+03   -.254E+03 0.271E+02 0.550E+03   0.759E+00 -.269E+00 -.215E+01   -.106E+00 -.393E-01 0.128E-01
   0.345E+03 0.234E+03 0.626E+03   -.348E+03 -.236E+03 -.628E+03   0.152E+01 0.232E+01 0.194E+01   -.707E-01 0.696E-02 0.142E+00
   0.163E+03 0.230E+02 -.135E+04   -.164E+03 -.230E+02 0.135E+04   0.748E+00 0.975E-01 -.146E+01   -.139E+00 -.940E-03 0.540E-01
   0.449E+02 -.662E+02 0.179E+04   -.458E+02 0.649E+02 -.179E+04   0.842E+00 0.127E+01 0.289E+01   0.469E-01 -.248E-01 0.264E-01
   -.166E+03 0.875E+02 -.319E+03   0.169E+03 -.875E+02 0.320E+03   -.162E+01 -.780E+00 -.164E+01   0.422E-01 -.328E-01 -.656E-01
   -.132E+03 0.267E+03 -.171E+04   0.133E+03 -.271E+03 0.171E+04   0.243E+00 0.335E+01 -.788E-01   0.527E-01 -.374E-01 0.544E-01
   -.379E+03 0.188E+03 0.102E+04   0.382E+03 -.189E+03 -.103E+04   -.177E+01 -.270E+00 0.301E+01   0.666E-01 0.570E-01 -.139E-01
   0.665E+02 0.141E+03 -.104E+04   -.665E+02 -.142E+03 0.104E+04   -.530E+00 -.320E-01 -.601E+00   0.745E-01 0.183E+00 0.111E+00
   0.586E+02 0.940E+01 0.179E+04   -.596E+02 -.734E+01 -.179E+04   0.816E+00 -.165E+01 0.269E+01   0.188E-01 -.121E+00 -.923E-01
   -.133E+03 -.848E+02 -.339E+03   0.136E+03 0.848E+02 0.339E+03   -.997E+00 0.587E+00 -.892E+00   0.536E-01 -.611E-01 0.526E-01
   -.129E+03 -.267E+03 -.171E+04   0.130E+03 0.272E+03 0.171E+04   0.257E+00 -.352E+01 -.189E+00   0.459E-01 0.188E-01 0.782E-01
   -.278E+03 -.177E+03 0.948E+03   0.281E+03 0.178E+03 -.952E+03   -.618E+00 0.647E-03 0.277E+01   -.233E-01 -.865E-02 0.281E-02
   0.138E+03 -.146E+03 -.114E+04   -.138E+03 0.148E+03 0.114E+04   -.786E+00 -.754E+00 -.554E+00   0.101E+00 -.102E+00 0.942E-01
   -.449E+02 -.523E+02 0.129E+04   0.444E+02 0.531E+02 -.130E+04   0.176E+00 -.559E+00 0.415E+01   -.527E-02 -.459E-01 -.120E-01
   0.241E+03 0.296E+02 -.521E+03   -.245E+03 -.300E+02 0.522E+03   0.105E+01 -.358E+00 -.355E+00   0.479E-02 -.734E-01 -.723E-02
   -.752E+02 -.448E+02 0.189E+04   0.753E+02 0.451E+02 -.190E+04   -.409E+00 -.124E+00 0.290E+01   0.101E+00 0.717E-01 -.326E-01
   0.742E+02 0.369E+02 0.569E+02   -.762E+02 -.374E+02 -.511E+02   0.711E+00 -.347E+00 -.215E+01   0.498E-01 0.139E+00 0.589E-01
   0.162E+02 0.471E+01 -.370E+02   -.909E-12 -.327E-12 0.294E-11   -.167E+02 -.478E+01 0.340E+02   0.750E+00 0.119E+00 0.309E+01

 POSITION                                       TOTAL-FORCE (eV/Angst)
      4.94536      4.44331      2.79952        -0.532259      0.365688      1.768222
      5.43249      4.49565      5.56190        -1.398153      0.672277     -0.269284
      1.48761      0.49754      2.29770         0.307139     -0.880802     -0.135792
      2.42308      9.23251      4.34179        -0.551952      0.682768     -0.377166
      4.94536      1.91264      2.79952        -0.754112     -0.046792      1.845507
      5.43624      1.85807      5.55844        -1.432802     -0.634560     -0.250345
      2.71419      7.95475      1.93513        -0.245535     -0.173032     -1.810469
      2.42308      6.70184      4.34179        -0.910424     -1.089820     -1.246163
      1.51565      3.15691      2.72939        -0.008900      1.106009     -0.242886
      2.02838      3.18940      5.20651         1.479796      0.065840      0.284345
      5.21066      7.83553      1.59268        -0.919627     -0.673552     -0.344421
      4.57649      7.96718      3.93431         0.632931     -0.030514     -0.053373
      3.58940      7.95744      6.25381         0.452586     -0.012780      1.758972
     10.42413      4.52945      3.18670         0.783604      0.455777     -0.877916
     11.08811      4.47044      5.59696        -0.540197      1.610557      0.651917
      6.82932      0.33933      2.18879         0.759510      0.453642      0.572047
      8.11694      9.27274      4.17025        -0.982287      0.130244      0.892486
     10.57359      1.91264      2.79952        -0.858432     -0.342120      1.247629
     10.96285      1.72843      5.48875        -0.793584     -1.657233      0.499913
      7.00676      5.93658      2.30338         0.596575      0.876688     -0.447304
      8.20258      6.62653      4.25080        -1.249159     -0.186355      0.791823
      7.09877      3.17797      2.39204         0.788823      0.171181      1.105609
      7.68244      3.17797      5.47658         1.535177      0.044525     -2.290906
      8.33120      7.97531      1.82128         0.819280     -0.706481     -1.519094
     10.20472      7.96718      3.93431         0.094442      0.017402     -1.952839
     10.84696      7.92224      6.25540         0.406114     -0.103409      1.517640
      0.64474      2.02429      1.24616         0.043229      0.064303     -3.948766
      1.25497      1.56674      4.10795         0.707743     -2.018608      0.544887
      3.77725      6.35595      2.56568         0.667204     -1.368473     -0.809455
      4.30006      6.29607      5.31430         0.823616     -0.934706      1.740168
      1.25497      4.78920      4.10795         0.985251      2.241525     -1.543731
      0.69689      3.01890      6.74543         0.551251     -0.254851      4.327846
      3.77725      9.57841      2.56568         0.402846      1.231393     -0.882207
      4.31915      0.04377      5.33449         0.688198      0.761679      1.412598
      3.48245      3.18501      1.98799        -0.741288      0.344982     -2.522696
      4.14113      3.17797      4.62682        -1.974857     -0.076351     -0.056624
      1.03518      7.96718      3.08454        -2.090674      0.145112     -0.238035
      1.59394      7.95049      5.86561        -0.953150      0.090484      2.268082
      6.10495      1.89389      1.09903         0.028228     -0.075702     -3.371983
      6.88320      1.56674      4.10795         1.489854     -0.838042     -1.101243
      6.96505      1.88643      6.85919         1.094219     -0.803162      3.770260
      9.40548      6.35595      2.56568         1.540902     -1.287333     -1.796393
     10.00605      6.30394      5.31695        -0.437896     -0.459033      2.012772
      6.14023      4.54530      1.12445        -0.153343      0.289351     -3.664640
      6.88320      4.78920      4.10795         1.463158      0.577596     -0.362070
      6.95839      4.46087      6.86420         1.089045      0.789740      3.813072
      9.40548      9.57841      2.56568         2.062239      1.591821     -1.228573
      9.83299      9.48221      5.41342        -0.497379      1.078726      1.883115
      9.19005      3.29201      2.02006        -0.338619      0.188971     -1.923235
      9.76936      3.17797      4.62682        -2.439064     -0.868312      0.568740
      6.80874      8.61420      0.53833        -0.260499      0.202394     -3.688090
      6.66341      7.96718      3.08454        -1.228770     -0.728654      3.678047
    total drift:                                0.167137      0.058310      0.058528

  FREE ENERGIE OF THE ION-ELECTRON SYSTEM (eV)
  free  energy   TOTEN  =      -247.90652544 eV

  energy  without entropy=     -246.93692793  energy(sigma->0) =     -247.42172668