 vasp.5.4.4.18Apr17-6-g9f103f2a35 (build Aug 13 2019 17:33:20) gamma-only

 executed on             LinuxIFC date 2020.05.12  09:43:39

 INCAR:
 POTCAR:    PAW_PBE Ni_pv 06Sep2000
 POTCAR:    PAW_PBE S 06Sep2000
 POTCAR:    PAW_PBE Ni_pv 06Sep2000
   VRHFIN =Ni:

   TITEL  = PAW_PBE Ni_pv 06Sep2000
   POMASS =   58.690; ZVAL   =   16.000    mass and valenz
   ENMAX  =  367.986; ENMIN  =  275.989 eV

 POTCAR:    PAW_PBE S 06Sep2000
   VRHFIN =S : s2p4

   TITEL  = PAW_PBE S 06Sep2000
   POMASS =   32.066; ZVAL   =    6.000    mass and valenz
   ENMAX  =  258.689; ENMIN  =  194.016 eV

 Optimization of the real space projectors (new method)

 maximal supplied QI-value         = 18.90
 optimisation between [QCUT,QGAM] = [ 10.77, 21.73] = [ 32.49,132.25] Ry
 Optimized for a Real-space Cutoff    1.38 Angstroem

   l    n(q)    QCUT    max X(q) W(low)/X(q) W(high)/X(q)  e(spline)
   1      8    10.771     2.836    0.40E-04    0.29E-04    0.12E-06
   1      8    10.771     4.023    0.10E-03    0.48E-04    0.29E-06
   2      8    10.771    73.368    0.42E-03    0.97E-04    0.44E-06
   2      8    10.771    69.010    0.42E-03    0.99E-04    0.45E-06
   0      9    10.771    54.797    0.10E-03    0.56E-04    0.74E-07
   0      9    10.771    24.266    0.89E-04    0.49E-04    0.67E-07
 Optimization of the real space projectors (new method)

 maximal supplied QI-value         = 19.84
 optimisation between [QCUT,QGAM] = [ 10.71, 21.63] = [ 32.15,130.99] Ry
 Optimized for a Real-space Cutoff    1.19 Angstroem

   l    n(q)    QCUT    max X(q) W(low)/X(q) W(high)/X(q)  e(spline)
   0      8    10.715   187.594    0.41E-03    0.53E-04    0.66E-07
   0      8    10.715   164.243    0.41E-03    0.53E-04    0.65E-07
   1      7    10.715    67.533    0.19E-03    0.59E-03    0.68E-07
   1      7    10.715    50.729    0.19E-03    0.58E-03    0.67E-07
  PAW_PBE Ni_pv 06Sep2000               :
  PAW_PBE S 06Sep2000                   :

 POSCAR: Type_048 Type_148
  positions in cartesian coordinates
 exchange correlation table for  LEXCH =        8
   RHO(1)=    0.500       N(1)  =     2000
   RHO(2)=  100.500       N(2)  =     4000

 ion  position               nearest neighbor table
   1  0.256  0.016  0.152-  74 2.25  64 2.26  80 2.26   5 2.32  52 2.36  93 2.36   9 2.48
   2  0.256  0.016  0.481-  75 2.25  65 2.26  81 2.26  53 2.36  94 2.36  10 2.53   6 2.53
   3  0.006  0.266  0.317-  61 2.25  66 2.26  70 2.26  54 2.36  58 2.36   7 2.53  23 2.53
   4  0.015  0.262  0.638-  55 2.11  67 2.14  71 2.16  59 2.20   8 2.32  24 2.47
   5  0.240  0.014  0.073-  80 2.06  60 2.09   1 2.32  93 2.32
   6  0.256  0.016  0.394-  78 2.25  61 2.26  81 2.26  49 2.36  94 2.36   2 2.53  10 2.53
   7  0.006  0.266  0.230-  64 2.25  70 2.26  62 2.26  58 2.36  50 2.36   3 2.53  23 2.53
   8  0.006  0.266  0.558-  65 2.25  71 2.26  63 2.26   4 2.32  59 2.36  51 2.36  24 2.53
   9  0.177  0.220  0.117-  64 2.06  60 2.13  56 2.19  52 2.28   1 2.48
  10  0.190  0.215  0.438-  57 2.25  65 2.26  61 2.26  53 2.36  49 2.36   2 2.53   6 2.53
  11  0.440  0.465  0.273-  82 2.25  50 2.26  54 2.26  62 2.36  66 2.36  19 2.53  15 2.53
  12  0.440  0.465  0.602-  55 2.11  67 2.14  83 2.25  51 2.26  63 2.36  16 2.47  20 2.53
  13  0.756  0.016  0.152-  86 2.25  52 2.26  93 2.26  17 2.35  64 2.36  80 2.36  21 2.48
  14  0.756  0.016  0.481-  87 2.25  53 2.26  94 2.26  65 2.36  81 2.36  22 2.53  18 2.53
  15  0.506  0.266  0.317-  49 2.25  54 2.26  58 2.26  66 2.36  70 2.36  19 2.53  11 2.53
  16  0.515  0.262  0.638-  67 2.11  55 2.14  59 2.16  71 2.20  20 2.32  12 2.47
  17  0.783  0.010  0.072-  90 1.92  80 2.12  60 2.13  93 2.24  13 2.35
  18  0.756  0.016  0.394-  91 2.25  49 2.26  94 2.26  61 2.36  81 2.36  14 2.53  22 2.53
  19  0.506  0.266  0.230-  52 2.25  58 2.26  50 2.26  70 2.36  62 2.36  15 2.53  11 2.53
  20  0.506  0.266  0.558-  53 2.25  59 2.26  51 2.26  16 2.32  71 2.36  63 2.36  12 2.53
  21  0.713  0.222  0.119-  64 2.09  60 2.16  52 2.20  68 2.23  13 2.48
  22  0.690  0.215  0.438-  69 2.25  53 2.26  49 2.26  65 2.36  61 2.36  14 2.53  18 2.53
  23  0.940  0.465  0.273-  95 2.25  62 2.26  66 2.26  50 2.36  54 2.36   7 2.53   3 2.53
  24  0.940  0.465  0.602-  67 2.11  55 2.14  96 2.25  63 2.26  51 2.36   4 2.47   8 2.53
  25  0.256  0.516  0.152-  50 2.25  88 2.26  56 2.26  29 2.33  76 2.36  68 2.36  33 2.53
  26  0.256  0.516  0.481-  51 2.25  89 2.26  57 2.26  77 2.36  69 2.36  34 2.53  30 2.53
  27  0.006  0.766  0.317-  85 2.25  91 2.26  95 2.26  78 2.36  82 2.36  31 2.53  47 2.53
  28  0.015  0.762  0.638-  79 2.11  92 2.14  96 2.16  83 2.20  32 2.32  48 2.47
  29  0.266  0.513  0.073-  72 2.11  84 2.14  56 2.17  68 2.20  25 2.33  33 2.47
  30  0.256  0.516  0.394-  54 2.25  85 2.26  57 2.26  73 2.36  69 2.36  26 2.53  34 2.53
  31  0.006  0.766  0.230-  88 2.25  95 2.26  86 2.26  82 2.36  74 2.36  27 2.53  47 2.53
  32  0.006  0.766  0.558-  89 2.25  96 2.26  87 2.26  28 2.32  83 2.36  75 2.36  48 2.53
  33  0.190  0.715  0.109-  84 2.11  72 2.14  80 2.25  88 2.26  76 2.36  29 2.47  25 2.53
  34  0.190  0.715  0.438-  81 2.25  89 2.26  85 2.26  77 2.36  73 2.36  26 2.53  30 2.53
  35  0.440  0.965  0.273-  58 2.25  74 2.26  78 2.26  86 2.36  91 2.36  43 2.53  39 2.53
  36  0.440  0.965  0.602-  79 2.11  92 2.14  59 2.25  75 2.26  87 2.36  40 2.47  44 2.53
  37  0.756  0.516  0.152-  62 2.25  76 2.26  68 2.26  41 2.33  88 2.36  56 2.36  45 2.53
  38  0.756  0.516  0.481-  63 2.25  77 2.26  69 2.26  89 2.36  57 2.36  46 2.53  42 2.53
  39  0.506  0.766  0.317-  73 2.25  78 2.26  82 2.26  91 2.36  95 2.36  43 2.53  35 2.53
  40  0.515  0.762  0.638-  92 2.11  79 2.14  83 2.16  96 2.20  44 2.32  36 2.47
  41  0.764  0.513  0.073-  84 2.11  72 2.14  68 2.16  56 2.21  37 2.33  45 2.47
  42  0.756  0.516  0.394-  66 2.25  73 2.26  69 2.26  85 2.36  57 2.36  38 2.53  46 2.53
  43  0.506  0.766  0.230-  76 2.25  82 2.26  74 2.26  95 2.36  86 2.36  39 2.53  35 2.53
  44  0.506  0.766  0.558-  77 2.25  83 2.26  75 2.26  40 2.32  96 2.36  87 2.36  36 2.53
  45  0.690  0.715  0.109-  72 2.11  84 2.14  93 2.25  76 2.26  88 2.36  41 2.47  37 2.53
  46  0.690  0.715  0.438-  94 2.25  77 2.26  73 2.26  89 2.36  85 2.36  38 2.53  42 2.53
  47  0.940  0.965  0.273-  70 2.25  86 2.26  91 2.26  74 2.36  78 2.36  31 2.53  27 2.53
  48  0.940  0.965  0.602-  92 2.11  79 2.14  71 2.25  87 2.26  75 2.36  28 2.47  32 2.53
  49  0.468  0.167  0.382-  15 2.25  18 2.26  22 2.26   6 2.36  10 2.36
  50  0.218  0.417  0.218-  25 2.25  11 2.26  19 2.26  23 2.36   7 2.36
  51  0.218  0.417  0.547-  26 2.25  12 2.26  20 2.26  24 2.36   8 2.36
  52  0.468  0.167  0.164-  21 2.20  19 2.25  13 2.26   9 2.28   1 2.36
  53  0.468  0.167  0.493-  20 2.25  22 2.26  14 2.26  10 2.36   2 2.36
  54  0.218  0.417  0.329-  30 2.25  15 2.26  11 2.26   3 2.36  23 2.36
  55  0.218  0.392  0.642-  12 2.11   4 2.11  16 2.14  24 2.14  59 2.78
  56  0.053  0.414  0.109-  29 2.17   9 2.19  41 2.21  25 2.26  37 2.36  84 2.78
  57  0.053  0.414  0.438-  10 2.25  26 2.26  30 2.26  38 2.36  42 2.36
  58  0.303  0.164  0.273-  35 2.25  19 2.26  15 2.26   7 2.36   3 2.36
  59  0.303  0.164  0.602-  16 2.16   4 2.20  36 2.25  20 2.26   8 2.36  55 2.78
  60  0.967  0.152  0.071-   5 2.09  17 2.13   9 2.13  21 2.16  64 2.73
[...]
  82  0.303  0.664  0.273-  11 2.25  43 2.26  39 2.26  31 2.36  27 2.36
  83  0.303  0.664  0.602-  40 2.16  28 2.20  12 2.25  44 2.26  32 2.36  79 2.78
  84  0.968  0.642  0.068-  33 2.11  41 2.11  29 2.14  45 2.14  56 2.78
  85  0.968  0.667  0.382-  27 2.25  30 2.26  34 2.26  42 2.36  46 2.36
  86  0.718  0.917  0.218-  13 2.25  47 2.26  31 2.26  35 2.36  43 2.36
  87  0.718  0.917  0.547-  14 2.25  48 2.26  32 2.26  36 2.36  44 2.36
  88  0.968  0.667  0.164-  31 2.25  25 2.26  33 2.26  37 2.36  45 2.36
  89  0.968  0.667  0.493-  32 2.25  34 2.26  26 2.26  46 2.36  38 2.36
  90  0.705  0.938  0.016-  17 1.92
  91  0.718  0.917  0.329-  18 2.25  27 2.26  47 2.26  39 2.36  35 2.36
  92  0.718  0.892  0.642-  48 2.11  40 2.11  28 2.14  36 2.14  96 2.78
  93  0.553  0.914  0.109-  17 2.24  45 2.25  13 2.26   5 2.32   1 2.36
  94  0.553  0.914  0.438-  46 2.25  14 2.26  18 2.26   2 2.36   6 2.36
  95  0.803  0.664  0.273-  23 2.25  31 2.26  27 2.26  43 2.36  39 2.36
  96  0.803  0.664  0.602-  28 2.16  40 2.20  24 2.25  32 2.26  44 2.36  92 2.78

  LATTYP: Found a simple monoclinic cell.
 ALAT       =    13.8711386352
 B/A-ratio  =     2.1019774055
 C/A-ratio  =     1.3233367991
 COS(beta)  =    -0.9620914447

  Lattice vectors:

 A1 = (  -8.3714133957, -11.0601955134,   0.0000000000)
 A2 = (   0.0000000000,   0.0000000000, -29.1568200000)
 A3 = (  14.6499733957,  11.0601955134,   0.0000000000)

Analysis of symmetry for initial positions (statically):
 Subroutine PRICEL returns:
 Original cell was already a primitive cell.

 Routine SETGRP: Setting up the symmetry group for a
 simple monoclinic supercell.

 Subroutine GETGRP returns: Found  1 space group operations
 (whereof  1 operations were pure point group operations)
 out of a pool of  4 trial point group operations.

The static configuration has the point symmetry C_1 .

Analysis of symmetry for dynamics (positions and initial velocities):
 Subroutine PRICEL returns:
 Original cell was already a primitive cell.

 Routine SETGRP: Setting up the symmetry group for a
 simple monoclinic supercell.

 Subroutine GETGRP returns: Found  1 space group operations
 (whereof  1 operations were pure point group operations)
 out of a pool of  4 trial point group operations.

The dynamic configuration has the point symmetry C_1 .

 Subroutine INISYM returns: Found  1 space group operations
 (whereof  1 operations are pure point group operations),
 and found     1 'primitive' translations

 KPOINTS: gamma-point-only calculation. no periodi

Automatic generation of k-mesh.
Space group operators:
 irot       det(A)        alpha          n_x          n_y          n_z        tau_x        tau_y        tau_z
    1     1.000000     0.000000     1.000000     0.000000     0.000000     0.000000     0.000000     0.000000

 Subroutine IBZKPT returns following result:

 Found      1 irreducible k-points:

 Following reciprocal coordinates:
            Coordinates               Weight
  0.000000  0.000000  0.000000      1.000000

 Following cartesian coordinates:
            Coordinates               Weight
  0.000000  0.000000  0.000000      1.000000

 SYSTEM =  "Millerite NiS"
 POSCAR =  Type_048 Type_148

 Startparameter for this run:
   NWRITE =      2    write-flag & timer
   PREC   = normal    normal or accurate (medium, high low for compatibility)
   ISTART =      0    job   : 0-new  1-cont  2-samecut
   ICHARG =      2    charge: 1-file 2-atom 10-const
   ISPIN  =      1    spin polarized calculation?
   LNONCOLLINEAR =      F non collinear calculations
   LSORBIT =      F    spin-orbit coupling
   INIWAV =      1    electr: 0-lowe 1-rand  2-diag
   LASPH  =      F    aspherical Exc in radial PAW
   METAGGA=      F    non-selfconsistent MetaGGA calc.

 Electronic Relaxation 1
   ENCUT  =  450.0 eV  33.07 Ry    5.75 a.u.  10.86 19.47 50.43*2*pi/ulx,y,z
   ENINI  =  450.0     initial cutoff
[...]
     0.000000000  0.000000000 29.156820000     0.000000000  0.000000000  0.034297293

  length of vectors
     6.278560000 11.256463038 29.156820000     0.162098538  0.090414315  0.034297293

 FORCES acting on ions
    electron-ion (+dipol)            ewald-force                    non-local-force                 convergence-correction
   -.154E+03 0.272E+03 0.426E+04   0.153E+03 -.274E+03 -.425E+04   0.655E+00 0.122E+01 -.168E+00   -.243E-01 0.398E-01 -.126E+01
   -.413E+02 0.256E+03 -.334E+04   0.405E+02 -.257E+03 0.334E+04   0.992E+00 0.487E+00 -.773E+00   0.461E-02 -.317E-01 0.388E+00
   -.420E+02 0.259E+03 0.440E+03   0.411E+02 -.259E+03 -.439E+03   0.925E+00 0.592E+00 -.805E+00   -.606E-02 -.908E-01 -.107E+01
   -.126E+02 0.457E+03 -.728E+04   0.128E+02 -.459E+03 0.728E+04   -.150E+00 0.926E+00 0.602E+00   -.289E-02 -.387E-02 0.702E+00
   -.335E+03 0.125E+03 0.724E+04   0.336E+03 -.123E+03 -.724E+04   0.596E+00 -.171E+01 -.373E+01   0.680E-01 -.465E-01 -.164E+00
   -.414E+02 0.259E+03 -.443E+03   0.405E+02 -.259E+03 0.442E+03   0.967E+00 0.498E+00 0.116E+01   0.360E-02 -.437E-02 -.446E+00
   -.508E+02 0.254E+03 0.330E+04   0.498E+02 -.255E+03 -.330E+04   0.104E+01 0.803E+00 0.147E+01   0.459E-03 -.137E+00 -.138E+01
   -.367E+02 0.276E+03 -.414E+04   0.356E+02 -.276E+03 0.414E+04   0.118E+01 0.807E+00 0.205E+01   0.713E-02 -.209E-01 0.771E+00
   -.354E+03 -.518E+03 0.591E+04   0.357E+03 0.520E+03 -.591E+04   -.210E+01 -.164E+01 0.191E+01   -.195E-01 -.373E+00 -.624E+00
   -.412E+02 -.514E+03 -.189E+04   0.404E+02 0.515E+03 0.189E+04   0.886E+00 -.124E+01 0.467E-01   -.296E-03 -.259E-01 -.217E-01
   -.400E+02 -.521E+03 0.189E+04   0.392E+02 0.521E+03 -.189E+04   0.962E+00 -.984E+00 0.154E+00   0.533E-02 -.826E-01 -.127E+01
   -.291E+02 -.675E+03 -.585E+04   0.290E+02 0.679E+03 0.585E+04   0.217E+00 -.401E+01 -.346E+00   0.762E-02 -.133E+00 0.764E+00
   0.814E+02 0.260E+03 0.427E+04   -.831E+02 -.260E+03 -.426E+04   0.184E+01 0.269E+00 -.387E+00   0.195E-01 0.168E-01 -.102E+01
   -.413E+02 0.256E+03 -.334E+04   0.404E+02 -.257E+03 0.334E+04   0.994E+00 0.494E+00 -.766E+00   0.501E-02 -.235E-01 0.381E+00
   -.406E+02 0.259E+03 0.443E+03   0.397E+02 -.259E+03 -.441E+03   0.101E+01 0.517E+00 -.864E+00   0.270E-02 -.896E-01 -.106E+01
   -.126E+02 0.457E+03 -.728E+04   0.128E+02 -.459E+03 0.728E+04   -.148E+00 0.925E+00 0.602E+00   -.154E-02 -.398E-02 0.708E+00
   0.211E+03 -.739E+01 0.699E+04   -.214E+03 0.951E+01 -.699E+04   0.328E+01 -.158E+01 0.757E+01   -.188E-01 -.197E+00 -.374E+00
   -.412E+02 0.259E+03 -.443E+03   0.403E+02 -.259E+03 0.442E+03   0.962E+00 0.510E+00 0.114E+01   0.546E-02 0.176E-02 -.456E+00
   -.283E+02 0.262E+03 0.333E+04   0.273E+02 -.262E+03 -.333E+04   0.104E+01 0.821E+00 0.196E+01   -.424E-02 -.123E+00 -.135E+01
   -.367E+02 0.276E+03 -.414E+04   0.356E+02 -.276E+03 0.414E+04   0.118E+01 0.810E+00 0.205E+01   0.879E-02 -.205E-01 0.770E+00
   0.283E+03 -.502E+03 0.587E+04   -.288E+03 0.504E+03 -.587E+04   0.343E+01 -.160E+01 0.245E+01   0.600E-01 -.196E+00 -.559E+00
   -.411E+02 -.514E+03 -.189E+04   0.404E+02 0.515E+03 0.189E+04   0.878E+00 -.122E+01 0.667E-01   0.361E-02 -.189E-01 -.273E-01
   -.423E+02 -.522E+03 0.188E+04   0.416E+02 0.523E+03 -.188E+04   0.922E+00 -.901E+00 0.338E+00   -.508E-02 -.884E-01 -.128E+01
   -.291E+02 -.675E+03 -.585E+04   0.290E+02 0.679E+03 0.585E+04   0.215E+00 -.401E+01 -.342E+00   0.741E-02 -.137E+00 0.762E+00
   -.443E+02 0.288E+03 0.418E+04   0.433E+02 -.288E+03 -.418E+04   0.109E+01 0.799E+00 -.176E+01   -.143E-01 -.641E-01 -.890E+00
   -.413E+02 0.256E+03 -.334E+04   0.405E+02 -.256E+03 0.334E+04   0.984E+00 0.494E+00 -.797E+00   0.521E-02 -.439E-01 0.363E+00
   -.413E+02 0.256E+03 0.449E+03   0.404E+02 -.257E+03 -.447E+03   0.968E+00 0.506E+00 -.104E+01   -.200E-02 0.665E-01 -.105E+01
   -.126E+02 0.458E+03 -.728E+04   0.128E+02 -.459E+03 0.728E+04   -.146E+00 0.920E+00 0.606E+00   -.227E-02 0.319E-01 0.707E+00
   -.192E+02 0.566E+03 0.729E+04   0.191E+02 -.567E+03 -.729E+04   0.181E+00 0.131E+00 -.611E+00   -.115E-01 -.245E-02 -.131E+00
   -.413E+02 0.257E+03 -.443E+03   0.404E+02 -.257E+03 0.443E+03   0.974E+00 0.489E+00 0.110E+01   0.427E-02 -.383E-01 -.489E+00
   -.407E+02 0.252E+03 0.334E+04   0.399E+02 -.252E+03 -.334E+04   0.976E+00 0.593E+00 0.985E+00   -.182E-02 0.139E+00 -.136E+01
   -.367E+02 0.276E+03 -.414E+04   0.356E+02 -.277E+03 0.414E+04   0.118E+01 0.809E+00 0.206E+01   0.108E-01 0.606E-01 0.715E+00
   -.445E+02 -.657E+03 0.583E+04   0.444E+02 0.660E+03 -.583E+04   0.103E+00 -.369E+01 0.579E+00   0.179E-01 0.253E+00 -.562E+00
   -.412E+02 -.515E+03 -.189E+04   0.404E+02 0.516E+03 0.189E+04   0.900E+00 -.126E+01 0.191E-01   0.315E-02 0.717E-01 -.450E-01
   -.424E+02 -.510E+03 0.190E+04   0.417E+02 0.511E+03 -.190E+04   0.893E+00 -.122E+01 0.889E-02   0.776E-03 0.123E+00 -.135E+01
   -.291E+02 -.676E+03 -.585E+04   0.290E+02 0.680E+03 0.585E+04   0.217E+00 -.401E+01 -.340E+00   0.353E-02 -.957E-02 0.717E+00
   -.316E+02 0.255E+03 0.417E+04   0.306E+02 -.255E+03 -.416E+04   0.117E+01 0.625E+00 -.179E+01   0.200E-01 -.219E-01 -.960E+00
   -.413E+02 0.256E+03 -.334E+04   0.404E+02 -.256E+03 0.334E+04   0.985E+00 0.483E+00 -.802E+00   0.230E-02 -.448E-01 0.363E+00
   -.414E+02 0.256E+03 0.449E+03   0.405E+02 -.257E+03 -.447E+03   0.999E+00 0.501E+00 -.105E+01   0.407E-02 0.606E-01 -.104E+01
   -.126E+02 0.458E+03 -.728E+04   0.128E+02 -.459E+03 0.728E+04   -.146E+00 0.923E+00 0.607E+00   -.334E-02 0.301E-01 0.703E+00
   -.638E+01 0.528E+03 0.730E+04   0.642E+01 -.529E+03 -.730E+04   0.472E-01 0.496E+00 -.632E+00   0.108E-01 0.453E-01 -.988E-01
   -.412E+02 0.257E+03 -.443E+03   0.404E+02 -.257E+03 0.443E+03   0.962E+00 0.522E+00 0.113E+01   0.208E-02 -.401E-01 -.487E+00
   -.419E+02 0.248E+03 0.335E+04   0.410E+02 -.249E+03 -.335E+04   0.989E+00 0.455E+00 0.105E+01   0.317E-02 0.132E+00 -.138E+01
   -.367E+02 0.276E+03 -.414E+04   0.356E+02 -.277E+03 0.414E+04   0.118E+01 0.804E+00 0.206E+01   0.853E-02 0.592E-01 0.709E+00
   -.128E+02 -.672E+03 0.582E+04   0.126E+02 0.676E+03 -.581E+04   0.186E+00 -.441E+01 0.825E+00   -.170E-01 0.138E+00 -.601E+00
   -.411E+02 -.515E+03 -.189E+04   0.404E+02 0.516E+03 0.189E+04   0.892E+00 -.127E+01 0.227E-01   0.925E-04 0.693E-01 -.438E-01
   -.400E+02 -.508E+03 0.189E+04   0.391E+02 0.509E+03 -.189E+04   0.966E+00 -.127E+01 -.356E-01   0.309E-02 0.116E+00 -.134E+01
   -.291E+02 -.676E+03 -.585E+04   0.290E+02 0.680E+03 0.585E+04   0.217E+00 -.401E+01 -.339E+00   0.704E-02 -.645E-02 0.720E+00
   0.398E+02 -.830E+02 -.871E+02   -.404E+02 0.840E+02 0.852E+02   0.517E+00 -.128E+01 0.254E+01   0.175E-02 0.361E-02 -.237E+00
   0.359E+02 -.866E+02 0.133E+04   -.366E+02 0.875E+02 -.133E+04   0.558E+00 -.119E+01 0.302E+01   -.568E-02 -.390E-01 -.511E+00
   0.391E+02 -.987E+02 -.150E+04   -.399E+02 0.100E+03 0.150E+04   0.784E+00 -.135E+01 0.216E+01   -.303E-02 -.398E-01 0.284E+00
   0.426E+02 -.634E+02 0.159E+04   -.438E+02 0.652E+02 -.159E+04   0.143E+01 -.146E+01 -.230E+01   -.438E-01 -.734E-01 -.413E+00
   0.399E+02 -.806E+02 -.133E+04   -.405E+02 0.817E+02 0.133E+04   0.484E+00 -.129E+01 -.250E+01   0.520E-03 -.116E-01 0.195E+00
   0.396E+02 -.840E+02 0.872E+02   -.402E+02 0.852E+02 -.847E+02   0.593E+00 -.135E+01 -.261E+01   -.339E-02 -.272E-01 -.343E+00
   0.135E+01 -.195E+03 -.280E+04   -.170E+01 0.198E+03 0.281E+04   0.303E+00 -.233E+01 -.435E+01   -.112E-02 -.524E-01 0.258E+00
   0.114E+02 0.240E+03 0.223E+04   -.116E+02 -.243E+03 -.223E+04   0.314E+00 0.244E+01 0.507E+00   -.281E-01 -.369E-01 -.158E+00
   0.396E+02 0.166E+03 -.708E+03   -.404E+02 -.168E+03 0.708E+03   0.722E+00 0.270E+01 0.141E-01   -.554E-02 -.156E-01 -.316E-01
   0.380E+02 0.169E+03 0.708E+03   -.389E+02 -.172E+03 -.707E+03   0.720E+00 0.284E+01 -.271E+00   -.554E-02 -.256E-01 -.491E+00
   0.355E+02 0.238E+03 -.218E+04   -.357E+02 -.241E+03 0.218E+04   0.130E+00 0.206E+01 -.944E-01   0.115E-02 0.367E-01 0.291E+00
   0.980E+01 -.262E+03 0.280E+04   -.989E+01 0.267E+03 -.281E+04   -.323E-01 -.245E+01 0.463E+01   0.112E+00 -.151E+00 -.318E-01
[...]
   0.355E+02 0.238E+03 -.218E+04   -.357E+02 -.241E+03 0.218E+04   0.133E+00 0.206E+01 -.893E-01   0.341E-02 0.185E-01 0.282E+00
   -.263E+01 -.165E+03 0.279E+04   0.240E+01 0.168E+03 -.280E+04   0.284E+00 -.187E+01 0.400E+01   -.531E-01 0.513E-01 -.608E-01
   0.398E+02 -.837E+02 -.866E+02   -.404E+02 0.848E+02 0.847E+02   0.529E+00 -.133E+01 0.249E+01   -.293E-02 -.227E-02 -.200E+00
   0.436E+02 -.816E+02 0.134E+04   -.442E+02 0.827E+02 -.134E+04   0.528E+00 -.139E+01 0.245E+01   0.233E-02 0.551E-01 -.501E+00
   0.391E+02 -.987E+02 -.150E+04   -.399E+02 0.100E+03 0.150E+04   0.779E+00 -.135E+01 0.218E+01   -.194E-03 0.591E-02 0.248E+00
   0.385E+02 -.989E+02 0.150E+04   -.397E+02 0.100E+03 -.150E+04   0.117E+01 -.166E+01 -.235E+01   -.249E-01 -.257E-02 -.397E+00
   0.399E+02 -.807E+02 -.133E+04   -.405E+02 0.818E+02 0.133E+04   0.442E+00 -.131E+01 -.247E+01   -.109E-02 0.390E-01 0.186E+00
   0.909E+02 0.105E+03 0.263E+04   -.907E+02 -.106E+03 -.264E+04   -.193E+01 -.288E+00 -.184E+00   -.284E-01 0.178E-01 0.103E+00
   0.398E+02 -.828E+02 0.891E+02   -.406E+02 0.839E+02 -.866E+02   0.699E+00 -.139E+01 -.258E+01   0.143E-02 0.508E-01 -.385E+00
   0.135E+01 -.195E+03 -.280E+04   -.171E+01 0.198E+03 0.281E+04   0.302E+00 -.234E+01 -.435E+01   0.228E-02 -.400E-02 0.254E+00
   0.554E+02 0.136E+03 0.220E+04   -.576E+02 -.139E+03 -.220E+04   0.212E+01 0.311E+01 -.116E+01   -.802E-01 0.944E-01 -.274E+00
   0.396E+02 0.166E+03 -.707E+03   -.404E+02 -.169E+03 0.707E+03   0.731E+00 0.269E+01 0.456E-01   -.459E-02 0.110E-01 0.897E-02
   0.396E+02 0.164E+03 0.710E+03   -.405E+02 -.167E+03 -.709E+03   0.778E+00 0.283E+01 -.141E+00   0.348E-03 0.528E-02 -.485E+00
   0.355E+02 0.238E+03 -.218E+04   -.357E+02 -.241E+03 0.218E+04   0.132E+00 0.206E+01 -.980E-01   0.266E-02 0.179E-01 0.282E+00
   -.657E+02 0.328E+02 0.257E+01   -.448E-12 0.375E-11 0.455E-12   0.654E+02 -.321E+02 0.164E+02   0.299E+00 -.606E+00 -.189E+02

 POSITION                                       TOTAL-FORCE (eV/Angst)
      1.64370      0.18204      4.44331         0.091646     -0.300173      1.247145
      1.64370      0.18204     14.02172         0.109540      0.122980     -0.345303
      0.59727      2.94708      9.23251         0.074538      0.209525     -0.312726
      0.64209      2.90185     18.60389         0.016447     -0.643893     -0.099176
      1.53912      0.15903      2.12783         1.737225     -0.417110     -0.379989
      1.64370      0.18204     11.49105         0.095875      0.142420      0.323646
      0.59727      2.94708      6.70184         0.082627      0.014625      0.549207
      0.59727      2.94708     16.28025         0.089216      0.236062     -1.039626
      1.57146      2.43763      3.41754         1.156659     -0.084198      0.073774
      1.64370      2.37366     12.75638         0.167346     -0.341867     -0.013150
      3.73655      5.13871      7.96718         0.188569     -0.351782      0.057661
      3.73655      5.13871     17.54559         0.114465      0.030000     -2.122938
      4.78298      0.18204      4.44331         0.159868     -0.059065      1.194511
      4.78298      0.18204     14.02172         0.110147      0.124679     -0.338693
      3.73655      2.94708      9.23251         0.069010      0.186151     -0.332301
      3.78137      2.90185     18.60389         0.017214     -0.643691     -0.100199
      4.94031      0.11264      2.10182        -0.092335      0.334417      1.640299
      4.78298      0.18204     11.49105         0.101076      0.142437      0.323719
      3.73655      2.94708      6.70184         0.055047      0.116135      0.591487
      3.73655      2.94708     16.28025         0.088908      0.235912     -1.041068
      4.93989      2.45575      3.46207        -1.609945     -0.085007     -0.091831
      4.78298      2.37366     12.75638         0.174708     -0.341526     -0.019109
      6.87583      5.13871      7.96718         0.208145     -0.328024      0.069377
      6.87583      5.13871     17.54559         0.114397      0.030975     -2.122918
      2.69013      5.71213      4.44331         0.059757      0.322231      0.986982
      2.69013      5.71213     14.02172         0.110862      0.123592     -0.344220
      1.64370      8.47718      9.23251         0.065039      0.162903     -0.345997
      1.68851      8.43195     18.60389         0.016569     -0.644838     -0.097388
      2.74101      5.67183      2.11869        -0.022433     -0.758720      0.230294
      2.69013      5.71213     11.49105         0.095029      0.140670      0.301523
      1.64370      8.47718      6.70184         0.095099      0.146060      0.407766
      1.64370      8.47718     16.28025         0.084293      0.234293     -1.035072
      2.69013      7.90376      3.17797         0.040983      0.192303      2.227238
      2.69013      7.90376     12.75638         0.167409     -0.342408     -0.017057
      4.78298     10.66881      7.96718         0.176214     -0.335287      0.049565
      4.78298     10.66881     17.54559         0.115860      0.030389     -2.121981
      5.82941      5.71213      4.44331         0.125740      0.352878      1.023839
      5.82941      5.71213     14.02172         0.111995      0.124421     -0.342708
      4.78298      8.47718      9.23251         0.080024      0.155271     -0.349138
      4.82779      8.43195     18.60389         0.016215     -0.644509     -0.096411
      5.86700      5.67049      2.11877         0.099228     -0.678804      0.271867
      5.82941      5.71213     11.49105         0.093378      0.143775      0.309723
      4.78298      8.47718      6.70184         0.106653      0.102226      0.414760
      4.78298      8.47718     16.28025         0.085392      0.234704     -1.035015
      5.82941      7.90376      3.17797         0.010080     -0.034016      2.296563
      5.82941      7.90376     12.75638         0.163381     -0.350197     -0.016315
      7.92226     10.66881      7.96718         0.149949     -0.381112      0.039871
      7.92226     10.66881     17.54559         0.115083      0.030001     -2.121451
      3.28961      1.84282     11.14515        -0.122314     -0.263202      0.384806
      2.24318      4.60787      6.35595        -0.152637     -0.328870      0.354534
      2.24318      4.60787     15.93436        -0.084093     -0.082719     -0.255936
      3.28961      1.84282      4.78920         0.127144      0.287414     -0.756126
      3.28961      1.84282     14.36761        -0.113887     -0.217231     -0.402751
      2.24318      4.60787      9.57841        -0.102368     -0.263262     -0.454817
      2.19010      4.33100     18.73148        -0.051169      1.240522      3.793379
      1.19676      4.58218      3.17797         0.009652     -0.663296      0.058735
      1.19676      4.58218     12.75638        -0.120404      0.521676      0.012637
      2.24318      1.81714      7.96718        -0.171532      0.596196     -0.027106
      2.24318      1.81714     17.54559        -0.087747     -0.748608      0.015106
      6.38678      1.67629      2.06726        -0.008296      1.818269     -3.232594
[...]
      3.28961      7.34723      7.96718        -0.144009      0.540561     -0.005836
      3.28961      7.34723     17.54559        -0.086161     -0.749667      0.013772
      7.42170      7.09544      1.99160         0.002060      1.465159     -3.972532
      7.47532      7.37292     11.14515        -0.117168     -0.255293      0.399070
      6.42889     10.13797      6.35595        -0.119855     -0.196983      0.311245
      6.42889     10.13797     15.93436        -0.085029     -0.083022     -0.256984
      7.47532      7.37292      4.78920        -0.103036     -0.155657      0.196074
      7.47532      7.37292     14.36761        -0.115780     -0.211183     -0.395465
      6.38891     10.37488      0.47749        -1.740018     -1.107772     -2.871685
      6.42889     10.13797      9.57841        -0.093732     -0.248026     -0.425782
      6.37580      9.86110     18.73148        -0.051255      1.240277      3.792698
      5.38246     10.11228      3.17797        -0.162591      0.975213     -0.702523
      5.38246     10.11228     12.75638        -0.125328      0.526464      0.012556
      6.42889      7.34723      7.96718        -0.124883      0.557121     -0.006866
      6.42889      7.34723     17.54559        -0.086509     -0.749889      0.012190
    total drift:                                0.007104      0.101738      0.128701

  FREE ENERGIE OF THE ION-ELECTRON SYSTEM (eV)
  free  energy   TOTEN  =      -481.40453738 eV

  energy  without entropy=     -480.13752654  energy(sigma->0) =     -480.77103196