 vasp.5.4.4.18Apr17-6-g9f103f2a35 (build Aug 13 2019 17:33:20) gamma-only

 executed on             LinuxIFC date 2020.05.12  08:23:45

 INCAR:
 POTCAR:    PAW_PBE Ni_pv 06Sep2000
 POTCAR:    PAW_PBE S 06Sep2000
 POTCAR:    PAW_PBE Ni_pv 06Sep2000
   VRHFIN =Ni:

   TITEL  = PAW_PBE Ni_pv 06Sep2000
   POMASS =   58.690; ZVAL   =   16.000    mass and valenz
   ENMAX  =  367.986; ENMIN  =  275.989 eV

 POTCAR:    PAW_PBE S 06Sep2000
   VRHFIN =S : s2p4

   TITEL  = PAW_PBE S 06Sep2000
   POMASS =   32.066; ZVAL   =    6.000    mass and valenz
   ENMAX  =  258.689; ENMIN  =  194.016 eV

 Optimization of the real space projectors (new method)

 maximal supplied QI-value         = 18.90
 optimisation between [QCUT,QGAM] = [ 10.77, 21.73] = [ 32.49,132.25] Ry
 Optimized for a Real-space Cutoff    1.38 Angstroem

   l    n(q)    QCUT    max X(q) W(low)/X(q) W(high)/X(q)  e(spline)
   1      8    10.771     2.836    0.40E-04    0.29E-04    0.12E-06
   1      8    10.771     4.023    0.10E-03    0.48E-04    0.29E-06
   2      8    10.771    73.368    0.42E-03    0.97E-04    0.44E-06
   2      8    10.771    69.010    0.42E-03    0.99E-04    0.45E-06
   0      9    10.771    54.797    0.10E-03    0.56E-04    0.74E-07
   0      9    10.771    24.266    0.89E-04    0.49E-04    0.67E-07
 Optimization of the real space projectors (new method)

 maximal supplied QI-value         = 19.84
 optimisation between [QCUT,QGAM] = [ 10.71, 21.63] = [ 32.15,130.99] Ry
 Optimized for a Real-space Cutoff    1.19 Angstroem

   l    n(q)    QCUT    max X(q) W(low)/X(q) W(high)/X(q)  e(spline)
   0      8    10.715   187.594    0.41E-03    0.53E-04    0.66E-07
   0      8    10.715   164.243    0.41E-03    0.53E-04    0.65E-07
   1      7    10.715    67.533    0.19E-03    0.59E-03    0.68E-07
   1      7    10.715    50.729    0.19E-03    0.58E-03    0.67E-07
  PAW_PBE Ni_pv 06Sep2000               :
  PAW_PBE S 06Sep2000                   :

 POSCAR: Type_048 Type_148
  positions in cartesian coordinates
 exchange correlation table for  LEXCH =        8
   RHO(1)=    0.500       N(1)  =     2000
   RHO(2)=  100.500       N(2)  =     4000

 ion  position               nearest neighbor table
   1  0.256  0.016  0.152-  75 2.25  65 2.26  81 2.26  53 2.36  93 2.36   5 2.43   9 2.53
   2  0.256  0.016  0.481-  76 2.25  66 2.26  82 2.26  54 2.36  94 2.36  10 2.53   6 2.53
   3  0.006  0.266  0.317-  62 2.25  68 2.26  72 2.26  56 2.36  59 2.36   7 2.53  23 2.53
   4  0.964  0.276  0.638-  73 2.05  69 2.05   8 2.33  60 2.49
   5  0.297  0.014  0.070-  91 2.05  49 2.12  93 2.12  61 2.23  81 2.36   1 2.43   9 2.51
   6  0.256  0.016  0.394-  79 2.25  62 2.26  82 2.26  50 2.36  94 2.36   2 2.53  10 2.53
   7  0.006  0.266  0.230-  65 2.25  72 2.26  63 2.26  59 2.36  51 2.36   3 2.53  23 2.53
   8  0.006  0.266  0.558-  66 2.25  73 2.26  64 2.26   4 2.33  60 2.36  52 2.36  24 2.53
   9  0.190  0.215  0.109-  61 2.10  49 2.11  57 2.25  65 2.26  53 2.36   5 2.51   1 2.53
  10  0.190  0.215  0.438-  58 2.25  66 2.26  62 2.26  54 2.36  50 2.36   2 2.53   6 2.53
  11  0.440  0.465  0.273-  83 2.25  51 2.26  56 2.26  63 2.36  68 2.36  19 2.53  15 2.53
  12  0.459  0.474  0.591-  64 2.09  69 2.13  52 2.18  84 2.20  20 2.49
  13  0.756  0.016  0.152-  87 2.25  53 2.26  93 2.26  65 2.36  81 2.36  17 2.53  21 2.53
  14  0.756  0.016  0.481-  88 2.25  54 2.26  94 2.26  66 2.36  82 2.36  22 2.53  18 2.53
  15  0.506  0.266  0.317-  50 2.25  56 2.26  59 2.26  68 2.36  72 2.36  19 2.53  11 2.53
  16  0.549  0.268  0.637-  73 2.06  69 2.07  20 2.31  60 2.35
  17  0.756  0.016  0.066-  91 2.03  61 2.11  49 2.22  93 2.26  81 2.36  21 2.53  13 2.53
  18  0.756  0.016  0.394-  92 2.25  50 2.26  94 2.26  62 2.36  82 2.36  14 2.53  22 2.53
  19  0.506  0.266  0.230-  53 2.25  59 2.26  51 2.26  72 2.36  63 2.36  15 2.53  11 2.53
  20  0.506  0.266  0.558-  54 2.25  60 2.26  52 2.26  16 2.31  73 2.36  64 2.36  12 2.49
  21  0.690  0.215  0.109-  49 2.05  61 2.17  70 2.25  53 2.26  65 2.36  17 2.53  13 2.53
  22  0.690  0.215  0.438-  71 2.25  54 2.26  50 2.26  66 2.36  62 2.36  14 2.53  18 2.53
  23  0.940  0.465  0.273-  95 2.25  63 2.26  68 2.26  51 2.36  56 2.36   7 2.53   3 2.53
  24  0.921  0.476  0.593-  64 2.05  96 2.13  69 2.15  52 2.31   8 2.53
  25  0.256  0.516  0.152-  51 2.25  89 2.26  57 2.26  77 2.36  70 2.36  29 2.42  33 2.48
  26  0.256  0.516  0.481-  52 2.25  90 2.26  58 2.26  78 2.36  71 2.36  34 2.53  30 2.53
  27  0.006  0.766  0.317-  86 2.25  92 2.26  95 2.26  79 2.36  83 2.36  31 2.53  47 2.53
  28  0.049  0.768  0.637-  84 2.06  80 2.07  32 2.31  96 2.35
  29  0.218  0.529  0.070-  55 2.03  85 2.12  57 2.13  67 2.18  25 2.42  70 2.52  33 2.52
  30  0.256  0.516  0.394-  56 2.25  86 2.26  58 2.26  74 2.36  71 2.36  26 2.53  34 2.53
  31  0.006  0.766  0.230-  89 2.25  95 2.26  87 2.26  83 2.36  75 2.36  27 2.53  47 2.53
  32  0.006  0.766  0.558-  90 2.25  96 2.26  88 2.26  28 2.31  84 2.36  76 2.36  48 2.49
  33  0.202  0.720  0.116-  85 2.14  77 2.18  67 2.18  89 2.19  81 2.23  25 2.48  29 2.52
  34  0.190  0.715  0.438-  82 2.25  90 2.26  86 2.26  78 2.36  74 2.36  26 2.53  30 2.53
  35  0.440  0.965  0.273-  59 2.25  75 2.26  79 2.26  87 2.36  92 2.36  43 2.53  39 2.53
  36  0.421  0.976  0.593-  76 2.05  60 2.13  80 2.15  88 2.31  44 2.53
  37  0.756  0.516  0.152-  63 2.25  77 2.26  70 2.26  89 2.36  57 2.36  41 2.39  45 2.48
  38  0.756  0.516  0.481-  64 2.25  78 2.26  71 2.26  90 2.36  58 2.36  46 2.53  42 2.53
  39  0.506  0.766  0.317-  74 2.25  79 2.26  83 2.26  92 2.36  95 2.36  43 2.53  35 2.53
  40  0.464  0.776  0.638-  84 2.05  80 2.05  44 2.33  96 2.49
  41  0.796  0.525  0.071-  55 2.02  85 2.14  57 2.15  67 2.19  37 2.39  70 2.42  45 2.52
  42  0.756  0.516  0.394-  68 2.25  74 2.26  71 2.26  86 2.36  58 2.36  38 2.53  46 2.53
  43  0.506  0.766  0.230-  77 2.25  83 2.26  75 2.26  95 2.36  87 2.36  39 2.53  35 2.53
  44  0.506  0.766  0.558-  78 2.25  84 2.26  76 2.26  40 2.33  96 2.36  88 2.36  36 2.53
  45  0.684  0.719  0.116-  77 2.11  85 2.12  67 2.17  93 2.21  89 2.27  37 2.48  41 2.52
  46  0.690  0.715  0.438-  94 2.25  78 2.26  74 2.26  90 2.36  86 2.36  38 2.53  42 2.53
  47  0.940  0.965  0.273-  72 2.25  87 2.26  92 2.26  75 2.36  79 2.36  31 2.53  27 2.53
  48  0.959  0.974  0.591-  76 2.09  80 2.13  88 2.18  73 2.20  32 2.49
  49  0.464  0.161  0.067-  21 2.05   9 2.11   5 2.12  17 2.22  91 2.55
  50  0.468  0.167  0.382-  15 2.25  18 2.26  22 2.26   6 2.36  10 2.36
  51  0.218  0.417  0.218-  25 2.25  11 2.26  19 2.26  23 2.36   7 2.36
  52  0.218  0.417  0.547-  12 2.18  26 2.25  20 2.26  24 2.31   8 2.36
  53  0.468  0.167  0.164-  19 2.25  13 2.26  21 2.26   1 2.36   9 2.36
  54  0.468  0.167  0.493-  20 2.25  22 2.26  14 2.26  10 2.36   2 2.36
  55  0.021  0.480  0.021-  41 2.02  29 2.03  85 2.63  57 2.66
  56  0.218  0.417  0.329-  30 2.25  15 2.26  11 2.26   3 2.36  23 2.36
  57  0.053  0.414  0.109-  29 2.13  41 2.15   9 2.25  25 2.26  37 2.36  55 2.66
  58  0.053  0.414  0.438-  10 2.25  26 2.26  30 2.26  38 2.36  42 2.36
  59  0.303  0.164  0.273-  35 2.25  19 2.26  15 2.26   7 2.36   3 2.36
  60  0.303  0.164  0.602-  36 2.13  20 2.26  16 2.35   8 2.36   4 2.49
[...]
  82  0.053  0.914  0.438-  34 2.25   2 2.26   6 2.26  14 2.36  18 2.36
  83  0.303  0.664  0.273-  11 2.25  43 2.26  39 2.26  31 2.36  27 2.36
  84  0.303  0.664  0.602-  40 2.05  28 2.06  12 2.20  44 2.26  32 2.36
  85  0.955  0.678  0.071-  29 2.12  45 2.12  41 2.14  33 2.14  55 2.63  89 2.71
  86  0.968  0.667  0.382-  27 2.25  30 2.26  34 2.26  42 2.36  46 2.36
  87  0.718  0.917  0.218-  13 2.25  47 2.26  31 2.26  35 2.36  43 2.36
  88  0.718  0.917  0.547-  48 2.18  14 2.25  32 2.26  36 2.31  44 2.36
  89  0.968  0.667  0.164-  33 2.19  31 2.25  25 2.26  45 2.27  37 2.36  85 2.71
  90  0.968  0.667  0.493-  32 2.25  34 2.26  26 2.26  46 2.36  38 2.36
  91  0.538  0.963  0.022-  17 2.03   5 2.05  49 2.55  93 2.58
  92  0.718  0.917  0.329-  18 2.25  27 2.26  47 2.26  39 2.36  35 2.36
  93  0.553  0.914  0.109-   5 2.12  45 2.21  17 2.26  13 2.26   1 2.36  91 2.58
  94  0.553  0.914  0.438-  46 2.25  14 2.26  18 2.26   2 2.36   6 2.36
  95  0.803  0.664  0.273-  23 2.25  31 2.26  27 2.26  43 2.36  39 2.36
  96  0.803  0.664  0.602-  24 2.13  32 2.26  28 2.35  44 2.36  40 2.49

  LATTYP: Found a simple monoclinic cell.
 ALAT       =    13.8711386352
 B/A-ratio  =     2.1019774055
 C/A-ratio  =     1.3233367991
 COS(beta)  =    -0.9620914447

  Lattice vectors:

 A1 = (  -8.3714133957, -11.0601955134,   0.0000000000)
 A2 = (   0.0000000000,   0.0000000000, -29.1568200000)
 A3 = (  14.6499733957,  11.0601955134,   0.0000000000)

Analysis of symmetry for initial positions (statically):
 Subroutine PRICEL returns:
 Original cell was already a primitive cell.

 Routine SETGRP: Setting up the symmetry group for a
 simple monoclinic supercell.

 Subroutine GETGRP returns: Found  1 space group operations
 (whereof  1 operations were pure point group operations)
 out of a pool of  4 trial point group operations.

The static configuration has the point symmetry C_1 .

Analysis of symmetry for dynamics (positions and initial velocities):
 Subroutine PRICEL returns:
 Original cell was already a primitive cell.

 Routine SETGRP: Setting up the symmetry group for a
 simple monoclinic supercell.

 Subroutine GETGRP returns: Found  1 space group operations
 (whereof  1 operations were pure point group operations)
 out of a pool of  4 trial point group operations.

The dynamic configuration has the point symmetry C_1 .

 Subroutine INISYM returns: Found  1 space group operations
 (whereof  1 operations are pure point group operations),
 and found     1 'primitive' translations

 KPOINTS: gamma-point-only calculation. no periodi

Automatic generation of k-mesh.
Space group operators:
 irot       det(A)        alpha          n_x          n_y          n_z        tau_x        tau_y        tau_z
    1     1.000000     0.000000     1.000000     0.000000     0.000000     0.000000     0.000000     0.000000

 Subroutine IBZKPT returns following result:

 Found      1 irreducible k-points:

 Following reciprocal coordinates:
            Coordinates               Weight
  0.000000  0.000000  0.000000      1.000000

 Following cartesian coordinates:
            Coordinates               Weight
  0.000000  0.000000  0.000000      1.000000

 SYSTEM =  "Millerite NiS"
 POSCAR =  Type_048 Type_148

 Startparameter for this run:
   NWRITE =      2    write-flag & timer
   PREC   = normal    normal or accurate (medium, high low for compatibility)
   ISTART =      0    job   : 0-new  1-cont  2-samecut
   ICHARG =      2    charge: 1-file 2-atom 10-const
   ISPIN  =      1    spin polarized calculation?
   LNONCOLLINEAR =      F non collinear calculations
   LSORBIT =      F    spin-orbit coupling
   INIWAV =      1    electr: 0-lowe 1-rand  2-diag
   LASPH  =      F    aspherical Exc in radial PAW
   METAGGA=      F    non-selfconsistent MetaGGA calc.

 Electronic Relaxation 1
   ENCUT  =  450.0 eV  33.07 Ry    5.75 a.u.  10.86 19.47 50.43*2*pi/ulx,y,z
   ENINI  =  450.0     initial cutoff
   ENAUG  =  703.4 eV  augmentation charge cutoff
[...]
     0.000000000  0.000000000 29.156820000     0.000000000  0.000000000  0.034297293

  length of vectors
     6.278560000 11.256463038 29.156820000     0.162098538  0.090414315  0.034297293

 FORCES acting on ions
    electron-ion (+dipol)            ewald-force                    non-local-force                 convergence-correction
   0.132E+02 0.218E+03 0.406E+04   -.141E+02 -.219E+03 -.406E+04   0.790E+00 0.136E+01 -.143E+01   0.258E-01 0.109E+00 -.736E+00
   -.544E+02 0.245E+03 -.347E+04   0.534E+02 -.246E+03 0.347E+04   0.113E+01 0.682E+00 -.161E+01   -.324E-01 0.750E-01 0.385E+00
   -.412E+02 0.259E+03 0.288E+03   0.403E+02 -.259E+03 -.288E+03   0.962E+00 0.515E+00 -.110E+01   0.176E-01 -.668E-01 0.599E+00
   -.486E+03 0.219E+03 -.738E+04   0.486E+03 -.218E+03 0.737E+04   0.115E+01 -.186E+01 0.419E+01   -.830E-01 0.920E-01 0.109E+00
   0.292E+03 0.346E+03 0.702E+04   -.296E+03 -.349E+03 -.702E+04   0.170E+01 0.325E+01 0.664E+01   0.233E-01 0.538E-01 -.445E+00
   -.423E+02 0.255E+03 -.605E+03   0.414E+02 -.255E+03 0.604E+03   0.954E+00 0.624E+00 0.709E+00   0.137E-01 0.110E+00 0.853E+00
   -.392E+02 0.260E+03 0.320E+04   0.382E+02 -.261E+03 -.320E+04   0.113E+01 0.698E+00 0.122E+01   0.327E-01 0.400E-01 -.268E+00
   -.196E+03 0.251E+03 -.448E+04   0.195E+03 -.251E+03 0.448E+04   0.466E+00 0.564E+00 -.932E-01   -.823E-01 0.577E-01 0.574E+00
   0.214E+02 -.664E+03 0.570E+04   -.213E+02 0.667E+03 -.569E+04   0.445E-01 -.228E+01 0.866E+00   -.340E-02 0.398E-01 -.579E+00
   -.439E+02 -.519E+03 -.206E+04   0.432E+02 0.520E+03 0.205E+04   0.908E+00 -.876E+00 -.421E+00   -.189E-01 -.227E+00 0.639E+00
   -.415E+02 -.498E+03 0.173E+04   0.408E+02 0.499E+03 -.173E+04   0.856E+00 -.131E+01 -.109E+00   0.219E-01 -.489E-01 0.110E+00
   0.305E+03 -.494E+03 -.595E+04   -.310E+03 0.495E+03 0.596E+04   0.304E+01 -.124E+01 -.215E+01   0.560E-01 -.282E-01 0.388E+00
   -.780E+02 0.223E+03 0.410E+04   0.765E+02 -.224E+03 -.410E+04   0.161E+01 0.126E+01 -.161E+01   -.170E-01 0.967E-02 -.750E+00
   -.238E+02 0.258E+03 -.349E+04   0.228E+02 -.258E+03 0.349E+04   0.108E+01 0.863E+00 -.204E+01   0.234E-01 0.902E-01 0.439E+00
   -.414E+02 0.259E+03 0.288E+03   0.405E+02 -.259E+03 -.288E+03   0.969E+00 0.518E+00 -.110E+01   -.498E-02 -.798E-01 0.622E+00
   0.456E+03 0.275E+03 -.736E+04   -.458E+03 -.273E+03 0.736E+04   0.463E+00 -.209E+01 0.311E+01   0.183E+00 0.987E-01 0.128E+00
   -.298E+03 0.319E+03 0.704E+04   0.301E+03 -.324E+03 -.705E+04   -.121E+01 0.393E+01 0.792E+01   -.144E-01 -.440E-01 -.483E+00
   -.403E+02 0.256E+03 -.607E+03   0.394E+02 -.256E+03 0.605E+03   0.977E+00 0.559E+00 0.726E+00   -.732E-02 0.139E+00 0.867E+00
   -.436E+02 0.257E+03 0.320E+04   0.427E+02 -.258E+03 -.320E+04   0.967E+00 0.502E+00 0.920E+00   -.242E-01 0.299E-01 -.263E+00
   0.118E+03 0.292E+03 -.448E+04   -.120E+03 -.292E+03 0.448E+04   0.189E+01 0.566E+00 -.227E+00   0.831E-01 0.751E-01 0.478E+00
   -.832E+02 -.694E+03 0.571E+04   0.838E+02 0.698E+03 -.571E+04   -.185E-01 -.373E+01 -.269E+00   -.489E-03 -.534E-03 -.612E+00
   -.384E+02 -.515E+03 -.205E+04   0.376E+02 0.515E+03 0.205E+04   0.978E+00 -.950E+00 -.339E+00   0.134E-01 -.168E+00 0.655E+00
   -.408E+02 -.499E+03 0.173E+04   0.400E+02 0.500E+03 -.173E+04   0.927E+00 -.125E+01 0.358E-01   0.289E-02 -.905E-01 0.106E+00
   -.382E+03 -.526E+03 -.602E+04   0.387E+03 0.528E+03 0.602E+04   -.288E+01 -.193E+01 -.221E+01   -.520E-01 -.128E+00 0.399E+00
   -.100E+03 0.392E+03 0.408E+04   0.989E+02 -.394E+03 -.408E+04   0.137E+01 0.215E+01 -.129E+01   -.196E-01 -.184E-01 -.698E+00
   -.238E+02 0.259E+03 -.349E+04   0.228E+02 -.260E+03 0.350E+04   0.108E+01 0.866E+00 -.204E+01   -.548E-02 -.320E-01 0.729E+00
   -.411E+02 0.256E+03 0.272E+03   0.403E+02 -.256E+03 -.272E+03   0.954E+00 0.472E+00 -.110E+01   0.596E-02 -.226E-01 0.700E+00
   0.456E+03 0.275E+03 -.736E+04   -.458E+03 -.274E+03 0.736E+04   0.465E+00 -.209E+01 0.311E+01   0.108E+00 -.546E-02 0.110E+00
   -.394E+03 0.337E+03 0.706E+04   0.399E+03 -.340E+03 -.707E+04   -.298E+01 0.278E+01 0.759E+01   -.820E-01 0.888E-02 -.369E+00
   -.403E+02 0.260E+03 -.607E+03   0.394E+02 -.260E+03 0.606E+03   0.971E+00 0.564E+00 0.722E+00   0.140E-01 -.108E+00 0.763E+00
   -.387E+02 0.244E+03 0.314E+04   0.377E+02 -.244E+03 -.314E+04   0.103E+01 0.580E+00 0.119E+01   -.869E-02 -.186E+00 -.483E+00
   0.118E+03 0.292E+03 -.448E+04   -.120E+03 -.292E+03 0.448E+04   0.189E+01 0.566E+00 -.232E+00   0.365E-01 0.276E-01 0.518E+00
   -.625E+02 -.633E+03 0.558E+04   0.618E+02 0.637E+03 -.558E+04   0.335E+00 -.390E+01 -.250E-01   0.969E-03 -.139E+00 -.646E+00
   -.384E+02 -.515E+03 -.205E+04   0.376E+02 0.515E+03 0.205E+04   0.978E+00 -.954E+00 -.350E+00   0.554E-02 0.175E+00 0.805E+00
   -.413E+02 -.531E+03 0.172E+04   0.405E+02 0.532E+03 -.172E+04   0.951E+00 -.122E+01 0.653E-01   0.222E-02 0.218E+00 0.281E+00
   -.382E+03 -.526E+03 -.602E+04   0.387E+03 0.528E+03 0.602E+04   -.288E+01 -.193E+01 -.222E+01   -.622E-01 -.344E-01 0.347E+00
   0.267E+02 0.395E+03 0.407E+04   -.277E+02 -.398E+03 -.407E+04   0.937E+00 0.214E+01 -.124E+01   0.324E-01 0.911E-01 -.772E+00
   -.544E+02 0.246E+03 -.347E+04   0.534E+02 -.247E+03 0.347E+04   0.113E+01 0.686E+00 -.161E+01   -.378E-02 -.717E-01 0.717E+00
   -.414E+02 0.256E+03 0.272E+03   0.405E+02 -.256E+03 -.272E+03   0.970E+00 0.496E+00 -.109E+01   0.224E-02 0.445E-01 0.637E+00
   -.486E+03 0.220E+03 -.738E+04   0.486E+03 -.218E+03 0.737E+04   0.115E+01 -.186E+01 0.418E+01   -.894E-01 -.787E-01 0.221E+00
   0.371E+03 0.368E+03 0.704E+04   -.376E+03 -.371E+03 -.705E+04   0.264E+01 0.290E+01 0.777E+01   0.285E-01 0.105E+00 -.365E+00
   -.423E+02 0.259E+03 -.606E+03   0.414E+02 -.260E+03 0.604E+03   0.959E+00 0.628E+00 0.700E+00   -.780E-02 -.121E+00 0.787E+00
   -.413E+02 0.246E+03 0.313E+04   0.402E+02 -.247E+03 -.313E+04   0.118E+01 0.575E+00 0.137E+01   0.207E-01 -.116E+00 -.393E+00
   -.196E+03 0.251E+03 -.448E+04   0.195E+03 -.251E+03 0.448E+04   0.467E+00 0.566E+00 -.936E-01   -.307E-01 -.802E-01 0.520E+00
   0.434E+01 -.608E+03 0.557E+04   -.290E+01 0.612E+03 -.557E+04   -.938E+00 -.350E+01 0.899E+00   0.211E-01 -.141E+00 -.675E+00
   -.439E+02 -.519E+03 -.206E+04   0.432E+02 0.520E+03 0.206E+04   0.911E+00 -.887E+00 -.441E+00   -.139E-01 0.100E+00 0.789E+00
   -.410E+02 -.531E+03 0.173E+04   0.402E+02 0.532E+03 -.173E+04   0.880E+00 -.127E+01 -.642E-01   0.149E-01 0.283E+00 0.259E+00
   0.305E+03 -.494E+03 -.595E+04   -.310E+03 0.496E+03 0.596E+04   0.304E+01 -.125E+01 -.215E+01   -.233E-02 0.135E-01 0.334E+00
   -.353E+01 -.290E+03 0.275E+04   0.311E+01 0.298E+03 -.275E+04   0.426E+00 -.586E+01 0.416E+01   -.339E-01 -.855E-02 -.168E+00
   0.397E+02 -.839E+02 -.148E+03   -.404E+02 0.851E+02 0.146E+03   0.622E+00 -.137E+01 0.272E+01   -.678E-02 -.806E-01 0.321E+00
   0.380E+02 -.704E+02 0.128E+04   -.386E+02 0.717E+02 -.128E+04   0.485E+00 -.148E+01 0.250E+01   -.135E-01 0.301E-01 -.185E+00
   0.556E+02 -.535E+02 -.166E+04   -.571E+02 0.550E+02 0.166E+04   0.131E+01 -.137E+01 0.242E+01   -.177E-01 0.413E-02 0.220E+00
   0.350E+02 -.105E+03 0.145E+04   -.355E+02 0.107E+03 -.145E+04   0.505E+00 -.143E+01 -.208E+01   -.424E-01 0.657E-02 -.258E+00
   0.407E+02 -.886E+02 -.140E+04   -.415E+02 0.896E+02 0.140E+04   0.651E+00 -.123E+01 -.315E+01   0.459E-02 -.272E-01 0.146E+00
   0.275E+01 0.181E+03 0.283E+04   -.278E+01 -.183E+03 -.284E+04   0.109E+00 0.306E+00 0.282E+01   -.225E-01 0.193E-01 -.100E+00
   0.398E+02 -.811E+02 0.273E+02   -.404E+02 0.822E+02 -.253E+02   0.513E+00 -.134E+01 -.254E+01   -.114E-01 -.579E-01 0.195E+00
   0.260E+02 0.293E+03 0.208E+04   -.270E+02 -.297E+03 -.208E+04   0.973E+00 0.298E+01 -.808E+00   -.292E-02 0.320E-01 -.205E+00
   0.381E+02 0.168E+03 -.770E+03   -.389E+02 -.170E+03 0.769E+03   0.690E+00 0.294E+01 0.179E+00   -.331E-01 -.637E-01 0.286E+00
   0.396E+02 0.164E+03 0.651E+03   -.404E+02 -.166E+03 -.652E+03   0.738E+00 0.269E+01 -.299E-01   -.103E-01 0.578E-02 0.101E+00
   0.275E+02 0.874E+02 -.238E+04   -.286E+02 -.894E+02 0.238E+04   0.138E+01 0.405E+01 0.572E+00   -.511E-01 0.731E-01 0.135E+00
[...]
   0.397E+02 0.170E+03 0.641E+03   -.405E+02 -.172E+03 -.641E+03   0.671E+00 0.262E+01 -.368E-02   0.336E-01 -.997E-01 0.452E-01
   0.509E+02 0.306E+03 -.225E+04   -.519E+02 -.309E+03 0.225E+04   0.105E+01 0.148E+01 -.147E+01   0.614E-02 0.939E-02 0.163E+00
   -.566E+01 -.315E+03 0.272E+04   0.521E+01 0.323E+03 -.273E+04   0.489E+00 -.575E+01 0.494E+01   -.689E-01 -.371E-01 -.135E+00
   0.397E+02 -.831E+02 -.150E+03   -.405E+02 0.842E+02 0.148E+03   0.613E+00 -.132E+01 0.268E+01   -.174E-01 0.722E-02 0.323E+00
   0.371E+02 -.973E+02 0.127E+04   -.377E+02 0.985E+02 -.127E+04   0.539E+00 -.157E+01 0.245E+01   -.455E-01 0.590E-01 -.212E+00
   0.555E+02 -.536E+02 -.166E+04   -.571E+02 0.552E+02 0.166E+04   0.131E+01 -.136E+01 0.242E+01   0.617E-01 0.165E-01 0.153E+00
   0.373E+02 -.708E+02 0.143E+04   -.377E+02 0.722E+02 -.142E+04   0.337E+00 -.143E+01 -.173E+01   -.413E-01 -.815E-01 -.340E+00
   0.407E+02 -.885E+02 -.140E+04   -.415E+02 0.895E+02 0.140E+04   0.663E+00 -.122E+01 -.315E+01   -.552E-02 0.371E-02 0.243E+00
   0.173E+02 0.193E+03 0.281E+04   -.175E+02 -.196E+03 -.282E+04   -.204E+00 0.957E+00 0.368E+01   0.212E-01 0.245E-02 -.120E+00
   0.398E+02 -.857E+02 0.250E+02   -.403E+02 0.867E+02 -.232E+02   0.502E+00 -.133E+01 -.256E+01   -.551E-01 0.104E+00 0.350E+00
   0.384E+01 0.220E+03 0.209E+04   -.417E+01 -.222E+03 -.209E+04   0.828E+00 0.265E+01 -.110E+01   0.195E-01 -.493E-01 -.239E+00
   0.381E+02 0.167E+03 -.770E+03   -.389E+02 -.170E+03 0.770E+03   0.678E+00 0.295E+01 0.180E+00   -.208E-01 0.109E+00 0.219E+00
   0.394E+02 0.170E+03 0.641E+03   -.402E+02 -.172E+03 -.641E+03   0.732E+00 0.267E+01 -.547E-01   -.377E-01 -.107E+00 0.427E-01
   0.275E+02 0.875E+02 -.238E+04   -.286E+02 -.895E+02 0.238E+04   0.138E+01 0.405E+01 0.575E+00   0.569E-02 -.319E-01 0.138E+00
   -.706E+02 0.137E+02 -.455E+02   -.995E-13 0.361E-11 -.318E-11   0.705E+02 -.138E+02 0.360E+02   0.137E+00 0.451E-01 0.957E+01

 POSITION                                       TOTAL-FORCE (eV/Angst)
      1.64370      0.18204      4.44331        -0.001507      0.153022      0.481195
      1.64370      0.18204     14.02172         0.146964      0.018881     -0.555839
      0.59727      2.94708      9.23251         0.089926      0.133021     -0.358736
      6.62964      3.05155     18.59972         1.444926     -0.631570      0.329344
      1.89376      0.15876      2.03002        -2.209457     -0.217113      1.220534
      1.64370      0.18204     11.49105         0.075937      0.219389      0.293733
      0.59727      2.94708      6.70184         0.148817      0.168765      0.448761
      0.59727      2.94708     16.28025         0.223108      0.292936     -0.929862
      1.64370      2.37366      3.17797         0.202546      0.084025      2.371172
      1.64370      2.37366     12.75638         0.205567     -0.311681     -0.107273
      3.73655      5.13871      7.96718         0.163167     -0.376293      0.003278
      3.87434      5.24622     17.22769        -1.647231     -0.046552      0.238690
      4.78298      0.18204      4.44331         0.102070      0.106300      0.057317
      4.78298      0.18204     14.02172         0.090266      0.149699     -0.638543
      3.73655      2.94708      9.23251         0.106104      0.133219     -0.361964
      4.01091      2.96640     18.57403        -1.397318     -0.778350      0.406923
      4.78298      0.18204      1.91264         0.942864     -0.338001      2.435180
      4.78298      0.18204     11.49105         0.057959      0.194219      0.303258
      3.73655      2.94708      6.70184         0.095015      0.136264      0.380515
      3.73655      2.94708     16.28025        -0.126544      0.010766     -1.115818
      4.78298      2.37366      3.17797         0.603470      0.063680      2.155482
      4.78298      2.37366     12.75638         0.197231     -0.365608     -0.093357
      6.87583      5.13871      7.96718         0.161555     -0.388121     -0.007944
      6.77632      5.26018     17.29457         1.217763     -0.536975      0.133900
      2.69013      5.71213      4.44331         0.149955     -0.273772      0.495367
      2.69013      5.71213     14.02172         0.091392      0.148629     -0.636932
      1.64370      8.47718      9.23251         0.098183      0.133808     -0.366678
      1.91805      8.49650     18.57403        -1.394923     -0.778291      0.407143
      2.47423      5.84736      2.04170         2.164885     -0.354783      1.250879
      2.69013      5.71213     11.49105         0.056136      0.188336      0.302645
      1.64370      8.47718      6.70184         0.064680      0.120231      0.491035
      1.64370      8.47718     16.28025        -0.126788      0.010955     -1.117703
      2.77677      7.95846      3.38744        -0.342059     -0.352674      0.465243
      2.69013      7.90376     12.75638         0.198379     -0.364846     -0.095513
      4.78298     10.66881      7.96718         0.162534     -0.386993      0.012336
      4.68346     10.79027     17.29457         1.224754     -0.536175      0.137174
      5.82941      5.71213      4.44331        -0.022223     -0.315136      0.703424
      5.82941      5.71213     14.02172         0.146938      0.018179     -0.555468
      4.78298      8.47718      9.23251         0.079186      0.134350     -0.366154
      4.53679      8.58165     18.59972         1.447364     -0.629577      0.329831
      6.09706      5.81045      2.06935        -2.370157     -0.409704      1.327200
      5.82941      5.71213     11.49105         0.076912      0.217228      0.290882
      4.78298      8.47718      6.70184         0.130545      0.155742      0.561515
      4.78298      8.47718     16.28025         0.224809      0.294183     -0.928577
      5.79725      7.94685      3.37947         0.527878     -0.147784      0.666379
      5.82941      7.90376     12.75638         0.205144     -0.310554     -0.110756
      7.92226     10.66881      7.96718         0.163828     -0.386373      0.023910
      8.06005     10.77632     17.22769        -1.647486     -0.046608      0.239016
      3.25014      1.78098      1.94897        -0.029811      1.849594     -3.206496
      3.28961      1.84282     11.14515        -0.120093     -0.272756      0.467287
      2.24318      4.60787      6.35595        -0.115015     -0.224778      0.372855
      2.24318      4.60787     15.93436        -0.167680      0.216682      0.707194
      3.28961      1.84282      4.78920        -0.083249     -0.292828      0.138530
      3.28961      1.84282     14.36761        -0.146286     -0.241318     -0.283805
      1.13444      5.30834      0.61689         0.052196     -1.887596     -4.241045
      2.24318      4.60787      9.57841        -0.086328     -0.259491     -0.411487
      1.19676      4.58218      3.17797        -0.008186     -0.385022      1.330249
      1.19676      4.58218     12.75638        -0.169138      0.612001      0.015104
      2.24318      1.81714      7.96718        -0.134222      0.530000     -0.030489
      2.24318      1.81714     17.54559         0.196226      2.066956      0.962679
[...]
      2.24318     10.11228     12.75638        -0.136646      0.574126      0.130324
      3.28961      7.34723      7.96718        -0.104023      0.566790     -0.011133
      3.28961      7.34723     17.54559         0.105191     -1.382480     -0.506424
      7.41731      7.49479      2.08457        -0.023627      2.403420     -2.558752
      7.47532      7.37292     11.14515        -0.113895     -0.268904      0.460663
      6.42889     10.13797      6.35595        -0.108476     -0.273212      0.334180
      6.42889     10.13797     15.93436        -0.164727      0.217015      0.705722
      7.47532      7.37292      4.78920        -0.163067     -0.099109      1.144423
      7.47532      7.37292     14.36761        -0.143340     -0.241611     -0.283994
      5.39578     10.64964      0.65011        -0.336221     -2.142780     -4.120139
      6.42889     10.13797      9.57841        -0.092560     -0.251293     -0.406891
      5.38246     10.11228      3.17797         0.520875     -0.051498      1.490937
      5.38246     10.11228     12.75638        -0.171577      0.616707      0.015040
      6.42889      7.34723      7.96718        -0.141039      0.543889     -0.035324
      6.42889      7.34723     17.54559         0.196101      2.066245      0.960155
    total drift:                               -0.030690      0.014514      0.076274

  FREE ENERGIE OF THE ION-ELECTRON SYSTEM (eV)
  free  energy   TOTEN  =      -478.55899156 eV

  energy  without entropy=     -477.29391633  energy(sigma->0) =     -477.92645395