 vasp.5.4.4.18Apr17-6-g9f103f2a35 (build Aug 13 2019 17:33:20) gamma-only

 executed on             LinuxIFC date 2020.05.11  18:18:29

 INCAR:
 POTCAR:    PAW_PBE Ni_pv 06Sep2000
 POTCAR:    PAW_PBE S 06Sep2000
 POTCAR:    PAW_PBE Ni_pv 06Sep2000
   VRHFIN =Ni:

   TITEL  = PAW_PBE Ni_pv 06Sep2000
   POMASS =   58.690; ZVAL   =   16.000    mass and valenz
   ENMAX  =  367.986; ENMIN  =  275.989 eV

 POTCAR:    PAW_PBE S 06Sep2000
   VRHFIN =S : s2p4

   TITEL  = PAW_PBE S 06Sep2000
   POMASS =   32.066; ZVAL   =    6.000    mass and valenz
   ENMAX  =  258.689; ENMIN  =  194.016 eV

 Optimization of the real space projectors (new method)

 maximal supplied QI-value         = 18.90
 optimisation between [QCUT,QGAM] = [ 10.77, 21.73] = [ 32.49,132.25] Ry
 Optimized for a Real-space Cutoff    1.38 Angstroem

   l    n(q)    QCUT    max X(q) W(low)/X(q) W(high)/X(q)  e(spline)
   1      8    10.771     2.836    0.40E-04    0.29E-04    0.12E-06
   1      8    10.771     4.023    0.10E-03    0.48E-04    0.29E-06
   2      8    10.771    73.368    0.42E-03    0.97E-04    0.44E-06
   2      8    10.771    69.010    0.42E-03    0.99E-04    0.45E-06
   0      9    10.771    54.797    0.10E-03    0.56E-04    0.74E-07
   0      9    10.771    24.266    0.89E-04    0.49E-04    0.67E-07
 Optimization of the real space projectors (new method)

 maximal supplied QI-value         = 19.84
 optimisation between [QCUT,QGAM] = [ 10.71, 21.63] = [ 32.15,130.99] Ry
 Optimized for a Real-space Cutoff    1.19 Angstroem

   l    n(q)    QCUT    max X(q) W(low)/X(q) W(high)/X(q)  e(spline)
   0      8    10.715   187.594    0.41E-03    0.53E-04    0.66E-07
   0      8    10.715   164.243    0.41E-03    0.53E-04    0.65E-07
   1      7    10.715    67.533    0.19E-03    0.59E-03    0.68E-07
   1      7    10.715    50.729    0.19E-03    0.58E-03    0.67E-07
  PAW_PBE Ni_pv 06Sep2000               :
  PAW_PBE S 06Sep2000                   :

 POSCAR: Type_036 Type_136
  positions in cartesian coordinates
 exchange correlation table for  LEXCH =        8
   RHO(1)=    0.500       N(1)  =     2000
   RHO(2)=  100.500       N(2)  =     4000

 ion  position               nearest neighbor table
   1  0.780  0.145  0.121-  63 2.08  49 2.08  41 2.13  50 2.36  64 2.36
   2  0.789  0.145  0.281-  42 2.04  64 2.05  50 2.05
   3  0.213  0.678  0.097-  43 2.04  44 2.10  51 2.14   4 2.42  31 2.49  26 2.54  61 2.57
   4  0.297  0.645  0.216-  52 2.11  62 2.11  44 2.25  51 2.26  61 2.26   3 2.42  27 2.53  16 2.53

   5  0.390  0.162  0.120-  45 2.05  46 2.08  53 2.20  67 2.28   6 2.46  29 2.50
   6  0.470  0.145  0.248-  54 2.09  68 2.10  67 2.13  53 2.26  46 2.32   5 2.46  30 2.53  18 2.53

[...]

  13  0.910  0.004  0.117-  63 2.06  56 2.09  64 2.10  38 2.20
  14  0.946  0.011  0.271-  37 2.05  38 2.08  55 2.15  64 2.19
  15  0.413  0.405  0.060-  61 2.08  53 2.09  16 2.37  26 2.50  39 2.56
  16  0.425  0.513  0.191-  62 2.19  53 2.25  39 2.26  61 2.26  40 2.36  15 2.37  17 2.46  27 2.53
                             4 2.53
  17  0.465  0.468  0.334-  54 2.01  62 2.04  40 2.07  16 2.46
  18  0.597  0.013  0.223-  68 2.08  42 2.10  41 2.16  59 2.25  67 2.38  29 2.52   6 2.53  30 2.53

[...]

  28  0.459  0.814  0.337-  68 2.01  52 2.02  40 2.05  27 2.45
  29  0.537  0.138  0.101-  41 2.05  67 2.06  53 2.06   5 2.50  18 2.52
  30  0.597  0.277  0.223-  54 2.08  42 2.11  41 2.18  69 2.25  53 2.26   6 2.53  18 2.53
  31  0.080  0.777  0.127-  71 2.04  43 2.07  56 2.11  32 2.28  44 2.36  55 2.36   3 2.49   7 2.53
                            19 2.53
  32  0.122  0.887  0.244-  72 1.98  55 2.15  71 2.18  31 2.28  44 2.47
  33  0.252  0.277  0.159-  45 2.07  57 2.10  46 2.23  61 2.25  58 2.36  34 2.41   9 2.53  21 2.53

[...]

  37  0.966  0.147  0.367-  10 2.03  14 2.05  25 2.06
  38  0.991  0.145  0.182-  14 2.08  25 2.11  13 2.20  24 2.20   9 2.25  10 2.60
  39  0.474  0.645  0.087-  11 2.01  26 2.02  27 2.26  16 2.26  15 2.56
  40  0.509  0.645  0.278-  28 2.05  17 2.07  11 2.16  12 2.25  27 2.36  16 2.36
  41  0.654  0.144  0.131-  29 2.05   1 2.13  18 2.16  30 2.18  42 2.67
  42  0.669  0.144  0.296-   2 2.04  18 2.10  30 2.11  41 2.67
  43  0.111  0.644  0.032-   3 2.04  19 2.06  31 2.07
  44  0.164  0.645  0.214-  20 2.05   3 2.10   4 2.25  31 2.36  19 2.36  32 2.47
  45  0.282  0.145  0.063-   5 2.05  21 2.06  33 2.07
  46  0.333  0.144  0.234-  34 2.06   5 2.08  21 2.21  33 2.23   6 2.32
  47  0.819  0.645  0.151-  22 2.23  35 2.25   7 2.25  36 2.26  23 2.26
  48  0.836  0.645  0.330-   8 2.02  36 2.08  23 2.08
  49  0.816  0.294  0.035-  22 2.02  24 2.06   1 2.08
  50  0.829  0.314  0.214-   2 2.05  24 2.11  25 2.14  22 2.14  23 2.25   1 2.36
  51  0.312  0.814  0.119-  26 2.03   3 2.14  21 2.25   4 2.26  27 2.26
  52  0.348  0.803  0.290-  28 2.02  27 2.08   4 2.11
  53  0.484  0.314  0.151-  29 2.06  15 2.09   5 2.20  16 2.25  30 2.26   6 2.26
  54  0.525  0.287  0.327-  17 2.01  30 2.08   6 2.09
  55  0.001  0.814  0.246-   8 2.05  32 2.15  14 2.15   7 2.36  31 2.36  56 2.78
  56  0.967  0.821  0.079-   7 2.08  13 2.09  31 2.11  55 2.78
  57  0.140  0.323  0.110-  19 2.10   9 2.10  33 2.10  58 2.78
  58  0.174  0.314  0.278-  20 2.03  34 2.10  10 2.19   9 2.36  33 2.36  72 2.51  57 2.78
  59  0.657  0.814  0.183-  11 2.22  18 2.25  36 2.26  12 2.26  35 2.27  60 2.77
  60  0.692  0.797  0.350-  12 2.03  36 2.03  59 2.77
  61  0.312  0.477  0.119-  26 2.05  15 2.08  33 2.25   4 2.26  16 2.26   3 2.57
  62  0.350  0.507  0.301-  34 2.03  17 2.04   4 2.11  16 2.19
  63  0.816  0.996  0.035-  35 2.02  13 2.06   1 2.08
  64  0.829  0.977  0.214-   2 2.05  13 2.10  35 2.14  14 2.19  36 2.25   1 2.36
  65  0.001  0.477  0.246-  20 2.01   8 2.05  25 2.17   7 2.36  19 2.36  66 2.76
  66  0.968  0.469  0.079-   7 2.08  19 2.09  24 2.10  65 2.76
  67  0.472  0.983  0.157-  29 2.06   6 2.13  27 2.19   5 2.28  18 2.38
  68  0.521  0.991  0.323-  28 2.01  18 2.08   6 2.10
  69  0.657  0.477  0.183-  11 2.19  30 2.25  23 2.26  12 2.26  22 2.29  70 2.77
  70  0.692  0.493  0.350-  12 2.03  23 2.03  69 2.77
  71  0.141  0.961  0.118-  31 2.04  21 2.05   9 2.08  32 2.18
  72  0.174  0.053  0.294-  32 1.98  10 2.11   9 2.15  58 2.51  21 2.58

  LATTYP: Found a simple orthorhombic cell.
 ALAT       =     9.5784100000
 B/A-ratio  =     1.6880763216
 C/A-ratio  =     1.7627867312

  Lattice vectors:

 A1 = (   0.0000000000,   9.5784100000,   0.0000000000)
 A2 = (   0.0000000000,   0.0000000000, -16.1690871197)
 A3 = ( -16.8846940542,   0.0000000000,   0.0000000000)

Analysis of symmetry for initial positions (statically):
 Subroutine PRICEL returns:
 Original cell was already a primitive cell.

 Routine SETGRP: Setting up the symmetry group for a
 simple orthorhombic supercell.

 Subroutine GETGRP returns: Found  1 space group operations
 (whereof  1 operations were pure point group operations)
 out of a pool of  8 trial point group operations.

The static configuration has the point symmetry C_1 .

Analysis of symmetry for dynamics (positions and initial velocities):
 Subroutine PRICEL returns:
 Original cell was already a primitive cell.

 Routine SETGRP: Setting up the symmetry group for a
 simple orthorhombic supercell.

 Subroutine GETGRP returns: Found  1 space group operations
 (whereof  1 operations were pure point group operations)
 out of a pool of  8 trial point group operations.

The dynamic configuration has the point symmetry C_1 .

 Subroutine INISYM returns: Found  1 space group operations
 (whereof  1 operations are pure point group operations),
 and found     1 'primitive' translations

 KPOINTS: gamma-point-only calculation. no periodi

Automatic generation of k-mesh.
Space group operators:
 irot       det(A)        alpha          n_x          n_y          n_z        tau_x        tau_y        tau_z
    1     1.000000     0.000000     1.000000     0.000000     0.000000     0.000000     0.000000     0.000000

 Subroutine IBZKPT returns following result:

 Found      1 irreducible k-points:

 Following reciprocal coordinates:
            Coordinates               Weight
  0.000000  0.000000  0.000000      1.000000

 Following cartesian coordinates:
            Coordinates               Weight
  0.000000  0.000000  0.000000      1.000000

 SYSTEM =  "Millerite NiS"
 POSCAR =  Type_036 Type_136

 Startparameter for this run:
   NWRITE =      2    write-flag & timer
   PREC   = normal    normal or accurate (medium, high low for compatibility)
   ISTART =      0    job   : 0-new  1-cont  2-samecut
   ICHARG =      2    charge: 1-file 2-atom 10-const
   ISPIN  =      1    spin polarized calculation?
   LNONCOLLINEAR =      F non collinear calculations
   LSORBIT =      F    spin-orbit coupling
   INIWAV =      1    electr: 0-lowe 1-rand  2-diag
   LASPH  =      F    aspherical Exc in radial PAW
   METAGGA=      F    non-selfconsistent MetaGGA calc.

 Electronic Relaxation 1
   ENCUT  =  450.0 eV  33.07 Ry    5.75 a.u.  29.20 16.57 27.97*2*pi/ulx,y,z
   ENINI  =  450.0     initial cutoff
   ENAUG  =  703.4 eV  augmentation charge cutoff
   NELM   =    100;   NELMIN=  2; NELMDL= -5     # of ELM steps
   EDIFF  = 0.1E-03   stopping-criterion for ELM
   LREAL  =      T    real-space projection
   NLSPLINE    = F    spline interpolate recip. space projectors
   LCOMPAT=      F    compatible to vasp.4.4
   GGA_COMPAT  = T    GGA compatible to vasp.4.4-vasp.4.6
   LMAXPAW     = -100 max onsite density
   LMAXMIX     =    2 max onsite mixed and CHGCAR
   VOSKOWN=      0    Vosko Wilk Nusair interpolation
   ROPT   =   -0.00050  -0.00050
 Ionic relaxation
   EDIFFG = 0.1E-02   stopping-criterion for IOM
   NSW    =      0    number of steps for IOM
   NBLOCK =      1;   KBLOCK =      1    inner block; outer block
   IBRION =     -1    ionic relax: 0-MD 1-quasi-New 2-CG
   NFREE  =      0    steps in history (QN), initial steepest desc. (CG)
   ISIF   =      2    stress and relaxation
   IWAVPR =     10    prediction:  0-non 1-charg 2-wave 3-comb
   ISYM   =      2    0-nonsym 1-usesym 2-fastsym
   LCORR  =      T    Harris-Foulkes like correction to forces

   POTIM  = 0.5000    time-step for ionic-motion
   TEIN   =    0.0    initial temperature
   TEBEG  =    0.0;   TEEND  =   0.0 temperature during run
   SMASS  =  -3.00    Nose mass-parameter (am)
   estimated Nose-frequenzy (Omega)   =  0.10E-29 period in steps =****** mass=  -0.652E-26a.u.
   SCALEE = 1.0000    scale energy and forces
   NPACO  =    256;   APACO  = 16.0  distance and # of slots for P.C.
   PSTRESS=    0.0 pullay stress

  Mass of Ions in am
   POMASS =  58.69 32.07
  Ionic Valenz
   ZVAL   =  16.00  6.00
  Atomic Wigner-Seitz radii
  virtual crystal weights
   VCA    =   1.00  1.00
   NELECT =     792.0000    total number of electrons
   NUPDOWN=      -1.0000    fix difference up-down

 DOS related values:
   EMIN   =  10.00;   EMAX   =-10.00  energy-range for DOS
   EFERMI =   0.00
   ISMEAR =     0;   SIGMA  =   0.20  broadening in eV -4-tet -1-fermi 0-gaus

 Electronic relaxation 2 (details)
   IALGO  =     38    algorithm
   LDIAG  =      T    sub-space diagonalisation (order eigenvalues)
   LSUBROT=      F    optimize rotation matrix (better conditioning)
[...]
  Fock        0.00000     0.00000     0.00000     0.00000     0.00000     0.00000
  Total     116.37679   125.43166   143.82173     3.51228     2.91522     0.53232
  in kB      71.30251    76.85031    88.11766     2.15193     1.78612     0.32615

 VOLUME and BASIS-vectors are now :
  energy-cutoff  :      450.00
  volume of cell :     2615.00
      direct lattice vectors                 reciprocal lattice vectors
    16.884694054  0.000000000  0.000000000     0.059225237  0.000000000  0.000000000
     0.000000000  9.578410000  0.000000000     0.000000000  0.104401461  0.000000000
     0.000000000  0.000000000 16.169087120     0.000000000  0.000000000  0.061846411

  length of vectors
    16.884694054  9.578410000 16.169087120     0.059225237  0.104401461  0.061846411

 FORCES acting on ions
    electron-ion (+dipol)            ewald-force                    non-local-force                 convergence-correction
   0.720E+03 0.856E+01 0.217E+04   -.724E+03 -.849E+01 -.217E+04   0.375E+01 -.841E-01 0.500E+01   0.403E-02 -.221E-02 0.383E-02
   0.341E+03 0.229E+02 -.276E+04   -.348E+03 -.232E+02 0.276E+04   0.706E+01 0.206E+00 0.201E+01   -.221E-02 0.141E-02 -.829E-02
   0.502E+02 -.112E+03 0.276E+04   -.500E+02 0.112E+03 -.277E+04   0.823E+00 -.719E+00 0.704E+01   -.911E-02 -.131E-03 0.120E-03
   0.585E+03 -.222E+03 -.130E+04   -.588E+03 0.222E+03 0.131E+04   0.235E+01 -.404E+00 -.500E+01   -.126E-01 -.285E-02 -.266E-02
   0.318E+02 0.502E+03 0.235E+04   -.328E+02 -.502E+03 -.235E+04   0.194E+01 0.275E+00 0.728E+01   -.202E-02 -.346E-02 0.257E-03
   0.385E+03 0.209E+03 -.191E+04   -.389E+03 -.209E+03 0.192E+04   0.248E+01 -.516E+00 -.725E+01   0.407E-02 0.779E-03 -.121E-02
   0.555E+03 -.515E+01 0.136E+04   -.561E+03 0.510E+01 -.136E+04   0.543E+01 0.111E+00 0.334E+01   0.919E-03 0.150E-02 -.325E-02
   -.536E+02 -.926E+02 -.319E+04   0.509E+02 0.927E+02 0.319E+04   0.329E+01 -.186E+00 0.658E+00   0.513E-02 -.207E-02 -.481E-02
   0.265E+03 -.794E+02 0.855E+03   -.269E+03 0.816E+02 -.860E+03   0.350E+01 -.178E+01 0.449E+01   -.807E-02 -.304E-02 -.382E-02
   -.267E+03 -.312E+02 -.337E+04   0.265E+03 0.303E+02 0.338E+04   0.255E+01 0.161E+01 -.696E+01   0.767E-03 0.560E-02 -.301E-02
   -.481E+03 -.140E+03 0.186E+04   0.484E+03 0.139E+03 -.186E+04   -.314E+01 0.233E+00 0.359E+01   0.582E-02 0.184E-02 -.117E-01
   0.181E+03 -.462E+02 -.220E+04   -.184E+03 0.461E+02 0.221E+04   0.188E+01 0.102E+00 -.655E+01   0.863E-02 -.162E-02 -.104E-01
   -.445E+03 0.219E+03 0.247E+04   0.451E+03 -.221E+03 -.247E+04   -.492E+01 0.317E+01 0.584E+01   -.110E-01 0.160E-02 -.204E-02
   0.855E+02 0.575E+03 -.229E+04   -.852E+02 -.579E+03 0.229E+04   -.130E+01 0.298E+01 -.514E+01   -.533E-02 -.230E-04 -.885E-02
   -.413E+03 0.272E+03 0.384E+04   0.411E+03 -.273E+03 -.384E+04   0.247E+01 0.114E+01 -.182E+01   0.878E-03 0.655E-02 -.861E-02
   -.348E+03 0.231E+03 0.816E+01   0.348E+03 -.233E+03 -.630E+01   0.337E-01 0.237E+01 -.164E+01   0.991E-03 0.746E-02 -.567E-02
   -.139E+03 0.149E+03 -.364E+04   0.141E+03 -.152E+03 0.364E+04   -.219E+01 0.388E+01 0.230E+01   0.351E-02 0.263E-02 0.145E-02
   -.411E+03 0.612E+03 -.608E+03   0.414E+03 -.619E+03 0.609E+03   -.314E+01 0.573E+01 -.195E+01   0.163E-01 -.348E-02 -.433E-02
   -.933E+01 0.566E+03 0.196E+04   0.919E+01 -.571E+03 -.196E+04   0.365E+00 0.485E+01 0.427E+01   -.619E-04 0.607E-02 0.528E-02
   -.218E+03 -.262E+03 -.287E+04   0.218E+03 0.261E+03 0.287E+04   -.720E+00 0.202E+01 0.138E+01   0.178E-02 0.681E-02 -.381E-02
   -.237E+03 0.471E+03 0.874E+03   0.238E+03 -.474E+03 -.876E+03   -.680E+00 0.177E+01 0.334E+01   -.938E-02 -.679E-02 -.771E-03
   0.530E+03 -.435E+03 0.261E+04   -.533E+03 0.437E+03 -.262E+04   0.156E+01 -.179E+01 0.756E+01   0.194E-03 -.140E-02 0.245E-02
   -.138E+03 0.327E+03 -.161E+04   0.140E+03 -.329E+03 0.162E+04   -.174E+01 0.251E+01 -.459E+01   0.116E-02 -.457E-02 -.131E-01
   -.472E+03 -.211E+03 0.250E+04   0.479E+03 0.213E+03 -.250E+04   -.531E+01 -.303E+01 0.569E+01   -.809E-02 -.115E-02 -.273E-03
   0.177E+03 -.531E+03 -.220E+04   -.176E+03 0.534E+03 0.220E+04   -.135E+01 -.271E+01 -.454E+01   -.568E-02 0.352E-02 -.786E-02
   -.138E+03 -.479E+03 0.389E+04   0.137E+03 0.479E+03 -.390E+04   0.472E+00 -.560E+00 0.488E+01   0.670E-03 0.486E-02 0.135E-02
   -.256E+03 -.755E+03 0.390E+03   0.256E+03 0.758E+03 -.391E+03   0.190E+00 -.322E+01 -.398E+00   0.218E-02 -.273E-02 -.152E-01
   0.909E+02 -.305E+03 -.361E+04   -.914E+02 0.309E+03 0.361E+04   0.826E+00 -.351E+01 0.232E+01   0.246E-02 -.385E-02 -.123E-03
   -.475E+03 0.283E+03 0.338E+04   0.477E+03 -.284E+03 -.338E+04   -.169E+01 0.906E+00 0.405E+01   0.104E-01 0.151E-03 -.153E-02
   -.528E+03 -.493E+03 -.636E+03   0.532E+03 0.499E+03 0.638E+03   -.362E+01 -.558E+01 -.281E+01   0.144E-01 0.507E-02 -.348E-02
   0.188E+03 -.391E+03 0.202E+04   -.192E+03 0.392E+03 -.203E+04   0.287E+01 -.166E+01 0.395E+01   0.395E-03 -.459E-03 0.239E-02
   -.269E+03 0.267E+03 -.204E+04   0.270E+03 -.269E+03 0.204E+04   -.109E+01 0.397E+00 -.400E+01   -.496E-02 -.856E-02 -.856E-02
   0.232E+03 -.254E+03 0.120E+04   -.233E+03 0.258E+03 -.120E+04   0.105E+01 -.305E+01 0.317E+01   -.940E-02 0.761E-02 0.205E-02
   0.630E+02 0.168E+03 -.319E+04   -.621E+02 -.165E+03 0.319E+04   -.137E+01 -.371E+01 0.160E+01   -.890E-02 0.235E-02 0.254E-02
   0.551E+03 0.429E+03 0.260E+04   -.554E+03 -.431E+03 -.260E+04   0.164E+01 0.171E+01 0.737E+01   -.181E-02 0.144E-02 0.178E-03
   -.139E+03 -.350E+03 -.162E+04   0.141E+03 0.353E+03 0.162E+04   -.170E+01 -.242E+01 -.453E+01   0.177E-02 0.489E-02 -.182E-01
   0.134E+03 0.551E+02 -.172E+04   -.134E+03 -.554E+02 0.173E+04   -.646E+00 0.748E-01 -.129E+01   -.157E-02 0.156E-02 0.118E-02
   -.206E+03 -.488E+01 0.421E+03   0.207E+03 0.453E+01 -.425E+03   -.113E+00 0.729E+00 0.148E+01   -.114E-02 0.142E-02 -.369E-02
   -.408E+03 -.181E+03 0.135E+04   0.412E+03 0.184E+03 -.135E+04   -.277E+01 -.268E+01 0.246E+01   0.315E-02 0.225E-02 0.797E-03
   -.162E+03 -.498E+02 -.846E+03   0.162E+03 0.497E+02 0.851E+03   0.108E+01 -.134E+00 -.396E+01   0.305E-02 -.282E-03 -.494E-02
   -.127E+03 0.144E+02 0.914E+03   0.127E+03 -.139E+02 -.918E+03   0.401E+00 -.339E+00 0.228E+01   0.869E-02 -.432E-04 0.907E-03
   -.644E+02 0.121E+02 -.119E+04   0.658E+02 -.121E+02 0.119E+04   -.473E+00 0.804E-01 -.323E+01   0.757E-02 0.745E-03 -.286E-02
   0.915E+02 0.428E+02 0.172E+04   -.917E+02 -.431E+02 -.173E+04   0.290E+00 0.271E+00 0.216E+01   -.152E-02 0.159E-02 0.142E-02
   -.638E+02 -.583E+02 -.511E+03   0.638E+02 0.584E+02 0.517E+03   0.537E+00 0.120E+01 -.372E+01   -.395E-02 -.203E-02 0.208E-02
   0.120E+03 0.997E+02 0.159E+04   -.121E+03 -.100E+03 -.160E+04   0.144E+01 0.440E+00 0.221E+01   -.347E-02 -.890E-03 -.282E-02
   -.139E+02 0.287E+03 -.712E+03   0.130E+02 -.290E+03 0.718E+03   0.166E+01 0.170E+01 -.303E+01   -.210E-02 -.304E-03 0.260E-02
   0.166E+02 -.992E+01 0.730E+03   -.159E+02 0.101E+02 -.734E+03   -.156E+00 -.652E-01 0.241E+01   -.378E-02 0.150E-02 -.213E-02
   -.562E+02 -.965E+01 -.142E+04   0.589E+02 0.944E+01 0.142E+04   -.158E+01 0.172E+00 -.254E+01   -.993E-03 -.402E-03 -.329E-02
   0.112E+03 -.932E+02 0.170E+04   -.112E+03 0.944E+02 -.171E+04   -.450E+00 -.349E+00 0.249E+01   -.256E-03 0.870E-04 0.473E-02
   0.105E+03 -.137E+03 -.339E+03   -.105E+03 0.138E+03 0.343E+03   -.671E+00 0.103E+01 -.236E+01   -.350E-02 -.241E-02 -.256E-02
   -.246E+02 -.400E+03 0.812E+03   0.245E+02 0.403E+03 -.815E+03   -.498E+00 -.173E+01 0.230E+01   -.124E-02 -.151E-02 -.542E-03
   0.370E+03 -.268E+03 -.115E+04   -.373E+03 0.272E+03 0.115E+04   0.919E+00 -.203E+01 -.144E+01   -.520E-02 -.907E-03 -.291E-02
   -.232E+03 -.161E+03 0.504E+03   0.234E+03 0.163E+03 -.505E+03   -.164E+01 -.123E+01 0.262E+00   0.402E-02 0.306E-02 0.131E-02
   -.130E+03 0.758E+02 -.143E+04   0.131E+03 -.749E+02 0.143E+04   -.908E-01 -.544E+00 -.187E+01   0.393E-02 -.114E-02 -.981E-03
   0.175E+02 -.329E+02 -.644E+03   -.180E+02 0.337E+02 0.647E+03   0.569E+00 -.618E+00 -.213E+01   0.393E-02 -.164E-02 -.319E-02
   0.954E+02 -.536E+02 0.135E+04   -.970E+02 0.533E+02 -.136E+04   0.117E+01 0.965E+00 0.384E+01   0.574E-03 -.220E-03 0.419E-03
   0.116E+03 0.301E+02 0.112E+04   -.117E+03 -.311E+02 -.113E+04   0.317E+00 0.909E+00 0.317E+01   -.285E-02 0.185E-02 0.805E-03
   -.445E+02 -.529E+02 -.930E+03   0.447E+02 0.565E+02 0.932E+03   -.101E+00 -.306E+01 -.643E+00   -.312E-02 0.637E-02 0.137E-03
   0.912E+02 -.982E+02 0.437E+03   -.935E+02 0.101E+03 -.440E+03   0.168E+01 -.158E+01 0.199E+01   0.638E-02 0.708E-03 -.465E-02
   0.330E+02 -.260E+03 -.151E+04   -.341E+02 0.263E+03 0.152E+04   0.698E+00 -.164E+01 -.122E+01   0.306E-02 0.189E-02 -.210E-02
   0.307E+03 0.177E+03 0.773E+03   -.310E+03 -.179E+03 -.774E+03   0.964E+00 0.897E+00 0.316E+00   -.414E-02 0.270E-02 0.663E-03
   0.235E+03 -.953E+02 -.126E+04   -.236E+03 0.944E+02 0.127E+04   0.181E+00 0.306E+00 -.282E+01   -.604E-02 0.546E-03 -.102E-02
   0.112E+03 0.992E+02 0.170E+04   -.112E+03 -.100E+03 -.171E+04   -.373E+00 0.363E+00 0.262E+01   -.262E-02 -.191E-02 0.539E-02
   0.893E+02 0.143E+03 -.353E+03   -.893E+02 -.144E+03 0.357E+03   -.499E+00 -.908E+00 -.208E+01   -.631E-02 0.128E-02 -.417E-02
   0.720E+02 0.799E+02 -.526E+03   -.730E+02 -.816E+02 0.527E+03   -.231E+00 0.102E+01 -.901E+00   0.474E-02 0.307E-03 -.657E-04
   0.805E+02 0.605E+02 0.134E+04   -.821E+02 -.600E+02 -.135E+04   0.125E+01 -.118E+01 0.370E+01   -.143E-02 -.112E-02 0.489E-04
   0.638E+01 0.311E+03 0.588E+03   -.746E+01 -.313E+03 -.591E+03   0.724E+00 0.706E+00 0.129E+01   0.653E-03 -.490E-02 -.375E-03
   -.768E+02 -.230E+02 -.136E+04   0.777E+02 0.220E+02 0.136E+04   -.868E+00 0.823E+00 -.266E+01   0.327E-02 0.216E-02 -.126E-02
   0.482E+02 0.876E+02 0.431E+03   -.500E+02 -.899E+02 -.434E+03   0.149E+01 0.137E+01 0.166E+01   0.474E-02 -.762E-03 -.286E-02
   0.236E+02 0.250E+03 -.152E+04   -.247E+02 -.253E+03 0.152E+04   0.690E+00 0.154E+01 -.125E+01   0.276E-02 -.262E-02 -.215E-02
   0.600E+02 -.968E+02 0.113E+04   -.604E+02 0.989E+02 -.113E+04   -.186E+00 -.176E+01 0.480E+01   -.393E-02 -.384E-02 0.106E-02
   -.339E+03 0.144E+03 -.127E+04   0.344E+03 -.147E+03 0.128E+04   -.329E+01 0.132E+01 -.239E+01   -.144E-02 -.255E-02 -.118E-02
   -.139E+02 0.286E+01 -.357E+02   -.853E-12 -.199E-12 -.409E-11   0.140E+02 -.287E+01 0.359E+02   -.124E-01 0.243E-01 -.156E+00

 POSITION                                       TOTAL-FORCE (eV/Angst)
     13.17084      1.39171      1.94975         0.386959     -0.015421      0.909669
     13.31900      1.39063      4.53657         0.288374     -0.040174      1.130757
      3.59906      6.49620      1.56117         1.021536     -0.621538     -0.597650
      5.02033      6.18092      3.49202        -0.432857      0.030689     -0.245566
      6.58920      1.55448      1.94744         0.889769     -0.090516     -0.964879
      7.93172      1.39171      4.00611        -1.281341     -0.094497     -0.419833
     16.08224      6.18092      2.46384        -0.503491      0.068896      1.579015
     16.09851      6.17790      4.95069         0.553737     -0.020672      0.862481
      2.10894      1.39171      2.97793        -0.653852      0.413279     -0.349611
      1.25579      1.73703      5.11803         0.710917      0.717160      0.174147
      9.62457      6.16400      2.59329         0.432531      0.075261     -0.491570
     10.84312      6.18092      4.52020        -0.681917      0.052691     -0.916054
     15.36193      0.03773      1.89257         1.026163      0.800147      0.052430
     15.96556      0.10359      4.38614        -0.924923     -0.962785     -0.251218
      6.97433      3.87553      0.96664         0.334636     -0.157270     -0.853482
      7.17375      4.91558      3.08454         0.631240      0.370016      0.208403
      7.84741      4.47979      5.40531         0.003576      0.416245      0.765443
     10.08514      0.12638      3.59863         0.406320     -0.962861     -1.100189
      1.35096      4.91558      2.05636         0.227578     -0.354645      1.519983
      1.91416      4.75059      4.65188         0.087140      0.514529      1.043185
      4.26235      0.12638      2.57045         0.477534     -0.679843      1.293728
     13.08205      4.14797      1.90973        -0.851612      0.890387      0.311156
     12.99653      4.91558      4.11272         0.347806     -0.139296     -1.458966
     15.35985      2.73902      1.88309         0.887141     -0.832033      0.095092
     15.90381      2.68993      4.38313        -0.460260      0.778807     -0.218523
      6.04093      6.19149      0.94174        -0.513495      0.025940     -1.690280
      7.17375      7.44626      3.08454         0.666875      0.002638     -1.381793
      7.74747      7.79208      5.44490         0.405158     -0.233809      0.858490
      9.06065      1.32351      1.62991         0.142146     -0.200096     -1.821073
     10.08514      2.65705      3.59863         0.998524      0.740212     -1.056031
      1.35096      7.44626      2.05636        -0.805684     -1.150924     -0.065684
      2.05546      8.50081      3.94759         0.048512     -0.944849     -0.176787
      4.26235      2.65705      2.57045        -0.099914      0.925937      0.486207
      5.00455      3.04585      4.83327        -0.495788     -0.238863      1.103022
     13.05380      8.22985      1.91643        -0.845175     -0.910002      0.268132
     12.99653      7.44626      4.11272         0.471666      0.183111     -1.458372
     16.31481      1.40578      5.93519        -0.899700     -0.254116      4.308327
     16.74052      1.39171      2.94940         1.675059      0.381455     -2.325879
      8.00634      6.18092      1.40713         1.081352     -0.303455     -2.594312
      8.59001      6.18092      4.49167         1.203150     -0.180405      1.144073
     11.04748      1.38056      2.12326         0.385547      0.133222     -1.621428
     11.28900      1.38116      4.77972         0.920417      0.103483      2.453413
      1.88041      6.17237      0.51560         0.011829     -0.047214     -3.779905
      2.76722      6.18092      3.46349         0.604651      1.298832      1.955236
      4.76684      1.38591      1.01431         0.364333      0.045153     -3.733550
      5.61981      1.37821      3.78440         0.709374     -0.817118      2.315852
     13.82913      6.18092      2.43531         0.582933      0.070687     -1.515473
     14.11918      6.18149      5.32886         1.066947     -0.035700      2.769097
     13.77688      2.81699      0.56505        -0.345685      0.851081     -4.001553
     13.99844      3.00295      3.46826        -0.774895      1.408764      1.695676
      5.26426      7.79215      1.92599        -0.673718      1.877811     -0.462954
      5.87281      7.68807      4.69250        -1.912294      1.793016      2.129021
      8.17565      3.00295      2.44008        -0.217526      1.284874     -0.365442
      8.86313      2.75295      5.28502         0.195116      0.323725      2.757929
      0.02514      7.79215      3.98236         0.044282      0.232826      1.287803
     16.32246      7.86293      1.27110        -0.453959      0.654513     -2.884079
      2.36568      3.09703      1.77366        -0.623192     -0.088810     -2.730708
      2.93654      3.00295      4.49645         0.167238      0.539815      1.221338
     11.08705      7.79215      2.95417        -0.537583      0.823864     -1.038564
     11.68714      7.63514      5.65143        -0.350896      1.652285      3.636277
      5.26426      4.56969      1.92599        -1.641391     -1.087499     -0.403315
      5.91292      4.85667      4.87248        -1.062890     -0.592520      1.771488
     13.78074      9.54189      0.56982        -0.266819     -0.850295     -3.904099
     13.99844      9.35889      3.46826        -0.481829     -1.356123      1.916241
      0.02514      4.56969      3.98236        -1.152813     -0.622820      0.696447
     16.33684      4.49147      1.27988        -0.389503     -0.702215     -2.745336
      7.96577      9.41719      2.54330        -0.354574     -1.306455     -1.145718
      8.79751      9.49499      5.22346         0.063729     -0.203234      2.683102
     11.08705      4.56969      2.95417        -0.334624     -0.960495     -1.077814
     11.68677      4.72646      5.65193        -0.414575     -1.687135      3.586091
      2.38417      9.20384      1.90628        -0.563450      0.349277     -2.260351
      2.93361      0.50583      4.75478         1.480426     -1.084928      3.119290
    total drift:                                0.070194      0.014898      0.038129

  FREE ENERGIE OF THE ION-ELECTRON SYSTEM (eV)
  free  energy   TOTEN  =      -342.27413534 eV

  energy  without entropy=     -341.20842960  energy(sigma->0) =     -341.74128247