 vasp.5.4.4.18Apr17-6-g9f103f2a35 (build Aug 13 2019 17:33:20) gamma-only

 executed on             LinuxIFC date 2020.05.11  23:49:22

 INCAR:
 POTCAR:    PAW_PBE Ni_pv 06Sep2000
 POTCAR:    PAW_PBE S 06Sep2000
 POTCAR:    PAW_PBE Ni_pv 06Sep2000
   VRHFIN =Ni:

   TITEL  = PAW_PBE Ni_pv 06Sep2000
   POMASS =   58.690; ZVAL   =   16.000    mass and valenz
   ENMAX  =  367.986; ENMIN  =  275.989 eV

 POTCAR:    PAW_PBE S 06Sep2000
   VRHFIN =S : s2p4

   TITEL  = PAW_PBE S 06Sep2000
   POMASS =   32.066; ZVAL   =    6.000    mass and valenz
   ENMAX  =  258.689; ENMIN  =  194.016 eV

 Optimization of the real space projectors (new method)

 maximal supplied QI-value         = 18.90
 optimisation between [QCUT,QGAM] = [ 10.77, 21.73] = [ 32.49,132.25] Ry
 Optimized for a Real-space Cutoff    1.38 Angstroem

   l    n(q)    QCUT    max X(q) W(low)/X(q) W(high)/X(q)  e(spline)
   1      8    10.771     2.836    0.40E-04    0.29E-04    0.12E-06
   1      8    10.771     4.023    0.10E-03    0.48E-04    0.29E-06
   2      8    10.771    73.368    0.42E-03    0.97E-04    0.44E-06
   2      8    10.771    69.010    0.42E-03    0.99E-04    0.45E-06
   0      9    10.771    54.797    0.10E-03    0.56E-04    0.74E-07
   0      9    10.771    24.266    0.89E-04    0.49E-04    0.67E-07
 Optimization of the real space projectors (new method)

 maximal supplied QI-value         = 19.84
 optimisation between [QCUT,QGAM] = [ 10.71, 21.63] = [ 32.15,130.99] Ry
 Optimized for a Real-space Cutoff    1.19 Angstroem

   l    n(q)    QCUT    max X(q) W(low)/X(q) W(high)/X(q)  e(spline)
   0      8    10.715   187.594    0.41E-03    0.53E-04    0.66E-07
   0      8    10.715   164.243    0.41E-03    0.53E-04    0.65E-07
   1      7    10.715    67.533    0.19E-03    0.59E-03    0.68E-07
   1      7    10.715    50.729    0.19E-03    0.58E-03    0.67E-07
  PAW_PBE Ni_pv 06Sep2000               :
  PAW_PBE S 06Sep2000                   :

 POSCAR: Type_037 Type_137
  positions in cartesian coordinates
 exchange correlation table for  LEXCH =        8
   RHO(1)=    0.500       N(1)  =     2000
   RHO(2)=  100.500       N(2)  =     4000

 ion  position               nearest neighbor table
   1  0.780  0.145  0.123-  65 2.08  51 2.08  42 2.12  52 2.36  66 2.36
   2  0.790  0.145  0.279-  43 2.04  66 2.05  52 2.05
   3  0.217  0.625  0.100-  44 2.01  45 2.12  63 2.17   4 2.38  53 2.44  15 2.47
   4  0.297  0.645  0.216-  54 2.13  64 2.14  45 2.25  53 2.26  63 2.26   3 2.38  29 2.53  16 2.53

   5  0.391  0.126  0.129-  47 2.04  48 2.15  69 2.16  55 2.33   6 2.38  18 2.52
   6  0.470  0.145  0.247-  56 2.10  70 2.11  55 2.13  48 2.25  69 2.26   5 2.38  31 2.53  19 2.53

   7  0.952  0.645  0.154-  68 2.11  58 2.11  67 2.17  57 2.17  49 2.25  32 2.53  20 2.53
   8  0.172  0.145  0.046-  47 2.01  73 2.05  59 2.05   9 2.45
   9  0.125  0.145  0.185-  73 2.14  59 2.15  39 2.25  10 2.35  60 2.36  74 2.36   8 2.45  34 2.53
                            22 2.53
  10  0.107  0.145  0.325-  38 2.02  74 2.13  60 2.13   9 2.35
  11  0.570  0.647  0.162-  40 2.01  41 2.16  61 2.19  71 2.22  12 2.28
  12  0.642  0.645  0.278-  62 2.03  72 2.03  41 2.25  61 2.26  71 2.26  11 2.28  37 2.53  25 2.53

[...]

  26  0.921  0.357  0.134-  68 2.04  51 2.09  52 2.10  67 2.18  27 2.48  39 2.49
  27  0.945  0.274  0.272-  38 2.05  39 2.08  67 2.15  52 2.21  14 2.47  26 2.48
  28  0.416  0.881  0.064-  69 2.09  53 2.11  29 2.35  15 2.47  40 2.50
  29  0.425  0.777  0.192-  54 2.18  69 2.25  40 2.26  53 2.26  28 2.35  41 2.36  30 2.47   4 2.53
                            16 2.53
  30  0.462  0.818  0.333-  70 2.01  54 2.04  41 2.06  29 2.47
  31  0.597  0.277  0.222-  56 2.08  43 2.12  42 2.17  71 2.25  55 2.32  18 2.52  19 2.53   6 2.53

[...]

  38  0.992  0.145  0.359-  10 2.02  27 2.05  14 2.06
  39  0.991  0.145  0.183-  27 2.08  14 2.08   9 2.25  13 2.48  26 2.49
  40  0.474  0.645  0.091-  11 2.01  15 2.02  16 2.26  29 2.26  28 2.50
  41  0.509  0.645  0.276-  30 2.06  17 2.07  11 2.16  12 2.25  29 2.36  16 2.36
  42  0.655  0.146  0.134-  18 2.05   1 2.12  31 2.17  19 2.18  43 2.66
  43  0.670  0.145  0.293-   2 2.04  19 2.11  31 2.12  42 2.66
  44  0.116  0.646  0.037-   3 2.01  32 2.09  20 2.09  58 2.78  68 2.78
  45  0.164  0.645  0.214-  21 2.10  33 2.10   3 2.12   4 2.25  32 2.36  20 2.36
  46  0.079  0.645  0.361-  33 2.00  21 2.00
  47  0.290  0.148  0.064-   8 2.01   5 2.04  34 2.13  22 2.16
  48  0.336  0.145  0.245-  23 2.04  35 2.04   5 2.15   6 2.25  34 2.36  22 2.36
  49  0.819  0.645  0.153-  36 2.24   7 2.25  24 2.25  25 2.26  37 2.26
  50  0.835  0.645  0.321-  25 2.03  37 2.03
  51  0.833  0.297  0.052-  24 2.02   1 2.08  26 2.09  52 2.72
  52  0.829  0.314  0.215-   2 2.05  26 2.10  24 2.15  27 2.21  25 2.25   1 2.36  51 2.72
  53  0.312  0.814  0.122-  15 2.06  28 2.11  22 2.25   4 2.26  29 2.26   3 2.44
  54  0.347  0.795  0.296-  30 2.04  23 2.05   4 2.13  29 2.18
  55  0.475  0.310  0.161-  18 2.07   6 2.13  16 2.18  31 2.32   5 2.33
  56  0.526  0.288  0.324-  17 2.00  31 2.08   6 2.10  70 2.79
  57  0.991  0.825  0.224-  33 2.10  14 2.15   7 2.17  13 2.18  32 2.21  58 2.72
  58  0.975  0.790  0.062-  13 2.04  32 2.10   7 2.11  57 2.72  68 2.77  44 2.78
  59  0.140  0.322  0.107-   8 2.05  20 2.13  34 2.14   9 2.15
  60  0.174  0.314  0.276-  35 2.04  10 2.13  21 2.13   9 2.36  34 2.36
  61  0.657  0.814  0.184-  11 2.19  19 2.25  37 2.26  12 2.26  36 2.26  62 2.79
  62  0.693  0.795  0.347-  12 2.03  37 2.03  61 2.79
  63  0.312  0.477  0.122-  15 2.04   3 2.17  34 2.25   4 2.26  16 2.26
  64  0.349  0.494  0.294-  35 2.04  17 2.05   4 2.14  16 2.14
  65  0.833  0.994  0.052-  36 2.02   1 2.08  13 2.09  66 2.72
  66  0.829  0.977  0.215-   2 2.05  13 2.10  36 2.14  14 2.21  37 2.25   1 2.36  65 2.72
  67  0.991  0.466  0.224-  21 2.10  27 2.15   7 2.17  26 2.18  20 2.22  68 2.73
  68  0.975  0.501  0.062-  26 2.04  20 2.10   7 2.11  67 2.73  58 2.77  44 2.78
  69  0.484  0.977  0.153-  18 2.07  28 2.09   5 2.16  29 2.25   6 2.26  19 2.26
  70  0.523  0.996  0.322-  30 2.01  19 2.08   6 2.11  56 2.79
  71  0.657  0.477  0.184-  11 2.22  24 2.25  31 2.25  25 2.26  12 2.26  72 2.78
  72  0.693  0.495  0.347-  12 2.03  25 2.03  71 2.78
  73  0.140  0.969  0.107-   8 2.05  32 2.13   9 2.14  22 2.14
  74  0.174  0.977  0.276-  23 2.04  10 2.13  33 2.13   9 2.36  22 2.36

  LATTYP: Found a simple orthorhombic cell.
 ALAT       =     9.5784100000
 B/A-ratio  =     1.7387693453
 C/A-ratio  =     1.7627867312

  Lattice vectors:

 A1 = (   0.0000000000,   9.5784100000,   0.0000000000)
 A2 = (   0.0000000000,   0.0000000000, -16.6546456851)
 A3 = ( -16.8846940542,   0.0000000000,   0.0000000000)

Analysis of symmetry for initial positions (statically):
 Subroutine PRICEL returns:
 Original cell was already a primitive cell.

 Routine SETGRP: Setting up the symmetry group for a
 simple orthorhombic supercell.

 Subroutine GETGRP returns: Found  1 space group operations
 (whereof  1 operations were pure point group operations)
 out of a pool of  8 trial point group operations.

The static configuration has the point symmetry C_1 .

Analysis of symmetry for dynamics (positions and initial velocities):
 Subroutine PRICEL returns:
 Original cell was already a primitive cell.

 Routine SETGRP: Setting up the symmetry group for a
 simple orthorhombic supercell.

 Subroutine GETGRP returns: Found  1 space group operations
 (whereof  1 operations were pure point group operations)
 out of a pool of  8 trial point group operations.

The dynamic configuration has the point symmetry C_1 .

 Subroutine INISYM returns: Found  1 space group operations
 (whereof  1 operations are pure point group operations),
 and found     1 'primitive' translations

 KPOINTS: gamma-point-only calculation. no periodi

Automatic generation of k-mesh.
Space group operators:
 irot       det(A)        alpha          n_x          n_y          n_z        tau_x        tau_y        tau_z
    1     1.000000     0.000000     1.000000     0.000000     0.000000     0.000000     0.000000     0.000000

 Subroutine IBZKPT returns following result:

 Found      1 irreducible k-points:

 Following reciprocal coordinates:
            Coordinates               Weight
  0.000000  0.000000  0.000000      1.000000

 Following cartesian coordinates:
            Coordinates               Weight
  0.000000  0.000000  0.000000      1.000000

 SYSTEM =  "Millerite NiS"
 POSCAR =  Type_037 Type_137

 Startparameter for this run:
   NWRITE =      2    write-flag & timer
   PREC   = normal    normal or accurate (medium, high low for compatibility)
   ISTART =      0    job   : 0-new  1-cont  2-samecut
   ICHARG =      2    charge: 1-file 2-atom 10-const
   ISPIN  =      1    spin polarized calculation?
   LNONCOLLINEAR =      F non collinear calculations
   LSORBIT =      F    spin-orbit coupling
   INIWAV =      1    electr: 0-lowe 1-rand  2-diag
   LASPH  =      F    aspherical Exc in radial PAW
   METAGGA=      F    non-selfconsistent MetaGGA calc.

 Electronic Relaxation 1
   ENCUT  =  450.0 eV  33.07 Ry    5.75 a.u.  29.20 16.57 28.81*2*pi/ulx,y,z
   ENINI  =  450.0     initial cutoff
   ENAUG  =  703.4 eV  augmentation charge cutoff
   NELM   =    100;   NELMIN=  2; NELMDL= -5     # of ELM steps
   EDIFF  = 0.1E-03   stopping-criterion for ELM
   LREAL  =      T    real-space projection
   NLSPLINE    = F    spline interpolate recip. space projectors
   LCOMPAT=      F    compatible to vasp.4.4
   GGA_COMPAT  = T    GGA compatible to vasp.4.4-vasp.4.6
   LMAXPAW     = -100 max onsite density
   LMAXMIX     =    2 max onsite mixed and CHGCAR
   VOSKOWN=      0    Vosko Wilk Nusair interpolation
   ROPT   =   -0.00050  -0.00050
 Ionic relaxation
   EDIFFG = 0.1E-02   stopping-criterion for IOM
   NSW    =      0    number of steps for IOM
   NBLOCK =      1;   KBLOCK =      1    inner block; outer block
   IBRION =     -1    ionic relax: 0-MD 1-quasi-New 2-CG
   NFREE  =      0    steps in history (QN), initial steepest desc. (CG)
   ISIF   =      2    stress and relaxation
   IWAVPR =     10    prediction:  0-non 1-charg 2-wave 3-comb
   ISYM   =      2    0-nonsym 1-usesym 2-fastsym
   LCORR  =      T    Harris-Foulkes like correction to forces

   POTIM  = 0.5000    time-step for ionic-motion
   TEIN   =    0.0    initial temperature
   TEBEG  =    0.0;   TEEND  =   0.0 temperature during run
   SMASS  =  -3.00    Nose mass-parameter (am)
   estimated Nose-frequenzy (Omega)   =  0.10E-29 period in steps =****** mass=  -0.652E-26a.u.
   SCALEE = 1.0000    scale energy and forces
   NPACO  =    256;   APACO  = 16.0  distance and # of slots for P.C.
   PSTRESS=    0.0 pullay stress

  Mass of Ions in am
   POMASS =  58.69 32.07
  Ionic Valenz
   ZVAL   =  16.00  6.00
  Atomic Wigner-Seitz radii
  virtual crystal weights
   VCA    =   1.00  1.00
   NELECT =     814.0000    total number of electrons
   NUPDOWN=      -1.0000    fix difference up-down

 DOS related values:
   EMIN   =  10.00;   EMAX   =-10.00  energy-range for DOS
   EFERMI =   0.00
   ISMEAR =     0;   SIGMA  =   0.20  broadening in eV -4-tet -1-fermi 0-gaus

 Electronic relaxation 2 (details)
[...]
     0.000000000  9.578410000  0.000000000     0.000000000  0.104401461  0.000000000
     0.000000000  0.000000000 16.654645685     0.000000000  0.000000000  0.060043307

  length of vectors
    16.884694054  9.578410000 16.654645685     0.059225237  0.104401461  0.060043307

 FORCES acting on ions
    electron-ion (+dipol)            ewald-force                    non-local-force                 convergence-correction
   0.402E+03 -.384E+01 0.226E+04   -.404E+03 0.390E+01 -.227E+04   0.176E+01 0.478E-01 0.588E+01   0.150E+00 -.105E+00 -.792E-02
   0.245E+03 -.342E+01 -.274E+04   -.251E+03 0.336E+01 0.274E+04   0.647E+01 0.973E-01 0.117E+01   0.318E-01 -.181E-01 0.140E-01
   0.152E+03 0.813E+02 0.284E+04   -.151E+03 -.821E+02 -.285E+04   -.190E+00 0.117E+01 0.715E+01   -.945E-01 -.370E-01 -.115E+00
   0.482E+03 0.579E+02 -.124E+04   -.484E+03 -.583E+02 0.125E+04   0.197E+01 0.494E+00 -.442E+01   0.176E-01 -.112E+00 0.179E-01
   -.222E+03 -.389E+03 0.232E+04   0.224E+03 0.389E+03 -.232E+04   -.147E+01 0.445E+00 0.519E+01   -.148E-01 0.155E-01 -.140E+00
   0.107E+02 -.886E+02 -.187E+04   -.139E+02 0.884E+02 0.188E+04   0.259E+01 0.929E-01 -.737E+01   0.228E-01 0.133E+00 0.197E+00
   0.781E+03 -.141E+01 0.834E+03   -.786E+03 0.140E+01 -.832E+03   0.438E+01 0.338E-01 -.166E+01   0.101E+00 0.140E-01 -.873E-01
   0.523E+03 -.278E+02 0.422E+04   -.527E+03 0.277E+02 -.423E+04   0.329E+01 0.114E+00 0.382E+01   -.205E-01 0.273E-01 -.311E+00
   0.809E+03 -.101E+02 0.324E+03   -.814E+03 0.101E+02 -.322E+03   0.396E+01 0.340E-01 -.955E+00   -.183E+00 0.638E-01 -.154E+00
   0.157E+03 -.440E+01 -.362E+04   -.160E+03 0.437E+01 0.362E+04   0.394E+01 -.649E-01 -.974E+00   -.159E+00 0.697E-01 0.158E+00
   -.640E+03 0.115E+03 0.189E+04   0.643E+03 -.114E+03 -.189E+04   -.289E+01 -.165E+00 0.368E+01   0.383E-01 -.586E-01 0.708E-01
   0.229E+02 0.199E+02 -.225E+04   -.255E+02 -.199E+02 0.226E+04   0.193E+01 0.410E-01 -.629E+01   -.902E-01 -.632E-01 0.137E+00
   -.564E+01 -.178E+03 0.203E+04   0.839E+01 0.180E+03 -.204E+04   -.192E+01 -.103E+01 0.793E+01   -.144E-01 -.267E-01 -.709E-02
   0.277E+03 0.475E+03 -.245E+04   -.276E+03 -.475E+03 0.245E+04   -.230E+01 -.598E+00 -.526E+01   -.124E+00 0.309E-01 -.638E-01
   -.292E+03 0.476E+03 0.404E+04   0.291E+03 -.476E+03 -.404E+04   0.748E+00 0.694E+00 0.524E+01   0.362E-01 -.214E-01 -.191E+00
   -.483E+03 0.611E+03 0.508E+03   0.483E+03 -.615E+03 -.509E+03   -.432E-01 0.341E+01 0.100E+00   0.643E-01 -.458E-01 0.126E+00
   -.293E+03 0.143E+03 -.363E+04   0.295E+03 -.146E+03 0.363E+04   -.219E+01 0.448E+01 0.180E+01   0.698E-01 -.493E-01 0.146E+00
   -.655E+03 -.262E+03 0.349E+04   0.657E+03 0.263E+03 -.349E+04   -.212E+01 -.850E+00 0.414E+01   -.209E-01 0.230E-01 -.869E-01
   -.712E+03 0.516E+03 -.639E+03   0.716E+03 -.523E+03 0.641E+03   -.364E+01 0.542E+01 -.301E+01   0.141E+00 0.145E-01 0.178E+00
   0.189E+03 0.512E+03 0.189E+04   -.188E+03 -.516E+03 -.189E+04   -.508E+00 0.363E+01 0.159E+01   -.187E+00 0.854E-01 -.106E-01
   0.191E+03 0.121E+03 -.274E+04   -.189E+03 -.123E+03 0.275E+04   -.143E+01 0.146E+01 -.559E+01   -.122E+00 -.111E-01 -.713E-01
   0.313E+02 0.540E+03 0.966E+03   -.325E+02 -.543E+03 -.966E+03   0.151E+01 0.300E+01 0.910E+00   0.621E-01 -.383E-01 -.198E+00
   0.115E+02 0.160E+03 -.344E+04   -.115E+02 -.164E+03 0.344E+04   0.112E+00 0.350E+01 0.220E+01   0.782E-01 0.163E-02 0.214E+00
   0.606E+03 -.298E+03 0.264E+04   -.609E+03 0.301E+03 -.265E+04   0.134E+01 -.161E+01 0.590E+01   0.932E-01 -.508E-01 -.455E-01
   -.276E+03 0.312E+03 -.173E+04   0.279E+03 -.315E+03 0.173E+04   -.253E+01 0.267E+01 -.461E+01   -.804E-01 -.764E-01 0.856E-01
   -.145E+00 0.176E+03 0.203E+04   0.277E+01 -.178E+03 -.204E+04   -.188E+01 0.846E+00 0.797E+01   0.111E+00 0.154E-01 0.298E-01
   0.276E+03 -.476E+03 -.244E+04   -.275E+03 0.476E+03 0.245E+04   -.230E+01 0.467E+00 -.531E+01   -.592E-01 -.219E-01 -.136E-01
   -.620E+03 -.271E+03 0.396E+04   0.618E+03 0.271E+03 -.396E+04   0.201E+01 0.149E+00 -.217E+01   -.960E-02 -.398E-01 -.244E+00
   -.510E+03 -.245E+03 0.686E+01   0.511E+03 0.247E+03 -.485E+01   -.575E-01 -.238E+01 -.166E+01   0.385E-01 -.113E+00 -.588E-01
   -.293E+03 -.108E+03 -.376E+04   0.295E+03 0.112E+03 0.376E+04   -.196E+01 -.415E+01 0.252E+01   0.819E-01 -.875E-01 0.187E+00
   -.647E+03 -.594E+03 -.584E+03   0.650E+03 0.600E+03 0.584E+03   -.303E+01 -.573E+01 -.173E+01   0.530E-01 0.889E-01 0.263E+00
   0.123E+03 -.507E+03 0.190E+04   -.122E+03 0.511E+03 -.190E+04   -.681E+00 -.355E+01 0.163E+01   -.237E+00 -.150E+00 -.967E-01
   0.193E+03 -.115E+03 -.273E+04   -.191E+03 0.118E+03 0.274E+04   -.144E+01 -.152E+01 -.570E+01   -.151E+00 -.103E+00 -.531E-01
   -.197E+03 -.627E+03 0.104E+04   0.196E+03 0.631E+03 -.104E+04   0.124E+01 -.350E+01 0.106E+01   0.494E-01 0.123E+00 -.148E+00
   -.269E+02 -.195E+03 -.337E+04   0.266E+02 0.199E+03 0.337E+04   0.386E+00 -.390E+01 0.182E+01   0.127E+00 0.115E+00 0.188E+00
   0.586E+03 0.300E+03 0.264E+04   -.588E+03 -.303E+03 -.265E+04   0.119E+01 0.167E+01 0.603E+01   0.142E+00 0.890E-01 -.103E+00
   -.283E+03 -.307E+03 -.174E+04   0.286E+03 0.310E+03 0.174E+04   -.256E+01 -.265E+01 -.463E+01   -.442E-01 0.109E+00 -.352E-01
   0.165E+03 -.102E+01 -.167E+04   -.165E+03 0.111E+01 0.167E+04   -.919E+00 -.569E-01 -.138E+01   -.814E-01 0.822E-02 -.423E-02
   0.813E+01 -.202E+01 0.442E+03   -.718E+01 0.204E+01 -.448E+03   0.378E+00 0.255E-01 0.307E+01   -.129E+00 -.688E-02 0.127E-01
   -.473E+03 0.181E+03 0.138E+04   0.477E+03 -.183E+03 -.139E+04   -.284E+01 0.281E+01 0.268E+01   -.114E-01 -.212E-01 -.657E-01
   -.228E+03 0.195E+02 -.866E+03   0.228E+03 -.195E+02 0.871E+03   0.927E+00 0.736E-01 -.399E+01   0.331E-01 -.102E+00 0.677E-01
   -.191E+03 -.107E+02 0.935E+03   0.192E+03 0.105E+02 -.939E+03   -.600E+00 0.819E-01 0.243E+01   0.114E+00 -.147E-02 -.810E-03
   -.126E+03 -.296E+01 -.119E+04   0.127E+03 0.296E+01 0.119E+04   -.293E+00 -.274E-01 -.319E+01   0.240E-01 0.216E-01 0.687E-01
   0.108E+03 -.220E+02 0.175E+04   -.107E+03 0.221E+02 -.176E+04   -.791E+00 -.398E-01 0.288E+01   -.527E-01 -.141E-01 -.195E-01
   -.740E+02 -.161E+02 -.412E+03   0.765E+02 0.161E+02 0.414E+03   -.121E+01 0.135E+00 -.921E+00   -.634E-01 -.548E-01 -.280E-01
   0.186E+03 0.115E+01 -.164E+04   -.187E+03 -.107E+01 0.164E+04   0.296E+00 -.123E-01 -.626E+00   -.163E-01 -.470E-01 0.294E-01
   -.214E+03 -.978E+02 0.160E+04   0.215E+03 0.985E+02 -.160E+04   -.229E+00 -.680E+00 0.262E+01   -.268E-01 0.816E-02 -.122E+00
   -.132E+03 -.475E+02 -.645E+03   0.132E+03 0.475E+02 0.650E+03   0.553E+00 -.196E+00 -.445E+01   0.489E-01 0.342E-01 0.388E-01
   0.371E+02 0.430E+01 0.667E+03   -.354E+02 -.442E+01 -.671E+03   -.183E+01 0.387E-01 0.189E+01   0.873E-01 0.428E-01 -.421E-01
   -.342E+03 0.702E+00 -.139E+04   0.346E+03 -.701E+00 0.140E+04   -.205E+01 -.302E-01 -.785E+00   0.146E-01 -.655E-02 0.258E-01
   0.351E+02 0.256E+02 0.163E+04   -.342E+02 -.252E+02 -.164E+04   -.550E+00 -.261E+00 0.324E+01   0.400E-01 -.520E-01 -.411E-01
   0.980E+02 -.572E+02 -.342E+03   -.988E+02 0.566E+02 0.345E+03   -.610E+00 0.128E+01 -.186E+01   0.657E-01 -.615E-01 0.263E-01
   0.236E+03 -.174E+03 0.783E+03   -.239E+03 0.176E+03 -.784E+03   0.121E+01 -.155E+01 0.376E+00   0.199E-01 -.330E-01 -.843E-01
   0.187E+03 0.641E+02 -.122E+04   -.189E+03 -.632E+02 0.122E+04   0.242E+00 -.314E+00 -.254E+01   0.790E-03 -.357E-01 0.660E-01
   -.950E+02 -.304E+03 0.638E+03   0.942E+02 0.306E+03 -.641E+03   0.312E+00 -.868E+00 0.106E+01   -.334E-01 0.806E-01 0.382E-01
   -.208E+03 0.372E+02 -.144E+04   0.209E+03 -.364E+02 0.145E+04   -.768E+00 -.764E+00 -.242E+01   -.750E-02 0.769E-01 0.863E-01
   0.196E+03 0.523E+02 -.547E+03   -.197E+03 -.543E+02 0.551E+03   0.304E+00 0.138E+01 -.219E+01   -.761E-01 -.593E-02 -.724E-01
   0.177E+03 -.682E+02 0.157E+04   -.179E+03 0.692E+02 -.158E+04   0.108E+01 -.298E+00 0.401E+01   -.239E-01 -.170E-01 0.281E-01
   0.230E+03 -.166E+03 0.103E+04   -.231E+03 0.167E+03 -.103E+04   0.245E+00 -.362E+00 0.694E+00   -.454E-01 0.522E-01 -.105E+00
   0.853E+02 -.172E+03 -.924E+03   -.861E+02 0.173E+03 0.925E+03   -.958E-01 -.182E+01 -.951E+00   -.229E-01 0.908E-01 0.548E-01
   0.580E+01 -.923E+02 0.426E+03   -.795E+01 0.946E+02 -.429E+03   0.153E+01 -.136E+01 0.168E+01   0.205E-01 -.293E-01 0.103E-01
   -.340E+02 -.246E+03 -.155E+04   0.329E+02 0.249E+03 0.155E+04   0.871E+00 -.177E+01 -.122E+01   -.465E-01 -.130E-01 0.405E-01
   -.528E+02 0.341E+03 0.885E+03   0.529E+02 -.345E+03 -.888E+03   -.993E+00 0.149E+01 0.282E+01   0.289E-01 0.227E-01 -.429E-01
   0.171E+03 -.392E+02 -.118E+04   -.172E+03 0.384E+02 0.119E+04   0.589E-01 0.278E+00 -.238E+01   0.883E-01 -.181E-01 0.637E-01
   0.328E+02 -.288E+02 0.163E+04   -.319E+02 0.286E+02 -.163E+04   -.528E+00 0.197E+00 0.326E+01   0.275E-01 -.392E-02 0.337E-02
   0.967E+02 0.560E+02 -.342E+03   -.976E+02 -.555E+02 0.346E+03   -.470E+00 -.123E+01 -.188E+01   0.647E-01 0.358E-01 -.327E-01
   0.197E+03 -.512E+02 -.549E+03   -.198E+03 0.532E+02 0.553E+03   0.324E+00 -.137E+01 -.217E+01   -.208E-02 0.160E-01 -.410E-01
   0.179E+03 0.688E+02 0.158E+04   -.181E+03 -.697E+02 -.158E+04   0.115E+01 0.240E+00 0.403E+01   0.170E-01 0.375E-01 0.253E-01
   -.309E+03 0.180E+03 0.530E+03   0.311E+03 -.182E+03 -.531E+03   -.143E+01 0.108E+01 0.183E+00   -.324E-01 -.393E-01 -.302E-01
   -.212E+03 -.419E+02 -.143E+04   0.212E+03 0.412E+02 0.143E+04   -.448E+00 0.490E+00 -.200E+01   0.346E-01 0.299E-01 0.924E-01
   0.385E+02 0.992E+02 0.438E+03   -.408E+02 -.102E+03 -.441E+03   0.160E+01 0.158E+01 0.172E+01   -.359E-01 0.246E-01 0.536E-01
   -.316E+02 0.248E+03 -.154E+04   0.305E+02 -.251E+03 0.155E+04   0.861E+00 0.169E+01 -.125E+01   -.638E-01 -.235E-02 0.358E-01
   0.243E+03 0.183E+03 0.103E+04   -.244E+03 -.183E+03 -.103E+04   0.390E+00 0.179E+00 0.682E+00   -.492E-01 -.281E-01 -.130E+00
   0.956E+02 0.171E+03 -.925E+03   -.963E+02 -.173E+03 0.927E+03   -.847E-02 0.180E+01 -.819E+00   -.102E-01 -.357E-01 0.599E-01
   0.810E+00 -.385E+01 -.186E+02   -.384E-12 0.568E-12 0.534E-11   -.603E+00 0.408E+01 0.187E+02   -.203E+00 -.258E+00 -.166E+00

 POSITION                                       TOTAL-FORCE (eV/Angst)
     13.17084      1.39171      2.05636        -0.071474      0.002584      0.872716
     13.33570      1.39167      4.65119         0.583889      0.014720      0.632254
      3.65902      5.98824      1.65798         0.899746      0.343116     -0.376381
      5.02033      6.18092      3.59863        -0.316192     -0.083458      0.143021
      6.60225      1.20512      2.15105         0.173738      0.324630     -0.443441
      7.93172      1.39171      4.11272        -0.626600      0.025703      0.101015
     16.08224      6.18092      2.57045        -0.931017      0.036670      0.522828
      2.90550      1.39265      0.76738        -0.856188      0.008209     -1.945709
      2.10894      1.39171      3.08454        -0.954673      0.070731      0.403168
      1.79840      1.39104      5.41192         1.218490     -0.028565      0.830945
      9.62546      6.19482      2.70083         0.443776     -0.067546     -0.538232
     10.84312      6.18092      4.62682        -0.747941      0.007749     -0.900965
     15.55421      8.95334      2.22477         0.820394      1.400890      0.267875
     15.95472      0.15598      4.53658        -0.932979     -0.503544     -0.168823
      6.04721      6.16572      1.03858        -0.325333      0.029358     -1.490013
      7.17375      4.91558      3.19116         0.313015     -0.047987     -1.037265
      7.84280      4.46590      5.48657        -0.045351      0.682568      0.920249
      9.07406      1.45740      1.73742        -0.036787      0.090817     -1.697723
     10.08514      0.12638      3.70525         0.980687     -0.901805     -1.087572
      1.35096      4.91558      2.16298         0.405532     -0.044537      0.312133
      1.70374      4.74311      4.66947         0.521568     -1.075056      0.267339
      4.26235      0.12638      2.67707         0.442102     -0.537571      0.657506
      4.90577      9.40815      5.14444         0.194139     -0.162794      0.756756
     13.03780      4.13387      2.02571        -0.926144      0.915029      0.145678
     12.99653      4.91558      4.21934         0.154530     -0.493189     -1.483051
     15.54764      3.41765      2.22340         0.860538     -1.468578      0.235200
     15.95325      2.62743      4.53492        -0.941773      0.532865     -0.194270
      7.01847      8.43831      1.06488         0.293038      0.229728     -0.609987
      7.17375      7.44626      3.19116         0.534943     -0.383192      0.293240
      7.79644      7.83449      5.54663        -0.075857     -0.545464      0.749466
     10.08514      2.65705      3.70525         0.569749      0.923188     -1.144231
      1.35096      7.44626      2.16298         0.673777      0.096927      0.359269
      1.70258      7.61857      4.67240         0.446162      1.112809      0.297783
      4.26235      2.65705      2.67707         0.636979      0.571096      0.905759
      4.90776      2.96224      5.13630         0.225663      0.131620      0.617112
     13.05393      8.21953      2.02276        -0.955679     -0.891684      0.150654
     12.99653      7.44626      4.21934         0.131713      0.496814     -1.533282
     16.74717      1.39325      5.97337        -0.355180      0.036514      3.447665
     16.74052      1.39171      3.05601         1.198120      0.046370     -2.624794
      8.00634      6.18092      1.51374         1.237006      0.311762     -2.629026
      8.59001      6.18092      4.59828         1.138107     -0.029132      1.176297
     11.06072      1.40192      2.22753         0.409077     -0.118402     -1.721365
     11.30658      1.38669      4.87513         0.900049     -0.005184      2.439756
      1.95354      6.18569      0.61120         0.368407      0.055258     -3.321085
      2.76722      6.18092      3.57010         1.235001      0.067160      0.605385
      1.33251      6.17977      6.01127        -0.640962      0.020024      3.174791
      4.89550      1.41608      1.06186         1.439383      0.030939     -3.019009
      5.67861      1.39171      4.08419         0.806117     -0.117377      0.998859
     13.82913      6.18092      2.54192        -0.061157     -0.031099     -1.314025
     14.10182      6.18089      5.35329         2.340032     -0.035110      3.028420
     14.06655      2.84058      0.86412         0.390245      0.010878     -3.878278
     13.99844      3.00295      3.57488        -1.326774      0.634479      1.916956
      5.26426      7.79215      2.03261        -1.635506      1.266045     -0.693560
      5.86485      7.61556      4.92238        -1.038860      0.548133      1.716318
      8.02675      2.97088      2.68078        -0.465847      1.299476     -1.183657
      8.88372      2.75546      5.40175         0.073499      0.156890      2.672726
     16.73256      7.90373      3.72407        -0.053988     -0.635722      2.022141
     16.46848      7.56901      1.03377        -0.336010      0.697395     -3.121736
      2.36965      3.08793      1.78330        -0.726423      0.375490     -1.376384
      2.93654      3.00295      4.60306        -0.861756     -0.038046      0.707827
     11.08705      7.79215      3.06079        -0.599429      0.948205     -1.039914
     11.70180      7.61595      5.77199        -0.306606      1.595263      3.660839
      5.26426      4.56969      2.03261        -0.863493     -1.988235     -0.306792
      5.89630      4.73624      4.90432        -1.156999     -0.531737      1.902163
     14.07243      9.52509      0.86397         0.356008     -0.019757     -3.888658
     13.99844      9.35889      3.57488        -1.350102     -0.649298      1.937152
     16.73060      4.45901      3.72485        -0.104630      0.628773      2.040765
     16.46774      4.79619      1.03090        -0.368903     -0.695304     -3.136599
      8.17565      9.35889      2.54670        -0.028500     -1.476583     -0.630475
      8.83842      9.54106      5.36490         0.073405     -0.141623      2.674477
     11.08705      4.56969      3.06079        -0.726772     -0.889257     -1.031141
     11.70070      4.74438      5.77124        -0.299450     -1.617827      3.687068
      2.35718      9.28457      1.78778        -0.666399     -0.541596     -1.322972
      2.93654      9.35889      4.60306        -0.770896      0.019382      0.638841
    total drift:                                0.003524     -0.024747     -0.081069

  FREE ENERGIE OF THE ION-ELECTRON SYSTEM (eV)
  free  energy   TOTEN  =      -351.49008353 eV

  energy  without entropy=     -350.27615877  energy(sigma->0) =     -350.88312115