 vasp.5.4.4.18Apr17-6-g9f103f2a35 (build Aug 13 2019 17:33:20) gamma-only

 executed on             LinuxIFC date 2020.05.11  14:24:56

 INCAR:
 POTCAR:    PAW_PBE Ni_pv 06Sep2000
 POTCAR:    PAW_PBE S 06Sep2000
 POTCAR:    PAW_PBE Ni_pv 06Sep2000
   VRHFIN =Ni:

   TITEL  = PAW_PBE Ni_pv 06Sep2000
   POMASS =   58.690; ZVAL   =   16.000    mass and valenz
   ENMAX  =  367.986; ENMIN  =  275.989 eV

 POTCAR:    PAW_PBE S 06Sep2000
   VRHFIN =S : s2p4

   TITEL  = PAW_PBE S 06Sep2000
   POMASS =   32.066; ZVAL   =    6.000    mass and valenz
   ENMAX  =  258.689; ENMIN  =  194.016 eV

 Optimization of the real space projectors (new method)

 maximal supplied QI-value         = 18.90
 optimisation between [QCUT,QGAM] = [ 10.77, 21.73] = [ 32.49,132.25] Ry
 Optimized for a Real-space Cutoff    1.38 Angstroem

   l    n(q)    QCUT    max X(q) W(low)/X(q) W(high)/X(q)  e(spline)
   1      8    10.771     2.836    0.40E-04    0.29E-04    0.12E-06
   1      8    10.771     4.023    0.10E-03    0.48E-04    0.29E-06
   2      8    10.771    73.368    0.42E-03    0.97E-04    0.44E-06
   2      8    10.771    69.010    0.42E-03    0.99E-04    0.45E-06
   0      9    10.771    54.797    0.10E-03    0.56E-04    0.74E-07
   0      9    10.771    24.266    0.89E-04    0.49E-04    0.67E-07
 Optimization of the real space projectors (new method)

 maximal supplied QI-value         = 19.84
 optimisation between [QCUT,QGAM] = [ 10.71, 21.63] = [ 32.15,130.99] Ry
 Optimized for a Real-space Cutoff    1.19 Angstroem

   l    n(q)    QCUT    max X(q) W(low)/X(q) W(high)/X(q)  e(spline)
   0      8    10.715   187.594    0.41E-03    0.53E-04    0.66E-07
   0      8    10.715   164.243    0.41E-03    0.53E-04    0.65E-07
   1      7    10.715    67.533    0.19E-03    0.59E-03    0.68E-07
   1      7    10.715    50.729    0.19E-03    0.58E-03    0.67E-07
  PAW_PBE Ni_pv 06Sep2000               :
  PAW_PBE S 06Sep2000                   :

 POSCAR: Type_048 Type_148
  positions in cartesian coordinates
 exchange correlation table for  LEXCH =        8
   RHO(1)=    0.500       N(1)  =     2000
   RHO(2)=  100.500       N(2)  =     4000

 ion  position               nearest neighbor table
   1  0.261  0.479  0.295-  73 2.25  58 2.26  80 2.26  59 2.36  54 2.36   6 2.53  19 2.53
   2  0.355  0.385  0.426-  65 2.09  60 2.14  74 2.25  54 2.26  59 2.26   7 2.53  20 2.53
   3  0.167  0.073  0.165-  55 2.11  81 2.22  64 2.25  56 2.36  82 2.36  28 2.48  35 2.53  29 2.53

   4  0.052  0.062  0.488-  72 2.03  50 2.03  77 2.06  18 2.41
   5  0.274  0.333  0.130-  51 2.06  57 2.12  55 2.15  52 2.36  58 2.36  36 2.52  10 2.53  26 2.53

[...]

  49  0.073  0.167  0.311-  23 2.25   9 2.26  18 2.26   8 2.36  17 2.36  50 2.73
  50  0.171  0.071  0.422-   4 2.03  24 2.19   9 2.20  18 2.22  49 2.73
  51  0.384  0.356  0.062-  36 2.01   5 2.06  10 2.06
  52  0.479  0.261  0.181-  13 2.25   6 2.26  19 2.26  10 2.36   5 2.36
  53  0.025  0.343  0.475-  27 2.01   9 2.05  12 2.08  72 2.69
  54  0.436  0.472  0.355-  31 2.25   2 2.26  20 2.26   1 2.36  19 2.36
  55  0.257  0.157  0.107-  28 2.06   3 2.11  35 2.12   5 2.15
  56  0.342  0.066  0.225-   6 2.25  23 2.26  45 2.26   3 2.36  35 2.36
  57  0.083  0.482  0.107-  36 2.05   5 2.12  26 2.13  21 2.14
  58  0.174  0.397  0.225-   8 2.25   1 2.26   6 2.26   5 2.36  26 2.36
  59  0.268  0.303  0.355-   9 2.25   7 2.26   2 2.26   6 2.36   1 2.36
  60  0.364  0.213  0.470-  14 2.04   7 2.05   2 2.14  65 2.62
  61  0.573  0.167  0.311-  37 2.25  20 2.26   7 2.26  19 2.36   6 2.36  62 2.76
  62  0.666  0.070  0.423-  14 2.04   7 2.18  38 2.21  20 2.23  61 2.76
  63  0.883  0.357  0.061-  15 2.01  21 2.06  16 2.07
  64  0.979  0.261  0.181-   3 2.25  17 2.26   8 2.26  21 2.36  16 2.36
  65  0.527  0.322  0.477-  40 2.00  20 2.06   2 2.09  60 2.62
  66  0.936  0.472  0.355-  44 2.25  12 2.26   9 2.26  11 2.36   8 2.36
  67  0.770  0.154  0.098-  41 2.07  48 2.11  22 2.14  16 2.17  13 2.33
  68  0.842  0.066  0.225-  17 2.25  37 2.26  32 2.26  13 2.36  48 2.36
  69  0.583  0.482  0.107-  15 2.06  16 2.11  39 2.11  10 2.15
  70  0.674  0.397  0.225-  19 2.25  11 2.26  17 2.26  16 2.36  39 2.36
  71  0.768  0.303  0.355-  20 2.25  18 2.26  12 2.26  17 2.36  11 2.36
  72  0.872  0.216  0.472-   4 2.03  18 2.05  12 2.09  53 2.69
  73  0.073  0.667  0.311-   1 2.25  33 2.26  44 2.26  32 2.36  43 2.36
  74  0.167  0.573  0.442-  34 2.04  27 2.09   2 2.25  33 2.36  44 2.36  96 2.73
  75  0.385  0.854  0.062-  28 2.01  29 2.06  35 2.06
  76  0.479  0.761  0.181-  39 2.25  30 2.26  45 2.26  35 2.36  29 2.36
  77  0.022  0.899  0.468-  34 2.05   4 2.06  33 2.13  38 2.18  90 2.72  96 2.76
  78  0.436  0.972  0.355-   7 2.25  24 2.26  46 2.26  23 2.36  45 2.36
  79  0.259  0.656  0.108-  36 2.06  10 2.11  26 2.12  29 2.14
  80  0.342  0.566  0.225-  30 2.25   1 2.26  19 2.26  26 2.36  10 2.36
  81  0.078  0.984  0.101-  28 2.05  22 2.14  48 2.14  29 2.19   3 2.22
  82  0.174  0.897  0.225-  32 2.25  23 2.26  30 2.26  29 2.36   3 2.36
  83  0.268  0.803  0.355-  33 2.25  31 2.26  24 2.26  30 2.36  23 2.36
  84  0.362  0.709  0.486-  25 2.01  34 2.06  40 2.15  31 2.36  24 2.36
  85  0.573  0.667  0.311-  11 2.25  46 2.26  31 2.26  45 2.36  30 2.36
  86  0.667  0.573  0.442-  25 2.04  47 2.18  12 2.25  40 2.32  46 2.36  31 2.36
  87  0.892  0.867  0.056-  41 2.02  48 2.06  22 2.11  42 2.27
  88  0.979  0.761  0.181-  26 2.25  43 2.26  32 2.26  48 2.36  42 2.36
  89  0.530  0.878  0.486-  25 2.01  14 2.06  47 2.32  46 2.36  24 2.36
  90  0.936  0.972  0.355-  18 2.25  38 2.26  33 2.26  37 2.36  32 2.36  77 2.72
  91  0.758  0.658  0.107-  15 2.06  21 2.12  39 2.13  42 2.13
  92  0.842  0.566  0.225-  43 2.25  11 2.26   8 2.26  39 2.36  21 2.36
  93  0.584  0.981  0.109-  41 2.06  42 2.10  13 2.11  35 2.13
  94  0.674  0.897  0.225-  45 2.25  37 2.26  43 2.26  42 2.36  13 2.36
  95  0.768  0.803  0.355-  46 2.25  44 2.26  38 2.26  43 2.36  37 2.36
  96  0.915  0.722  0.483-  47 2.02  27 2.05  38 2.08  44 2.21  74 2.73  77 2.76

  LATTYP: Found a base centered orthorhombic cell.
 ALAT       =    11.8257374459
 B/A-ratio  =     1.6199260857
 C/A-ratio  =     1.9043172636

  Lattice vectors:

 A1 = (  11.2564630382,   0.0000000000,   0.0000000000)
 A2 = (  -5.0445621212, -10.0628203371,   0.0000000000)
 A3 = (   0.0000000000,   0.0000000000, -22.5199559732)

Analysis of symmetry for initial positions (statically):
 Subroutine PRICEL returns:
 Original cell was already a primitive cell.

 Routine SETGRP: Setting up the symmetry group for a
 base centered orthorhombic supercell.

 Subroutine GETGRP returns: Found  1 space group operations
 (whereof  1 operations were pure point group operations)
 out of a pool of  8 trial point group operations.

The static configuration has the point symmetry C_1 .

Analysis of symmetry for dynamics (positions and initial velocities):
 Subroutine PRICEL returns:
 Original cell was already a primitive cell.

 Routine SETGRP: Setting up the symmetry group for a
 base centered orthorhombic supercell.

 Subroutine GETGRP returns: Found  1 space group operations
 (whereof  1 operations were pure point group operations)
 out of a pool of  8 trial point group operations.

The dynamic configuration has the point symmetry C_1 .

 Subroutine INISYM returns: Found  1 space group operations
 (whereof  1 operations are pure point group operations),
 and found     1 'primitive' translations

 KPOINTS: gamma-point-only calculation. no periodi

Automatic generation of k-mesh.
Space group operators:
 irot       det(A)        alpha          n_x          n_y          n_z        tau_x        tau_y        tau_z
    1     1.000000     0.000000     1.000000     0.000000     0.000000     0.000000     0.000000     0.000000

 Subroutine IBZKPT returns following result:

 Found      1 irreducible k-points:

 Following reciprocal coordinates:
            Coordinates               Weight
  0.000000  0.000000  0.000000      1.000000

 Following cartesian coordinates:
            Coordinates               Weight
  0.000000  0.000000  0.000000      1.000000

 SYSTEM =  "Millerite NiS"
 POSCAR =  Type_048 Type_148

 Startparameter for this run:
   NWRITE =      2    write-flag & timer
   PREC   = normal    normal or accurate (medium, high low for compatibility)
   ISTART =      0    job   : 0-new  1-cont  2-samecut
   ICHARG =      2    charge: 1-file 2-atom 10-const
   ISPIN  =      1    spin polarized calculation?
   LNONCOLLINEAR =      F non collinear calculations
   LSORBIT =      F    spin-orbit coupling
   INIWAV =      1    electr: 0-lowe 1-rand  2-diag
   LASPH  =      F    aspherical Exc in radial PAW
   METAGGA=      F    non-selfconsistent MetaGGA calc.

 Electronic Relaxation 1
   ENCUT  =  450.0 eV  33.07 Ry    5.75 a.u.  19.47 19.47 38.95*2*pi/ulx,y,z
   ENINI  =  450.0     initial cutoff
   ENAUG  =  703.4 eV  augmentation charge cutoff
   NELM   =    100;   NELMIN=  2; NELMDL= -5     # of ELM steps
   EDIFF  = 0.1E-03   stopping-criterion for ELM
   LREAL  =      T    real-space projection
   NLSPLINE    = F    spline interpolate recip. space projectors
   LCOMPAT=      F    compatible to vasp.4.4
   GGA_COMPAT  = T    GGA compatible to vasp.4.4-vasp.4.6
   LMAXPAW     = -100 max onsite density
   LMAXMIX     =    2 max onsite mixed and CHGCAR
   VOSKOWN=      0    Vosko Wilk Nusair interpolation
   ROPT   =   -0.00050  -0.00050
 Ionic relaxation
   EDIFFG = 0.1E-02   stopping-criterion for IOM
   NSW    =      0    number of steps for IOM
   NBLOCK =      1;   KBLOCK =      1    inner block; outer block
   IBRION =     -1    ionic relax: 0-MD 1-quasi-New 2-CG
   NFREE  =      0    steps in history (QN), initial steepest desc. (CG)
   ISIF   =      2    stress and relaxation
   IWAVPR =     10    prediction:  0-non 1-charg 2-wave 3-comb
   ISYM   =      2    0-nonsym 1-usesym 2-fastsym
   LCORR  =      T    Harris-Foulkes like correction to forces

   POTIM  = 0.5000    time-step for ionic-motion
   TEIN   =    0.0    initial temperature
   TEBEG  =    0.0;   TEEND  =   0.0 temperature during run
   SMASS  =  -3.00    Nose mass-parameter (am)
   estimated Nose-frequenzy (Omega)   =  0.10E-29 period in steps =****** mass=  -0.290E-26a.u.
   SCALEE = 1.0000    scale energy and forces
   NPACO  =    256;   APACO  = 16.0  distance and # of slots for P.C.
   PSTRESS=    0.0 pullay stress

  Mass of Ions in am
   POMASS =  58.69 32.07
  Ionic Valenz
   ZVAL   =  16.00  6.00
  Atomic Wigner-Seitz radii
  virtual crystal weights
   VCA    =   1.00  1.00
   NELECT =    1056.0000    total number of electrons
   NUPDOWN=      -1.0000    fix difference up-down

 DOS related values:
   EMIN   =  10.00;   EMAX   =-10.00  energy-range for DOS
   EFERMI =   0.00
   ISMEAR =     0;   SIGMA  =   0.20  broadening in eV -4-tet -1-fermi 0-gaus

 Electronic relaxation 2 (details)
   IALGO  =     38    algorithm
   LDIAG  =      T    sub-space diagonalisation (order eigenvalues)
   LSUBROT=      F    optimize rotation matrix (better conditioning)
   TURBO    =      0    0=normal 1=particle mesh
   IRESTART =      0    0=no restart 2=restart with 2 vectors
   NREBOOT  =      0    no. of reboots
[...]
     0.000000000  0.000000000 22.519955973     0.000000000  0.000000000  0.044405060

  length of vectors
    11.256463038 11.256463038 22.519955973     0.099375718  0.099375718  0.044405060

 FORCES acting on ions
    electron-ion (+dipol)            ewald-force                    non-local-force                 convergence-correction
   0.253E+03 -.348E+03 -.532E+03   -.254E+03 0.349E+03 0.532E+03   0.858E+00 -.123E+01 0.203E+00   -.254E-02 0.678E-02 -.721E-01
   0.420E+03 -.225E+03 -.414E+04   -.423E+03 0.229E+03 0.414E+04   0.235E+01 -.311E+01 -.145E+01   0.231E-02 0.256E-01 -.262E-01
   0.238E+03 -.535E+03 0.259E+04   -.241E+03 0.538E+03 -.258E+04   0.170E+01 -.296E+01 -.182E+01   -.655E-02 0.600E-03 -.275E-01
   -.141E+03 -.408E+02 -.586E+04   0.142E+03 0.423E+02 0.586E+04   -.609E+00 -.241E+01 0.256E+01   0.923E-02 -.154E-01 0.395E-01
   0.282E+03 0.671E+03 0.397E+04   -.284E+03 -.676E+03 -.397E+04   0.149E+01 0.305E+01 0.164E+01   -.131E-01 0.409E-01 -.469E-01
   0.247E+03 0.448E+03 0.592E+03   -.248E+03 -.449E+03 -.593E+03   0.693E+00 0.659E+00 0.955E+00   -.809E-02 0.760E-02 -.501E-01
   0.322E+03 0.272E+03 -.267E+04   -.325E+03 -.275E+03 0.267E+04   0.297E+01 0.337E+01 0.855E+00   -.687E-02 -.125E-01 -.651E-01
   -.529E+03 0.719E+01 0.596E+03   0.529E+03 -.684E+01 -.596E+03   -.881E+00 -.348E+00 0.854E+00   -.163E-01 0.130E-01 -.621E-01
   -.597E+03 0.103E+03 -.293E+04   0.602E+03 -.103E+03 0.293E+04   -.388E+01 -.107E+01 -.133E+01   0.102E-01 0.465E-02 -.642E-01
   -.725E+03 0.495E+02 0.397E+04   0.730E+03 -.501E+02 -.397E+04   -.340E+01 0.267E+00 0.156E+01   -.806E-02 0.283E-01 -.510E-01
   0.244E+03 -.336E+03 -.514E+03   -.244E+03 0.337E+03 0.514E+03   0.597E+00 -.102E+01 0.879E-01   0.746E-03 0.355E-02 -.802E-01
   0.334E+03 -.175E+03 -.417E+04   -.335E+03 0.178E+03 0.417E+04   0.101E+01 -.184E+01 -.263E+01   -.124E-01 0.271E-01 -.338E-01
   0.401E+03 -.590E+03 0.259E+04   -.403E+03 0.594E+03 -.259E+04   0.133E+01 -.270E+01 -.137E+01   0.847E-02 0.514E-02 -.257E-01
   -.158E+03 -.946E+02 -.581E+04   0.158E+03 0.946E+02 0.581E+04   0.407E+00 -.630E+00 0.131E+01   -.192E-02 -.157E-01 0.293E-01
   0.249E+03 -.471E+03 0.616E+04   -.249E+03 0.472E+03 -.617E+04   -.433E+00 0.635E+00 0.633E+01   0.208E-03 0.245E-02 -.954E-02
   0.318E+03 0.504E+03 0.385E+04   -.320E+03 -.507E+03 -.385E+04   0.141E+01 0.245E+01 0.132E+01   0.960E-02 0.477E-01 -.444E-01
   0.241E+03 0.439E+03 0.545E+03   -.241E+03 -.439E+03 -.546E+03   0.722E+00 0.696E+00 0.119E+01   0.611E-03 0.188E-01 -.613E-01
   0.339E+03 0.299E+03 -.271E+04   -.342E+03 -.301E+03 0.271E+04   0.259E+01 0.240E+01 0.119E+01   -.161E-02 -.729E-02 -.662E-01
   -.500E+03 0.996E+01 0.610E+03   0.501E+03 -.956E+01 -.611E+03   -.782E+00 -.378E+00 0.123E+01   0.531E-02 0.140E-01 -.545E-01
   -.614E+03 0.164E+03 -.291E+04   0.618E+03 -.163E+03 0.290E+04   -.383E+01 -.637E+00 0.378E+00   0.848E-02 0.127E-01 -.546E-01
   -.754E+03 0.389E+01 0.396E+04   0.759E+03 -.434E+01 -.396E+04   -.327E+01 0.234E+00 0.144E+01   -.269E-01 0.191E-01 -.485E-01
   -.480E+03 -.237E+03 0.612E+04   0.481E+03 0.237E+03 -.612E+04   0.432E+00 0.606E+00 -.590E+00   -.368E-04 0.365E-03 -.653E-02
   0.229E+03 -.435E+03 -.538E+03   -.229E+03 0.435E+03 0.537E+03   0.662E+00 -.118E+01 0.648E+00   0.162E-02 -.105E-01 -.628E-01
   0.311E+03 -.725E+03 -.405E+04   -.311E+03 0.725E+03 0.405E+04   0.399E+00 -.648E+00 0.125E+01   0.292E-02 -.129E-01 -.274E-01
   -.114E+02 0.153E+02 -.624E+04   0.120E+02 -.162E+02 0.625E+04   -.207E+00 0.439E+00 -.573E+01   -.164E-01 -.784E-02 0.327E-01
   0.330E+03 -.484E+03 0.265E+04   -.332E+03 0.488E+03 -.265E+04   0.207E+01 -.311E+01 -.128E+01   -.496E-02 0.230E-02 -.617E-01
   -.128E+03 0.549E+03 -.566E+04   0.127E+03 -.556E+03 0.566E+04   0.479E+00 0.741E+01 0.158E+01   0.612E-02 0.735E-02 0.201E-01
   -.714E+02 -.377E+03 0.612E+04   0.729E+02 0.377E+03 -.612E+04   -.215E+01 0.486E+00 0.582E+01   -.480E-02 -.278E-03 -.276E-01
   0.197E+03 0.722E+03 0.391E+04   -.199E+03 -.727E+03 -.391E+04   0.967E+00 0.337E+01 0.831E+00   -.678E-02 -.231E-01 -.296E-01
   0.238E+03 0.452E+03 0.647E+03   -.239E+03 -.453E+03 -.648E+03   0.914E+00 0.538E+00 0.110E+01   0.427E-02 0.518E-02 -.530E-01
   0.282E+03 0.310E+03 -.234E+04   -.284E+03 -.310E+03 0.234E+04   0.183E+01 0.106E+01 0.262E+01   0.566E-02 0.140E-02 -.369E-01
   -.514E+03 -.112E+02 0.576E+03   0.515E+03 0.117E+02 -.577E+03   -.108E+01 -.521E+00 0.105E+01   -.761E-02 -.129E-02 -.540E-01
   -.432E+03 -.589E+02 -.253E+04   0.435E+03 0.584E+02 0.252E+04   -.333E+01 0.602E+00 0.199E+01   0.797E-02 -.422E-02 -.567E-01
   -.556E+02 0.657E+02 -.585E+04   0.572E+02 -.656E+02 0.585E+04   -.137E+01 -.191E+00 0.183E+01   0.184E-01 -.863E-02 0.331E-01
   -.752E+03 0.431E+02 0.396E+04   0.757E+03 -.435E+02 -.396E+04   -.300E+01 0.171E+00 0.150E+01   -.579E-02 -.122E-01 -.294E-01
   0.232E+03 -.332E+03 0.617E+04   -.232E+03 0.332E+03 -.618E+04   -.325E+00 0.559E+00 0.636E+01   -.102E-01 0.126E-01 -.206E-01
   0.232E+03 -.442E+03 -.551E+03   -.232E+03 0.443E+03 0.550E+03   0.516E+00 -.129E+01 0.669E+00   0.614E-02 -.109E-01 -.635E-01
   0.154E+03 -.724E+03 -.414E+04   -.155E+03 0.727E+03 0.414E+04   0.988E+00 -.222E+01 -.246E+00   -.817E-02 0.246E-02 -.349E-01
   0.336E+03 -.551E+03 0.266E+04   -.338E+03 0.555E+03 -.266E+04   0.185E+01 -.298E+01 -.121E+01   0.979E-02 -.141E-01 -.667E-01
   0.524E+02 0.673E+03 -.537E+04   -.524E+02 -.675E+03 0.537E+04   0.234E+00 0.185E+01 -.322E+01   0.584E-02 0.237E-01 0.176E-01
   0.833E+03 -.349E+03 0.601E+04   -.837E+03 0.349E+03 -.602E+04   0.276E+01 0.732E+00 0.540E+01   0.377E-02 0.300E-02 -.287E-01
   0.355E+03 0.753E+03 0.395E+04   -.356E+03 -.757E+03 -.394E+04   0.922E+00 0.255E+01 0.425E+00   -.553E-02 -.342E-01 -.311E-01
   0.235E+03 0.462E+03 0.642E+03   -.236E+03 -.463E+03 -.643E+03   0.718E+00 0.600E+00 0.124E+01   0.841E-03 0.159E-02 -.521E-01
   0.942E+02 0.395E+03 -.244E+04   -.957E+02 -.397E+03 0.244E+04   0.144E+01 0.224E+01 0.270E+01   -.652E-02 -.590E-02 -.595E-01
   -.503E+03 -.374E+02 0.645E+03   0.504E+03 0.380E+02 -.645E+03   -.957E+00 -.622E+00 0.860E+00   -.115E-01 -.103E-01 -.449E-01
   -.336E+03 -.203E+03 -.236E+04   0.337E+03 0.205E+03 0.235E+04   -.170E+01 -.125E+01 0.251E+01   -.145E-01 -.507E-02 -.538E-01
   -.324E+03 0.723E+02 -.528E+04   0.324E+03 -.724E+02 0.528E+04   -.529E+00 0.578E-01 -.312E+01   -.194E-01 -.344E-02 0.778E-02
   -.529E+03 0.250E+03 0.333E+04   0.531E+03 -.253E+03 -.332E+04   -.142E+01 0.145E+01 -.349E+01   0.125E-01 -.351E-02 -.263E-01
   -.779E+02 0.105E+03 -.186E+03   0.791E+02 -.106E+03 0.185E+03   -.122E+01 0.183E+01 -.302E-01   0.293E-02 -.358E-02 -.345E-01
   -.225E+03 0.141E+02 -.144E+04   0.226E+03 -.147E+02 0.144E+04   0.181E+00 0.283E+00 0.567E+00   0.685E-02 -.943E-02 -.120E-01
   -.202E+03 0.337E+03 0.233E+04   0.204E+03 -.340E+03 -.233E+04   -.453E+00 0.862E+00 0.802E+00   -.981E-02 0.206E-01 -.162E-01
   -.723E+02 0.126E+03 0.109E+04   0.731E+02 -.127E+03 -.109E+04   -.588E+00 0.865E+00 0.174E+01   -.363E-03 0.460E-02 -.111E-01
   -.906E+02 0.180E+03 -.224E+04   0.930E+02 -.182E+03 0.224E+04   -.134E+01 0.170E+01 -.114E+01   0.297E-02 0.414E-02 0.119E-01
   -.425E+02 -.105E+03 -.629E+03   0.434E+02 0.107E+03 0.629E+03   -.784E+00 -.182E+01 0.111E+00   0.935E-04 0.681E-02 -.251E-01
   -.131E+03 -.296E+03 0.181E+04   0.130E+03 0.298E+03 -.181E+04   0.788E+00 -.304E-01 0.135E+01   -.570E-02 0.301E-02 -.156E-01
   -.854E+02 -.162E+03 0.542E+03   0.862E+02 0.165E+03 -.543E+03   -.747E+00 -.239E+01 0.128E+01   -.399E-02 -.347E-02 -.637E-02
   0.296E+03 -.270E+02 0.183E+04   -.297E+03 0.278E+02 -.183E+04   -.273E+00 -.402E+00 0.132E+01   0.111E-01 0.101E-01 -.191E-01
   0.171E+03 0.898E+01 0.546E+03   -.174E+03 -.878E+01 -.546E+03   0.257E+01 -.370E+00 0.109E+01   -.235E-02 0.764E-02 -.170E-01
   0.178E+03 0.159E+02 -.720E+03   -.181E+03 -.158E+02 0.720E+03   0.284E+01 0.142E-01 -.465E+00   -.854E-03 0.465E-02 -.308E-01
   0.336E+03 -.783E+02 -.215E+04   -.342E+03 0.776E+02 0.216E+04   0.306E+01 0.122E+01 -.869E+00   -.459E-02 0.185E-02 0.849E-02
[...]
   0.170E+03 -.268E+02 -.651E+03   -.173E+03 0.265E+02 0.651E+03   0.261E+01 0.208E-01 -.392E+00   0.862E-02 0.313E-02 -.283E-01
   0.208E+03 -.122E+03 -.212E+04   -.211E+03 0.123E+03 0.213E+04   0.140E+01 -.550E+00 -.243E+01   0.771E-02 -.411E-02 0.959E-02
   -.682E+02 0.123E+03 -.131E+03   0.694E+02 -.125E+03 0.130E+03   -.122E+01 0.188E+01 0.141E+01   0.248E-02 -.353E-02 -.281E-01
   -.120E+03 0.347E+03 -.152E+04   0.122E+03 -.351E+03 0.152E+04   -.160E+01 0.176E+01 0.661E+00   -.102E-01 0.338E-02 -.305E-02
   -.337E+02 0.556E+03 0.226E+04   0.347E+02 -.561E+03 -.226E+04   -.868E+00 0.239E+01 0.122E+01   0.553E-03 -.535E-02 -.106E-01
   -.713E+02 0.162E+03 0.108E+04   0.720E+02 -.164E+03 -.108E+04   -.640E+00 0.122E+01 0.134E+01   0.515E-02 -.962E-02 -.830E-02
   0.106E+02 -.302E+03 -.214E+04   -.103E+02 0.305E+03 0.214E+04   0.401E+00 -.236E+01 -.285E+01   -.900E-02 -.829E-02 0.930E-02
   -.561E+02 -.189E+03 -.691E+03   0.574E+02 0.192E+03 0.691E+03   -.126E+01 -.304E+01 -.555E+00   -.780E-02 -.194E-02 -.359E-01
   -.958E+02 -.273E+03 0.182E+04   0.961E+02 0.275E+03 -.182E+04   0.313E+00 -.218E+00 0.131E+01   -.172E-01 -.247E-01 -.188E-01
   -.819E+02 -.149E+03 0.555E+03   0.830E+02 0.152E+03 -.555E+03   -.100E+01 -.234E+01 0.110E+01   -.651E-02 -.350E-02 -.183E-01
   0.335E+03 -.294E+02 0.179E+04   -.337E+03 0.299E+02 -.179E+04   -.445E+00 -.170E+00 0.883E+00   -.152E-04 -.187E-02 -.159E-01
   0.184E+03 0.138E+00 0.547E+03   -.186E+03 -.657E-01 -.547E+03   0.230E+01 -.262E+00 0.929E+00   0.197E-02 -.594E-02 -.359E-02
   0.137E+03 -.453E+02 -.609E+03   -.140E+03 0.455E+02 0.608E+03   0.210E+01 -.403E+00 0.722E+00   0.328E-04 0.293E-02 -.325E-01
   -.851E+02 -.140E+03 -.231E+04   0.844E+02 0.141E+03 0.231E+04   0.283E+00 -.938E-01 -.364E+01   0.247E-02 -.158E-02 0.121E-01
   -.546E+01 -.287E+01 -.434E+02   -.273E-11 0.824E-12 0.500E-11   0.527E+01 0.274E+01 0.459E+02   -.966E-01 0.135E+00 -.233E+01

 POSITION                                       TOTAL-FORCE (eV/Angst)
      5.35228      4.81788      6.64784         0.172677     -0.193739     -0.146044
      5.93595      3.87238      9.58390        -0.267353      0.989929     -0.948539
      2.24633      0.73197      3.71178        -0.721805      0.589719      1.724459
      0.89964      0.61949     10.98364         0.227432     -0.943609      1.588678
      4.76861      3.35453      2.93606        -0.436660     -1.487492      2.260141
      5.35228      2.40903      5.87212         0.047551      0.148280     -0.018853
      5.93595      1.46353      8.80817        -0.262023     -0.053109     -3.196362
      1.87746      3.73836      5.87212        -0.166879      0.016487      0.021359
      2.46113      2.79286      8.80817         0.351277     -0.465127     -2.019142
      6.92203      4.68386      2.93606         1.537346     -0.302731      2.215861
     10.98051      4.81788      6.64784         0.151592     -0.149070     -0.125407
     11.56418      3.87238      9.58390        -0.497797      0.902084     -1.265308
      7.87456      0.73197      3.71178        -0.054114      0.782500      1.480228
      6.38764      0.54635     10.95614         0.278956     -0.721464      1.829617
     10.69267      5.30535      1.33856        -0.707017      1.137740     -2.045321
     10.39684      3.35453      2.93606        -0.238480     -1.370126      2.132715
     10.98051      2.40903      5.87212         0.072229      0.132710      0.006154
     11.56418      1.46353      8.80817        -0.257009      0.005500     -2.891724
      7.50570      3.73836      5.87212        -0.154548      0.032151     -0.020912
      8.08937      2.79286      8.80817         0.336940     -0.268947     -1.697805
     12.55026      4.68386      2.93606         1.444919     -0.196515      2.154120
     10.56884      0.34482      0.83511         1.043897      0.545319     -1.343418
      7.87456      9.84929      6.64784         0.194482     -0.330529     -0.129258
      8.45823      8.90379      9.58390         0.267323     -0.212336     -0.172212
      9.62192      7.02815     11.34732         0.364535     -0.546061      1.977331
      4.76861      5.76338      3.71178        -0.503472      0.727265      2.257070
      2.94873      5.23464     10.81912        -0.120837      0.213352      0.970512
      2.56170      0.25106      1.30132        -0.628116      1.128406     -1.899770
      7.29089      8.38594      2.93606        -0.646740     -0.993063      1.792493
      7.87456      7.44044      5.87212         0.040388      0.040631      0.028153
      8.45823      6.49494      8.80817         0.106819      0.693965     -1.359118
      4.39975      8.76977      5.87212        -0.084569     -0.053779      0.060137
      4.98341      7.82427      8.80817         0.027707      0.074349     -1.825624
      5.59673      7.24294     11.07869         0.272687     -0.063064      1.482905
      9.44431      9.71527      2.93606         1.346613     -0.194014      2.113370
      5.06193      5.28655      1.33941        -0.698324      1.285701     -2.064156
     13.50279      9.84929      6.64784         0.130678     -0.311077     -0.233615
     14.08646      8.90379      9.58390        -0.218404      0.884807     -1.218743
     10.39684      5.76338      3.71178        -0.316084      0.823206      2.324895
      8.27963      5.10096     10.63499         0.314383      0.413614      0.137199
      8.12276      0.24805      1.29717        -1.140669      1.058767     -1.723835
     12.91912      8.38594      2.93606         0.347919     -1.050197      1.096286
     13.50279      7.44044      5.87212        -0.053501      0.085807      0.017425
     14.08646      6.49494      8.80817        -0.096213      0.149382     -1.255877
     10.02798      8.76977      5.87212         0.047730      0.032088      0.026007
     10.61165      7.82427      8.80817        -0.602900      0.487799     -1.153890
     11.95204      7.14989     10.57682        -0.393348     -0.029062      0.331184
     15.07254      9.71527      2.93606         0.421983     -0.981450      4.329875
      1.66190      1.67871      7.01153        -0.039408      0.252137     -0.914597
      2.27841      0.71507      9.49264         1.340096     -0.356538      1.121328
      6.11226      3.57943      1.39738         1.371397     -2.181110     -3.557851
      6.70646      2.62422      4.07548         0.295438     -0.120099      0.145583
      2.01524      3.45610     10.69860         1.030403     -0.389524      2.955491
      7.29013      4.74605      7.99931         0.196240      0.340612     -0.267616
      3.68284      1.57574      2.41694         0.485540      1.974990     -1.402114
      4.18418      0.66015      5.06325         0.106798     -0.200679      0.707225
      3.36332      4.84670      2.40533        -1.869003      0.404750     -1.283111
      3.96438      3.99884      5.06325        -0.015059     -0.159498      0.559698
      4.54805      3.05334      7.99931        -0.214339      0.138216     -0.470221
      5.17448      2.14654     10.58655        -2.353927      0.536347      2.355913
[...]
      6.48666      9.03025      5.06325         0.002086     -0.074366      0.351933
      7.07033      8.08475      7.99931         0.063212     -0.199185     -0.264557
      7.65400      7.13925     10.93537        -1.396227      0.401216      0.389201
      9.81241      6.71012      7.01153        -0.024058      0.000761     -0.066105
     10.39608      5.76462      9.94759         0.285003     -1.985650     -0.573563
     14.40893      8.72057      1.25250         0.112946     -3.027412     -2.825383
     14.85697      7.65563      4.07548         0.006788      0.053328     -0.029238
     10.39608      8.83196     10.93537         0.724600      1.126246      0.099585
     15.44064      9.77746      7.99931        -0.010048      0.081846     -1.305969
     11.85274      6.61706      2.41855         0.562497      1.820720     -1.364535
     12.33469      5.69156      5.06325         0.101564     -0.056475      0.542226
     11.51524      9.86833      2.44544        -1.704875      0.386396     -1.302899
     12.11489      9.03025      5.06325         0.185212     -0.195627      0.760364
     12.69856      8.08475      7.99931        -0.289432     -0.144810     -0.242670
     13.94540      7.26997     10.87051        -0.367009      0.603623      2.968565
    total drift:                               -0.286468      0.005185      0.196460

  FREE ENERGIE OF THE ION-ELECTRON SYSTEM (eV)
  free  energy   TOTEN  =      -470.54718830 eV

  energy  without entropy=     -469.22661492  energy(sigma->0) =     -469.88690161