 vasp.5.4.4.18Apr17-6-g9f103f2a35 (build Aug 13 2019 17:33:20) gamma-only

 executed on             LinuxIFC date 2020.05.10  15:21:18

 INCAR:
 POTCAR:    PAW_PBE Ni_pv 06Sep2000
 POTCAR:    PAW_PBE S 06Sep2000
 POTCAR:    PAW_PBE Ni_pv 06Sep2000
   VRHFIN =Ni:

   TITEL  = PAW_PBE Ni_pv 06Sep2000
   POMASS =   58.690; ZVAL   =   16.000    mass and valenz
   ENMAX  =  367.986; ENMIN  =  275.989 eV

 POTCAR:    PAW_PBE S 06Sep2000
   VRHFIN =S : s2p4

   TITEL  = PAW_PBE S 06Sep2000
   POMASS =   32.066; ZVAL   =    6.000    mass and valenz
   ENMAX  =  258.689; ENMIN  =  194.016 eV

 Optimization of the real space projectors (new method)

 maximal supplied QI-value         = 18.90
 optimisation between [QCUT,QGAM] = [ 10.77, 21.73] = [ 32.49,132.25] Ry
 Optimized for a Real-space Cutoff    1.38 Angstroem

   l    n(q)    QCUT    max X(q) W(low)/X(q) W(high)/X(q)  e(spline)
   1      8    10.771     2.836    0.40E-04    0.29E-04    0.12E-06
   1      8    10.771     4.023    0.10E-03    0.48E-04    0.29E-06
   2      8    10.771    73.368    0.42E-03    0.97E-04    0.44E-06
   2      8    10.771    69.010    0.42E-03    0.99E-04    0.45E-06
   0      9    10.771    54.797    0.10E-03    0.56E-04    0.74E-07
   0      9    10.771    24.266    0.89E-04    0.49E-04    0.67E-07
 Optimization of the real space projectors (new method)

 maximal supplied QI-value         = 19.84
 optimisation between [QCUT,QGAM] = [ 10.71, 21.63] = [ 32.15,130.99] Ry
 Optimized for a Real-space Cutoff    1.19 Angstroem

   l    n(q)    QCUT    max X(q) W(low)/X(q) W(high)/X(q)  e(spline)
   0      8    10.715   187.594    0.41E-03    0.53E-04    0.66E-07
   0      8    10.715   164.243    0.41E-03    0.53E-04    0.65E-07
   1      7    10.715    67.533    0.19E-03    0.59E-03    0.68E-07
   1      7    10.715    50.729    0.19E-03    0.58E-03    0.67E-07
  PAW_PBE Ni_pv 06Sep2000               :
  PAW_PBE S 06Sep2000                   :

 POSCAR: Type_048 Type_148
  positions in cartesian coordinates
 exchange correlation table for  LEXCH =        8
   RHO(1)=    0.500       N(1)  =     2000
   RHO(2)=  100.500       N(2)  =     4000

 ion  position               nearest neighbor table
   1  0.261  0.479  0.253-  72 2.25  58 2.26  80 2.26  54 2.36  59 2.36   7 2.53  21 2.53
   2  0.355  0.385  0.388-  73 2.25  54 2.26  59 2.26  60 2.36  64 2.36   3 2.38   8 2.53  22 2.53

   3  0.375  0.365  0.497-  52 2.04  64 2.08  60 2.09   2 2.38
   4  0.167  0.073  0.118-  55 2.07  81 2.07  63 2.25  56 2.36  82 2.36  36 2.53  30 2.53
   5  0.051  0.052  0.473-  50 2.05  76 2.08  77 2.13  71 2.13  15 2.49
   6  0.283  0.318  0.102-  58 2.05  55 2.10  57 2.10  51 2.13
   7  0.368  0.239  0.218-  56 2.25  58 2.26  51 2.26  59 2.36  61 2.36   1 2.53  21 2.53
   8  0.462  0.145  0.353-  78 2.25  59 2.26  61 2.26  60 2.36  62 2.36   2 2.53  22 2.53
   9  0.000  0.372  0.218-  58 2.25  63 2.26  92 2.26  49 2.36  65 2.36  13 2.53  19 2.53
  10  0.094  0.278  0.353-  59 2.25  49 2.26  65 2.26  53 2.36  50 2.36  20 2.53  14 2.53
  11  0.188  0.189  0.473-  50 2.05  76 2.08  60 2.13  53 2.13  15 2.49
  12  0.430  0.459  0.103-  80 2.05  68 2.11  79 2.12  51 2.16
  13  0.761  0.479  0.253-  85 2.25  69 2.26  92 2.26  65 2.36  70 2.36  19 2.53   9 2.53
  14  0.855  0.385  0.388-  86 2.25  65 2.26  70 2.26  71 2.36  53 2.36  20 2.53  10 2.53
  15  0.951  0.289  0.505-  71 2.00  53 2.00   5 2.49  11 2.49
  16  0.667  0.073  0.118-  66 2.05  93 2.08  51 2.25  67 2.36  94 2.36
  17  0.549  0.054  0.472-  62 2.05  88 2.08  60 2.10  89 2.14
  18  0.783  0.307  0.103-  69 2.05  68 2.10  66 2.11  63 2.14
  19  0.868  0.239  0.218-  67 2.25  69 2.26  63 2.26  70 2.36  49 2.36  13 2.53   9 2.53
  20  0.962  0.145  0.353-  90 2.25  70 2.26  49 2.26  71 2.36  50 2.36  14 2.53  10 2.53
  21  0.500  0.372  0.218-  69 2.25  51 2.26  80 2.26  61 2.36  54 2.36   1 2.53   7 2.53
  22  0.594  0.278  0.353-  70 2.25  61 2.26  54 2.26  64 2.36  62 2.36   8 2.53   2 2.53
  23  0.685  0.190  0.472-  62 2.04  88 2.08  64 2.10  71 2.15
  24  0.933  0.457  0.103-  92 2.05  91 2.10  57 2.11  63 2.14
  25  0.261  0.979  0.253-  49 2.25  82 2.26  56 2.26  78 2.36  83 2.36  31 2.53  45 2.53
  26  0.355  0.885  0.388-  50 2.25  78 2.26  83 2.26  84 2.36  89 2.36  27 2.39  32 2.53  46 2.53

[...]

  39  0.875  0.864  0.497-  88 2.04  96 2.08  77 2.09  38 2.38
  40  0.667  0.573  0.118-  91 2.06  68 2.06  75 2.25  92 2.36  69 2.36
  41  0.541  0.554  0.466-  86 2.02  84 2.02  64 2.08
  42  0.781  0.810  0.103-  94 2.05  91 2.11  93 2.12  87 2.16
  43  0.868  0.739  0.218-  92 2.25  94 2.26  87 2.26  95 2.36  72 2.36  37 2.53  33 2.53
  44  0.962  0.645  0.353-  65 2.25  95 2.26  72 2.26  96 2.36  73 2.36  38 2.53  34 2.53
  45  0.500  0.872  0.218-  94 2.25  75 2.26  56 2.26  85 2.36  78 2.36  25 2.53  31 2.53
  46  0.594  0.778  0.353-  95 2.25  85 2.26  78 2.26  89 2.36  86 2.36  32 2.53  26 2.53
  47  0.685  0.698  0.466-  86 2.02  89 2.02  96 2.08
  48  0.922  0.957  0.102-  67 2.05  81 2.10  66 2.10  87 2.13
  49  0.073  0.167  0.270-  25 2.25  10 2.26  20 2.26   9 2.36  19 2.36
  50  0.167  0.073  0.405-  11 2.05   5 2.05  26 2.25  10 2.36  20 2.36  76 2.72
  51  0.479  0.261  0.135-   6 2.13  12 2.16  16 2.25   7 2.26  21 2.26
  52  0.211  0.529  0.527-   3 2.04  29 2.08  35 2.08  73 2.69
  53  0.030  0.378  0.451-  15 2.00  11 2.13  29 2.15  10 2.36  14 2.36
  54  0.436  0.472  0.315-  32 2.25   2 2.26  22 2.26   1 2.36  21 2.36
  55  0.262  0.156  0.065-  36 2.07   4 2.07   6 2.10  56 2.71
  56  0.342  0.066  0.180-   7 2.25  25 2.26  45 2.26   4 2.36  36 2.36  55 2.71
  57  0.103  0.462  0.066-  28 2.05   6 2.10  24 2.11  58 2.62
  58  0.174  0.397  0.180-   6 2.05   9 2.25   7 2.26   1 2.26  28 2.36  57 2.62
  59  0.268  0.303  0.315-  10 2.25   2 2.26   8 2.26   7 2.36   1 2.36
  60  0.362  0.209  0.451-   3 2.09  17 2.10  11 2.13   8 2.36   2 2.36
  61  0.573  0.167  0.270-  37 2.25  22 2.26   8 2.26  21 2.36   7 2.36
  62  0.667  0.073  0.405-  23 2.04  17 2.05  38 2.25  22 2.36   8 2.36  88 2.69
  63  0.979  0.261  0.135-  18 2.14  24 2.14   4 2.25  19 2.26   9 2.26
  64  0.530  0.378  0.451-  41 2.08   3 2.08  23 2.10  22 2.36   2 2.36
  65  0.936  0.472  0.315-  44 2.25  14 2.26  10 2.26  13 2.36   9 2.36
  66  0.778  0.137  0.066-  16 2.05  48 2.10  18 2.11  67 2.62
  67  0.842  0.066  0.180-  48 2.05  19 2.25  37 2.26  33 2.26  16 2.36  66 2.62
  68  0.605  0.456  0.067-  40 2.06  18 2.10  12 2.11  69 2.58
  69  0.674  0.397  0.180-  18 2.05  21 2.25  19 2.26  13 2.26  40 2.36  68 2.58
  70  0.768  0.303  0.315-  22 2.25  14 2.26  20 2.26  19 2.36  13 2.36
  71  0.862  0.209  0.451-  15 2.00   5 2.13  23 2.15  20 2.36  14 2.36
  72  0.073  0.667  0.270-   1 2.25  34 2.26  44 2.26  33 2.36  43 2.36
  73  0.167  0.573  0.405-  29 2.04  35 2.05   2 2.25  34 2.36  44 2.36  52 2.69
  74  0.354  0.885  0.012-  36 1.99  30 1.99
  75  0.479  0.761  0.135-  40 2.25  31 2.26  45 2.26  30 2.36  36 2.36
  76  0.211  0.028  0.528-  27 2.05  11 2.08   5 2.08  50 2.72
  77  0.030  0.878  0.451-  39 2.09  35 2.10   5 2.13  34 2.36  38 2.36
  78  0.436  0.972  0.315-   8 2.25  26 2.26  46 2.26  25 2.36  45 2.36
  79  0.282  0.641  0.068-  28 2.08  12 2.12  30 2.15  80 2.57
  80  0.342  0.566  0.180-  12 2.05  31 2.25   1 2.26  21 2.26  28 2.36  79 2.57
  81  0.083  0.978  0.065-  30 2.07   4 2.07  48 2.10  82 2.71
  82  0.174  0.897  0.180-  33 2.25  31 2.26  25 2.26  30 2.36   4 2.36  81 2.71
  83  0.268  0.803  0.315-  34 2.25  26 2.26  32 2.26  31 2.36  25 2.36
  84  0.362  0.709  0.451-  41 2.02  27 2.08  35 2.14  32 2.36  26 2.36
  85  0.573  0.667  0.270-  13 2.25  46 2.26  32 2.26  45 2.36  31 2.36
  86  0.667  0.573  0.405-  47 2.02  41 2.02  14 2.25  46 2.36  32 2.36
  87  0.979  0.761  0.135-  48 2.13  42 2.16  28 2.25  43 2.26  33 2.26
  88  0.711  0.029  0.527-  39 2.04  23 2.08  17 2.08  62 2.69
  89  0.530  0.878  0.451-  47 2.02  27 2.08  17 2.14  46 2.36  26 2.36
  90  0.936  0.972  0.315-  20 2.25  38 2.26  34 2.26  37 2.36  33 2.36
  91  0.783  0.634  0.067-  40 2.06  24 2.10  42 2.11  92 2.58
  92  0.842  0.566  0.180-  24 2.05  43 2.25  13 2.26   9 2.26  40 2.36  91 2.58
  93  0.599  0.958  0.068-  16 2.08  42 2.12  36 2.15  94 2.57
  94  0.674  0.897  0.180-  42 2.05  45 2.25  43 2.26  37 2.26  16 2.36  93 2.57
  95  0.768  0.803  0.315-  46 2.25  38 2.26  44 2.26  43 2.36  37 2.36
  96  0.862  0.709  0.451-  47 2.08  39 2.08  29 2.10  44 2.36  38 2.36

  LATTYP: Found a base centered orthorhombic cell.
 ALAT       =    11.8257374459
 B/A-ratio  =     1.6199260857
 C/A-ratio  =     1.8387210052

  Lattice vectors:

 A1 = (  11.2564630382,   0.0000000000,   0.0000000000)
 A2 = (  -5.0445621212, -10.0628203371,   0.0000000000)
 A3 = (   0.0000000000,   0.0000000000, -21.7442318436)

Analysis of symmetry for initial positions (statically):
 Subroutine PRICEL returns:
 Original cell was already a primitive cell.

 Routine SETGRP: Setting up the symmetry group for a
 base centered orthorhombic supercell.

 Subroutine GETGRP returns: Found  2 space group operations
 (whereof  1 operations were pure point group operations)
 out of a pool of  8 trial point group operations.

The static configuration has the point symmetry C_1 .
 The point group associated with its full space group is C_1h.

Analysis of symmetry for dynamics (positions and initial velocities):
 Subroutine PRICEL returns:
 Original cell was already a primitive cell.

 Routine SETGRP: Setting up the symmetry group for a
 base centered orthorhombic supercell.

 Subroutine GETGRP returns: Found  2 space group operations
 (whereof  1 operations were pure point group operations)
 out of a pool of  8 trial point group operations.

The dynamic configuration has the point symmetry C_1 .
 The point group associated with its full space group is C_1h.

 Subroutine INISYM returns: Found  2 space group operations
 (whereof  1 operations are pure point group operations),
 and found     1 'primitive' translations

 KPOINTS: gamma-point-only calculation. no periodi

Automatic generation of k-mesh.
Space group operators:
 irot       det(A)        alpha          n_x          n_y          n_z        tau_x        tau_y        tau_z
    1     1.000000     0.000000     1.000000     0.000000     0.000000     0.000000     0.000000     0.000000
    2    -1.000000   180.000000     0.850925     0.525287     0.000000     0.239701    -0.760299     0.000000

 Subroutine IBZKPT returns following result:

 Found      1 irreducible k-points:

 Following reciprocal coordinates:
            Coordinates               Weight
  0.000000  0.000000  0.000000      1.000000

 Following cartesian coordinates:
            Coordinates               Weight
  0.000000  0.000000  0.000000      1.000000

 SYSTEM =  "Millerite NiS"
 POSCAR =  Type_048 Type_148

 Startparameter for this run:
   NWRITE =      2    write-flag & timer
   PREC   = normal    normal or accurate (medium, high low for compatibility)
   ISTART =      0    job   : 0-new  1-cont  2-samecut
   ICHARG =      2    charge: 1-file 2-atom 10-const
   ISPIN  =      1    spin polarized calculation?
   LNONCOLLINEAR =      F non collinear calculations
[...]
     0.000000000  0.000000000 21.744231844     0.000000000  0.000000000  0.045989208

  length of vectors
    11.256463038 11.256463038 21.744231844     0.099375718  0.099375718  0.045989208

 FORCES acting on ions
    electron-ion (+dipol)            ewald-force                    non-local-force                 convergence-correction
   0.246E+03 -.426E+03 0.620E+03   -.247E+03 0.427E+03 -.620E+03   0.474E+00 -.811E+00 -.368E+00   -.201E-01 0.498E-01 0.298E+00
   0.213E+03 -.383E+03 -.237E+04   -.213E+03 0.384E+03 0.237E+04   0.647E+00 -.939E+00 0.110E+00   0.557E-01 -.164E+00 -.543E+00
   -.750E+02 -.488E+01 -.559E+04   0.723E+02 0.926E+01 0.559E+04   0.328E+01 -.500E+01 0.711E+00   -.105E+00 -.950E-01 -.321E+00
   0.285E+03 -.461E+03 0.402E+04   -.287E+03 0.465E+03 -.402E+04   0.230E+01 -.372E+01 0.258E+01   -.300E-01 0.486E-01 0.165E+00
   0.360E+03 0.408E+03 -.476E+04   -.364E+03 -.411E+03 0.476E+04   0.281E+01 0.346E+01 -.240E+01   0.960E-01 -.944E-01 -.161E+00
   0.221E+02 0.273E+03 0.499E+04   -.222E+02 -.277E+03 -.499E+04   0.666E+00 0.459E+01 0.390E+01   -.311E-01 -.336E-01 0.143E+00
   0.206E+03 0.510E+03 0.167E+04   -.206E+03 -.510E+03 -.167E+04   0.573E+00 0.831E+00 -.686E+00   0.197E-01 -.348E-01 0.336E+00
   0.241E+03 0.436E+03 -.138E+04   -.242E+03 -.437E+03 0.138E+04   0.111E+01 0.380E+00 0.216E+01   0.135E+00 0.772E-01 -.983E-01
   -.509E+03 0.225E+02 0.163E+04   0.510E+03 -.227E+02 -.163E+04   -.315E+00 0.212E+00 -.735E+00   0.217E-01 0.119E-01 0.176E+00
   -.477E+03 -.793E+02 -.138E+04   0.478E+03 0.798E+02 0.137E+04   -.592E+00 -.656E+00 0.260E+01   0.150E+00 0.406E-01 -.742E-01
   -.526E+03 -.139E+03 -.476E+04   0.530E+03 0.141E+03 0.476E+04   -.435E+01 -.961E+00 -.240E+01   0.414E-01 -.128E+00 -.161E+00
   -.275E+03 0.326E+02 0.499E+04   0.280E+03 -.344E+02 -.499E+04   -.510E+01 0.134E+01 0.416E+01   -.473E-01 -.438E-02 0.126E+00
   0.263E+03 -.426E+03 0.590E+03   -.264E+03 0.427E+03 -.590E+03   0.581E+00 -.941E+00 -.511E+00   -.118E-01 0.191E-01 0.207E+00
   0.316E+03 -.511E+03 -.269E+04   -.316E+03 0.512E+03 0.269E+04   0.780E+00 -.126E+01 0.123E+01   -.483E-01 0.782E-01 -.220E+00
   0.374E+03 -.606E+03 -.578E+04   -.372E+03 0.603E+03 0.577E+04   -.166E+01 0.269E+01 0.590E+01   0.595E-01 -.964E-01 -.783E-01
   0.300E+03 -.381E+03 0.427E+04   -.303E+03 0.385E+03 -.428E+04   0.241E+01 -.381E+01 0.422E+01   -.231E-01 0.125E-01 0.174E+00
   0.279E+03 0.245E+03 -.486E+04   -.283E+03 -.248E+03 0.487E+04   0.347E+01 0.338E+01 -.187E+01   -.619E-01 0.110E+00 -.410E+00
   0.610E+02 0.217E+03 0.499E+04   -.616E+02 -.223E+03 -.500E+04   0.126E+01 0.568E+01 0.456E+01   0.206E-01 -.974E-01 0.135E+00
   0.208E+03 0.465E+03 0.163E+04   -.208E+03 -.466E+03 -.163E+04   -.480E-01 0.377E+00 -.735E+00   -.204E-01 -.141E-01 0.176E+00
   0.285E+03 0.391E+03 -.138E+04   -.285E+03 -.391E+03 0.137E+04   0.852E+00 0.235E+00 0.260E+01   -.103E+00 -.116E+00 -.742E-01
   -.522E+03 0.206E+02 0.165E+04   0.522E+03 -.205E+02 -.165E+04   -.499E+00 -.111E+00 -.847E+00   -.524E-01 -.531E-01 0.363E+00
   -.537E+03 -.531E+02 -.142E+04   0.538E+03 0.540E+02 0.142E+04   -.101E+01 -.892E+00 0.214E+01   -.238E+00 -.121E+00 -.178E+00
   -.391E+03 -.286E+03 -.488E+04   0.396E+03 0.287E+03 0.488E+04   -.435E+01 -.811E+00 -.172E+01   -.415E-01 -.813E-01 -.379E+00
   -.222E+03 0.429E+02 0.499E+04   0.227E+03 -.447E+02 -.500E+04   -.565E+01 0.142E+01 0.456E+01   0.778E-01 -.620E-01 0.135E+00
   0.233E+03 -.378E+03 0.663E+03   -.234E+03 0.379E+03 -.663E+03   0.512E+00 -.830E+00 -.195E-01   0.135E-01 -.218E-01 0.221E+00
   0.208E+03 -.336E+03 -.236E+04   -.208E+03 0.337E+03 0.236E+04   0.478E+00 -.775E+00 0.259E-01   -.806E-01 0.131E+00 -.401E+00
   -.920E+02 0.149E+03 -.561E+04   0.899E+02 -.146E+03 0.561E+04   0.269E+01 -.436E+01 0.387E+00   -.161E+00 0.260E+00 -.238E+00
   0.206E+03 -.439E+03 0.427E+04   -.209E+03 0.444E+03 -.428E+04   0.233E+01 -.387E+01 0.422E+01   -.837E-03 0.262E-01 0.174E+00
   0.431E+03 0.222E+03 -.488E+04   -.434E+03 -.225E+03 0.488E+04   0.268E+01 0.353E+01 -.172E+01   0.913E-01 0.605E-03 -.379E+00
   0.280E+03 0.515E+03 0.493E+04   -.282E+03 -.520E+03 -.493E+04   0.173E+01 0.374E+01 0.453E+01   -.107E-01 0.768E-01 0.317E-01
   0.224E+03 0.436E+03 0.177E+04   -.224E+03 -.436E+03 -.177E+04   0.178E+00 0.295E+00 0.962E+00   -.721E-01 0.504E-01 0.314E+00
   0.215E+03 0.444E+03 -.139E+04   -.216E+03 -.445E+03 0.138E+04   0.116E+01 0.526E+00 0.194E+01   -.167E+00 0.150E+00 -.291E+00
   -.548E+03 0.443E+02 0.167E+04   0.549E+03 -.441E+02 -.167E+04   -.100E+01 -.140E+00 -.686E+00   0.222E-01 -.332E-01 0.336E+00
   -.498E+03 -.196E+02 -.138E+04   0.499E+03 0.204E+02 0.138E+04   -.835E+00 -.818E+00 0.216E+01   -.129E+00 -.858E-01 -.983E-01
   -.344E+03 -.139E+03 -.486E+04   0.349E+03 0.142E+03 0.487E+04   -.458E+01 -.159E+01 -.187E+01   -.706E-01 0.105E+00 -.410E+00
   -.586E+03 -.198E+02 0.493E+04   0.591E+03 0.193E+02 -.493E+04   -.412E+01 0.127E+00 0.453E+01   -.639E-01 0.440E-01 0.317E-01
   0.270E+03 -.411E+03 0.620E+03   -.271E+03 0.412E+03 -.620E+03   0.513E+00 -.788E+00 -.368E+00   -.355E-01 0.403E-01 0.298E+00
   0.247E+03 -.362E+03 -.237E+04   -.248E+03 0.363E+03 0.237E+04   0.550E+00 -.999E+00 0.110E+00   0.121E+00 -.123E+00 -.543E+00
   0.380E+02 0.649E+02 -.559E+04   -.407E+02 -.604E+02 0.559E+04   0.299E+01 -.517E+01 0.711E+00   0.132E+00 0.515E-01 -.321E+00
   0.229E+03 -.371E+03 0.426E+04   -.232E+03 0.375E+03 -.427E+04   0.279E+01 -.452E+01 0.413E+01   -.115E-01 0.187E-01 0.164E+00
   -.143E+03 0.330E+03 -.499E+04   0.142E+03 -.332E+03 0.499E+04   0.105E+01 0.139E+01 0.113E+01   -.132E+00 -.934E-01 -.304E+00
   0.943E+02 0.261E+03 0.499E+04   -.948E+02 -.266E+03 -.499E+04   0.109E+01 0.516E+01 0.416E+01   0.251E-01 0.403E-01 0.126E+00
   0.215E+03 0.476E+03 0.165E+04   -.216E+03 -.476E+03 -.165E+04   0.323E+00 0.397E+00 -.847E+00   0.710E-01 0.230E-01 0.363E+00
   0.288E+03 0.456E+03 -.142E+04   -.289E+03 -.457E+03 0.142E+04   0.125E+01 0.506E+00 0.214E+01   0.215E+00 0.159E+00 -.178E+00
   -.490E+03 -.469E+01 0.177E+04   0.491E+03 0.460E+01 -.177E+04   -.344E+00 -.264E-01 0.962E+00   -.127E-01 0.870E-01 0.314E+00
   -.493E+03 0.724E+01 -.139E+04   0.494E+03 -.659E+01 0.138E+04   -.991E+00 -.803E+00 0.194E+01   -.593E-01 0.216E+00 -.291E+00
   -.231E+03 0.276E+03 -.499E+04   0.233E+03 -.276E+03 0.499E+04   -.172E+01 -.312E+00 0.113E+01   0.142E+00 0.758E-01 -.304E+00
   -.254E+03 0.102E+03 0.499E+04   0.258E+03 -.104E+03 -.499E+04   -.440E+01 0.146E+01 0.390E+01   0.440E-01 0.128E-01 0.143E+00
   -.750E+02 0.121E+03 0.270E+03   0.763E+02 -.124E+03 -.272E+03   -.137E+01 0.222E+01 0.284E+01   0.341E-01 -.552E-01 -.392E-01
   -.827E+02 0.134E+03 -.869E+03   0.839E+02 -.136E+03 0.866E+03   -.712E+00 0.115E+01 0.738E+00   0.617E-01 -.999E-01 -.162E-01
   -.116E+03 0.197E+03 0.158E+04   0.117E+03 -.198E+03 -.158E+04   0.346E-01 0.379E+00 0.232E+01   -.738E-02 -.204E-01 0.694E-01
   -.689E+01 0.464E+01 -.233E+04   0.748E+01 -.548E+01 0.233E+04   -.224E+00 0.373E+00 -.207E+01   -.490E-01 0.888E-01 -.558E-03
   -.546E+02 -.247E+03 -.153E+04   0.555E+02 0.250E+03 0.154E+04   -.351E+00 -.835E+00 -.150E+01   0.210E-01 -.937E-02 -.659E-01
   -.826E+02 -.154E+03 -.216E+03   0.840E+02 0.157E+03 0.216E+03   -.134E+01 -.249E+01 -.159E+00   -.361E-01 -.741E-01 0.405E-01
   -.305E+01 -.191E+03 0.217E+04   0.170E+01 0.194E+03 -.217E+04   0.165E+01 -.112E+01 0.358E+01   -.344E-01 0.111E-03 0.242E-01
   -.743E+02 -.124E+03 0.970E+03   0.758E+02 0.126E+03 -.971E+03   -.137E+01 -.240E+01 0.107E+01   -.279E-01 0.103E-01 0.107E+00
   0.911E+02 -.529E+02 0.225E+04   -.920E+02 0.537E+02 -.225E+04   -.324E-01 -.102E+01 0.377E+01   0.939E-02 -.337E-02 0.525E-02
   0.178E+03 -.520E+02 0.923E+03   -.181E+03 0.522E+02 -.921E+03   0.232E+01 0.424E+00 0.666E+00   0.897E-02 0.132E-02 0.102E+00
   0.170E+03 -.355E+01 -.212E+03   -.173E+03 0.362E+01 0.212E+03   0.295E+01 -.315E-01 -.173E+00   0.136E+00 -.202E-01 0.291E-01
   0.133E+03 0.567E+02 -.156E+04   -.135E+03 -.571E+02 0.156E+04   0.173E+01 0.802E+00 -.182E+01   -.176E-01 -.972E-01 -.209E+00
[...]
   0.165E+03 0.273E+01 -.203E+03   -.168E+03 -.277E+01 0.203E+03   0.278E+01 -.577E-01 -.200E+00   -.449E-01 0.184E-01 0.610E-01
   0.132E+03 0.631E+02 -.159E+04   -.133E+03 -.640E+02 0.159E+04   0.294E+00 0.162E+01 -.145E+01   -.140E+00 0.824E-01 -.192E+00
   -.741E+02 0.120E+03 0.273E+03   0.753E+02 -.122E+03 -.274E+03   -.115E+01 0.186E+01 0.163E+01   0.188E-02 -.305E-02 0.638E-01
   -.116E+03 0.188E+03 -.102E+04   0.117E+03 -.190E+03 0.102E+04   -.211E+00 0.342E+00 -.144E+01   0.373E-01 -.603E-01 -.225E+00
   -.124E+03 0.192E+03 0.158E+04   0.125E+03 -.193E+03 -.158E+04   -.354E+00 0.139E+00 0.232E+01   0.216E-01 -.256E-02 0.694E-01
   -.106E+01 0.824E+01 -.233E+04   0.155E+01 -.914E+01 0.233E+04   -.233E+00 0.368E+00 -.207E+01   -.575E-01 0.836E-01 -.559E-03
   -.116E+03 -.898E+02 -.159E+04   0.117E+03 0.905E+02 0.159E+04   -.158E+01 0.465E+00 -.145E+01   -.109E-01 0.162E+00 -.192E+00
   -.728E+02 -.153E+03 -.212E+03   0.742E+02 0.156E+03 0.212E+03   -.130E+01 -.265E+01 -.173E+00   -.429E-01 -.131E+00 0.291E-01
   -.118E+02 -.827E+02 0.222E+04   0.116E+02 0.840E+02 -.223E+04   0.845E+00 -.601E+00 0.380E+01   0.248E-01 0.132E-01 -.156E-01
   -.187E+02 -.189E+03 0.930E+03   0.201E+02 0.192E+03 -.928E+03   -.192E+01 -.161E+01 0.443E+00   0.149E-01 -.119E-01 0.124E+00
   0.480E+02 -.358E+02 0.214E+04   -.484E+02 0.367E+02 -.214E+04   -.328E+00 -.912E+00 0.375E+01   0.799E-02 0.167E-01 0.128E-01
   0.211E+03 -.642E+02 0.938E+03   -.213E+03 0.639E+02 -.936E+03   0.162E+01 0.886E+00 0.224E+00   0.104E-01 0.321E-01 0.110E+00
   0.175E+03 0.458E+01 -.216E+03   -.178E+03 -.466E+01 0.216E+03   0.283E+01 0.864E-01 -.159E+00   0.825E-01 -.903E-03 0.405E-01
   0.176E+03 0.111E+03 -.159E+04   -.179E+03 -.112E+03 0.160E+04   0.219E+01 0.589E+00 -.185E+01   0.961E-01 -.415E-01 -.252E+00
   -.561E+01 0.908E+01 -.950E+02   -.188E-11 -.283E-11 0.205E-11   0.588E+01 -.953E+01 0.969E+02   -.372E+00 0.603E+00 -.177E+01

 POSITION                                       TOTAL-FORCE (eV/Angst)
      5.35228      4.81788      5.50842        -0.025844     -0.090681      0.001900
      5.93595      3.87238      8.44448        -0.153328      0.105061     -0.980474
      6.06562      3.66863     10.81564         0.415380     -0.715472      0.863499
      2.24633      0.73197      2.57236        -0.193967      0.314212      2.206992
      0.83168      0.51829     10.28156        -0.845504      0.083554      0.486734
      4.78879      3.20141      2.22364         0.550635     -0.225624     -1.039952
      5.35228      2.40903      4.73270         0.054892      0.060881      0.225218
      5.93595      1.46353      7.66876         0.091326     -0.064912     -0.018716
      1.87746      3.73836      4.73270        -0.080858     -0.041545      0.280101
      2.46113      2.79286      7.66876         0.054216     -0.145444     -0.032580
      3.07133      1.90085     10.28156         0.304217      0.793291      0.486734
      7.15409      4.61446      2.23908        -0.297416     -0.537145     -1.190011
     10.98051      4.81788      5.50842         0.037165     -0.060204     -0.087650
     11.56418      3.87238      8.44448         0.021666     -0.035097      0.024093
     12.16182      2.90425     10.97905         0.033357     -0.054036      1.331726
      7.87456      0.73197      2.57236        -0.569612      0.050738      1.411499
      6.45474      0.54419     10.27136        -0.656888      0.105433      0.534650
     10.35855      3.08971      2.24897         0.669469      0.205127     -1.058255
     10.98051      2.40903      4.73270         0.073376      0.053665      0.280101
     11.56418      1.46353      7.66876         0.105724     -0.113647     -0.032580
      7.50570      3.73836      4.73270        -0.059605     -0.094430      0.244572
      8.08937      2.79286      7.66876        -0.105047     -0.138745     -0.013291
      8.67321      1.91396     10.27303         0.346235      0.793206      0.572436
     12.80416      4.59942      2.24897        -0.483397     -0.506550     -1.058255
      7.87456      9.84929      5.50842         0.071919     -0.116503     -0.137275
      8.45823      8.90379      8.44448        -0.111814      0.181131     -1.067661
      8.58582      8.69711     10.81978         0.503506     -0.815643      0.999590
      4.76861      5.76338      2.57236         0.209913      0.531948      1.411499
      3.35405      5.57913     10.27303        -0.864258      0.045953      0.572436
      7.29089      8.38594      1.79664        -0.498082     -1.623896      2.604714
      7.87456      7.44044      4.73270         0.088437      0.099109      0.117409
      8.45823      6.49494      7.66876        -0.039701      0.072316     -0.274283
      4.39975      8.76977      4.73270        -0.079025     -0.021788      0.225218
      4.98341      7.82427      7.66876         0.017102     -0.110732     -0.018716
      5.57277      6.94849     10.27136         0.200130      0.634481      0.534650
      9.44431      9.71527      1.79664         1.674911     -0.282481      2.604714
     13.50279      9.84929      5.50842         0.092648     -0.017535      0.001900
     14.08646      8.90379      8.44448        -0.025206      0.184152     -0.980474
     14.21050      8.69656     10.81564         0.453451     -0.691970      0.863499
     10.39684      5.76338      2.57236        -0.061066      0.098923      1.506289
      8.89097      5.57916     10.14171         0.408097     -0.446896      1.039008
     12.87717      8.14739      2.23908         0.613472      0.025157     -1.190011
     13.50279      7.44044      4.73270         0.111128      0.010966      0.244572
     14.08646      6.49494      7.66876         0.171108      0.031729     -0.013291
     10.02798      8.76977      4.73270        -0.128232     -0.034643      0.117409
     10.61165      7.82427      7.66876        -0.046856      0.067899     -0.274283
     11.23639      7.02701     10.14171         0.216619     -0.565097      1.039008
     15.20038      9.62861      2.22364        -0.045067     -0.593358     -1.039952
      1.66190      1.67871      5.87212        -0.004455      0.007216      0.089698
      2.24556      0.73321      8.80817         0.470297     -0.761846     -3.019989
      6.70646      2.62422      2.93606         0.896682     -0.961029     -0.309545
      5.04438      5.32206     11.44921         0.314798     -0.377455      2.732180
      2.24556      3.80055      9.79595         0.524378      1.701713     -0.689455
      7.29013      4.74605      6.85989         0.039357      0.076047     -0.047307
      3.73900      1.57258      1.41414         0.263358      1.434835     -2.667310
      4.18418      0.66015      3.92384         0.075321     -0.340933      0.795846
      3.48810      4.64590      1.42608        -0.914503     -0.272920     -2.483612
      3.96438      3.99884      3.92384        -0.273749      0.591993      2.698201
      4.54805      3.05334      6.85989        -0.052970      0.011302      0.001721
      5.13172      2.10784      9.79595        -0.720521      0.265391     -0.195726
[...]
      6.48666      9.03025      3.92384         0.271026     -0.220123      0.795846
      7.07033      8.08475      6.85989        -0.039167     -0.084644      0.037713
      7.65400      7.13925      9.79595        -1.135120      0.777074     -0.103288
      9.81241      6.71012      5.87212         0.067112     -0.108717      0.133046
     10.39608      5.76462      8.80817         0.849082     -1.375450     -1.546292
     14.85697      7.65563      2.93606         0.457275     -1.232281     -0.309545
      8.14550      0.28767     11.44921         0.196354     -0.450572      2.732180
     10.39608      8.83196      9.79595        -0.185971      1.362995     -0.103288
     15.44064      9.77746      6.85989         0.013635      0.052418      0.001721
     12.01561      6.38231      1.45704         0.701735      0.743721     -2.385290
     12.33469      5.69156      3.92384        -0.467838      0.523815      2.495145
     11.57050      9.64011      1.48593        -0.753232     -0.012214     -2.025304
     12.11489      9.03025      3.92384        -0.643717      0.613499      2.430218
     12.69856      8.08475      6.85989        -0.085621     -0.001103     -0.047307
     13.28223      7.13925      9.79595        -0.766462      0.126128     -0.255630
    total drift:                               -0.103352      0.150503      0.150061

  FREE ENERGIE OF THE ION-ELECTRON SYSTEM (eV)
  free  energy   TOTEN  =      -478.23582356 eV

  energy  without entropy=     -477.20673429  energy(sigma->0) =     -477.72127892