 vasp.5.4.4.18Apr17-6-g9f103f2a35 (build Aug 13 2019 17:33:20) gamma-only

 executed on             LinuxIFC date 2020.05.11  17:53:28

 INCAR:
 POTCAR:    PAW_PBE Ni_pv 06Sep2000
 POTCAR:    PAW_PBE S 06Sep2000
 POTCAR:    PAW_PBE Ni_pv 06Sep2000
   VRHFIN =Ni:

   TITEL  = PAW_PBE Ni_pv 06Sep2000
   POMASS =   58.690; ZVAL   =   16.000    mass and valenz
   ENMAX  =  367.986; ENMIN  =  275.989 eV

 POTCAR:    PAW_PBE S 06Sep2000
   VRHFIN =S : s2p4

   TITEL  = PAW_PBE S 06Sep2000
   POMASS =   32.066; ZVAL   =    6.000    mass and valenz
   ENMAX  =  258.689; ENMIN  =  194.016 eV

 Optimization of the real space projectors (new method)

 maximal supplied QI-value         = 18.90
 optimisation between [QCUT,QGAM] = [ 10.77, 21.73] = [ 32.49,132.25] Ry
 Optimized for a Real-space Cutoff    1.38 Angstroem

   l    n(q)    QCUT    max X(q) W(low)/X(q) W(high)/X(q)  e(spline)
   1      8    10.771     2.836    0.40E-04    0.29E-04    0.12E-06
   1      8    10.771     4.023    0.10E-03    0.48E-04    0.29E-06
   2      8    10.771    73.368    0.42E-03    0.97E-04    0.44E-06
   2      8    10.771    69.010    0.42E-03    0.99E-04    0.45E-06
   0      9    10.771    54.797    0.10E-03    0.56E-04    0.74E-07
   0      9    10.771    24.266    0.89E-04    0.49E-04    0.67E-07
 Optimization of the real space projectors (new method)

 maximal supplied QI-value         = 19.84
 optimisation between [QCUT,QGAM] = [ 10.71, 21.63] = [ 32.15,130.99] Ry
 Optimized for a Real-space Cutoff    1.19 Angstroem

   l    n(q)    QCUT    max X(q) W(low)/X(q) W(high)/X(q)  e(spline)
   0      8    10.715   187.594    0.41E-03    0.53E-04    0.66E-07
   0      8    10.715   164.243    0.41E-03    0.53E-04    0.65E-07
   1      7    10.715    67.533    0.19E-03    0.59E-03    0.68E-07
   1      7    10.715    50.729    0.19E-03    0.58E-03    0.67E-07
  PAW_PBE Ni_pv 06Sep2000               :
  PAW_PBE S 06Sep2000                   :

 POSCAR: Type_036 Type_136
  positions in cartesian coordinates
 exchange correlation table for  LEXCH =        8
   RHO(1)=    0.500       N(1)  =     2000
   RHO(2)=  100.500       N(2)  =     4000

 ion  position               nearest neighbor table
   1  0.762  0.211  0.134-  63 2.04  41 2.07  50 2.12  49 2.12   2 2.45  24 2.49  42 2.50
   2  0.819  0.167  0.271-  64 2.04  50 2.09  42 2.10   1 2.45
   3  0.215  0.619  0.095-  43 2.03  44 2.12  61 2.16   4 2.41  15 2.50  51 2.51
   4  0.297  0.645  0.216-  62 2.14  52 2.16  44 2.25  51 2.26  61 2.26   3 2.41  28 2.53  16 2.53

   5  0.386  0.120  0.126-  45 2.04  46 2.13  67 2.19   6 2.44  18 2.51  53 2.52  22 2.53
   6  0.470  0.145  0.248-  54 2.11  68 2.12  46 2.25  53 2.26  67 2.26   5 2.44  31 2.53  19 2.53

[...]

  17  0.465  0.465  0.333-  54 2.00  62 2.05  40 2.08  16 2.44
  18  0.529  0.147  0.089-  53 2.03  41 2.04  67 2.06   5 2.51
  19  0.597  0.013  0.223-  68 2.05  59 2.16  42 2.25  67 2.26  41 2.26   6 2.53  31 2.53
  20  0.080  0.513  0.127-  66 2.03  43 2.07  57 2.10  44 2.36  65 2.36   7 2.53  32 2.53
  21  0.113  0.501  0.291-  65 2.02  44 2.05  58 2.08
  22  0.252  0.013  0.159-  45 2.07  71 2.09  51 2.25  46 2.36  72 2.36  23 2.50   9 2.53  34 2.53
                             5 2.53
  23  0.293  0.973  0.306-  52 2.04  46 2.05  72 2.06  22 2.50
  24  0.767  0.468  0.112-  49 2.02  47 2.10  69 2.19  50 2.21  25 2.35   1 2.49
  25  0.770  0.513  0.254-  70 2.03  48 2.12  50 2.16  47 2.17  69 2.26  24 2.35  12 2.53  36 2.53

  26  0.954  0.273  0.243-  37 2.06  38 2.08  65 2.12  50 2.19  14 2.50
  27  0.415  0.884  0.059-  67 2.09  51 2.10  28 2.37  15 2.49  39 2.54
  28  0.425  0.777  0.191-  52 2.15  67 2.25  39 2.26  51 2.26  40 2.36  27 2.37  29 2.41  16 2.53
                             4 2.53
  29  0.470  0.834  0.328-  68 2.00  52 2.06  40 2.09  28 2.41
  30  0.635  0.350  0.080-  49 2.04  41 2.07  69 2.09  31 2.49
  31  0.597  0.277  0.223-  54 2.07  42 2.14  69 2.25  53 2.26  41 2.26  30 2.49   6 2.53  19 2.53

  32  0.080  0.777  0.127-  43 2.06  56 2.08  71 2.11  44 2.36  55 2.36   7 2.53  20 2.53
  33  0.113  0.789  0.291-  55 2.03  44 2.05  72 2.09
  34  0.252  0.277  0.159-  45 2.06  57 2.09  61 2.25  46 2.36  58 2.36   9 2.53  22 2.53
  35  0.291  0.311  0.310-  62 2.04  58 2.04  46 2.04
  36  0.770  0.777  0.254-  60 2.02  48 2.10  47 2.17  59 2.20  64 2.25  12 2.53  25 2.53
  37  0.989  0.162  0.346-  10 2.02  14 2.05  26 2.06
  38  0.000  0.121  0.165-  26 2.08  13 2.11  14 2.11   9 2.14
  39  0.474  0.645  0.087-  11 2.00  15 2.02  28 2.26  16 2.26  27 2.54
  40  0.509  0.645  0.278-  17 2.08  29 2.09  11 2.14  12 2.25  28 2.36  16 2.36
  41  0.647  0.145  0.119-  18 2.04  30 2.07   1 2.07  31 2.26  19 2.26  42 2.53
  42  0.695  0.155  0.267-   2 2.10  31 2.14  19 2.25   1 2.50  41 2.53
  43  0.113  0.646  0.032-   3 2.03  32 2.06  20 2.07
  44  0.164  0.645  0.214-  21 2.05  33 2.05   3 2.12   4 2.25  32 2.36  20 2.36
  45  0.282  0.146  0.063-   5 2.04  34 2.06  22 2.07
  46  0.336  0.145  0.246-  35 2.04  23 2.05   5 2.13   6 2.25  34 2.36  22 2.36
  47  0.822  0.646  0.160-  24 2.10  36 2.17  25 2.17   7 2.20  48 2.67
  48  0.844  0.647  0.324-   8 2.05  36 2.10  25 2.12  47 2.67
  49  0.742  0.326  0.024-  24 2.02  30 2.04   1 2.12  63 2.76
  50  0.838  0.346  0.201-   2 2.09   1 2.12  25 2.16  26 2.19  24 2.21
  51  0.312  0.814  0.119-  15 2.06  27 2.10  22 2.25   4 2.26  28 2.26   3 2.51
  52  0.353  0.789  0.301-  23 2.04  29 2.06  28 2.15   4 2.16
  53  0.484  0.314  0.151-  18 2.03  16 2.25  31 2.26   6 2.26   5 2.52
  54  0.527  0.288  0.327-  17 2.00  31 2.07   6 2.11  68 2.65
  55  0.001  0.814  0.246-  33 2.03   8 2.03  14 2.16   7 2.36  32 2.36
  56  0.970  0.811  0.072-  13 2.05   7 2.07  32 2.08
  57  0.141  0.324  0.110-  34 2.09  20 2.10   9 2.11  58 2.78
  58  0.174  0.314  0.278-  35 2.04  21 2.08  10 2.12   9 2.36  34 2.36  57 2.78
  59  0.653  0.815  0.197-  12 2.11  11 2.13  19 2.16  36 2.20  60 2.68
  60  0.699  0.784  0.355-  36 2.02  12 2.04  59 2.68  70 2.77
  61  0.312  0.477  0.119-  15 2.04   3 2.16  34 2.25   4 2.26  16 2.26
  62  0.350  0.495  0.297-  35 2.04  17 2.05  16 2.14   4 2.14
  63  0.833  0.094  0.059-  13 2.00   1 2.04  64 2.75  49 2.76
  64  0.829  0.977  0.214-   2 2.04  13 2.08  14 2.18  36 2.25  63 2.75
  65  0.001  0.477  0.246-  21 2.02   8 2.03  26 2.12   7 2.36  20 2.36
  66  0.974  0.493  0.070-   7 2.01  20 2.03
  67  0.484  0.977  0.151-  18 2.06  27 2.09   5 2.19  28 2.25  19 2.26   6 2.26
  68  0.532  0.012  0.329-  29 2.00  19 2.05   6 2.12  54 2.65
  69  0.657  0.477  0.183-  30 2.09  24 2.19  31 2.25  25 2.26  12 2.26  11 2.33
  70  0.694  0.495  0.351-  25 2.03  12 2.04  60 2.77
  71  0.141  0.967  0.109-  22 2.09  32 2.11   9 2.11  72 2.78
  72  0.174  0.977  0.278-  23 2.06  33 2.09  10 2.13   9 2.36  22 2.36  71 2.78

  LATTYP: Found a simple orthorhombic cell.
 ALAT       =     9.5784100000
 B/A-ratio  =     1.6880763216
 C/A-ratio  =     1.7627867312

  Lattice vectors:

 A1 = (   0.0000000000,   9.5784100000,   0.0000000000)
 A2 = (   0.0000000000,   0.0000000000, -16.1690871197)
 A3 = ( -16.8846940542,   0.0000000000,   0.0000000000)

Analysis of symmetry for initial positions (statically):
 Subroutine PRICEL returns:
 Original cell was already a primitive cell.

 Routine SETGRP: Setting up the symmetry group for a
 simple orthorhombic supercell.

 Subroutine GETGRP returns: Found  1 space group operations
 (whereof  1 operations were pure point group operations)
 out of a pool of  8 trial point group operations.

The static configuration has the point symmetry C_1 .

Analysis of symmetry for dynamics (positions and initial velocities):
 Subroutine PRICEL returns:
 Original cell was already a primitive cell.

 Routine SETGRP: Setting up the symmetry group for a
 simple orthorhombic supercell.

 Subroutine GETGRP returns: Found  1 space group operations
 (whereof  1 operations were pure point group operations)
 out of a pool of  8 trial point group operations.

The dynamic configuration has the point symmetry C_1 .

 Subroutine INISYM returns: Found  1 space group operations
 (whereof  1 operations are pure point group operations),
 and found     1 'primitive' translations

 KPOINTS: gamma-point-only calculation. no periodi

Automatic generation of k-mesh.
Space group operators:
 irot       det(A)        alpha          n_x          n_y          n_z        tau_x        tau_y        tau_z
    1     1.000000     0.000000     1.000000     0.000000     0.000000     0.000000     0.000000     0.000000

 Subroutine IBZKPT returns following result:

 Found      1 irreducible k-points:

 Following reciprocal coordinates:
            Coordinates               Weight
  0.000000  0.000000  0.000000      1.000000

 Following cartesian coordinates:
            Coordinates               Weight
  0.000000  0.000000  0.000000      1.000000

 SYSTEM =  "Millerite NiS"
 POSCAR =  Type_036 Type_136

 Startparameter for this run:
   NWRITE =      2    write-flag & timer
   PREC   = normal    normal or accurate (medium, high low for compatibility)
   ISTART =      0    job   : 0-new  1-cont  2-samecut
   ICHARG =      2    charge: 1-file 2-atom 10-const
   ISPIN  =      1    spin polarized calculation?
   LNONCOLLINEAR =      F non collinear calculations
   LSORBIT =      F    spin-orbit coupling
   INIWAV =      1    electr: 0-lowe 1-rand  2-diag
   LASPH  =      F    aspherical Exc in radial PAW
   METAGGA=      F    non-selfconsistent MetaGGA calc.

 Electronic Relaxation 1
   ENCUT  =  450.0 eV  33.07 Ry    5.75 a.u.  29.20 16.57 27.97*2*pi/ulx,y,z
   ENINI  =  450.0     initial cutoff
   ENAUG  =  703.4 eV  augmentation charge cutoff
   NELM   =    100;   NELMIN=  2; NELMDL= -5     # of ELM steps
   EDIFF  = 0.1E-03   stopping-criterion for ELM
   LREAL  =      T    real-space projection
   NLSPLINE    = F    spline interpolate recip. space projectors
   LCOMPAT=      F    compatible to vasp.4.4
   GGA_COMPAT  = T    GGA compatible to vasp.4.4-vasp.4.6
   LMAXPAW     = -100 max onsite density
   LMAXMIX     =    2 max onsite mixed and CHGCAR
   VOSKOWN=      0    Vosko Wilk Nusair interpolation
   ROPT   =   -0.00050  -0.00050
 Ionic relaxation
   EDIFFG = 0.1E-02   stopping-criterion for IOM
   NSW    =      0    number of steps for IOM
   NBLOCK =      1;   KBLOCK =      1    inner block; outer block
   IBRION =     -1    ionic relax: 0-MD 1-quasi-New 2-CG
   NFREE  =      0    steps in history (QN), initial steepest desc. (CG)
   ISIF   =      2    stress and relaxation
   IWAVPR =     10    prediction:  0-non 1-charg 2-wave 3-comb
   ISYM   =      2    0-nonsym 1-usesym 2-fastsym
   LCORR  =      T    Harris-Foulkes like correction to forces

   POTIM  = 0.5000    time-step for ionic-motion
   TEIN   =    0.0    initial temperature
   TEBEG  =    0.0;   TEEND  =   0.0 temperature during run
   SMASS  =  -3.00    Nose mass-parameter (am)
   estimated Nose-frequenzy (Omega)   =  0.10E-29 period in steps =****** mass=  -0.652E-26a.u.
   SCALEE = 1.0000    scale energy and forces
   NPACO  =    256;   APACO  = 16.0  distance and # of slots for P.C.
   PSTRESS=    0.0 pullay stress

  Mass of Ions in am
   POMASS =  58.69 32.07
[...]
  Fock        0.00000     0.00000     0.00000     0.00000     0.00000     0.00000
  Total     125.95874   126.19250   131.75377    -1.71865     4.49863     0.12593
  in kB      77.17325    77.31647    80.72379    -1.05299     2.75625     0.07715

 VOLUME and BASIS-vectors are now :
  energy-cutoff  :      450.00
  volume of cell :     2615.00
      direct lattice vectors                 reciprocal lattice vectors
    16.884694054  0.000000000  0.000000000     0.059225237  0.000000000  0.000000000
     0.000000000  9.578410000  0.000000000     0.000000000  0.104401461  0.000000000
     0.000000000  0.000000000 16.169087120     0.000000000  0.000000000  0.061846411

  length of vectors
    16.884694054  9.578410000 16.169087120     0.059225237  0.104401461  0.061846411

 FORCES acting on ions
    electron-ion (+dipol)            ewald-force                    non-local-force                 convergence-correction
   -.404E+03 0.613E+03 0.177E+04   0.409E+03 -.617E+03 -.177E+04   -.512E+01 0.332E+01 0.231E+01   -.145E-01 0.715E-02 0.527E-02
   0.235E+03 0.127E+03 -.239E+04   -.234E+03 -.128E+03 0.239E+04   -.107E+01 0.553E+00 0.631E+00   -.161E-01 0.107E-02 0.131E-01
   0.292E+03 0.120E+03 0.291E+04   -.292E+03 -.120E+03 -.292E+04   0.631E+00 0.101E+01 0.715E+01   0.191E-01 -.266E-03 0.481E-02
   0.585E+03 0.491E+02 -.113E+04   -.587E+03 -.493E+02 0.114E+04   0.228E+01 0.763E-01 -.414E+01   -.246E-02 0.296E-02 0.344E-02
   0.371E+02 -.413E+03 0.228E+04   -.377E+02 0.413E+03 -.229E+04   0.132E+01 0.313E+00 0.745E+01   0.154E-01 0.708E-02 0.103E-01
   0.922E+02 -.870E+02 -.182E+04   -.953E+02 0.875E+02 0.183E+04   0.247E+01 -.101E-02 -.653E+01   0.948E-02 0.215E-02 0.207E-01
   0.885E+03 0.497E+02 0.144E+04   -.890E+03 -.505E+02 -.144E+04   0.480E+01 0.133E+01 0.382E+01   -.828E-02 -.193E-02 -.674E-02
   0.396E+03 0.208E+02 -.313E+04   -.399E+03 -.209E+02 0.313E+04   0.296E+01 0.141E+00 0.744E+00   0.844E-02 0.217E-02 0.155E-01
   0.732E+03 -.550E+02 0.928E+03   -.736E+03 0.555E+02 -.930E+03   0.329E+01 -.762E+00 0.242E+01   0.107E-02 -.353E-02 0.249E-01
   0.232E+03 0.162E+01 -.343E+04   -.235E+03 -.929E+00 0.343E+04   0.430E+01 -.850E+00 0.446E+00   0.155E-01 -.676E-02 0.782E-02
   -.755E+03 -.173E+03 0.178E+04   0.758E+03 0.174E+03 -.178E+04   -.257E+01 -.185E+01 0.316E+01   0.570E-02 -.201E-02 0.177E-01
   -.106E+03 -.102E+03 -.221E+04   0.102E+03 0.101E+03 0.222E+04   0.277E+01 0.861E+00 -.633E+01   -.200E-01 -.364E-02 -.512E-02
   0.299E+03 0.775E+02 0.251E+04   -.298E+03 -.807E+02 -.252E+04   -.885E+00 0.333E+01 0.541E+01   0.205E-02 -.845E-04 -.185E-02
   0.273E+03 0.401E+03 -.196E+04   -.273E+03 -.403E+03 0.197E+04   -.794E+00 0.177E+01 -.314E+01   0.127E-01 -.653E-03 0.105E-01
   -.805E+02 0.442E+03 0.398E+04   0.793E+02 -.442E+03 -.399E+04   0.791E+00 0.433E+00 0.506E+01   -.631E-02 -.952E-02 0.416E-02
   -.317E+03 0.614E+03 0.469E+03   0.317E+03 -.617E+03 -.470E+03   0.407E+00 0.356E+01 -.123E+00   0.165E-01 0.736E-02 0.103E-01
   -.238E+03 0.124E+03 -.360E+04   0.240E+03 -.128E+03 0.360E+04   -.248E+01 0.407E+01 0.193E+01   0.138E-01 0.179E-02 0.532E-02
   -.370E+03 0.145E+03 0.347E+04   0.367E+03 -.144E+03 -.348E+04   0.186E+01 -.531E+00 0.502E+01   0.409E-02 0.699E-02 0.105E-01
   -.979E+03 0.565E+03 -.629E+03   0.983E+03 -.571E+03 0.632E+03   -.240E+01 0.561E+01 -.469E+01   -.475E-02 -.827E-02 0.167E-01
   0.425E+03 0.747E+03 0.203E+04   -.425E+03 -.753E+03 -.203E+04   0.983E+00 0.605E+01 0.307E+01   0.138E-01 -.374E-02 -.207E-02
   0.472E+02 0.167E+03 -.278E+04   -.468E+02 -.169E+03 0.278E+04   0.988E-01 0.291E+01 0.166E+00   0.187E-01 0.306E-03 0.153E-01
   0.428E+03 0.333E+03 0.132E+04   -.429E+03 -.336E+03 -.132E+04   0.167E+01 0.204E+01 0.299E+01   -.634E-02 -.562E-02 0.294E-01
   0.111E+03 0.108E+03 -.322E+04   -.110E+03 -.113E+03 0.322E+04   -.119E+01 0.449E+01 0.166E+01   0.174E-02 -.448E-02 0.230E-01
   -.537E+03 -.672E+03 0.271E+04   0.539E+03 0.675E+03 -.272E+04   -.253E+01 -.230E+01 0.655E+01   -.172E-01 0.114E-01 0.467E-02
   -.436E+03 0.267E+03 -.165E+04   0.438E+03 -.272E+03 0.166E+04   -.135E+01 0.439E+01 -.665E+01   -.321E-01 -.116E-02 0.793E-02
   0.164E+03 -.444E+03 -.884E+03   -.163E+03 0.447E+03 0.885E+03   -.247E+01 -.199E+01 -.108E+01   0.965E-02 -.538E-02 0.898E-02
   -.427E+03 -.242E+03 0.392E+04   0.425E+03 0.243E+03 -.392E+04   0.252E+01 -.755E+00 -.166E+01   0.727E-02 -.115E-01 0.923E-02
   -.373E+03 -.247E+03 0.462E+02   0.374E+03 0.249E+03 -.445E+02   -.193E-01 -.251E+01 -.179E+01   0.164E-01 -.111E-01 0.257E-01
   -.320E+03 -.124E+03 -.358E+04   0.324E+03 0.128E+03 0.358E+04   -.347E+01 -.479E+01 0.943E+00   0.600E-02 0.266E-02 0.936E-02
   0.133E+03 -.448E+03 0.336E+04   -.132E+03 0.449E+03 -.336E+04   -.149E+01 -.322E-02 0.580E+01   -.108E-01 0.146E-01 0.144E-01
   -.538E+03 -.292E+03 -.111E+04   0.538E+03 0.297E+03 0.111E+04   -.389E+00 -.388E+01 -.657E+01   -.644E-02 0.133E-01 0.155E-01
   0.257E+03 -.632E+03 0.205E+04   -.256E+03 0.638E+03 -.205E+04   -.879E-01 -.537E+01 0.364E+01   0.163E-01 0.637E-02 0.612E-02
   0.263E+02 -.144E+03 -.279E+04   -.263E+02 0.146E+03 0.279E+04   0.323E+00 -.274E+01 -.519E+00   0.224E-01 0.884E-02 0.152E-01
   0.163E+03 -.430E+03 0.139E+04   -.164E+03 0.433E+03 -.139E+04   0.163E+01 -.230E+01 0.377E+01   -.381E-02 0.846E-02 0.152E-01
   0.554E+02 -.125E+03 -.322E+04   -.546E+02 0.129E+03 0.321E+04   -.668E+00 -.423E+01 0.214E+01   0.237E-03 -.568E-02 0.156E-01
   -.326E+03 -.716E+03 -.102E+04   0.329E+03 0.722E+03 0.102E+04   -.226E+01 -.530E+01 -.768E+00   -.291E-01 -.643E-02 0.615E-02
   0.191E+03 -.644E+02 -.151E+04   -.191E+03 0.653E+02 0.152E+04   -.825E+00 -.410E+00 -.169E+01   0.119E-01 -.252E-02 0.587E-02
   0.324E+01 -.108E+03 0.721E+03   -.363E+01 0.110E+03 -.725E+03   0.112E+01 -.907E+00 0.197E+01   0.913E-02 -.174E-02 0.855E-03
   -.416E+03 0.141E+03 0.137E+04   0.420E+03 -.144E+03 -.137E+04   -.290E+01 0.271E+01 0.224E+01   0.690E-02 -.248E-02 0.849E-02
   -.201E+03 0.211E+02 -.896E+03   0.201E+03 -.208E+02 0.901E+03   0.770E+00 -.267E+00 -.419E+01   0.527E-02 0.240E-02 -.135E-03
   -.299E+03 0.440E+03 0.920E+03   0.301E+03 -.445E+03 -.926E+03   -.211E+01 0.275E+01 0.480E+01   -.648E-02 0.341E-03 0.572E-02
   -.156E+03 0.134E+03 -.927E+03   0.156E+03 -.134E+03 0.934E+03   -.923E-01 0.178E+00 -.439E+01   -.115E-01 0.221E-02 0.396E-02
   0.170E+03 -.198E+02 0.173E+04   -.170E+03 0.206E+02 -.173E+04   -.601E+00 -.813E+00 0.222E+01   0.777E-02 -.853E-03 -.387E-02
   -.413E+02 -.166E+02 -.291E+03   0.414E+02 0.169E+02 0.295E+03   0.147E+01 -.225E+00 -.340E+01   0.937E-02 0.197E-02 0.608E-02
   0.176E+03 -.962E+02 0.165E+04   -.177E+03 0.968E+02 -.165E+04   0.150E+01 -.470E+00 0.198E+01   0.197E-02 0.234E-02 -.406E-02
   -.685E+02 -.613E+02 -.622E+03   0.692E+02 0.613E+02 0.627E+03   0.333E+00 -.550E-01 -.455E+01   0.201E-02 -.473E-02 0.128E-01
   -.370E+02 -.257E+03 0.685E+03   0.372E+02 0.259E+03 -.689E+03   0.482E+00 -.117E+01 0.231E+01   -.104E-01 -.257E-02 -.182E-03
   -.537E+02 -.241E+02 -.128E+04   0.556E+02 0.241E+02 0.128E+04   -.103E+01 0.514E-01 -.317E+01   -.913E-02 -.203E-02 0.323E-02
   -.242E+03 0.427E+02 0.169E+04   0.243E+03 -.422E+02 -.169E+04   -.428E+00 -.464E+00 0.197E+01   -.297E-02 0.478E-02 -.251E-02
   -.243E+03 -.917E+02 0.275E+02   0.247E+03 0.916E+02 -.272E+02   -.242E+01 0.629E-01 0.193E+00   -.668E-02 0.643E-02 0.125E-02
   0.325E+03 -.190E+03 0.806E+03   -.328E+03 0.192E+03 -.807E+03   0.130E+01 -.110E+01 0.904E-01   -.108E-02 -.112E-01 0.553E-02
   0.192E+03 0.809E+02 -.125E+04   -.193E+03 -.802E+02 0.126E+04   0.279E-01 -.642E-01 -.299E+01   0.218E-02 0.512E-02 0.468E-02
   0.618E+02 -.271E+03 0.636E+03   -.636E+02 0.274E+03 -.637E+03   0.544E+00 -.103E+01 0.121E+01   0.438E-02 0.392E-02 0.696E-02
   -.210E+03 0.555E+02 -.144E+04   0.211E+03 -.543E+02 0.144E+04   -.109E+01 -.129E+01 -.237E+01   0.133E-02 0.300E-02 -.760E-03
   0.213E+03 -.166E+03 -.462E+03   -.213E+03 0.167E+03 0.463E+03   -.494E+00 0.134E+00 -.139E+01   0.798E-02 0.531E-02 0.590E-02
   0.246E+03 -.101E+03 0.141E+04   -.248E+03 0.102E+03 -.142E+04   0.112E+01 -.427E+00 0.298E+01   -.103E-02 0.320E-02 -.466E-02
   0.244E+03 0.647E+02 0.114E+04   -.245E+03 -.661E+02 -.115E+04   0.564E+00 0.101E+01 0.408E+01   0.581E-03 -.411E-02 0.236E-02
   0.121E+03 -.117E+03 -.817E+03   -.122E+03 0.119E+03 0.820E+03   0.159E-01 -.182E+01 -.171E+01   -.160E-02 -.604E-02 0.698E-02
   -.275E+03 -.220E+03 0.372E+03   0.275E+03 0.221E+03 -.376E+03   0.571E-01 -.416E-01 0.273E+01   -.108E-01 -.814E-02 0.362E-02
   -.723E+02 -.279E+03 -.149E+04   0.715E+02 0.282E+03 0.150E+04   0.439E+00 -.245E+01 -.152E+01   -.987E-02 -.337E-02 0.310E-03
   0.296E+02 0.375E+03 0.899E+03   -.299E+02 -.378E+03 -.902E+03   -.359E+00 0.129E+01 0.294E+01   0.851E-03 0.879E-02 0.112E-02
   0.194E+03 -.343E+02 -.115E+04   -.195E+03 0.337E+02 0.116E+04   -.131E+00 0.219E+00 -.244E+01   0.366E-02 0.241E-02 0.234E-02
   -.118E+02 0.112E+03 0.139E+04   0.126E+02 -.113E+03 -.140E+04   -.563E+00 0.121E+01 0.280E+01   0.242E-03 -.139E-02 -.266E-02
   0.251E+03 0.204E+03 -.692E+02   -.255E+03 -.205E+03 0.698E+02   0.292E+01 -.102E+01 0.494E+00   -.408E-02 -.299E-02 0.127E-02
   0.230E+03 0.196E+03 -.440E+03   -.230E+03 -.197E+03 0.441E+03   -.530E+00 0.343E-01 -.137E+01   0.640E-02 -.214E-02 0.522E-02
   0.304E+03 0.303E+03 0.138E+04   -.307E+03 -.306E+03 -.138E+04   0.144E+01 0.118E+01 0.808E+00   -.221E-02 -.376E-02 -.654E-02
   -.305E+03 0.180E+03 0.497E+03   0.306E+03 -.183E+03 -.497E+03   -.144E+01 0.140E+01 0.395E+00   0.480E-02 -.224E-02 0.102E-01
   -.257E+03 -.615E+02 -.147E+04   0.259E+03 0.598E+02 0.147E+04   -.121E+01 0.152E+01 -.126E+01   -.329E-02 -.554E-02 0.227E-02
   -.194E+02 -.118E+03 0.177E+03   0.176E+02 0.117E+03 -.177E+03   0.602E+00 0.191E+01 -.542E+00   -.820E-02 0.580E-02 0.655E-02
   -.528E+02 0.251E+03 -.152E+04   0.517E+02 -.255E+03 0.153E+04   0.409E+00 0.179E+01 -.840E+00   -.746E-02 0.199E-02 -.247E-02
   0.220E+03 -.482E+02 0.115E+04   -.221E+03 0.486E+02 -.115E+04   0.393E+00 -.335E+00 0.409E+01   -.170E-02 0.385E-02 0.418E-02
   0.125E+03 0.108E+03 -.836E+03   -.125E+03 -.109E+03 0.839E+03   0.187E+00 0.138E+01 -.144E+01   0.232E-02 0.271E-02 0.963E-02
   -.342E+01 -.107E+02 -.338E+02   0.156E-12 -.213E-12 -.284E-11   0.334E+01 0.106E+02 0.333E+02   0.485E-01 0.116E-01 0.486E+00

 POSITION                                       TOTAL-FORCE (eV/Angst)
     12.87128      2.01997      2.16550         0.197457     -0.098810      1.054651
     13.82101      1.59744      4.38150        -0.101382      0.298500      0.650902
      3.62895      5.93303      1.54260         0.999808      0.372391     -0.145632
      5.02033      6.18092      3.49202        -0.211085     -0.082186     -0.090928
      6.51721      1.14910      2.03473         0.746128      0.428205     -0.455049
      7.93172      1.39171      4.00611        -0.601245      0.469611     -0.750845
     16.08224      6.18092      2.46384        -0.303763      0.521019      2.461110
     16.28348      6.18231      5.05071         0.372971      0.047801      0.878259
      2.10894      1.39171      2.97793         0.104276     -0.222555      0.157226
      1.81145      1.39472      5.30364         0.995502     -0.163778      1.045176
      9.59939      6.33441      2.60772         0.619447     -0.742557     -0.448292
     10.84312      6.18092      4.52020        -1.006302     -0.431653     -0.324681
     15.42927      9.39781      1.95483         0.233495      0.165084     -0.842597
     15.98816      0.14272      4.29038        -0.857497     -0.775447      0.100073
      6.04678      6.16789      0.93771        -0.459981      0.062038     -1.625390
      7.17375      4.91558      3.08454         0.487217     -0.201284     -1.276936
      7.84824      4.45756      5.37921        -0.249094      0.567897      0.772688
      8.93728      1.41065      1.43458        -0.274356     -0.081874     -1.760036
     10.08514      0.12638      3.59863         1.533462      0.134364     -1.490252
      1.35096      4.91558      2.05636         0.789440     -0.157250      1.852447
      1.90008      4.80005      4.70132         0.539435      0.568781      1.081504
      4.26235      0.12638      2.57045         0.149825     -0.813003      0.935549
      4.94290      9.31673      4.94331         0.062882      0.156134      0.787985
     12.94558      4.48648      1.80644        -0.192966      0.891187     -0.248167
     12.99653      4.91558      4.11272         0.789601      0.142936     -0.513758
     16.10778      2.61186      3.93703        -1.118652      0.955985     -0.389607
      7.00309      8.46977      0.95564         0.225412      0.188143     -0.737180
      7.17375      7.44626      3.08454         0.514949     -0.418124     -0.089774
      7.93504      7.98906      5.30111        -0.318473     -0.775075      0.978117
     10.72104      3.34968      1.29383        -1.396782      0.501406     -0.552851
     10.08514      2.65705      3.59863         0.333959      0.467164     -1.283017
      1.35096      7.44626      2.05636         0.412909      0.359930      1.749382
      1.90183      7.55891      4.70962         0.263867     -0.479937      1.067310
      4.26235      2.65705      2.57045         0.592044      0.638188      1.150339
      4.90985      2.97527      5.01504         0.105785     -0.033973      0.580052
     12.99653      7.44626      4.11272         0.831826      0.853197     -2.140869
     16.69969      1.55490      5.60010        -0.224167      0.445250      3.117146
      0.00390      1.15836      2.67089         0.740840      0.680960     -1.189717
      8.00634      6.18092      1.40713         1.085315      0.322421     -2.740938
      8.59001      6.18092      4.49167         1.013555      0.083371      1.448461
     10.91773      1.39171      1.92122        -0.449555     -2.695832     -1.291451
     11.72778      1.48667      4.32027         0.418996     -0.204930      2.063764
      1.90178      6.18954      0.51550        -0.023287     -0.034449     -3.780176
      2.76722      6.18092      3.46349         1.579305      0.120792      0.675737
      4.76166      1.39537      1.01688         0.381646      0.107677     -3.529538
      5.67861      1.39171      3.97758         1.055734     -0.118454      1.088871
     13.88615      6.18510      2.59424         0.638826      1.091101     -1.975662
     14.24633      6.19394      5.24309         0.866549      0.066309      2.571059
     12.53046      3.12022      0.38111         1.109033      0.076281     -3.592909
     14.15709      3.31621      3.24362         1.323245     -0.031035      0.419461
      5.26426      7.79215      1.92599        -1.646988      1.121141     -0.528494
      5.96554      7.55639      4.86025        -1.248996      0.584035      1.856230
      8.17565      3.00295      2.44008        -1.234836      1.473945     -0.147686
      8.90067      2.75965      5.28809         0.491558     -0.059298      2.733721
      0.02514      7.79215      3.98236        -0.814784      1.281215      0.436012
     16.38202      7.76351      1.16713        -0.669126      0.512417     -2.931430
      2.37841      3.10124      1.77548        -0.843262     -0.346569     -2.560709
      2.93654      3.00295      4.49645        -0.880881     -0.105739      1.079389
     11.03413      7.80568      3.18214         0.129094      1.387013     -1.493272
     11.79832      7.51067      5.73316        -0.356974      1.330722      3.677429
      5.26426      4.56969      1.92599        -0.645784     -1.896143     -0.187996
      5.90740      4.73822      4.79445        -1.050851     -0.384692      1.983625
     14.06827      0.89730      0.95581         0.268765     -0.618585     -2.726624
     13.99844      9.35889      3.46826        -0.537033     -2.042823      1.027656
      0.02514      4.56969      3.98236        -0.789381     -1.325001     -0.124230
     16.44474      4.72257      1.12761        -1.519070     -2.070387     -3.063044
      8.17565      9.35889      2.44008        -0.108057     -1.413179      0.028156
      8.98436      0.11393      5.32256         0.000598     -0.214644      3.149608
     11.08705      4.56969      2.95417        -1.202998      0.805456      0.227526
     11.70972      4.74222      5.67244        -0.670959     -1.506101      3.633665
      2.38023      9.26345      1.76938        -0.515849      0.026244     -2.626233
      2.93654      9.35889      4.49645        -0.480343      0.239058      1.135683
    total drift:                               -0.036385     -0.085882     -0.026430

  FREE ENERGIE OF THE ION-ELECTRON SYSTEM (eV)
  free  energy   TOTEN  =      -340.54241808 eV

  energy  without entropy=     -339.54446524  energy(sigma->0) =     -340.04344166