 vasp.5.4.4.18Apr17-6-g9f103f2a35 (build Aug 13 2019 17:33:20) gamma-only

 executed on             LinuxIFC date 2020.05.12  01:56:37

 INCAR:
 POTCAR:    PAW_PBE Ni_pv 06Sep2000
 POTCAR:    PAW_PBE S 06Sep2000
 POTCAR:    PAW_PBE Ni_pv 06Sep2000
   VRHFIN =Ni:

   TITEL  = PAW_PBE Ni_pv 06Sep2000
   POMASS =   58.690; ZVAL   =   16.000    mass and valenz
   ENMAX  =  367.986; ENMIN  =  275.989 eV

 POTCAR:    PAW_PBE S 06Sep2000
   VRHFIN =S : s2p4

   TITEL  = PAW_PBE S 06Sep2000
   POMASS =   32.066; ZVAL   =    6.000    mass and valenz
   ENMAX  =  258.689; ENMIN  =  194.016 eV

 Optimization of the real space projectors (new method)

 maximal supplied QI-value         = 18.90
 optimisation between [QCUT,QGAM] = [ 10.77, 21.73] = [ 32.49,132.25] Ry
 Optimized for a Real-space Cutoff    1.38 Angstroem

   l    n(q)    QCUT    max X(q) W(low)/X(q) W(high)/X(q)  e(spline)
   1      8    10.771     2.836    0.40E-04    0.29E-04    0.12E-06
   1      8    10.771     4.023    0.10E-03    0.48E-04    0.29E-06
   2      8    10.771    73.368    0.42E-03    0.97E-04    0.44E-06
   2      8    10.771    69.010    0.42E-03    0.99E-04    0.45E-06
   0      9    10.771    54.797    0.10E-03    0.56E-04    0.74E-07
   0      9    10.771    24.266    0.89E-04    0.49E-04    0.67E-07
 Optimization of the real space projectors (new method)

 maximal supplied QI-value         = 19.84
 optimisation between [QCUT,QGAM] = [ 10.71, 21.63] = [ 32.15,130.99] Ry
 Optimized for a Real-space Cutoff    1.19 Angstroem

   l    n(q)    QCUT    max X(q) W(low)/X(q) W(high)/X(q)  e(spline)
   0      8    10.715   187.594    0.41E-03    0.53E-04    0.66E-07
   0      8    10.715   164.243    0.41E-03    0.53E-04    0.65E-07
   1      7    10.715    67.533    0.19E-03    0.59E-03    0.68E-07
   1      7    10.715    50.729    0.19E-03    0.58E-03    0.67E-07
  PAW_PBE Ni_pv 06Sep2000               :
  PAW_PBE S 06Sep2000                   :

 POSCAR: Type_037 Type_137
  positions in cartesian coordinates
 exchange correlation table for  LEXCH =        8
   RHO(1)=    0.500       N(1)  =     2000
   RHO(2)=  100.500       N(2)  =     4000

 ion  position               nearest neighbor table
   1  0.780  0.145  0.123-  65 2.08  51 2.08  42 2.12  52 2.36  66 2.36
   2  0.788  0.145  0.278-  43 2.04  66 2.05  52 2.05
   3  0.214  0.659  0.099-  44 2.03  45 2.11  63 2.24  53 2.25   4 2.41  28 2.44
   4  0.297  0.645  0.216-  54 2.13  63 2.13  64 2.14  45 2.25  53 2.26   3 2.41  29 2.53  16 2.53

   5  0.392  0.134  0.130-  47 2.03  48 2.13  69 2.19  55 2.24   6 2.34  18 2.49
   6  0.470  0.145  0.247-  70 2.10  56 2.10  55 2.14  48 2.25  69 2.26   5 2.34  31 2.53  19 2.53

   7  0.952  0.645  0.154-  68 2.07  58 2.07  49 2.25  57 2.36  67 2.36  32 2.53  20 2.53
   8  0.973  0.645  0.317-  46 2.04  67 2.06  57 2.06  50 2.09
   9  0.174  0.145  0.047-  47 2.01  59 2.05  73 2.05  10 2.45
  10  0.125  0.145  0.185-  59 2.14  73 2.15  39 2.25  60 2.36  74 2.36  11 2.39   9 2.45  34 2.53
                            22 2.53
  11  0.113  0.145  0.328-  38 2.03  74 2.10  60 2.10  10 2.39
  12  0.571  0.645  0.162-  40 2.00  41 2.17  71 2.20  61 2.20  13 2.28
  13  0.642  0.645  0.278-  62 2.03  72 2.03  41 2.25  61 2.26  71 2.26  12 2.28  37 2.53  25 2.53

[...]

  38  0.996  0.145  0.352-  11 2.03  27 2.06  15 2.06
  39  0.991  0.145  0.183-  15 2.08  27 2.08  26 2.19  14 2.19  10 2.25
  40  0.470  0.645  0.098-  28 2.00  12 2.00  16 2.15  29 2.16
  41  0.509  0.645  0.276-  30 2.06  17 2.07  12 2.17  13 2.25  29 2.36  16 2.36
  42  0.655  0.146  0.134-  18 2.05   1 2.12  31 2.16  19 2.17  43 2.67
  43  0.668  0.145  0.294-   2 2.04  19 2.11  31 2.11  42 2.67
  44  0.110  0.645  0.037-   3 2.03  20 2.06  32 2.06
  45  0.164  0.645  0.214-  33 2.09  21 2.09   3 2.11   4 2.25  32 2.36  20 2.36
  46  0.075  0.645  0.382-   8 2.04  21 2.05  33 2.05
  47  0.291  0.146  0.065-   9 2.01   5 2.03  34 2.14  22 2.14
  48  0.336  0.145  0.245-  23 2.04  35 2.04   5 2.13   6 2.25  34 2.36  22 2.36
  49  0.819  0.645  0.153-  36 2.21  24 2.22   7 2.25  25 2.26  37 2.26  50 2.75
  50  0.849  0.645  0.315-   8 2.09  25 2.11  37 2.11  49 2.75
  51  0.817  0.294  0.041-  24 2.02  26 2.06   1 2.08
  52  0.829  0.314  0.215-   2 2.05  26 2.10  24 2.14  27 2.17  25 2.25   1 2.36
  53  0.312  0.814  0.122-  28 2.04   3 2.25  22 2.25   4 2.26  29 2.26
  54  0.347  0.800  0.293-  30 2.04  23 2.05   4 2.13  29 2.16
  55  0.474  0.310  0.160-  18 2.06   6 2.14  16 2.18   5 2.24  31 2.35
  56  0.525  0.289  0.324-  17 2.01  31 2.08   6 2.10
  57  0.001  0.814  0.246-  33 2.06   8 2.06  15 2.18  32 2.36   7 2.36  58 2.76
  58  0.967  0.821  0.083-   7 2.07  32 2.10  14 2.10  57 2.76
  59  0.139  0.321  0.107-   9 2.05  20 2.13  10 2.14  34 2.15
  60  0.174  0.314  0.276-  35 2.04  11 2.10  21 2.16  10 2.36  34 2.36
  61  0.657  0.814  0.184-  12 2.20  19 2.25  37 2.26  13 2.26  36 2.31
  62  0.695  0.791  0.348-  37 2.02  13 2.03  72 2.78
  63  0.295  0.482  0.129-  28 2.05   4 2.13  34 2.15   3 2.24  16 2.44
  64  0.349  0.494  0.295-  17 2.04  35 2.05   4 2.14  16 2.15
  65  0.817  0.996  0.041-  36 2.02  14 2.06   1 2.08
  66  0.829  0.977  0.215-   2 2.05  14 2.10  36 2.14  15 2.17  37 2.25   1 2.36
  67  0.001  0.477  0.246-  21 2.06   8 2.06  27 2.18  20 2.36   7 2.36  68 2.76
  68  0.967  0.470  0.083-   7 2.07  20 2.09  26 2.10  67 2.76
  69  0.484  0.977  0.153-  18 2.05   5 2.19  29 2.25   6 2.26  19 2.26
  70  0.522  0.994  0.321-  30 2.01  19 2.08   6 2.10
  71  0.657  0.477  0.184-  12 2.20  31 2.25  25 2.26  13 2.26  24 2.30
  72  0.695  0.500  0.348-  25 2.02  13 2.03  62 2.78
  73  0.140  0.968  0.107-   9 2.05  32 2.12  22 2.14  10 2.15
  74  0.174  0.977  0.276-  23 2.04  11 2.10  33 2.16  10 2.36  22 2.36

  LATTYP: Found a simple orthorhombic cell.
 ALAT       =     9.5784100000
 B/A-ratio  =     1.7387693453
 C/A-ratio  =     1.7627867312

  Lattice vectors:

 A1 = (   0.0000000000,   9.5784100000,   0.0000000000)
 A2 = (   0.0000000000,   0.0000000000, -16.6546456851)
 A3 = ( -16.8846940542,   0.0000000000,   0.0000000000)

Analysis of symmetry for initial positions (statically):
 Subroutine PRICEL returns:
 Original cell was already a primitive cell.

 Routine SETGRP: Setting up the symmetry group for a
 simple orthorhombic supercell.

 Subroutine GETGRP returns: Found  1 space group operations
 (whereof  1 operations were pure point group operations)
 out of a pool of  8 trial point group operations.

The static configuration has the point symmetry C_1 .

Analysis of symmetry for dynamics (positions and initial velocities):
 Subroutine PRICEL returns:
 Original cell was already a primitive cell.

 Routine SETGRP: Setting up the symmetry group for a
 simple orthorhombic supercell.

 Subroutine GETGRP returns: Found  1 space group operations
 (whereof  1 operations were pure point group operations)
 out of a pool of  8 trial point group operations.

The dynamic configuration has the point symmetry C_1 .

 Subroutine INISYM returns: Found  1 space group operations
 (whereof  1 operations are pure point group operations),
 and found     1 'primitive' translations

 KPOINTS: gamma-point-only calculation. no periodi

Automatic generation of k-mesh.
Space group operators:
 irot       det(A)        alpha          n_x          n_y          n_z        tau_x        tau_y        tau_z
    1     1.000000     0.000000     1.000000     0.000000     0.000000     0.000000     0.000000     0.000000

 Subroutine IBZKPT returns following result:

 Found      1 irreducible k-points:

 Following reciprocal coordinates:
            Coordinates               Weight
  0.000000  0.000000  0.000000      1.000000

 Following cartesian coordinates:
            Coordinates               Weight
  0.000000  0.000000  0.000000      1.000000

 SYSTEM =  "Millerite NiS"
 POSCAR =  Type_037 Type_137

 Startparameter for this run:
   NWRITE =      2    write-flag & timer
   PREC   = normal    normal or accurate (medium, high low for compatibility)
   ISTART =      0    job   : 0-new  1-cont  2-samecut
   ICHARG =      2    charge: 1-file 2-atom 10-const
   ISPIN  =      1    spin polarized calculation?
   LNONCOLLINEAR =      F non collinear calculations
   LSORBIT =      F    spin-orbit coupling
   INIWAV =      1    electr: 0-lowe 1-rand  2-diag
   LASPH  =      F    aspherical Exc in radial PAW
   METAGGA=      F    non-selfconsistent MetaGGA calc.

 Electronic Relaxation 1
   ENCUT  =  450.0 eV  33.07 Ry    5.75 a.u.  29.20 16.57 28.81*2*pi/ulx,y,z
   ENINI  =  450.0     initial cutoff
   ENAUG  =  703.4 eV  augmentation charge cutoff
   NELM   =    100;   NELMIN=  2; NELMDL= -5     # of ELM steps
   EDIFF  = 0.1E-03   stopping-criterion for ELM
   LREAL  =      T    real-space projection
   NLSPLINE    = F    spline interpolate recip. space projectors
   LCOMPAT=      F    compatible to vasp.4.4
   GGA_COMPAT  = T    GGA compatible to vasp.4.4-vasp.4.6
   LMAXPAW     = -100 max onsite density
   LMAXMIX     =    2 max onsite mixed and CHGCAR
   VOSKOWN=      0    Vosko Wilk Nusair interpolation
   ROPT   =   -0.00050  -0.00050
 Ionic relaxation
   EDIFFG = 0.1E-02   stopping-criterion for IOM
   NSW    =      0    number of steps for IOM
   NBLOCK =      1;   KBLOCK =      1    inner block; outer block
   IBRION =     -1    ionic relax: 0-MD 1-quasi-New 2-CG
   NFREE  =      0    steps in history (QN), initial steepest desc. (CG)
   ISIF   =      2    stress and relaxation
   IWAVPR =     10    prediction:  0-non 1-charg 2-wave 3-comb
   ISYM   =      2    0-nonsym 1-usesym 2-fastsym
   LCORR  =      T    Harris-Foulkes like correction to forces

   POTIM  = 0.5000    time-step for ionic-motion
   TEIN   =    0.0    initial temperature
   TEBEG  =    0.0;   TEEND  =   0.0 temperature during run
   SMASS  =  -3.00    Nose mass-parameter (am)
   estimated Nose-frequenzy (Omega)   =  0.10E-29 period in steps =****** mass=  -0.652E-26a.u.
   SCALEE = 1.0000    scale energy and forces
   NPACO  =    256;   APACO  = 16.0  distance and # of slots for P.C.
   PSTRESS=    0.0 pullay stress

  Mass of Ions in am
   POMASS =  58.69 32.07
  Ionic Valenz
   ZVAL   =  16.00  6.00
  Atomic Wigner-Seitz radii
  virtual crystal weights
   VCA    =   1.00  1.00
   NELECT =     814.0000    total number of electrons
   NUPDOWN=      -1.0000    fix difference up-down

 DOS related values:
   EMIN   =  10.00;   EMAX   =-10.00  energy-range for DOS
   EFERMI =   0.00
   ISMEAR =     0;   SIGMA  =   0.20  broadening in eV -4-tet -1-fermi 0-gaus

 Electronic relaxation 2 (details)
   IALGO  =     38    algorithm
   LDIAG  =      T    sub-space diagonalisation (order eigenvalues)
   LSUBROT=      F    optimize rotation matrix (better conditioning)
   TURBO    =      0    0=normal 1=particle mesh
   IRESTART =      0    0=no restart 2=restart with 2 vectors
   NREBOOT  =      0    no. of reboots
   NMIN     =      0    reboot dimension
   EREF     =   0.00    reference energy to select bands
   IMIX   =      4    mixing-type and parameters
     AMIX     =   0.40;   BMIX     =  1.00
     AMIX_MAG =   1.60;   BMIX_MAG =  1.00
     AMIN     =   0.10
[...]
     0.000000000  9.578410000  0.000000000     0.000000000  0.104401461  0.000000000
     0.000000000  0.000000000 16.654645685     0.000000000  0.000000000  0.060043307

  length of vectors
    16.884694054  9.578410000 16.654645685     0.059225237  0.104401461  0.060043307

 FORCES acting on ions
    electron-ion (+dipol)            ewald-force                    non-local-force                 convergence-correction
   0.827E+03 0.256E+01 0.224E+04   -.831E+03 -.250E+01 -.224E+04   0.367E+01 -.567E-01 0.501E+01   0.389E-02 0.236E-02 0.733E-02
   0.388E+03 0.757E+00 -.276E+04   -.394E+03 -.767E+00 0.275E+04   0.605E+01 0.262E-01 0.162E+01   -.345E-02 -.359E-03 -.118E-02
   -.377E+02 -.539E+02 0.303E+04   0.374E+02 0.541E+02 -.304E+04   0.116E+01 -.180E+00 0.829E+01   -.546E-02 0.639E-03 0.128E-01
   0.255E+03 -.599E+01 -.104E+04   -.257E+03 0.660E+01 0.104E+04   0.152E+01 -.325E+00 -.495E+01   -.401E-02 0.297E-02 0.115E-01
   -.293E+03 0.315E+02 0.258E+04   0.295E+03 -.320E+02 -.258E+04   -.193E+01 0.572E+00 0.521E+01   -.429E-02 -.136E-02 0.168E-01
   0.447E+02 0.154E+02 -.170E+04   -.476E+02 -.160E+02 0.171E+04   0.234E+01 0.339E+00 -.664E+01   -.363E-02 -.250E-02 0.821E-02
   0.776E+03 0.294E+01 0.142E+04   -.781E+03 -.294E+01 -.142E+04   0.522E+01 -.143E-01 0.440E+01   0.685E-03 -.145E-03 0.401E-03
   0.724E+03 0.834E+00 -.322E+04   -.730E+03 -.873E+00 0.322E+04   0.403E+01 0.419E-01 -.370E+01   0.120E-01 0.992E-03 -.380E-02
   0.324E+03 -.125E+02 0.427E+04   -.329E+03 0.123E+02 -.428E+04   0.305E+01 0.115E+00 0.416E+01   0.364E-02 0.434E-03 0.135E-01
   0.684E+03 -.433E+01 0.413E+03   -.688E+03 0.423E+01 -.412E+03   0.385E+01 0.276E-01 -.711E+00   0.571E-03 0.585E-04 0.198E-01
   0.111E+03 -.399E+01 -.358E+04   -.115E+03 0.408E+01 0.358E+04   0.485E+01 -.112E+00 0.617E+00   0.487E-02 -.152E-02 -.399E-02
   -.431E+03 -.580E+00 0.206E+04   0.434E+03 0.274E+00 -.206E+04   -.285E+01 0.248E+00 0.454E+01   -.832E-03 0.644E-03 0.280E-02
   0.178E+03 -.556E+01 -.215E+04   -.181E+03 0.553E+01 0.216E+04   0.237E+01 0.813E-01 -.613E+01   -.244E-02 0.388E-02 -.212E-02
   -.289E+03 0.218E+03 0.249E+04   0.295E+03 -.220E+03 -.250E+04   -.524E+01 0.252E+01 0.573E+01   -.147E-02 -.106E-02 0.272E-02
   0.232E+03 0.419E+03 -.229E+04   -.230E+03 -.422E+03 0.229E+04   -.290E+01 0.212E+01 -.361E+01   0.123E-03 -.141E-02 -.121E-02
   -.488E+03 0.548E+03 0.669E+03   0.489E+03 -.552E+03 -.671E+03   -.357E+00 0.341E+01 0.598E+00   -.265E-02 -.234E-03 0.607E-02
   -.301E+03 0.135E+03 -.355E+04   0.303E+03 -.139E+03 0.355E+04   -.211E+01 0.423E+01 0.191E+01   -.170E-02 -.388E-02 -.341E-02
   -.429E+03 -.585E+02 0.357E+04   0.431E+03 0.591E+02 -.358E+04   -.154E+01 -.367E+00 0.466E+01   -.342E-02 0.753E-03 0.147E-01
   -.515E+03 0.582E+03 -.507E+03   0.519E+03 -.589E+03 0.508E+03   -.305E+01 0.570E+01 -.195E+01   -.182E-02 0.132E-02 0.120E-01
   0.114E+03 0.564E+03 0.205E+04   -.115E+03 -.567E+03 -.206E+04   0.128E+01 0.304E+01 0.427E+01   -.201E-02 0.164E-02 0.992E-02
   -.267E+03 0.400E+03 -.273E+04   0.270E+03 -.406E+03 0.273E+04   -.132E+01 0.472E+01 -.397E+01   0.409E-02 0.290E-02 -.123E-03
   -.297E+03 0.595E+03 0.117E+04   0.297E+03 -.599E+03 -.117E+04   0.968E+00 0.334E+01 0.147E+01   0.428E-02 -.226E-02 0.195E-01
   -.186E+03 0.161E+03 -.330E+04   0.186E+03 -.165E+03 0.330E+04   0.435E-01 0.356E+01 0.238E+01   -.204E-02 0.681E-05 -.475E-02
   0.651E+03 -.427E+03 0.267E+04   -.653E+03 0.430E+03 -.268E+04   0.161E+01 -.183E+01 0.793E+01   0.249E-02 -.167E-02 -.409E-04
   -.532E+02 0.336E+03 -.161E+04   0.554E+02 -.339E+03 0.162E+04   -.166E+01 0.261E+01 -.531E+01   0.431E-02 -.670E-02 -.953E-02
   -.289E+03 -.221E+03 0.249E+04   0.296E+03 0.223E+03 -.250E+04   -.531E+01 -.254E+01 0.577E+01   -.295E-02 0.238E-02 0.201E-02
   0.231E+03 -.420E+03 -.229E+04   -.229E+03 0.423E+03 0.229E+04   -.281E+01 -.219E+01 -.370E+01   -.349E-03 0.664E-03 -.197E-02
   -.569E+03 0.884E+02 0.405E+04   0.569E+03 -.893E+02 -.406E+04   0.195E+00 0.538E+00 0.436E+01   -.668E-03 0.674E-03 0.999E-02
   -.518E+03 -.543E+03 0.645E+03   0.519E+03 0.547E+03 -.646E+03   -.127E+00 -.366E+01 0.774E+00   -.317E-02 0.414E-02 0.986E-02
   -.291E+03 -.132E+03 -.360E+04   0.293E+03 0.136E+03 0.360E+04   -.156E+01 -.358E+01 0.254E+01   -.277E-02 0.691E-02 -.247E-02
   -.515E+03 -.587E+03 -.504E+03   0.519E+03 0.594E+03 0.504E+03   -.298E+01 -.579E+01 -.168E+01   -.192E-03 -.154E-02 0.935E-02
   0.172E+03 -.557E+03 0.204E+04   -.173E+03 0.561E+03 -.204E+04   0.155E+01 -.310E+01 0.405E+01   -.187E-02 -.208E-02 0.109E-01
   -.264E+03 -.396E+03 -.273E+04   0.267E+03 0.402E+03 0.274E+04   -.164E+01 -.436E+01 -.358E+01   0.506E-02 -.669E-03 0.204E-03
   -.326E+03 -.591E+03 0.120E+04   0.326E+03 0.594E+03 -.120E+04   0.619E+00 -.262E+01 0.118E+01   0.269E-02 0.125E-02 0.172E-01
   -.183E+03 -.168E+03 -.326E+04   0.183E+03 0.172E+03 0.326E+04   0.209E+00 -.414E+01 0.208E+01   -.374E-02 -.403E-02 -.576E-02
   0.654E+03 0.426E+03 0.267E+04   -.657E+03 -.429E+03 -.268E+04   0.148E+01 0.182E+01 0.790E+01   0.220E-02 0.183E-03 0.283E-02
   -.500E+02 -.339E+03 -.161E+04   0.523E+02 0.342E+03 0.162E+04   -.176E+01 -.259E+01 -.532E+01   0.218E-02 0.800E-02 -.427E-02
   0.149E+03 -.297E+00 -.161E+04   -.148E+03 0.266E+00 0.161E+04   -.101E+01 0.353E-01 -.153E+01   0.310E-02 -.214E-03 -.730E-03
   -.159E+03 -.386E+00 0.352E+03   0.162E+03 0.494E+00 -.355E+03   -.343E+00 -.122E+00 0.537E+00   0.129E-02 0.107E-03 0.369E-03
   -.397E+03 -.393E+01 0.143E+04   0.399E+03 0.428E+01 -.144E+04   -.928E+00 -.320E+00 0.229E+01   0.204E-02 0.548E-03 0.436E-02
   -.211E+03 -.526E+01 -.798E+03   0.211E+03 0.513E+01 0.803E+03   0.118E+01 0.115E+00 -.403E+01   -.192E-02 0.188E-02 -.148E-02
   -.104E+03 0.549E+01 0.949E+03   0.104E+03 -.573E+01 -.953E+03   0.222E+00 0.211E+00 0.234E+01   0.464E-02 0.849E-03 0.486E-02
   -.727E+02 0.232E+01 -.119E+04   0.743E+02 -.257E+01 0.120E+04   -.662E+00 0.232E+00 -.280E+01   0.116E-02 0.417E-04 -.315E-03
   0.105E+03 0.192E+02 0.179E+04   -.105E+03 -.193E+02 -.179E+04   0.235E+00 0.516E-01 0.184E+01   -.166E-02 -.131E-03 0.267E-02
   -.134E+03 0.131E+02 -.259E+03   0.134E+03 -.133E+02 0.261E+03   0.605E+00 0.331E+00 -.284E+01   -.783E-03 0.556E-03 0.517E-02
   -.475E+02 0.104E+00 -.178E+04   0.478E+02 -.116E+00 0.179E+04   0.227E+00 0.771E-02 -.771E+00   0.354E-02 0.622E-03 -.434E-02
   -.313E+03 -.212E+02 0.162E+04   0.315E+03 0.214E+02 -.162E+04   -.652E+00 -.159E+00 0.250E+01   0.556E-02 0.234E-04 0.615E-02
   -.181E+03 -.874E+01 -.563E+03   0.181E+03 0.888E+01 0.568E+03   0.464E+00 -.207E+00 -.456E+01   0.360E-03 -.149E-02 0.111E-02
   0.597E+02 0.143E+01 0.743E+03   -.586E+02 -.142E+01 -.747E+03   -.559E+00 -.363E-01 0.223E+01   0.451E-03 -.639E-03 -.120E-02
   0.958E+01 -.574E-01 -.128E+04   -.783E+01 0.455E-01 0.128E+04   -.722E+00 0.883E-02 -.238E+01   0.709E-03 0.783E-03 -.137E-02
   0.162E+03 -.957E+02 0.173E+04   -.162E+03 0.967E+02 -.174E+04   -.323E+00 -.113E+00 0.253E+01   0.377E-04 0.147E-02 0.295E-02
   0.136E+03 -.135E+03 -.344E+03   -.136E+03 0.135E+03 0.348E+03   -.624E+00 0.106E+01 -.230E+01   -.201E-02 -.147E-02 -.593E-03
   -.896E+02 -.300E+03 0.955E+03   0.900E+02 0.304E+03 -.959E+03   -.127E+01 -.176E+01 0.273E+01   -.828E-03 0.299E-02 0.639E-02
   0.126E+03 0.328E+02 -.110E+04   -.127E+03 -.324E+02 0.111E+04   -.856E-01 0.502E-03 -.234E+01   -.225E-02 0.143E-02 -.153E-02
   -.856E+02 -.297E+03 0.690E+03   0.847E+02 0.299E+03 -.692E+03   0.444E+00 -.718E+00 0.115E+01   -.221E-02 0.515E-03 0.601E-02
   -.189E+03 0.411E+02 -.140E+04   0.190E+03 -.402E+02 0.140E+04   -.478E+00 -.673E+00 -.234E+01   0.950E-05 -.466E-02 -.292E-02
   0.191E+03 -.184E+03 -.442E+03   -.192E+03 0.186E+03 0.442E+03   0.817E-02 -.874E+00 -.607E+00   0.411E-02 -.321E-03 0.325E-03
   0.152E+03 -.499E+02 0.137E+04   -.153E+03 0.493E+02 -.138E+04   0.121E+01 0.124E+01 0.416E+01   -.725E-03 -.293E-03 0.192E-02
   0.186E+03 -.194E+03 0.106E+04   -.187E+03 0.195E+03 -.106E+04   -.757E-01 -.221E+00 0.101E+01   -.892E-03 0.470E-02 0.820E-02
   0.554E+02 -.155E+03 -.827E+03   -.560E+02 0.157E+03 0.828E+03   -.164E+00 -.117E+01 -.441E+00   -.121E-03 0.359E-03 -.157E-04
   0.835E+02 -.957E+02 0.470E+03   -.855E+02 0.980E+02 -.473E+03   0.170E+01 -.143E+01 0.189E+01   0.872E-03 0.150E-02 0.375E-03
   0.252E+02 -.248E+03 -.154E+04   -.262E+02 0.251E+03 0.154E+04   0.446E+00 -.213E+01 -.892E+00   -.107E-03 0.329E-02 -.196E-03
   -.458E+02 0.287E+03 0.859E+03   0.452E+02 -.289E+03 -.862E+03   0.519E+00 0.765E+00 0.114E+01   -.170E-02 -.269E-02 0.612E-02
   0.124E+03 -.412E+02 -.113E+04   -.125E+03 0.406E+02 0.113E+04   -.215E+00 0.173E+00 -.247E+01   -.324E-02 0.771E-03 -.199E-02
   0.164E+03 0.950E+02 0.173E+04   -.163E+03 -.961E+02 -.174E+04   -.356E+00 0.111E+00 0.251E+01   0.427E-03 -.267E-03 0.210E-02
   0.138E+03 0.135E+03 -.344E+03   -.138E+03 -.135E+03 0.348E+03   -.653E+00 -.111E+01 -.226E+01   -.191E-02 0.146E-02 0.929E-03
   0.189E+03 0.184E+03 -.440E+03   -.190E+03 -.186E+03 0.440E+03   0.206E-01 0.100E+01 -.649E+00   0.361E-02 0.422E-03 -.223E-03
   0.150E+03 0.509E+02 0.137E+04   -.152E+03 -.503E+02 -.138E+04   0.111E+01 -.122E+01 0.421E+01   -.104E-02 -.378E-04 0.195E-02
   -.122E+03 0.319E+03 0.771E+03   0.122E+03 -.322E+03 -.774E+03   -.860E+00 0.107E+01 0.239E+01   -.340E-02 -.189E-02 0.636E-02
   -.186E+03 -.293E+02 -.137E+04   0.186E+03 0.288E+02 0.137E+04   -.401E+00 0.444E+00 -.229E+01   -.150E-02 0.253E-02 -.179E-02
   0.842E+02 0.941E+02 0.470E+03   -.863E+02 -.965E+02 -.473E+03   0.174E+01 0.155E+01 0.181E+01   0.969E-03 -.244E-02 -.973E-03
   0.232E+02 0.246E+03 -.154E+04   -.241E+02 -.250E+03 0.154E+04   0.453E+00 0.214E+01 -.861E+00   -.249E-03 -.218E-02 -.541E-04
   0.188E+03 0.179E+03 0.106E+04   -.189E+03 -.180E+03 -.106E+04   -.199E+00 0.117E+00 0.922E+00   -.926E-03 -.470E-02 0.814E-02
   0.560E+02 0.156E+03 -.825E+03   -.566E+02 -.157E+03 0.826E+03   -.110E+00 0.119E+01 -.488E+00   0.836E-03 -.127E-02 0.934E-03
   -.675E+01 -.126E+01 -.418E+02   -.625E-12 0.284E-13 -.284E-11   0.683E+01 0.118E+01 0.415E+02   0.440E-02 0.135E-01 0.233E+00

 POSITION                                       TOTAL-FORCE (eV/Angst)
     13.17084      1.39171      2.05636         0.509605      0.005027      0.868059
     13.30207      1.39166      4.63031         0.467765      0.016995      1.067586
      3.61238      6.31671      1.64437         0.880359      0.013754     -0.402457
      5.02033      6.18092      3.59863        -0.551194      0.290449      0.616031
      6.62217      1.27962      2.17268         0.104577      0.119222     -0.368319
      7.93172      1.39171      4.11272        -0.493022     -0.232539      0.158889
     16.08224      6.18092      2.57045        -0.390658     -0.009797      2.243752
     16.42041      6.18086      5.27570        -1.706825      0.005449      0.407334
      2.93046      1.38644      0.77924        -1.020752     -0.031549     -1.840349
      2.10894      1.39171      3.08454        -0.972802     -0.075221      0.598060
      1.91376      1.39152      5.46766         0.868651     -0.023958      1.018853
      9.63680      6.17946      2.69617         0.593980     -0.056305     -0.383751
     10.84312      6.18092      4.62682        -0.725394      0.056002     -1.267334
     15.36991      0.04312      2.00321         0.990475      0.620427      0.046675
     15.93463      0.11853      4.49333        -0.902887     -0.880047      0.095166
      7.17375      4.91558      3.19116         0.095555     -0.395365     -0.829525
      7.83408      4.48774      5.50883         0.054130      0.565090      0.968939
      9.06976      1.45242      1.76348         0.065203      0.211385     -1.903815
     10.08514      0.12638      3.70525         0.701263     -0.964620     -0.922886
      1.35096      4.91558      2.16298         0.071464     -0.452772      1.446952
      1.88208      4.85728      4.92787         1.440191     -1.281241      0.275058
      4.26235      0.12638      2.67707         0.762397     -0.552361      0.891286
      4.88853      9.44384      5.17991         0.218950     -0.134604      0.773521
     13.09441      4.15409      2.01760        -0.835774      0.847516      0.317233
     12.99653      4.91558      4.21934         0.572342     -0.162343     -1.315231
     15.37089      2.74147      2.00409         0.942872     -0.596138      0.061455
     15.93491      2.66509      4.49364        -0.913370      0.872470      0.081546
      5.99889      6.09330      1.16311        -0.275288     -0.402459     -1.623855
      7.17375      7.44626      3.19116         0.474416      0.385713     -0.594364
      7.77817      7.81758      5.55275         0.095050     -0.426424      0.823369
     10.08514      2.65705      3.70525         0.601857      0.974293     -1.051036
      1.35096      7.44626      2.16298         0.056420      0.407945      1.258773
      1.88303      7.50474      4.92602         1.424273      1.256734      0.318298
      4.26235      2.65705      2.67707         0.437562      0.459442      0.890562
      4.90255      2.95155      5.15082         0.242267      0.014317      0.823150
     13.10078      8.20348      2.01593        -0.833299     -0.823346      0.335706
     12.99653      7.44626      4.21934         0.527127      0.173852     -1.309656
     16.80922      1.39164      5.86302        -0.143501      0.005262      2.999118
     16.74052      1.39171      3.05601         1.822581     -0.013498     -2.427232
      7.94386      6.17806      1.62626         1.590672      0.031947     -3.004074
      8.59001      6.18092      4.59828         1.153483     -0.011133      1.210228
     11.05904      1.39608      2.23973         0.238806     -0.027063     -1.724589
     11.27895      1.38723      4.89947         0.937013     -0.013956      2.392652
      1.85933      6.17932      0.62312         0.054588     -0.065179     -3.767934
      2.76722      6.18092      3.57010         0.979694      0.136642      0.083580
      1.26842      6.18183      6.36070         0.536055     -0.002639      4.215613
      4.91565      1.39946      1.07994         1.597621      0.061844     -3.101029
      5.67861      1.39171      4.08419         0.780418     -0.068422      0.907999
     13.82913      6.18092      2.54192         0.532208     -0.026898     -1.688683
     14.32716      6.18088      5.24984         1.023717     -0.001308      2.572437
     13.79370      2.81883      0.67889        -0.325061      0.910070     -3.972666
     13.99844      3.00295      3.57488        -0.748865      1.189770      1.878414
      5.26426      7.79215      2.03261        -0.875060      1.642871     -0.615162
      5.85710      7.65971      4.88607        -1.110264      0.419333      1.824889
      8.00174      2.96923      2.66635        -0.422435      1.440961     -1.119384
      8.86758      2.77259      5.39075         0.035989      0.182904      2.657395
      0.02514      7.79215      4.08897        -1.178930      1.609945     -0.580098
     16.33292      7.86369      1.38716        -0.445274      0.678018     -2.818541
      2.34492      3.07035      1.78640        -0.932858      0.732348     -1.404730
      2.93654      3.00295      4.60306        -0.735637      0.373582      0.738497
     11.08705      7.79215      3.06079        -0.285843      0.945181     -0.947367
     11.74141      7.57321      5.79367        -0.476638      1.261715      3.871843
      4.98469      4.61469      2.15197        -0.106611     -1.328482     -1.180631
      5.89359      4.73187      4.91225        -1.177133     -0.466684      1.811374
     13.79234      9.54349      0.67842        -0.306389     -0.907835     -3.953936
     13.99844      9.35889      3.57488        -0.756337     -1.212987      1.872543
      0.02514      4.56969      4.08897        -1.203490     -1.639693     -0.550593
     16.33576      4.49833      1.38761        -0.474059     -0.683269     -2.838800
      8.17565      9.35889      2.54670        -0.798691     -1.580304     -0.750569
      8.81969      9.52253      5.34889         0.115896     -0.133052      2.616261
     11.08705      4.56969      3.06079        -0.375413     -0.947211     -0.924458
     11.74109      4.78832      5.79381        -0.465363     -1.269196      3.853236
      2.37065      9.27168      1.78701        -0.888595     -0.601082     -1.337253
      2.93654      9.35889      4.60306        -0.743780     -0.417492      0.627972
    total drift:                                0.088294     -0.068662      0.015116

  FREE ENERGIE OF THE ION-ELECTRON SYSTEM (eV)
  free  energy   TOTEN  =      -354.38971615 eV

  energy  without entropy=     -353.31013133  energy(sigma->0) =     -353.84992374