 vasp.5.4.4.18Apr17-6-g9f103f2a35 (build Aug 13 2019 17:33:20) gamma-only

 executed on             LinuxIFC date 2020.05.11  05:27:01

 INCAR:
 POTCAR:    PAW_PBE Ni_pv 06Sep2000
 POTCAR:    PAW_PBE S 06Sep2000
 POTCAR:    PAW_PBE Ni_pv 06Sep2000
   VRHFIN =Ni:

   TITEL  = PAW_PBE Ni_pv 06Sep2000
   POMASS =   58.690; ZVAL   =   16.000    mass and valenz
   ENMAX  =  367.986; ENMIN  =  275.989 eV

 POTCAR:    PAW_PBE S 06Sep2000
   VRHFIN =S : s2p4

   TITEL  = PAW_PBE S 06Sep2000
   POMASS =   32.066; ZVAL   =    6.000    mass and valenz
   ENMAX  =  258.689; ENMIN  =  194.016 eV

 Optimization of the real space projectors (new method)

 maximal supplied QI-value         = 18.90
 optimisation between [QCUT,QGAM] = [ 10.77, 21.73] = [ 32.49,132.25] Ry
 Optimized for a Real-space Cutoff    1.38 Angstroem

   l    n(q)    QCUT    max X(q) W(low)/X(q) W(high)/X(q)  e(spline)
   1      8    10.771     2.836    0.40E-04    0.29E-04    0.12E-06
   1      8    10.771     4.023    0.10E-03    0.48E-04    0.29E-06
   2      8    10.771    73.368    0.42E-03    0.97E-04    0.44E-06
   2      8    10.771    69.010    0.42E-03    0.99E-04    0.45E-06
   0      9    10.771    54.797    0.10E-03    0.56E-04    0.74E-07
   0      9    10.771    24.266    0.89E-04    0.49E-04    0.67E-07
 Optimization of the real space projectors (new method)

 maximal supplied QI-value         = 19.84
 optimisation between [QCUT,QGAM] = [ 10.71, 21.63] = [ 32.15,130.99] Ry
 Optimized for a Real-space Cutoff    1.19 Angstroem

   l    n(q)    QCUT    max X(q) W(low)/X(q) W(high)/X(q)  e(spline)
   0      8    10.715   187.594    0.41E-03    0.53E-04    0.66E-07
   0      8    10.715   164.243    0.41E-03    0.53E-04    0.65E-07
   1      7    10.715    67.533    0.19E-03    0.59E-03    0.68E-07
   1      7    10.715    50.729    0.19E-03    0.58E-03    0.67E-07
  PAW_PBE Ni_pv 06Sep2000               :
  PAW_PBE S 06Sep2000                   :

 POSCAR: Type_052 Type_152
  positions in cartesian coordinates
 exchange correlation table for  LEXCH =        8
   RHO(1)=    0.500       N(1)  =     2000
   RHO(2)=  100.500       N(2)  =     4000

 ion  position               nearest neighbor table
   1  0.261  0.479  0.291-  79 2.25  63 2.26  87 2.26  59 2.36  64 2.36   8 2.53  24 2.53
   2  0.355  0.385  0.419-  57 2.05  71 2.08  80 2.20  59 2.26  64 2.26   9 2.53  25 2.53
   3  0.042  0.217  0.090-  68 1.98  69 2.12  60 2.12   4 2.30  88 2.38  32 2.41
   4  0.167  0.073  0.162-  69 2.25  60 2.26  88 2.26   3 2.30  61 2.36  89 2.36  38 2.53  33 2.53

   5  0.040  0.051  0.493-  54 2.06  83 2.07  84 2.09  78 2.12  17 2.53
   6  0.195  0.325  0.035-  60 2.14  62 2.19  55 2.21   7 2.33  39 2.50  52 2.51
   7  0.274  0.333  0.128-  55 2.06  62 2.17  60 2.25   6 2.33  56 2.36  63 2.36  13 2.53  30 2.53

   8  0.368  0.239  0.257-  61 2.25  63 2.26  56 2.26  64 2.36  66 2.36   1 2.53  24 2.53
   9  0.462  0.145  0.385-  65 2.15  67 2.17  85 2.25  64 2.26  66 2.26  19 2.40  71 2.42   2 2.53
                            25 2.53
  10  0.000  0.372  0.257-  63 2.25  69 2.26 100 2.26  53 2.36  72 2.36  15 2.53  22 2.53
  11  0.094  0.278  0.385-  64 2.25  53 2.26  72 2.26  54 2.36  58 2.36  23 2.53  16 2.53
  12  0.178  0.184  0.503-  54 2.05  83 2.06  65 2.11  58 2.14  17 2.53
  13  0.406  0.465  0.128-  86 2.11  55 2.22  75 2.25  56 2.36  87 2.36  30 2.53   7 2.53
  14  0.443  0.004  0.032-  81 2.09 101 2.12  38 2.33  44 2.50  32 2.50  60 2.53
  15  0.761  0.479  0.291-  92 2.25  76 2.26 100 2.26  72 2.36  77 2.36  22 2.53  10 2.53
  16  0.855  0.385  0.419-  78 2.21  70 2.22  93 2.26  72 2.26  77 2.26  58 2.36  23 2.53  11 2.53

[...]

  68  0.885  0.355  0.050-   3 1.98  20 2.02  52 2.07  26 2.26  21 2.26
  69  0.979  0.261  0.178-   3 2.12   4 2.25  22 2.26  10 2.26  21 2.36  26 2.36
  70  0.777  0.477  0.505-  17 2.04  50 2.06  16 2.22  93 2.56  58 2.62
  71  0.523  0.252  0.463-  25 2.03   2 2.08  19 2.16   9 2.42  67 2.55  65 2.59  57 2.75
  72  0.936  0.472  0.350-  47 2.25  16 2.26  11 2.26  15 2.36  10 2.36
  73  0.762  0.157  0.112-  18 2.06  51 2.07  21 2.09  74 2.70
  74  0.842  0.066  0.221-  22 2.25  40 2.26  36 2.26  18 2.36  51 2.36  73 2.70
  75  0.580  0.491  0.093-  20 2.04  13 2.25  21 2.26  43 2.26  42 2.45
  76  0.674  0.397  0.221-  24 2.25  22 2.26  15 2.26  21 2.36  43 2.36
  77  0.768  0.303  0.350-  25 2.25  16 2.26  23 2.26  15 2.36  22 2.36
  78  0.860  0.208  0.463-  17 2.03  23 2.06   5 2.12  16 2.21
  79  0.073  0.667  0.306-   1 2.25  37 2.26  47 2.26  36 2.36  46 2.36  80 2.57
  80  0.176  0.575  0.407-  31 2.05  37 2.10   2 2.20  47 2.23  79 2.57  57 2.63
  81  0.385  0.855  0.050-  42 1.98  32 2.02  14 2.09  38 2.26  33 2.26
  82  0.479  0.761  0.178-  42 2.11  43 2.25  34 2.26  48 2.26  33 2.36  38 2.36
  83  0.175  0.039  0.557-  29 2.02  12 2.06   5 2.07
  84  0.023  0.887  0.460-  37 2.06   5 2.09  41 2.13  98 2.73
  85  0.436  0.972  0.350-   9 2.25  28 2.26  49 2.26  27 2.36  48 2.36
  86  0.259  0.658  0.107-  39 2.07  13 2.11  30 2.11  33 2.11
  87  0.342  0.566  0.221-  34 2.25   1 2.26  24 2.26  30 2.36  13 2.36
  88  0.080  0.991  0.093-  32 2.04  51 2.25  33 2.26   4 2.26   3 2.38
  89  0.174  0.897  0.221-  36 2.25  34 2.26  27 2.26  33 2.36   4 2.36
  90  0.268  0.803  0.350-  37 2.25  28 2.26  35 2.26  27 2.36  34 2.36
  91  0.395  0.730  0.472-  28 1.99  35 2.18  29 2.19  97 2.71
  92  0.573  0.667  0.306-  15 2.25  49 2.26  35 2.26  48 2.36  34 2.36  93 2.56
  93  0.664  0.573  0.408-  50 2.05  35 2.10  49 2.14  16 2.26  70 2.56  92 2.56
  94  0.834  0.895  0.057-  45 2.01  51 2.13  44 2.15 101 2.76
  95  0.979  0.761  0.178-  30 2.25  46 2.26  36 2.26  45 2.36  51 2.36
  96  0.762  0.953  0.500-  19 2.01  41 2.10  67 2.58 104 2.68
  97  0.530  0.878  0.478-  29 2.11  19 2.13  49 2.36  28 2.36  50 2.55  91 2.71  65 2.77
  98  0.936  0.972  0.350-  23 2.25  41 2.26  37 2.26  40 2.36  36 2.36  84 2.73
  99  0.748  0.660  0.093-  20 2.06  42 2.08  44 2.18  45 2.25  43 2.26  26 2.26
 100  0.842  0.566  0.221-  46 2.25  15 2.26  10 2.26  43 2.36  26 2.36
 101  0.578  0.987  0.099-  44 2.10  14 2.12  38 2.16  45 2.21  18 2.22  94 2.76
 102  0.674  0.897  0.221-  48 2.25  46 2.26  40 2.26  45 2.36  18 2.36
 103  0.768  0.803  0.350-  49 2.25  41 2.26  47 2.26  40 2.36  46 2.36
 104  0.900  0.697  0.469-  47 2.05  50 2.07  31 2.10  41 2.26  96 2.68

  LATTYP: Found a base centered orthorhombic cell.
 ALAT       =    11.8257374459
 B/A-ratio  =     1.6199260857
 C/A-ratio  =     1.9350716598

  Lattice vectors:

 A1 = (  11.2564630382,   0.0000000000,   0.0000000000)
 A2 = (  -5.0445621212, -10.0628203371,   0.0000000000)
 A3 = (   0.0000000000,   0.0000000000, -22.8836493875)

Analysis of symmetry for initial positions (statically):
 Subroutine PRICEL returns:
 Original cell was already a primitive cell.

 Routine SETGRP: Setting up the symmetry group for a
 base centered orthorhombic supercell.

 Subroutine GETGRP returns: Found  1 space group operations
 (whereof  1 operations were pure point group operations)
 out of a pool of  8 trial point group operations.

The static configuration has the point symmetry C_1 .

Analysis of symmetry for dynamics (positions and initial velocities):
 Subroutine PRICEL returns:
 Original cell was already a primitive cell.

 Routine SETGRP: Setting up the symmetry group for a
 base centered orthorhombic supercell.

 Subroutine GETGRP returns: Found  1 space group operations
 (whereof  1 operations were pure point group operations)
 out of a pool of  8 trial point group operations.

The dynamic configuration has the point symmetry C_1 .

 Subroutine INISYM returns: Found  1 space group operations
 (whereof  1 operations are pure point group operations),
 and found     1 'primitive' translations

 KPOINTS: gamma-point-only calculation. no periodi

Automatic generation of k-mesh.
Space group operators:
 irot       det(A)        alpha          n_x          n_y          n_z        tau_x        tau_y        tau_z
    1     1.000000     0.000001     1.000000     0.000000     0.000000     0.000000     0.000000     0.000000

 Subroutine IBZKPT returns following result:

 Found      1 irreducible k-points:

 Following reciprocal coordinates:
            Coordinates               Weight
  0.000000  0.000000  0.000000      1.000000

 Following cartesian coordinates:
            Coordinates               Weight
  0.000000  0.000000  0.000000      1.000000

 SYSTEM =  "Millerite NiS"
 POSCAR =  Type_052 Type_152

 Startparameter for this run:
   NWRITE =      2    write-flag & timer
   PREC   = normal    normal or accurate (medium, high low for compatibility)
   ISTART =      0    job   : 0-new  1-cont  2-samecut
   ICHARG =      2    charge: 1-file 2-atom 10-const
   ISPIN  =      1    spin polarized calculation?
   LNONCOLLINEAR =      F non collinear calculations
   LSORBIT =      F    spin-orbit coupling
   INIWAV =      1    electr: 0-lowe 1-rand  2-diag
   LASPH  =      F    aspherical Exc in radial PAW
   METAGGA=      F    non-selfconsistent MetaGGA calc.

 Electronic Relaxation 1
   ENCUT  =  450.0 eV  33.07 Ry    5.75 a.u.  19.47 19.47 39.58*2*pi/ulx,y,z
   ENINI  =  450.0     initial cutoff
   ENAUG  =  703.4 eV  augmentation charge cutoff
   NELM   =    100;   NELMIN=  2; NELMDL= -5     # of ELM steps
   EDIFF  = 0.1E-03   stopping-criterion for ELM
   LREAL  =      T    real-space projection
   NLSPLINE    = F    spline interpolate recip. space projectors
   LCOMPAT=      F    compatible to vasp.4.4
   GGA_COMPAT  = T    GGA compatible to vasp.4.4-vasp.4.6
   LMAXPAW     = -100 max onsite density
   LMAXMIX     =    2 max onsite mixed and CHGCAR
   VOSKOWN=      0    Vosko Wilk Nusair interpolation
   ROPT   =   -0.00050  -0.00050
 Ionic relaxation
   EDIFFG = 0.1E-02   stopping-criterion for IOM
   NSW    =      0    number of steps for IOM
   NBLOCK =      1;   KBLOCK =      1    inner block; outer block
   IBRION =     -1    ionic relax: 0-MD 1-quasi-New 2-CG
   NFREE  =      0    steps in history (QN), initial steepest desc. (CG)
   ISIF   =      2    stress and relaxation
   IWAVPR =     10    prediction:  0-non 1-charg 2-wave 3-comb
   ISYM   =      2    0-nonsym 1-usesym 2-fastsym
   LCORR  =      T    Harris-Foulkes like correction to forces

   POTIM  = 0.5000    time-step for ionic-motion
   TEIN   =    0.0    initial temperature
   TEBEG  =    0.0;   TEEND  =   0.0 temperature during run
   SMASS  =  -3.00    Nose mass-parameter (am)
   estimated Nose-frequenzy (Omega)   =  0.10E-29 period in steps =****** mass=  -0.290E-26a.u.
   SCALEE = 1.0000    scale energy and forces
   NPACO  =    256;   APACO  = 16.0  distance and # of slots for P.C.
   PSTRESS=    0.0 pullay stress

  Mass of Ions in am
   POMASS =  58.69 32.07
  Ionic Valenz
   ZVAL   =  16.00  6.00
  Atomic Wigner-Seitz radii
  virtual crystal weights
   VCA    =   1.00  1.00
   NELECT =    1144.0000    total number of electrons
   NUPDOWN=      -1.0000    fix difference up-down

 DOS related values:
   EMIN   =  10.00;   EMAX   =-10.00  energy-range for DOS
   EFERMI =   0.00
   ISMEAR =     0;   SIGMA  =   0.20  broadening in eV -4-tet -1-fermi 0-gaus

[...]
     0.000000000  0.000000000 22.883649388     0.000000000  0.000000000  0.043699324

  length of vectors
    11.256463038 11.256463038 22.883649388     0.099375718  0.099375718  0.043699324

 FORCES acting on ions
    electron-ion (+dipol)            ewald-force                    non-local-force                 convergence-correction
   0.121E+03 -.427E+03 -.821E+03   -.122E+03 0.427E+03 0.820E+03   0.473E+00 -.493E+00 0.803E+00   -.160E-01 -.802E-01 0.709E-01
   -.257E+03 -.577E+03 -.421E+04   0.257E+03 0.579E+03 0.421E+04   0.329E+00 -.186E+01 -.120E+01   -.439E-01 -.257E-02 0.860E-01
   0.661E+03 0.209E+03 0.471E+04   -.662E+03 -.212E+03 -.472E+04   0.361E+00 0.274E+01 0.334E+01   0.438E-02 -.440E-02 -.713E-01
   0.368E+03 -.333E+02 0.189E+04   -.369E+03 0.311E+02 -.188E+04   0.741E+00 0.131E+01 -.394E+01   0.339E-02 0.161E-03 0.781E-01
   0.780E+03 0.763E+03 -.543E+04   -.784E+03 -.766E+03 0.543E+04   0.281E+01 0.249E+01 -.277E+01   0.622E-01 0.990E-01 0.819E-01
   -.306E+03 0.227E+03 0.627E+04   0.305E+03 -.224E+03 -.627E+04   0.407E-01 -.262E+01 0.209E+01   0.436E-01 0.348E-01 -.129E+00
   -.343E+03 0.493E+03 0.301E+04   0.344E+03 -.496E+03 -.301E+04   -.110E+01 0.225E+01 -.305E+01   -.874E-02 -.154E-01 0.461E-02
   0.114E+03 0.404E+03 0.268E+03   -.115E+03 -.405E+03 -.270E+03   0.104E+01 0.532E+00 0.124E+01   -.186E-01 -.320E-01 0.125E+00
   0.172E+03 0.142E+03 -.265E+04   -.179E+03 -.143E+03 0.264E+04   0.545E+01 0.203E+01 0.455E+01   -.490E-01 -.405E-01 0.331E-01
   -.496E+03 -.397E+02 0.173E+03   0.498E+03 0.408E+02 -.173E+03   -.138E+01 -.962E+00 0.355E+00   -.410E-01 -.267E-01 0.133E+00
   -.531E+03 -.521E+02 -.259E+04   0.533E+03 0.526E+02 0.259E+04   -.131E+01 -.742E+00 0.271E+01   -.531E-02 -.104E-01 0.104E+00
   -.720E+03 -.351E+03 -.560E+04   0.720E+03 0.355E+03 0.560E+04   0.299E+00 -.314E+01 -.402E+01   -.134E+00 0.412E-01 0.315E-01
   -.817E+03 0.165E+03 0.369E+04   0.820E+03 -.165E+03 -.369E+04   -.212E+01 -.608E-01 0.306E+00   0.302E-01 0.152E-01 -.479E-01
   -.576E+03 -.510E+03 0.625E+04   0.578E+03 0.507E+03 -.625E+04   -.143E+01 0.371E+01 -.249E+00   0.111E-01 -.389E-02 -.135E+00
   0.352E+03 -.350E+03 -.825E+03   -.353E+03 0.350E+03 0.824E+03   0.405E+00 -.588E+00 0.952E+00   0.833E-01 -.759E-01 0.677E-01
   0.626E+03 -.423E+03 -.370E+04   -.625E+03 0.423E+03 0.369E+04   -.491E+00 0.353E+00 0.256E+01   0.328E-01 0.623E-01 0.168E+00
   0.649E+03 -.364E+03 -.621E+04   -.649E+03 0.361E+03 0.621E+04   0.133E+00 0.246E+01 -.813E+00   0.536E-01 -.200E-01 0.778E-01
   0.102E+03 -.577E+03 0.271E+04   -.104E+03 0.581E+03 -.271E+04   0.153E+01 -.343E+01 0.355E+00   -.453E-01 0.172E-01 0.435E-01
   -.336E+03 -.242E+02 -.564E+04   0.336E+03 0.193E+02 0.564E+04   -.555E+00 0.542E+01 -.545E+01   -.423E-02 -.343E-01 0.755E-01
   0.728E+03 0.272E+03 0.626E+04   -.730E+03 -.272E+03 -.626E+04   0.269E+01 -.374E+00 0.484E+01   -.241E-01 0.198E-01 -.148E+00
   0.847E+03 0.717E+03 0.363E+04   -.851E+03 -.719E+03 -.363E+04   0.446E+01 0.247E+01 -.142E+01   -.242E-01 -.916E-02 0.457E-01
   0.384E+03 0.495E+03 0.251E+03   -.386E+03 -.495E+03 -.251E+03   0.167E+01 0.424E+00 0.508E-01   0.763E-01 0.614E-01 0.119E+00
   0.436E+03 0.471E+03 -.257E+04   -.436E+03 -.473E+03 0.256E+04   0.355E+00 0.135E+01 0.250E+01   0.657E-01 -.134E-01 0.122E+00
   -.539E+03 -.122E+02 0.282E+03   0.540E+03 0.131E+02 -.283E+03   -.924E+00 -.648E+00 0.110E+01   -.762E-02 -.410E-01 0.105E+00
   -.640E+03 -.339E+03 -.321E+04   0.646E+03 0.343E+03 0.321E+04   -.507E+01 -.410E+01 0.341E+00   0.446E-02 -.638E-03 0.601E-01
   -.376E+03 -.245E+03 0.292E+04   0.376E+03 0.246E+03 -.291E+04   -.781E+00 -.111E+01 -.353E+01   0.379E-01 0.208E-01 0.423E-01
   0.297E+03 -.322E+03 -.826E+03   -.298E+03 0.323E+03 0.826E+03   0.692E+00 -.958E+00 0.377E+00   0.800E-01 -.439E-01 0.130E+00
   0.346E+03 0.530E+02 -.358E+04   -.347E+03 -.503E+02 0.357E+04   0.223E+01 -.133E+01 0.777E+00   -.275E-01 0.540E-01 0.512E-01
   -.134E+03 0.660E+03 -.601E+04   0.131E+03 -.662E+03 0.602E+04   0.385E+01 0.112E+01 -.396E+01   -.745E-01 -.129E-01 -.700E-01
   0.184E+03 -.688E+03 0.224E+04   -.186E+03 0.691E+03 -.224E+04   0.112E+01 -.293E+01 -.228E+01   -.249E-01 0.194E-01 0.430E-02
   -.403E+03 -.252E+03 -.556E+04   0.403E+03 0.252E+03 0.557E+04   -.678E+00 0.850E+00 -.409E+01   -.732E-01 -.303E-01 0.111E+00
   0.783E+03 0.311E+03 0.626E+04   -.786E+03 -.310E+03 -.627E+04   0.259E+01 -.174E+00 0.505E+01   0.324E-01 -.577E-01 -.169E+00
   0.787E+03 0.637E+03 0.357E+04   -.791E+03 -.637E+03 -.357E+04   0.316E+01 0.627E+00 -.139E+01   0.515E-02 -.352E-01 -.332E-01
   0.346E+03 0.521E+03 0.177E+03   -.348E+03 -.522E+03 -.178E+03   0.167E+01 0.326E+00 0.231E+00   0.865E-01 0.397E-01 0.127E+00
   0.484E+03 0.693E+03 -.325E+04   -.489E+03 -.695E+03 0.325E+04   0.376E+01 0.171E+01 -.752E+00   0.616E-01 0.846E-01 0.826E-01
   -.509E+03 -.104E+02 0.355E+03   0.510E+03 0.110E+02 -.356E+03   -.984E+00 -.538E+00 0.120E+01   0.109E-01 -.323E-02 0.124E+00
   -.644E+03 0.878E+02 -.310E+04   0.650E+03 -.858E+02 0.310E+04   -.447E+01 -.128E+01 -.164E+01   0.238E-01 0.297E-01 0.661E-01
   -.479E+03 -.210E+03 0.289E+04   0.482E+03 0.211E+03 -.289E+04   -.318E+01 -.106E+01 -.332E+01   0.570E-01 -.176E-01 -.272E-01
   -.406E+03 -.975E+03 0.598E+04   0.408E+03 0.979E+03 -.598E+04   -.309E+01 -.231E+01 0.501E+01   0.114E-01 0.466E-01 -.145E+00
   0.167E+03 -.420E+03 -.686E+03   -.167E+03 0.420E+03 0.684E+03   0.291E+00 -.197E+00 0.139E+01   0.126E-01 -.341E-01 0.675E-01
   0.173E+02 -.313E+03 -.413E+04   -.165E+02 0.312E+03 0.413E+04   0.183E+00 0.335E+00 -.185E+01   -.289E-01 -.239E-01 0.937E-01
   0.509E+03 0.190E+03 0.470E+04   -.509E+03 -.193E+03 -.470E+04   -.180E+00 0.212E+01 0.336E+01   -.111E-01 0.285E-01 -.746E-01
   0.350E+03 -.422E+02 0.190E+04   -.351E+03 0.401E+02 -.190E+04   0.813E+00 0.120E+01 -.358E+01   -.148E-01 0.221E-01 0.819E-01
   -.569E+03 -.146E+03 0.620E+04   0.568E+03 0.149E+03 -.620E+04   0.346E+00 -.353E+01 0.144E+00   -.184E-01 0.353E-01 -.123E+00
   -.392E+03 0.194E+03 0.330E+04   0.394E+03 -.196E+03 -.329E+04   -.156E+01 0.199E+01 -.162E+01   -.268E-01 -.112E-01 -.202E-01
   0.148E+03 0.384E+03 0.306E+03   -.148E+03 -.384E+03 -.308E+03   0.844E+00 0.234E+00 0.199E+01   -.367E-02 -.184E-01 0.117E+00
   0.947E+02 0.243E+03 -.271E+04   -.979E+02 -.246E+03 0.271E+04   0.346E+01 0.183E+01 0.141E+01   -.614E-01 -.503E-01 0.123E+00
   -.511E+03 -.237E+02 0.171E+03   0.513E+03 0.251E+02 -.171E+03   -.129E+01 -.124E+01 0.605E+00   -.223E-02 -.128E-01 0.126E+00
   -.295E+03 -.223E+02 -.280E+04   0.298E+03 0.255E+02 0.280E+04   -.292E+01 -.215E+01 0.773E-01   -.264E-01 -.156E-01 0.137E+00
   0.141E+03 -.111E+03 -.544E+04   -.138E+03 0.114E+03 0.544E+04   -.392E+01 -.175E+01 -.297E+01   -.126E-01 -.706E-01 0.936E-01
   -.465E+03 0.232E+02 0.398E+04   0.468E+03 -.237E+02 -.399E+04   -.144E+01 -.858E-01 0.240E+01   0.240E-01 -.155E-01 -.252E-01
   -.217E+03 -.572E+03 0.627E+04   0.219E+03 0.569E+03 -.627E+04   -.125E+01 0.367E+01 -.249E+00   0.344E-01 0.480E-01 -.147E+00
   -.518E+02 0.135E+03 -.256E+03   0.529E+02 -.137E+03 0.254E+03   -.915E+00 0.184E+01 0.141E+01   -.978E-02 0.453E-01 0.812E-02
   -.540E+02 0.183E+03 -.125E+04   0.544E+02 -.184E+03 0.125E+04   -.202E+00 0.717E+00 0.128E+01   -.622E-02 -.123E-01 0.720E-01
   -.568E+03 0.259E+03 0.225E+04   0.573E+03 -.262E+03 -.226E+04   -.276E+01 0.152E+01 0.111E+01   0.843E-02 0.110E-01 -.652E-01
   -.169E+03 0.129E+03 0.979E+03   0.170E+03 -.130E+03 -.980E+03   -.736E+00 0.992E+00 0.138E+01   -.794E-02 -.932E-02 0.589E-01
   -.313E+03 -.841E+02 -.234E+04   0.314E+03 0.838E+02 0.235E+04   -.607E+00 0.648E-01 -.236E+01   -.329E-01 0.827E-02 0.465E-01
   -.145E+03 -.253E+03 -.194E+04   0.149E+03 0.256E+03 0.194E+04   -.202E+01 -.208E+01 -.135E+01   -.173E-01 -.193E-01 0.670E-01
   -.110E+03 -.164E+03 -.860E+03   0.111E+03 0.167E+03 0.860E+03   -.130E+00 -.235E+01 -.364E+00   0.729E-02 -.884E-03 0.127E-01
   -.237E+03 -.718E+02 0.155E+04   0.239E+03 0.737E+02 -.155E+04   -.432E+00 -.132E+01 -.254E+01   0.248E-01 -.206E-01 -.399E-01
[...]
   0.235E+03 0.494E+03 -.214E+04   -.237E+03 -.498E+03 0.215E+04   0.575E+00 0.171E+01 -.976E+00   0.169E-01 0.306E-01 0.833E-02
   -.236E+02 0.137E+03 -.286E+03   0.244E+02 -.139E+03 0.283E+03   -.895E+00 0.200E+01 0.181E+01   0.510E-02 0.295E-01 0.153E-01
   0.200E+03 0.229E+03 -.137E+04   -.201E+03 -.231E+03 0.137E+04   0.843E+00 0.104E+01 0.189E+01   0.416E-01 0.223E-01 0.745E-01
   -.371E+03 -.131E+03 0.231E+04   0.375E+03 0.131E+03 -.232E+04   -.173E+01 -.335E+00 0.189E+01   -.223E-02 0.324E-02 -.691E-01
   -.121E+03 0.663E+02 0.985E+03   0.122E+03 -.681E+02 -.986E+03   -.942E+00 0.157E+01 0.118E+01   0.503E-02 0.511E-02 0.462E-01
   -.165E+03 -.127E+02 -.235E+04   0.167E+03 0.129E+02 0.235E+04   -.529E+00 -.276E+00 -.337E+01   -.555E-02 -.702E-02 0.448E-01
   -.169E+03 0.149E+03 -.208E+04   0.172E+03 -.150E+03 0.208E+04   -.842E+00 -.761E+00 -.330E+01   0.418E-02 -.360E-01 0.373E-02
   -.743E+02 -.135E+03 -.736E+03   0.754E+02 0.138E+03 0.736E+03   -.833E+00 -.280E+01 -.110E+01   0.170E-01 -.433E-02 0.950E-02
   -.276E+03 -.109E+03 0.159E+04   0.279E+03 0.111E+03 -.159E+04   -.269E+00 -.109E+01 -.125E+01   0.415E-02 0.125E-01 -.306E-01
   -.880E+02 -.170E+03 0.361E+03   0.891E+02 0.173E+03 -.362E+03   -.123E+01 -.273E+01 0.243E+00   0.105E-01 -.358E-01 0.735E-01
   -.223E+03 -.367E+03 0.155E+04   0.222E+03 0.371E+03 -.155E+04   0.784E+00 -.308E+01 -.476E+00   -.180E-01 0.521E-02 -.412E-01
   0.108E+03 -.432E+02 0.402E+03   -.111E+03 0.432E+02 -.402E+03   0.285E+01 -.184E-01 0.726E+00   -.443E-01 -.841E-02 0.595E-01
   0.138E+03 -.785E+01 -.715E+03   -.140E+03 0.771E+01 0.714E+03   0.229E+01 -.521E-01 0.108E+00   -.169E-01 -.147E-01 0.302E-01
   -.569E+02 -.146E+03 -.222E+04   0.557E+02 0.145E+03 0.222E+04   0.658E+00 0.152E+01 -.172E+01   -.480E-01 -.423E-01 0.420E-01
   -.186E+02 0.279E+01 -.678E+01   0.234E-11 0.540E-12 -.909E-12   0.183E+02 -.275E+01 0.368E+01   0.609E-01 -.818E-02 0.298E+01

 POSITION                                       TOTAL-FORCE (eV/Angst)
      5.35228      4.81788      6.64784         0.169359     -0.271236     -0.080663
      5.93595      3.87238      9.58390        -0.074911      0.375231     -1.206105
      1.56467      2.18422      2.06392         0.027326     -0.497823     -0.764986
      2.24633      0.73197      3.71178        -0.072878     -0.937503      1.519623
      0.70542      0.51787     11.29099        -1.075916     -0.241541      0.114263
      3.82995      3.26808      0.80027        -0.486356     -0.162932     -0.883556
      4.76861      3.35453      2.93606         0.153135     -0.833036      3.085702
      5.35228      2.40903      5.87212        -0.053977      0.138138      0.034383
      5.93595      1.46353      8.80817        -1.401435      0.303386     -1.799292
      1.87746      3.73836      5.87212        -0.000753      0.060514      0.027275
      2.46113      2.79286      8.80817        -0.012722     -0.189972     -0.143517
      2.93222      1.85580     11.51690         0.562256      0.798832      0.444321
      6.92203      4.68386      2.93606         1.101523     -0.569167      0.882832
      5.00085      0.03860      0.72171         0.093003      0.614589     -1.126153
     10.98051      4.81788      6.64784         0.134464     -0.288993     -0.144320
     11.56418      3.87238      9.58390         0.161807     -0.020295     -0.315019
     11.95228      2.95703     11.95841         0.484387     -0.690646      1.815602
      7.87456      0.73197      3.71178        -0.585353      0.098850      1.334173
      6.65407      0.45302     10.86313        -1.037454      0.526083      0.760927
     10.68553      5.27686      1.01191        -0.057441      0.381605     -1.594751
     10.39684      3.35453      2.93606         0.040616      0.228352      0.849084
     10.98051      2.40903      5.87212        -0.150184     -0.115631      0.135518
     11.56418      1.46353      8.80817         0.742947     -0.205454     -1.524363
      7.50570      3.73836      5.87212         0.078690      0.179813      0.129200
      8.08937      2.79286      8.80817         1.030457      0.186263     -1.651178
     12.55026      4.68386      2.93606        -0.201166     -0.218828      1.713393
      7.87456      9.84929      6.64784         0.082050     -0.215397     -0.091810
      8.45823      8.90379      9.58390         0.352394      1.459954     -3.070206
      8.54085      9.23105     11.84665         0.385633     -0.689172      0.497686
      4.76861      5.76338      3.71178        -0.482967      0.410993      1.510441
      3.63951      5.32895     10.86944        -0.937817      0.703435      0.452119
      2.52377      0.24130      0.99864        -0.112295      0.422918     -1.490954
      7.29089      8.38594      2.93606        -0.040951      0.237533      0.624555
      7.87456      7.44044      5.87212        -0.235680     -0.108630      0.127725
      8.45823      6.49494      8.80817        -1.025378      0.032969     -0.814886
      4.39975      8.76977      5.87212        -0.051160      0.093788      0.007586
      4.98341      7.82427      8.80817         0.800130      0.753786     -1.879719
      9.44431      9.71527      2.93606        -0.129239     -0.339115      2.189219
      5.08712      5.37490      1.26469        -0.595059      1.326427     -1.603748
     13.50279      9.84929      6.64784         0.120161     -0.226535     -0.149731
     14.08646      8.90379      9.58390         0.950391     -0.942951     -0.866046
      9.76741      7.26989      2.07356        -0.072516     -0.643090     -0.771505
     10.39684      5.76338      3.71178        -0.127944     -0.883398      1.473207
     11.87990      8.40965      0.87206        -0.545889     -0.382011     -1.069211
     12.91912      8.38594      2.93606         0.140335     -0.639339      3.456585
     13.50279      7.44044      5.87212         0.019712      0.124706      0.014511
     14.08646      6.49494      8.80817         0.116760     -0.713955     -2.275784
     10.02798      8.76977      5.87212        -0.008540      0.127686      0.042427
     10.61165      7.82427      8.80817         0.164879      1.049009     -0.879268
     11.62457      6.60794     10.70550        -0.719384      1.113176      0.843569
     15.07254      9.71527      2.93606         0.952076     -0.636967      1.108258
     13.21973      4.94561      0.66126         0.272119      0.549727     -0.870383
      1.66190      1.67871      7.01153         0.163708     -0.130463     -0.069113
      2.24556      0.73321      9.94759         0.180913     -0.583967     -3.192436
      5.97005      3.56297      1.27867         1.969581     -1.770240     -2.893950
      6.70646      2.62422      4.07548        -0.039510     -0.253577      0.111363
      5.28167      4.34171     11.46696         0.938456     -0.165171      2.809340
      2.24556      3.80055     10.93537         1.391075      0.083943     -0.646841
      7.29013      4.74605      7.99931         0.644502      0.236776     -0.374001
      3.60051      1.60565      2.12720         2.070955      0.581244      0.117402
[...]
      7.07033      8.08475      7.99931         0.133206      0.346362     -0.273352
      8.13277      7.35076     10.79194        -1.762674     -2.097545      2.665294
      9.81241      6.71012      7.01153        -0.095900      0.332193     -1.086834
     10.35933      5.76189      9.32699        -0.350092     -0.529405      0.243164
     13.90252      9.01013      1.30270         1.631571     -0.398932     -3.657729
     14.85697      7.65563      4.07548        -0.003194     -0.249948     -0.248646
     13.38411      9.58996     11.43507         1.210701     -0.094340      2.933290
     10.39608      8.83196     10.93537         1.490214     -1.746334      0.195239
     15.44064      9.77746      7.99931         0.267165      0.126331     -1.402089
     11.75102      6.63706      2.12720         2.523620      0.875264      0.005778
     12.33469      5.69156      5.06325        -0.121038      0.007178     -0.121315
     11.48345      9.92709      2.26416        -0.575167      1.431770     -0.030721
     12.11489      9.03025      5.06325        -0.270782     -0.106604      0.027629
     12.69856      8.08475      7.99931        -0.425493     -0.208711     -0.529364
     13.64859      7.01827     10.74335        -0.634713      0.433921      2.622953
    total drift:                               -0.212426      0.033427     -0.124623

  FREE ENERGIE OF THE ION-ELECTRON SYSTEM (eV)
  free  energy   TOTEN  =      -503.92850563 eV

  energy  without entropy=     -502.62524251  energy(sigma->0) =     -503.27687407