 vasp.5.4.4.18Apr17-6-g9f103f2a35 (build Aug 13 2019 17:33:20) gamma-only

 executed on             LinuxIFC date 2020.05.11  19:48:22

 INCAR:
 POTCAR:    PAW_PBE Ni_pv 06Sep2000
 POTCAR:    PAW_PBE S 06Sep2000
 POTCAR:    PAW_PBE Ni_pv 06Sep2000
   VRHFIN =Ni:

   TITEL  = PAW_PBE Ni_pv 06Sep2000
   POMASS =   58.690; ZVAL   =   16.000    mass and valenz
   ENMAX  =  367.986; ENMIN  =  275.989 eV

 POTCAR:    PAW_PBE S 06Sep2000
   VRHFIN =S : s2p4

   TITEL  = PAW_PBE S 06Sep2000
   POMASS =   32.066; ZVAL   =    6.000    mass and valenz
   ENMAX  =  258.689; ENMIN  =  194.016 eV

 Optimization of the real space projectors (new method)

 maximal supplied QI-value         = 18.90
 optimisation between [QCUT,QGAM] = [ 10.77, 21.73] = [ 32.49,132.25] Ry
 Optimized for a Real-space Cutoff    1.38 Angstroem

   l    n(q)    QCUT    max X(q) W(low)/X(q) W(high)/X(q)  e(spline)
   1      8    10.771     2.836    0.40E-04    0.29E-04    0.12E-06
   1      8    10.771     4.023    0.10E-03    0.48E-04    0.29E-06
   2      8    10.771    73.368    0.42E-03    0.97E-04    0.44E-06
   2      8    10.771    69.010    0.42E-03    0.99E-04    0.45E-06
   0      9    10.771    54.797    0.10E-03    0.56E-04    0.74E-07
   0      9    10.771    24.266    0.89E-04    0.49E-04    0.67E-07
 Optimization of the real space projectors (new method)

 maximal supplied QI-value         = 19.84
 optimisation between [QCUT,QGAM] = [ 10.71, 21.63] = [ 32.15,130.99] Ry
 Optimized for a Real-space Cutoff    1.19 Angstroem

   l    n(q)    QCUT    max X(q) W(low)/X(q) W(high)/X(q)  e(spline)
   0      8    10.715   187.594    0.41E-03    0.53E-04    0.66E-07
   0      8    10.715   164.243    0.41E-03    0.53E-04    0.65E-07
   1      7    10.715    67.533    0.19E-03    0.59E-03    0.68E-07
   1      7    10.715    50.729    0.19E-03    0.58E-03    0.67E-07
  PAW_PBE Ni_pv 06Sep2000               :
  PAW_PBE S 06Sep2000                   :

 POSCAR: Type_036 Type_136
  positions in cartesian coordinates
 exchange correlation table for  LEXCH =        8
   RHO(1)=    0.500       N(1)  =     2000
   RHO(2)=  100.500       N(2)  =     4000

 ion  position               nearest neighbor table
   1  0.780  0.145  0.121-  63 2.11  49 2.12  50 2.15  41 2.25   2 2.29  64 2.36  35 2.41  38 2.43

   2  0.731  0.104  0.250-  42 2.00  64 2.13  50 2.26   1 2.29  18 2.46  41 2.59
   3  0.216  0.628  0.096-  43 2.01  44 2.11  61 2.19   4 2.37  51 2.42  14 2.46
   4  0.297  0.645  0.216-  52 2.13  62 2.13  44 2.25  51 2.26  61 2.26   3 2.37  27 2.53  15 2.53

[...]

  16  0.447  0.498  0.344-  62 2.03  54 2.04  40 2.05  15 2.50
  17  0.593  0.914  0.088-  59 2.11  67 2.18  18 2.38  41 2.45  29 2.47
  18  0.597  0.013  0.223-  42 2.11  68 2.19  59 2.25  67 2.26  41 2.26  17 2.38   2 2.46   6 2.53
                            30 2.53
  19  0.080  0.513  0.127-  43 2.08  57 2.10  66 2.12  65 2.18  44 2.36  20 2.39   7 2.53  31 2.53

[...]

  25  0.898  0.362  0.141-  66 2.08  49 2.11  38 2.14  50 2.19  65 2.25  23 2.47
  26  0.448  0.852  0.053-  67 2.08  39 2.10  27 2.37  14 2.50  51 2.56
  27  0.425  0.777  0.191-  52 2.22  67 2.25  39 2.26  51 2.26  40 2.36  26 2.37  28 2.51  15 2.53
                             4 2.53
  28  0.448  0.793  0.344-  52 2.03  68 2.04  40 2.05  27 2.51
  29  0.530  0.147  0.087-  41 2.04  53 2.05  67 2.07   5 2.47  17 2.47
  30  0.597  0.277  0.223-  42 2.07  54 2.15  69 2.25  53 2.26  41 2.26   6 2.53  18 2.53
  31  0.080  0.777  0.127-  43 2.09  71 2.11  56 2.12  55 2.17  44 2.36  32 2.39   7 2.53  19 2.53

[...]

  68  0.508  0.973  0.318-  28 2.04   6 2.10  18 2.19  42 2.72  67 2.73
  69  0.657  0.477  0.183-  23 2.11  30 2.25  24 2.26  11 2.26  10 2.28
  70  0.694  0.499  0.352-  11 2.02  24 2.03
  71  0.140  0.969  0.111-   8 2.08  21 2.10  31 2.11  72 2.77
  72  0.174  0.977  0.278-   9 2.01  22 2.03  32 2.07   8 2.36  21 2.36  71 2.77  37 2.78

  LATTYP: Found a simple orthorhombic cell.
 ALAT       =     9.5784100000
 B/A-ratio  =     1.6880763216
 C/A-ratio  =     1.7627867312

  Lattice vectors:

 A1 = (   0.0000000000,   9.5784100000,   0.0000000000)
 A2 = (   0.0000000000,   0.0000000000, -16.1690871197)
 A3 = ( -16.8846940542,   0.0000000000,   0.0000000000)

Analysis of symmetry for initial positions (statically):
 Subroutine PRICEL returns:
 Original cell was already a primitive cell.

 Routine SETGRP: Setting up the symmetry group for a
 simple orthorhombic supercell.

 Subroutine GETGRP returns: Found  1 space group operations
 (whereof  1 operations were pure point group operations)
 out of a pool of  8 trial point group operations.

The static configuration has the point symmetry C_1 .

Analysis of symmetry for dynamics (positions and initial velocities):
 Subroutine PRICEL returns:
 Original cell was already a primitive cell.

 Routine SETGRP: Setting up the symmetry group for a
 simple orthorhombic supercell.

 Subroutine GETGRP returns: Found  1 space group operations
 (whereof  1 operations were pure point group operations)
 out of a pool of  8 trial point group operations.

The dynamic configuration has the point symmetry C_1 .

 Subroutine INISYM returns: Found  1 space group operations
 (whereof  1 operations are pure point group operations),
 and found     1 'primitive' translations

 KPOINTS: gamma-point-only calculation. no periodi

Automatic generation of k-mesh.
Space group operators:
 irot       det(A)        alpha          n_x          n_y          n_z        tau_x        tau_y        tau_z
    1     1.000000     0.000000     1.000000     0.000000     0.000000     0.000000     0.000000     0.000000

 Subroutine IBZKPT returns following result:

 Found      1 irreducible k-points:

 Following reciprocal coordinates:
            Coordinates               Weight
  0.000000  0.000000  0.000000      1.000000

 Following cartesian coordinates:
            Coordinates               Weight
  0.000000  0.000000  0.000000      1.000000

 SYSTEM =  "Millerite NiS"
 POSCAR =  Type_036 Type_136

 Startparameter for this run:
   NWRITE =      2    write-flag & timer
   PREC   = normal    normal or accurate (medium, high low for compatibility)
   ISTART =      0    job   : 0-new  1-cont  2-samecut
   ICHARG =      2    charge: 1-file 2-atom 10-const
   ISPIN  =      1    spin polarized calculation?
   LNONCOLLINEAR =      F non collinear calculations
   LSORBIT =      F    spin-orbit coupling
   INIWAV =      1    electr: 0-lowe 1-rand  2-diag
   LASPH  =      F    aspherical Exc in radial PAW
   METAGGA=      F    non-selfconsistent MetaGGA calc.

 Electronic Relaxation 1
   ENCUT  =  450.0 eV  33.07 Ry    5.75 a.u.  29.20 16.57 27.97*2*pi/ulx,y,z
   ENINI  =  450.0     initial cutoff
   ENAUG  =  703.4 eV  augmentation charge cutoff
   NELM   =    100;   NELMIN=  2; NELMDL= -5     # of ELM steps
   EDIFF  = 0.1E-03   stopping-criterion for ELM
   LREAL  =      T    real-space projection
   NLSPLINE    = F    spline interpolate recip. space projectors
   LCOMPAT=      F    compatible to vasp.4.4
   GGA_COMPAT  = T    GGA compatible to vasp.4.4-vasp.4.6
   LMAXPAW     = -100 max onsite density
   LMAXMIX     =    2 max onsite mixed and CHGCAR
   VOSKOWN=      0    Vosko Wilk Nusair interpolation
   ROPT   =   -0.00050  -0.00050
 Ionic relaxation
   EDIFFG = 0.1E-02   stopping-criterion for IOM
   NSW    =      0    number of steps for IOM
   NBLOCK =      1;   KBLOCK =      1    inner block; outer block
   IBRION =     -1    ionic relax: 0-MD 1-quasi-New 2-CG
   NFREE  =      0    steps in history (QN), initial steepest desc. (CG)
   ISIF   =      2    stress and relaxation
   IWAVPR =     10    prediction:  0-non 1-charg 2-wave 3-comb
   ISYM   =      2    0-nonsym 1-usesym 2-fastsym
   LCORR  =      T    Harris-Foulkes like correction to forces

   POTIM  = 0.5000    time-step for ionic-motion
   TEIN   =    0.0    initial temperature
   TEBEG  =    0.0;   TEEND  =   0.0 temperature during run
   SMASS  =  -3.00    Nose mass-parameter (am)
   estimated Nose-frequenzy (Omega)   =  0.10E-29 period in steps =****** mass=  -0.652E-26a.u.
   SCALEE = 1.0000    scale energy and forces
   NPACO  =    256;   APACO  = 16.0  distance and # of slots for P.C.
   PSTRESS=    0.0 pullay stress

  Mass of Ions in am
   POMASS =  58.69 32.07
  Ionic Valenz
   ZVAL   =  16.00  6.00
  Atomic Wigner-Seitz radii
  virtual crystal weights
   VCA    =   1.00  1.00
   NELECT =     792.0000    total number of electrons
   NUPDOWN=      -1.0000    fix difference up-down

 DOS related values:
   EMIN   =  10.00;   EMAX   =-10.00  energy-range for DOS
   EFERMI =   0.00
   ISMEAR =     0;   SIGMA  =   0.20  broadening in eV -4-tet -1-fermi 0-gaus

 Electronic relaxation 2 (details)
   IALGO  =     38    algorithm
   LDIAG  =      T    sub-space diagonalisation (order eigenvalues)
   LSUBROT=      F    optimize rotation matrix (better conditioning)
   TURBO    =      0    0=normal 1=particle mesh
   IRESTART =      0    0=no restart 2=restart with 2 vectors
   NREBOOT  =      0    no. of reboots
   NMIN     =      0    reboot dimension
   EREF     =   0.00    reference energy to select bands
   IMIX   =      4    mixing-type and parameters
     AMIX     =   0.40;   BMIX     =  1.00
     AMIX_MAG =   1.60;   BMIX_MAG =  1.00
     AMIN     =   0.10
     WC   =   100.;   INIMIX=   1;  MIXPRE=   1;  MAXMIX= -45

 Intra band minimization:
   WEIMIN = 0.0000     energy-eigenvalue tresh-hold
   EBREAK =  0.53E-07  absolut break condition
   DEPER  =   0.30     relativ break condition

   TIME   =   0.40     timestep for ELM

  volume/ion in A,a.u.               =      36.32       245.10
  Fermi-wavevector in a.u.,A,eV,Ry     =   1.099409  2.077581 16.445356  1.208700
  Thomas-Fermi vector in A             =   2.235803

 Write flags
   LWAVE        =      F    write WAVECAR
   LDOWNSAMPLE  =      F    k-point downsampling of WAVECAR
   LCHARG       =      F    write CHGCAR
   LVTOT        =      F    write LOCPOT, total local potential
   LVHAR        =      F    write LOCPOT, Hartree potential only
   LELF         =      F    write electronic localiz. function (ELF)
   LORBIT       =      0    0 simple, 1 ext, 2 COOP (PROOUT), +10 PAW based schemes

 Dipole corrections
   LMONO  =      F    monopole corrections only (constant potential shift)
   LDIPOL =      F    correct potential (dipole corrections)
   IDIPOL =      0    1-x, 2-y, 3-z, 4-all directions
   EPSILON=  1.0000000 bulk dielectric constant

 Exchange correlation treatment:
   GGA     =    --    GGA type
   VOSKOWN=      0    Vosko Wilk Nusair interpolation
   LHFCALC =     F    Hartree Fock is set to
   LHFONE  =     F    Hartree Fock one center treatment
   AEXX    =    0.0000 exact exchange contribution

 Linear response parameters
   LEPSILON=     F    determine dielectric tensor
   LRPA    =     F    only Hartree local field effects (RPA)
   LNABLA  =     F    use nabla operator in PAW spheres
   LVEL    =     F    velocity operator in full k-point grid
   LINTERFAST=   F  fast interpolation
   KINTER  =     0    interpolate to denser k-point grid
   CSHIFT  =0.1000    complex shift for real part using Kramers Kronig
[...]
  Fock        0.00000     0.00000     0.00000     0.00000     0.00000     0.00000
  Total     131.46006   122.81072   140.66794    -2.73701     3.00247     6.99709
  in kB      80.54383    75.24450    86.18538    -1.67693     1.83958     4.28702

 VOLUME and BASIS-vectors are now :
  energy-cutoff  :      450.00
  volume of cell :     2615.00
      direct lattice vectors                 reciprocal lattice vectors
    16.884694054  0.000000000  0.000000000     0.059225237  0.000000000  0.000000000
     0.000000000  9.578410000  0.000000000     0.000000000  0.104401461  0.000000000
     0.000000000  0.000000000 16.169087120     0.000000000  0.000000000  0.061846411

  length of vectors
    16.884694054  9.578410000 16.169087120     0.059225237  0.104401461  0.061846411

 FORCES acting on ions
    electron-ion (+dipol)            ewald-force                    non-local-force                 convergence-correction
   -.310E+03 -.441E+03 0.201E+04   0.307E+03 0.442E+03 -.202E+04   0.354E+01 0.381E+00 0.491E+01   -.225E-02 0.191E-01 -.328E-01
   -.846E+03 -.261E+03 -.244E+04   0.847E+03 0.263E+03 0.245E+04   0.724E+00 -.137E+01 -.485E+01   -.180E-01 0.148E-01 0.272E-02
   0.390E+03 0.979E+02 0.275E+04   -.389E+03 -.983E+02 -.276E+04   0.354E+00 0.625E+00 0.735E+01   0.448E-01 -.891E-03 -.253E-02
   0.810E+03 0.588E+02 -.122E+04   -.812E+03 -.586E+02 0.123E+04   0.199E+01 -.850E-01 -.559E+01   0.967E-02 0.253E-03 -.403E-01
   0.250E+03 -.338E+03 0.233E+04   -.251E+03 0.339E+03 -.234E+04   0.162E+01 -.883E+00 0.875E+01   -.111E-01 -.600E-02 -.983E-02
   0.202E+03 -.206E+03 -.195E+04   -.207E+03 0.206E+03 0.196E+04   0.342E+01 -.249E+00 -.858E+01   -.397E-01 0.539E-02 -.332E-01
   0.550E+03 0.874E+02 0.540E+03   -.555E+03 -.874E+02 -.537E+03   0.378E+01 0.282E+00 -.332E+01   0.401E-01 -.666E-02 -.235E-02
   0.110E+04 -.101E+03 0.704E+03   -.110E+04 0.101E+03 -.709E+03   0.643E+01 -.410E-01 0.661E+01   0.335E-01 0.819E-02 -.346E-02
   0.942E+03 -.461E+02 -.376E+04   -.941E+03 0.453E+02 0.376E+04   -.312E+00 0.534E+00 -.167E+01   0.196E-01 0.795E-02 -.528E-02
   -.589E+03 0.601E+03 0.154E+04   0.593E+03 -.603E+03 -.155E+04   -.296E+01 0.132E+01 0.397E+01   -.494E-01 -.265E-02 -.218E-01
   -.149E+03 0.195E+03 -.247E+04   0.146E+03 -.196E+03 0.247E+04   0.187E+01 0.470E+00 -.727E+01   -.323E-01 -.199E-01 -.150E-01
   -.475E+03 0.920E+02 0.223E+04   0.478E+03 -.963E+02 -.224E+04   -.244E+01 0.377E+01 0.863E+01   0.333E-01 -.373E-02 -.220E-01
   -.239E+02 -.359E+03 -.167E+04   0.285E+02 0.362E+03 0.167E+04   -.512E+01 -.319E+01 -.183E+01   0.437E-01 0.687E-02 0.352E-02
   0.159E+03 0.452E+03 0.393E+04   -.161E+03 -.453E+03 -.394E+04   0.182E+01 0.263E+00 0.523E+01   0.116E-02 0.132E-01 0.197E-02
   -.272E+03 0.748E+03 0.413E+03   0.271E+03 -.752E+03 -.414E+03   0.741E+00 0.326E+01 -.205E+00   -.266E-01 0.125E-01 -.341E-01
   -.131E+03 0.270E+03 -.378E+04   0.128E+03 -.271E+03 0.378E+04   0.339E+01 0.101E+01 0.110E+01   -.194E-01 -.796E-02 -.115E-01
   -.624E+03 0.353E+03 0.334E+04   0.622E+03 -.353E+03 -.335E+04   0.161E+01 -.216E+00 0.255E+01   -.669E-01 -.548E-02 -.169E-01
   -.441E+03 0.244E+03 -.133E+04   0.444E+03 -.248E+03 0.133E+04   -.312E+01 0.395E+01 -.372E+01   -.585E-01 0.161E-02 -.205E-01
   0.332E+03 0.709E+03 0.178E+04   -.331E+03 -.714E+03 -.178E+04   -.145E+01 0.496E+01 0.230E+01   0.406E-01 -.681E-02 0.141E-01
   0.630E+03 0.648E+02 -.276E+04   -.628E+03 -.658E+02 0.276E+04   -.115E+01 0.150E+01 0.625E+00   0.269E-01 -.772E-02 -.702E-02
   0.421E+03 0.400E+03 0.128E+04   -.422E+03 -.403E+03 -.128E+04   0.203E+01 0.175E+01 0.480E+01   0.208E-01 0.138E-02 -.925E-02
   0.120E+03 0.359E+03 -.337E+04   -.120E+03 -.361E+03 0.338E+04   0.424E-01 0.121E+01 0.665E-01   -.684E-02 0.727E-02 -.156E-01
   0.194E+03 -.289E+03 0.250E+04   -.195E+03 0.292E+03 -.251E+04   0.590E+00 -.179E+01 0.680E+01   -.194E-01 0.319E-02 -.125E-01
   -.807E+03 0.478E+03 -.198E+04   0.811E+03 -.480E+03 0.198E+04   -.336E+01 0.156E+01 -.516E+01   -.111E-01 -.340E-03 0.709E-02
   -.580E+03 0.161E+03 0.869E+03   0.584E+03 -.161E+03 -.868E+03   -.347E+01 -.485E+00 -.874E-01   0.275E-01 0.576E-02 -.506E-02
   0.540E+02 -.244E+03 0.399E+04   -.507E+02 0.243E+03 -.399E+04   -.346E+01 0.217E+01 0.205E-01   -.422E-01 -.218E-01 0.104E-01
   0.905E+01 -.292E+03 -.148E+03   -.103E+02 0.295E+03 0.150E+03   0.952E+00 -.216E+01 -.171E+01   -.280E-01 -.627E-02 -.574E-01
   -.953E+02 -.183E+03 -.388E+04   0.931E+02 0.183E+03 0.388E+04   0.268E+01 -.948E+00 0.138E+01   -.261E-01 -.295E-02 -.179E-01
   -.223E+03 -.797E+03 0.350E+04   0.222E+03 0.798E+03 -.351E+04   0.488E+00 -.141E+01 0.551E+01   -.553E-01 -.456E-02 -.632E-02
   -.582E+03 -.780E+03 -.770E+03   0.586E+03 0.786E+03 0.770E+03   -.380E+01 -.509E+01 -.151E+01   -.439E-01 0.116E-01 -.123E-01
   0.190E+03 -.586E+03 0.182E+04   -.188E+03 0.591E+03 -.182E+04   -.168E+01 -.521E+01 0.231E+01   0.404E-01 -.530E-02 -.363E-02
   0.521E+03 0.654E+02 -.277E+04   -.520E+03 -.647E+02 0.277E+04   0.156E+00 -.142E+01 0.492E+00   0.328E-01 -.669E-02 -.959E-02
   0.302E+03 -.476E+03 0.132E+04   -.303E+03 0.479E+03 -.132E+04   0.211E+01 -.215E+01 0.474E+01   0.119E-01 -.175E-02 -.816E-02
   0.903E+02 -.405E+03 -.335E+04   -.909E+02 0.407E+03 0.335E+04   0.786E+00 -.144E+01 -.342E+00   -.921E-02 -.491E-02 -.146E-01
   -.206E+03 0.572E+03 0.224E+04   0.204E+03 -.575E+03 -.225E+04   0.191E+01 0.148E+01 0.830E+01   -.125E-01 -.427E-02 -.220E-01
   -.885E+03 -.196E+03 -.193E+04   0.890E+03 0.199E+03 0.194E+04   -.355E+01 -.195E+01 -.503E+01   0.327E-02 -.215E-01 0.723E-02
   0.446E+03 -.165E+03 -.938E+03   -.450E+03 0.168E+03 0.939E+03   0.184E+01 -.175E+01 -.140E+00   0.196E-01 0.638E-02 0.164E-02
   -.318E+03 -.164E+03 0.752E+03   0.324E+03 0.165E+03 -.756E+03   -.350E+01 -.599E-01 0.290E+01   0.118E-01 0.888E-03 -.679E-02
   -.317E+03 0.379E+03 0.131E+04   0.320E+03 -.382E+03 -.131E+04   -.177E+01 0.256E+01 0.261E+01   -.252E-01 0.823E-02 -.313E-02
   -.260E+03 0.730E+02 -.866E+03   0.260E+03 -.731E+02 0.870E+03   0.115E+01 0.165E+00 -.383E+01   -.106E-01 -.427E-02 -.126E-01
   -.252E+03 -.281E+03 0.988E+03   0.253E+03 0.284E+03 -.993E+03   -.196E+00 -.367E+01 0.334E+01   -.189E-01 0.413E-02 -.883E-02
   -.206E+03 -.100E+03 -.159E+04   0.208E+03 0.101E+03 0.159E+04   -.168E+01 -.657E+00 -.243E+01   -.184E-01 0.639E-02 0.528E-02
   0.131E+03 -.311E+01 0.168E+04   -.130E+03 0.311E+01 -.168E+04   -.377E+00 0.237E+00 0.199E+01   0.117E-01 -.159E-02 0.353E-02
   0.365E+02 -.437E+01 -.483E+03   -.366E+02 0.467E+01 0.487E+03   0.543E+00 -.129E+00 -.207E+01   0.626E-02 -.830E-02 -.348E-02
   0.197E+03 -.530E+02 0.162E+04   -.198E+03 0.530E+02 -.163E+04   0.111E+01 -.689E-01 0.195E+01   0.113E-01 -.194E-02 0.751E-02
   -.664E+02 -.386E+02 -.535E+03   0.671E+02 0.385E+02 0.539E+03   0.895E+00 -.739E-01 -.381E+01   -.275E-03 -.210E-02 -.137E-01
   -.127E+03 -.341E+02 0.575E+03   0.128E+03 0.354E+02 -.578E+03   -.674E+00 -.123E+01 0.250E+01   0.218E-02 -.364E-02 -.112E-02
   -.508E+03 0.366E+02 -.138E+04   0.512E+03 -.366E+02 0.138E+04   -.227E+01 0.390E-01 -.785E+00   0.405E-02 -.238E-02 0.340E-02
   -.102E+03 -.347E+02 0.156E+04   0.102E+03 0.358E+02 -.157E+04   -.570E+00 -.841E+00 0.355E+01   -.194E-02 -.141E-02 -.947E-02
   -.250E+03 0.293E+02 -.630E+03   0.251E+03 -.304E+02 0.635E+03   -.112E+01 0.683E+00 -.229E+01   -.488E-03 0.700E-02 0.194E-03
   0.307E+03 -.280E+03 0.821E+03   -.309E+03 0.283E+03 -.823E+03   0.157E+01 -.176E+01 0.531E+00   0.125E-01 -.103E-01 -.106E-01
   0.314E+03 0.945E+01 -.108E+04   -.316E+03 -.895E+01 0.108E+04   0.121E+01 -.330E+00 -.127E+01   -.533E-02 0.127E-02 -.128E-01
   -.332E+02 -.338E+03 0.656E+03   0.327E+02 0.343E+03 -.659E+03   -.785E+00 -.279E+01 0.263E+01   -.159E-01 -.409E-02 -.582E-02
   -.161E+03 -.283E+01 -.128E+04   0.161E+03 0.341E+01 0.128E+04   0.263E+00 -.654E+00 -.257E+01   -.112E-01 0.177E-02 -.483E-02
   0.217E+03 -.209E+02 -.584E+03   -.218E+03 0.194E+02 0.589E+03   0.324E+00 0.123E+01 -.206E+01   0.144E-01 -.525E-02 -.162E-02
   0.540E+02 -.663E+02 0.146E+04   -.552E+02 0.670E+02 -.147E+04   0.114E+01 -.239E+00 0.372E+01   0.130E-01 -.173E-02 -.360E-02
   0.261E+03 0.766E+02 0.106E+04   -.261E+03 -.781E+02 -.106E+04   0.500E-01 0.999E+00 0.393E+01   0.942E-02 0.252E-02 0.349E-02
   0.290E+03 -.247E+03 -.788E+03   -.292E+03 0.250E+03 0.789E+03   0.134E+01 -.152E+01 -.844E+00   0.705E-04 0.296E-02 -.344E-02
   -.175E+03 0.143E+03 0.104E+03   0.174E+03 -.141E+03 -.104E+03   -.330E+00 -.142E+01 0.268E+00   -.246E-01 -.996E-02 -.380E-02
   -.147E+03 -.222E+03 -.160E+04   0.146E+03 0.225E+03 0.160E+04   0.558E+00 -.182E+01 -.927E+00   -.462E-02 -.445E-02 0.414E-02
   0.859E+02 0.377E+03 0.878E+03   -.867E+02 -.381E+03 -.881E+03   -.696E-01 0.202E+01 0.196E+01   0.651E-02 0.124E-01 -.931E-02
   0.285E+03 0.260E+02 -.102E+04   -.287E+03 -.265E+02 0.102E+04   0.788E+00 0.278E+00 -.757E+00   -.169E-02 0.293E-03 -.841E-02
   -.105E+03 -.810E+01 0.169E+04   0.104E+03 0.800E+01 -.169E+04   0.388E+00 -.562E+00 0.255E+01   0.409E-02 0.612E-02 -.145E-01
   -.284E+03 -.296E+02 -.655E+03   0.285E+03 0.294E+02 0.661E+03   -.129E+01 -.232E+00 -.258E+01   0.108E-01 -.288E-02 0.248E-02
   0.262E+03 0.228E+03 -.665E+03   -.264E+03 -.229E+03 0.671E+03   0.445E+00 -.388E+00 -.306E+01   0.239E-01 0.137E-02 0.412E-02
   0.671E+02 0.172E+03 0.137E+04   -.685E+02 -.172E+03 -.138E+04   0.136E+01 0.200E+00 0.450E+01   0.160E-01 0.222E-02 -.324E-02
   0.955E+02 0.278E+02 0.334E+03   -.974E+02 -.310E+02 -.333E+03   0.792E+00 0.215E+01 -.254E+01   -.196E-01 -.115E-02 -.127E-01
   -.141E+03 -.484E+02 -.138E+04   0.140E+03 0.478E+02 0.139E+04   0.177E+01 0.852E+00 -.161E+01   -.116E-01 0.421E-02 -.712E-02
   0.179E+02 0.114E+03 0.323E+03   -.200E+02 -.116E+03 -.325E+03   0.865E-01 0.196E+01 0.147E+01   -.159E-01 0.259E-02 -.282E-02
   -.148E+03 0.282E+03 -.156E+04   0.147E+03 -.285E+03 0.156E+04   0.816E+00 0.196E+01 -.121E+01   -.620E-02 -.249E-02 0.363E-02
   0.231E+03 -.709E+02 0.108E+04   -.233E+03 0.724E+02 -.108E+04   0.466E+00 -.110E+01 0.374E+01   0.133E-01 0.633E-03 0.752E-03
   0.267E+03 0.234E+03 -.796E+03   -.268E+03 -.238E+03 0.797E+03   0.814E+00 0.181E+01 -.101E+01   0.102E-01 0.606E-02 -.345E-02
   -.122E+02 0.373E+01 -.434E+02   0.455E-12 0.000E+00 -.330E-11   0.122E+02 -.378E+01 0.439E+02   -.140E+00 -.195E-01 -.553E+00

 POSITION                                       TOTAL-FORCE (eV/Angst)
     13.17084      1.39171      1.94975         0.442993      1.004280     -1.099109
     12.34278      0.99766      4.04683         1.154054      0.239603      0.239443
      3.65540      6.01588      1.55956         1.106755      0.276102     -0.234793
      5.02033      6.18092      3.49202        -0.380724      0.063041      0.085296
      6.54681      1.35326      2.03036         0.749361      0.096653     -0.155547
      7.93172      1.39171      4.00611        -0.849055      0.502957     -0.673410
     16.08224      6.18092      2.46384        -1.142961      0.332374     -0.043117
      2.10894      1.39171      2.97793         0.289498      0.083245      1.515451
      2.46311      1.39164      5.60823         0.670138     -0.207699      1.832074
      9.63173      6.28459      2.56573         0.651986     -0.448705     -0.302439
     10.84312      6.18092      4.52020        -0.941938     -0.246054     -0.825361
     15.16850      8.85709      1.76725         0.602631     -0.436119     -0.240547
     16.08671      0.37006      3.69451        -0.481406     -0.425766      0.689043
      6.03406      6.18190      0.94450        -0.266140     -0.161565     -1.599995
      7.17375      4.91558      3.08454         0.003306     -0.189844     -0.641000
      7.55332      4.77443      5.55447         0.378946      0.053220      0.855297
     10.00801      8.75176      1.42234         0.085432     -0.042904     -0.765715
     10.08514      0.12638      3.59863        -0.116451     -0.357498      0.411135
      1.35096      4.91558      2.05636        -0.031887     -0.279592      0.061770
      1.70003      4.67054      4.40770         0.735651      0.506511      1.213506
      4.26235      0.12638      2.57045         0.344978     -0.849608      1.325091
      4.82466      0.01636      5.21762         0.152586     -0.064704      0.677608
     12.87584      4.27901      1.87931        -0.698231      0.952221     -0.304963
     12.99653      4.91558      4.11272        -0.021150     -0.255463     -1.337250
     15.16839      3.46686      2.28512         0.937994     -0.226120      1.052794
      7.56354      8.16014      0.85363        -0.221373      0.481307     -0.748428
      7.17375      7.44626      3.08454        -0.277339     -0.037679      0.598804
      7.56616      7.59784      5.56097         0.382281     -0.132164      0.820806
      8.94085      1.40577      1.41199        -0.294118      0.040295     -1.556140
     10.08514      2.65705      3.59863        -0.288443      1.092604     -1.290377
      1.35096      7.44626      2.05636         0.354399      0.170278     -0.091916
      1.68857      7.70588      4.40400         0.820229     -0.787728      0.967298
      4.26235      2.65705      2.57045         0.561532      0.705794      1.449376
      4.82034      2.75706      5.22341         0.166159      0.089868      0.638712
     12.67491      8.61138      1.95197        -0.257414     -1.492815     -0.011104
     12.99653      7.44626      4.11272         0.834981      0.598736     -2.076795
      0.69755      1.43384      4.55034        -2.492854      1.203713      1.016740
     15.59793      1.39237      1.97181         1.712981      0.717407     -0.983545
      8.00634      6.18092      1.40713         1.145037     -0.669023     -2.928371
      8.59001      6.18092      4.49167         1.097571      0.126123      0.555639
     10.91773      1.39171      1.92122         1.166105     -0.273846     -0.984632
     10.71818      1.42377      5.13360         0.897197      0.074788      3.469691
      1.94835      6.17040      0.50903         0.334609      0.232176     -3.753950
      2.76722      6.18092      3.46349         0.390937      0.162859      2.468723
      4.77085      1.39428      1.03212         0.284185     -0.042036     -4.011156
      5.67861      1.39171      3.97758         1.604090     -0.112345      0.233104
     13.82913      6.18092      2.43531        -0.065252      0.077023     -0.632568
     14.13159      6.18189      5.21361         2.540707      0.033116      2.833673
     13.85060      2.96929      0.71245        -0.052661      0.301813     -4.080501
     13.41972      2.89602      3.47246         0.401263     -0.357651      2.709082
      5.26426      7.79215      1.92599        -0.789118      1.295158     -0.801522
      5.71601      7.76218      4.73387        -0.713958      0.165530      1.686593
      8.17565      3.00295      2.44008        -1.293318      1.238037     -0.748783
      8.58101      3.07969      5.07666         0.380526     -0.069625      2.474761
     16.71861      7.95729      3.51441        -0.241089     -0.275918      2.471352
     16.46440      7.52690      0.89985        -0.074853      0.408734     -3.437120
      2.36324      3.09240      1.79317        -0.757895     -0.524756     -3.043887
      2.93654      3.00295      4.49645        -0.136406      1.852038      0.016586
     11.08705      7.79215      2.95417        -1.452448      0.245279     -0.259259
     11.70807      7.62306      5.66951        -0.531919      1.654323      3.655885
      5.26426      4.56969      1.92599        -0.863920     -1.537382     -0.520857
      5.72569      4.57203      4.69382        -0.900750     -0.185952      1.966049
     13.69768      9.55593      0.48071        -0.669843     -0.649866     -3.825256
     13.99844      9.35889      3.46826        -0.854910     -0.442570      3.107100
     16.72216      4.47411      3.55520        -1.207275     -0.880052      2.304701
     16.37722      4.63950      1.06456        -0.047218     -0.523944     -2.693264
      8.17565      9.35889      2.44008        -1.203711     -1.096117     -0.969252
      8.57400      9.32244      5.14185         0.589465      0.231100      2.410684
     11.08705      4.56969      2.95417        -2.070433     -0.128418     -0.909479
     11.72277      4.77932      5.68461        -0.192940     -1.393289      3.713212
      2.35702      9.27834      1.79183        -0.711310      0.334872     -3.014371
      2.93654      9.35889      4.49645        -0.377850     -1.838364      0.068700
    total drift:                               -0.057727     -0.062666     -0.002037

  FREE ENERGIE OF THE ION-ELECTRON SYSTEM (eV)
  free  energy   TOTEN  =      -337.16648181 eV

  energy  without entropy=     -336.01569379  energy(sigma->0) =     -336.59108780