 vasp.5.4.4.18Apr17-6-g9f103f2a35 (build Aug 13 2019 17:33:20) gamma-only

 executed on             LinuxIFC date 2020.05.12  15:42:23

 INCAR:
 POTCAR:    PAW_PBE Ni_pv 06Sep2000
 POTCAR:    PAW_PBE S 06Sep2000
 POTCAR:    PAW_PBE Ni_pv 06Sep2000
   VRHFIN =Ni:

   TITEL  = PAW_PBE Ni_pv 06Sep2000
   POMASS =   58.690; ZVAL   =   16.000    mass and valenz
   ENMAX  =  367.986; ENMIN  =  275.989 eV

 POTCAR:    PAW_PBE S 06Sep2000
   VRHFIN =S : s2p4

   TITEL  = PAW_PBE S 06Sep2000
   POMASS =   32.066; ZVAL   =    6.000    mass and valenz
   ENMAX  =  258.689; ENMIN  =  194.016 eV

 Optimization of the real space projectors (new method)

 maximal supplied QI-value         = 18.90
 optimisation between [QCUT,QGAM] = [ 10.77, 21.73] = [ 32.49,132.25] Ry
 Optimized for a Real-space Cutoff    1.38 Angstroem

   l    n(q)    QCUT    max X(q) W(low)/X(q) W(high)/X(q)  e(spline)
   1      8    10.771     2.836    0.40E-04    0.29E-04    0.12E-06
   1      8    10.771     4.023    0.10E-03    0.48E-04    0.29E-06
   2      8    10.771    73.368    0.42E-03    0.97E-04    0.44E-06
   2      8    10.771    69.010    0.42E-03    0.99E-04    0.45E-06
   0      9    10.771    54.797    0.10E-03    0.56E-04    0.74E-07
   0      9    10.771    24.266    0.89E-04    0.49E-04    0.67E-07
 Optimization of the real space projectors (new method)

 maximal supplied QI-value         = 19.84
 optimisation between [QCUT,QGAM] = [ 10.71, 21.63] = [ 32.15,130.99] Ry
 Optimized for a Real-space Cutoff    1.19 Angstroem

   l    n(q)    QCUT    max X(q) W(low)/X(q) W(high)/X(q)  e(spline)
   0      8    10.715   187.594    0.41E-03    0.53E-04    0.66E-07
   0      8    10.715   164.243    0.41E-03    0.53E-04    0.65E-07
   1      7    10.715    67.533    0.19E-03    0.59E-03    0.68E-07
   1      7    10.715    50.729    0.19E-03    0.58E-03    0.67E-07
  PAW_PBE Ni_pv 06Sep2000               :
  PAW_PBE S 06Sep2000                   :

 POSCAR: Type_036 Type_136
  positions in cartesian coordinates
 exchange correlation table for  LEXCH =        8
   RHO(1)=    0.500       N(1)  =     2000
   RHO(2)=  100.500       N(2)  =     4000

 ion  position               nearest neighbor table
   1  0.338  0.722  0.157-  41 1.98  42 2.10  61 2.17   2 2.28  51 2.31  14 2.42
   2  0.525  0.601  0.223-  42 2.25  51 2.26  61 2.26   1 2.28  62 2.36  52 2.36  15 2.53  27 2.53

   3  0.675  0.451  0.351-  43 2.25  62 2.26  52 2.26  63 2.36  53 2.36   4 2.47  28 2.53  16 2.53

   4  0.740  0.353  0.462-  64 2.05  63 2.08  53 2.08  44 2.10   3 2.47
   5  0.566  0.158  0.067-  46 2.03  50 2.11  47 2.18  67 2.22  54 2.36   6 2.38  26 2.40
   6  0.758  0.035  0.138-  67 2.05  54 2.08  47 2.25  55 2.36  68 2.36   5 2.38  20 2.42  26 2.44
                            29 2.53
   7  0.058  0.734  0.394-  57 2.07  66 2.21  65 2.26  56 2.26  18 2.53  31 2.53  49 2.54
   8  0.908  0.884  0.266-  48 2.25  55 2.26  68 2.26  56 2.36  65 2.36  30 2.53  17 2.53
   9  0.141  0.318  0.180-  69 2.12  40 2.25  58 2.26  12 2.28  70 2.36  59 2.36  34 2.53  21 2.53

  10  0.291  0.168  0.308-  37 2.25  59 2.26  70 2.26  60 2.36  71 2.36  35 2.53  22 2.53
  11  0.419  0.033  0.423-  71 2.03  60 2.09  38 2.11  72 2.16
  12  0.958  0.451  0.116-  39 1.99  40 2.12  58 2.21  69 2.24   9 2.28  33 2.45
  13  0.010  0.116  0.412-  64 2.05  38 2.12  56 2.25  63 2.26  37 2.26  25 2.48
  14  0.555  0.662  0.095-  39 1.99  51 2.04  61 2.05   1 2.42
  15  0.709  0.416  0.155-  54 2.15  39 2.26  61 2.26  40 2.36  62 2.36  27 2.53   2 2.53
  16  0.860  0.266  0.283-  55 2.25  62 2.26  40 2.26  37 2.36  63 2.36   3 2.53  28 2.53
  17  0.093  0.700  0.198-  58 2.25  41 2.26  68 2.26  42 2.36  65 2.36  30 2.53   8 2.53
  18  0.243  0.549  0.326-  66 2.11  59 2.25  65 2.26  42 2.26  43 2.36   7 2.53  31 2.53
  19  0.370  0.418  0.436-  43 2.02  44 2.11  66 2.11  60 2.18
  20  0.952  0.847  0.087-  45 2.02  68 2.10  41 2.13  67 2.19   6 2.42  29 2.44
  21  0.326  0.133  0.113-  50 2.03  69 2.25  70 2.36  47 2.36  33 2.46  34 2.53   9 2.53
  22  0.476  0.983  0.241-  51 2.25  70 2.26  47 2.26  48 2.36  71 2.36  35 2.53  10 2.53
  23  0.627  0.833  0.369-  49 2.09  72 2.15  52 2.25  71 2.26  48 2.26  24 2.37
  24  0.737  0.700  0.462-  72 2.05  53 2.05  49 2.07  23 2.37
  25  0.040  0.345  0.434-  37 2.05  64 2.09  53 2.14  38 2.17  66 2.30  13 2.48
  26  0.580  0.931  0.109-  51 2.05  50 2.06  67 2.11  47 2.26   5 2.40   6 2.44
  27  0.749  0.641  0.189-  68 2.25  51 2.26  39 2.26  40 2.36  52 2.36  15 2.53   2 2.53
  28  0.899  0.491  0.317-  65 2.25  52 2.26  40 2.26  53 2.36  37 2.36   3 2.53  16 2.53
  29  0.982  0.074  0.104-  45 1.99  69 2.14  54 2.23  41 2.36  55 2.36  20 2.44   6 2.53
  30  0.133  0.924  0.232-  70 2.25  55 2.26  41 2.26  56 2.36  42 2.36   8 2.53  17 2.53
  31  0.283  0.774  0.360-  57 2.04  71 2.25  56 2.26  42 2.26  43 2.36   7 2.53  18 2.53
  32  0.444  0.652  0.468-  43 2.02  44 2.09  57 2.10  72 2.13
  33  0.186  0.357  0.059-  46 2.02  69 2.07  58 2.07  12 2.45  21 2.46
  34  0.366  0.358  0.147-  46 2.09  61 2.25  58 2.26  47 2.36  59 2.36  21 2.53   9 2.53
  35  0.516  0.207  0.275-  62 2.25  59 2.26  47 2.26  48 2.36  60 2.36  10 2.53  22 2.53
  36  0.658  0.069  0.389-  48 2.04  60 2.13  63 2.18  49 2.19
  37  0.064  0.262  0.341-  25 2.05  10 2.25  13 2.26  16 2.36  28 2.36  38 2.58
  38  0.202  0.136  0.443-  11 2.11  13 2.12  25 2.17  37 2.58  64 2.66
  39  0.763  0.563  0.085-  12 1.99  14 1.99  15 2.26  27 2.26
  40  0.914  0.412  0.213-  12 2.12   9 2.25  16 2.26  28 2.26  27 2.36  15 2.36
  41  0.147  0.846  0.128-   1 1.98  20 2.13  17 2.26  30 2.26  29 2.36  45 2.73
  42  0.297  0.696  0.256-   1 2.10   2 2.25  31 2.26  18 2.26  30 2.36  17 2.36
  43  0.447  0.545  0.384-  32 2.02  19 2.02   3 2.25  31 2.36  18 2.36  44 2.55  57 2.78
  44  0.530  0.439  0.496-  32 2.09   4 2.10  19 2.11  43 2.55
  45  0.997  0.972  0.020-  29 1.99  20 2.02  41 2.73  67 2.74
  46  0.392  0.331  0.046-  33 2.02   5 2.03  34 2.09
  47  0.530  0.129  0.171-   5 2.18   6 2.25  26 2.26  22 2.26  35 2.26  34 2.36  21 2.36
  48  0.680  0.979  0.299-  36 2.04   8 2.25  23 2.26  35 2.36  22 2.36
  49  0.797  0.856  0.420-  24 2.07  23 2.09  36 2.19   7 2.54
  50  0.446  0.037  0.035-  21 2.03  26 2.06   5 2.11  67 2.78
  51  0.528  0.798  0.171-  14 2.04  26 2.05  22 2.25  27 2.26   2 2.26   1 2.31
  52  0.678  0.648  0.299-  23 2.25  28 2.26   3 2.26  27 2.36   2 2.36
  53  0.829  0.497  0.427-  24 2.05   4 2.08  25 2.14  28 2.36   3 2.36  64 2.79
  54  0.758  0.225  0.099-   6 2.08  15 2.15  29 2.23   5 2.36
  55  0.911  0.081  0.214-  16 2.25   8 2.26  30 2.26   6 2.36  29 2.36
  56  0.062  0.931  0.342-  13 2.25  31 2.26   7 2.26  30 2.36   8 2.36
  57  0.224  0.740  0.452-  31 2.04   7 2.07  32 2.10  43 2.78
  58  0.145  0.515  0.129-  33 2.07  12 2.21  17 2.25  34 2.26   9 2.26
  59  0.295  0.364  0.257-  18 2.25  10 2.26  35 2.26   9 2.36  34 2.36
  60  0.445  0.214  0.385-  11 2.09  36 2.13  19 2.18  35 2.36  10 2.36
  61  0.477  0.512  0.128-  14 2.05   1 2.17  34 2.25  15 2.26   2 2.26
  62  0.628  0.362  0.256-  35 2.25   3 2.26  16 2.26   2 2.36  15 2.36
  63  0.778  0.212  0.384-   4 2.08  36 2.18  13 2.26  16 2.36   3 2.36
  64  0.941  0.239  0.493-  13 2.05   4 2.05  25 2.09  38 2.66  53 2.79
  65  0.011  0.645  0.299-  28 2.25   7 2.26  18 2.26   8 2.36  17 2.36
  66  0.152  0.504  0.412-  18 2.11  19 2.11   7 2.21  25 2.30
  67  0.739  0.954  0.048-   6 2.05  26 2.11  20 2.19   5 2.22  45 2.74  50 2.78
  68  0.861  0.795  0.171-  20 2.10  27 2.25  17 2.26   8 2.26   6 2.36
  69  0.090  0.223  0.097-  33 2.07   9 2.12  29 2.14  12 2.24  21 2.25
  70  0.244  0.079  0.214-  30 2.25  22 2.26  10 2.26   9 2.36  21 2.36
  71  0.395  0.928  0.342-  11 2.03  31 2.25  23 2.26  10 2.36  22 2.36  72 2.77
  72  0.525  0.820  0.459-  24 2.05  32 2.13  23 2.15  11 2.16  71 2.77

  LATTYP: Found a base centered orthorhombic cell.
 ALAT       =    11.4527836704
 B/A-ratio  =     1.4485816945
 C/A-ratio  =     1.7908432109

  Lattice vectors:

 A1 = (  10.0797329849,   0.0000000000,   0.0000000000)
 A2 = (  -3.5732980427,  -9.4251025535,   0.0000000000)
 A3 = (   0.0000000000,   0.0000000000, -20.5101398818)

Analysis of symmetry for initial positions (statically):
 Subroutine PRICEL returns:
 Original cell was already a primitive cell.

 Routine SETGRP: Setting up the symmetry group for a
 base centered orthorhombic supercell.

 Subroutine GETGRP returns: Found  1 space group operations
 (whereof  1 operations were pure point group operations)
 out of a pool of  8 trial point group operations.

The static configuration has the point symmetry C_1 .

Analysis of symmetry for dynamics (positions and initial velocities):
 Subroutine PRICEL returns:
 Original cell was already a primitive cell.

 Routine SETGRP: Setting up the symmetry group for a
 base centered orthorhombic supercell.

 Subroutine GETGRP returns: Found  1 space group operations
 (whereof  1 operations were pure point group operations)
 out of a pool of  8 trial point group operations.

The dynamic configuration has the point symmetry C_1 .

 Subroutine INISYM returns: Found  1 space group operations
 (whereof  1 operations are pure point group operations),
 and found     1 'primitive' translations

 KPOINTS: gamma-point-only calculation. no periodi

Automatic generation of k-mesh.
Space group operators:
 irot       det(A)        alpha          n_x          n_y          n_z        tau_x        tau_y        tau_z
    1     1.000000     0.000000     1.000000     0.000000     0.000000     0.000000     0.000000     0.000000

 Subroutine IBZKPT returns following result:

 Found      1 irreducible k-points:

 Following reciprocal coordinates:
            Coordinates               Weight
  0.000000  0.000000  0.000000      1.000000

 Following cartesian coordinates:
            Coordinates               Weight
  0.000000  0.000000  0.000000      1.000000

 SYSTEM =  "Millerite NiS"
 POSCAR =  Type_036 Type_136

 Startparameter for this run:
   NWRITE =      2    write-flag & timer
   PREC   = normal    normal or accurate (medium, high low for compatibility)
   ISTART =      0    job   : 0-new  1-cont  2-samecut
   ICHARG =      2    charge: 1-file 2-atom 10-const
   ISPIN  =      1    spin polarized calculation?
   LNONCOLLINEAR =      F non collinear calculations
   LSORBIT =      F    spin-orbit coupling
   INIWAV =      1    electr: 0-lowe 1-rand  2-diag
   LASPH  =      F    aspherical Exc in radial PAW
   METAGGA=      F    non-selfconsistent MetaGGA calc.

 Electronic Relaxation 1
   ENCUT  =  450.0 eV  33.07 Ry    5.75 a.u.  17.43 17.43 35.48*2*pi/ulx,y,z
   ENINI  =  450.0     initial cutoff
   ENAUG  =  703.4 eV  augmentation charge cutoff
   NELM   =    100;   NELMIN=  2; NELMDL= -5     # of ELM steps
   EDIFF  = 0.1E-03   stopping-criterion for ELM
   LREAL  =      T    real-space projection
   NLSPLINE    = F    spline interpolate recip. space projectors
   LCOMPAT=      F    compatible to vasp.4.4
   GGA_COMPAT  = T    GGA compatible to vasp.4.4-vasp.4.6
   LMAXPAW     = -100 max onsite density
   LMAXMIX     =    2 max onsite mixed and CHGCAR
[...]
  Fock        0.00000     0.00000     0.00000     0.00000     0.00000     0.00000
  Total      84.21925    85.12351   104.74199    -2.70382     1.21698     2.25892
  in kB      69.24975    69.99329    86.12469    -2.22323     1.00067     1.85741

 VOLUME and BASIS-vectors are now :
  energy-cutoff  :      450.00
  volume of cell :     1948.51
      direct lattice vectors                 reciprocal lattice vectors
    10.079732985  0.000000000  0.000000000     0.099208977 -0.037612667  0.000000000
     3.573298043  9.425102554  0.000000000     0.000000000  0.106099641  0.000000000
     0.000000000  0.000000000 20.510139882     0.000000000  0.000000000  0.048756372

  length of vectors
    10.079732985 10.079732985 20.510139882     0.106099641  0.106099641  0.048756372

 FORCES acting on ions
    electron-ion (+dipol)            ewald-force                    non-local-force                 convergence-correction
   0.313E+03 -.214E+03 0.324E+04   -.311E+03 0.213E+03 -.325E+04   -.144E+01 0.604E+00 0.429E+01   0.121E+00 -.229E-01 -.309E+00
   0.225E+03 0.930E+02 0.362E+03   -.225E+03 -.959E+02 -.357E+03   0.581E-01 0.194E+01 -.315E+01   0.832E-01 0.432E-02 -.281E+00
   0.383E+03 -.909E+02 -.230E+04   -.385E+03 0.917E+02 0.230E+04   0.138E+01 -.102E+01 0.121E+01   0.352E-01 0.144E+00 0.359E-01
   0.225E+03 0.337E+03 -.515E+04   -.230E+03 -.337E+03 0.515E+04   0.443E+01 0.378E-01 -.403E+01   -.517E-01 0.195E+00 0.133E+00
   -.428E+03 -.567E+03 0.526E+04   0.432E+03 0.572E+03 -.527E+04   -.201E+01 -.423E+01 0.587E+01   -.149E+00 0.284E-01 -.897E-01
   -.229E+03 -.147E+03 0.257E+04   0.232E+03 0.147E+03 -.257E+04   -.198E+01 -.441E-04 -.194E+01   0.268E-01 -.154E-01 -.203E+00
   0.569E+03 -.338E+03 -.399E+04   -.572E+03 0.339E+03 0.399E+04   0.179E+01 -.699E+00 -.987E+00   -.183E+00 0.141E-01 0.980E-01
   0.333E+03 -.144E+03 -.637E+03   -.334E+03 0.144E+03 0.637E+03   0.102E+01 -.868E+00 0.393E+00   -.416E-01 -.198E-01 -.142E+00
   0.276E+03 0.282E+02 0.130E+04   -.274E+03 -.296E+02 -.129E+04   -.111E+01 0.525E+00 -.354E+01   0.621E-01 -.627E-01 -.419E+00
   0.479E+03 -.169E+03 -.155E+04   -.479E+03 0.170E+03 0.155E+04   0.112E+01 -.129E+01 0.204E+01   -.287E-01 -.260E-01 -.169E+00
   0.228E+03 -.214E+03 -.474E+04   -.226E+03 0.216E+03 0.474E+04   -.106E+01 -.884E+00 -.293E+01   0.167E+00 -.162E+00 0.209E+00
   0.262E+03 -.343E+03 0.421E+04   -.260E+03 0.345E+03 -.422E+04   -.169E+01 -.193E+01 0.458E+01   0.768E-01 -.699E-01 -.181E+00
   0.161E+03 0.794E+03 -.392E+04   -.163E+03 -.800E+03 0.391E+04   0.124E+01 0.503E+01 0.557E+00   -.101E+00 -.745E-01 0.456E-01
   0.207E+03 -.764E+02 0.528E+04   -.208E+03 0.773E+02 -.528E+04   0.112E+01 -.659E-01 0.497E+01   0.411E-02 -.135E-01 -.169E+00
   0.103E+03 0.555E+03 0.299E+04   -.104E+03 -.559E+03 -.299E+04   0.144E+01 0.399E+01 0.105E+01   0.147E-01 0.989E-01 -.252E+00
   -.330E+02 0.574E+03 -.473E+03   0.320E+02 -.576E+03 0.472E+03   0.886E+00 0.120E+01 0.771E+00   -.203E-01 0.638E-01 -.196E+00
   0.123E+03 0.474E+03 0.171E+04   -.125E+03 -.474E+03 -.171E+04   0.219E+01 0.378E+00 -.814E+00   -.210E-01 -.169E-01 -.255E+00
   0.867E+02 0.376E+03 -.148E+04   -.875E+02 -.379E+03 0.148E+04   0.975E+00 0.286E+01 0.201E+01   0.357E-01 -.143E-01 -.618E-01
   0.353E+03 0.453E+03 -.464E+04   -.355E+03 -.458E+03 0.464E+04   0.148E+01 0.401E+01 -.746E+00   0.452E-01 -.112E-01 0.175E+00
   -.153E+03 0.841E+03 0.483E+04   0.152E+03 -.843E+03 -.484E+04   -.100E+00 0.518E+00 0.344E+01   0.175E-01 -.323E-01 -.160E+00
   0.589E+03 0.646E+03 0.384E+04   -.593E+03 -.649E+03 -.384E+04   0.344E+01 0.292E+01 0.262E+01   -.753E-01 0.910E-01 -.199E+00
   0.847E+02 0.441E+03 0.364E+03   -.863E+02 -.440E+03 -.361E+03   0.173E+01 -.462E+00 -.250E+01   -.259E-01 -.105E+00 -.308E+00
   -.115E+03 0.206E+03 -.250E+04   0.114E+03 -.209E+03 0.250E+04   -.598E+00 0.416E+01 0.172E+01   0.116E+00 -.225E+00 0.342E+00
   -.531E+03 -.122E+02 -.522E+04   0.533E+03 0.121E+02 0.521E+04   -.158E+01 -.421E+00 0.188E+01   0.315E-02 0.449E-01 0.199E+00
   -.577E+03 -.267E+03 -.460E+04   0.581E+03 0.272E+03 0.461E+04   -.235E+01 -.354E+01 -.257E+01   -.308E-01 0.218E+00 0.163E+00
   0.234E+03 0.739E+03 0.398E+04   -.237E+03 -.745E+03 -.398E+04   0.158E+01 0.496E+01 0.473E+01   -.161E+00 -.139E-01 -.180E+00
   -.496E+03 -.309E+03 0.163E+04   0.497E+03 0.311E+03 -.163E+04   -.116E+01 -.173E+01 -.128E+01   -.611E-01 -.348E-01 -.250E+00
   -.505E+03 -.295E+03 -.150E+04   0.506E+03 0.296E+03 0.150E+04   -.708E-01 -.152E+01 0.976E+00   -.100E+00 0.135E+00 -.646E-01
   -.513E+03 -.339E+03 0.408E+04   0.514E+03 0.342E+03 -.408E+04   -.629E+00 -.203E+01 0.330E+01   0.657E-01 0.250E-01 -.154E+00
   -.311E+03 -.426E+03 0.511E+03   0.310E+03 0.429E+03 -.510E+03   0.875E+00 -.289E+01 -.123E+00   0.202E-01 0.173E-01 -.244E+00
   -.223E+03 -.457E+03 -.259E+04   0.224E+03 0.461E+03 0.259E+04   -.855E+00 -.339E+01 -.611E+00   0.112E+00 -.141E-01 -.396E-01
   0.571E+02 -.333E+03 -.518E+04   -.532E+02 0.336E+03 0.519E+04   -.410E+01 -.184E+01 -.336E+01   0.240E+00 0.599E-02 0.152E+00
   0.202E+03 -.486E+03 0.575E+04   -.201E+03 0.485E+03 -.575E+04   -.130E+01 0.136E+01 0.456E+01   0.732E-02 -.128E+00 0.355E-02
   -.501E+03 -.621E+03 0.264E+04   0.501E+03 0.623E+03 -.264E+04   0.929E+00 -.169E+01 -.137E+01   -.163E+00 -.777E-01 -.317E+00
   -.442E+03 -.321E+03 -.536E+03   0.442E+03 0.323E+03 0.536E+03   -.776E-01 -.180E+01 0.741E-01   0.505E-01 0.124E-01 -.192E+00
   -.515E+03 -.135E+03 -.380E+04   0.517E+03 0.137E+03 0.380E+04   -.161E+01 -.122E+01 -.160E+01   -.899E-02 -.154E+00 0.167E+00
   -.110E+03 0.856E+02 -.640E+03   0.112E+03 -.856E+02 0.635E+03   -.223E+01 -.185E+00 0.191E+01   -.227E-01 0.265E-01 -.694E-01
   -.857E+02 0.110E+03 -.187E+04   0.867E+02 -.111E+03 0.188E+04   -.364E+00 0.206E+00 -.140E+01   0.591E-01 -.359E-01 0.804E-01
   -.947E+02 -.278E+02 0.210E+04   0.967E+02 0.289E+02 -.210E+04   -.136E+01 -.734E+00 0.344E+01   -.601E-01 0.183E-01 -.437E-01
   -.665E+02 0.714E+02 0.359E+03   0.664E+02 -.723E+02 -.357E+03   -.142E+00 0.734E+00 -.679E+00   0.641E-02 0.111E-01 -.115E+00
   -.180E+03 -.117E+02 0.159E+04   0.183E+03 0.113E+02 -.159E+04   -.355E+01 0.186E+01 0.170E+01   0.536E-02 0.127E-01 -.846E-01
   -.443E+02 0.399E+02 -.520E+02   0.453E+02 -.404E+02 0.541E+02   -.908E+00 0.281E+00 -.915E+00   0.194E-01 0.945E-02 -.801E-01
   -.711E+02 0.450E+02 -.982E+03   0.733E+02 -.450E+02 0.977E+03   -.917E+00 -.549E-02 0.162E+01   0.361E-01 -.173E-01 0.312E-01
   0.774E+02 0.185E+03 -.215E+04   -.770E+02 -.187E+03 0.215E+04   -.559E+00 0.105E+01 -.193E+01   -.899E-02 0.979E-02 0.636E-01
   -.195E+03 0.309E+02 0.229E+04   0.196E+03 -.310E+02 -.230E+04   -.843E+00 -.210E+00 0.381E+00   0.978E-02 -.324E-02 -.266E-01
   -.205E+03 -.334E+03 0.222E+04   0.207E+03 0.338E+03 -.222E+04   -.984E+00 -.295E+01 0.184E+01   -.720E-01 -.766E-02 -.123E-01
   -.118E+03 -.963E+02 0.648E+03   0.119E+03 0.980E+02 -.645E+03   -.148E+01 -.112E+01 -.171E+01   -.709E-01 0.320E-02 -.152E+00
   -.167E+03 0.714E+02 -.290E+03   0.169E+03 -.723E+02 0.287E+03   -.211E+01 0.311E+00 0.120E+00   0.140E-01 -.584E-01 -.150E-01
   -.373E+03 -.834E+02 -.167E+04   0.376E+03 0.837E+02 0.167E+04   -.176E+00 -.521E+00 -.126E+01   -.116E+00 -.119E+00 0.128E+00
   0.272E+03 0.239E+03 0.233E+04   -.275E+03 -.241E+03 -.233E+04   0.190E+01 0.480E+00 0.189E+01   -.614E-01 0.325E-01 0.229E-01
   0.621E+02 -.136E+03 0.760E+03   -.627E+02 0.139E+03 -.759E+03   -.107E+00 -.270E+01 0.157E+01   -.374E-02 -.348E-01 -.139E+00
   -.171E+02 -.167E+03 -.424E+03   0.171E+02 0.169E+03 0.424E+03   -.197E+00 -.287E+01 -.884E+00   0.117E-01 0.262E-02 -.232E-02
   -.177E+03 -.139E+03 -.163E+04   0.177E+03 0.143E+03 0.163E+04   0.499E+00 -.300E+01 -.207E+01   -.510E-01 0.218E+00 0.932E-01
   -.108E+03 -.257E+03 0.172E+04   0.109E+03 0.260E+03 -.172E+04   -.125E+01 -.114E+01 0.215E+01   0.215E-01 0.296E-01 -.554E-01
   -.169E+02 -.157E+03 0.335E+03   0.168E+02 0.160E+03 -.335E+03   0.246E+00 -.285E+01 0.437E+00   0.152E-01 0.149E-02 -.100E+00
   0.488E+02 -.172E+03 -.922E+03   -.490E+02 0.175E+03 0.922E+03   -.136E+00 -.300E+01 -.646E+00   -.152E-01 -.121E-01 -.430E-01
   0.192E+03 -.207E+03 -.209E+04   -.194E+03 0.209E+03 0.210E+04   0.704E+00 -.802E+00 -.150E+01   0.119E-01 -.130E-01 0.763E-01
   -.985E+02 -.382E+03 0.135E+04   0.996E+02 0.387E+03 -.135E+04   -.103E+01 -.299E+01 0.223E+01   -.852E-02 -.726E-01 -.993E-01
   0.214E+02 -.171E+03 -.655E+02   -.215E+02 0.173E+03 0.659E+02   0.177E+00 -.264E+01 -.504E+00   -.289E-01 0.301E-01 -.139E+00
   -.699E+01 -.160E+03 -.134E+04   0.757E+01 0.163E+03 0.134E+04   -.383E+00 -.142E+01 -.115E+01   0.265E-01 0.111E-01 0.882E-01
   0.179E+03 0.148E+03 0.154E+04   -.181E+03 -.150E+03 -.154E+04   0.310E+00 0.347E+00 0.189E+01   0.431E-01 0.313E-01 -.987E-01
   0.136E+03 0.917E+02 0.422E+02   -.138E+03 -.931E+02 -.422E+02   0.234E+01 0.140E+01 0.323E+00   0.347E-01 0.435E-01 -.795E-01
   0.899E+02 0.252E+03 -.117E+04   -.923E+02 -.255E+03 0.117E+04   0.194E+01 0.121E+01 -.409E+00   -.370E-01 0.130E-01 0.870E-02
   -.298E+02 0.211E+03 -.225E+04   0.300E+02 -.213E+03 0.226E+04   -.126E+00 0.851E+00 -.296E+01   -.320E-01 0.204E-01 0.130E+00
   0.142E+03 0.411E+02 -.394E+03   -.145E+03 -.421E+02 0.394E+03   0.221E+01 0.135E+01 -.261E+00   -.482E-01 0.643E-02 -.489E-01
   0.187E+03 0.416E+02 -.164E+04   -.188E+03 -.426E+02 0.164E+04   0.712E-01 0.192E+00 0.191E+00   0.144E-01 0.597E-02 0.655E-01
   -.537E+02 0.232E+03 0.229E+04   0.533E+02 -.234E+03 -.229E+04   0.106E+01 0.269E+00 0.320E+01   -.291E-02 -.222E-01 -.483E-01
   0.118E+03 0.139E+03 0.819E+03   -.119E+03 -.141E+03 -.820E+03   0.114E+01 0.134E+01 0.185E+01   -.113E-01 -.164E-01 -.889E-01
   0.273E+03 0.216E+03 0.174E+04   -.275E+03 -.217E+03 -.174E+04   0.102E+01 0.203E+00 0.710E+00   0.983E-01 0.847E-02 -.469E-01
   0.200E+03 0.815E+02 0.426E+03   -.202E+03 -.833E+02 -.426E+03   0.212E+01 0.174E+01 0.506E+00   0.648E-02 0.202E-01 -.189E+00
   0.187E+03 0.874E+02 -.734E+03   -.190E+03 -.890E+02 0.733E+03   0.246E+01 0.783E+00 -.850E+00   0.307E-01 -.541E-01 0.127E-01
   0.108E+03 -.161E+03 -.200E+04   -.108E+03 0.161E+03 0.201E+04   -.937E-01 0.262E+00 -.185E+01   0.173E+00 -.828E-01 0.738E-01
   -.324E+01 0.135E+02 -.224E+02   0.369E-12 -.597E-12 -.932E-11   0.321E+01 -.133E+02 0.265E+02   0.670E-01 -.179E+00 -.402E+01

 POSITION                                       TOTAL-FORCE (eV/Angst)
      5.99036      6.80637      3.22661         0.349645      0.130239     -0.746570
      7.43572      5.66537      4.57627         0.947502     -0.964558      1.520123
      8.41343      4.24907      7.20177         0.020577     -0.014274     -0.600963
      8.71870      3.33055      9.47436        -1.012063      0.207095      0.891737
      6.26810      1.49236      1.38424         1.486564      0.959483     -1.248619
      7.76163      0.32617      2.82594         1.335205      0.082192      3.302981
      3.21062      6.91868      8.07694        -1.215626      0.413626     -0.684910
     12.31264      8.33497      5.45144         0.304907     -0.032249      0.133293
      2.55881      2.99577      3.70110         0.878439     -0.954639      2.203106
      3.53652      1.57947      6.32660         0.432939     -0.106365     -0.252424
      4.34363      0.31031      8.67423         0.162390      0.289529      1.188269
     11.26997      4.25263      2.37622         0.255932     -0.143647     -0.747730
      0.51382      1.09100      8.43993        -0.938057     -1.118518     -1.938812
      7.96017      6.23599      1.94189        -0.333190      0.782581     -1.404291
      8.63813      3.92359      3.18892        -0.049071     -0.383063      0.394472
      9.61584      2.50729      5.81443        -0.128443     -0.272490     -0.126808
      3.43531      6.59319      4.06409         0.003084     -0.150933      0.171124
      4.41302      5.17689      6.68959         0.186928     -0.021360     -1.478071
      5.22276      3.93797      8.93582        -0.651032     -1.062583      0.567383
     12.62447      7.98385      1.78813        -0.779493     -1.508080      0.117072
      3.76121      1.25399      2.31376        -1.314804      0.273426      1.656534
      8.31222      9.26279      4.93926         0.067722     -0.020088      0.242683
      9.28993      7.84650      7.56476        -1.014151      0.669266     -2.379186
      9.92774      6.60179      9.47922         0.599624     -0.473632      1.070175
      1.63341      3.25527      8.89442         1.907671      1.798292      0.758594
      9.17306      8.77858      2.24282        -0.859924     -0.849168      0.172921
      9.84053      6.03956      3.88260         0.087399     -0.006560      0.083460
     10.81824      4.62327      6.50810         0.072013      0.004089     -0.016738
     10.16643      0.70036      2.13226         0.423106      1.409526      2.418714
      4.63771      8.70917      4.75776        -0.117741      0.029427      0.087879
      5.61542      7.29287      7.38327         0.591114      0.168199     -1.460202
      6.80551      6.14225      9.59709         0.049680      1.064307      0.962506
      3.14487      3.36244      1.20478        -0.455244      0.275649     -1.552409
      4.96362      3.36996      3.00743         0.382328      0.373149      1.633901
      5.94133      1.95367      5.63293         0.109089     -0.058362      0.230670
      6.88255      0.64716      7.98295         0.624269      0.678758      1.112303
      1.57981      2.47018      7.00134        -0.518581     -0.107960     -2.776719
      2.51946      1.28217      9.08450         0.637188     -0.944744      2.219173
      9.70412      5.30277      1.75033         0.586469      0.347653     -2.107390
     10.68183      3.88647      4.37584        -0.196128     -0.179376      1.481586
      4.50130      7.97237      2.62550        -0.532172      1.455923     -0.859971
      5.47901      6.55607      5.25100         0.091641     -0.268549      1.154883
      6.45673      5.13978      7.87651         1.288898     -0.016305     -3.562830
      6.91365      4.13437     10.17471        -0.131187     -1.052441      2.273355
     13.52346      9.15842      0.40781         0.582634     -0.283769     -4.352931
      5.12851      3.11686      0.93982         0.980915      1.323868     -2.836853
      5.80492      1.21687      3.50067        -0.124630      0.579128      1.708465
     10.35593      9.22568      6.12617        -0.382389     -0.592866     -2.395890
     11.08893      8.07204      8.60556         2.666356     -0.338733      1.608349
      4.62640      0.34790      0.71952        -1.302441     -1.349433     -2.914189
      8.17302      7.52069      3.51693        -0.726693      0.605964      2.153070
      9.15074      6.10439      6.14243        -0.174793     -0.206325     -0.389761
     10.12845      4.68809      8.76794         0.376478      1.295992     -0.508328
      8.44738      2.12132      2.02636        -0.021854      1.579277     -1.561657
      9.47664      0.76519      4.39210         0.101451     -0.018010      0.559603
      3.94792      8.77399      7.01760        -0.284912     -0.114427     -0.124751
      4.90146      6.97864      9.27168        -0.770239      1.633154      3.231580
      3.29611      4.85108      2.64176         0.059938      1.514319      0.339775
      4.27382      3.43479      5.26727         0.071332     -0.221113     -0.261782
      5.25153      2.01849      7.89277         0.222781      1.307021     -0.127110
      6.64193      4.82628      2.63363        -1.090814     -1.249290     -0.037440
      7.61964      3.40999      5.25914         0.069800      0.084172      0.200856
      8.59735      1.99369      7.88464        -0.509559     -1.144986     -0.702209
     10.34328      2.25084     10.10789         0.042085     -0.496528      3.610845
      2.41682      6.07959      6.13430        -0.392033      0.352158     -0.451931
      3.33238      4.74682      8.44893        -1.091758     -0.804479      2.011882
     10.85314      8.98735      0.98014         0.635055     -1.771031     -3.485211
     11.51884      7.49589      3.50880        -0.700531     -0.549076      1.317314
      1.70048      2.10368      1.97971        -0.909808     -1.047011     -1.153911
      2.74272      0.74039      4.38397         0.215874     -0.056148      0.417744
      7.29374      8.74919      7.00947        -0.543393     -0.880122     -2.319339
      8.21628      7.72605      9.41823        -0.634266      0.145827      2.359554
    total drift:                                0.037590      0.035745      0.046144

  FREE ENERGIE OF THE ION-ELECTRON SYSTEM (eV)
  free  energy   TOTEN  =      -351.13977188 eV

  energy  without entropy=     -350.17756038  energy(sigma->0) =     -350.65866613