 vasp.5.4.4.18Apr17-6-g9f103f2a35 (build Aug 13 2019 17:33:20) gamma-only

 executed on             LinuxIFC date 2020.05.12  19:39:27

 INCAR:
 POTCAR:    PAW_PBE Ni_pv 06Sep2000
 POTCAR:    PAW_PBE S 06Sep2000
 POTCAR:    PAW_PBE Ni_pv 06Sep2000
   VRHFIN =Ni:

   TITEL  = PAW_PBE Ni_pv 06Sep2000
   POMASS =   58.690; ZVAL   =   16.000    mass and valenz
   ENMAX  =  367.986; ENMIN  =  275.989 eV

 POTCAR:    PAW_PBE S 06Sep2000
   VRHFIN =S : s2p4

   TITEL  = PAW_PBE S 06Sep2000
   POMASS =   32.066; ZVAL   =    6.000    mass and valenz
   ENMAX  =  258.689; ENMIN  =  194.016 eV

 Optimization of the real space projectors (new method)

 maximal supplied QI-value         = 18.90
 optimisation between [QCUT,QGAM] = [ 10.77, 21.73] = [ 32.49,132.25] Ry
 Optimized for a Real-space Cutoff    1.38 Angstroem

   l    n(q)    QCUT    max X(q) W(low)/X(q) W(high)/X(q)  e(spline)
   1      8    10.771     2.836    0.40E-04    0.29E-04    0.12E-06
   1      8    10.771     4.023    0.10E-03    0.48E-04    0.29E-06
   2      8    10.771    73.368    0.42E-03    0.97E-04    0.44E-06
   2      8    10.771    69.010    0.42E-03    0.99E-04    0.45E-06
   0      9    10.771    54.797    0.10E-03    0.56E-04    0.74E-07
   0      9    10.771    24.266    0.89E-04    0.49E-04    0.67E-07
 Optimization of the real space projectors (new method)

 maximal supplied QI-value         = 19.84
 optimisation between [QCUT,QGAM] = [ 10.71, 21.63] = [ 32.15,130.99] Ry
 Optimized for a Real-space Cutoff    1.19 Angstroem

   l    n(q)    QCUT    max X(q) W(low)/X(q) W(high)/X(q)  e(spline)
   0      8    10.715   187.594    0.41E-03    0.53E-04    0.66E-07
   0      8    10.715   164.243    0.41E-03    0.53E-04    0.65E-07
   1      7    10.715    67.533    0.19E-03    0.59E-03    0.68E-07
   1      7    10.715    50.729    0.19E-03    0.58E-03    0.67E-07
  PAW_PBE Ni_pv 06Sep2000               :
  PAW_PBE S 06Sep2000                   :

 POSCAR: Type_036 Type_136
  positions in cartesian coordinates
 exchange correlation table for  LEXCH =        8
   RHO(1)=    0.500       N(1)  =     2000
   RHO(2)=  100.500       N(2)  =     4000

 ion  position               nearest neighbor table
   1  0.301  0.988  0.057-  41 2.06  69 2.08  42 2.14  61 2.17  49 2.19   2 2.34
   2  0.397  0.795  0.127-  49 2.06  61 2.09  42 2.25   1 2.34  50 2.36  62 2.36  26 2.40  22 2.43

   3  0.547  0.645  0.254-  43 2.25  62 2.26  50 2.26  63 2.36  51 2.36  27 2.53  15 2.53
   4  0.698  0.494  0.381-  64 2.11  44 2.25  51 2.26  63 2.26  52 2.36   5 2.40  16 2.53  28 2.53

[...]

  32  0.734  0.812  0.453-  56 2.01  44 2.02  72 2.06  31 2.47
  33  0.015  0.843  0.144-  61 2.12  48 2.26  60 2.26  45 2.36  57 2.36  23 2.53  12 2.53
  34  0.166  0.693  0.271-  62 2.25  57 2.26  45 2.26  46 2.36  58 2.36  13 2.53  24 2.53
  35  0.316  0.543  0.398-  59 2.06  47 2.15  63 2.25  58 2.26  46 2.26  10 2.50
  36  0.770  0.998  0.084-  48 1.99  60 2.05  70 2.05  11 2.42
  37  0.011  0.952  0.446-  25 2.05  10 2.05  13 2.40  40 2.61  58 2.71  72 2.76
  38  0.586  0.406  0.117-  11 1.98  26 2.07  15 2.26  27 2.26  14 2.35
  39  0.736  0.256  0.244-  11 2.11  12 2.25  28 2.26  16 2.26  15 2.36  27 2.36  40 2.75
  40  0.862  0.123  0.356-  25 2.06  16 2.07  28 2.16   5 2.24  13 2.36  37 2.61  39 2.75
  41  0.149  0.186  0.044-  17 2.04   1 2.06  29 2.08
  42  0.303  0.023  0.160-   1 2.14   2 2.25  30 2.26  18 2.26  17 2.36  29 2.36  61 2.78
  43  0.453  0.872  0.286-   3 2.25  19 2.26  31 2.26  18 2.36  30 2.36
  44  0.603  0.722  0.413-  32 2.02  20 2.08   4 2.25  31 2.36  19 2.36
  45  0.019  0.639  0.202-   9 2.14   6 2.25  24 2.26  34 2.26  23 2.36  33 2.36
  46  0.170  0.489  0.329-  21 2.03   7 2.25  35 2.26  34 2.36  24 2.36  47 2.57
  47  0.290  0.350  0.430-  21 2.15  35 2.15   8 2.29  46 2.57
  48  0.869  0.789  0.075-  36 1.99   9 2.00  33 2.26  23 2.26
  49  0.474  0.789  0.034-   2 2.06  26 2.10  22 2.10   1 2.19
  50  0.636  0.692  0.160-  26 2.04  23 2.25  22 2.26  27 2.26   3 2.26   2 2.36
  51  0.787  0.542  0.287-  24 2.25   4 2.26  28 2.26  27 2.36   3 2.36
  52  0.937  0.391  0.414-   5 2.09  21 2.15   4 2.36  28 2.36  25 2.42
  53  0.182  0.450  0.080-   6 2.06  14 2.06   9 2.19  29 2.19
  54  0.353  0.308  0.202-  14 2.15  15 2.25   7 2.26  30 2.26  29 2.36   6 2.36
  55  0.503  0.158  0.329-  16 2.25   8 2.26  31 2.26   7 2.36  30 2.36  56 2.77
  56  0.628  0.020  0.442-  32 2.01   8 2.05  31 2.08  55 2.77
  57  0.070  0.925  0.245-  18 2.25  34 2.26  13 2.26  12 2.36  33 2.36
  58  0.220  0.775  0.372-  10 2.05  19 2.25  35 2.26  34 2.36  13 2.36  37 2.71
  59  0.313  0.619  0.491-  20 2.02  10 2.06  35 2.06
  60  0.920  0.075  0.118-  36 2.05  11 2.14  17 2.25  12 2.26  33 2.26
  61  0.191  0.850  0.090-   2 2.09  33 2.12   1 2.17  42 2.78
  62  0.350  0.641  0.203-  14 2.19  34 2.25  15 2.26   3 2.26   2 2.36
  63  0.501  0.491  0.330-  35 2.25   4 2.26  16 2.26   3 2.36  15 2.36  64 2.52
  64  0.598  0.382  0.437-   5 2.00   4 2.11  16 2.15  63 2.52
  65  0.067  0.258  0.245-  28 2.25   7 2.26  18 2.26   6 2.36  17 2.36
  66  0.218  0.108  0.372-  25 1.97  19 2.26   8 2.26  18 2.36   7 2.36
  67  0.395  0.947  0.482-  19 2.03  20 2.07   8 2.11
  68  0.923  0.404  0.131-   6 2.11  27 2.14   9 2.15  17 2.18
  69  0.459  0.075  0.049-   1 2.08  29 2.10  22 2.11
  70  0.634  0.025  0.160-  36 2.05  22 2.15  30 2.25  12 2.26  23 2.26  11 2.35
  71  0.784  0.874  0.287-  31 2.25  24 2.26  13 2.26  23 2.36  12 2.36
  72  0.934  0.724  0.414-  32 2.06  10 2.07  21 2.18  13 2.36  24 2.36  37 2.76

  LATTYP: Found a base centered orthorhombic cell.
 ALAT       =    11.4527836704
 B/A-ratio  =     1.4485816945
 C/A-ratio  =     1.8059804630

  Lattice vectors:

 A1 = (  10.0797329849,   0.0000000000,   0.0000000000)
 A2 = (  -3.5732980427,  -9.4251025535,   0.0000000000)
 A3 = (   0.0000000000,   0.0000000000, -20.6835035552)

Analysis of symmetry for initial positions (statically):
 Subroutine PRICEL returns:
 Original cell was already a primitive cell.

 Routine SETGRP: Setting up the symmetry group for a
 base centered orthorhombic supercell.

 Subroutine GETGRP returns: Found  1 space group operations
 (whereof  1 operations were pure point group operations)
 out of a pool of  8 trial point group operations.

The static configuration has the point symmetry C_1 .

Analysis of symmetry for dynamics (positions and initial velocities):
 Subroutine PRICEL returns:
 Original cell was already a primitive cell.

 Routine SETGRP: Setting up the symmetry group for a
 base centered orthorhombic supercell.

 Subroutine GETGRP returns: Found  1 space group operations
 (whereof  1 operations were pure point group operations)
 out of a pool of  8 trial point group operations.

The dynamic configuration has the point symmetry C_1 .

 Subroutine INISYM returns: Found  1 space group operations
 (whereof  1 operations are pure point group operations),
 and found     1 'primitive' translations

 KPOINTS: gamma-point-only calculation. no periodi

Automatic generation of k-mesh.
Space group operators:
 irot       det(A)        alpha          n_x          n_y          n_z        tau_x        tau_y        tau_z
    1     1.000000     0.000000     1.000000     0.000000     0.000000     0.000000     0.000000     0.000000

 Subroutine IBZKPT returns following result:

 Found      1 irreducible k-points:

 Following reciprocal coordinates:
            Coordinates               Weight
  0.000000  0.000000  0.000000      1.000000

 Following cartesian coordinates:
            Coordinates               Weight
  0.000000  0.000000  0.000000      1.000000

 SYSTEM =  "Millerite NiS"
 POSCAR =  Type_036 Type_136

 Startparameter for this run:
   NWRITE =      2    write-flag & timer
   PREC   = normal    normal or accurate (medium, high low for compatibility)
   ISTART =      0    job   : 0-new  1-cont  2-samecut
   ICHARG =      2    charge: 1-file 2-atom 10-const
   ISPIN  =      1    spin polarized calculation?
   LNONCOLLINEAR =      F non collinear calculations
   LSORBIT =      F    spin-orbit coupling
   INIWAV =      1    electr: 0-lowe 1-rand  2-diag
   LASPH  =      F    aspherical Exc in radial PAW
   METAGGA=      F    non-selfconsistent MetaGGA calc.

 Electronic Relaxation 1
   ENCUT  =  450.0 eV  33.07 Ry    5.75 a.u.  17.43 17.43 35.78*2*pi/ulx,y,z
   ENINI  =  450.0     initial cutoff
   ENAUG  =  703.4 eV  augmentation charge cutoff
   NELM   =    100;   NELMIN=  2; NELMDL= -5     # of ELM steps
   EDIFF  = 0.1E-03   stopping-criterion for ELM
   LREAL  =      T    real-space projection
   NLSPLINE    = F    spline interpolate recip. space projectors
   LCOMPAT=      F    compatible to vasp.4.4
   GGA_COMPAT  = T    GGA compatible to vasp.4.4-vasp.4.6
   LMAXPAW     = -100 max onsite density
   LMAXMIX     =    2 max onsite mixed and CHGCAR
   VOSKOWN=      0    Vosko Wilk Nusair interpolation
   ROPT   =   -0.00050  -0.00050
 Ionic relaxation
   EDIFFG = 0.1E-02   stopping-criterion for IOM
   NSW    =      0    number of steps for IOM
   NBLOCK =      1;   KBLOCK =      1    inner block; outer block
   IBRION =     -1    ionic relax: 0-MD 1-quasi-New 2-CG
   NFREE  =      0    steps in history (QN), initial steepest desc. (CG)
   ISIF   =      2    stress and relaxation
   IWAVPR =     10    prediction:  0-non 1-charg 2-wave 3-comb
   ISYM   =      2    0-nonsym 1-usesym 2-fastsym
   LCORR  =      T    Harris-Foulkes like correction to forces

   POTIM  = 0.5000    time-step for ionic-motion
   TEIN   =    0.0    initial temperature
   TEBEG  =    0.0;   TEEND  =   0.0 temperature during run
   SMASS  =  -3.00    Nose mass-parameter (am)
   estimated Nose-frequenzy (Omega)   =  0.10E-29 period in steps =****** mass=  -0.232E-26a.u.
   SCALEE = 1.0000    scale energy and forces
   NPACO  =    256;   APACO  = 16.0  distance and # of slots for P.C.
   PSTRESS=    0.0 pullay stress

  Mass of Ions in am
   POMASS =  58.69 32.07
  Ionic Valenz
   ZVAL   =  16.00  6.00
  Atomic Wigner-Seitz radii
  virtual crystal weights
   VCA    =   1.00  1.00
   NELECT =     792.0000    total number of electrons
   NUPDOWN=      -1.0000    fix difference up-down

 DOS related values:
   EMIN   =  10.00;   EMAX   =-10.00  energy-range for DOS
   EFERMI =   0.00
   ISMEAR =     0;   SIGMA  =   0.20  broadening in eV -4-tet -1-fermi 0-gaus

 Electronic relaxation 2 (details)
   IALGO  =     38    algorithm
   LDIAG  =      T    sub-space diagonalisation (order eigenvalues)
   LSUBROT=      F    optimize rotation matrix (better conditioning)
   TURBO    =      0    0=normal 1=particle mesh
   IRESTART =      0    0=no restart 2=restart with 2 vectors
   NREBOOT  =      0    no. of reboots
   NMIN     =      0    reboot dimension
   EREF     =   0.00    reference energy to select bands
   IMIX   =      4    mixing-type and parameters
     AMIX     =   0.40;   BMIX     =  1.00
     AMIX_MAG =   1.60;   BMIX_MAG =  1.00
     AMIN     =   0.10
     WC   =   100.;   INIMIX=   1;  MIXPRE=   1;  MAXMIX= -45

 Intra band minimization:
   WEIMIN = 0.0000     energy-eigenvalue tresh-hold
   EBREAK =  0.53E-07  absolut break condition
[...]
  Fock        0.00000     0.00000     0.00000     0.00000     0.00000     0.00000
  Total      98.38352    96.61596   102.92572   -11.33356    -5.05823     0.52410
  in kB      80.21835    78.77714    83.92190    -9.24097    -4.12430     0.42734

 VOLUME and BASIS-vectors are now :
  energy-cutoff  :      450.00
  volume of cell :     1964.98
      direct lattice vectors                 reciprocal lattice vectors
    10.079732985  0.000000000  0.000000000     0.099208977 -0.037612667  0.000000000
     3.573298043  9.425102554  0.000000000     0.000000000  0.106099641  0.000000000
     0.000000000  0.000000000 20.683503555     0.000000000  0.000000000  0.048347708

  length of vectors
    10.079732985 10.079732985 20.683503555     0.106099641  0.106099641  0.048347708

 FORCES acting on ions
    electron-ion (+dipol)            ewald-force                    non-local-force                 convergence-correction
   0.532E+03 0.106E+01 0.548E+04   -.537E+03 -.269E-01 -.549E+04   0.330E+01 -.176E+01 0.817E+01   -.669E-01 -.293E-01 -.156E+00
   0.602E+03 0.327E+03 0.305E+04   -.606E+03 -.331E+03 -.305E+04   0.285E+01 0.328E+01 -.175E+01   -.721E-01 -.264E-01 -.110E+00
   0.207E+02 -.415E+03 -.192E+03   -.214E+02 0.416E+03 0.192E+03   0.698E+00 -.152E+01 -.372E+00   -.273E-01 0.405E-01 -.171E-01
   -.124E+03 -.619E+03 -.343E+04   0.127E+03 0.623E+03 0.343E+04   -.212E+01 -.275E+01 -.944E+00   -.256E-01 0.225E+00 -.152E+00
   0.101E+03 0.198E+03 -.552E+04   -.100E+03 -.198E+03 0.552E+04   -.447E+00 -.141E+01 -.329E+01   0.879E-01 0.275E-01 -.518E-01
   0.885E+02 -.146E+03 0.202E+04   -.885E+02 0.144E+03 -.201E+04   0.636E+00 0.748E+00 -.258E+01   0.509E-02 0.919E-01 -.165E+00
   -.166E+02 -.416E+03 -.132E+04   0.157E+02 0.416E+03 0.132E+04   0.895E+00 -.734E+00 0.155E+00   -.518E-01 -.405E-02 0.599E-02
   -.329E+02 -.736E+03 -.463E+04   0.318E+02 0.739E+03 0.463E+04   0.190E+00 -.168E+01 -.273E+01   -.706E-01 -.578E-01 0.399E-01
   0.124E+03 0.760E+02 0.475E+04   -.127E+03 -.776E+02 -.476E+04   0.307E+01 0.123E+01 0.411E+01   0.800E-03 0.213E-01 -.118E+00
   0.231E+03 -.257E+03 -.523E+04   -.230E+03 0.255E+03 0.523E+04   -.114E+01 0.138E+01 -.447E+01   0.797E-01 0.618E-01 0.146E+00
   0.958E+01 -.389E+03 0.364E+04   -.102E+02 0.389E+03 -.364E+04   0.237E+00 0.333E+00 0.508E+01   -.142E-01 -.874E-01 -.224E+00
   -.200E+03 -.180E+03 0.684E+03   0.202E+03 0.178E+03 -.680E+03   -.117E+01 0.837E+00 -.247E+01   -.457E-01 -.269E-01 -.171E+00
   0.740E+02 -.441E+03 -.221E+04   -.750E+02 0.441E+03 0.221E+04   0.980E+00 0.807E-01 0.339E+01   0.291E-01 0.172E-01 0.262E-01
   -.514E+02 -.330E+03 0.390E+04   0.509E+02 0.335E+03 -.390E+04   0.154E+01 -.418E+01 0.258E+01   -.999E-02 0.594E-01 -.137E+00
   0.308E+03 0.189E+03 0.756E+03   -.308E+03 -.188E+03 -.754E+03   0.234E+00 -.181E+01 -.146E+01   -.628E-01 0.134E+00 -.684E-01
   0.674E+03 0.366E+03 -.233E+04   -.680E+03 -.367E+03 0.233E+04   0.415E+01 0.106E+01 -.110E+01   -.692E-01 0.528E-01 -.190E+00
   0.668E+03 0.789E+02 0.335E+04   -.671E+03 -.776E+02 -.335E+04   0.269E+01 -.122E+01 0.177E+01   0.579E-01 -.138E-01 -.149E+00
   0.406E+03 0.300E+03 -.151E+03   -.407E+03 -.299E+03 0.151E+03   0.123E+01 -.123E+00 -.175E+00   -.840E-02 -.262E-01 -.353E-01
   0.380E+03 0.429E+02 -.306E+04   -.383E+03 -.433E+02 0.306E+04   0.221E+01 0.669E+00 0.541E+00   0.990E-02 -.549E-01 0.698E-01
   -.154E+03 0.348E+03 -.541E+04   0.150E+03 -.351E+03 0.542E+04   0.569E+01 0.255E+01 -.128E+01   0.467E-01 0.700E-01 0.567E-01
   0.425E+03 0.468E+03 -.447E+04   -.428E+03 -.469E+03 0.448E+04   0.182E+01 0.796E+00 -.138E+01   0.262E-02 -.506E-01 0.407E-01
   -.285E+03 0.356E+02 0.448E+04   0.286E+03 -.334E+02 -.448E+04   0.691E+00 -.233E+01 0.365E+01   0.572E-01 -.434E-02 -.144E+00
   0.281E+03 0.387E+03 0.179E+04   -.281E+03 -.387E+03 -.179E+04   -.107E+00 0.488E+00 -.280E+01   0.258E-02 -.661E-01 -.168E+00
   0.432E+03 0.320E+03 -.121E+04   -.433E+03 -.320E+03 0.121E+04   0.174E+01 0.314E+00 0.119E+00   -.138E+00 -.883E-01 -.120E+00
   -.441E+03 0.103E+03 -.427E+04   0.444E+03 -.104E+03 0.427E+04   -.260E+01 0.199E+01 -.308E+01   0.256E+00 -.127E+00 -.189E-01
   -.106E+03 0.689E+03 0.525E+04   0.104E+03 -.690E+03 -.525E+04   0.262E+01 -.795E-01 0.524E+00   -.562E-01 0.145E-02 -.139E+00
   -.511E+03 0.972E+02 0.214E+04   0.515E+03 -.976E+02 -.214E+04   -.372E+01 0.223E+00 -.575E+00   0.200E-01 0.110E+00 -.627E-01
   -.540E+03 0.149E+02 -.107E+04   0.544E+03 -.133E+02 0.106E+04   -.374E+01 -.923E+00 0.211E+01   0.492E-01 0.432E-01 -.116E+00
   -.501E+03 -.317E+03 0.441E+04   0.506E+03 0.318E+03 -.441E+04   -.395E+01 -.194E+00 0.292E+01   -.257E-01 0.131E-01 -.150E+00
   -.379E+03 0.100E+03 0.769E+03   0.379E+03 -.101E+03 -.768E+03   -.880E-01 0.317E+00 -.624E+00   -.522E-01 -.336E-01 -.632E-01
   -.390E+03 0.613E+02 -.215E+04   0.392E+03 -.619E+02 0.215E+04   -.192E+01 0.826E+00 0.213E+01   -.401E-01 -.112E+00 0.444E-01
   -.347E+03 0.160E+03 -.519E+04   0.348E+03 -.161E+03 0.518E+04   -.326E+00 0.615E+00 0.151E+01   -.831E-01 -.424E-01 0.700E-01
   -.695E+03 0.218E+03 0.339E+04   0.698E+03 -.218E+03 -.339E+04   -.303E+01 0.419E-01 0.327E+00   -.744E-01 -.234E-01 -.218E+00
   -.461E+03 0.154E+03 -.870E+02   0.463E+03 -.154E+03 0.865E+02   -.170E+01 -.188E+00 0.602E+00   0.128E+00 -.921E-01 -.155E+00
   -.372E+03 0.481E+03 -.343E+04   0.375E+03 -.483E+03 0.343E+04   -.329E+01 0.201E+01 -.150E+01   0.857E-01 0.239E-01 0.314E-02
   -.195E+03 -.374E+03 0.550E+04   0.195E+03 0.376E+03 -.551E+04   -.701E+00 -.184E+01 0.486E+01   0.580E-01 -.821E-01 -.208E+00
   0.107E+03 -.133E+03 -.197E+04   -.111E+03 0.135E+03 0.197E+04   0.295E+01 -.910E+00 -.289E+01   0.382E-01 0.654E-02 0.768E-01
   0.709E+02 0.889E+02 0.182E+04   -.717E+02 -.911E+02 -.183E+04   -.836E+00 0.295E+01 0.367E+01   -.458E-01 0.593E-01 -.916E-01
   -.225E+02 0.754E+02 0.974E+02   0.228E+02 -.762E+02 -.962E+02   -.223E+00 0.975E+00 -.636E+00   0.708E-02 0.183E-01 0.231E-01
   0.118E+03 0.287E+03 -.912E+03   -.121E+03 -.289E+03 0.909E+03   0.253E+01 0.752E+00 0.281E+01   0.196E-01 0.158E-01 -.471E-01
   0.297E+03 -.216E+03 0.230E+04   -.300E+03 0.218E+03 -.230E+04   0.129E+01 -.153E+01 0.188E+01   0.147E-01 -.311E-01 -.564E-01
   0.932E+02 0.680E+02 0.845E+03   -.930E+02 -.681E+02 -.841E+03   -.342E+00 0.526E+00 -.360E+00   -.304E-01 -.207E-01 -.817E-01
   0.226E+02 0.125E+03 -.167E+03   -.225E+02 -.127E+03 0.167E+03   -.130E+00 0.195E+01 0.564E+00   -.815E-02 -.491E-01 -.229E-02
   -.864E+02 0.205E+03 -.140E+04   0.878E+02 -.207E+03 0.140E+04   -.148E+01 0.587E-01 -.142E+01   -.155E-02 0.232E-01 0.269E-01
   -.538E+02 0.860E+02 0.528E+03   0.554E+02 -.871E+02 -.526E+03   -.137E+01 0.156E+01 -.852E+00   -.264E-01 -.395E-01 -.862E-01
   -.192E+02 0.153E+03 -.529E+03   0.195E+02 -.155E+03 0.526E+03   0.214E+00 0.154E+01 0.968E+00   0.101E-01 -.226E-01 -.269E-01
   -.299E+02 0.188E+03 -.181E+04   0.302E+02 -.189E+03 0.181E+04   0.626E-01 -.859E-01 -.725E+00   -.522E-02 -.218E-01 0.278E-01
   -.749E+02 0.155E+03 0.220E+04   0.750E+02 -.157E+03 -.220E+04   -.387E+00 0.136E+01 0.395E+01   -.910E-02 0.381E-01 -.550E-01
   0.523E+02 0.193E+03 0.239E+04   -.516E+02 -.195E+03 -.240E+04   -.161E+00 0.310E+00 0.285E+01   -.504E-01 -.133E-01 -.639E-01
   -.122E+03 0.285E+02 0.879E+03   0.125E+03 -.287E+02 -.877E+03   -.194E+01 0.905E+00 -.409E+00   -.129E-01 -.872E-02 -.213E-01
   -.126E+03 -.115E+03 -.251E+03   0.128E+03 0.117E+03 0.251E+03   -.211E+01 -.169E+01 0.709E-01   -.269E-01 0.169E-01 -.537E-02
   -.213E+03 -.111E+03 -.168E+04   0.214E+03 0.112E+03 0.168E+04   -.838E+00 -.220E+01 -.153E+01   0.609E-01 0.318E-01 -.296E-01
   -.687E+02 -.171E+03 0.219E+04   0.704E+02 0.173E+03 -.220E+04   -.766E+00 -.106E+01 0.238E+01   0.122E-02 0.174E-01 -.310E-01
   -.787E+02 -.113E+02 0.486E+03   0.803E+02 0.998E+01 -.485E+03   -.151E+01 0.587E+00 -.439E+00   -.563E-02 0.510E-01 -.712E-01
   -.111E+03 -.127E+03 -.693E+03   0.111E+03 0.130E+03 0.692E+03   -.808E+00 -.248E+01 -.320E+00   0.242E-02 -.377E-02 0.777E-02
   -.285E+03 -.283E+03 -.194E+04   0.290E+03 0.284E+03 0.194E+04   -.224E+01 -.370E+00 -.557E-01   -.234E-01 -.696E-01 0.354E-01
   -.141E+03 -.937E+02 0.186E+03   0.142E+03 0.956E+02 -.186E+03   -.162E+01 -.192E+01 0.347E+00   0.676E-01 0.177E-01 -.579E-01
   -.143E+03 -.103E+03 -.940E+03   0.146E+03 0.105E+03 0.938E+03   -.212E+01 -.248E+01 0.325E+00   0.836E-01 0.266E-02 0.224E-01
   0.436E+01 0.243E+03 -.223E+04   -.395E+01 -.244E+03 0.224E+04   0.672E-01 0.258E+00 -.816E+00   0.369E-01 0.266E-01 0.610E-01
   -.277E+03 -.140E+03 0.168E+04   0.279E+03 0.143E+03 -.168E+04   -.612E+00 -.150E+01 0.207E+01   -.390E-01 -.282E-01 -.118E+00
   0.250E+03 0.143E+03 0.180E+04   -.252E+03 -.146E+03 -.181E+04   0.484E+00 0.201E+01 0.250E+01   0.560E-01 0.150E-01 -.689E-01
   0.125E+03 -.158E+03 0.557E+03   -.128E+03 0.160E+03 -.558E+03   0.239E+01 -.184E+01 0.119E+01   0.278E-01 -.848E-02 -.490E-01
   0.169E+03 -.636E+02 -.719E+03   -.171E+03 0.654E+02 0.718E+03   0.254E+01 -.112E+01 -.520E+00   0.196E-01 0.377E-01 -.362E-01
   0.325E+03 0.199E+01 -.202E+04   -.327E+03 -.166E+01 0.203E+04   0.104E+01 -.246E+00 -.269E+01   -.822E-01 0.740E-01 -.355E-04
   0.136E+03 -.705E+02 0.939E+02   -.139E+03 0.718E+02 -.935E+02   0.223E+01 -.146E+01 -.196E+00   -.106E-01 0.454E-02 -.223E-01
   0.374E+02 -.119E+03 -.118E+04   -.401E+02 0.120E+03 0.118E+04   0.475E+01 -.219E+01 -.215E+01   -.189E-01 -.110E-01 0.146E-01
   0.512E+02 -.240E+03 -.225E+04   -.530E+02 0.241E+03 0.226E+04   0.755E+00 0.106E+00 -.189E+01   -.748E-02 -.377E-01 0.457E-01
   0.215E+03 0.379E+02 0.153E+04   -.219E+03 -.375E+02 -.153E+04   0.175E+01 -.299E+00 0.197E+01   0.507E-01 0.296E-01 -.693E-01
   -.300E+03 -.250E+03 0.216E+04   0.303E+03 0.253E+03 -.216E+04   -.806E+00 -.128E+01 0.345E+01   -.300E-01 0.210E-01 -.701E-01
   0.177E+03 -.193E+03 0.869E+03   -.180E+03 0.195E+03 -.867E+03   0.198E+01 -.122E+01 0.564E+00   0.582E-01 -.249E-01 -.982E-01
   0.145E+03 -.620E+02 -.345E+03   -.148E+03 0.631E+02 0.346E+03   0.264E+01 -.122E+01 -.112E+01   -.848E-01 -.195E-01 -.373E-01
   0.186E+03 -.143E+01 -.159E+04   -.189E+03 0.192E+01 0.159E+04   0.145E+01 -.170E+01 -.248E+01   -.740E-01 0.475E-02 0.712E-01
   -.160E+02 0.159E+02 -.183E+02   0.824E-12 -.824E-12 -.455E-11   0.162E+02 -.159E+02 0.220E+02   -.555E-01 0.469E-01 -.369E+01

 POSITION                                       TOTAL-FORCE (eV/Angst)
      6.56566      9.31606      1.18773        -1.528654     -0.761349     -1.682209
      6.84285      7.49250      2.62550        -1.075137     -1.002641      3.128734
      7.82056      6.07621      5.25100        -0.080599     -0.152386      0.066916
      8.79827      4.65991      7.87651         0.307196      1.690449     -1.098048
      9.13157      2.60977      9.07136         0.033706     -1.228594      1.020401
      2.61774      3.87870      3.50067         0.584129     -1.207512      2.744329
      3.59545      2.46241      6.12617        -0.006113     -0.171407     -0.081528
      4.57317      1.04611      8.75167        -0.985618      1.358393     -0.565589
     11.88043      5.57007      2.20217         0.126628     -0.362222     -0.696384
      3.83807      6.95144      9.34462        -0.272243     -0.514524      0.849790
      7.95635      2.02739      3.00850        -0.404644     -0.120779     -0.682132
      8.47237      0.26490      4.37584         0.415523     -1.152893      1.495436
     13.02338      8.27371      7.00134         0.025577     -0.043122      0.501773
      5.13135      4.49392      2.81557         0.960716      0.041839     -0.639285
      6.61816      3.96023      4.55733         0.531573     -0.157914      0.705198
      7.59587      2.54394      7.18283        -1.930698      0.229832     -0.850247
      1.41534      1.76273      2.80700        -0.434742      0.134632      1.877827
      2.39305      0.34643      5.43250        -0.001793     -0.066706     -0.062721
      6.94406      8.35524      8.05800        -0.644225      0.205669     -2.725377
      7.07073      6.87349      9.88673         1.053925     -0.032244      0.902028
      2.62294      4.75835      8.64185        -1.088038     -0.240913      1.326245
      9.02766      8.33033      1.96725         1.636036     -0.185730     -0.341928
     10.84326      7.57403      3.68216         0.026895     -0.286081      0.441098
     11.82097      6.15773      6.30767        -0.050860     -0.011998     -0.015811
      0.78496      1.26853      8.47126         0.338515      1.256819      0.940584
      8.02688      5.63243      1.67985         0.075125     -0.997282     -0.767605
      9.02296      4.33443      3.86366        -0.044598     -0.044422      0.275644
     10.00068      2.91813      6.48916         0.557824      0.738137     -0.846712
      3.82015      2.13692      2.11332         0.735854      1.388040      1.291312
      4.79786      0.72063      4.73883        -0.028938     -0.072076      0.316516
      9.34887      8.72943      7.36433        -0.307110      0.101961     -1.851786
     10.30292      7.64970      9.37527         0.691627     -0.748612      1.040790
      3.16834      7.94822      2.98849         0.149066      0.081847      0.574227
      4.14605      6.53193      5.61399         0.348161      0.119100     -0.091025
      5.12376      5.11563      8.23950        -0.359341     -0.065419     -2.038317
     11.32693      9.40867      1.73006        -0.305926      0.610368     -1.578463
      3.51777      8.97739      9.22160        -0.584894      1.428910      1.722478
      7.35546      3.82659      2.42507        -1.694446      0.819072     -1.743561
      8.33317      2.41029      5.05057         0.088166      0.175310      0.602572
      9.12585      1.15518      7.36821        -0.045225     -1.253104      0.051214
      2.16759      1.75573      0.91476        -1.213928      0.760439     -3.358607
      3.13035      0.21279      3.30024        -0.109683      0.443296      2.955702
      7.68136      8.22159      5.92574        -0.045721     -0.212868     -0.317582
      8.65907      6.80530      8.55124        -0.041989     -1.580909     -0.456762
      2.47854      6.02409      4.17540         0.213588      0.453439      1.163753
      3.45626      4.60779      6.80091         0.531286      0.386567     -2.824001
      4.17817      3.29875      8.89590         0.297754     -1.003748      1.998420
     11.58056      7.44039      1.54990        -0.351484     -0.560308     -2.403462
      7.59552      7.43934      0.71085         0.460962     -1.302011     -3.819241
      8.88655      6.52099      3.30837         0.654911      0.707835      1.675998
      9.86427      5.10469      5.93387         0.059511      0.177839      0.300543
     10.84198      3.68840      8.55937         0.158538     -0.702224      0.739392
      3.44895      4.24563      1.64996         0.989480      1.181237     -2.885310
      4.66145      2.90719      4.18354         0.073460     -0.670687      0.563282
      5.63916      1.49089      6.80904        -0.090652      0.053524     -1.020218
      6.39953      0.19276      9.13564         2.155598      1.229371      1.966650
      4.00964      8.71849      5.05870         0.131025      0.004736      0.263851
      4.98735      7.30220      7.68420         1.262105     -0.366760     -1.990298
      5.36253      5.83183     10.15442         0.515867     -0.801462      3.591998
      9.53836      0.70969      2.43320         1.614227      0.932912     -0.137588
      4.96250      8.01594      1.86808        -1.286641     -1.300801     -1.776524
      5.82436      6.04450      4.19167        -0.259662      0.538837      0.605322
      6.80207      4.62821      6.81717         0.021937      0.707146     -1.143384
      7.39900      3.60424      9.04235        -1.380394      0.159590      2.572282
      1.59925      2.43070      5.06683         0.068304     -0.217869      0.183530
      2.57697      1.01441      7.69234         2.030284     -0.508611     -1.309123
      7.36079      8.92589      9.96223        -1.101680      0.902204      3.466805
     10.74404      3.81191      2.70298        -1.828034      0.180366     -1.313884
      4.89687      0.70618      1.00880         2.048351      1.212517     -2.203594
      6.47617      0.23320      3.31650        -1.085172      0.985507      2.285178
     11.02718      8.24201      5.94200         0.069645     -0.079593     -0.434701
     12.00489      6.82571      8.56750        -1.374196     -1.209959     -0.454815
    total drift:                                0.144449      0.015691      0.051314

  FREE ENERGIE OF THE ION-ELECTRON SYSTEM (eV)
  free  energy   TOTEN  =      -349.53920427 eV

  energy  without entropy=     -348.59831250  energy(sigma->0) =     -349.06875838