 vasp.5.4.4.18Apr17-6-g9f103f2a35 (build Aug 13 2019 17:33:20) gamma-only

 executed on             LinuxIFC date 2020.05.11  01:31:26

 INCAR:
 POTCAR:    PAW_PBE Ni_pv 06Sep2000
 POTCAR:    PAW_PBE S 06Sep2000
 POTCAR:    PAW_PBE Ni_pv 06Sep2000
   VRHFIN =Ni:

   TITEL  = PAW_PBE Ni_pv 06Sep2000
   POMASS =   58.690; ZVAL   =   16.000    mass and valenz
   ENMAX  =  367.986; ENMIN  =  275.989 eV

 POTCAR:    PAW_PBE S 06Sep2000
   VRHFIN =S : s2p4

   TITEL  = PAW_PBE S 06Sep2000
   POMASS =   32.066; ZVAL   =    6.000    mass and valenz
   ENMAX  =  258.689; ENMIN  =  194.016 eV

 Optimization of the real space projectors (new method)

 maximal supplied QI-value         = 18.90
 optimisation between [QCUT,QGAM] = [ 10.77, 21.73] = [ 32.49,132.25] Ry
 Optimized for a Real-space Cutoff    1.38 Angstroem

   l    n(q)    QCUT    max X(q) W(low)/X(q) W(high)/X(q)  e(spline)
   1      8    10.771     2.836    0.40E-04    0.29E-04    0.12E-06
   1      8    10.771     4.023    0.10E-03    0.48E-04    0.29E-06
   2      8    10.771    73.368    0.42E-03    0.97E-04    0.44E-06
   2      8    10.771    69.010    0.42E-03    0.99E-04    0.45E-06
   0      9    10.771    54.797    0.10E-03    0.56E-04    0.74E-07
   0      9    10.771    24.266    0.89E-04    0.49E-04    0.67E-07
 Optimization of the real space projectors (new method)

 maximal supplied QI-value         = 19.84
 optimisation between [QCUT,QGAM] = [ 10.71, 21.63] = [ 32.15,130.99] Ry
 Optimized for a Real-space Cutoff    1.19 Angstroem

   l    n(q)    QCUT    max X(q) W(low)/X(q) W(high)/X(q)  e(spline)
   0      8    10.715   187.594    0.41E-03    0.53E-04    0.66E-07
   0      8    10.715   164.243    0.41E-03    0.53E-04    0.65E-07
   1      7    10.715    67.533    0.19E-03    0.59E-03    0.68E-07
   1      7    10.715    50.729    0.19E-03    0.58E-03    0.67E-07
  PAW_PBE Ni_pv 06Sep2000               :
  PAW_PBE S 06Sep2000                   :

 POSCAR: Type_052 Type_152
  positions in cartesian coordinates
 exchange correlation table for  LEXCH =        8
   RHO(1)=    0.500       N(1)  =     2000
   RHO(2)=  100.500       N(2)  =     4000

 ion  position               nearest neighbor table
   1  0.261  0.479  0.291-  79 2.25  63 2.26  87 2.26  59 2.36  64 2.36   7 2.53  21 2.53
   2  0.355  0.385  0.419-  65 2.11  71 2.11  80 2.25  59 2.26  64 2.26   8 2.53  22 2.53
   3  0.167  0.073  0.162-  88 2.12  60 2.12  69 2.25  61 2.36  89 2.36  30 2.41  37 2.53  31 2.53

   4  0.026  0.067  0.490-  83 2.00  54 2.05  78 2.07  84 2.13
   5  0.209  0.525  0.056-  55 2.02  62 2.06  86 2.07  28 2.48  38 2.51
   6  0.274  0.333  0.128-  62 2.11  60 2.12  55 2.25  56 2.36  63 2.36  12 2.53  28 2.53
   7  0.368  0.239  0.257-  61 2.25  63 2.26  56 2.26  64 2.36  66 2.36   1 2.53  21 2.53
   8  0.462  0.145  0.385-  65 2.14  85 2.25  64 2.26  66 2.26  67 2.36   2 2.53  22 2.53
   9  0.000  0.372  0.257-  63 2.25  69 2.26 100 2.26  53 2.36  72 2.36  13 2.53  19 2.53
  10  0.094  0.278  0.385-  58 2.14  64 2.25  53 2.26  72 2.26  54 2.36  20 2.53  14 2.53
  11  0.173  0.213  0.490-  83 2.00  54 2.05  58 2.07  65 2.13
  12  0.406  0.465  0.128-  55 2.06  86 2.11  75 2.25  38 2.32  56 2.36  87 2.36  28 2.53   6 2.53

[...]

  46  0.868  0.739  0.257- 100 2.25 102 2.26  95 2.26 103 2.36  79 2.36  39 2.53  34 2.53
  47  0.962  0.645  0.385- 104 2.14  72 2.25 103 2.26  79 2.26  80 2.36  40 2.53  35 2.53
  48  0.500  0.872  0.257- 102 2.25  82 2.26  61 2.26  92 2.36  85 2.36  26 2.53  32 2.53
  49  0.594  0.778  0.385-  97 2.14 103 2.25  92 2.26  85 2.26  93 2.36  33 2.53  27 2.53
  50  0.673  0.713  0.490-  70 2.00  93 2.05  97 2.07 104 2.13
  51  0.906  0.965  0.128-  73 2.11  88 2.12  94 2.25  95 2.36  74 2.36  15 2.53  45 2.53
  52  0.813  0.544  0.022-  99 1.99  68 2.04  17 2.40
  53  0.073  0.167  0.306-  26 2.25  10 2.26  20 2.26   9 2.36  19 2.36
  54  0.167  0.073  0.435-  11 2.05   4 2.05  27 2.25  10 2.36  20 2.36
  55  0.390  0.366  0.055-   5 2.02  12 2.06  38 2.15   6 2.25
  56  0.479  0.261  0.178-  15 2.25   7 2.26  21 2.26   6 2.36  12 2.36
  57  0.103  0.637  0.552-  36 2.00  29 2.00
  58  0.017  0.390  0.463-  11 2.07  14 2.11  29 2.13  10 2.14  72 2.77
  59  0.436  0.472  0.350-  33 2.25   2 2.26  22 2.26   1 2.36  21 2.36  71 2.77
  60  0.258  0.158  0.106-  30 2.05   6 2.12  37 2.12   3 2.12
  61  0.342  0.066  0.221-   7 2.25  26 2.26  48 2.26   3 2.36  37 2.36
  62  0.082  0.480  0.107-   5 2.06   6 2.11  28 2.11  24 2.12
  63  0.174  0.397  0.221-   9 2.25   7 2.26   1 2.26   6 2.36  28 2.36
  64  0.268  0.303  0.350-  10 2.25   2 2.26   8 2.26   1 2.36   7 2.36  65 2.77
  65  0.349  0.223  0.463-  16 2.07   2 2.11  11 2.13   8 2.14  64 2.77
  66  0.573  0.167  0.306-  39 2.25  22 2.26   8 2.26  21 2.36   7 2.36
  67  0.667  0.073  0.435-  23 2.05  16 2.05  40 2.25  22 2.36   8 2.36
  68  0.880  0.359  0.058-  52 2.04  17 2.04  18 2.10  24 2.11
  69  0.979  0.261  0.178-   3 2.25  19 2.26   9 2.26  18 2.36  24 2.36
  70  0.603  0.637  0.552-  50 2.00  43 2.00
  71  0.517  0.390  0.463-  23 2.07   2 2.11  43 2.13  22 2.14  59 2.77
  72  0.936  0.472  0.350-  47 2.25  14 2.26  10 2.26  13 2.36   9 2.36  58 2.77
  73  0.759  0.158  0.107-  25 2.06  51 2.11  15 2.11  18 2.12
  74  0.842  0.066  0.221-  19 2.25  39 2.26  34 2.26  15 2.36  51 2.36
  75  0.580  0.491  0.093-  17 2.00  38 2.10  41 2.18  12 2.25  18 2.26  42 2.26
  76  0.674  0.397  0.221-  21 2.25  19 2.26  13 2.26  18 2.36  42 2.36
  77  0.768  0.303  0.350-  22 2.25  14 2.26  20 2.26  13 2.36  19 2.36  78 2.77
  78  0.849  0.223  0.463-   4 2.07  14 2.11  23 2.13  20 2.14  77 2.77
  79  0.073  0.667  0.306-   1 2.25  35 2.26  47 2.26  34 2.36  46 2.36
  80  0.167  0.573  0.435-  29 2.05  36 2.05   2 2.25  35 2.36  47 2.36
  81  0.377  0.863  0.056-  30 2.02  41 2.05  37 2.13  31 2.13
  82  0.479  0.761  0.178-  42 2.25  32 2.26  48 2.26  41 2.33  31 2.36  37 2.36
  83  0.103  0.137  0.552-   4 2.00  11 2.00
  84  0.017  0.890  0.463-  36 2.07  40 2.11   4 2.13  35 2.14  98 2.77
  85  0.436  0.972  0.350-   8 2.25  27 2.26  49 2.26  26 2.36  48 2.36  97 2.77
  86  0.267  0.654  0.097-   5 2.07  12 2.11  31 2.18  38 2.18  28 2.29
  87  0.342  0.566  0.221-  32 2.25   1 2.26  21 2.26  28 2.36  12 2.36
  88  0.082  0.981  0.106-  30 2.06  31 2.12   3 2.12  51 2.12
  89  0.174  0.897  0.221-  34 2.25  32 2.26  26 2.26  31 2.36   3 2.36
  90  0.268  0.803  0.350-  35 2.25  27 2.26  33 2.26  26 2.36  32 2.36  91 2.77
  91  0.349  0.723  0.463-  43 2.07  27 2.11  36 2.13  33 2.14  90 2.77
  92  0.573  0.667  0.306-  13 2.25  49 2.26  33 2.26  48 2.36  32 2.36
  93  0.667  0.573  0.435-  43 2.05  50 2.05  14 2.25  49 2.36  33 2.36
  94  0.873  0.850  0.055-  25 2.02  45 2.06  44 2.15  51 2.25
  95  0.979  0.761  0.178-  28 2.25  46 2.26  34 2.26  45 2.36  51 2.36
  96  0.603  0.137  0.552-  16 2.00  23 2.00
  97  0.517  0.890  0.463-  50 2.07  27 2.11  16 2.13  49 2.14  85 2.77
  98  0.936  0.972  0.350-  20 2.25  40 2.26  35 2.26  39 2.36  34 2.36  84 2.77
  99  0.748  0.660  0.093-  52 1.99  44 2.11  41 2.17  45 2.25  42 2.26  24 2.26
 100  0.842  0.566  0.221-  46 2.25  13 2.26   9 2.26  42 2.36  24 2.36
 101  0.586  0.973  0.098-  25 2.07  45 2.11  44 2.17  37 2.17  15 2.28
 102  0.674  0.897  0.221-  48 2.25  46 2.26  39 2.26  45 2.36  15 2.36
 103  0.768  0.803  0.350-  49 2.25  40 2.26  47 2.26  39 2.36  46 2.36 104 2.77
 104  0.849  0.723  0.463-  29 2.07  40 2.11  50 2.13  47 2.14 103 2.77

  LATTYP: Found a base centered orthorhombic cell.
 ALAT       =    11.8257374459
 B/A-ratio  =     1.6199260857
 C/A-ratio  =     1.9350716598

  Lattice vectors:

 A1 = (  11.2564630382,   0.0000000000,   0.0000000000)
 A2 = (  -5.0445621212, -10.0628203371,   0.0000000000)
 A3 = (   0.0000000000,   0.0000000000, -22.8836493875)

Analysis of symmetry for initial positions (statically):
 Subroutine PRICEL returns:
 Original cell was already a primitive cell.

 Routine SETGRP: Setting up the symmetry group for a
 base centered orthorhombic supercell.

 Subroutine GETGRP returns: Found  1 space group operations
 (whereof  1 operations were pure point group operations)
 out of a pool of  8 trial point group operations.

The static configuration has the point symmetry C_1 .

Analysis of symmetry for dynamics (positions and initial velocities):
 Subroutine PRICEL returns:
 Original cell was already a primitive cell.

 Routine SETGRP: Setting up the symmetry group for a
 base centered orthorhombic supercell.

 Subroutine GETGRP returns: Found  1 space group operations
 (whereof  1 operations were pure point group operations)
 out of a pool of  8 trial point group operations.

The dynamic configuration has the point symmetry C_1 .

 Subroutine INISYM returns: Found  1 space group operations
 (whereof  1 operations are pure point group operations),
 and found     1 'primitive' translations

 KPOINTS: gamma-point-only calculation. no periodi

Automatic generation of k-mesh.
Space group operators:
 irot       det(A)        alpha          n_x          n_y          n_z        tau_x        tau_y        tau_z
    1     1.000000     0.000001     1.000000     0.000000     0.000000     0.000000     0.000000     0.000000

 Subroutine IBZKPT returns following result:

 Found      1 irreducible k-points:

 Following reciprocal coordinates:
            Coordinates               Weight
  0.000000  0.000000  0.000000      1.000000

 Following cartesian coordinates:
            Coordinates               Weight
  0.000000  0.000000  0.000000      1.000000

 SYSTEM =  "Millerite NiS"
 POSCAR =  Type_052 Type_152

 Startparameter for this run:
   NWRITE =      2    write-flag & timer
   PREC   = normal    normal or accurate (medium, high low for compatibility)
   ISTART =      0    job   : 0-new  1-cont  2-samecut
   ICHARG =      2    charge: 1-file 2-atom 10-const
   ISPIN  =      1    spin polarized calculation?
   LNONCOLLINEAR =      F non collinear calculations
   LSORBIT =      F    spin-orbit coupling
   INIWAV =      1    electr: 0-lowe 1-rand  2-diag
   LASPH  =      F    aspherical Exc in radial PAW
   METAGGA=      F    non-selfconsistent MetaGGA calc.

 Electronic Relaxation 1
   ENCUT  =  450.0 eV  33.07 Ry    5.75 a.u.  19.47 19.47 39.58*2*pi/ulx,y,z
   ENINI  =  450.0     initial cutoff
   ENAUG  =  703.4 eV  augmentation charge cutoff
   NELM   =    100;   NELMIN=  2; NELMDL= -5     # of ELM steps
   EDIFF  = 0.1E-03   stopping-criterion for ELM
   LREAL  =      T    real-space projection
   NLSPLINE    = F    spline interpolate recip. space projectors
   LCOMPAT=      F    compatible to vasp.4.4
   GGA_COMPAT  = T    GGA compatible to vasp.4.4-vasp.4.6
   LMAXPAW     = -100 max onsite density
   LMAXMIX     =    2 max onsite mixed and CHGCAR
   VOSKOWN=      0    Vosko Wilk Nusair interpolation
   ROPT   =   -0.00050  -0.00050
 Ionic relaxation
   EDIFFG = 0.1E-02   stopping-criterion for IOM
   NSW    =      0    number of steps for IOM
   NBLOCK =      1;   KBLOCK =      1    inner block; outer block
   IBRION =     -1    ionic relax: 0-MD 1-quasi-New 2-CG
   NFREE  =      0    steps in history (QN), initial steepest desc. (CG)
[...]
     0.000000000  0.000000000 22.883649388     0.000000000  0.000000000  0.043699324

  length of vectors
    11.256463038 11.256463038 22.883649388     0.099375718  0.099375718  0.043699324

 FORCES acting on ions
    electron-ion (+dipol)            ewald-force                    non-local-force                 convergence-correction
   0.267E+03 -.383E+03 -.593E+03   -.267E+03 0.384E+03 0.592E+03   0.613E+00 -.118E+01 0.470E+00   -.109E+00 -.774E-01 0.293E+00
   0.278E+03 -.440E+03 -.391E+04   -.279E+03 0.443E+03 0.391E+04   0.808E+00 -.137E+01 -.266E+01   -.440E-01 -.130E-01 0.499E+00
   0.370E+03 -.600E+03 0.249E+04   -.373E+03 0.604E+03 -.249E+04   0.177E+01 -.286E+01 -.106E+01   -.634E-01 0.464E-01 0.638E+00
   0.225E+03 0.318E+03 -.556E+04   -.227E+03 -.321E+03 0.557E+04   0.111E+01 0.161E+01 -.373E+01   0.119E+00 0.103E-01 0.257E+00
   0.778E+03 -.289E+03 0.600E+04   -.782E+03 0.289E+03 -.601E+04   0.276E+01 0.624E+00 0.527E+01   0.978E-01 0.326E-01 -.172E+00
   0.352E+03 0.759E+03 0.381E+04   -.353E+03 -.763E+03 -.381E+04   0.565E+00 0.262E+01 0.168E+00   0.535E-01 0.723E-01 0.297E+00
   0.260E+03 0.451E+03 0.524E+03   -.261E+03 -.451E+03 -.525E+03   0.781E+00 0.382E+00 0.140E+01   -.109E+00 -.905E-01 0.368E+00
   0.230E+03 0.403E+03 -.246E+04   -.230E+03 -.406E+03 0.245E+04   0.105E+01 0.221E+01 0.176E+01   -.102E+00 -.727E-01 0.419E+00
   -.534E+03 0.239E+02 0.516E+03   0.535E+03 -.229E+02 -.518E+03   -.673E+00 -.747E+00 0.159E+01   -.261E-01 -.227E+00 0.457E+00
   -.467E+03 -.179E+02 -.245E+04   0.470E+03 0.180E+02 0.245E+04   -.244E+01 0.284E-01 0.165E+01   -.295E-02 -.115E+00 0.386E+00
   -.385E+03 -.584E+02 -.556E+04   0.388E+03 0.594E+02 0.557E+04   -.191E+01 -.267E+00 -.373E+01   -.931E-01 -.506E-01 0.265E+00
   -.358E+03 0.340E+03 0.315E+04   0.362E+03 -.342E+03 -.314E+04   -.212E+01 0.148E+01 -.288E+01   -.107E+00 -.179E-01 0.862E-01
   0.218E+03 -.356E+03 -.629E+03   -.219E+03 0.357E+03 0.628E+03   0.798E+00 -.133E+01 0.973E+00   0.176E+00 -.282E+00 0.320E+00
   0.269E+03 -.437E+03 -.391E+04   -.271E+03 0.439E+03 0.391E+04   0.805E+00 -.133E+01 -.273E+01   0.110E+00 -.997E-01 0.441E+00
   0.317E+03 -.577E+03 0.242E+04   -.320E+03 0.580E+03 -.242E+04   0.185E+01 -.253E+01 -.129E+01   0.415E-01 0.411E-01 0.307E+00
   0.225E+03 0.316E+03 -.556E+04   -.227E+03 -.319E+03 0.557E+04   0.105E+01 0.167E+01 -.370E+01   -.682E-01 -.349E-01 0.319E+00
   0.254E+03 0.778E+03 0.609E+04   -.251E+03 -.774E+03 -.609E+04   -.374E+01 -.478E+01 -.489E+00   -.606E-01 -.686E-01 -.324E+00
   0.106E+03 0.820E+03 0.346E+04   -.106E+03 -.822E+03 -.346E+04   -.105E+00 0.202E+01 -.142E+01   -.230E-01 -.164E+00 0.317E+00
   0.216E+03 0.488E+03 0.514E+03   -.217E+03 -.488E+03 -.516E+03   0.964E+00 0.282E+00 0.160E+01   0.200E+00 -.953E-01 0.424E+00
   0.225E+03 0.410E+03 -.245E+04   -.226E+03 -.412E+03 0.245E+04   0.103E+01 0.217E+01 0.163E+01   0.130E+00 -.738E-01 0.356E+00
   -.484E+03 0.339E+02 0.466E+03   0.484E+03 -.333E+02 -.468E+03   -.982E+00 -.507E+00 0.146E+01   -.233E-01 -.141E+00 0.353E+00
   -.465E+03 -.144E+02 -.246E+04   0.468E+03 0.142E+02 0.246E+04   -.235E+01 0.536E-01 0.175E+01   0.887E-01 -.435E-01 0.445E+00
   -.386E+03 -.570E+02 -.556E+04   0.389E+03 0.578E+02 0.557E+04   -.194E+01 -.195E+00 -.374E+01   0.135E-01 0.917E-02 0.309E+00
   -.802E+03 0.254E+03 0.351E+04   0.803E+03 -.255E+03 -.350E+04   -.186E+01 0.101E+01 -.145E+01   0.888E-01 -.738E-01 0.296E+00
   -.886E+02 -.801E+03 0.600E+04   0.900E+02 0.804E+03 -.600E+04   -.173E+01 -.204E+01 0.534E+01   -.311E-01 -.616E-01 -.147E+00
   0.267E+03 -.432E+03 -.595E+03   -.267E+03 0.432E+03 0.594E+03   0.606E+00 -.102E+01 0.314E+00   -.429E-01 0.427E-01 0.398E+00
   0.278E+03 -.450E+03 -.392E+04   -.279E+03 0.452E+03 0.392E+04   0.858E+00 -.142E+01 -.254E+01   -.521E-01 0.399E-01 0.456E+00
   0.381E+03 -.546E+03 0.242E+04   -.382E+03 0.550E+03 -.242E+04   0.141E+01 -.281E+01 -.121E+01   -.294E-01 0.373E-01 0.318E+00
   0.224E+03 0.319E+03 -.556E+04   -.226E+03 -.322E+03 0.557E+04   0.106E+01 0.167E+01 -.374E+01   0.736E-02 0.364E-01 0.298E+00
   0.365E+03 -.593E+03 0.614E+04   -.367E+03 0.597E+03 -.615E+04   0.182E+01 -.293E+01 0.443E+01   -.433E-01 0.244E-01 -.105E+00
   0.640E+03 0.305E+03 0.364E+04   -.642E+03 -.308E+03 -.364E+04   0.249E+01 0.178E+01 0.417E+00   -.197E+00 -.403E-01 0.437E+00
   0.305E+03 0.416E+03 0.404E+03   -.307E+03 -.417E+03 -.405E+03   0.133E+01 0.565E+00 0.634E+00   -.627E-01 0.168E+00 0.464E+00
   0.234E+03 0.408E+03 -.248E+04   -.235E+03 -.410E+03 0.247E+04   0.100E+01 0.218E+01 0.177E+01   -.167E-01 0.786E-01 0.569E+00
   -.519E+03 -.283E+02 0.525E+03   0.520E+03 0.288E+02 -.526E+03   -.688E+00 -.553E+00 0.140E+01   0.117E+00 0.528E-01 0.368E+00
   -.463E+03 -.242E+02 -.246E+04   0.466E+03 0.240E+02 0.245E+04   -.248E+01 0.366E-01 0.176E+01   0.637E-01 0.270E-01 0.476E+00
   -.384E+03 -.594E+02 -.556E+04   0.387E+03 0.601E+02 0.557E+04   -.194E+01 -.183E+00 -.369E+01   -.172E-01 0.232E-01 0.319E+00
   -.556E+03 -.434E+03 0.364E+04   0.560E+03 0.435E+03 -.363E+04   -.266E+01 -.143E+01 0.378E+00   0.994E-01 0.132E+00 0.438E+00
   0.127E+03 -.182E+03 0.620E+04   -.126E+03 0.180E+03 -.620E+04   0.479E+00 0.214E+01 0.152E+01   -.207E+00 -.988E-01 -.344E+00
   0.222E+03 -.408E+03 -.593E+03   -.223E+03 0.409E+03 0.592E+03   0.745E+00 -.110E+01 0.472E+00   0.147E+00 0.210E-01 0.275E+00
   0.269E+03 -.445E+03 -.391E+04   -.271E+03 0.447E+03 0.391E+04   0.839E+00 -.135E+01 -.266E+01   0.824E-01 -.919E-01 0.495E+00
   0.214E+03 -.339E+03 0.497E+04   -.214E+03 0.339E+03 -.498E+04   0.427E-01 -.128E-01 0.306E+01   0.239E-01 -.581E-01 -.102E+00
   0.755E+02 -.131E+03 0.206E+04   -.751E+02 0.131E+03 -.205E+04   -.226E+00 0.324E+00 -.366E+01   0.621E-01 -.158E+00 0.541E+00
   0.226E+03 0.319E+03 -.557E+04   -.228E+03 -.322E+03 0.557E+04   0.109E+01 0.164E+01 -.369E+01   0.465E-01 0.104E+00 0.371E+00
   0.924E+02 -.174E+03 0.620E+04   -.912E+02 0.173E+03 -.620E+04   -.203E+01 0.469E+00 0.152E+01   0.195E+00 0.127E+00 -.353E+00
   -.149E+03 0.490E+03 0.316E+04   0.149E+03 -.494E+03 -.315E+04   -.456E+00 0.251E+01 -.278E+01   0.102E+00 0.116E+00 0.103E+00
   0.186E+03 0.450E+03 0.470E+03   -.187E+03 -.450E+03 -.471E+03   0.878E+00 0.673E+00 0.144E+01   0.155E+00 -.329E-01 0.387E+00
   0.221E+03 0.410E+03 -.246E+04   -.222E+03 -.412E+03 0.246E+04   0.975E+00 0.210E+01 0.175E+01   0.274E-01 -.845E-01 0.521E+00
   -.509E+03 -.857E+02 0.404E+03   0.510E+03 0.866E+02 -.405E+03   -.108E+01 -.942E+00 0.638E+00   -.124E+00 0.116E+00 0.469E+00
   -.470E+03 -.259E+02 -.248E+04   0.472E+03 0.258E+02 0.247E+04   -.242E+01 0.639E-01 0.177E+01   -.372E-01 0.219E-01 0.562E+00
   -.387E+03 -.590E+02 -.557E+04   0.390E+03 0.599E+02 0.557E+04   -.193E+01 -.240E+00 -.369E+01   -.560E-01 -.291E-01 0.361E+00
   -.837E+03 0.376E+02 0.381E+04   0.841E+03 -.389E+02 -.381E+04   -.259E+01 0.703E+00 0.183E+00   -.748E-01 0.102E-01 0.306E+00
   -.770E+03 0.938E+02 0.611E+04   0.766E+03 -.949E+02 -.611E+04   0.492E+01 0.179E+01 -.519E+00   0.102E+00 0.246E-01 -.389E+00
   -.740E+02 0.120E+03 -.169E+03   0.753E+02 -.122E+03 0.167E+03   -.115E+01 0.187E+01 0.176E+01   -.362E-01 0.476E-01 0.943E-01
   -.127E+03 0.206E+03 -.140E+04   0.129E+03 -.209E+03 0.140E+04   -.830E+00 0.134E+01 0.104E+01   -.301E-01 0.466E-01 0.205E+00
   0.283E+02 0.556E+03 0.225E+04   -.273E+02 -.562E+03 -.225E+04   -.536E+00 0.308E+01 0.853E+00   0.253E-01 0.432E-01 -.940E-01
   -.535E+02 0.158E+03 0.101E+04   0.543E+02 -.159E+03 -.101E+04   -.685E+00 0.147E+01 0.154E+01   -.205E-01 -.410E-01 0.173E+00
   -.140E+02 0.225E+02 -.241E+04   0.143E+02 -.230E+02 0.242E+04   -.126E+00 0.229E+00 -.808E+00   -.173E-02 0.454E-02 -.643E-01
   0.280E+02 -.145E+03 -.195E+04   -.284E+02 0.147E+03 0.195E+04   0.418E+00 -.440E+00 -.885E+00   0.842E-01 -.327E-01 0.172E+00
   -.580E+02 -.147E+03 -.653E+03   0.593E+02 0.150E+03 0.652E+03   -.138E+01 -.292E+01 -.141E-01   0.361E-01 0.123E-01 0.145E+00
   -.895E+02 -.300E+03 0.177E+04   0.900E+02 0.302E+03 -.177E+04   0.111E+00 -.171E+00 0.123E+01   0.624E-01 0.566E-01 0.951E-01
[...]
   0.119E+03 -.918E+02 -.195E+04   -.120E+03 0.927E+02 0.195E+04   0.252E+00 -.572E+00 -.766E+00   -.694E-02 -.309E-01 0.185E+00
   -.752E+02 0.122E+03 -.203E+03   0.763E+02 -.123E+03 0.201E+03   -.970E+00 0.161E+01 0.192E+01   -.353E-01 0.625E-01 0.142E+00
   -.129E+03 0.208E+03 -.141E+04   0.130E+03 -.211E+03 0.140E+04   -.836E+00 0.136E+01 0.121E+01   -.339E-01 0.761E-01 0.274E+00
   -.507E+03 0.236E+03 0.225E+04   0.512E+03 -.239E+03 -.225E+04   -.246E+01 0.192E+01 0.878E+00   -.409E-01 0.714E-02 -.828E-01
   -.116E+03 0.121E+03 0.101E+04   0.117E+03 -.122E+03 -.101E+04   -.986E+00 0.129E+01 0.155E+01   0.469E-01 0.202E-01 0.177E+00
   -.138E+02 0.226E+02 -.241E+04   0.142E+02 -.231E+02 0.242E+04   -.133E+00 0.224E+00 -.811E+00   -.890E-02 -.717E-02 -.225E-01
   0.287E+02 -.148E+03 -.195E+04   -.290E+02 0.149E+03 0.195E+04   0.410E+00 -.476E+00 -.769E+00   0.207E-01 -.372E-01 0.178E+00
   -.641E+02 -.152E+03 -.644E+03   0.653E+02 0.155E+03 0.643E+03   -.140E+01 -.307E+01 -.347E+00   0.959E-01 0.229E-01 0.942E-01
   -.208E+03 -.471E+02 0.151E+04   0.209E+03 0.476E+02 -.151E+04   -.405E+00 0.349E+00 0.398E+00   0.149E+00 0.397E-01 -.524E-01
   -.111E+03 -.130E+03 0.458E+03   0.112E+03 0.132E+03 -.459E+03   -.986E+00 -.254E+01 0.659E+00   0.883E-01 -.717E-01 0.210E+00
   0.302E+03 -.308E+03 0.168E+04   -.305E+03 0.310E+03 -.168E+04   0.105E+01 -.376E+00 0.384E+00   0.699E-01 0.211E-01 -.583E-02
   0.150E+03 -.293E+02 0.448E+03   -.152E+03 0.293E+02 -.449E+03   0.266E+01 -.199E+00 0.648E+00   -.185E-01 0.235E-01 0.146E+00
   0.157E+03 -.137E+02 -.652E+03   -.161E+03 0.140E+02 0.652E+03   0.325E+01 -.514E-01 -.295E-01   -.547E-02 -.479E-01 0.154E+00
   0.117E+03 -.913E+02 -.195E+04   -.118E+03 0.922E+02 0.195E+04   0.264E+00 -.487E+00 -.785E+00   -.210E-01 -.881E-01 0.183E+00
   -.780E+00 0.154E+01 -.344E+02   0.152E-11 0.952E-12 0.107E-10   0.478E-01 -.333E+00 0.137E+02   0.594E+00 -.108E+01 0.206E+02

 POSITION                                       TOTAL-FORCE (eV/Angst)
      5.35228      4.81788      6.64784         0.016795     -0.186249     -0.051998
      5.93595      3.87238      9.58390        -0.565439      0.916289     -0.852471
      2.24633      0.73197      3.71178        -0.451442      0.717768      2.373080
      0.63446      0.67333     11.21350        -1.269021     -1.151153      0.555856
      4.99757      5.28044      1.29244        -1.113163      1.047049     -1.629897
      4.76861      3.35453      2.93606         0.218123     -0.908997      1.143194
      5.35228      2.40903      5.87212        -0.002983      0.106881      0.100725
      5.93595      1.46353      8.80817         0.107518      0.042598     -1.197000
      1.87746      3.73836      5.87212         0.067719     -0.030373      0.018393
      2.46113      2.79286      8.80817        -0.113993     -0.079765     -1.209262
      3.02111      2.14664     11.21350         1.624338      0.619235      0.557934
      6.92203      4.68386      2.93606         1.023162     -0.857173      3.732924
     10.98051      4.81788      6.64784         0.053165     -0.115465      0.039936
     11.56418      3.87238      9.58390        -0.585907      0.921851     -0.875829
      7.87456      0.73197      3.71178        -0.638411      0.316459      1.456221
      6.26269      0.67333     11.21350        -1.266935     -1.149055      0.565508
      9.90871      4.13739      0.53169        -0.785338     -0.089365     -1.187217
     10.39684      3.35453      2.93606        -0.297284     -0.024414      1.471102
     10.98051      2.40903      5.87212        -0.012028     -0.074519      0.021230
     11.56418      1.46353      8.80817         0.091529      0.048328     -1.214981
      7.50570      3.73836      5.87212        -0.081190     -0.058354      0.029203
      8.08937      2.79286      8.80817        -0.033601     -0.101243     -1.185887
      8.64934      2.14664     11.21350         1.588316      0.617146      0.524771
     12.55026      4.68386      2.93606         0.128368      0.310290      1.293691
      8.20571      0.31129      1.28770        -0.440395      1.466774     -1.581724
      7.87456      9.84929      6.64784         0.096880     -0.193351     -0.096583
      8.45823      8.90379      9.58390        -0.569994      0.895609     -0.805707
      4.76861      5.76338      3.71178        -0.001711      0.697681      1.475950
      3.15674      5.70474     11.21350        -1.248503     -1.117451      0.525122
      2.48757      0.34503      1.34243        -0.556487      0.881831     -1.837686
      7.29089      8.38594      2.93606        -0.173265     -1.021474      1.602900
      7.87456      7.44044      5.87212        -0.045013      0.012726      0.096693
      8.45823      6.49494      8.80817         0.093460      0.010461     -1.208036
      4.39975      8.76977      5.87212        -0.095481      0.033672      0.099834
      4.98341      7.82427      8.80817        -0.115223     -0.090516     -1.195681
      5.54339      7.17805     11.21350         1.623089      0.619748      0.565846
      9.44431      9.71527      2.93606         1.004476     -0.295944      1.614480
      7.45257      5.39755      0.79788         0.576510      0.405204     -1.344468
     13.50279      9.84929      6.64784         0.125322     -0.122371     -0.053217
     14.08646      8.90379      9.58390        -0.587842      0.900818     -0.848362
      9.62627      7.01869      1.86726         0.147855     -0.267811     -0.971012
     10.39684      5.76338      3.71178         0.177047     -0.288930      1.253186
      8.78498      5.70474     11.21350        -1.242290     -1.155799      0.564007
     12.03609      8.24560      0.79872        -0.667482     -0.404277     -1.294354
     12.91912      8.38594      2.93606         0.329209     -1.312309      3.717530
     13.50279      7.44044      5.87212         0.067087      0.052290      0.028214
     14.08646      6.49494      8.80817         0.079194     -0.031623     -1.185629
     10.02798      8.76977      5.87212         0.014309      0.033384      0.098085
     10.61165      7.82427      8.80817        -0.076764     -0.098510     -1.209131
     11.17162      7.17804     11.21350         1.617509      0.593286      0.563951
     15.07254      9.71527      2.93606         0.730681     -0.595362      1.113513
     11.90058      5.47574      0.51227         0.257525      0.654801     -1.253489
      1.66190      1.67871      7.01153         0.105177     -0.142767      0.021308
      2.24556      0.73321      9.94759         0.769577     -1.249327     -2.086809
      6.23641      3.68758      1.26264         0.493724     -2.760718     -2.886569
      6.70646      2.62422      4.07548         0.060403     -0.102491     -0.082246
      4.36853      6.41149     12.63871         0.179202     -0.272929      2.909428
      2.15885      3.92719     10.59781         0.133362      0.867174      1.393574
      7.29013      4.74605      7.99931        -0.088670      0.161683     -0.701715
      3.70511      1.59141      2.43183         0.671971      1.699944     -1.284145
[...]
      7.07033      8.08475      7.99931        -0.093987      0.213992     -0.645953
      7.57966      7.27352     10.59782        -0.848850      0.290926      1.386665
      9.81241      6.71012      7.01153         0.116348     -0.167410      0.005850
     10.39608      5.76462      9.94759         0.770488     -1.251909     -2.026051
     14.11721      8.55069      1.26262         2.214547     -1.641686     -2.859412
     14.85697      7.65563      4.07548         0.082822     -0.088606     -0.085436
      7.47448      1.38008     12.63871         0.177222     -0.272966      2.912218
     10.30936      8.95859     10.59782         0.132505      0.891566      1.384244
     15.44064      9.77746      7.99931        -0.091666      0.138290     -0.677329
     11.75102      6.63706      2.12720         0.556852      0.896155      0.892408
     12.33469      5.69156      5.06325         0.035443     -0.007925      0.129044
     11.50186      9.78776      2.23478        -1.780306      1.329953     -0.398125
     12.11489      9.03025      5.06325        -0.083570     -0.084037      0.174047
     12.69856      8.08475      7.99931        -0.092115      0.166429     -0.690325
     13.20788      7.27352     10.59781        -0.838529      0.298814      1.395505
    total drift:                               -0.138379      0.122966     -0.118963

  FREE ENERGIE OF THE ION-ELECTRON SYSTEM (eV)
  free  energy   TOTEN  =      -512.65269430 eV

  energy  without entropy=     -511.11826454  energy(sigma->0) =     -511.88547942