 vasp.5.4.4.18Apr17-6-g9f103f2a35 (build Aug 13 2019 17:33:20) gamma-only

 executed on             LinuxIFC date 2020.05.11  13:25:50

 INCAR:
 POTCAR:    PAW_PBE Ni_pv 06Sep2000
 POTCAR:    PAW_PBE S 06Sep2000
 POTCAR:    PAW_PBE Ni_pv 06Sep2000
   VRHFIN =Ni:

   TITEL  = PAW_PBE Ni_pv 06Sep2000
   POMASS =   58.690; ZVAL   =   16.000    mass and valenz
   ENMAX  =  367.986; ENMIN  =  275.989 eV

 POTCAR:    PAW_PBE S 06Sep2000
   VRHFIN =S : s2p4

   TITEL  = PAW_PBE S 06Sep2000
   POMASS =   32.066; ZVAL   =    6.000    mass and valenz
   ENMAX  =  258.689; ENMIN  =  194.016 eV

 Optimization of the real space projectors (new method)

 maximal supplied QI-value         = 18.90
 optimisation between [QCUT,QGAM] = [ 10.77, 21.73] = [ 32.49,132.25] Ry
 Optimized for a Real-space Cutoff    1.38 Angstroem

   l    n(q)    QCUT    max X(q) W(low)/X(q) W(high)/X(q)  e(spline)
   1      8    10.771     2.836    0.40E-04    0.29E-04    0.12E-06
   1      8    10.771     4.023    0.10E-03    0.48E-04    0.29E-06
   2      8    10.771    73.368    0.42E-03    0.97E-04    0.44E-06
   2      8    10.771    69.010    0.42E-03    0.99E-04    0.45E-06
   0      9    10.771    54.797    0.10E-03    0.56E-04    0.74E-07
   0      9    10.771    24.266    0.89E-04    0.49E-04    0.67E-07
 Optimization of the real space projectors (new method)

 maximal supplied QI-value         = 19.84
 optimisation between [QCUT,QGAM] = [ 10.71, 21.63] = [ 32.15,130.99] Ry
 Optimized for a Real-space Cutoff    1.19 Angstroem

   l    n(q)    QCUT    max X(q) W(low)/X(q) W(high)/X(q)  e(spline)
   0      8    10.715   187.594    0.41E-03    0.53E-04    0.66E-07
   0      8    10.715   164.243    0.41E-03    0.53E-04    0.65E-07
   1      7    10.715    67.533    0.19E-03    0.59E-03    0.68E-07
   1      7    10.715    50.729    0.19E-03    0.58E-03    0.67E-07
  PAW_PBE Ni_pv 06Sep2000               :
  PAW_PBE S 06Sep2000                   :

 POSCAR: Type_048 Type_148
  positions in cartesian coordinates
 exchange correlation table for  LEXCH =        8
   RHO(1)=    0.500       N(1)  =     2000
   RHO(2)=  100.500       N(2)  =     4000

 ion  position               nearest neighbor table
   1  0.261  0.479  0.295-  73 2.25  58 2.26  80 2.26  59 2.36  54 2.36   7 2.53  21 2.53
   2  0.355  0.385  0.426-  74 2.23  54 2.26  59 2.26  60 2.36  65 2.36   8 2.53  22 2.53
   3  0.461  0.279  0.537-  65 1.99  60 2.01  17 2.44  23 2.53
   4  0.167  0.073  0.165-  55 2.10  81 2.12  64 2.25  56 2.36  82 2.36  30 2.46  36 2.53  31 2.53

   5  0.026  0.048  0.491-  72 2.04  50 2.05  77 2.06  20 2.47
   6  0.274  0.333  0.130-  51 2.05  57 2.08  55 2.16  52 2.36  58 2.36  12 2.53  29 2.53
   7  0.368  0.239  0.261-  56 2.25  58 2.26  52 2.26  59 2.36  61 2.36   1 2.53  21 2.53
   8  0.462  0.145  0.391-  78 2.25  59 2.26  61 2.26  60 2.36  62 2.36   2 2.53  22 2.53
   9  0.000  0.372  0.261-  58 2.25  64 2.26  92 2.26  49 2.36  66 2.36  19 2.53  13 2.53
  10  0.094  0.278  0.391-  53 2.07  59 2.25  49 2.26  66 2.26  50 2.36  11 2.52  14 2.53  20 2.53

[...]

  43  0.868  0.739  0.261-  92 2.25  94 2.26  88 2.26  95 2.36  73 2.36  37 2.53  34 2.53
  44  0.962  0.645  0.391-  96 2.09  74 2.15  66 2.25  95 2.26  73 2.26  38 2.53  35 2.53
  45  0.500  0.872  0.261-  94 2.25  76 2.26  56 2.26  85 2.36  78 2.36  32 2.53  26 2.53
  46  0.594  0.778  0.391-  95 2.25  85 2.26  78 2.26  89 2.36  86 2.36  27 2.53  33 2.53
  47  0.694  0.702  0.497-  89 2.03  86 2.03  96 2.08
  48  0.906  0.965  0.130-  87 2.06  81 2.14  67 2.26  88 2.36  68 2.36  16 2.53  42 2.53
  49  0.073  0.167  0.311-  26 2.25  10 2.26  20 2.26   9 2.36  19 2.36
  50  0.167  0.073  0.442-  11 2.02   5 2.05  27 2.25  10 2.36  20 2.36
  51  0.365  0.375  0.060-  15 2.03  12 2.05   6 2.05
  52  0.479  0.261  0.181-  15 2.11  16 2.25   7 2.26  21 2.26  12 2.36   6 2.36
  53  0.019  0.376  0.470-  11 2.01  14 2.06  10 2.07
  54  0.436  0.472  0.355-  33 2.25   2 2.26  22 2.26   1 2.36  21 2.36
  55  0.256  0.156  0.107-  30 2.07   4 2.10  36 2.12   6 2.16
  56  0.342  0.066  0.225-   7 2.25  26 2.26  45 2.26   4 2.36  36 2.36
  57  0.083  0.480  0.113-  29 2.07   6 2.08  24 2.10  58 2.73
  58  0.174  0.397  0.225-   9 2.25   1 2.26   7 2.26   6 2.36  29 2.36  57 2.73
  59  0.268  0.303  0.355-  10 2.25   8 2.26   2 2.26   7 2.36   1 2.36
  60  0.362  0.209  0.486-   3 2.01  17 2.06  11 2.06   8 2.36   2 2.36
  61  0.573  0.167  0.311-  37 2.25  22 2.26   8 2.26  21 2.36   7 2.36
  62  0.667  0.073  0.442-  17 2.02  23 2.03  38 2.25  22 2.36   8 2.36
  63  0.854  0.386  0.063-  18 1.99  24 1.99
  64  0.979  0.261  0.181-   4 2.25  19 2.26   9 2.26  24 2.36  18 2.36
  65  0.530  0.378  0.486-   3 1.99  41 2.05  23 2.06  22 2.36   2 2.36
  66  0.936  0.472  0.355-  44 2.25  14 2.26  10 2.26  13 2.36   9 2.36
  67  0.748  0.160  0.094-  25 2.04  15 2.21  18 2.25  16 2.26  48 2.26
  68  0.842  0.066  0.225-  19 2.25  37 2.26  34 2.26  16 2.36  48 2.36
  69  0.583  0.479  0.112-  40 2.07  18 2.08  12 2.11  70 2.74
  70  0.674  0.397  0.225-  21 2.25  13 2.26  19 2.26  18 2.36  40 2.36  69 2.74
  71  0.768  0.303  0.355-  22 2.25  20 2.26  14 2.26  19 2.36  13 2.36
  72  0.862  0.221  0.473-   5 2.04  23 2.08  14 2.10  20 2.13
  73  0.073  0.667  0.311-   1 2.25  35 2.26  44 2.26  34 2.36  43 2.36  74 2.63
  74  0.167  0.572  0.417-  44 2.15  35 2.16   2 2.23  73 2.63
  75  0.387  0.853  0.063-  30 2.01  36 2.06  31 2.06
  76  0.479  0.761  0.181-  40 2.25  32 2.26  45 2.26  36 2.36  31 2.36
  77  0.026  0.869  0.473-  39 2.00   5 2.06  35 2.09  38 2.14
  78  0.436  0.972  0.355-   8 2.25  27 2.26  46 2.26  26 2.36  45 2.36
  79  0.260  0.657  0.112-  29 2.07  12 2.08  31 2.10  80 2.73
  80  0.342  0.566  0.225-  32 2.25   1 2.26  21 2.26  29 2.36  12 2.36  79 2.73
  81  0.082  0.982  0.107-  30 2.06   4 2.12  31 2.12  48 2.14
  82  0.174  0.897  0.225-  34 2.25  26 2.26  32 2.26  31 2.36   4 2.36
  83  0.268  0.803  0.355-  35 2.25  33 2.26  27 2.26  32 2.36  26 2.36  84 2.78
  84  0.354  0.720  0.470-  28 2.02  41 2.07  33 2.11  27 2.12  83 2.78
  85  0.573  0.667  0.311-  13 2.25  46 2.26  33 2.26  45 2.36  32 2.36
  86  0.667  0.573  0.442-  41 2.03  47 2.03  14 2.25  46 2.36  33 2.36
  87  0.895  0.845  0.064-  25 2.01  42 2.05  48 2.06
  88  0.979  0.761  0.181-  29 2.25  43 2.26  34 2.26  48 2.36  42 2.36
  89  0.530  0.878  0.486-  28 1.99  47 2.03  17 2.07  46 2.36  27 2.36
  90  0.936  0.972  0.355-  20 2.25  38 2.26  35 2.26  37 2.36  34 2.36
  91  0.760  0.657  0.113-  40 2.07  24 2.08  42 2.09  92 2.72
  92  0.842  0.566  0.225-  43 2.25  13 2.26   9 2.26  40 2.36  24 2.36  91 2.72
  93  0.574  0.001  0.104-  25 2.06  16 2.09  36 2.17  42 2.27  15 2.32
  94  0.674  0.897  0.225-  45 2.25  37 2.26  43 2.26  42 2.36  16 2.36
  95  0.768  0.803  0.355-  46 2.25  44 2.26  38 2.26  43 2.36  37 2.36
  96  0.867  0.713  0.472-  39 2.00  47 2.08  44 2.09  38 2.15

  LATTYP: Found a base centered orthorhombic cell.
 ALAT       =    11.8257374459
 B/A-ratio  =     1.6199260857
 C/A-ratio  =     1.9043172636

  Lattice vectors:

 A1 = (  11.2564630382,   0.0000000000,   0.0000000000)
 A2 = (  -5.0445621212, -10.0628203371,   0.0000000000)
 A3 = (   0.0000000000,   0.0000000000, -22.5199559732)

Analysis of symmetry for initial positions (statically):
 Subroutine PRICEL returns:
 Original cell was already a primitive cell.

 Routine SETGRP: Setting up the symmetry group for a
 base centered orthorhombic supercell.

 Subroutine GETGRP returns: Found  1 space group operations
 (whereof  1 operations were pure point group operations)
 out of a pool of  8 trial point group operations.

The static configuration has the point symmetry C_1 .

Analysis of symmetry for dynamics (positions and initial velocities):
 Subroutine PRICEL returns:
 Original cell was already a primitive cell.

 Routine SETGRP: Setting up the symmetry group for a
 base centered orthorhombic supercell.

 Subroutine GETGRP returns: Found  1 space group operations
 (whereof  1 operations were pure point group operations)
 out of a pool of  8 trial point group operations.

The dynamic configuration has the point symmetry C_1 .

 Subroutine INISYM returns: Found  1 space group operations
 (whereof  1 operations are pure point group operations),
 and found     1 'primitive' translations

 KPOINTS: gamma-point-only calculation. no periodi

Automatic generation of k-mesh.
Space group operators:
 irot       det(A)        alpha          n_x          n_y          n_z        tau_x        tau_y        tau_z
    1     1.000000     0.000000     1.000000     0.000000     0.000000     0.000000     0.000000     0.000000

 Subroutine IBZKPT returns following result:

 Found      1 irreducible k-points:

 Following reciprocal coordinates:
            Coordinates               Weight
  0.000000  0.000000  0.000000      1.000000

 Following cartesian coordinates:
            Coordinates               Weight
  0.000000  0.000000  0.000000      1.000000

 SYSTEM =  "Millerite NiS"
 POSCAR =  Type_048 Type_148

 Startparameter for this run:
   NWRITE =      2    write-flag & timer
   PREC   = normal    normal or accurate (medium, high low for compatibility)
   ISTART =      0    job   : 0-new  1-cont  2-samecut
   ICHARG =      2    charge: 1-file 2-atom 10-const
   ISPIN  =      1    spin polarized calculation?
   LNONCOLLINEAR =      F non collinear calculations
   LSORBIT =      F    spin-orbit coupling
   INIWAV =      1    electr: 0-lowe 1-rand  2-diag
   LASPH  =      F    aspherical Exc in radial PAW
   METAGGA=      F    non-selfconsistent MetaGGA calc.

 Electronic Relaxation 1
   ENCUT  =  450.0 eV  33.07 Ry    5.75 a.u.  19.47 19.47 38.95*2*pi/ulx,y,z
   ENINI  =  450.0     initial cutoff
   ENAUG  =  703.4 eV  augmentation charge cutoff
   NELM   =    100;   NELMIN=  2; NELMDL= -5     # of ELM steps
   EDIFF  = 0.1E-03   stopping-criterion for ELM
   LREAL  =      T    real-space projection
   NLSPLINE    = F    spline interpolate recip. space projectors
   LCOMPAT=      F    compatible to vasp.4.4
   GGA_COMPAT  = T    GGA compatible to vasp.4.4-vasp.4.6
   LMAXPAW     = -100 max onsite density
   LMAXMIX     =    2 max onsite mixed and CHGCAR
   VOSKOWN=      0    Vosko Wilk Nusair interpolation
   ROPT   =   -0.00050  -0.00050
 Ionic relaxation
   EDIFFG = 0.1E-02   stopping-criterion for IOM
   NSW    =      0    number of steps for IOM
   NBLOCK =      1;   KBLOCK =      1    inner block; outer block
   IBRION =     -1    ionic relax: 0-MD 1-quasi-New 2-CG
   NFREE  =      0    steps in history (QN), initial steepest desc. (CG)
   ISIF   =      2    stress and relaxation
   IWAVPR =     10    prediction:  0-non 1-charg 2-wave 3-comb
   ISYM   =      2    0-nonsym 1-usesym 2-fastsym
   LCORR  =      T    Harris-Foulkes like correction to forces

   POTIM  = 0.5000    time-step for ionic-motion
   TEIN   =    0.0    initial temperature
   TEBEG  =    0.0;   TEEND  =   0.0 temperature during run
   SMASS  =  -3.00    Nose mass-parameter (am)
   estimated Nose-frequenzy (Omega)   =  0.10E-29 period in steps =****** mass=  -0.290E-26a.u.
   SCALEE = 1.0000    scale energy and forces
[...]
     0.000000000  0.000000000 22.519955973     0.000000000  0.000000000  0.044405060

  length of vectors
    11.256463038 11.256463038 22.519955973     0.099375718  0.099375718  0.044405060

 FORCES acting on ions
    electron-ion (+dipol)            ewald-force                    non-local-force                 convergence-correction
   0.295E+03 -.453E+03 -.205E+03   -.295E+03 0.454E+03 0.204E+03   0.369E+00 -.617E+00 0.467E+00   0.673E-01 -.164E-03 0.143E+00
   0.528E+03 -.770E+03 -.362E+04   -.528E+03 0.770E+03 0.362E+04   0.236E+00 -.196E+00 0.142E+01   -.517E-01 0.142E+00 -.833E-01
   0.365E+03 -.613E+03 -.606E+04   -.362E+03 0.607E+03 0.606E+04   -.283E+01 0.546E+01 0.373E+01   -.102E+00 0.170E+00 0.165E+00
   0.387E+03 -.562E+03 0.293E+04   -.390E+03 0.566E+03 -.293E+04   0.193E+01 -.311E+01 -.112E+01   0.314E-01 -.384E-01 0.566E+00
   -.151E+03 0.252E+03 -.548E+04   0.150E+03 -.253E+03 0.548E+04   0.540E+00 0.114E+01 0.187E+01   0.513E-01 -.241E+00 0.150E+00
   0.606E+03 0.982E+02 0.436E+04   -.610E+03 -.998E+02 -.436E+04   0.289E+01 0.548E+00 0.364E+01   0.280E+00 0.127E-01 0.697E-01
   0.321E+03 0.379E+03 0.881E+03   -.322E+03 -.380E+03 -.880E+03   0.141E+01 0.995E+00 -.592E+00   0.118E+00 -.338E-01 0.112E+00
   0.340E+03 0.338E+03 -.214E+04   -.341E+03 -.339E+03 0.214E+04   0.113E+01 0.749E+00 0.249E+01   -.493E-01 -.444E-01 -.126E+00
   -.512E+03 -.648E+02 0.986E+03   0.513E+03 0.652E+02 -.987E+03   -.812E+00 -.332E+00 0.878E+00   0.330E-01 0.434E-01 0.183E+00
   -.496E+03 -.186E+03 -.228E+04   0.499E+03 0.186E+03 0.228E+04   -.287E+01 -.391E+00 0.982E+00   0.422E-01 -.444E-01 0.200E+00
   -.144E+02 -.231E+03 -.553E+04   0.149E+02 0.231E+03 0.553E+04   0.792E-01 -.677E+00 0.919E+00   -.135E+00 -.451E-01 0.138E+00
   -.444E+03 -.528E+03 0.439E+04   0.448E+03 0.531E+03 -.439E+04   -.336E+01 -.250E+01 0.320E+01   0.573E-01 -.262E+00 0.275E-01
   0.193E+03 -.408E+03 -.136E+03   -.193E+03 0.409E+03 0.136E+03   0.624E+00 -.125E+01 -.336E+00   -.485E-01 0.935E-01 0.143E+00
   0.706E+02 -.511E+03 -.373E+04   -.725E+02 0.514E+03 0.373E+04   0.105E+01 -.234E+01 -.274E+01   0.802E-01 0.722E-01 0.126E+00
   0.786E+02 -.344E+03 0.545E+04   -.792E+02 0.345E+03 -.545E+04   0.925E+00 -.195E+01 0.755E+01   0.113E+00 -.708E-01 0.319E-02
   0.657E+02 -.190E+03 0.259E+04   -.642E+02 0.190E+03 -.258E+04   -.939E+00 -.223E+00 -.373E+01   0.129E-01 0.193E-02 -.831E-01
   0.124E+03 0.453E+03 -.533E+04   -.125E+03 -.453E+03 0.533E+04   0.452E+00 0.363E+00 -.298E-01   -.106E+00 -.362E+00 0.241E-01
   0.305E+02 0.279E+03 0.442E+04   -.315E+02 -.282E+03 -.442E+04   0.630E+00 0.175E+01 0.421E+01   -.205E+00 -.318E-01 0.417E-01
   0.182E+03 0.405E+03 0.987E+03   -.183E+03 -.405E+03 -.988E+03   0.745E+00 0.807E+00 0.930E+00   -.959E-01 -.473E-01 0.128E+00
   0.137E+03 0.349E+03 -.216E+04   -.138E+03 -.351E+03 0.215E+04   0.147E+01 0.238E+01 0.175E+01   0.671E-01 -.119E+00 0.102E+00
   -.512E+03 -.117E+03 0.903E+03   0.513E+03 0.118E+03 -.903E+03   -.154E+01 -.786E+00 -.338E+00   -.358E-01 -.550E-01 0.104E+00
   -.463E+03 -.136E+03 -.212E+04   0.464E+03 0.137E+03 0.212E+04   -.887E+00 -.763E+00 0.258E+01   -.335E-02 0.449E-01 -.137E+00
   -.634E+03 0.495E+02 -.534E+04   0.636E+03 -.492E+02 0.534E+04   -.163E+01 -.309E+00 0.115E+01   0.223E+00 -.854E-01 -.284E-02
   -.510E+03 -.783E+02 0.453E+04   0.515E+03 0.776E+02 -.453E+04   -.392E+01 0.433E+00 0.429E+01   -.301E-01 0.132E+00 0.546E-01
   -.841E+01 0.164E+03 0.633E+04   0.955E+01 -.167E+03 -.634E+04   -.180E+01 0.341E+01 0.575E+01   -.865E-01 0.197E+00 0.229E+00
   0.281E+03 -.384E+03 -.175E+03   -.282E+03 0.385E+03 0.174E+03   0.839E+00 -.128E+01 -.103E+00   0.717E-01 -.111E+00 0.162E+00
   0.445E+03 -.521E+03 -.339E+04   -.445E+03 0.524E+03 0.339E+04   0.516E+00 -.232E+01 0.279E+00   -.297E-01 -.155E+00 0.274E+00
   0.454E+03 -.283E+03 -.610E+04   -.452E+03 0.277E+03 0.610E+04   -.157E+01 0.647E+01 0.347E+01   -.669E-01 -.139E+00 -.189E-02
   0.339E+03 -.504E+03 0.341E+04   -.341E+03 0.508E+03 -.341E+04   0.201E+01 -.341E+01 0.178E+01   -.172E-01 0.132E-01 0.128E+00
   0.314E+03 -.364E+03 0.621E+04   -.314E+03 0.365E+03 -.622E+04   -.366E+00 0.835E+00 0.577E+01   0.107E-01 0.560E-01 0.622E-01
   0.327E+03 0.817E+03 0.423E+04   -.330E+03 -.823E+03 -.423E+04   0.230E+01 0.462E+01 0.162E+01   -.396E-01 -.239E+00 0.496E+00
   0.264E+03 0.481E+03 0.993E+03   -.265E+03 -.482E+03 -.994E+03   0.756E+00 0.519E+00 0.710E+00   0.470E-01 0.713E-01 0.237E+00
   0.378E+03 0.449E+03 -.210E+04   -.378E+03 -.451E+03 0.209E+04   0.663E+00 0.200E+01 0.184E+01   -.818E-02 0.108E+00 0.244E+00
   -.538E+03 0.580E+02 0.961E+03   0.539E+03 -.577E+02 -.963E+03   -.673E+00 -.394E+00 0.120E+01   -.994E-01 0.167E-01 0.161E+00
   -.553E+03 0.221E+03 -.256E+04   0.557E+03 -.222E+03 0.256E+04   -.395E+01 0.620E+00 -.105E+01   -.868E-01 -.221E-02 0.259E+00
   -.623E+03 0.228E+03 0.415E+04   0.627E+03 -.229E+03 -.415E+04   -.267E+01 0.331E+00 0.157E+01   0.425E+00 -.307E-01 0.507E+00
   0.204E+03 -.333E+03 -.172E+03   -.205E+03 0.334E+03 0.171E+03   0.715E+00 -.132E+01 0.273E+00   -.965E-02 -.530E-01 0.565E-01
   0.140E+03 -.230E+03 -.329E+04   -.143E+03 0.235E+03 0.329E+04   0.203E+01 -.316E+01 -.104E+01   0.167E+00 -.298E+00 0.405E+00
   -.249E+03 0.370E+03 -.599E+04   0.252E+03 -.375E+03 0.598E+04   -.304E+01 0.497E+01 0.870E+01   0.101E+00 -.163E+00 -.219E-01
   0.235E+03 -.460E+03 0.343E+04   -.238E+03 0.464E+03 -.343E+04   0.234E+01 -.365E+01 0.195E+01   0.583E-02 0.227E-01 0.119E+00
   0.194E+03 0.502E+03 -.533E+04   -.195E+03 -.503E+03 0.533E+04   0.743E+00 0.862E-01 -.136E+01   0.472E-01 0.475E+00 0.199E+00
   0.318E+03 0.930E+03 0.419E+04   -.320E+03 -.935E+03 -.419E+04   0.207E+01 0.440E+01 0.899E+00   0.294E-01 0.184E+00 0.174E+00
   0.212E+03 0.539E+03 0.980E+03   -.212E+03 -.540E+03 -.981E+03   0.745E+00 0.491E+00 0.119E+01   -.278E-02 0.149E+00 0.130E+00
   0.788E+02 0.658E+03 -.259E+04   -.801E+02 -.662E+03 0.259E+04   0.117E+01 0.389E+01 -.114E+01   0.887E-01 0.159E+00 0.267E+00
   -.488E+03 0.580E+02 0.982E+03   0.489E+03 -.577E+02 -.982E+03   -.890E+00 -.377E+00 0.659E+00   -.128E-01 0.316E-01 0.154E+00
   -.503E+03 0.187E+02 -.208E+04   0.504E+03 -.179E+02 0.208E+04   -.119E+01 -.873E+00 0.242E+01   -.775E-01 -.117E-01 0.152E+00
   -.625E+03 0.484E+03 -.537E+04   0.627E+03 -.484E+03 0.537E+04   -.173E+01 -.368E+00 0.122E+01   -.852E-01 0.536E-01 0.206E+00
   -.838E+03 0.118E+03 0.414E+04   0.842E+03 -.117E+03 -.414E+04   -.267E+01 -.355E+00 0.699E+00   -.357E+00 0.430E-01 0.231E+00
   -.771E+02 0.104E+03 -.325E+02   0.783E+02 -.106E+03 0.313E+02   -.111E+01 0.184E+01 0.125E+01   0.336E-01 -.506E-01 0.676E-01
   -.899E+02 0.156E+03 -.136E+04   0.911E+02 -.158E+03 0.136E+04   -.567E+00 0.649E+00 -.716E+00   0.297E-01 -.139E-01 0.743E-01
   0.126E+03 -.217E+03 0.248E+04   -.127E+03 0.218E+03 -.248E+04   0.424E+00 -.725E+00 0.171E+01   0.933E-01 -.101E+00 -.735E-02
   -.211E+02 0.291E+02 0.971E+03   0.216E+02 -.303E+02 -.969E+03   -.601E+00 0.124E+01 -.324E+00   0.563E-01 -.526E-01 -.251E-01
   -.107E+03 -.381E+03 -.201E+04   0.109E+03 0.385E+03 0.201E+04   -.144E+01 -.147E+01 -.828E+00   0.392E-01 -.167E-01 0.603E-01
   -.356E+02 -.178E+03 -.539E+03   0.368E+02 0.181E+03 0.539E+03   -.101E+01 -.269E+01 -.380E+00   0.719E-02 0.165E-01 0.241E-02
   -.166E+02 -.336E+03 0.189E+04   0.169E+02 0.338E+03 -.190E+04   -.912E-01 -.925E-01 0.145E+01   0.160E+00 0.784E-01 0.135E+00
   -.485E+02 -.148E+03 0.650E+03   0.491E+02 0.150E+03 -.651E+03   -.578E+00 -.223E+01 0.110E+01   0.495E-01 -.547E-01 0.995E-01
   0.145E+03 -.119E+03 0.200E+04   -.146E+03 0.122E+03 -.201E+04   -.322E+00 -.172E+01 0.389E+01   0.644E-02 0.379E-01 0.274E-02
   0.195E+03 -.372E+02 0.687E+03   -.198E+03 0.374E+02 -.688E+03   0.243E+01 -.331E+00 0.817E+00   0.410E-01 -.162E-02 0.804E-01
   0.193E+03 -.529E+02 -.556E+03   -.196E+03 0.527E+02 0.556E+03   0.278E+01 -.181E+00 -.424E+00   -.735E-03 -.474E-02 0.118E-01
   0.309E+03 -.120E+03 -.180E+04   -.312E+03 0.120E+03 0.180E+04   0.177E+01 0.450E+00 -.176E+01   -.199E+00 -.381E-02 -.325E-01
[...]
   0.207E+03 0.130E+02 -.547E+03   -.211E+03 -.130E+02 0.547E+03   0.308E+01 0.345E+00 -.663E+00   0.346E-02 0.587E-02 0.531E-01
   0.584E+03 0.247E+02 -.178E+04   -.591E+03 -.247E+02 0.178E+04   0.399E+01 -.297E+00 -.147E+00   0.105E+00 0.437E-01 0.139E+00
   -.759E+02 0.131E+03 -.842E+01   0.772E+02 -.133E+03 0.684E+01   -.112E+01 0.195E+01 0.147E+01   -.213E-01 0.390E-01 0.376E-01
   -.177E+03 0.246E+03 -.130E+04   0.178E+03 -.248E+03 0.130E+04   -.740E+00 0.822E+00 -.126E+01   -.561E-01 0.588E-01 0.901E-01
   -.266E+03 0.476E+03 0.231E+04   0.268E+03 -.480E+03 -.231E+04   -.798E+00 0.104E+01 0.970E+00   -.641E-01 0.619E-01 0.891E-01
   -.993E+02 0.191E+03 0.124E+04   0.100E+03 -.192E+03 -.124E+04   -.597E+00 0.987E+00 0.216E+01   -.583E-01 0.863E-01 0.428E-01
   -.532E+02 -.196E+03 -.180E+04   0.544E+02 0.198E+03 0.180E+04   -.633E+00 -.783E+00 -.210E+01   -.157E+00 -.166E+00 0.931E-01
   -.903E+02 -.117E+03 -.511E+03   0.916E+02 0.120E+03 0.511E+03   -.133E+01 -.282E+01 -.459E+00   -.184E-01 -.643E-01 0.484E-01
   0.278E+02 -.741E+02 0.199E+04   -.300E+02 0.762E+02 -.200E+04   0.194E+01 -.764E+00 0.346E+01   0.334E-01 0.674E-01 0.339E-01
   -.797E+02 -.142E+03 0.713E+03   0.809E+02 0.144E+03 -.713E+03   -.955E+00 -.222E+01 0.599E+00   -.382E-02 0.504E-01 0.563E-01
   0.349E+03 0.170E+03 0.187E+04   -.352E+03 -.171E+03 -.187E+04   0.759E+00 0.276E+00 0.738E+00   0.109E+00 0.614E-01 0.599E-01
   0.173E+03 0.548E+02 0.663E+03   -.176E+03 -.548E+02 -.663E+03   0.269E+01 -.883E-01 0.583E+00   0.208E-01 0.198E-01 0.269E-01
   0.139E+03 0.365E+02 -.509E+03   -.143E+03 -.365E+02 0.509E+03   0.297E+01 0.125E+00 -.615E+00   0.417E-01 0.911E-02 0.452E-01
   -.262E+02 0.355E+03 -.182E+04   0.248E+02 -.357E+03 0.182E+04   0.297E+00 0.857E+00 -.577E+00   0.163E+00 0.119E+00 0.157E+00
   0.151E+00 -.202E+01 -.105E+03   0.522E-12 -.682E-12 0.341E-11   -.747E+00 0.248E+01 0.955E+02   0.322E+00 -.403E+00 0.933E+01

 POSITION                                       TOTAL-FORCE (eV/Angst)
      5.35228      4.81788      6.64784         0.150169     -0.248911     -0.092592
      5.93595      3.87238      9.58390         0.045860     -0.052128     -0.102181
      6.60138      2.81241     12.10412        -0.013048      0.028961      1.411168
      2.24633      0.73197      3.71178        -0.515996      0.735992      2.299737
      0.53967      0.48299     11.05831        -0.008676     -0.413717      1.292888
      4.76861      3.35453      2.93606        -0.515931     -0.965240      1.789598
      5.35228      2.40903      5.87212        -0.154809     -0.046889     -0.028280
      5.93595      1.46353      8.80817         0.096026      0.064244     -0.197024
      1.87746      3.73836      5.87212        -0.152195      0.032741      0.068665
      2.46113      2.79286      8.80817         0.087080     -0.327538     -1.956648
      3.07940      2.11630     11.15712         0.509290     -0.278967      1.453800
      6.92203      4.68386      2.93606         0.938318      0.036658      1.926478
     10.98051      4.81788      6.64784         0.143644     -0.230675     -0.167487
     11.56418      3.87238      9.58390        -0.824304      0.786995     -1.324270
      7.10157      2.21544      2.04178         0.386668     -0.759385     -0.734236
      7.87456      0.73197      3.71178         0.610723      0.104765      2.223065
      6.38782      0.51987     11.30142         0.154043     -0.238972      1.156409
     10.39684      3.35453      2.93606        -0.596524     -1.572815      2.492822
     10.98051      2.40903      5.87212         0.031874      0.143512     -0.043233
     11.56418      1.46353      8.80817         0.083285      0.020878     -1.597428
      7.50570      3.73836      5.87212        -0.009213      0.093585      0.024965
      8.08937      2.79286      8.80817        -0.129839     -0.077172     -0.266327
      8.82778      2.00046     11.20762         0.202258     -0.068279      1.099076
     12.55026      4.68386      2.93606         1.301966     -0.155310      2.795130
      8.18462      0.10337      1.21896        -0.740834      0.469998     -2.086434
      7.87456      9.84929      6.64784         0.099402     -0.244834     -0.096041
      8.45823      8.90379      9.58390         0.231028      0.856005     -0.691654
      8.97592      7.87461     11.94407        -0.061125     -0.108033      1.470940
      4.76861      5.76338      3.71178        -0.344605      0.579048      1.991548
      2.54103      0.21704      1.32909        -0.718429      1.181583     -1.928648
      7.29089      8.38594      2.93606        -0.318270     -1.437821      2.317264
      7.87456      7.44044      5.87212         0.008511      0.087384      0.043929
      8.45823      6.49494      8.80817         0.343430     -0.186678     -1.427512
      4.39975      8.76977      5.87212        -0.079493     -0.100814     -0.102527
      4.98341      7.82427      8.80817         0.104265     -0.210291     -1.635821
      9.44431      9.71527      2.93606         1.629623     -0.227375      2.058870
     13.50279      9.84929      6.64784         0.105256     -0.220153     -0.123810
     14.08646      8.90379      9.58390        -0.724432      0.933469     -2.105648
     14.44262      8.27806     11.90479        -0.006636      0.070102      1.468458
     10.39684      5.76338      3.71178        -0.410065      0.494975      2.083173
      8.77834      5.62564     11.16340         0.043587     -0.157330      1.401018
     12.91912      8.38594      2.93606        -0.712145     -0.559905      2.037562
     13.50279      7.44044      5.87212         0.121364      0.104464     -0.051278
     14.08646      6.49494      8.80817         0.047609     -0.189515     -1.608426
     10.02798      8.76977      5.87212        -0.047011     -0.001352     -0.035678
     10.61165      7.82427      8.80817        -0.092910     -0.082751     -0.333325
     11.34918      7.05920     11.19170         0.386424     -0.250768      1.014098
     15.07254      9.71527      2.93606         0.921716      0.417241      1.758339
      1.66190      1.67871      7.01153         0.183160     -0.281793      0.063428
      2.24556      0.73321      9.94759         0.685565     -1.414723     -0.727094
      5.99718      3.77349      1.35104        -0.284776      0.197436     -4.076540
      6.70646      2.62422      4.07548        -0.000032      0.038605      1.366241
      2.10491      3.77955     10.59137         0.762963      2.229601      2.354325
      7.29013      4.74605      7.99931         0.221503     -0.256590     -0.087827
      3.67133      1.56828      2.41005         0.384944      1.843390     -1.470327
      4.18418      0.66015      5.06325         0.068905     -0.171864      0.544054
      3.35034      4.82598      2.53807        -1.140514      0.532944     -2.255314
      3.96438      3.99884      5.06325        -0.086626     -0.227964      0.757576
      4.54805      3.05334      7.99931         0.118301     -0.320823     -0.051186
      5.13172      2.10784     10.93537        -1.659241      0.350483     -0.494293
[...]
      6.48666      9.03025      5.06325         0.071394     -0.076560      0.772895
      7.07033      8.08475      7.99931        -0.024820      0.309397     -0.689161
      7.61548      7.24269     10.58782        -2.745603     -0.219623      1.392276
      9.81241      6.71012      7.01153         0.156500     -0.069611     -0.065824
     10.39608      5.76462      9.94759         0.831069     -1.484560     -1.247853
     14.33324      8.50234      1.45062         1.360081     -2.197006     -3.314866
     14.85697      7.65563      4.07548         0.128642     -0.035098      0.724037
     10.39608      8.83196     10.93537         0.397010      1.709986     -0.464308
     15.44064      9.77746      7.99931        -0.041586      0.294151     -0.286834
     11.87237      6.61502      2.54321        -0.194318      1.399400     -2.481065
     12.33469      5.69156      5.06325         0.279963      0.031122      0.794998
      6.46315      0.00839      2.35046        -1.885664     -0.551517     -1.113303
     12.11489      9.03025      5.06325         0.021003     -0.012070      0.392289
     12.69856      8.08475      7.99931        -0.322033      0.181625     -0.308505
     13.35331      7.17769     10.64067        -0.921768     -1.298325      1.919367
    total drift:                               -0.273733      0.057639      0.180817

  FREE ENERGIE OF THE ION-ELECTRON SYSTEM (eV)
  free  energy   TOTEN  =      -471.95824707 eV

  energy  without entropy=     -470.67931812  energy(sigma->0) =     -471.31878259