 vasp.5.4.4.18Apr17-6-g9f103f2a35 (build Aug 13 2019 17:33:20) gamma-only

 executed on             LinuxIFC date 2020.05.11  09:26:56

 INCAR:
 POTCAR:    PAW_PBE Ni_pv 06Sep2000
 POTCAR:    PAW_PBE S 06Sep2000
 POTCAR:    PAW_PBE Ni_pv 06Sep2000
   VRHFIN =Ni:

   TITEL  = PAW_PBE Ni_pv 06Sep2000
   POMASS =   58.690; ZVAL   =   16.000    mass and valenz
   ENMAX  =  367.986; ENMIN  =  275.989 eV

 POTCAR:    PAW_PBE S 06Sep2000
   VRHFIN =S : s2p4

   TITEL  = PAW_PBE S 06Sep2000
   POMASS =   32.066; ZVAL   =    6.000    mass and valenz
   ENMAX  =  258.689; ENMIN  =  194.016 eV

 Optimization of the real space projectors (new method)

 maximal supplied QI-value         = 18.90
 optimisation between [QCUT,QGAM] = [ 10.77, 21.73] = [ 32.49,132.25] Ry
 Optimized for a Real-space Cutoff    1.38 Angstroem

   l    n(q)    QCUT    max X(q) W(low)/X(q) W(high)/X(q)  e(spline)
   1      8    10.771     2.836    0.40E-04    0.29E-04    0.12E-06
   1      8    10.771     4.023    0.10E-03    0.48E-04    0.29E-06
   2      8    10.771    73.368    0.42E-03    0.97E-04    0.44E-06
   2      8    10.771    69.010    0.42E-03    0.99E-04    0.45E-06
   0      9    10.771    54.797    0.10E-03    0.56E-04    0.74E-07
   0      9    10.771    24.266    0.89E-04    0.49E-04    0.67E-07
 Optimization of the real space projectors (new method)

 maximal supplied QI-value         = 19.84
 optimisation between [QCUT,QGAM] = [ 10.71, 21.63] = [ 32.15,130.99] Ry
 Optimized for a Real-space Cutoff    1.19 Angstroem

   l    n(q)    QCUT    max X(q) W(low)/X(q) W(high)/X(q)  e(spline)
   0      8    10.715   187.594    0.41E-03    0.53E-04    0.66E-07
   0      8    10.715   164.243    0.41E-03    0.53E-04    0.65E-07
   1      7    10.715    67.533    0.19E-03    0.59E-03    0.68E-07
   1      7    10.715    50.729    0.19E-03    0.58E-03    0.67E-07
  PAW_PBE Ni_pv 06Sep2000               :
  PAW_PBE S 06Sep2000                   :

 POSCAR: Type_048 Type_148
  positions in cartesian coordinates
 exchange correlation table for  LEXCH =        8
   RHO(1)=    0.500       N(1)  =     2000
   RHO(2)=  100.500       N(2)  =     4000

 ion  position               nearest neighbor table
   1  0.261  0.479  0.295-  73 2.25  58 2.26  80 2.26  59 2.36  54 2.36   7 2.53  19 2.53
   2  0.355  0.385  0.426-  60 2.07  65 2.19  74 2.21  54 2.26  59 2.26   8 2.53  20 2.53
   3  0.989  0.192  0.093-  63 2.02  81 2.02  64 2.11  16 2.37   4 2.45  28 2.49
   4  0.167  0.073  0.165-  55 2.12  64 2.25  81 2.26  56 2.36  82 2.36   3 2.45  34 2.53  29 2.53

   5  0.029  0.032  0.486-  77 2.01  72 2.04  50 2.06  18 2.42
   6  0.274  0.333  0.130-  51 2.06  55 2.09  57 2.13  52 2.36  58 2.36  35 2.53  12 2.53  26 2.53

[...]

  48  0.701  0.523  0.054-  63 2.01  69 2.04  91 2.05  38 2.47
  49  0.073  0.167  0.311-  24 2.25  10 2.26  18 2.26   9 2.36  17 2.36
  50  0.167  0.073  0.442-  11 2.05   5 2.06  25 2.25  10 2.36  18 2.36
  51  0.384  0.356  0.062-  35 2.01  12 2.06   6 2.06
  52  0.479  0.261  0.181-  15 2.25   7 2.26  19 2.26  12 2.36   6 2.36
  53  0.020  0.376  0.473-  27 2.03  11 2.04  14 2.11  10 2.13
  54  0.436  0.472  0.355-  31 2.25   2 2.26  20 2.26   1 2.36  19 2.36
  55  0.258  0.161  0.109-  28 2.04   6 2.09   4 2.12  34 2.14
  56  0.342  0.066  0.225-   7 2.25  24 2.26  45 2.26   4 2.36  34 2.36
  57  0.081  0.483  0.107-  35 2.06  26 2.12  22 2.13   6 2.13
  58  0.174  0.397  0.225-   9 2.25   1 2.26   7 2.26   6 2.36  26 2.36
  59  0.268  0.303  0.355-  10 2.25   8 2.26   2 2.26   7 2.36   1 2.36
  60  0.371  0.218  0.471-  11 2.01   8 2.05   2 2.07  65 2.75
  61  0.573  0.167  0.311-  36 2.25  20 2.26   8 2.26  19 2.36   7 2.36  62 2.75
  62  0.665  0.070  0.423-  21 2.04   8 2.17  37 2.22  20 2.22  61 2.75
  63  0.884  0.371  0.054-  48 2.01   3 2.02  22 2.09  16 2.26
  64  0.979  0.261  0.181-   3 2.11   4 2.25  17 2.26   9 2.26  22 2.36  16 2.36
  65  0.534  0.341  0.477-  40 2.03  20 2.08  21 2.11   2 2.19  60 2.75
  66  0.936  0.472  0.355-  44 2.25  14 2.26  10 2.26  13 2.36   9 2.36
  67  0.758  0.159  0.108-  23 2.01  16 2.11  15 2.12  47 2.13
  68  0.842  0.066  0.225-  17 2.25  36 2.26  32 2.26  15 2.36  47 2.36
  69  0.578  0.485  0.109-  48 2.04  12 2.10  39 2.12  16 2.16
  70  0.674  0.397  0.225-  19 2.25  13 2.26  17 2.26  16 2.36  39 2.36
  71  0.768  0.303  0.355-  20 2.25  18 2.26  14 2.26  17 2.36  13 2.36
  72  0.880  0.221  0.477-  21 2.02   5 2.04  14 2.08  18 2.15
  73  0.073  0.667  0.311-   1 2.25  33 2.26  44 2.26  32 2.36  43 2.36  74 2.74
  74  0.171  0.575  0.422-  27 2.03  33 2.16   2 2.21  44 2.23  73 2.74
  75  0.368  0.861  0.055-  28 2.01  38 2.02  29 2.09  34 2.22
  76  0.479  0.761  0.181-  38 2.10  39 2.25  30 2.26  45 2.26  34 2.36  29 2.36
  77  0.023  0.859  0.473-   5 2.01  33 2.05  37 2.08  96 2.68
  78  0.436  0.972  0.355-   8 2.25  25 2.26  46 2.26  24 2.36  45 2.36  89 2.69
  79  0.256  0.657  0.107-  35 2.06  26 2.11  12 2.13  29 2.15
  80  0.342  0.566  0.225-  30 2.25   1 2.26  19 2.26  26 2.36  12 2.36
  81  0.080  0.991  0.094-   3 2.02  28 2.05  47 2.25  29 2.26   4 2.26
  82  0.174  0.897  0.225-  32 2.25  24 2.26  30 2.26  29 2.36   4 2.36
  83  0.268  0.803  0.355-  33 2.25  31 2.26  25 2.26  30 2.36  24 2.36
  84  0.412  0.706  0.476-  31 2.02  40 2.09  25 2.14  89 2.73
  85  0.573  0.667  0.311-  13 2.25  46 2.26  31 2.26  45 2.36  30 2.36  86 2.76
  86  0.668  0.575  0.424-  40 2.05  46 2.18  31 2.21  14 2.23  85 2.76
  87  0.881  0.859  0.058-  41 2.02  23 2.02  47 2.11  42 2.11
  88  0.979  0.761  0.181-  26 2.25  43 2.26  32 2.26  47 2.36  42 2.36
  89  0.517  0.881  0.466-  46 2.01  25 2.02  78 2.69  84 2.73
  90  0.936  0.972  0.355-  18 2.25  37 2.26  33 2.26  36 2.36  32 2.36
  91  0.748  0.660  0.094-  38 2.05  48 2.05  42 2.25  39 2.26  22 2.26
  92  0.842  0.566  0.225-  43 2.25  13 2.26   9 2.26  39 2.36  22 2.36
  93  0.581  0.983  0.108-  41 2.01  15 2.11  34 2.12  42 2.13
  94  0.674  0.897  0.225-  45 2.25  36 2.26  43 2.26  42 2.36  15 2.36
  95  0.768  0.803  0.355-  46 2.25  44 2.26  37 2.26  43 2.36  36 2.36
  96  0.892  0.710  0.474-  44 2.03  27 2.06  37 2.12  77 2.68

  LATTYP: Found a base centered orthorhombic cell.
 ALAT       =    11.8257374459
 B/A-ratio  =     1.6199260857
 C/A-ratio  =     1.9043172636

  Lattice vectors:

 A1 = (  11.2564630382,   0.0000000000,   0.0000000000)
 A2 = (  -5.0445621212, -10.0628203371,   0.0000000000)
 A3 = (   0.0000000000,   0.0000000000, -22.5199559732)

Analysis of symmetry for initial positions (statically):
 Subroutine PRICEL returns:
 Original cell was already a primitive cell.

 Routine SETGRP: Setting up the symmetry group for a
 base centered orthorhombic supercell.

 Subroutine GETGRP returns: Found  1 space group operations
 (whereof  1 operations were pure point group operations)
 out of a pool of  8 trial point group operations.

The static configuration has the point symmetry C_1 .

Analysis of symmetry for dynamics (positions and initial velocities):
 Subroutine PRICEL returns:
 Original cell was already a primitive cell.

 Routine SETGRP: Setting up the symmetry group for a
 base centered orthorhombic supercell.

 Subroutine GETGRP returns: Found  1 space group operations
 (whereof  1 operations were pure point group operations)
 out of a pool of  8 trial point group operations.

The dynamic configuration has the point symmetry C_1 .

 Subroutine INISYM returns: Found  1 space group operations
 (whereof  1 operations are pure point group operations),
 and found     1 'primitive' translations

 KPOINTS: gamma-point-only calculation. no periodi

Automatic generation of k-mesh.
Space group operators:
 irot       det(A)        alpha          n_x          n_y          n_z        tau_x        tau_y        tau_z
    1     1.000000     0.000000     1.000000     0.000000     0.000000     0.000000     0.000000     0.000000

 Subroutine IBZKPT returns following result:

 Found      1 irreducible k-points:

 Following reciprocal coordinates:
            Coordinates               Weight
  0.000000  0.000000  0.000000      1.000000

 Following cartesian coordinates:
            Coordinates               Weight
  0.000000  0.000000  0.000000      1.000000

 SYSTEM =  "Millerite NiS"
 POSCAR =  Type_048 Type_148

 Startparameter for this run:
   NWRITE =      2    write-flag & timer
   PREC   = normal    normal or accurate (medium, high low for compatibility)
   ISTART =      0    job   : 0-new  1-cont  2-samecut
   ICHARG =      2    charge: 1-file 2-atom 10-const
   ISPIN  =      1    spin polarized calculation?
   LNONCOLLINEAR =      F non collinear calculations
   LSORBIT =      F    spin-orbit coupling
   INIWAV =      1    electr: 0-lowe 1-rand  2-diag
   LASPH  =      F    aspherical Exc in radial PAW
   METAGGA=      F    non-selfconsistent MetaGGA calc.

 Electronic Relaxation 1
   ENCUT  =  450.0 eV  33.07 Ry    5.75 a.u.  19.47 19.47 38.95*2*pi/ulx,y,z
   ENINI  =  450.0     initial cutoff
   ENAUG  =  703.4 eV  augmentation charge cutoff
   NELM   =    100;   NELMIN=  2; NELMDL= -5     # of ELM steps
   EDIFF  = 0.1E-03   stopping-criterion for ELM
   LREAL  =      T    real-space projection
   NLSPLINE    = F    spline interpolate recip. space projectors
   LCOMPAT=      F    compatible to vasp.4.4
   GGA_COMPAT  = T    GGA compatible to vasp.4.4-vasp.4.6
   LMAXPAW     = -100 max onsite density
   LMAXMIX     =    2 max onsite mixed and CHGCAR
   VOSKOWN=      0    Vosko Wilk Nusair interpolation
   ROPT   =   -0.00050  -0.00050
 Ionic relaxation
   EDIFFG = 0.1E-02   stopping-criterion for IOM
   NSW    =      0    number of steps for IOM
   NBLOCK =      1;   KBLOCK =      1    inner block; outer block
   IBRION =     -1    ionic relax: 0-MD 1-quasi-New 2-CG
   NFREE  =      0    steps in history (QN), initial steepest desc. (CG)
   ISIF   =      2    stress and relaxation
   IWAVPR =     10    prediction:  0-non 1-charg 2-wave 3-comb
   ISYM   =      2    0-nonsym 1-usesym 2-fastsym
   LCORR  =      T    Harris-Foulkes like correction to forces

   POTIM  = 0.5000    time-step for ionic-motion
   TEIN   =    0.0    initial temperature
   TEBEG  =    0.0;   TEEND  =   0.0 temperature during run
   SMASS  =  -3.00    Nose mass-parameter (am)
   estimated Nose-frequenzy (Omega)   =  0.10E-29 period in steps =****** mass=  -0.290E-26a.u.
   SCALEE = 1.0000    scale energy and forces
   NPACO  =    256;   APACO  = 16.0  distance and # of slots for P.C.
   PSTRESS=    0.0 pullay stress

  Mass of Ions in am
   POMASS =  58.69 32.07
  Ionic Valenz
   ZVAL   =  16.00  6.00
  Atomic Wigner-Seitz radii
  virtual crystal weights
   VCA    =   1.00  1.00
   NELECT =    1056.0000    total number of electrons
   NUPDOWN=      -1.0000    fix difference up-down

 DOS related values:
   EMIN   =  10.00;   EMAX   =-10.00  energy-range for DOS
   EFERMI =   0.00
   ISMEAR =     0;   SIGMA  =   0.20  broadening in eV -4-tet -1-fermi 0-gaus

 Electronic relaxation 2 (details)
   IALGO  =     38    algorithm
   LDIAG  =      T    sub-space diagonalisation (order eigenvalues)
   LSUBROT=      F    optimize rotation matrix (better conditioning)
[...]
     0.000000000  0.000000000 22.519955973     0.000000000  0.000000000  0.044405060

  length of vectors
    11.256463038 11.256463038 22.519955973     0.099375718  0.099375718  0.044405060

 FORCES acting on ions
    electron-ion (+dipol)            ewald-force                    non-local-force                 convergence-correction
   0.226E+03 -.414E+03 -.927E+03   -.227E+03 0.415E+03 0.926E+03   0.567E+00 -.116E+01 0.483E+00   0.683E-01 -.655E-01 -.546E-01
   0.181E+03 -.484E+03 -.449E+04   -.182E+03 0.486E+03 0.449E+04   0.124E+01 -.129E+01 -.141E+01   0.762E-01 0.217E-01 0.208E+00
   -.531E+02 -.795E+02 0.498E+04   0.536E+02 0.787E+02 -.498E+04   0.630E-01 0.655E+00 0.476E+01   -.437E+00 -.123E+00 -.450E+00
   0.790E+02 -.265E+03 0.203E+04   -.795E+02 0.265E+03 -.202E+04   0.565E+00 -.223E+00 -.292E+01   -.122E+00 0.696E-01 -.249E+00
   -.149E+03 0.501E+03 -.585E+04   0.149E+03 -.505E+03 0.585E+04   0.581E+00 0.431E+01 0.247E+01   0.622E-01 0.302E-01 0.283E+00
   0.156E+03 0.571E+03 0.375E+04   -.157E+03 -.575E+03 -.375E+04   0.959E+00 0.225E+01 0.136E+01   0.125E+00 0.129E-01 -.402E+00
   0.209E+03 0.443E+03 0.202E+03   -.210E+03 -.443E+03 -.203E+03   0.673E+00 0.483E+00 0.836E+00   0.108E+00 -.372E-01 -.148E+00
   0.216E+03 0.649E+03 -.333E+04   -.218E+03 -.652E+03 0.333E+04   0.229E+01 0.307E+01 -.119E+01   -.423E-01 0.858E-01 0.882E-01
   -.568E+03 -.743E+02 0.146E+03   0.570E+03 0.756E+02 -.146E+03   -.123E+01 -.123E+01 -.181E+00   -.523E-01 0.999E-02 -.120E+00
   -.460E+03 -.130E+01 -.287E+04   0.462E+03 0.139E+01 0.287E+04   -.254E+01 -.699E-01 0.192E+01   0.420E-01 -.132E-01 0.161E+00
   -.345E+03 0.303E+03 -.589E+04   0.348E+03 -.304E+03 0.589E+04   -.281E+01 0.742E+00 0.284E+01   0.118E-01 0.184E-02 0.250E+00
   -.577E+03 0.113E+03 0.375E+04   0.580E+03 -.113E+03 -.375E+04   -.249E+01 0.206E+00 0.141E+01   0.206E-03 -.140E+00 -.395E+00
   0.225E+03 -.456E+03 -.993E+03   -.226E+03 0.457E+03 0.993E+03   0.502E+00 -.106E+01 0.533E+00   -.813E-01 -.185E-01 -.431E-01
   0.213E+03 -.670E+03 -.443E+04   -.215E+03 0.672E+03 0.443E+04   0.999E+00 -.178E+01 -.137E+01   -.109E+00 0.496E-01 0.197E+00
   0.375E+03 -.577E+03 0.244E+04   -.376E+03 0.579E+03 -.244E+04   0.148E+01 -.239E+01 0.328E+00   0.144E+00 -.126E-01 -.754E+00
   0.644E+03 0.323E+03 0.352E+04   -.647E+03 -.324E+03 -.352E+04   0.222E+01 0.196E+01 0.154E+00   -.195E+00 -.398E+00 -.428E+00
   0.276E+03 0.444E+03 0.108E+03   -.277E+03 -.444E+03 -.108E+03   0.113E+01 0.812E+00 0.313E+00   -.114E+00 0.115E-02 -.199E+00
   0.142E+03 0.417E+03 -.285E+04   -.144E+03 -.419E+03 0.284E+04   0.136E+01 0.210E+01 0.176E+01   0.431E-02 0.427E-01 0.122E+00
   -.453E+03 -.103E+02 0.221E+03   0.454E+03 0.108E+02 -.222E+03   -.695E+00 -.489E+00 0.798E+00   0.635E-01 -.914E-01 -.158E+00
   -.241E+03 -.328E+02 -.292E+04   0.244E+03 0.341E+02 0.292E+04   -.332E+01 -.129E+01 0.152E+01   0.859E-02 0.152E+00 0.139E+00
   0.193E+03 0.324E+03 -.577E+04   -.192E+03 -.322E+03 0.577E+04   -.167E+01 -.273E+01 0.297E+00   0.361E-02 0.166E+00 0.268E+00
   -.840E+03 -.234E+03 0.364E+04   0.843E+03 0.236E+03 -.364E+04   -.267E+01 -.119E+01 0.401E-01   0.476E-01 0.181E-01 -.336E+00
   -.175E+03 -.434E+03 0.612E+04   0.169E+03 0.433E+03 -.611E+04   0.670E+01 0.191E+01 -.220E+01   -.354E+00 -.734E-01 -.385E+00
   0.207E+03 -.347E+03 -.105E+04   -.208E+03 0.348E+03 0.105E+04   0.972E+00 -.119E+01 0.527E+00   0.986E-03 0.402E-01 -.228E-01
   0.179E+03 -.280E+03 -.458E+04   -.182E+03 0.285E+03 0.458E+04   0.186E+01 -.359E+01 -.252E+01   -.753E-01 -.298E-01 0.209E+00
   0.311E+03 -.512E+03 0.237E+04   -.313E+03 0.516E+03 -.237E+04   0.196E+01 -.320E+01 -.112E+01   -.490E-01 0.754E-01 -.421E+00
   -.151E+03 -.996E+02 -.585E+04   0.150E+03 0.100E+03 0.585E+04   0.188E+01 -.999E+00 0.142E+01   0.328E-01 -.992E-01 0.293E+00
   -.163E+03 -.215E+03 0.626E+04   0.163E+03 0.218E+03 -.626E+04   -.234E+00 -.249E+01 0.451E+01   -.108E+00 0.423E-01 -.393E+00
   0.574E+03 0.644E+03 0.364E+04   -.577E+03 -.646E+03 -.364E+04   0.249E+01 0.194E+01 0.107E+00   -.152E+00 -.275E-01 -.338E+00
   0.295E+03 0.461E+03 0.834E+02   -.296E+03 -.461E+03 -.833E+02   0.160E+01 0.489E+00 -.803E-01   0.197E-02 -.647E-01 -.590E-01
   0.324E+03 0.136E+03 -.311E+04   -.328E+03 -.138E+03 0.310E+04   0.360E+01 0.235E+01 0.166E+01   -.141E-02 -.155E+00 0.261E+00
   -.498E+03 0.575E+02 0.166E+03   0.498E+03 -.571E+02 -.166E+03   -.102E+01 -.406E+00 0.121E+01   -.328E-01 0.500E-01 -.261E+00
   -.609E+03 0.920E+02 -.331E+04   0.614E+03 -.911E+02 0.331E+04   -.462E+01 -.115E+01 -.123E+01   0.122E+00 -.222E-01 0.102E+00
   -.606E+03 -.390E+03 0.352E+04   0.609E+03 0.392E+03 -.352E+04   -.301E+01 -.926E+00 0.223E+00   0.367E+00 0.656E-01 -.373E+00
   0.218E+03 -.351E+03 0.614E+04   -.218E+03 0.352E+03 -.615E+04   -.465E+00 0.587E+00 0.594E+01   -.505E-01 0.879E-01 -.434E+00
   0.293E+03 -.336E+03 -.985E+03   -.294E+03 0.337E+03 0.984E+03   0.686E+00 -.104E+01 0.607E+00   0.142E-03 0.777E-01 -.254E+00
   0.539E+03 -.225E+03 -.455E+04   -.541E+03 0.228E+03 0.455E+04   0.119E+01 -.198E+01 -.175E+01   0.566E-02 0.533E-01 0.192E+00
   0.112E+03 -.308E+02 0.500E+04   -.110E+03 0.300E+02 -.501E+04   -.152E+01 0.322E+00 0.512E+01   0.245E+00 0.154E+00 -.421E+00
   0.190E+03 -.218E+03 0.201E+04   -.189E+03 0.218E+03 -.201E+04   -.245E+00 -.595E+00 -.301E+01   0.386E-01 -.539E-01 -.214E+00
   -.795E+02 -.134E+03 -.576E+04   0.776E+02 0.132E+03 0.576E+04   0.237E+01 0.264E+01 -.352E+00   -.214E-01 -.409E-01 0.255E+00
   0.505E+03 -.420E+02 0.610E+04   -.502E+03 0.468E+02 -.610E+04   -.452E+01 -.489E+01 -.226E+01   0.546E+00 0.400E+00 -.369E+00
   -.839E+01 0.635E+03 0.337E+04   0.802E+01 -.638E+03 -.337E+04   0.143E+00 0.158E+01 0.138E+00   0.120E+00 0.413E+00 -.854E+00
   0.215E+03 0.449E+03 0.142E+03   -.216E+03 -.450E+03 -.143E+03   0.948E+00 0.620E+00 0.127E+01   -.277E-02 0.281E-01 -.262E+00
   0.374E+03 0.207E+03 -.306E+04   -.377E+03 -.210E+03 0.306E+04   0.312E+01 0.259E+01 0.124E+01   -.116E-01 -.109E+00 0.105E+00
   -.533E+03 -.485E+02 0.134E+02   0.534E+03 0.494E+02 -.138E+02   -.123E+01 -.775E+00 0.580E+00   0.914E-01 0.353E-01 -.153E+00
   -.625E+03 -.586E+02 -.350E+04   0.631E+03 0.585E+02 0.350E+04   -.481E+01 -.232E+00 -.210E+01   -.997E-01 -.926E-01 0.114E+00
   -.538E+03 0.325E+03 0.336E+04   0.540E+03 -.327E+03 -.335E+04   -.129E+01 0.822E+00 0.385E-01   -.388E+00 0.269E+00 -.103E+01
   0.242E+03 0.305E+02 0.627E+04   -.245E+03 -.296E+02 -.628E+04   0.189E+01 -.306E+00 0.461E+01   0.293E-01 -.877E-01 -.368E+00
   -.913E+02 0.132E+03 -.333E+03   0.923E+02 -.133E+03 0.332E+03   -.931E+00 0.185E+01 0.112E+01   -.495E-02 0.187E-02 -.157E-01
   -.159E+03 0.239E+03 -.166E+04   0.160E+03 -.240E+03 0.166E+04   -.689E+00 0.257E+00 -.135E+01   0.214E-01 0.539E-03 0.923E-01
   -.205E+03 0.330E+03 0.231E+04   0.207E+03 -.333E+03 -.231E+04   -.600E+00 0.908E+00 0.984E+00   0.411E-01 -.265E-01 -.160E+00
   -.734E+02 0.124E+03 0.985E+03   0.738E+02 -.125E+03 -.986E+03   -.378E+00 0.863E+00 0.177E+01   0.739E-01 -.650E-01 -.125E+00
   0.113E+03 -.172E+03 -.219E+04   -.113E+03 0.173E+03 0.219E+04   -.269E+00 0.642E-01 -.224E+01   0.106E-01 -.137E-01 0.104E+00
   -.357E+02 -.178E+03 -.826E+03   0.367E+02 0.181E+03 0.826E+03   -.990E+00 -.258E+01 -.629E+00   0.368E-01 -.574E-02 0.467E-01
   -.228E+03 -.293E+03 0.169E+04   0.229E+03 0.294E+03 -.169E+04   -.187E+00 -.520E+00 0.949E+00   0.532E-01 0.999E-02 -.131E+00
   -.103E+03 -.170E+03 0.362E+03   0.104E+03 0.173E+03 -.363E+03   -.646E+00 -.270E+01 0.100E+01   0.523E-01 0.249E-01 -.645E-01
   0.229E+03 -.687E+02 0.175E+04   -.231E+03 0.696E+02 -.176E+04   0.167E+00 -.496E+00 0.135E+01   0.285E-01 0.664E-01 -.180E+00
   0.147E+03 -.153E+02 0.403E+03   -.149E+03 0.156E+02 -.404E+03   0.245E+01 -.364E+00 0.131E+01   0.833E-02 -.868E-02 -.704E-01
   0.135E+03 0.899E+01 -.809E+03   -.138E+03 -.876E+01 0.809E+03   0.278E+01 -.260E+00 -.923E+00   0.163E-01 -.143E-01 0.295E-01
   -.105E+03 0.177E+03 -.222E+04   0.106E+03 -.180E+03 0.223E+04   -.106E+01 0.149E+01 -.183E+01   -.120E-01 0.241E-01 0.909E-01
[...]
   0.162E+03 0.142E+02 -.896E+03   -.165E+03 -.141E+02 0.896E+03   0.279E+01 0.956E-02 0.105E+00   0.222E-01 -.141E-01 0.466E-01
   0.163E+03 -.123E+03 -.233E+04   -.167E+03 0.122E+03 0.234E+04   0.322E+01 0.969E+00 -.187E+01   0.148E-01 -.826E-01 0.894E-01
   -.783E+02 0.893E+02 -.369E+03   0.794E+02 -.911E+02 0.368E+03   -.108E+01 0.190E+01 0.525E+00   -.163E-02 -.541E-01 -.496E-02
   -.259E+03 -.736E+02 -.164E+04   0.262E+03 0.732E+02 0.164E+04   -.805E+00 -.160E+00 -.388E+00   -.881E-01 -.633E-01 0.110E+00
   -.290E+03 0.486E+03 0.214E+04   0.293E+03 -.491E+03 -.215E+04   -.160E+01 0.268E+01 0.134E+01   -.116E+00 0.364E+00 -.287E+00
   -.939E+02 0.156E+03 0.955E+03   0.949E+02 -.158E+03 -.956E+03   -.922E+00 0.135E+01 0.174E+01   -.238E-01 0.541E-01 -.172E+00
   -.247E+03 -.101E+03 -.227E+04   0.250E+03 0.103E+03 0.228E+04   -.114E+01 -.128E+01 -.419E+00   -.426E-01 0.128E-02 0.114E+00
   -.592E+02 -.944E+02 -.810E+03   0.603E+02 0.970E+02 0.811E+03   -.779E+00 -.251E+01 -.112E+01   0.202E-01 0.274E-01 -.196E-01
   -.359E+03 -.973E+02 0.182E+04   0.363E+03 0.991E+02 -.183E+04   -.113E+01 -.101E+01 0.270E+01   0.898E-01 0.118E+00 -.175E+00
   -.110E+03 -.167E+03 0.374E+03   0.111E+03 0.170E+03 -.374E+03   -.110E+01 -.241E+01 0.523E+00   -.239E-02 0.128E-01 -.631E-01
   0.186E+03 -.275E+03 0.159E+04   -.187E+03 0.278E+03 -.159E+04   -.524E+00 -.170E+01 0.183E+01   0.222E+00 0.901E-02 -.328E+00
   0.148E+03 -.152E+02 0.352E+03   -.151E+03 0.151E+02 -.352E+03   0.269E+01 -.151E+00 0.737E+00   0.212E-01 0.419E-01 -.157E+00
   0.202E+03 -.293E+01 -.915E+03   -.204E+03 0.324E+01 0.915E+03   0.252E+01 -.533E+00 -.546E+00   -.187E-01 -.715E-02 -.211E-01
   0.317E+03 -.130E+03 -.228E+04   -.321E+03 0.129E+03 0.229E+04   0.282E+01 0.979E+00 -.133E+01   -.115E-01 -.351E-01 0.134E+00
   -.111E+02 0.119E+02 -.315E+02   -.568E-13 0.102E-11 -.114E-10   0.111E+02 -.128E+02 0.413E+02   -.193E+00 0.832E+00 -.962E+01

 POSITION                                       TOTAL-FORCE (eV/Angst)
      5.35228      4.81788      6.64784         0.212504     -0.380582     -0.185817
      5.93595      3.87238      9.58390         0.060072      0.844566     -1.138396
     12.10082      1.93564      2.09695         0.168544     -0.278322     -0.836252
      2.24633      0.73197      3.71178        -0.095874      0.014987      1.848161
      0.48692      0.32596     10.93496         0.044501      0.047350      1.207647
      4.76861      3.35453      2.93606        -0.380028     -1.057988      1.987075
      5.35228      2.40903      5.87212         0.022818      0.116733      0.021873
      5.93595      1.46353      8.80817         0.004967     -0.373657     -1.742097
      1.87746      3.73836      5.87212         0.175947      0.104298      0.090355
      2.46113      2.79286      8.80817        -0.075379      0.005711     -1.895907
      3.30554      2.15041     10.98540         0.051800      0.039940      1.129187
      6.92203      4.68386      2.93606         1.171738     -0.098134      2.090281
     10.98051      4.81788      6.64784         0.207583     -0.369795     -0.099303
     11.56418      3.87238      9.58390        -0.322507      0.978577     -1.298201
      7.87456      0.73197      3.71178        -0.114888      0.317272      1.818586
     10.39684      3.35453      2.93606        -0.588563      0.088809      1.254585
     10.98051      2.40903      5.87212        -0.114620      0.051967     -0.003926
     11.56418      1.46353      8.80817         0.133052      0.033490     -1.683696
      7.50570      3.73836      5.87212        -0.063485     -0.017624     -0.010796
      8.08937      2.79286      8.80817        -0.016006      0.198701     -2.593872
      9.04932      1.78351     10.75146        -0.285617     -0.835741      1.154419
     12.55026      4.68386      2.93606         0.568948      0.408635      1.640007
      9.47675      0.50923      0.75404         0.077959      0.710986     -1.639264
      7.87456      9.84929      6.64784         0.160116     -0.209395     -0.107139
      8.45823      8.90379      9.58390        -1.718420      0.656902     -1.714459
      4.76861      5.76338      3.71178        -0.408079      0.648464      2.269869
      3.37034      5.36427     10.86382         0.381722     -0.334391      1.342623
      2.61979      0.43313      1.21289        -0.012207      1.226890     -1.538002
      7.29089      8.38594      2.93606        -0.580886     -0.396881      1.532911
      7.87456      7.44044      5.87212        -0.168634      0.037974     -0.037691
      8.45823      6.49494      8.80817        -0.419120      0.167353     -3.272152
      4.39975      8.76977      5.87212        -0.178793      0.047975      0.071457
      4.98341      7.82427      8.80817         0.392936     -0.217091     -1.959746
      9.44431      9.71527      2.93606         0.426097      0.252224      1.235370
      5.05112      5.28375      1.32873        -0.760133      1.185075     -1.865399
     13.50279      9.84929      6.64784         0.193137     -0.263812     -0.123993
     14.08646      8.90379      9.58390        -0.692356      0.519248     -1.220888
      9.88507      7.48548      2.08886        -0.014070     -0.293453     -0.786342
     10.39684      5.76338      3.71178         0.088958      0.034066      1.928763
      8.85682      5.11548     10.68130         0.421130      0.560373      1.333379
     12.43103      9.31500      0.75752        -0.626267      0.338248     -1.651504
     12.91912      8.38594      2.93606        -0.101797     -0.967250      2.351420
     13.50279      7.44044      5.87212         0.035870      0.091662      0.032021
     14.08646      6.49494      8.80817        -0.330310     -0.030158     -3.028649
     10.02798      8.76977      5.87212        -0.043320      0.118611     -0.027308
     10.61165      7.82427      8.80817         0.455502     -0.420816     -2.253334
     15.07254      9.71527      2.93606         0.908645     -0.345462      2.462548
     10.52591      5.26744      1.21042        -1.058265      0.469751     -1.577812
      1.66190      1.67871      7.01153         0.107256     -0.085759     -0.140896
      2.24556      0.73321      9.94759         0.644696     -1.179676      0.023183
      6.11661      3.58537      1.39084         1.331281     -2.150286     -3.470251
      6.70646      2.62422      4.07548         0.086343     -0.065357      0.342049
      2.11622      3.77950     10.66233        -0.054337      0.618570      2.181011
      7.29013      4.74605      7.99931         0.094050      0.037886     -0.610098
      3.71397      1.61729      2.45575         0.542148      1.311782     -1.021281
      4.18418      0.66015      5.06325         0.024605     -0.239705      0.788893
      3.35415      4.86493      2.41542        -1.763688      0.431160     -1.277154
      3.96438      3.99884      5.06325         0.042671     -0.086902      0.604835
      4.54805      3.05334      7.99931        -0.285169     -0.037361     -0.733651
      5.27932      2.19452     10.61296        -0.131137     -1.182934      2.813788
[...]
      6.48666      9.03025      5.06325        -0.126905     -0.032495      0.045209
      7.07033      8.08475      7.99931        -0.215845      0.033636      0.171442
      8.19721      7.10055     10.71389        -0.979557      0.289373      3.356912
      9.81241      6.71012      7.01153        -0.027280      0.086100     -0.909712
     10.41918      5.78237      9.54092         1.389318     -0.620993      1.249658
     14.25049      8.64735      1.31601         1.408198     -2.289876     -2.451717
     14.85697      7.65563      4.07548         0.022993     -0.021627     -0.033192
     10.26332      8.86746     10.48878         1.525268      0.851376      3.550228
     15.44064      9.77746      7.99931         0.264000      0.165859     -0.645135
     11.75102      6.63706      2.12720         2.674184      0.890285     -0.238983
     12.33469      5.69156      5.06325         0.080057      0.100252      0.121459
     11.49409      9.89108      2.44289        -1.294883      1.051349     -1.308722
     12.11489      9.03025      5.06325        -0.064014     -0.276547      0.504198
     12.69856      8.08475      7.99931        -0.124396     -0.234240     -0.482892
     13.61902      7.14632     10.67351        -1.686546      0.245170      3.076448
    total drift:                               -0.218044     -0.049341      0.271174

  FREE ENERGIE OF THE ION-ELECTRON SYSTEM (eV)
  free  energy   TOTEN  =      -469.57867772 eV

  energy  without entropy=     -468.25288292  energy(sigma->0) =     -468.91578032