 vasp.5.4.4.18Apr17-6-g9f103f2a35 (build Aug 13 2019 17:33:20) gamma-only

 executed on             LinuxIFC date 2020.05.12  13:43:26

 INCAR:
 POTCAR:    PAW_PBE Ni_pv 06Sep2000
 POTCAR:    PAW_PBE S 06Sep2000
 POTCAR:    PAW_PBE Ni_pv 06Sep2000
   VRHFIN =Ni:

   TITEL  = PAW_PBE Ni_pv 06Sep2000
   POMASS =   58.690; ZVAL   =   16.000    mass and valenz
   ENMAX  =  367.986; ENMIN  =  275.989 eV

 POTCAR:    PAW_PBE S 06Sep2000
   VRHFIN =S : s2p4

   TITEL  = PAW_PBE S 06Sep2000
   POMASS =   32.066; ZVAL   =    6.000    mass and valenz
   ENMAX  =  258.689; ENMIN  =  194.016 eV

 Optimization of the real space projectors (new method)

 maximal supplied QI-value         = 18.90
 optimisation between [QCUT,QGAM] = [ 10.77, 21.73] = [ 32.49,132.25] Ry
 Optimized for a Real-space Cutoff    1.38 Angstroem

   l    n(q)    QCUT    max X(q) W(low)/X(q) W(high)/X(q)  e(spline)
   1      8    10.771     2.836    0.40E-04    0.29E-04    0.12E-06
   1      8    10.771     4.023    0.10E-03    0.48E-04    0.29E-06
   2      8    10.771    73.368    0.42E-03    0.97E-04    0.44E-06
   2      8    10.771    69.010    0.42E-03    0.99E-04    0.45E-06
   0      9    10.771    54.797    0.10E-03    0.56E-04    0.74E-07
   0      9    10.771    24.266    0.89E-04    0.49E-04    0.67E-07
 Optimization of the real space projectors (new method)

 maximal supplied QI-value         = 19.84
 optimisation between [QCUT,QGAM] = [ 10.71, 21.63] = [ 32.15,130.99] Ry
 Optimized for a Real-space Cutoff    1.19 Angstroem

   l    n(q)    QCUT    max X(q) W(low)/X(q) W(high)/X(q)  e(spline)
   0      8    10.715   187.594    0.41E-03    0.53E-04    0.66E-07
   0      8    10.715   164.243    0.41E-03    0.53E-04    0.65E-07
   1      7    10.715    67.533    0.19E-03    0.59E-03    0.68E-07
   1      7    10.715    50.729    0.19E-03    0.58E-03    0.67E-07
  PAW_PBE Ni_pv 06Sep2000               :
  PAW_PBE S 06Sep2000                   :

 POSCAR: Type_036 Type_136
  positions in cartesian coordinates
 exchange correlation table for  LEXCH =        8
   RHO(1)=    0.500       N(1)  =     2000
   RHO(2)=  100.500       N(2)  =     4000

 ion  position               nearest neighbor table
   1  0.374  0.751  0.095-  61 2.03  41 2.25  50 2.28  62 2.36  51 2.36  14 2.41
   2  0.525  0.601  0.223-  42 2.25  51 2.26  62 2.26  63 2.36  52 2.36  15 2.39  27 2.53
   3  0.675  0.451  0.351-  43 2.25  63 2.26  52 2.26   4 2.33  64 2.36  53 2.36  28 2.53  16 2.53

   4  0.713  0.371  0.459-  44 2.04  53 2.11  64 2.14   3 2.33
   5  0.550  0.080  0.070-  67 2.02  47 2.12  46 2.16  50 2.17  21 2.30
   6  0.774  0.012  0.146-  45 2.09  68 2.11  54 2.25  67 2.26  47 2.37  20 2.45
   7  0.058  0.734  0.394-  56 2.09  66 2.18  65 2.26  55 2.26  18 2.53  31 2.53  49 2.61
   8  0.908  0.884  0.266-  48 2.25  54 2.26  68 2.26  55 2.36  65 2.36  30 2.53  17 2.53
   9  0.141  0.318  0.180-  69 2.05  40 2.25  57 2.26  70 2.36  58 2.36  34 2.53  21 2.53
  10  0.291  0.168  0.308-  37 2.25  58 2.26  70 2.26  59 2.36  71 2.36  35 2.53  22 2.53
  11  0.397  0.044  0.422-  71 2.03  59 2.09  38 2.14  72 2.17
  12  0.990  0.478  0.078-  57 2.02  60 2.13  39 2.14  69 2.20
  13  0.002  0.127  0.396-  37 2.03  64 2.13  38 2.13  55 2.15
  14  0.573  0.562  0.050-  62 2.03  39 2.05  61 2.06   1 2.41
  15  0.715  0.423  0.169-  40 2.16  63 2.18  27 2.38  39 2.38   2 2.39  62 2.40
  16  0.860  0.266  0.283-  54 2.25  63 2.26  40 2.26  37 2.36  64 2.36   3 2.53  28 2.53
  17  0.093  0.700  0.198-  57 2.25  41 2.26  68 2.26  42 2.36  65 2.36  30 2.53   8 2.53
  18  0.243  0.549  0.326-  66 2.11  58 2.25  65 2.26  42 2.26  43 2.36   7 2.53  31 2.53
  19  0.373  0.416  0.436-  43 2.03  44 2.09  66 2.12  59 2.17
  20  0.943  0.850  0.070-  67 2.03  45 2.05  60 2.14  68 2.36  41 2.36   6 2.45
  21  0.326  0.133  0.113-  50 2.12  46 2.14  69 2.18   5 2.30  70 2.36  47 2.36  34 2.53   9 2.53

[...]

  31  0.283  0.774  0.360-  56 2.03  71 2.25  55 2.26  42 2.26  43 2.36   7 2.53  18 2.53
  32  0.448  0.659  0.466-  43 2.03  44 2.09  72 2.12  56 2.13
  33  0.258  0.515  0.047-  57 2.03  61 2.05  60 2.16  46 2.25
  34  0.366  0.358  0.147-  46 2.05  62 2.25  57 2.26  47 2.36  58 2.36  21 2.53   9 2.53
  35  0.516  0.207  0.275-  63 2.25  58 2.26  47 2.26  48 2.36  59 2.36  10 2.53  22 2.53
  36  0.657  0.068  0.389-  48 2.04  59 2.12  49 2.19  64 2.20  23 2.53
  37  0.064  0.262  0.341-  25 2.02  13 2.03  10 2.25  16 2.36  28 2.36  38 2.53
  38  0.178  0.147  0.447-  25 2.12  13 2.13  11 2.14  37 2.53
  39  0.763  0.563  0.085-  14 2.05  12 2.14  26 2.16  27 2.26  15 2.38
  40  0.914  0.412  0.213-  15 2.16   9 2.25  16 2.26  28 2.26  27 2.36
  41  0.147  0.846  0.128-  29 2.21   1 2.25  17 2.26  30 2.26  20 2.36  45 2.78
  42  0.297  0.696  0.256-   2 2.25  31 2.26  18 2.26  30 2.36  17 2.36
  43  0.447  0.545  0.384-  19 2.03  32 2.03   3 2.25  31 2.36  18 2.36  44 2.58  56 2.79
  44  0.518  0.451  0.501-   4 2.04  32 2.09  19 2.09  43 2.58
  45  0.909  0.062  0.081-  20 2.05  29 2.09   6 2.09  54 2.74  67 2.75  41 2.78
  46  0.380  0.281  0.053-  34 2.05  21 2.14   5 2.16  33 2.25
  47  0.530  0.129  0.171-   5 2.12  22 2.26  35 2.26  34 2.36  21 2.36   6 2.37
  48  0.680  0.979  0.299-  36 2.04   8 2.25  23 2.26  35 2.36  22 2.36
  49  0.790  0.855  0.423-  23 2.06  24 2.09  36 2.19   7 2.61
  50  0.427  0.942  0.061-  21 2.12  26 2.12   5 2.17   1 2.28  51 2.69
  51  0.528  0.798  0.171-  26 2.05  22 2.25  27 2.26   2 2.26   1 2.36  50 2.69
  52  0.678  0.648  0.299-  23 2.25  28 2.26   3 2.26  27 2.36   2 2.36
  53  0.829  0.497  0.427-  24 2.05   4 2.11  25 2.14  28 2.36   3 2.36
  54  0.911  0.081  0.214-  29 2.20  16 2.25   6 2.25   8 2.26  30 2.26  45 2.74
  55  0.062  0.931  0.342-  13 2.15  31 2.26   7 2.26  30 2.36   8 2.36
  56  0.225  0.742  0.452-  31 2.03   7 2.09  32 2.13  43 2.79
  57  0.145  0.515  0.129-  12 2.02  33 2.03  17 2.25  34 2.26   9 2.26  60 2.45
  58  0.295  0.364  0.257-  18 2.25  10 2.26  35 2.26   9 2.36  34 2.36
  59  0.445  0.214  0.385-  11 2.09  36 2.12  19 2.17  35 2.36  10 2.36
  60  0.038  0.642  0.029-  12 2.13  20 2.14  33 2.16  57 2.45
  61  0.369  0.637  0.014-   1 2.03  33 2.05  14 2.06  62 2.70
  62  0.477  0.512  0.128-  14 2.03  34 2.25   2 2.26   1 2.36  15 2.40  61 2.70
  63  0.628  0.362  0.256-  15 2.18  35 2.25   3 2.26  16 2.26   2 2.36
  64  0.778  0.212  0.384-  13 2.13   4 2.14  36 2.20  16 2.36   3 2.36
  65  0.011  0.645  0.299-  28 2.25   7 2.26  18 2.26   8 2.36  17 2.36
  66  0.154  0.508  0.413-  18 2.11  19 2.12  25 2.15   7 2.18
  67  0.731  0.917  0.052-   5 2.02  20 2.03  26 2.09   6 2.26  45 2.75
  68  0.861  0.795  0.171-   6 2.11  27 2.25  17 2.26   8 2.26  20 2.36
  69  0.103  0.249  0.091-   9 2.05  29 2.12  21 2.18  12 2.20
  70  0.244  0.079  0.214-  30 2.25  22 2.26  10 2.26  29 2.31   9 2.36  21 2.36
  71  0.395  0.928  0.342-  11 2.03  31 2.25  23 2.26  10 2.36  22 2.36  72 2.73
  72  0.518  0.834  0.459-  24 2.05  32 2.12  23 2.16  11 2.17  71 2.73

  LATTYP: Found a base centered orthorhombic cell.
 ALAT       =    11.4527836704
 B/A-ratio  =     1.4485816945
 C/A-ratio  =     1.7908432109

  Lattice vectors:

 A1 = (  10.0797329849,   0.0000000000,   0.0000000000)
 A2 = (  -3.5732980427,  -9.4251025535,   0.0000000000)
 A3 = (   0.0000000000,   0.0000000000, -20.5101398818)

Analysis of symmetry for initial positions (statically):
 Subroutine PRICEL returns:
 Original cell was already a primitive cell.

 Routine SETGRP: Setting up the symmetry group for a
 base centered orthorhombic supercell.

 Subroutine GETGRP returns: Found  1 space group operations
 (whereof  1 operations were pure point group operations)
 out of a pool of  8 trial point group operations.

The static configuration has the point symmetry C_1 .

Analysis of symmetry for dynamics (positions and initial velocities):
 Subroutine PRICEL returns:
 Original cell was already a primitive cell.

 Routine SETGRP: Setting up the symmetry group for a
 base centered orthorhombic supercell.

 Subroutine GETGRP returns: Found  1 space group operations
 (whereof  1 operations were pure point group operations)
 out of a pool of  8 trial point group operations.

The dynamic configuration has the point symmetry C_1 .

 Subroutine INISYM returns: Found  1 space group operations
 (whereof  1 operations are pure point group operations),
 and found     1 'primitive' translations

 KPOINTS: gamma-point-only calculation. no periodi

Automatic generation of k-mesh.
Space group operators:
 irot       det(A)        alpha          n_x          n_y          n_z        tau_x        tau_y        tau_z
    1     1.000000     0.000000     1.000000     0.000000     0.000000     0.000000     0.000000     0.000000

 Subroutine IBZKPT returns following result:

 Found      1 irreducible k-points:

 Following reciprocal coordinates:
            Coordinates               Weight
  0.000000  0.000000  0.000000      1.000000

 Following cartesian coordinates:
            Coordinates               Weight
  0.000000  0.000000  0.000000      1.000000

 SYSTEM =  "Millerite NiS"
 POSCAR =  Type_036 Type_136

 Startparameter for this run:
   NWRITE =      2    write-flag & timer
   PREC   = normal    normal or accurate (medium, high low for compatibility)
   ISTART =      0    job   : 0-new  1-cont  2-samecut
   ICHARG =      2    charge: 1-file 2-atom 10-const
   ISPIN  =      1    spin polarized calculation?
   LNONCOLLINEAR =      F non collinear calculations
   LSORBIT =      F    spin-orbit coupling
   INIWAV =      1    electr: 0-lowe 1-rand  2-diag
   LASPH  =      F    aspherical Exc in radial PAW
   METAGGA=      F    non-selfconsistent MetaGGA calc.

 Electronic Relaxation 1
   ENCUT  =  450.0 eV  33.07 Ry    5.75 a.u.  17.43 17.43 35.48*2*pi/ulx,y,z
   ENINI  =  450.0     initial cutoff
   ENAUG  =  703.4 eV  augmentation charge cutoff
   NELM   =    100;   NELMIN=  2; NELMDL= -5     # of ELM steps
   EDIFF  = 0.1E-03   stopping-criterion for ELM
   LREAL  =      T    real-space projection
   NLSPLINE    = F    spline interpolate recip. space projectors
   LCOMPAT=      F    compatible to vasp.4.4
   GGA_COMPAT  = T    GGA compatible to vasp.4.4-vasp.4.6
   LMAXPAW     = -100 max onsite density
   LMAXMIX     =    2 max onsite mixed and CHGCAR
   VOSKOWN=      0    Vosko Wilk Nusair interpolation
   ROPT   =   -0.00050  -0.00050
 Ionic relaxation
   EDIFFG = 0.1E-02   stopping-criterion for IOM
   NSW    =      0    number of steps for IOM
   NBLOCK =      1;   KBLOCK =      1    inner block; outer block
   IBRION =     -1    ionic relax: 0-MD 1-quasi-New 2-CG
   NFREE  =      0    steps in history (QN), initial steepest desc. (CG)
   ISIF   =      2    stress and relaxation
   IWAVPR =     10    prediction:  0-non 1-charg 2-wave 3-comb
   ISYM   =      2    0-nonsym 1-usesym 2-fastsym
   LCORR  =      T    Harris-Foulkes like correction to forces

   POTIM  = 0.5000    time-step for ionic-motion
   TEIN   =    0.0    initial temperature
   TEBEG  =    0.0;   TEEND  =   0.0 temperature during run
   SMASS  =  -3.00    Nose mass-parameter (am)
   estimated Nose-frequenzy (Omega)   =  0.10E-29 period in steps =****** mass=  -0.232E-26a.u.
[...]
  Fock        0.00000     0.00000     0.00000     0.00000     0.00000     0.00000
  Total      75.15170    64.48212    91.96927     2.88407     3.67195    -1.17820
  in kB      61.79391    53.02079    75.62225     2.37144     3.01928    -0.96878

 VOLUME and BASIS-vectors are now :
  energy-cutoff  :      450.00
  volume of cell :     1948.51
      direct lattice vectors                 reciprocal lattice vectors
    10.079732985  0.000000000  0.000000000     0.099208977 -0.037612667  0.000000000
     3.573298043  9.425102554  0.000000000     0.000000000  0.106099641  0.000000000
     0.000000000  0.000000000 20.510139882     0.000000000  0.000000000  0.048756372

  length of vectors
    10.079732985 10.079732985 20.510139882     0.106099641  0.106099641  0.048756372

 FORCES acting on ions
    electron-ion (+dipol)            ewald-force                    non-local-force                 convergence-correction
   0.483E+03 -.452E+03 0.376E+04   -.486E+03 0.456E+03 -.376E+04   0.321E+01 -.212E+01 0.239E+01   -.479E-01 0.508E-01 0.104E+00
   0.495E+03 -.126E+03 0.437E+03   -.496E+03 0.127E+03 -.437E+03   0.867E+00 -.826E+00 0.514E+00   -.366E-02 0.599E-01 0.293E+00
   0.349E+03 -.569E+02 -.228E+04   -.350E+03 0.577E+02 0.228E+04   0.592E+00 -.451E+00 0.323E+00   -.568E-01 0.519E-01 -.258E+00
   -.123E+03 0.623E+03 -.520E+04   0.120E+03 -.622E+03 0.520E+04   0.459E+01 -.104E+01 0.560E-01   -.120E+00 -.155E+00 -.674E-01
   -.496E+03 -.337E+03 0.490E+04   0.498E+03 0.340E+03 -.490E+04   -.154E+01 -.247E+01 0.411E+01   0.356E-01 -.309E-01 0.133E+00
   0.161E+01 -.611E+03 0.254E+04   -.316E+01 0.615E+03 -.253E+04   0.497E+00 -.311E+01 -.202E+01   0.544E-01 -.441E-01 0.307E+00
   0.590E+03 -.396E+03 -.403E+04   -.593E+03 0.397E+03 0.403E+04   0.157E+01 -.100E+01 -.114E+01   0.125E+00 0.199E-01 0.251E-01
   0.363E+03 -.148E+03 -.739E+03   -.364E+03 0.147E+03 0.739E+03   0.101E+01 -.448E-01 -.641E+00   -.857E-01 0.861E-02 0.246E+00
   0.393E+03 -.187E+03 0.146E+04   -.392E+03 0.188E+03 -.145E+04   0.758E-01 -.705E+00 -.130E+01   0.569E-02 0.904E-02 0.143E+00
   0.419E+03 -.173E+03 -.158E+04   -.419E+03 0.174E+03 0.158E+04   0.372E+00 -.145E+01 0.954E+00   0.153E+00 -.811E-01 0.230E+00
   0.223E+03 -.182E+03 -.472E+04   -.225E+03 0.185E+03 0.472E+04   0.171E+01 -.195E+01 -.265E+01   0.195E+00 -.960E-01 0.165E+00
   0.482E+03 0.260E+03 0.458E+04   -.487E+03 -.259E+03 -.458E+04   0.478E+01 -.196E+01 0.273E+01   0.335E-02 -.298E-01 0.544E-01
   0.194E+03 0.600E+03 -.398E+04   -.196E+03 -.604E+03 0.398E+04   0.166E+01 0.428E+01 -.369E+00   -.329E-01 -.196E+00 0.531E-01
   -.264E+03 0.777E+03 0.521E+04   0.264E+03 -.777E+03 -.521E+04   0.604E+00 -.105E+01 0.802E+00   0.348E-01 -.816E-02 -.797E-01
   0.380E+02 0.935E+03 0.265E+04   -.385E+02 -.931E+03 -.265E+04   -.345E+00 -.350E+01 -.317E+01   0.300E-01 -.153E-01 0.241E+00
   0.368E+02 0.545E+03 -.484E+03   -.373E+02 -.545E+03 0.482E+03   0.534E+00 -.169E-01 0.118E+01   -.258E-01 -.707E-01 0.167E+00
   -.220E+02 0.410E+03 0.146E+04   0.220E+02 -.409E+03 -.146E+04   0.271E+00 -.321E+00 0.995E+00   -.405E-01 0.317E-01 0.313E+00
   0.580E+02 0.357E+03 -.148E+04   -.584E+02 -.359E+03 0.148E+04   0.640E+00 0.191E+01 0.332E+01   0.183E-01 0.123E+00 0.249E+00
   0.354E+03 0.460E+03 -.463E+04   -.355E+03 -.465E+03 0.463E+04   0.633E+00 0.385E+01 -.133E+01   -.155E+00 0.226E-01 0.132E-01
   -.312E+03 -.167E+02 0.485E+04   0.317E+03 0.106E+02 -.485E+04   -.246E+01 0.454E+01 0.439E+01   -.220E-01 0.674E-01 0.812E-01
   0.423E+03 0.284E+03 0.378E+04   -.426E+03 -.285E+03 -.378E+04   0.229E+01 0.177E+01 0.148E+01   -.157E+00 0.762E-01 0.210E+00
   -.181E+02 0.452E+03 0.399E+03   0.184E+02 -.453E+03 -.400E+03   -.502E+00 0.100E+01 0.543E+00   0.231E+00 -.131E+00 0.221E+00
   -.129E+03 0.135E+03 -.252E+04   0.128E+03 -.139E+03 0.252E+04   -.270E+00 0.464E+01 0.194E+01   0.433E-01 0.367E+00 -.367E-01
   -.577E+03 0.309E+00 -.520E+04   0.581E+03 -.162E+01 0.520E+04   -.378E+01 0.703E+00 0.232E+01   0.652E-01 0.352E+00 -.919E-01
   -.269E+03 -.802E+02 -.475E+04   0.272E+03 0.837E+02 0.475E+04   -.253E+01 -.297E+01 -.273E+01   0.186E+00 -.138E-01 0.369E-01
   -.271E+03 -.706E+02 0.443E+04   0.275E+03 0.701E+02 -.443E+04   -.344E+01 0.139E+00 0.406E+01   0.108E+00 -.203E-01 0.114E+00
   -.498E+03 -.200E+03 0.139E+04   0.499E+03 0.201E+03 -.139E+04   -.348E+00 -.290E+00 -.121E+01   0.558E-01 0.103E+00 0.280E+00
   -.491E+03 -.303E+03 -.154E+04   0.491E+03 0.305E+03 0.154E+04   -.185E+00 -.155E+01 0.179E+01   0.801E-01 0.776E-01 0.386E-01
   0.184E+03 -.284E+03 0.337E+04   -.185E+03 0.286E+03 -.337E+04   0.176E+01 -.186E+01 0.420E+01   -.271E-01 0.217E-01 0.139E+00
   -.347E+03 -.970E+02 0.271E+03   0.348E+03 0.957E+02 -.269E+03   -.387E+00 0.509E+00 -.142E+01   -.854E-01 -.618E-01 0.235E+00
   -.201E+03 -.458E+03 -.258E+04   0.203E+03 0.461E+03 0.258E+04   -.142E+01 -.299E+01 0.801E+00   -.810E-01 -.409E-01 0.176E+00
   0.101E+03 -.352E+03 -.510E+04   -.972E+02 0.355E+03 0.511E+04   -.336E+01 -.283E+01 -.357E+01   -.326E+00 0.212E+00 -.550E-01
   -.200E+02 0.133E+02 0.507E+04   0.236E+02 -.107E+02 -.507E+04   -.382E+01 -.338E+01 0.552E+01   -.473E-02 -.277E-01 -.547E-01
   -.553E+03 -.213E+03 0.241E+04   0.554E+03 0.213E+03 -.241E+04   -.794E+00 0.195E+00 -.987E+00   -.556E-01 -.819E-02 0.218E+00
   -.483E+03 -.291E+03 -.501E+03   0.483E+03 0.293E+03 0.500E+03   -.310E-02 -.162E+01 0.506E+00   0.216E+00 -.142E+00 0.244E+00
   -.529E+03 -.128E+03 -.386E+04   0.531E+03 0.130E+03 0.386E+04   -.184E+01 -.159E+01 -.139E+01   -.112E+00 -.143E+00 0.148E-01
   -.124E+03 0.558E+02 -.672E+03   0.126E+03 -.549E+02 0.666E+03   -.157E+01 -.192E+00 0.167E+01   -.916E-01 0.306E-01 0.878E-01
   0.275E+01 0.125E+03 -.197E+04   -.246E+01 -.126E+03 0.198E+04   -.440E+00 0.640E+00 -.275E+01   0.381E-01 -.471E-01 0.420E-01
   -.155E+03 0.234E+03 0.173E+04   0.156E+03 -.235E+03 -.174E+04   0.112E+00 -.824E-01 0.285E+01   0.179E-01 0.296E-01 0.371E-01
   -.135E+03 0.678E+02 0.480E+03   0.137E+03 -.676E+02 -.482E+03   -.170E+01 0.201E+00 0.266E+01   0.260E-01 0.150E-01 0.967E-01
   -.746E+02 0.112E+02 0.137E+04   0.770E+02 -.135E+02 -.138E+04   -.153E+01 0.122E+01 0.165E+01   -.349E-01 0.248E-01 0.719E-01
   -.102E+03 0.265E+02 0.782E+02   0.105E+03 -.274E+02 -.799E+02   -.224E+01 0.953E+00 0.127E+01   -.274E-01 -.177E-02 0.138E+00
   -.492E+02 0.444E+02 -.975E+03   0.517E+02 -.444E+02 0.970E+03   -.107E+01 0.741E-01 0.151E+01   -.141E+00 0.412E-01 0.190E-01
   0.870E+02 0.180E+03 -.218E+04   -.869E+02 -.182E+03 0.219E+04   -.253E+00 0.118E+01 -.233E+01   -.227E+00 0.416E-01 0.467E-01
   -.647E+02 -.393E+03 0.189E+04   0.643E+02 0.398E+03 -.189E+04   0.790E+00 -.226E+01 0.392E+01   -.329E-02 -.649E-02 0.383E-01
   -.966E+02 -.978E+01 0.212E+04   0.964E+02 0.990E+01 -.212E+04   0.543E+00 0.348E+00 0.221E+01   -.507E-01 0.646E-01 -.399E-02
   -.233E+03 -.622E+02 0.725E+03   0.234E+03 0.622E+02 -.724E+03   -.554E+00 0.601E-01 -.263E+00   0.258E-01 -.142E-01 0.179E+00
   -.160E+03 0.591E+02 -.303E+03   0.162E+03 -.600E+02 0.300E+03   -.158E+01 0.342E+00 0.450E+00   -.118E-01 0.264E-01 0.146E+00
   -.398E+03 -.932E+02 -.171E+04   0.401E+03 0.933E+02 0.171E+04   0.729E-01 -.730E+00 -.114E+01   0.162E-01 0.154E+00 -.789E-01
   0.242E+03 -.415E+02 0.196E+04   -.246E+03 0.426E+02 -.196E+04   0.222E+01 -.115E+01 0.407E+01   -.463E-01 -.128E-01 -.364E-02
   0.968E+02 -.152E+03 0.600E+03   -.979E+02 0.153E+03 -.598E+03   -.149E-01 -.136E+01 0.551E+00   0.465E-01 0.167E-01 0.125E+00
   -.110E+02 -.179E+03 -.437E+03   0.109E+02 0.181E+03 0.438E+03   -.377E-02 -.220E+01 -.130E+01   0.267E-01 0.615E-01 0.286E-01
   -.202E+03 -.496E+02 -.168E+04   0.203E+03 0.509E+02 0.169E+04   -.649E-01 -.146E+01 -.268E+01   0.161E+00 0.628E-02 -.948E-01
   0.109E+03 -.211E+03 0.359E+03   -.110E+03 0.215E+03 -.358E+03   0.534E+00 -.295E+01 -.115E-01   -.371E-01 -.286E-01 0.676E-01
   0.568E+02 -.137E+03 -.970E+03   -.570E+02 0.140E+03 0.971E+03   -.211E+00 -.285E+01 -.144E+01   -.141E-01 -.402E-01 0.828E-01
   0.207E+03 -.224E+03 -.209E+04   -.209E+03 0.227E+03 0.209E+04   0.569E+00 -.898E+00 -.184E+01   -.618E-02 0.711E-03 -.376E-01
   0.270E+02 -.139E+03 0.101E+04   -.262E+02 0.141E+03 -.100E+04   -.227E+00 -.470E+00 0.536E-01   0.246E-01 -.123E-01 0.843E-01
   0.706E+01 -.168E+03 -.776E+02   -.704E+01 0.171E+03 0.788E+02   -.611E-01 -.278E+01 -.156E+01   0.498E-01 0.880E-01 0.383E-01
   -.280E+02 -.138E+03 -.134E+04   0.285E+02 0.140E+03 0.134E+04   -.437E+00 -.129E+01 -.167E+01   0.100E+00 -.667E-01 0.112E+00
   0.705E+02 -.889E+02 0.206E+04   -.723E+02 0.909E+02 -.207E+04   0.152E+01 -.167E+01 0.415E+01   0.159E-01 0.195E-01 -.503E-01
   0.840E+02 -.998E+02 0.220E+04   -.838E+02 0.102E+03 -.220E+04   -.185E+00 -.169E+01 0.115E+01   -.442E-01 -.463E-02 -.803E-01
   0.935E+02 0.197E+03 0.110E+04   -.949E+02 -.199E+03 -.109E+04   0.156E+01 0.718E+00 -.349E+00   -.356E-01 -.214E-01 0.878E-01
   0.172E+03 0.129E+03 0.330E+02   -.174E+03 -.130E+03 -.327E+02   0.210E+01 0.958E+00 0.542E-01   -.303E-01 -.417E-01 0.815E-01
   0.781E+02 0.250E+03 -.128E+04   -.794E+02 -.252E+03 0.128E+04   0.575E+00 0.185E+01 -.737E+00   -.565E-01 -.200E+00 -.846E-01
   0.140E+03 0.375E+02 -.415E+03   -.143E+03 -.390E+02 0.415E+03   0.221E+01 0.178E+01 -.466E+00   0.223E-01 0.205E-01 0.787E-01
   0.168E+03 0.189E+02 -.167E+04   -.169E+03 -.203E+02 0.167E+04   -.224E-01 0.527E+00 -.324E+00   0.805E-01 0.250E-01 0.108E-01
   -.924E+02 -.358E+02 0.206E+04   0.913E+02 0.355E+02 -.207E+04   0.749E+00 -.250E+00 0.284E+01   0.656E-01 -.562E-01 0.115E-01
   0.835E+02 0.104E+03 0.737E+03   -.852E+02 -.107E+03 -.737E+03   0.178E+01 0.536E+00 0.228E+01   -.918E-02 0.386E-01 0.995E-01
   0.275E+03 0.598E+02 0.189E+04   -.277E+03 -.606E+02 -.189E+04   0.257E+00 0.265E+00 0.168E+01   0.413E-02 -.364E-01 0.460E-01
   0.819E+02 0.736E+02 0.315E+03   -.817E+02 -.744E+02 -.313E+03   -.216E+00 0.558E+00 -.128E+01   -.162E-01 -.333E-01 -.165E-01
   0.164E+03 0.996E+02 -.739E+03   -.167E+03 -.101E+03 0.738E+03   0.247E+01 0.919E+00 -.735E+00   0.508E-01 -.765E-01 0.125E+00
   0.896E+02 -.212E+03 -.200E+04   -.899E+02 0.212E+03 0.201E+04   -.254E+00 0.138E+00 -.200E+01   -.705E-01 0.153E+00 -.467E-01
   -.604E+01 0.281E+02 -.387E+02   0.128E-11 0.250E-11 0.750E-11   0.609E+01 -.286E+02 0.331E+02   0.217E-01 0.496E+00 0.559E+01

 POSITION                                       TOTAL-FORCE (eV/Angst)
      6.45801      7.08167      1.95077         0.076403      1.426309      1.754136
      7.43572      5.66537      4.57627        -0.173588      0.445949      0.448638
      8.41343      4.24907      7.20177        -0.231035      0.339223     -1.088945
      8.51263      3.49803      9.40607         0.968284     -0.771228      0.607725
      5.82659      0.75847      1.43492         0.744100      0.457228     -0.626564
      7.84174      0.11076      2.98492        -1.002862      1.346631      0.342668
      3.21062      6.91868      8.07694        -1.199233      0.534163     -0.762380
     12.31264      8.33497      5.45144         0.015214     -0.075914      0.110563
      2.55881      2.99577      3.70110         0.432582      0.494514      1.552361
      3.53652      1.57947      6.32660         0.247583     -0.116442     -0.086769
      4.15768      0.41521      8.66427         0.258404      0.333718      1.148986
     11.68470      4.50730      1.59262        -0.828951     -0.592524     -0.925406
      0.47215      1.19355      8.12318        -0.335458     -0.594881      0.750899
      7.78443      5.29726      1.02551         0.523593     -0.741931     -1.197611
      8.72210      3.98475      3.47244        -0.763111     -0.359417     -1.445951
      9.61584      2.50729      5.81443        -0.018013     -0.130418      0.040891
      3.43531      6.59319      4.06409         0.188437      0.140937      0.196782
      4.41302      5.17689      6.68959         0.308447      0.266724     -1.329257
      5.24325      3.91851      8.94308        -0.770879     -0.940778      0.360475
     12.53733      8.00949      1.43859         2.259290     -1.558945      0.438669
      3.76121      1.25399      2.31376        -1.288788      0.580322      0.823898
      8.31222      9.26279      4.93926         0.061592     -0.147641     -0.150939
      9.28993      7.84650      7.56476        -1.266530      1.024359     -2.456139
      9.79261      6.57778      9.48521         0.070599     -0.261593      1.174743
      1.75669      3.40148      8.78653         0.102015      0.550384      1.017496
      9.10322      7.38087      1.69613         0.140803     -0.401392     -0.633091
      9.84053      6.03956      3.88260         0.308791      0.661762      0.399810
     10.81824      4.62327      6.50810        -0.181156     -0.156663      0.135144
      0.99006      0.74022      2.87470         0.639898      0.315438      0.217873
      4.63771      8.70917      4.75776         0.072229     -0.833251      0.769507
      5.61542      7.29287      7.38327         0.441838      0.029395     -1.676959
      6.87317      6.20923      9.54883         0.377105      1.070927      0.835060
      4.43659      4.85522      0.96117        -0.235005     -0.776847     -0.771196
      4.96362      3.36996      3.00743         0.312919      0.230211      1.716712
      5.94133      1.95367      5.63293         0.171056     -0.081310      0.220003
      6.86501      0.63920      7.98846         0.596163      0.445639      0.982137
      1.57981      2.47018      7.00134         0.323174      0.721765     -3.590517
      2.32010      1.38788      9.15921        -0.117223     -0.668637      2.218255
      9.70412      5.30277      1.75033         0.954321     -1.206995     -0.032217
     10.68183      3.88647      4.37584         0.348020      0.456935      0.657715
      4.50130      7.97237      2.62550         0.746955     -1.124346     -0.520882
      5.47901      6.55607      5.25100         0.108603     -0.004394     -0.256842
      6.45673      5.13978      7.87651         1.241539      0.049597     -3.386300
      6.82877      4.24825     10.27171        -0.395246     -1.146262      2.676485
      9.38267      0.58318      1.65737         0.327134      2.568052     -2.253263
      4.82962      2.64875      1.09249         0.262203      0.530378     -3.333048
      5.80492      1.21687      3.50067         0.803381      0.058164      1.284850
     10.35593      9.22568      6.12617        -0.129306     -0.568977     -2.007526
     11.02114      8.06120      8.66783         2.880887     -0.486050      1.537774
      7.67245      8.87945      1.24458        -1.435311     -0.085732     -2.013980
      8.17302      7.52069      3.51693        -1.150651     -0.270606      2.603725
      9.15074      6.10439      6.14243        -0.001054     -0.156361     -0.322039
     10.12845      4.68809      8.76794         0.537067     -0.143355      0.148850
      9.47664      0.76519      4.39210        -0.717550      0.611686      1.293218
      3.94792      8.77399      7.01760        -0.424176     -0.191486     -0.379709
      4.91842      6.99660      9.27207        -0.663710      1.678478      3.224265
      3.29611      4.85108      2.64176         0.629380      0.659843      3.142993
      4.27382      3.43479      5.26727         0.000236      0.092899     -0.265166
      5.25153      2.01849      7.89277         0.129540      1.172418     -0.098833
      2.67292      6.05314      0.59819        -0.283841      0.405597     -1.829205
      5.99891      6.00504      0.28654        -0.060864      0.260792     -3.512808
      6.64193      4.82628      2.63363         0.089312     -0.832716      2.395078
      7.61964      3.40999      5.25914        -0.221691     -0.146629      0.429453
      8.59735      1.99369      7.88464        -0.733016     -0.285444      0.513637
      2.41682      6.07959      6.13430        -0.241836      0.270401     -0.304217
      3.36750      4.78543      8.47636        -0.925303     -0.764949      2.061115
     10.64516      8.64069      1.05776        -0.343631     -0.653586     -2.553063
     11.51884      7.49589      3.50880         0.060877     -1.494947      1.587053
      1.92898      2.35006      1.85753        -1.328650     -0.555239     -2.344127
      2.74272      0.74039      4.38397        -0.026909     -0.347827      0.251857
      7.29374      8.74919      7.00947        -0.602177     -1.030497     -2.350723
      8.19848      7.86284      9.42412        -0.663221      0.475373      2.434169
    total drift:                                0.075173      0.054147     -0.006289

  FREE ENERGIE OF THE ION-ELECTRON SYSTEM (eV)
  free  energy   TOTEN  =      -353.79471752 eV

  energy  without entropy=     -352.78716026  energy(sigma->0) =     -353.29093889