 vasp.6.1.0 28Jan20 (build Mar 31 2020 17:42:31) gamma-only

 executed on             LinuxIFC date 2020.04.13  05:07:06

 INCAR:
 POTCAR:    PAW_PBE Ni_pv 06Sep2000
 POTCAR:    PAW_PBE S 06Sep2000
 POTCAR:    PAW_PBE Ni_pv 06Sep2000
   VRHFIN =Ni:

   TITEL  = PAW_PBE Ni_pv 06Sep2000
   POMASS =   58.690; ZVAL   =   16.000    mass and valenz
   ENMAX  =  367.986; ENMIN  =  275.989 eV

 POTCAR:    PAW_PBE S 06Sep2000
   VRHFIN =S : s2p4

   TITEL  = PAW_PBE S 06Sep2000
   POMASS =   32.066; ZVAL   =    6.000    mass and valenz
   ENMAX  =  258.689; ENMIN  =  194.016 eV

 Optimization of the real space projectors (new method)

 maximal supplied QI-value         = 18.90
 optimisation between [QCUT,QGAM] = [ 10.77, 21.73] = [ 32.49,132.25] Ry
 Optimized for a Real-space Cutoff    1.38 Angstroem

   l    n(q)    QCUT    max X(q) W(low)/X(q) W(high)/X(q)  e(spline)
   1      8    10.771     2.836    0.40E-04    0.29E-04    0.12E-06
   1      8    10.771     4.023    0.10E-03    0.48E-04    0.29E-06
   2      8    10.771    73.368    0.42E-03    0.97E-04    0.44E-06
   2      8    10.771    69.010    0.42E-03    0.99E-04    0.45E-06
   0      9    10.771    54.797    0.10E-03    0.56E-04    0.74E-07
   0      9    10.771    24.266    0.89E-04    0.49E-04    0.67E-07
 Optimization of the real space projectors (new method)

 maximal supplied QI-value         = 19.84
 optimisation between [QCUT,QGAM] = [ 10.71, 21.63] = [ 32.15,130.99] Ry
 Optimized for a Real-space Cutoff    1.19 Angstroem

   l    n(q)    QCUT    max X(q) W(low)/X(q) W(high)/X(q)  e(spline)
   0      8    10.715   187.594    0.41E-03    0.53E-04    0.66E-07
   0      8    10.715   164.243    0.41E-03    0.53E-04    0.65E-07
   1      7    10.715    67.533    0.19E-03    0.59E-03    0.68E-07
   1      7    10.715    50.729    0.19E-03    0.58E-03    0.67E-07
  PAW_PBE Ni_pv 06Sep2000               :
  PAW_PBE S 06Sep2000                   :

 POSCAR: Structure 17 made from 02-1-7.xsd file
  positions in direct lattice
 exchange correlation table for  LEXCH =        8
   RHO(1)=    0.500       N(1)  =     2000
   RHO(2)=  100.500       N(2)  =     4000

 ion  position               nearest neighbor table
   1  0.580  0.074  0.354-  44 2.25  66 2.26  51 2.26  63 2.36  52 2.36  26 2.53  15 2.53
   2  0.763  0.165  0.233-  45 2.25  52 2.26  63 2.26  53 2.36  64 2.36  16 2.53  27 2.53
   3  0.945  0.256  0.111-  42 2.25  53 2.26  64 2.26  50 2.36  17 2.53  28 2.53
   4  0.398  0.983  0.475-  65 2.26  51 2.36  66 2.36  14 2.53
   5  0.035  0.802  0.273-  46 2.25  57 2.26  70 2.26  54 2.36  67 2.36  21 2.53  29 2.53
   6  0.217  0.893  0.152-  47 2.25  67 2.26  54 2.26  68 2.36  55 2.36  30 2.53  18 2.53
   7  0.399  0.984  0.031-  48 2.25  68 2.26  55 2.26  56 2.36  31 2.53
   8  0.671  0.620  0.516-  58 2.36  69 2.36  19 2.53  32 2.53
   9  0.853  0.711  0.394-  49 2.25  69 2.26  58 2.26  57 2.36  70 2.36  33 2.53  20 2.53
  10  0.126  0.347  0.435-  38 2.25  74 2.26  59 2.36  71 2.36  34 2.53  25 2.53
  11  0.308  0.438  0.313-  39 2.25  59 2.26  71 2.26  60 2.36  72 2.36  22 2.53  35 2.53
  12  0.490  0.529  0.192-  40 2.25  60 2.26  72 2.26  61 2.36  73 2.36  36 2.53  23 2.53
  13  0.672  0.620  0.071-  41 2.25  73 2.26  61 2.26  62 2.36  37 2.53
  14  0.230  0.031  0.411-  57 2.25  65 2.26  38 2.26  66 2.36  39 2.36   4 2.53
  15  0.412  0.122  0.290-  54 2.25  39 2.26  66 2.26  63 2.36  40 2.36  26 2.53   1 2.53
  16  0.595  0.214  0.169-  55 2.25  63 2.26  40 2.26  64 2.36  41 2.36   2 2.53  27 2.53
  17  0.777  0.305  0.047-  56 2.25  64 2.26  41 2.26   3 2.53  28 2.53
  18  0.049  0.941  0.088-  62 2.25  42 2.26  67 2.26  43 2.36  68 2.36  30 2.53   6 2.53
  19  0.503  0.668  0.451-  59 2.25  44 2.36  69 2.36   8 2.53  32 2.53
  20  0.685  0.759  0.330-  60 2.25  44 2.26  69 2.26  70 2.36  45 2.36  33 2.53   9 2.53
  21  0.867  0.850  0.209-  61 2.25  70 2.26  45 2.26  42 2.36  67 2.36   5 2.53  29 2.53
  22  0.140  0.486  0.249-  53 2.25  46 2.26  71 2.26  72 2.36  47 2.36  11 2.53  35 2.53
  23  0.322  0.577  0.128-  50 2.25  47 2.26  72 2.26  48 2.36  73 2.36  36 2.53  12 2.53
  24  0.776  0.304  0.492-  51 2.25  74 2.36  49 2.36
  25  0.958  0.395  0.371-  52 2.25  74 2.26  49 2.26  46 2.36  71 2.36  34 2.53  10 2.53
  26  0.580  0.339  0.354-  69 2.25  39 2.26  51 2.26  52 2.36  40 2.36  15 2.53   1 2.53
  27  0.763  0.430  0.233-  70 2.25  52 2.26  40 2.26  53 2.36  41 2.36   2 2.53  16 2.53
  28  0.945  0.521  0.111-  67 2.25  53 2.26  41 2.26  50 2.36   3 2.53  17 2.53
  29  0.035  0.066  0.273-  71 2.25  45 2.26  57 2.26  42 2.36  54 2.36   5 2.53  21 2.53
  30  0.217  0.157  0.152-  72 2.25  42 2.26  54 2.26  55 2.36  43 2.36  18 2.53   6 2.53
  31  0.399  0.248  0.031-  73 2.25  43 2.26  55 2.26  56 2.36   7 2.53
  32  0.671  0.884  0.516-  58 2.36  44 2.36   8 2.53  19 2.53
  33  0.853  0.975  0.394-  74 2.25  44 2.26  58 2.26  45 2.36  57 2.36  20 2.53   9 2.53
  34  0.126  0.611  0.435-  65 2.25  49 2.26  59 2.36  46 2.36  25 2.53  10 2.53
  35  0.308  0.702  0.313-  66 2.25  59 2.26  46 2.26  60 2.36  47 2.36  11 2.53  22 2.53
  36  0.490  0.793  0.192-  63 2.25  60 2.26  47 2.26  61 2.36  48 2.36  23 2.53  12 2.53
  37  0.672  0.884  0.071-  64 2.25  48 2.26  61 2.26  62 2.36  13 2.53
  38  0.184  0.177  0.484-  10 2.25  14 2.26
  39  0.367  0.268  0.363-  11 2.25  26 2.26  15 2.26  14 2.36
  40  0.549  0.359  0.242-  12 2.25  27 2.26  16 2.26  15 2.36  26 2.36
  41  0.731  0.450  0.121-  13 2.25  17 2.26  28 2.26  16 2.36  27 2.36
  42  0.003  0.086  0.161-   3 2.25  30 2.26  18 2.26  21 2.36  29 2.36
  43  0.185  0.177  0.040-  31 2.26  18 2.36  30 2.36
  44  0.639  0.904  0.403-   1 2.25  33 2.26  20 2.26  19 2.36  32 2.36
  45  0.821  0.995  0.282-   2 2.25  29 2.26  21 2.26  20 2.36  33 2.36
  46  0.094  0.631  0.323-   5 2.25  22 2.26  35 2.26  25 2.36  34 2.36
  47  0.276  0.722  0.201-   6 2.25  23 2.26  36 2.26  22 2.36  35 2.36
  48  0.458  0.814  0.080-   7 2.25  37 2.26  23 2.36  36 2.36
  49  0.912  0.540  0.444-   9 2.25  25 2.26  34 2.26  24 2.36
  50  0.127  0.480  0.081-  23 2.25   3 2.36  28 2.36
  51  0.580  0.206  0.445-  24 2.25   1 2.26  26 2.26   4 2.36
  52  0.763  0.298  0.323-  25 2.25  27 2.26   2 2.26  26 2.36   1 2.36
  53  0.945  0.389  0.202-  22 2.25   3 2.26  28 2.26  27 2.36   2 2.36
  54  0.217  0.025  0.243-  15 2.25   6 2.26  30 2.26   5 2.36  29 2.36
  55  0.399  0.116  0.121-  16 2.25  31 2.26   7 2.26  30 2.36   6 2.36
  56  0.582  0.207  0.000-  17 2.25   7 2.36  31 2.36
  57  0.035  0.934  0.364-  14 2.25   5 2.26  29 2.26   9 2.36  33 2.36
  58  0.853  0.843  0.485-  33 2.26   9 2.26  32 2.36   8 2.36
  59  0.308  0.570  0.404-  19 2.25  11 2.26  35 2.26  10 2.36  34 2.36
  60  0.490  0.661  0.283-  20 2.25  36 2.26  12 2.26  11 2.36  35 2.36
  61  0.672  0.752  0.162-  21 2.25  13 2.26  37 2.26  36 2.36  12 2.36
  62  0.854  0.843  0.040-  18 2.25  13 2.36  37 2.36
  63  0.549  0.022  0.242-  36 2.25  16 2.26   2 2.26  15 2.36   1 2.36
  64  0.731  0.113  0.121-  37 2.25  17 2.26   3 2.26  16 2.36   2 2.36
  65  0.184  0.840  0.484-  34 2.25   4 2.26  14 2.26
  66  0.367  0.931  0.363-  35 2.25   1 2.26  15 2.26  14 2.36   4 2.36
  67  0.003  0.750  0.161-  28 2.25   6 2.26  18 2.26  21 2.36   5 2.36
  68  0.185  0.841  0.040-   7 2.26  18 2.36   6 2.36
  69  0.639  0.568  0.403-  26 2.25   9 2.26  20 2.26  19 2.36   8 2.36
  70  0.821  0.659  0.282-  27 2.25   5 2.26  21 2.26  20 2.36   9 2.36
  71  0.094  0.295  0.323-  29 2.25  22 2.26  11 2.26  25 2.36  10 2.36
  72  0.276  0.386  0.201-  30 2.25  23 2.26  12 2.26  22 2.36  11 2.36
  73  0.458  0.477  0.080-  31 2.25  13 2.26  12 2.36  23 2.36
  74  0.912  0.204  0.444-  33 2.25  25 2.26  10 2.26  24 2.36

  Warning from LATTYP: Monoclinic adjustment (A1->A3, A2->A1, A3->A2)!
  LATTYP: Found a base centered orthorhombic cell.
 ALAT       =     9.5784100000
 B/A-ratio  =     2.1722506661
 C/A-ratio  =     2.1551480229

  Lattice vectors:

 A1 = (  10.4033537511,  -4.7892050000,   0.0000000000)
 A2 = ( -10.4033537511,  -4.7892050000,   0.0000000000)
 A3 = (   0.0000000000,   0.0000000000, -20.6428913744)

Analysis of symmetry for initial positions (statically):
 Subroutine PRICEL returns:
 Original cell was already a primitive cell.

 Routine SETGRP: Setting up the symmetry group for a
 base centered orthorhombic supercell.

 Subroutine GETGRP returns: Found  1 space group operations
 (whereof  1 operations were pure point group operations)
 out of a pool of  8 trial point group operations.

The static configuration has the point symmetry C_1 .

Analysis of symmetry for dynamics (positions and initial velocities):
 Subroutine PRICEL returns:
 Original cell was already a primitive cell.

 Routine SETGRP: Setting up the symmetry group for a
 base centered orthorhombic supercell.

 Subroutine GETGRP returns: Found  1 space group operations
 (whereof  1 operations were pure point group operations)
 out of a pool of  8 trial point group operations.

The dynamic configuration has the point symmetry C_1 .

 Subroutine INISYM returns: Found  1 space group operations
 (whereof  1 operations are pure point group operations),
 and found     1 'primitive' translations

                                     Primitive cell

  volume of cell :    2057.0143

  direct lattice vectors                    reciprocal lattice vectors
    10.403353751 -4.789205000  0.000000000     0.096122849  0.000000000  0.000000000
     0.000000000  9.578410000  0.000000000     0.048061424  0.104401461  0.000000000
     0.000000000  0.000000000 20.642891374     0.000000000  0.000000000  0.048442826

  length of vectors
    11.452783670  9.578410000 20.642891374     0.096122849  0.114932874  0.048442826

  position of ions in fractional coordinates (direct lattice)
     0.580446796  0.074375138  0.353894474
     0.762560812  0.165432146  0.232636526
     0.944674827  0.256489154  0.111378578
     0.398332781  0.983318131  0.475152422
     0.035189473  0.801746477  0.273055842
     0.217303488  0.892803484  0.151797894
     0.399417503  0.983860492  0.030539946
     0.670961443  0.619632462  0.515571738
     0.853075458  0.710689469  0.394313790
     0.125704120  0.347003800  0.434733106
     0.307818135  0.438060808  0.313475158
     0.489932150  0.529117815  0.192217210
     0.672046165  0.620174823  0.070959262
     0.230358012  0.031433746  0.411078267
     0.412472027  0.122490754  0.289820319
     0.594586043  0.213547761  0.168562371
     0.776700058  0.304604769  0.047304423
     0.049328719  0.940919100  0.087723739
     0.502986674  0.667748077  0.451497583
     0.685100689  0.758805085  0.330239635
     0.867214704  0.849862092  0.208981687
     0.139843366  0.486176423  0.249401003
     0.321957381  0.577233431  0.128143055
     0.775615336  0.304062408  0.491916899
     0.957729351  0.395119416  0.370658951
     0.580446796  0.338581138  0.353894474
     0.762560812  0.429638146  0.232636526
     0.944674827  0.520695154  0.111378578
     0.035189473  0.065952477  0.273055842
     0.217303488  0.157009484  0.151797894
     0.399417503  0.248066492  0.030539946
     0.670961443  0.883838462  0.515571738
[...]
     0.000000000  9.578410000  0.000000000     0.048061424  0.104401461  0.000000000
     0.000000000  0.000000000 20.642891374     0.000000000  0.000000000  0.048442826

  length of vectors
    11.452783670  9.578410000 20.642891374     0.096122849  0.114932874  0.048442826

 FORCES acting on ions
    electron-ion (+dipol)            ewald-force                    non-local-force                 convergence-correction
   -.138E+03 0.354E+03 -.225E+04   0.138E+03 -.355E+03 0.225E+04   -.827E-01 0.656E+00 -.209E+01   -.651E-01 0.937E-02 0.406E+00
   -.268E+03 0.446E+03 0.570E+03   0.268E+03 -.447E+03 -.570E+03   0.146E-01 0.499E+00 -.981E+00   0.113E-01 -.136E-01 0.401E+00
   -.433E+03 0.402E+03 0.364E+04   0.434E+03 -.399E+03 -.364E+04   -.773E+00 -.195E+01 -.549E+00   0.688E-01 0.755E-01 0.607E-01
   -.323E+02 -.275E+01 -.469E+04   0.261E+02 0.442E+01 0.469E+04   0.568E+01 -.145E+01 0.451E+01   0.124E+00 -.201E-01 0.191E+00
   -.265E+03 0.445E+03 -.385E+03   0.265E+03 -.446E+03 0.386E+03   0.610E+00 0.783E+00 -.102E+01   -.115E-01 0.359E-01 0.186E+00
   -.163E+03 0.512E+03 0.244E+04   0.163E+03 -.513E+03 -.244E+04   0.321E+00 0.151E+01 0.143E+01   -.163E+00 0.569E-02 0.735E-01
   0.419E+02 0.516E+03 0.467E+04   -.421E+02 -.515E+03 -.467E+04   0.492E+00 -.596E+00 -.317E+01   -.118E+00 -.576E-01 -.145E+00
   0.860E+02 0.701E+03 -.483E+04   -.852E+02 -.690E+03 0.482E+04   0.895E-02 -.107E+02 0.843E+01   -.654E-02 0.208E-01 0.112E+00
   -.359E+03 0.480E+03 -.310E+04   0.360E+03 -.481E+03 0.310E+04   -.130E+00 0.140E+01 -.185E+01   -.776E-01 0.600E-01 0.986E-01
   -.308E+03 0.437E+03 -.424E+04   0.308E+03 -.442E+03 0.424E+04   -.246E+00 0.374E+01 -.218E+01   -.668E-01 -.258E-01 0.122E+00
   -.223E+03 0.509E+03 -.141E+04   0.223E+03 -.511E+03 0.142E+04   0.228E+00 0.216E+01 -.133E+01   0.824E-01 -.556E-01 0.225E+00
   -.192E+03 0.397E+03 0.154E+04   0.192E+03 -.398E+03 -.154E+04   0.389E+00 0.127E+01 0.235E+00   -.489E-01 -.331E-01 0.283E+00
   -.120E+03 0.184E+03 0.438E+04   0.121E+03 -.181E+03 -.437E+04   -.334E+00 -.175E+01 -.259E+01   0.114E+00 -.123E+00 -.384E-01
   0.187E+03 -.261E+03 -.340E+04   -.190E+03 0.264E+03 0.341E+04   0.286E+01 -.172E+01 -.362E+01   0.240E+00 -.233E+00 0.279E+00
   0.431E+03 -.519E+02 -.430E+03   -.433E+03 0.530E+02 0.431E+03   0.203E+01 -.965E+00 -.765E+00   0.550E-01 -.793E-01 0.403E+00
   0.367E+03 -.535E+01 0.241E+04   -.369E+03 0.532E+01 -.241E+04   0.150E+01 0.318E-01 0.102E+00   0.131E-01 0.117E-01 0.247E+00
   -.123E+03 -.592E+00 0.492E+04   0.118E+03 0.424E+00 -.491E+04   0.364E+01 0.602E-01 -.545E+01   0.928E-01 0.109E+00 -.117E+00
   0.418E+03 -.759E+00 0.435E+04   -.419E+03 0.870E+00 -.435E+04   0.871E+00 0.250E-01 0.339E+01   0.370E-01 -.115E+00 0.249E-01
   0.776E+03 0.165E+03 -.394E+04   -.775E+03 -.165E+03 0.394E+04   -.784E+00 -.837E-01 0.801E+00   0.127E+00 0.168E+00 0.149E+00
   0.413E+03 0.276E+02 -.117E+04   -.414E+03 -.277E+02 0.117E+04   0.129E+01 0.578E-01 0.202E+00   0.461E-01 0.357E-01 0.295E+00
   0.368E+03 0.833E+00 0.162E+04   -.369E+03 -.837E+00 -.162E+04   0.140E+01 0.487E-01 0.245E+00   0.136E+00 -.611E-01 0.291E+00
   0.373E+03 0.122E+02 0.677E+03   -.375E+03 -.123E+02 -.676E+03   0.157E+01 -.385E-02 -.221E+00   -.304E-01 0.387E-01 0.164E+00
   0.443E+03 0.340E+01 0.367E+04   -.445E+03 -.351E+01 -.367E+04   0.194E+01 0.478E-01 0.236E+01   -.123E+00 0.442E-01 0.357E-01
   0.159E+02 -.425E+02 -.468E+04   -.179E+02 0.424E+02 0.467E+04   0.230E+01 0.146E+00 0.904E+01   -.167E+00 -.574E-01 0.695E-01
   0.308E+03 0.873E+01 -.224E+04   -.309E+03 -.870E+01 0.224E+04   0.148E+01 -.525E-01 -.167E+01   -.180E+00 -.122E-02 0.170E+00
   -.244E+02 -.453E+03 -.240E+04   0.229E+02 0.454E+03 0.240E+04   0.103E+01 -.913E+00 -.210E+01   0.277E-01 -.128E+00 0.281E+00
   -.258E+03 -.454E+03 0.562E+03   0.258E+03 0.454E+03 -.561E+03   0.208E-01 -.596E+00 -.110E+01   0.669E-01 0.504E-01 0.315E+00
   -.431E+03 -.401E+03 0.364E+04   0.432E+03 0.399E+03 -.364E+04   -.744E+00 0.200E+01 -.560E+00   0.800E-01 0.161E+00 0.336E-01
   -.282E+03 -.458E+03 -.398E+03   0.282E+03 0.459E+03 0.399E+03   0.513E+00 -.757E+00 -.951E+00   -.285E-01 -.892E-01 0.234E+00
   -.166E+03 -.517E+03 0.244E+04   0.165E+03 0.519E+03 -.244E+04   0.287E+00 -.151E+01 0.146E+01   -.126E+00 -.120E+00 0.116E+00
   0.418E+02 -.517E+03 0.467E+04   -.421E+02 0.516E+03 -.467E+04   0.451E+00 0.597E+00 -.314E+01   -.790E-01 -.635E-01 -.136E+00
   -.276E+02 -.581E+03 -.486E+04   0.276E+02 0.570E+03 0.485E+04   0.726E+00 0.989E+01 0.791E+01   -.961E-01 0.136E+00 0.800E-01
   -.402E+03 -.468E+03 -.309E+04   0.402E+03 0.469E+03 0.310E+04   -.441E+00 -.120E+01 -.182E+01   -.146E+00 -.289E-01 0.124E+00
   -.196E+03 -.319E+03 -.421E+04   0.195E+03 0.322E+03 0.421E+04   0.158E+00 -.273E+01 -.160E+01   0.399E-01 0.163E+00 0.178E+00
   -.201E+03 -.428E+03 -.134E+04   0.200E+03 0.429E+03 0.134E+04   0.730E+00 -.900E+00 -.895E+00   0.107E+00 0.145E+00 0.285E+00
   -.195E+03 -.384E+03 0.156E+04   0.194E+03 0.386E+03 -.156E+04   0.383E+00 -.126E+01 0.229E+00   -.825E-01 0.411E-01 0.287E+00
   -.121E+03 -.182E+03 0.438E+04   0.122E+03 0.180E+03 -.437E+04   -.322E+00 0.170E+01 -.251E+01   0.392E-01 0.643E-01 -.592E-01
   -.486E+02 -.314E+01 -.184E+04   0.486E+02 0.300E+01 0.184E+04   -.221E+00 0.621E+00 -.455E+01   0.311E-01 -.587E-01 0.554E-01
   0.866E+02 -.119E+03 -.106E+04   -.873E+02 0.121E+03 0.106E+04   0.557E+00 -.230E+01 -.290E+01   0.518E-01 -.571E-01 0.838E-01
   0.104E+03 -.152E+03 0.172E+03   -.106E+03 0.154E+03 -.173E+03   0.162E+01 -.209E+01 0.101E+01   0.127E-01 -.160E-02 0.159E+00
   0.396E+02 -.173E+03 0.123E+04   -.409E+02 0.175E+03 -.123E+04   0.175E+01 -.200E+01 0.286E+00   0.959E-01 -.966E-02 0.458E-01
   0.826E+02 -.166E+03 0.925E+03   -.839E+02 0.169E+03 -.926E+03   0.122E+01 -.227E+01 0.107E+01   0.336E-01 -.713E-01 0.495E-01
   0.164E+03 -.243E+03 0.186E+04   -.166E+03 0.246E+03 -.186E+04   0.232E+01 -.417E+01 0.355E+01   -.605E-01 -.381E-01 -.296E-01
   0.121E+03 -.157E+03 -.114E+04   -.123E+03 0.159E+03 0.114E+04   0.862E+00 -.187E+01 0.154E+01   -.889E-02 0.520E-01 0.581E-01
   0.757E+02 -.146E+03 -.145E+03   -.774E+02 0.148E+03 0.144E+03   0.156E+01 -.229E+01 0.346E+00   -.172E-01 -.164E-01 0.146E+00
   0.805E+02 -.141E+03 -.518E+03   -.820E+02 0.143E+03 0.518E+03   0.155E+01 -.238E+01 0.191E+00   -.292E-01 0.594E-01 0.712E-01
   0.105E+03 -.125E+03 0.569E+03   -.106E+03 0.127E+03 -.570E+03   0.165E+01 -.207E+01 0.962E+00   -.312E-01 0.370E-01 0.364E-01
   0.863E+02 0.449E+02 0.162E+04   -.869E+02 -.452E+02 -.162E+04   0.112E+01 0.368E-01 0.217E+01   -.101E+00 0.186E-01 -.238E-01
   0.199E+02 -.895E+02 -.161E+04   -.199E+02 0.904E+02 0.161E+04   0.147E+00 -.184E+01 -.667E+00   -.434E-01 0.141E-01 0.342E-01
   -.922E+02 0.364E+00 0.170E+04   0.926E+02 -.431E+00 -.171E+04   -.178E+01 0.510E-02 0.414E+01   0.530E-02 0.552E-01 -.831E-02
   0.701E+02 -.121E+03 -.166E+04   -.703E+02 0.123E+03 0.166E+04   0.795E+00 -.217E+01 -.659E+00   -.100E+00 -.100E+00 0.494E-01
   -.109E+03 -.698E+01 -.666E+03   0.111E+03 0.682E+01 0.668E+03   -.158E+01 0.203E+00 -.176E+01   -.463E-01 -.110E-01 0.121E+00
   -.136E+03 0.477E+00 0.421E+03   0.138E+03 -.441E+00 -.420E+03   -.165E+01 -.781E-01 -.161E+01   -.206E-01 0.547E-01 0.580E-01
   -.107E+03 -.641E+01 0.178E+02   0.108E+03 0.643E+01 -.163E+02   -.123E+01 -.238E-01 -.188E+01   -.314E-01 -.268E-01 0.835E-01
   -.698E+02 -.128E+01 0.104E+04   0.712E+02 0.128E+01 -.103E+04   -.159E+01 0.439E-01 -.269E+01   -.664E-01 -.375E-01 0.318E-01
   -.115E+03 -.247E+00 0.186E+04   0.116E+03 0.243E+00 -.186E+04   -.145E+01 0.225E-01 0.326E+01   0.644E-02 -.177E-01 -.106E+00
   -.160E+03 -.104E+02 -.106E+04   0.161E+03 0.105E+02 0.106E+04   -.132E+01 -.265E-02 -.904E+00   -.279E-01 -.150E-01 0.444E-01
   -.368E+03 0.327E+01 -.185E+04   0.374E+03 -.341E+01 0.186E+04   -.686E+01 0.965E-01 -.253E+01   -.349E-01 0.160E-01 0.181E-01
   -.930E+02 0.498E+02 -.141E+04   0.944E+02 -.496E+02 0.141E+04   -.145E+01 -.180E+00 0.865E-01   0.411E-01 0.380E-01 0.597E-01
   -.895E+02 0.121E+02 -.312E+03   0.908E+02 -.121E+02 0.313E+03   -.139E+01 0.432E-01 -.211E+01   0.561E-01 0.585E-02 0.151E+00
   -.941E+02 0.127E+01 0.779E+03   0.951E+02 -.131E+01 -.776E+03   -.125E+01 0.622E-01 -.296E+01   0.327E-01 -.178E-01 0.141E+00
   -.858E+02 0.823E-01 0.184E+04   0.857E+02 -.532E-01 -.185E+04   -.168E+01 0.240E-02 0.426E+01   0.137E+00 -.283E-01 -.476E-01
   0.995E+02 0.146E+03 0.185E+03   -.101E+03 -.148E+03 -.186E+03   0.130E+01 0.219E+01 0.914E+00   0.869E-03 0.435E-02 0.188E+00
   0.389E+02 0.172E+03 0.123E+04   -.401E+02 -.174E+03 -.123E+04   0.175E+01 0.195E+01 0.144E+00   0.188E-01 0.289E-01 0.538E-01
   0.149E+03 -.172E+02 -.185E+04   -.152E+03 0.180E+02 0.186E+04   0.353E+01 -.113E+01 -.373E+01   0.162E+00 0.348E-01 0.530E-01
   0.111E+03 0.966E+02 -.887E+03   -.112E+03 -.984E+02 0.886E+03   0.173E+01 0.223E+01 0.106E+01   0.796E-01 0.374E-01 0.204E+00
   0.841E+02 0.166E+03 0.926E+03   -.854E+02 -.168E+03 -.927E+03   0.118E+01 0.226E+01 0.109E+01   0.302E-01 -.441E-02 0.112E-01
   0.164E+03 0.242E+03 0.186E+04   -.167E+03 -.246E+03 -.187E+04   0.233E+01 0.417E+01 0.350E+01   -.431E-01 0.133E-01 -.712E-02
   0.172E+03 0.199E+03 -.117E+04   -.173E+03 -.201E+03 0.117E+04   0.798E+00 0.207E+01 0.144E+01   0.276E-01 -.440E-02 0.202E-01
   0.826E+02 0.148E+03 -.148E+03   -.845E+02 -.150E+03 0.147E+03   0.184E+01 0.213E+01 0.145E+00   0.123E-02 0.135E-01 0.122E+00
   0.654E+02 0.151E+03 -.531E+03   -.669E+02 -.153E+03 0.531E+03   0.154E+01 0.245E+01 0.220E+00   -.349E-01 -.400E-01 0.752E-01
   0.103E+03 0.129E+03 0.562E+03   -.105E+03 -.130E+03 -.563E+03   0.166E+01 0.210E+01 0.823E+00   -.603E-02 -.717E-02 0.551E-01
   0.864E+02 -.443E+02 0.162E+04   -.870E+02 0.446E+02 -.162E+04   0.111E+01 -.278E-01 0.221E+01   -.645E-01 0.208E-01 0.221E-03
   -.334E+01 0.915E+02 -.161E+04   0.302E+01 -.924E+02 0.162E+04   0.469E+00 0.177E+01 -.760E+00   -.732E-01 -.145E-01 0.322E-01
   -.400E+02 0.485E+01 -.106E+02   -.203E-12 -.423E-11 0.227E-11   0.400E+02 -.488E+01 0.287E+01   -.125E+00 -.345E-02 0.781E+01

 POSITION                                       TOTAL-FORCE (eV/Angst)
      6.03859     -2.06748      7.30541        -0.012574      0.097176      0.145814
      7.93319     -2.06748      4.80229         0.176267      0.032153      0.034074
      9.82779     -2.06748      2.29918         0.466311      0.607389      0.657674
      4.14400      7.51093      9.80852        -0.348629      0.200044     -1.253805
      0.36609      7.51093      5.63666        -0.034610      0.000723      0.103444
      2.26069      7.51093      3.13355         0.006814      0.044657     -0.237620
      4.15528      7.51093      0.63043         0.135109      0.552919      1.004169
      6.98025      2.72172     10.64289         0.833491      0.860108     -1.788125
      8.87485      2.72172      8.13978        -0.104584      0.015793      0.272133
      1.30774      2.72172      8.97415         0.052847     -0.993931     -0.115786
      3.20234      2.72172      6.47103        -0.143325     -0.148006      0.069949
      5.09694      2.72172      3.96792        -0.036802     -0.025272     -0.109943
      6.99153      2.72172      1.46480         0.457576      0.579231      0.966002
      2.39650     -0.80215      8.48584         0.126206      0.348844      0.556509
      4.29109     -0.80215      5.98273         0.170971      0.100043      0.054465
      6.18569     -0.80215      3.47961         0.170652      0.017383     -0.027836
      8.08029     -0.80215      0.97650        -1.492183      0.001767      0.852999
      0.51318      8.77626      1.81087         0.406564      0.021567     -0.689104
      5.23275      3.98706      9.32022         0.531870      0.110367     -0.797660
      7.12734      3.98706      6.81710        -0.069031      0.023200      0.148425
      9.02194      3.98706      4.31399         0.241384     -0.015367      0.121374
      1.45484      3.98706      5.14836         0.027021     -0.028157      0.170653
      3.34944      3.98706      2.64524         0.063562     -0.016165     -0.510608
      8.06900     -0.80215     10.15459         0.197864     -0.014611     -1.736351
      9.96360     -0.80215      7.65147         0.117739     -0.026924      0.323610
      6.03859      0.46319      7.30541        -0.403522     -0.048807      0.107671
      7.93319      0.46319      4.80229         0.149426     -0.034905      0.032298
      9.82779      0.46319      2.29918         0.496902     -0.601943      0.668150
      0.36609      0.46319      5.63666        -0.032962      0.024732      0.111773
      2.26069      0.46319      3.13355         0.014981     -0.045367     -0.231684
      4.15528      0.46319      0.63043         0.127346     -0.550919      1.005287
      6.98025      5.25240     10.64289         0.674217     -0.763448     -1.761038
      8.87485      5.25240      8.13978        -0.190379      0.037794      0.257476
      1.30774      5.25240      8.97415        -0.094499      0.646018     -0.332016
      3.20234      5.25240      6.47103        -0.083220      0.056998      0.120385
      5.09694      5.25240      3.96792        -0.031438      0.037917     -0.102416
      6.99153      5.25240      1.46480         0.470287     -0.579145      0.967614
      1.91849      0.80909      9.99696        -0.215698      0.420159     -0.662279
      3.81309      0.80909      7.49384        -0.048592     -0.297157     -0.468681
      5.70769      0.80909      4.99073         0.023730     -0.107405      0.014325
      7.60228      0.80909      2.48761         0.542134     -0.113412     -0.987895
      0.03518      0.80909      3.32198        -0.017746     -0.154225     -0.315471
      1.92978      0.80909      0.81887         0.243154     -0.306845      0.660139
      6.64934      5.59829      8.32821        -0.453859     -0.202328      0.885680
      8.54394      5.59829      5.82510        -0.123296     -0.064456     -0.069503
      0.97684      5.59829      6.65947         0.024180     -0.276060     -0.171860
      2.87143      5.59829      4.15636        -0.007340     -0.179165     -0.099569
      4.76603      5.59829      1.65324         0.481628     -0.254210     -0.416258
      9.48560      0.80909      9.16258         0.035574     -0.882132      0.566249
      1.31873      3.98706      1.66874        -1.376982     -0.005970     -0.506039
      6.03829     -0.80215      9.17809         0.485896     -0.645729      1.400892
      7.93289     -0.80215      6.67497        -0.042422      0.031857     -0.018343
      9.82749     -0.80215      4.17186        -0.134105      0.013063     -0.095546
      2.26038     -0.80215      5.00623         0.163232     -0.029197     -0.265258
      4.15498     -0.80215      2.50311        -0.265618     -0.002970     -0.423195
      6.04958     -0.80215      0.00000        -0.965874      0.001162     -0.148903
      0.36579      8.77626      7.50934         0.041988      0.056836      0.184759
      8.87455      3.98706     10.01246        -1.233105     -0.030327      1.211562
      3.20204      3.98706      8.34372        -0.042717     -0.017312      1.555502
      5.09664      3.98706      5.84060        -0.009305     -0.031281     -0.177451
      6.99123      3.98706      3.33749        -0.187943      0.010746     -0.529652
      8.88583      3.98706      0.83437        -1.725559      0.003615     -0.329760
      5.70769     -2.41338      4.99073        -0.157906      0.137397     -0.055539
      7.60228     -2.41338      2.48761         0.570799      0.096668     -1.009375
      1.91849      7.16503      9.99696         1.115536     -0.289168     -0.044355
      3.81309      7.16503      7.49384        -0.018569      0.417389      0.239551
      0.03518      7.16503      3.32198        -0.024577      0.139951     -0.283805
      1.92978      7.16503      0.81887         0.243590      0.282017      0.637149
      6.64934      2.37583      8.32821        -0.493226      0.125922      1.030736
      8.54394      2.37583      5.82510        -0.091338      0.050468     -0.160125
      0.97684      2.37583      6.65947         0.083418      0.267849     -0.204622
      2.87143      2.37583      4.15636        -0.021676      0.188144     -0.123186
      4.76603      2.37583      1.65324         0.486693      0.276225     -0.399963
      9.48560     -2.41338      9.16258         0.078253      0.846024      0.522136
    total drift:                               -0.122477     -0.033904      0.133720

  FREE ENERGIE OF THE ION-ELECTRON SYSTEM (eV)
  free  energy   TOTEN  =      -366.55557261 eV

  energy  without entropy=     -365.39657502  energy(sigma->0) =     -365.97607382