 vasp.5.4.4.18Apr17-6-g9f103f2a35 (build Aug 13 2019 17:33:20) gamma-only

 executed on             LinuxIFC date 2020.05.11  22:57:17

 INCAR:
 POTCAR:    PAW_PBE Ni_pv 06Sep2000
 POTCAR:    PAW_PBE S 06Sep2000
 POTCAR:    PAW_PBE Ni_pv 06Sep2000
   VRHFIN =Ni:

   TITEL  = PAW_PBE Ni_pv 06Sep2000
   POMASS =   58.690; ZVAL   =   16.000    mass and valenz
   ENMAX  =  367.986; ENMIN  =  275.989 eV

 POTCAR:    PAW_PBE S 06Sep2000
   VRHFIN =S : s2p4

   TITEL  = PAW_PBE S 06Sep2000
   POMASS =   32.066; ZVAL   =    6.000    mass and valenz
   ENMAX  =  258.689; ENMIN  =  194.016 eV

 Optimization of the real space projectors (new method)

 maximal supplied QI-value         = 18.90
 optimisation between [QCUT,QGAM] = [ 10.77, 21.73] = [ 32.49,132.25] Ry
 Optimized for a Real-space Cutoff    1.38 Angstroem

   l    n(q)    QCUT    max X(q) W(low)/X(q) W(high)/X(q)  e(spline)
   1      8    10.771     2.836    0.40E-04    0.29E-04    0.12E-06
   1      8    10.771     4.023    0.10E-03    0.48E-04    0.29E-06
   2      8    10.771    73.368    0.42E-03    0.97E-04    0.44E-06
   2      8    10.771    69.010    0.42E-03    0.99E-04    0.45E-06
   0      9    10.771    54.797    0.10E-03    0.56E-04    0.74E-07
   0      9    10.771    24.266    0.89E-04    0.49E-04    0.67E-07
 Optimization of the real space projectors (new method)

 maximal supplied QI-value         = 19.84
 optimisation between [QCUT,QGAM] = [ 10.71, 21.63] = [ 32.15,130.99] Ry
 Optimized for a Real-space Cutoff    1.19 Angstroem

   l    n(q)    QCUT    max X(q) W(low)/X(q) W(high)/X(q)  e(spline)
   0      8    10.715   187.594    0.41E-03    0.53E-04    0.66E-07
   0      8    10.715   164.243    0.41E-03    0.53E-04    0.65E-07
   1      7    10.715    67.533    0.19E-03    0.59E-03    0.68E-07
   1      7    10.715    50.729    0.19E-03    0.58E-03    0.67E-07
  PAW_PBE Ni_pv 06Sep2000               :
  PAW_PBE S 06Sep2000                   :

 POSCAR: Type_037 Type_137
  positions in cartesian coordinates
 exchange correlation table for  LEXCH =        8
   RHO(1)=    0.500       N(1)  =     2000
   RHO(2)=  100.500       N(2)  =     4000

 ion  position               nearest neighbor table
   1  0.780  0.145  0.118-  51 2.07  65 2.08  42 2.25  52 2.36  66 2.36
   2  0.799  0.145  0.279-  52 2.04  66 2.04  43 2.06
   3  0.215  0.628  0.093-  44 2.03  45 2.11  63 2.21   4 2.40  53 2.44  15 2.47
   4  0.297  0.645  0.211-  54 2.10  64 2.21  45 2.25  53 2.26  63 2.26   3 2.40  29 2.53  16 2.53

   5  0.387  0.133  0.123-  47 2.04  48 2.12  69 2.26   6 2.42  55 2.42  30 2.49
   6  0.470  0.145  0.242-  70 2.05  56 2.08  48 2.25  55 2.26  69 2.26   5 2.42  31 2.53  19 2.53

[...]

  70  0.520  0.991  0.311-  19 2.03   6 2.05  56 2.72  69 2.77
  71  0.657  0.477  0.179-  11 2.17  31 2.25  25 2.26  12 2.26  24 2.32
  72  0.695  0.499  0.343-  25 2.02  12 2.03  62 2.79
  73  0.140  0.968  0.108-   9 2.09  22 2.10  32 2.11  74 2.77
  74  0.174  0.977  0.272-  23 2.03  10 2.12  33 2.14   9 2.36  22 2.36  73 2.77

  LATTYP: Found a simple orthorhombic cell.
 ALAT       =     9.5784100000
 B/A-ratio  =     1.7276387782
 C/A-ratio  =     1.7627867312

  Lattice vectors:

 A1 = (   0.0000000000,   9.5784100000,   0.0000000000)
 A2 = (   0.0000000000,   0.0000000000, -16.5480325497)
 A3 = ( -16.8846940542,   0.0000000000,   0.0000000000)

Analysis of symmetry for initial positions (statically):
 Subroutine PRICEL returns:
 Original cell was already a primitive cell.

 Routine SETGRP: Setting up the symmetry group for a
 simple orthorhombic supercell.

 Subroutine GETGRP returns: Found  1 space group operations
 (whereof  1 operations were pure point group operations)
 out of a pool of  8 trial point group operations.

The static configuration has the point symmetry C_1 .

Analysis of symmetry for dynamics (positions and initial velocities):
 Subroutine PRICEL returns:
 Original cell was already a primitive cell.

 Routine SETGRP: Setting up the symmetry group for a
 simple orthorhombic supercell.

 Subroutine GETGRP returns: Found  1 space group operations
 (whereof  1 operations were pure point group operations)
 out of a pool of  8 trial point group operations.

The dynamic configuration has the point symmetry C_1 .

 Subroutine INISYM returns: Found  1 space group operations
 (whereof  1 operations are pure point group operations),
 and found     1 'primitive' translations

 KPOINTS: gamma-point-only calculation. no periodi

Automatic generation of k-mesh.
Space group operators:
 irot       det(A)        alpha          n_x          n_y          n_z        tau_x        tau_y        tau_z
    1     1.000000     0.000001     1.000000     0.000000     0.000000     0.000000     0.000000     0.000000

 Subroutine IBZKPT returns following result:

 Found      1 irreducible k-points:

 Following reciprocal coordinates:
            Coordinates               Weight
  0.000000  0.000000  0.000000      1.000000

 Following cartesian coordinates:
            Coordinates               Weight
  0.000000  0.000000  0.000000      1.000000

 SYSTEM =  "Millerite NiS"
 POSCAR =  Type_037 Type_137

 Startparameter for this run:
   NWRITE =      2    write-flag & timer
   PREC   = normal    normal or accurate (medium, high low for compatibility)
   ISTART =      0    job   : 0-new  1-cont  2-samecut
   ICHARG =      2    charge: 1-file 2-atom 10-const
   ISPIN  =      1    spin polarized calculation?
   LNONCOLLINEAR =      F non collinear calculations
   LSORBIT =      F    spin-orbit coupling
   INIWAV =      1    electr: 0-lowe 1-rand  2-diag
   LASPH  =      F    aspherical Exc in radial PAW
   METAGGA=      F    non-selfconsistent MetaGGA calc.

 Electronic Relaxation 1
   ENCUT  =  450.0 eV  33.07 Ry    5.75 a.u.  29.20 16.57 28.62*2*pi/ulx,y,z
   ENINI  =  450.0     initial cutoff
   ENAUG  =  703.4 eV  augmentation charge cutoff
   NELM   =    100;   NELMIN=  2; NELMDL= -5     # of ELM steps
   EDIFF  = 0.1E-03   stopping-criterion for ELM
   LREAL  =      T    real-space projection
   NLSPLINE    = F    spline interpolate recip. space projectors
   LCOMPAT=      F    compatible to vasp.4.4
   GGA_COMPAT  = T    GGA compatible to vasp.4.4-vasp.4.6
   LMAXPAW     = -100 max onsite density
   LMAXMIX     =    2 max onsite mixed and CHGCAR
   VOSKOWN=      0    Vosko Wilk Nusair interpolation
   ROPT   =   -0.00050  -0.00050
 Ionic relaxation
   EDIFFG = 0.1E-02   stopping-criterion for IOM
   NSW    =      0    number of steps for IOM
   NBLOCK =      1;   KBLOCK =      1    inner block; outer block
   IBRION =     -1    ionic relax: 0-MD 1-quasi-New 2-CG
   NFREE  =      0    steps in history (QN), initial steepest desc. (CG)
   ISIF   =      2    stress and relaxation
   IWAVPR =     10    prediction:  0-non 1-charg 2-wave 3-comb
   ISYM   =      2    0-nonsym 1-usesym 2-fastsym
   LCORR  =      T    Harris-Foulkes like correction to forces

   POTIM  = 0.5000    time-step for ionic-motion
   TEIN   =    0.0    initial temperature
   TEBEG  =    0.0;   TEEND  =   0.0 temperature during run
   SMASS  =  -3.00    Nose mass-parameter (am)
   estimated Nose-frequenzy (Omega)   =  0.10E-29 period in steps =****** mass=  -0.652E-26a.u.
   SCALEE = 1.0000    scale energy and forces
   NPACO  =    256;   APACO  = 16.0  distance and # of slots for P.C.
   PSTRESS=    0.0 pullay stress

  Mass of Ions in am
   POMASS =  58.69 32.07
  Ionic Valenz
   ZVAL   =  16.00  6.00
  Atomic Wigner-Seitz radii
  virtual crystal weights
   VCA    =   1.00  1.00
   NELECT =     814.0000    total number of electrons
   NUPDOWN=      -1.0000    fix difference up-down

 DOS related values:
   EMIN   =  10.00;   EMAX   =-10.00  energy-range for DOS
   EFERMI =   0.00
   ISMEAR =     0;   SIGMA  =   0.20  broadening in eV -4-tet -1-fermi 0-gaus

 Electronic relaxation 2 (details)
   IALGO  =     38    algorithm
   LDIAG  =      T    sub-space diagonalisation (order eigenvalues)
   LSUBROT=      F    optimize rotation matrix (better conditioning)
   TURBO    =      0    0=normal 1=particle mesh
   IRESTART =      0    0=no restart 2=restart with 2 vectors
   NREBOOT  =      0    no. of reboots
   NMIN     =      0    reboot dimension
   EREF     =   0.00    reference energy to select bands
   IMIX   =      4    mixing-type and parameters
     AMIX     =   0.40;   BMIX     =  1.00
     AMIX_MAG =   1.60;   BMIX_MAG =  1.00
     AMIN     =   0.10
     WC   =   100.;   INIMIX=   1;  MIXPRE=   1;  MAXMIX= -45

 Intra band minimization:
   WEIMIN = 0.0000     energy-eigenvalue tresh-hold
   EBREAK =  0.51E-07  absolut break condition
   DEPER  =   0.30     relativ break condition

   TIME   =   0.40     timestep for ELM

  volume/ion in A,a.u.               =      36.17       244.06
  Fermi-wavevector in a.u.,A,eV,Ry     =   1.100961  2.080515 16.491830  1.212115
  Thomas-Fermi vector in A             =   2.237381

 Write flags
   LWAVE        =      F    write WAVECAR
   LDOWNSAMPLE  =      F    k-point downsampling of WAVECAR
   LCHARG       =      F    write CHGCAR
   LVTOT        =      F    write LOCPOT, total local potential
   LVHAR        =      F    write LOCPOT, Hartree potential only
   LELF         =      F    write electronic localiz. function (ELF)
   LORBIT       =      0    0 simple, 1 ext, 2 COOP (PROOUT), +10 PAW based schemes

 Dipole corrections
   LMONO  =      F    monopole corrections only (constant potential shift)
   LDIPOL =      F    correct potential (dipole corrections)
   IDIPOL =      0    1-x, 2-y, 3-z, 4-all directions
   EPSILON=  1.0000000 bulk dielectric constant

 Exchange correlation treatment:
   GGA     =    --    GGA type
   VOSKOWN=      0    Vosko Wilk Nusair interpolation
   LHFCALC =     F    Hartree Fock is set to
   LHFONE  =     F    Hartree Fock one center treatment
   AEXX    =    0.0000 exact exchange contribution

 Linear response parameters
   LEPSILON=     F    determine dielectric tensor
   LRPA    =     F    only Hartree local field effects (RPA)
   LNABLA  =     F    use nabla operator in PAW spheres
   LVEL    =     F    velocity operator in full k-point grid
   LINTERFAST=   F  fast interpolation
   KINTER  =     0    interpolate to denser k-point grid
   CSHIFT  =0.1000    complex shift for real part using Kramers Kronig
   OMEGAMAX=  -1.0    maximum frequency
   DEG_THRESHOLD= 0.2000000E-02 threshold for treating states as degnerate
   RTIME   =   -0.100 relaxation time in fs
  (WPLASMAI=    0.000 imaginary part of plasma frequency in eV, 0.658/RTIME)
   DFIELD  = 0.0000000 0.0000000 0.0000000 field for delta impulse in time

 Orbital magnetization related:
   ORBITALMAG=     F  switch on orbital magnetization
   LCHIMAG   =     F  perturbation theory with respect to B field
   DQ        =  0.001000  dq finite difference perturbation B field
   LLRAUG    =     F  two centre corrections for induced B field

 Static calculation
 charge density and potential will be updated during run
 non-spin polarized calculation
 Variant of blocked Davidson
 Davidson routine will perform the subspace rotation
 perform sub-space diagonalisation
    after iterative eigenvector-optimisation
[...]
     0.000000000  9.578410000  0.000000000     0.000000000  0.104401461  0.000000000
     0.000000000  0.000000000 16.548032550     0.000000000  0.000000000  0.060430145

  length of vectors
    16.884694054  9.578410000 16.548032550     0.059225237  0.104401461  0.060430145

 FORCES acting on ions
    electron-ion (+dipol)            ewald-force                    non-local-force                 convergence-correction
   0.583E+03 -.142E+03 0.208E+04   -.586E+03 0.142E+03 -.208E+04   0.361E+01 0.104E+00 0.550E+01   -.203E-01 -.162E-01 0.438E-02
   0.401E+03 -.230E+02 -.297E+04   -.404E+03 0.230E+02 0.297E+04   0.384E+01 0.262E-02 0.174E+01   -.215E-01 -.499E-02 0.563E-02
   0.149E+03 0.697E+02 0.293E+04   -.149E+03 -.702E+02 -.294E+04   0.114E+01 0.653E+00 0.728E+01   0.127E-01 -.221E-02 0.120E-01
   0.352E+03 -.961E+01 -.126E+04   -.355E+03 0.985E+01 0.126E+04   0.243E+01 -.492E+00 -.494E+01   0.442E-02 -.299E-02 -.119E-02
   0.105E+03 -.289E+03 0.227E+04   -.105E+03 0.290E+03 -.228E+04   0.184E+01 -.997E+00 0.802E+01   0.153E-01 0.434E-02 0.331E-02
   0.260E+03 0.299E+01 -.205E+04   -.263E+03 -.123E+01 0.206E+04   0.279E+01 -.948E+00 -.719E+01   0.684E-02 -.109E-01 -.827E-02
   0.639E+03 -.703E+01 0.141E+04   -.644E+03 0.708E+01 -.141E+04   0.502E+01 -.609E-01 0.441E+01   0.174E-02 0.969E-02 -.582E-02
   0.634E+03 -.176E+00 -.323E+04   -.639E+03 0.191E+00 0.324E+04   0.345E+01 0.176E-01 -.379E+01   0.104E-01 0.447E-02 0.139E-02
   0.488E+03 0.279E+00 0.881E+03   -.493E+03 -.120E+00 -.884E+03   0.384E+01 -.771E-01 0.284E+01   0.132E-01 0.427E-02 -.574E-02
   -.456E+02 -.471E+01 -.348E+04   0.424E+02 0.471E+01 0.348E+04   0.417E+01 -.506E-01 -.459E+00   0.128E-01 -.225E-03 0.135E-01
   -.393E+03 0.487E+03 0.180E+04   0.395E+03 -.489E+03 -.180E+04   -.132E+01 0.142E+01 0.331E+01   -.430E-03 0.107E-01 -.114E-01
   0.335E+03 -.115E+02 -.250E+04   -.338E+03 0.118E+02 0.250E+04   0.199E+01 -.292E+00 -.749E+01   -.201E-02 0.437E-02 -.322E-02
   -.533E+03 0.223E+03 0.248E+04   0.539E+03 -.225E+03 -.249E+04   -.493E+01 0.270E+01 0.575E+01   -.129E-01 -.128E-01 -.611E-02
   0.593E+02 0.456E+03 -.226E+04   -.575E+02 -.459E+03 0.226E+04   -.261E+01 0.208E+01 -.414E+01   -.146E-01 -.105E-01 -.627E-03
   0.244E+02 0.433E+03 0.393E+04   -.262E+02 -.434E+03 -.394E+04   0.153E+01 0.417E+00 0.538E+01   0.202E-02 -.231E-02 0.953E-02
   -.295E+03 0.553E+03 0.346E+03   0.294E+03 -.558E+03 -.347E+03   0.538E+00 0.416E+01 -.601E+00   -.143E-01 0.227E-02 -.121E-01
   -.218E+03 -.586E+02 -.355E+04   0.219E+03 0.549E+02 0.355E+04   -.108E+01 0.454E+01 0.108E+01   -.550E-02 -.608E-02 -.394E-02
   -.602E+03 0.308E+03 0.323E+04   0.600E+03 -.308E+03 -.323E+04   0.195E+01 -.277E+00 0.166E+01   0.267E-02 0.752E-02 0.544E-02
   -.451E+03 0.298E+03 -.141E+04   0.455E+03 -.302E+03 0.142E+04   -.338E+01 0.395E+01 -.622E+01   -.781E-02 0.454E-02 -.764E-02
   0.975E+02 0.648E+03 0.208E+04   -.978E+02 -.653E+03 -.208E+04   0.222E+00 0.493E+01 0.404E+01   0.170E-01 0.815E-02 0.970E-03
   -.323E+03 0.413E+03 -.271E+04   0.326E+03 -.419E+03 0.271E+04   -.178E+01 0.464E+01 -.364E+01   0.187E-01 0.609E-02 -.205E-02
   0.175E+03 0.381E+03 0.129E+04   -.176E+03 -.384E+03 -.130E+04   0.171E+01 0.220E+01 0.389E+01   0.238E-01 -.196E-02 0.173E-02
   -.258E+03 0.159E+03 -.335E+04   0.259E+03 -.163E+03 0.335E+04   -.665E+00 0.388E+01 0.286E+01   0.193E-01 -.453E-02 0.427E-02
   0.463E+03 -.396E+03 0.259E+04   -.465E+03 0.399E+03 -.260E+04   0.169E+01 -.193E+01 0.781E+01   -.187E-01 0.478E-02 -.389E-02
   -.139E+03 0.356E+03 -.174E+04   0.141E+03 -.359E+03 0.174E+04   -.169E+01 0.271E+01 -.545E+01   -.192E-01 -.755E-02 -.156E-02
   -.513E+03 -.210E+03 0.249E+04   0.519E+03 0.212E+03 -.250E+04   -.504E+01 -.259E+01 0.579E+01   -.778E-02 -.244E-02 -.707E-02
   0.661E+02 -.456E+03 -.226E+04   -.643E+02 0.460E+03 0.226E+04   -.273E+01 -.211E+01 -.389E+01   -.111E-01 -.162E-03 0.568E-02
   -.143E+02 -.245E+03 0.393E+04   0.172E+02 0.243E+03 -.393E+04   -.314E+01 0.207E+01 -.924E+00   0.106E-01 0.569E-02 0.386E-02
   -.251E+03 -.336E+03 -.663E+03   0.251E+03 0.339E+03 0.668E+03   0.319E+00 -.316E+01 -.454E+01   -.289E-02 0.207E-02 0.156E-02
   -.211E+03 -.739E+03 0.345E+04   0.212E+03 0.741E+03 -.346E+04   -.445E+00 -.207E+01 0.547E+01   0.103E-02 -.984E-02 0.805E-02
   -.501E+03 -.573E+03 -.719E+03   0.504E+03 0.579E+03 0.719E+03   -.248E+01 -.551E+01 -.210E+01   -.276E-02 -.203E-01 -.627E-02
   0.309E+02 -.650E+03 0.209E+04   -.306E+02 0.656E+03 -.209E+04   -.704E-01 -.499E+01 0.415E+01   0.714E-02 -.519E-02 0.791E-03
   -.338E+03 -.418E+03 -.270E+04   0.340E+03 0.424E+03 0.270E+04   -.161E+01 -.467E+01 -.401E+01   0.131E-01 -.560E-02 -.991E-03
   0.519E+02 -.380E+03 0.141E+04   -.530E+02 0.383E+03 -.141E+04   0.144E+01 -.272E+01 0.324E+01   0.237E-01 0.137E-01 0.495E-02
   -.110E+03 -.100E+03 -.310E+04   0.111E+03 0.103E+03 0.310E+04   -.137E+01 -.326E+01 0.129E+01   0.893E-02 0.250E-02 -.513E-02
   0.136E+03 0.480E+03 0.250E+04   -.137E+03 -.482E+03 -.251E+04   0.103E+01 0.112E+01 0.762E+01   -.183E-01 0.130E-02 -.687E-02
   -.212E+03 -.294E+03 -.179E+04   0.216E+03 0.297E+03 0.180E+04   -.217E+01 -.263E+01 -.616E+01   -.166E-01 0.162E-01 -.162E-01
   0.107E+03 -.600E+00 -.162E+04   -.106E+03 0.681E+00 0.163E+04   -.119E+01 -.386E-01 -.159E+01   -.408E-02 -.220E-02 0.363E-02
   -.252E+03 -.374E+00 0.394E+03   0.254E+03 0.273E+00 -.397E+03   0.104E+00 0.134E+00 0.664E+00   -.387E-02 -.458E-02 -.176E-02
   -.313E+03 0.338E+03 0.126E+04   0.316E+03 -.341E+03 -.127E+04   -.145E+01 0.265E+01 0.271E+01   0.107E-02 0.160E-02 0.192E-02
   -.623E+02 -.174E+03 -.906E+03   0.614E+02 0.176E+03 0.912E+03   0.106E+01 -.103E+01 -.381E+01   -.181E-02 0.729E-02 -.693E-02
   -.234E+03 -.212E+03 0.940E+03   0.236E+03 0.214E+03 -.943E+03   -.943E+00 -.236E+01 0.140E+01   -.829E-02 -.579E-02 0.290E-02
   -.667E+02 -.112E+02 -.115E+04   0.682E+02 0.112E+02 0.116E+04   -.728E+00 -.789E-01 -.229E+01   -.315E-02 -.278E-02 -.373E-02
   0.103E+03 -.196E+02 0.176E+04   -.103E+03 0.197E+02 -.177E+04   0.386E+00 -.388E-01 0.184E+01   0.396E-02 0.549E-03 0.148E-02
   -.135E+03 -.212E+02 -.262E+03   0.136E+03 0.211E+02 0.265E+03   0.741E+00 0.176E+00 -.292E+01   0.776E-02 -.415E-03 -.241E-03
   -.870E+02 0.551E+00 -.177E+04   0.874E+02 -.522E+00 0.178E+04   0.188E+00 -.518E-02 -.918E+00   0.614E-02 0.758E-03 0.834E-03
   0.127E+03 -.560E+02 0.165E+04   -.128E+03 0.561E+02 -.166E+04   0.142E+01 -.776E-01 0.200E+01   0.916E-02 0.337E-02 -.244E-03
   -.105E+03 -.457E+01 -.693E+03   0.106E+03 0.480E+01 0.699E+03   0.332E+00 0.207E+00 -.433E+01   0.763E-02 0.274E-02 0.393E-03
   -.226E+02 -.155E+02 0.718E+03   0.236E+02 0.157E+02 -.721E+03   -.626E+00 0.220E+00 0.189E+01   -.688E-02 0.579E-02 -.488E-02
   -.184E+02 0.164E+01 -.128E+04   0.202E+02 -.168E+01 0.128E+04   -.955E+00 0.562E-01 -.231E+01   -.477E-02 0.916E-03 0.669E-03
   0.796E+02 -.106E+03 0.172E+04   -.796E+02 0.107E+03 -.173E+04   -.364E+00 -.356E+00 0.260E+01   -.587E-02 0.302E-03 -.324E-02
   0.109E+03 -.145E+03 -.353E+03   -.109E+03 0.146E+03 0.357E+03   -.545E+00 0.771E+00 -.214E+01   -.939E-02 -.365E-02 0.381E-02
   0.222E+03 -.272E+03 0.812E+03   -.224E+03 0.274E+03 -.813E+03   0.124E+01 -.108E+01 0.521E+00   0.430E-02 -.549E-02 0.357E-02
   -.104E+03 0.833E+01 -.130E+04   0.105E+03 -.756E+01 0.130E+04   -.868E+00 -.463E+00 -.290E+01   -.794E-05 -.819E-03 -.360E-02
   -.194E+02 -.310E+03 0.663E+03   0.195E+02 0.313E+03 -.665E+03   -.126E+01 -.164E+01 0.196E+01   -.616E-03 -.662E-02 -.302E-03
   -.130E+03 0.761E+02 -.153E+04   0.131E+03 -.740E+02 0.154E+04   -.849E+00 -.232E+01 -.209E+01   0.180E-02 -.119E-01 -.487E-02
   0.149E+03 -.188E+03 -.433E+03   -.150E+03 0.190E+03 0.433E+03   -.101E-01 -.864E+00 -.668E+00   0.267E-02 0.184E-02 -.194E-02
   0.834E+02 -.700E+02 0.137E+04   -.851E+02 0.695E+02 -.137E+04   0.116E+01 0.123E+01 0.414E+01   -.140E-02 0.159E-02 -.149E-02
   0.131E+03 0.561E+02 0.115E+04   -.132E+03 -.573E+02 -.115E+04   0.228E+00 0.102E+01 0.392E+01   0.692E-02 0.619E-02 -.231E-02
   0.251E+02 -.921E+02 -.850E+03   -.258E+02 0.935E+02 0.852E+03   0.366E+00 -.129E+01 -.104E+01   0.116E-01 0.785E-02 0.585E-04
   -.788E+02 0.255E+02 0.103E+03   0.777E+02 -.235E+02 -.103E+03   0.133E+01 -.804E+00 -.364E+00   -.287E-02 0.834E-02 -.744E-02
   0.711E+02 -.244E+03 -.160E+04   -.722E+02 0.247E+03 0.161E+04   0.541E+00 -.240E+01 -.586E+00   -.410E-02 0.419E-02 0.106E-02
   0.824E+01 0.360E+03 0.900E+03   -.799E+01 -.363E+03 -.902E+03   -.113E+01 0.115E+01 0.257E+01   0.176E-02 0.176E-02 0.504E-02
   0.973E+02 -.110E+03 -.132E+04   -.988E+02 0.109E+03 0.132E+04   0.346E+00 0.114E+01 -.221E+01   -.937E-02 0.576E-03 -.637E-02
   0.901E+01 0.873E+02 0.173E+04   -.895E+01 -.883E+02 -.174E+04   -.323E+00 0.107E+00 0.266E+01   -.636E-02 -.693E-02 0.314E-02
   0.703E+02 0.146E+03 -.367E+03   -.702E+02 -.146E+03 0.370E+03   -.832E+00 -.863E+00 -.219E+01   -.755E-02 -.178E-03 -.235E-02
   0.152E+03 0.188E+03 -.435E+03   -.153E+03 -.190E+03 0.436E+03   -.114E+00 0.869E+00 -.789E+00   0.485E-02 0.135E-02 -.709E-03
   0.822E+02 0.698E+02 0.137E+04   -.840E+02 -.693E+02 -.138E+04   0.141E+01 -.124E+01 0.428E+01   0.130E-02 0.262E-02 -.340E-02
   0.722E+02 0.759E+02 0.253E+03   -.740E+02 -.784E+02 -.252E+03   0.711E+00 0.120E+01 -.172E+01   0.538E-02 0.462E-02 0.955E-03
   0.228E+02 0.239E+03 -.151E+04   -.235E+02 -.242E+03 0.151E+04   0.282E+00 0.162E+01 -.100E+01   0.710E-03 0.340E-02 -.671E-02
   0.522E+02 0.140E+03 0.372E+03   -.546E+02 -.142E+03 -.375E+03   0.248E+01 0.114E+01 0.143E+01   -.323E-02 -.235E-02 -.249E-02
   0.362E+02 0.238E+03 -.157E+04   -.369E+02 -.242E+03 0.158E+04   0.309E+00 0.233E+01 -.974E+00   -.246E-02 -.357E-02 0.226E-02
   0.134E+03 -.373E+02 0.114E+04   -.135E+03 0.382E+02 -.115E+04   0.339E+00 -.900E+00 0.396E+01   0.754E-03 -.693E-02 -.423E-02
   0.349E+02 0.112E+03 -.830E+03   -.355E+02 -.113E+03 0.832E+03   -.235E+00 0.138E+01 -.809E+00   0.737E-02 -.762E-02 0.317E-02
   -.106E+02 -.240E+01 -.284E+02   0.128E-11 -.753E-12 0.364E-11   0.106E+02 0.235E+01 0.285E+02   0.277E-01 -.183E-01 -.634E-01

 POSITION                                       TOTAL-FORCE (eV/Angst)
     13.17084      1.39171      1.94975         0.121267      0.149657      0.929020
     13.48340      1.39196      4.61032         0.141765      0.052726      0.843280
      3.63534      6.01816      1.54325         1.000750      0.172538     -0.352346
      5.02033      6.18092      3.49202        -0.341730     -0.253639     -0.233057
      6.52949      1.27007      2.03676         0.866826      0.169238     -0.261934
      7.93172      1.39171      4.00611        -0.977340      0.808779     -1.018648
     16.08224      6.18092      2.46384        -0.365679      0.007002      2.172567
     16.44866      6.18096      5.17755        -1.701162      0.037798      0.466055
      2.10894      1.39171      2.97793        -0.677607      0.087432      0.376575
      1.83442      1.39109      5.31792         1.050098     -0.052811      0.955020
      9.78173      6.21974      2.40333         0.748946     -0.137585     -0.975101
     10.84312      6.18092      4.52020        -0.980683     -0.040044     -1.462192
     15.37187      0.04296      1.89962         0.951790      0.554557      0.039699
     15.93729      0.12024      4.39068        -0.895125     -0.924439      0.034406
      6.02966      6.18218      0.93974        -0.277516     -0.006854     -1.728699
      7.17375      4.91558      3.08454         0.075770     -0.288248     -1.978805
      8.11689      4.42897      5.20245        -0.078850      0.789816      1.130192
      9.99749      8.74997      1.43575         0.072814     -0.278314     -1.040624
     10.08514      0.12638      3.59863         1.258234      0.209215     -0.572606
      1.35096      4.91558      2.05636         0.015440     -0.451441      1.582584
      1.89510      4.84344      4.80417         1.217103     -1.111653      0.565628
      4.26235      0.12638      2.57045         0.199980     -0.802661      0.890800
      4.91019      9.35645      4.97648         0.157616      0.125388      0.718684
     13.11235      4.16565      1.90572        -0.886991      0.740664      0.408796
     12.99653      4.91558      4.11272         0.571385     -0.048862     -1.306330
     15.37148      2.73708      1.89646         1.004472     -0.614393      0.024403
     15.93574      2.66387      4.38936        -0.895399      0.899858      0.030545
      7.52163      8.17814      0.86217        -0.224871      0.385161     -0.761687
      7.17375      7.44626      3.08454         0.240562     -0.242659      0.282293
      8.94517      1.40583      1.43060        -0.309007      0.017923     -1.913481
     10.08514      2.65705      3.59863         0.647317      0.462672     -1.906732
      1.35096      7.44626      2.05636         0.311659      0.399248      1.780185
      1.89120      7.51488      4.80839         1.127929      1.066054      0.586833
      4.26235      2.65705      2.57045         0.368492      0.724096      0.671172
      4.98275      3.15852      4.82316        -0.254197     -0.301556      0.931509
     12.96410      8.30395      1.90683        -0.592679     -1.131444      0.266727
     12.99653      7.44626      4.11272         1.084237      0.009505     -1.384244
     16.75436      1.39295      5.79403        -0.191466      0.041160      3.232499
     16.74052      1.39171      2.94940         1.836784      0.029920     -2.346562
      8.00634      6.18092      1.40713         1.341007     -0.336398     -2.982466
      8.65429      6.15750      4.19546         0.237320      1.147376      2.035526
     10.91773      1.39171      1.92122         1.279951     -0.405912     -1.342826
     11.42465      1.39379      4.62707         0.711524     -0.002832      2.608900
      1.88655      6.18223      0.52485         0.165632      0.040058     -3.792223
      2.76722      6.18092      3.46349         1.480950      0.076472     -0.345509
      1.31173      6.17687      6.24958         0.580929      0.025970      4.110552
      4.76211      1.39241      1.02359         0.433267      0.037107     -3.831429
      5.67861      1.39171      3.97758         1.038927      0.441305      1.362827
     13.82913      6.18092      2.43531         0.350408      0.414677     -1.696715
     14.35306      6.18031      5.11688         0.831292      0.016746      2.593584
     13.79118      2.81400      0.57300        -0.327588      0.708669     -3.969962
     13.99844      3.00295      3.46826        -0.749379      1.255670      1.670136
      5.26426      7.79215      1.92599        -0.771687      1.295296     -0.694932
      5.90580      7.62372      4.73062         0.172545      0.312515      2.509931
      8.17565      3.00295      2.44008        -1.151862      1.220459     -0.001553
      8.96209      2.62116      5.33758         0.126472     -0.139281      2.950220
      0.02514      7.79215      3.98236        -1.106918      1.534484     -0.615911
     16.34203      7.86673      1.28418        -0.550573      0.755737     -2.820715
      2.37011      3.09309      1.78002        -0.750892     -0.155921     -2.658885
      2.93654      3.00295      4.49645        -0.314114      0.131032      1.082605
     11.08705      7.79215      2.95417         0.270373      1.189879     -0.505643
     11.74857      7.56236      5.69286        -0.543610      1.293030      3.875366
      5.26426      4.56969      1.92599        -0.880309     -1.691510      0.004121
      6.10162      4.85688      4.88600        -1.232477     -0.472796      2.214392
     13.80388      9.56055      0.56328        -0.276195     -0.842685     -3.858757
     13.99844      9.35889      3.46826        -0.791557     -1.359598      1.632727
      0.02514      4.56969      3.98236        -1.132284     -1.549464     -0.629612
     16.33412      4.49635      1.28258        -0.355677     -0.661967     -2.776693
      8.17565      9.35889      2.44008        -1.111402     -1.223650     -0.328685
      8.77872      9.49271      5.14371        -0.511389     -1.662976      3.325820
     11.08705      4.56969      2.95417         0.094243     -1.270711     -1.012073
     11.73075      4.77559      5.67979        -0.440555     -1.327044      3.824403
      2.36242      9.27544      1.78691        -0.694074     -0.006883     -2.653604
      2.93654      9.35889      4.49645        -0.843232     -0.040658      1.040659
    total drift:                               -0.020530     -0.073997     -0.017987

  FREE ENERGIE OF THE ION-ELECTRON SYSTEM (eV)
  free  energy   TOTEN  =      -352.18651754 eV

  energy  without entropy=     -351.05092926  energy(sigma->0) =     -351.61872340