 vasp.5.4.4.18Apr17-6-g9f103f2a35 (build Aug 13 2019 17:33:20) gamma-only

 executed on             LinuxIFC date 2020.05.12  08:59:24

 INCAR:
 POTCAR:    PAW_PBE Ni_pv 06Sep2000
 POTCAR:    PAW_PBE S 06Sep2000
 POTCAR:    PAW_PBE Ni_pv 06Sep2000
   VRHFIN =Ni:

   TITEL  = PAW_PBE Ni_pv 06Sep2000
   POMASS =   58.690; ZVAL   =   16.000    mass and valenz
   ENMAX  =  367.986; ENMIN  =  275.989 eV

 POTCAR:    PAW_PBE S 06Sep2000
   VRHFIN =S : s2p4

   TITEL  = PAW_PBE S 06Sep2000
   POMASS =   32.066; ZVAL   =    6.000    mass and valenz
   ENMAX  =  258.689; ENMIN  =  194.016 eV

 Optimization of the real space projectors (new method)

 maximal supplied QI-value         = 18.90
 optimisation between [QCUT,QGAM] = [ 10.77, 21.73] = [ 32.49,132.25] Ry
 Optimized for a Real-space Cutoff    1.38 Angstroem

   l    n(q)    QCUT    max X(q) W(low)/X(q) W(high)/X(q)  e(spline)
   1      8    10.771     2.836    0.40E-04    0.29E-04    0.12E-06
   1      8    10.771     4.023    0.10E-03    0.48E-04    0.29E-06
   2      8    10.771    73.368    0.42E-03    0.97E-04    0.44E-06
   2      8    10.771    69.010    0.42E-03    0.99E-04    0.45E-06
   0      9    10.771    54.797    0.10E-03    0.56E-04    0.74E-07
   0      9    10.771    24.266    0.89E-04    0.49E-04    0.67E-07
 Optimization of the real space projectors (new method)

 maximal supplied QI-value         = 19.84
 optimisation between [QCUT,QGAM] = [ 10.71, 21.63] = [ 32.15,130.99] Ry
 Optimized for a Real-space Cutoff    1.19 Angstroem

   l    n(q)    QCUT    max X(q) W(low)/X(q) W(high)/X(q)  e(spline)
   0      8    10.715   187.594    0.41E-03    0.53E-04    0.66E-07
   0      8    10.715   164.243    0.41E-03    0.53E-04    0.65E-07
   1      7    10.715    67.533    0.19E-03    0.59E-03    0.68E-07
   1      7    10.715    50.729    0.19E-03    0.58E-03    0.67E-07
  PAW_PBE Ni_pv 06Sep2000               :
  PAW_PBE S 06Sep2000                   :

 POSCAR: Type_048 Type_148
  positions in cartesian coordinates
 exchange correlation table for  LEXCH =        8
   RHO(1)=    0.500       N(1)  =     2000
   RHO(2)=  100.500       N(2)  =     4000

 ion  position               nearest neighbor table
   1  0.256  0.016  0.152-  75 2.25  65 2.26  81 2.26  53 2.36  93 2.36   5 2.45   9 2.53
   2  0.256  0.016  0.481-  76 2.25  66 2.26  82 2.26  54 2.36  94 2.36  10 2.53   6 2.53
   3  0.006  0.266  0.317-  62 2.25  68 2.26  72 2.26  55 2.36  59 2.36   7 2.53  23 2.53
   4  0.014  0.262  0.638-  56 2.11  69 2.14  73 2.15  60 2.20   8 2.33  24 2.48
   5  0.299  0.015  0.069-  90 2.05  49 2.12  93 2.12  61 2.23  81 2.39   1 2.45   9 2.51
   6  0.256  0.016  0.394-  79 2.25  62 2.26  82 2.26  50 2.36  94 2.36   2 2.53  10 2.53
   7  0.006  0.266  0.230-  65 2.25  72 2.26  63 2.26  59 2.36  51 2.36   3 2.53  23 2.53
   8  0.006  0.266  0.558-  66 2.25  73 2.26  64 2.26   4 2.33  60 2.36  52 2.36  24 2.53
   9  0.190  0.215  0.109-  61 2.11  49 2.12  57 2.25  65 2.26  53 2.36   5 2.51   1 2.53
  10  0.190  0.215  0.438-  58 2.25  66 2.26  62 2.26  54 2.36  50 2.36   2 2.53   6 2.53
  11  0.440  0.465  0.273-  83 2.25  51 2.26  55 2.26  63 2.36  68 2.36  19 2.53  15 2.53
  12  0.440  0.465  0.602-  56 2.11  69 2.14  84 2.25  52 2.26  64 2.36  16 2.48  20 2.53
  13  0.756  0.016  0.152-  86 2.25  53 2.26  93 2.26  65 2.36  81 2.36  17 2.53  21 2.53
  14  0.756  0.016  0.481-  87 2.25  54 2.26  94 2.26  66 2.36  82 2.36  22 2.53  18 2.53
  15  0.506  0.266  0.317-  50 2.25  55 2.26  59 2.26  68 2.36  72 2.36  19 2.53  11 2.53
  16  0.514  0.262  0.638-  69 2.11  56 2.14  60 2.15  73 2.20  20 2.33  12 2.48
  17  0.756  0.016  0.066-  90 2.03  61 2.11  49 2.23  93 2.26  81 2.36  21 2.53  13 2.53
  18  0.756  0.016  0.394-  91 2.25  50 2.26  94 2.26  62 2.36  82 2.36  14 2.53  22 2.53
  19  0.506  0.266  0.230-  53 2.25  59 2.26  51 2.26  72 2.36  63 2.36  15 2.53  11 2.53
  20  0.506  0.266  0.558-  54 2.25  60 2.26  52 2.26  16 2.33  73 2.36  64 2.36  12 2.53
  21  0.690  0.215  0.109-  49 2.07  61 2.19  70 2.25  53 2.26  65 2.36  17 2.53  13 2.53
  22  0.690  0.215  0.438-  71 2.25  54 2.26  50 2.26  66 2.36  62 2.36  14 2.53  18 2.53
  23  0.940  0.465  0.273-  95 2.25  63 2.26  68 2.26  51 2.36  55 2.36   7 2.53   3 2.53
  24  0.940  0.465  0.602-  69 2.11  56 2.14  96 2.25  64 2.26  52 2.36   4 2.48   8 2.53
  25  0.256  0.516  0.152-  51 2.25  88 2.26  57 2.26  77 2.36  70 2.36
  26  0.256  0.516  0.481-  52 2.25  89 2.26  58 2.26  78 2.36  71 2.36  34 2.53  30 2.53
  27  0.006  0.766  0.317-  85 2.25  91 2.26  95 2.26  79 2.36  83 2.36  31 2.53  47 2.53
  28  0.014  0.762  0.638-  80 2.11  92 2.14  96 2.15  84 2.20  32 2.33  48 2.48
  29  0.299  0.438  0.065-  67 2.01  70 2.02  57 2.06
  30  0.256  0.516  0.394-  55 2.25  85 2.26  58 2.26  74 2.36  71 2.36  26 2.53  34 2.53
  31  0.006  0.766  0.230-  88 2.25  95 2.26  86 2.26  83 2.36  75 2.36  33 2.39  27 2.53  47 2.53

  32  0.006  0.766  0.558-  89 2.25  96 2.26  87 2.26  28 2.33  84 2.36  76 2.36  48 2.53
  33  0.190  0.798  0.161-  77 2.07  81 2.07  75 2.17  88 2.22  31 2.39
  34  0.190  0.715  0.438-  82 2.25  89 2.26  85 2.26  78 2.36  74 2.36  26 2.53  30 2.53
  35  0.440  0.965  0.273-  59 2.25  75 2.26  79 2.26  86 2.36  91 2.36  43 2.53  39 2.53
  36  0.440  0.965  0.602-  80 2.11  92 2.14  60 2.25  76 2.26  87 2.36  40 2.48  44 2.53
  37  0.756  0.516  0.152-  63 2.25  77 2.26  70 2.26  88 2.36  57 2.36
  38  0.756  0.516  0.481-  64 2.25  78 2.26  71 2.26  89 2.36  58 2.36  46 2.53  42 2.53
  39  0.506  0.766  0.317-  74 2.25  79 2.26  83 2.26  91 2.36  95 2.36  43 2.53  35 2.53
  40  0.514  0.762  0.638-  92 2.11  80 2.14  84 2.15  96 2.20  44 2.33  36 2.48
  41  0.786  0.448  0.066-  67 2.01  70 2.02  57 2.06
  42  0.756  0.516  0.394-  68 2.25  74 2.26  71 2.26  85 2.36  58 2.36  38 2.53  46 2.53
  43  0.506  0.766  0.230-  77 2.25  83 2.26  75 2.26  95 2.36  86 2.36  45 2.37  39 2.53  35 2.53

  44  0.506  0.766  0.558-  78 2.25  84 2.26  76 2.26  40 2.33  96 2.36  87 2.36  36 2.53
  45  0.689  0.797  0.161-  88 2.07  93 2.09  86 2.17  77 2.20  43 2.37
  46  0.690  0.715  0.438-  94 2.25  78 2.26  74 2.26  89 2.36  85 2.36  38 2.53  42 2.53
  47  0.940  0.965  0.273-  72 2.25  86 2.26  91 2.26  75 2.36  79 2.36  31 2.53  27 2.53
  48  0.940  0.965  0.602-  92 2.11  80 2.14  73 2.25  87 2.26  76 2.36  28 2.48  32 2.53
  49  0.464  0.163  0.066-  21 2.07   5 2.12   9 2.12  17 2.23  90 2.58
  50  0.468  0.167  0.382-  15 2.25  18 2.26  22 2.26   6 2.36  10 2.36
  51  0.218  0.417  0.218-  25 2.25  11 2.26  19 2.26  23 2.36   7 2.36
  52  0.218  0.417  0.547-  26 2.25  12 2.26  20 2.26  24 2.36   8 2.36
  53  0.468  0.167  0.164-  19 2.25  13 2.26  21 2.26   1 2.36   9 2.36
  54  0.468  0.167  0.493-  20 2.25  22 2.26  14 2.26  10 2.36   2 2.36
  55  0.218  0.417  0.329-  30 2.25  15 2.26  11 2.26   3 2.36  23 2.36
  56  0.218  0.391  0.642-   4 2.11  12 2.11  24 2.14  16 2.14  60 2.77
  57  0.053  0.414  0.109-  29 2.06  41 2.06   9 2.25  25 2.26  37 2.36
  58  0.053  0.414  0.438-  10 2.25  26 2.26  30 2.26  38 2.36  42 2.36
  59  0.303  0.164  0.273-  35 2.25  19 2.26  15 2.26   7 2.36   3 2.36
  60  0.303  0.164  0.602-  16 2.15   4 2.20  36 2.25  20 2.26   8 2.36  56 2.77
  61  0.976  0.137  0.068-   9 2.11  17 2.11  21 2.19   5 2.23  81 2.74
  62  0.968  0.167  0.382-   3 2.25   6 2.26  10 2.26  18 2.36  22 2.36
  63  0.718  0.417  0.218-  37 2.25  23 2.26   7 2.26  11 2.36  19 2.36
  64  0.718  0.417  0.547-  38 2.25  24 2.26   8 2.26  12 2.36  20 2.36
  65  0.968  0.167  0.164-   7 2.25   1 2.26   9 2.26  13 2.36  21 2.36
  66  0.968  0.167  0.493-   8 2.25  10 2.26   2 2.26  22 2.36  14 2.36
  67  0.535  0.467  0.023-  41 2.01  29 2.01  70 2.59
  68  0.718  0.417  0.329-  42 2.25   3 2.26  23 2.26  15 2.36  11 2.36
  69  0.718  0.391  0.642-  16 2.11  24 2.11  12 2.14   4 2.14  73 2.77
  70  0.553  0.414  0.109-  29 2.02  41 2.02  21 2.25  37 2.26  25 2.36  67 2.59
  71  0.553  0.414  0.438-  22 2.25  38 2.26  42 2.26  26 2.36  30 2.36
  72  0.803  0.164  0.273-  47 2.25   7 2.26   3 2.26  19 2.36  15 2.36
  73  0.803  0.164  0.602-   4 2.15  16 2.20  48 2.25   8 2.26  20 2.36  69 2.77
  74  0.468  0.667  0.382-  39 2.25  42 2.26  46 2.26  30 2.36  34 2.36
  75  0.218  0.917  0.218-  33 2.17   1 2.25  35 2.26  43 2.26  47 2.36  31 2.36
  76  0.218  0.917  0.547-   2 2.25  36 2.26  44 2.26  48 2.36  32 2.36
  77  0.468  0.667  0.164-  33 2.07  45 2.20  43 2.25  37 2.26  25 2.36
  78  0.468  0.667  0.493-  44 2.25  46 2.26  38 2.26  34 2.36  26 2.36
  79  0.218  0.917  0.329-   6 2.25  39 2.26  35 2.26  27 2.36  47 2.36
  80  0.218  0.891  0.642-  28 2.11  36 2.11  48 2.14  40 2.14  84 2.77
  81  0.053  0.914  0.109-  33 2.07   1 2.26  17 2.36  13 2.36   5 2.39  61 2.74
  82  0.053  0.914  0.438-  34 2.25   2 2.26   6 2.26  14 2.36  18 2.36
  83  0.303  0.664  0.273-  11 2.25  43 2.26  39 2.26  31 2.36  27 2.36
  84  0.303  0.664  0.602-  40 2.15  28 2.20  12 2.25  44 2.26  32 2.36  80 2.77
  85  0.968  0.667  0.382-  27 2.25  30 2.26  34 2.26  42 2.36  46 2.36
  86  0.718  0.917  0.218-  45 2.17  13 2.25  47 2.26  31 2.26  35 2.36  43 2.36
  87  0.718  0.917  0.547-  14 2.25  48 2.26  32 2.26  36 2.36  44 2.36
  88  0.968  0.667  0.164-  45 2.07  33 2.22  31 2.25  25 2.26  37 2.36
  89  0.968  0.667  0.493-  32 2.25  34 2.26  26 2.26  46 2.36  38 2.36
  90  0.543  0.959  0.023-  17 2.03   5 2.05  93 2.57  49 2.58
  91  0.718  0.917  0.329-  18 2.25  27 2.26  47 2.26  39 2.36  35 2.36
  92  0.718  0.891  0.642-  40 2.11  48 2.11  36 2.14  28 2.14  96 2.77
  93  0.553  0.914  0.109-  45 2.09   5 2.12  17 2.26  13 2.26   1 2.36  90 2.57
  94  0.553  0.914  0.438-  46 2.25  14 2.26  18 2.26   2 2.36   6 2.36
  95  0.803  0.664  0.273-  23 2.25  31 2.26  27 2.26  43 2.36  39 2.36
  96  0.803  0.664  0.602-  28 2.15  40 2.20  24 2.25  32 2.26  44 2.36  92 2.77

  LATTYP: Found a simple monoclinic cell.
 ALAT       =    13.8711386352
 B/A-ratio  =     2.1019774055
 C/A-ratio  =     1.3233367991
 COS(beta)  =    -0.9620914447

  Lattice vectors:

 A1 = (  -8.3714133957, -11.0601955134,   0.0000000000)
 A2 = (   0.0000000000,   0.0000000000, -29.1568200000)
 A3 = (  14.6499733957,  11.0601955134,   0.0000000000)

Analysis of symmetry for initial positions (statically):
 Subroutine PRICEL returns:
 Original cell was already a primitive cell.

 Routine SETGRP: Setting up the symmetry group for a
 simple monoclinic supercell.

 Subroutine GETGRP returns: Found  1 space group operations
 (whereof  1 operations were pure point group operations)
 out of a pool of  4 trial point group operations.

The static configuration has the point symmetry C_1 .

Analysis of symmetry for dynamics (positions and initial velocities):
 Subroutine PRICEL returns:
 Original cell was already a primitive cell.

 Routine SETGRP: Setting up the symmetry group for a
 simple monoclinic supercell.

 Subroutine GETGRP returns: Found  1 space group operations
 (whereof  1 operations were pure point group operations)
 out of a pool of  4 trial point group operations.

The dynamic configuration has the point symmetry C_1 .

 Subroutine INISYM returns: Found  1 space group operations
[...]
     0.000000000  0.000000000 29.156820000     0.000000000  0.000000000  0.034297293

  length of vectors
     6.278560000 11.256463038 29.156820000     0.162098538  0.090414315  0.034297293

 FORCES acting on ions
    electron-ion (+dipol)            ewald-force                    non-local-force                 convergence-correction
   -.195E+02 0.345E+02 0.449E+04   0.196E+02 -.336E+02 -.449E+04   0.170E-01 -.460E+00 -.427E+00   -.114E-01 0.170E+00 -.423E+00
   -.413E+02 0.253E+03 -.337E+04   0.404E+02 -.254E+03 0.337E+04   0.982E+00 0.503E+00 -.739E+00   -.698E-03 -.330E-01 0.505E+00
   -.412E+02 0.220E+03 0.453E+03   0.404E+02 -.221E+03 -.452E+03   0.967E+00 0.492E+00 -.112E+01   -.149E-01 -.179E-01 -.335E+00
   -.127E+02 0.454E+03 -.731E+04   0.128E+02 -.456E+03 0.731E+04   -.146E+00 0.101E+01 0.569E+00   0.729E-02 0.496E-01 0.418E-01
   0.306E+03 0.731E+03 0.716E+04   -.310E+03 -.733E+03 -.717E+04   0.193E+01 0.244E+01 0.638E+01   0.143E-02 0.796E-01 0.825E-01
   -.413E+02 0.245E+03 -.484E+03   0.404E+02 -.246E+03 0.483E+03   0.960E+00 0.629E+00 0.131E+01   0.427E-02 -.193E-01 0.229E+00
   -.409E+02 0.136E+03 0.341E+04   0.398E+02 -.137E+03 -.341E+04   0.117E+01 0.685E+00 0.143E+01   0.233E-01 0.621E-02 -.104E+01
   -.370E+02 0.273E+03 -.417E+04   0.360E+02 -.274E+03 0.417E+04   0.118E+01 0.828E+00 0.213E+01   0.270E-03 0.103E+00 0.385E+00
   0.665E+02 -.675E+03 0.575E+04   -.663E+02 0.678E+03 -.575E+04   -.117E+00 -.312E+01 0.102E+01   -.318E-02 -.142E-01 -.634E-01
   -.411E+02 -.521E+03 -.191E+04   0.404E+02 0.522E+03 0.191E+04   0.884E+00 -.122E+01 0.628E-01   0.154E-01 0.733E-01 0.446E+00
   -.407E+02 -.486E+03 0.197E+04   0.401E+02 0.487E+03 -.197E+04   0.811E+00 -.134E+01 0.527E-01   -.903E-03 0.108E+00 -.789E+00
   -.283E+02 -.673E+03 -.589E+04   0.282E+02 0.677E+03 0.588E+04   0.227E+00 -.415E+01 -.332E+00   -.425E-02 -.194E-01 0.134E+00
   -.114E+03 0.440E+02 0.452E+04   0.113E+03 -.430E+02 -.452E+04   0.551E+00 -.549E+00 -.625E+00   0.286E-01 0.143E+00 -.445E+00
   -.413E+02 0.253E+03 -.337E+04   0.405E+02 -.254E+03 0.337E+04   0.976E+00 0.505E+00 -.740E+00   0.106E-01 -.211E-01 0.463E+00
   -.414E+02 0.220E+03 0.453E+03   0.405E+02 -.221E+03 -.452E+03   0.986E+00 0.478E+00 -.117E+01   0.644E-03 0.135E-01 -.322E+00
   -.127E+02 0.454E+03 -.731E+04   0.128E+02 -.456E+03 0.731E+04   -.147E+00 0.101E+01 0.570E+00   0.971E-02 0.557E-01 0.267E-01
   -.310E+03 0.726E+03 0.716E+04   0.312E+03 -.729E+03 -.717E+04   -.107E+01 0.313E+01 0.711E+01   -.128E-01 0.192E-01 -.783E-01
   -.413E+02 0.245E+03 -.484E+03   0.404E+02 -.246E+03 0.483E+03   0.956E+00 0.624E+00 0.129E+01   0.231E-02 0.258E-02 0.229E+00
   -.420E+02 0.136E+03 0.340E+04   0.411E+02 -.136E+03 -.340E+04   0.103E+01 0.544E+00 0.114E+01   -.242E-01 0.733E-01 -.958E+00
   -.370E+02 0.273E+03 -.417E+04   0.360E+02 -.274E+03 0.417E+04   0.118E+01 0.826E+00 0.213E+01   0.250E-02 0.108E+00 0.419E+00
   -.107E+03 -.643E+03 0.572E+04   0.107E+03 0.645E+03 -.572E+04   0.622E+00 -.243E+01 0.319E+00   -.517E-02 0.119E+00 -.175E+00
   -.411E+02 -.521E+03 -.191E+04   0.404E+02 0.522E+03 0.191E+04   0.882E+00 -.123E+01 0.557E-01   -.103E-02 0.442E-01 0.416E+00
   -.417E+02 -.486E+03 0.197E+04   0.410E+02 0.487E+03 -.197E+04   0.866E+00 -.123E+01 0.450E-01   -.202E-02 0.960E-01 -.810E+00
   -.283E+02 -.673E+03 -.589E+04   0.282E+02 0.677E+03 0.588E+04   0.226E+00 -.415E+01 -.330E+00   0.768E-02 0.298E-01 0.129E+00
   -.149E+02 -.218E+03 0.500E+04   0.127E+02 0.218E+03 -.500E+04   0.235E+01 0.364E+00 -.252E+01   -.122E-01 -.715E-01 -.419E+00
   -.413E+02 0.259E+03 -.336E+04   0.405E+02 -.259E+03 0.336E+04   0.988E+00 0.462E+00 -.788E+00   0.527E-02 0.433E-01 0.481E+00
   -.411E+02 0.303E+03 0.366E+03   0.403E+02 -.304E+03 -.365E+03   0.980E+00 0.672E+00 -.781E+00   0.144E-02 -.208E-01 -.336E+00
   -.127E+02 0.456E+03 -.731E+04   0.128E+02 -.457E+03 0.731E+04   -.140E+00 0.101E+01 0.575E+00   0.102E-01 -.376E-01 -.186E-01
   0.250E+03 -.656E+03 0.688E+04   -.249E+03 0.659E+03 -.688E+04   -.283E+01 -.194E+01 0.408E+01   0.419E-01 0.576E-01 0.315E+00
   -.412E+02 0.269E+03 -.462E+03   0.404E+02 -.270E+03 0.460E+03   0.952E+00 0.466E+00 0.112E+01   0.180E-01 -.259E-01 0.350E+00
   0.126E+02 0.528E+03 0.305E+04   -.131E+02 -.531E+03 -.305E+04   0.110E+00 0.221E+01 0.291E+00   0.596E-01 -.992E-01 -.892E+00
   -.370E+02 0.275E+03 -.417E+04   0.360E+02 -.276E+03 0.417E+04   0.118E+01 0.831E+00 0.215E+01   0.696E-02 -.499E-01 0.358E+00
   0.258E+01 0.528E+03 0.558E+04   -.483E+01 -.528E+03 -.558E+04   0.178E+01 0.149E+00 0.269E+01   0.627E-01 -.442E-01 -.476E+00
   -.411E+02 -.507E+03 -.192E+04   0.404E+02 0.508E+03 0.192E+04   0.891E+00 -.126E+01 0.622E-01   0.451E-02 -.126E+00 0.534E+00
   -.391E+02 -.600E+03 0.177E+04   0.388E+02 0.601E+03 -.177E+04   0.568E+00 -.137E+01 -.601E+00   -.240E-01 0.141E+00 -.759E+00
   -.283E+02 -.672E+03 -.589E+04   0.282E+02 0.676E+03 0.588E+04   0.221E+00 -.414E+01 -.322E+00   0.581E-02 -.103E-01 0.149E+00
   -.557E+02 -.206E+03 0.498E+04   0.540E+02 0.206E+03 -.497E+04   0.156E+01 0.228E+00 -.229E+01   -.105E-01 -.116E+00 -.524E+00
   -.413E+02 0.259E+03 -.336E+04   0.405E+02 -.259E+03 0.336E+04   0.989E+00 0.463E+00 -.793E+00   0.127E-03 -.116E-02 0.447E+00
   -.409E+02 0.303E+03 0.365E+03   0.400E+02 -.304E+03 -.364E+03   0.962E+00 0.673E+00 -.815E+00   -.141E-01 -.435E-01 -.365E+00
   -.127E+02 0.456E+03 -.731E+04   0.128E+02 -.457E+03 0.731E+04   -.141E+00 0.101E+01 0.576E+00   0.652E-02 -.443E-01 0.496E-03
   -.282E+03 -.661E+03 0.688E+04   0.281E+03 0.662E+03 -.688E+04   0.295E+01 -.111E+01 0.334E+01   -.119E-01 0.634E-01 0.252E+00
   -.413E+02 0.269E+03 -.462E+03   0.404E+02 -.270E+03 0.460E+03   0.968E+00 0.459E+00 0.112E+01   -.997E-02 -.586E-01 0.328E+00
   0.181E+02 0.529E+03 0.304E+04   -.184E+02 -.532E+03 -.304E+04   0.227E-01 0.211E+01 0.196E+00   -.716E-01 -.990E-01 -.845E+00
   -.370E+02 0.275E+03 -.417E+04   0.360E+02 -.276E+03 0.417E+04   0.118E+01 0.831E+00 0.215E+01   -.436E-02 -.543E-01 0.325E+00
   -.364E+02 0.526E+03 0.556E+04   0.354E+02 -.527E+03 -.556E+04   0.622E+00 0.121E+01 0.975E+00   -.741E-01 -.132E+00 -.462E+00
   -.411E+02 -.507E+03 -.192E+04   0.404E+02 0.508E+03 0.192E+04   0.892E+00 -.125E+01 0.743E-01   0.814E-02 -.159E+00 0.494E+00
   -.396E+02 -.600E+03 0.177E+04   0.392E+02 0.601E+03 -.177E+04   0.499E+00 -.137E+01 -.636E+00   0.179E-01 0.179E+00 -.747E+00
   -.283E+02 -.672E+03 -.589E+04   0.282E+02 0.676E+03 0.588E+04   0.221E+00 -.413E+01 -.321E+00   -.299E-02 -.664E-01 0.153E+00
   0.475E+01 -.206E+03 0.277E+04   -.515E+01 0.213E+03 -.278E+04   0.255E+00 -.538E+01 0.391E+01   -.316E-01 0.128E-01 -.138E-01
   0.397E+02 -.905E+02 -.970E+02   -.404E+02 0.916E+02 0.947E+02   0.536E+00 -.130E+01 0.260E+01   0.209E-01 -.519E-01 0.110E+00
   0.407E+02 -.110E+03 0.140E+04   -.415E+02 0.112E+03 -.141E+04   0.647E+00 -.151E+01 0.291E+01   0.200E-01 0.661E-01 -.434E+00
   0.391E+02 -.987E+02 -.151E+04   -.399E+02 0.100E+03 0.151E+04   0.767E+00 -.136E+01 0.218E+01   0.155E-01 0.259E-02 0.155E+00
   0.383E+02 -.152E+03 0.152E+04   -.387E+02 0.153E+03 -.152E+04   0.422E+00 -.130E+01 -.242E+01   -.797E-01 -.864E-02 -.202E+00
   0.399E+02 -.819E+02 -.134E+04   -.405E+02 0.829E+02 0.134E+04   0.437E+00 -.131E+01 -.250E+01   0.806E-02 0.421E-01 0.210E+00
   0.397E+02 -.818E+02 0.942E+02   -.404E+02 0.828E+02 -.920E+02   0.661E+00 -.134E+01 -.259E+01   0.274E-01 0.880E-01 -.299E-01
   0.475E-01 -.194E+03 -.281E+04   -.436E+00 0.198E+03 0.282E+04   0.366E+00 -.234E+01 -.436E+01   0.197E-01 0.956E-02 0.202E-01
   0.346E+02 -.142E+03 0.212E+04   -.351E+02 0.139E+03 -.212E+04   0.563E+00 0.207E+01 0.106E+01   -.444E-01 0.883E-01 0.387E-01
   0.396E+02 0.167E+03 -.716E+03   -.404E+02 -.169E+03 0.716E+03   0.727E+00 0.271E+01 0.539E-01   -.137E-01 0.676E-01 0.156E+00
   0.398E+02 0.131E+03 0.707E+03   -.407E+02 -.133E+03 -.707E+03   0.754E+00 0.239E+01 -.356E-01   -.155E-02 -.519E-01 -.313E+00
   0.363E+02 0.238E+03 -.219E+04   -.366E+02 -.241E+03 0.219E+04   0.909E-01 0.204E+01 -.115E+00   0.222E-01 0.394E-01 0.676E-01
[...]
   0.390E+02 0.224E+03 0.694E+03   -.400E+02 -.226E+03 -.694E+03   0.836E+00 0.270E+01 0.603E-01   0.206E-01 -.885E-01 -.347E+00
   0.364E+02 0.239E+03 -.219E+04   -.366E+02 -.241E+03 0.219E+04   0.948E-01 0.205E+01 -.106E+00   -.205E-01 -.456E-02 0.305E-01
   0.397E+02 -.754E+02 -.998E+02   -.404E+02 0.767E+02 0.974E+02   0.575E+00 -.136E+01 0.262E+01   -.103E-01 -.104E+00 0.174E+00
   0.156E+02 -.205E+03 0.120E+04   -.156E+02 0.208E+03 -.120E+04   -.197E+00 -.283E+01 0.863E+00   -.766E-02 0.415E-01 -.260E+00
   0.391E+02 -.986E+02 -.151E+04   -.399E+02 0.100E+03 0.151E+04   0.763E+00 -.136E+01 0.220E+01   0.171E-01 -.626E-01 0.174E+00
   0.663E+00 0.215E+03 0.200E+04   -.161E+01 -.215E+03 -.200E+04   0.229E+01 -.138E+01 0.229E+01   0.445E-01 -.230E+00 -.213E+00
   0.398E+02 -.794E+02 -.134E+04   -.405E+02 0.805E+02 0.134E+04   0.485E+00 -.131E+01 -.252E+01   0.243E-01 -.226E-01 0.211E+00
   0.132E+02 0.371E+03 0.274E+04   -.131E+02 -.375E+03 -.275E+04   -.268E+00 0.145E+01 0.298E+01   0.994E-02 0.320E-02 -.241E-02
   0.394E+02 -.886E+02 0.576E+02   -.403E+02 0.897E+02 -.558E+02   0.914E+00 -.153E+01 -.221E+01   -.870E-02 0.132E+00 -.231E-01
   0.408E-01 -.193E+03 -.281E+04   -.431E+00 0.197E+03 0.282E+04   0.369E+00 -.233E+01 -.436E+01   0.221E-01 -.216E-02 0.308E-01
   0.234E+02 0.455E+03 0.243E+04   -.245E+02 -.460E+03 -.243E+04   0.118E+01 0.498E+01 0.183E+00   -.542E-01 0.688E-01 -.869E-01
   0.395E+02 0.166E+03 -.722E+03   -.404E+02 -.168E+03 0.722E+03   0.723E+00 0.274E+01 0.219E-01   0.140E-01 0.153E-01 0.133E+00
   0.382E+02 0.224E+03 0.694E+03   -.391E+02 -.227E+03 -.694E+03   0.856E+00 0.274E+01 -.107E+00   -.300E-01 -.710E-01 -.337E+00
   0.363E+02 0.239E+03 -.219E+04   -.366E+02 -.241E+03 0.219E+04   0.934E-01 0.204E+01 -.106E+00   0.259E-01 0.220E-02 0.307E-01
   -.619E+02 0.169E+02 -.269E+02   0.995E-13 0.938E-12 -.150E-10   0.618E+02 -.173E+02 0.315E+02   0.165E+00 0.501E+00 -.438E+01

 POSITION                                       TOTAL-FORCE (eV/Angst)
      1.64370      0.18204      4.44331         0.189548      0.625125      0.212925
      1.64370      0.18204     14.02172         0.115115      0.128364     -0.352052
      0.59727      2.94708      9.23251         0.073248      0.140433     -0.352203
      0.63825      2.89373     18.60505         0.032493     -0.613264     -0.095010
      1.90891      0.16438      2.01169        -2.208258      0.048514      1.127744
      1.64370      0.18204     11.49105         0.083158      0.144065      0.346798
      0.59727      2.94708      6.70184         0.162192      0.134710      0.462842
      0.59727      2.94708     16.28025         0.087293      0.242022     -1.035613
      1.64370      2.37366      3.17797         0.037984     -0.229384      2.405666
      1.64370      2.37366     12.75638         0.175050     -0.347230     -0.018402
      3.73655      5.13871      7.96718         0.167235     -0.397550      0.029654
      3.73655      5.13871     17.54559         0.080734      0.005994     -2.114517
      4.78298      0.18204      4.44331         0.303497      0.571720     -0.047243
      4.78298      0.18204     14.02172         0.113538      0.123629     -0.353656
      3.73655      2.94708      9.23251         0.079133      0.133281     -0.355138
      3.77753      2.89373     18.60505         0.032053     -0.611534     -0.096022
      4.78298      0.18204      1.91264         0.776155     -0.236754      2.190464
      4.78298      0.18204     11.49105         0.080733      0.147316      0.338783
      3.73655      2.94708      6.70184         0.120832      0.119598      0.446311
      3.73655      2.94708     16.28025         0.085609      0.241138     -1.035774
      4.78298      2.37366      3.17797         0.652809     -0.211132      2.214865
      4.78298      2.37366     12.75638         0.172870     -0.344985     -0.020441
      6.87583      5.13871      7.96718         0.176637     -0.363108      0.034577
      6.87583      5.13871     17.54559         0.080877      0.006537     -2.113877
      2.69013      5.71213      4.44331         0.138564      0.184499      0.101059
      2.69013      5.71213     14.02172         0.106486      0.119725     -0.361617
      1.64370      8.47718      9.23251         0.111845      0.124465     -0.260846
      1.68468      8.42383     18.60505         0.030022     -0.613373     -0.096529
      2.79263      4.84434      1.90888        -1.963387      0.648096     -0.154894
      2.69013      5.71213     11.49105         0.107441      0.140528      0.318057
      1.64370      8.47718      6.70184        -0.338867     -0.429697      1.410625
      1.64370      8.47718     16.28025         0.090007      0.241576     -1.035287
      2.86537      8.82748      4.68300        -0.409742     -0.314461     -0.215819
      2.69013      7.90376     12.75638         0.171041     -0.359631     -0.005777
      4.78298     10.66881      7.96718         0.154664     -0.291280      0.111263
      4.78298     10.66881     17.54559         0.081760      0.005538     -2.115161
      5.82941      5.71213      4.44331        -0.081380      0.239373      0.225158
      5.82941      5.71213     14.02172         0.106129      0.119861     -0.362541
      4.78298      8.47718      9.23251         0.093930      0.126539     -0.257627
      4.82396      8.42383     18.60505         0.029767     -0.615036     -0.094323
      5.87399      4.96029      1.93092         1.879358      0.660383      0.096608
      5.82941      5.71213     11.49105         0.104083      0.148945      0.316663
      4.78298      8.47718      6.70184        -0.405228     -0.458655      1.361355
      4.78298      8.47718     16.28025         0.090039      0.241049     -1.034105
      5.99634      8.81425      4.68998        -0.461358     -0.026031     -0.266213
      5.82941      7.90376     12.75638         0.170952     -0.356445     -0.002225
      7.92226     10.66881      7.96718         0.153973     -0.320806      0.132932
      7.92226     10.66881     17.54559         0.081388      0.005432     -2.115234
      3.25185      1.80015      1.91665        -0.178924      1.884610     -3.009265
      3.28961      1.84282     11.14515        -0.124624     -0.270356      0.403137
      2.24318      4.60787      6.35595        -0.137792     -0.124975      0.241467
      2.24318      4.60787     15.93436        -0.079810     -0.074906     -0.265916
      3.28961      1.84282      4.78920        -0.056846     -0.443830      0.044080
      3.28961      1.84282     14.36761        -0.120122     -0.214690     -0.398471
      2.24318      4.60787      9.57841        -0.103466     -0.255163     -0.433243
      2.18559      4.32168     18.72375        -0.002747      1.278405      3.820759
      1.19676      4.58218      3.17797         0.005554     -0.256140      0.455135
      1.19676      4.58218     12.75638        -0.140236      0.517484      0.023698
      2.24318      1.81714      7.96718        -0.150920      0.386057     -0.054458
      2.24318      1.81714     17.54559        -0.114976     -0.819167     -0.015321
[...]
      2.24318     10.11228     12.75638        -0.128391      0.527009      0.004027
      3.28961      7.34723      7.96718        -0.101051      0.552850      0.100070
      3.28961      7.34723     17.54559        -0.117960     -0.819446     -0.014118
      7.47532      7.37292     11.14515        -0.148988     -0.232719      0.390142
      6.42889     10.13797      6.35595        -0.223545      0.471753      0.593170
      6.42889     10.13797     15.93436        -0.083129     -0.080348     -0.264713
      7.47532      7.37292      4.78920         1.386906     -1.191083     -0.440892
      7.47532      7.37292     14.36761        -0.116638     -0.211908     -0.398716
      5.41360     10.60500      0.65986        -0.182636     -1.850208     -3.924765
      6.42889     10.13797      9.57841         0.014616     -0.251799     -0.406053
      6.37129      9.85177     18.72375         0.000366      1.280029      3.822392
      5.38246     10.11228      3.17797         0.029755     -0.158204      0.403312
      5.38246     10.11228     12.75638        -0.129861      0.529368      0.006392
      6.42889      7.34723      7.96718        -0.106440      0.549639      0.098251
      6.42889      7.34723     17.54559        -0.117458     -0.819086     -0.013895
    total drift:                               -0.012461      0.084865      0.120678

  FREE ENERGIE OF THE ION-ELECTRON SYSTEM (eV)
  free  energy   TOTEN  =      -479.15382595 eV

  energy  without entropy=     -477.85621507  energy(sigma->0) =     -478.50502051