 vasp.5.4.4.18Apr17-6-g9f103f2a35 (build Aug 13 2019 17:33:20) gamma-only

 executed on             LinuxIFC date 2020.05.10  16:01:15

 INCAR:
 POTCAR:    PAW_PBE Ni_pv 06Sep2000
 POTCAR:    PAW_PBE S 06Sep2000
 POTCAR:    PAW_PBE Ni_pv 06Sep2000
   VRHFIN =Ni:

   TITEL  = PAW_PBE Ni_pv 06Sep2000
   POMASS =   58.690; ZVAL   =   16.000    mass and valenz
   ENMAX  =  367.986; ENMIN  =  275.989 eV

 POTCAR:    PAW_PBE S 06Sep2000
   VRHFIN =S : s2p4

   TITEL  = PAW_PBE S 06Sep2000
   POMASS =   32.066; ZVAL   =    6.000    mass and valenz
   ENMAX  =  258.689; ENMIN  =  194.016 eV

 Optimization of the real space projectors (new method)

 maximal supplied QI-value         = 18.90
 optimisation between [QCUT,QGAM] = [ 10.77, 21.73] = [ 32.49,132.25] Ry
 Optimized for a Real-space Cutoff    1.38 Angstroem

   l    n(q)    QCUT    max X(q) W(low)/X(q) W(high)/X(q)  e(spline)
   1      8    10.771     2.836    0.40E-04    0.29E-04    0.12E-06
   1      8    10.771     4.023    0.10E-03    0.48E-04    0.29E-06
   2      8    10.771    73.368    0.42E-03    0.97E-04    0.44E-06
   2      8    10.771    69.010    0.42E-03    0.99E-04    0.45E-06
   0      9    10.771    54.797    0.10E-03    0.56E-04    0.74E-07
   0      9    10.771    24.266    0.89E-04    0.49E-04    0.67E-07
 Optimization of the real space projectors (new method)

 maximal supplied QI-value         = 19.84
 optimisation between [QCUT,QGAM] = [ 10.71, 21.63] = [ 32.15,130.99] Ry
 Optimized for a Real-space Cutoff    1.19 Angstroem

   l    n(q)    QCUT    max X(q) W(low)/X(q) W(high)/X(q)  e(spline)
   0      8    10.715   187.594    0.41E-03    0.53E-04    0.66E-07
   0      8    10.715   164.243    0.41E-03    0.53E-04    0.65E-07
   1      7    10.715    67.533    0.19E-03    0.59E-03    0.68E-07
   1      7    10.715    50.729    0.19E-03    0.58E-03    0.67E-07
  PAW_PBE Ni_pv 06Sep2000               :
  PAW_PBE S 06Sep2000                   :

 POSCAR: Type_048 Type_148
  positions in cartesian coordinates
 exchange correlation table for  LEXCH =        8
   RHO(1)=    0.500       N(1)  =     2000
   RHO(2)=  100.500       N(2)  =     4000

 ion  position               nearest neighbor table
   1  0.261  0.479  0.253-  73 2.25  57 2.26  80 2.26  53 2.36  58 2.36   7 2.53  21 2.53
   2  0.355  0.385  0.388-  74 2.25  53 2.26  58 2.26  59 2.36  65 2.36   8 2.53  22 2.53
   3  0.453  0.287  0.505-  59 2.00  65 2.00  17 2.48  23 2.48
   4  0.167  0.073  0.118-  54 2.07  81 2.07  63 2.25  55 2.36  82 2.36  36 2.53  30 2.53
   5  0.042  0.054  0.467-  50 2.02  72 2.02  77 2.08
   6  0.281  0.320  0.102-  57 2.05  54 2.09  56 2.13  51 2.15
   7  0.368  0.239  0.218-  55 2.25  57 2.26  51 2.26  58 2.36  60 2.36   1 2.53  21 2.53
   8  0.462  0.145  0.353-  78 2.25  58 2.26  60 2.26  59 2.36  61 2.36   2 2.53  22 2.53
   9  0.000  0.372  0.218-  57 2.25  63 2.26  92 2.26  49 2.36  66 2.36  13 2.53  19 2.53
  10  0.094  0.278  0.353-  58 2.25  49 2.26  66 2.26  52 2.36  50 2.36  20 2.53  14 2.53
  11  0.185  0.198  0.467-  50 2.02  52 2.02  59 2.08
  12  0.420  0.459  0.102-  80 2.05  69 2.09  79 2.13  51 2.15
  13  0.761  0.479  0.253-  85 2.25  70 2.26  92 2.26  66 2.36  71 2.36  19 2.53   9 2.53
  14  0.855  0.385  0.388-  86 2.25  66 2.26  71 2.26  72 2.36  52 2.36  15 2.38  20 2.53  10 2.53

  15  0.874  0.366  0.497-  64 2.05  52 2.09  72 2.09  14 2.38
  16  0.667  0.073  0.118-  67 2.07  93 2.07  51 2.25  68 2.36  94 2.36
  17  0.552  0.051  0.473-  61 2.05  88 2.08  89 2.13  59 2.14   3 2.48
  18  0.774  0.333  0.083-  62 1.99  69 2.07  67 2.14  63 2.36  70 2.36  24 2.53  40 2.53
  19  0.868  0.239  0.218-  68 2.25  70 2.26  63 2.26  71 2.36  49 2.36  13 2.53   9 2.53
  20  0.962  0.145  0.353-  90 2.25  71 2.26  49 2.26  72 2.36  50 2.36  14 2.53  10 2.53
  21  0.500  0.372  0.218-  70 2.25  51 2.26  80 2.26  60 2.36  53 2.36   1 2.53   7 2.53
  22  0.594  0.278  0.353-  71 2.25  60 2.26  53 2.26  65 2.36  61 2.36   8 2.53   2 2.53
  23  0.689  0.188  0.473-  61 2.06  88 2.08  72 2.12  65 2.14   3 2.48
  24  0.906  0.465  0.083-  62 1.99  91 2.07  56 2.14  63 2.36  92 2.36  40 2.53  18 2.53
  25  0.261  0.979  0.253-  49 2.25  82 2.26  55 2.26  78 2.36  83 2.36  31 2.53  45 2.53
  26  0.355  0.885  0.388-  50 2.25  78 2.26  83 2.26  84 2.36  89 2.36  32 2.53  46 2.53
  27  0.453  0.787  0.505-  84 2.00  89 2.00  41 2.48  47 2.48
  28  0.167  0.573  0.118-  56 2.07  79 2.07  87 2.25  80 2.36  57 2.36
  29  0.042  0.554  0.467-  74 2.02  96 2.02  52 2.08
  30  0.274  0.833  0.083-  75 1.99  81 2.07  79 2.14  76 2.36  82 2.36  36 2.53   4 2.53
  31  0.368  0.739  0.218-  80 2.25  82 2.26  76 2.26  83 2.36  85 2.36  25 2.53  45 2.53
  32  0.462  0.645  0.353-  53 2.25  83 2.26  85 2.26  84 2.36  86 2.36  26 2.53  46 2.53
  33  0.000  0.872  0.218-  82 2.25  87 2.26  68 2.26  73 2.36  90 2.36  37 2.53  43 2.53
  34  0.094  0.778  0.353-  83 2.25  73 2.26  90 2.26  77 2.36  74 2.36  44 2.53  38 2.53
  35  0.185  0.698  0.467-  74 2.02  77 2.02  84 2.08
  36  0.406  0.965  0.083-  75 1.99  54 2.07  93 2.14  76 2.36  55 2.36   4 2.53  30 2.53
  37  0.761  0.979  0.253-  60 2.25  94 2.26  68 2.26  90 2.36  95 2.36  43 2.53  33 2.53
  38  0.855  0.885  0.388-  61 2.25  90 2.26  95 2.26  96 2.36  77 2.36  39 2.38  44 2.53  34 2.53

  39  0.874  0.866  0.497-  88 2.05  77 2.09  96 2.09  38 2.38
  40  0.667  0.573  0.118-  69 2.07  91 2.07  76 2.25  92 2.36  70 2.36  24 2.53  18 2.53
  41  0.552  0.551  0.473-  86 2.05  64 2.08  65 2.13  84 2.14  27 2.48
  42  0.781  0.820  0.102-  94 2.05  91 2.09  93 2.13  87 2.15
  43  0.868  0.739  0.218-  92 2.25  94 2.26  87 2.26  95 2.36  73 2.36  37 2.53  33 2.53
  44  0.962  0.645  0.353-  66 2.25  95 2.26  73 2.26  96 2.36  74 2.36  38 2.53  34 2.53
  45  0.500  0.872  0.218-  94 2.25  76 2.26  55 2.26  85 2.36  78 2.36  25 2.53  31 2.53
  46  0.594  0.778  0.353-  95 2.25  85 2.26  78 2.26  89 2.36  86 2.36  32 2.53  26 2.53
  47  0.689  0.688  0.473-  86 2.06  64 2.08  96 2.12  89 2.14  27 2.48
  48  0.920  0.959  0.102-  68 2.05  81 2.09  67 2.13  87 2.15
  49  0.073  0.167  0.270-  25 2.25  10 2.26  20 2.26   9 2.36  19 2.36
  50  0.167  0.073  0.405-  11 2.02   5 2.02  26 2.25  10 2.36  20 2.36
  51  0.479  0.261  0.135-  12 2.15   6 2.15  16 2.25   7 2.26  21 2.26
  52  0.030  0.378  0.451-  11 2.02  29 2.08  15 2.09  10 2.36  14 2.36
  53  0.436  0.472  0.315-  32 2.25   2 2.26  22 2.26   1 2.36  21 2.36
  54  0.262  0.157  0.066-   4 2.07  36 2.07   6 2.09  55 2.69
  55  0.342  0.066  0.180-   7 2.25  25 2.26  45 2.26   4 2.36  36 2.36  54 2.69
  56  0.095  0.464  0.067-  28 2.07   6 2.13  24 2.14  57 2.61
  57  0.174  0.397  0.180-   6 2.05   9 2.25   7 2.26   1 2.26  28 2.36  56 2.61
  58  0.268  0.303  0.315-  10 2.25   2 2.26   8 2.26   7 2.36   1 2.36
  59  0.362  0.209  0.451-   3 2.00  11 2.08  17 2.14   8 2.36   2 2.36
  60  0.573  0.167  0.270-  37 2.25  22 2.26   8 2.26  21 2.36   7 2.36
  61  0.667  0.073  0.405-  17 2.05  23 2.06  38 2.25  22 2.36   8 2.36  88 2.73
  62  0.853  0.387  0.012-  24 1.99  18 1.99
  63  0.979  0.261  0.135-   4 2.25  19 2.26   9 2.26  18 2.36  24 2.36
  64  0.710  0.530  0.529-  15 2.05  41 2.08  47 2.08  86 2.73
  65  0.530  0.378  0.451-   3 2.00  41 2.13  23 2.14  22 2.36   2 2.36
  66  0.936  0.472  0.315-  44 2.25  14 2.26  10 2.26  13 2.36   9 2.36
  67  0.776  0.145  0.067-  16 2.07  48 2.13  18 2.14  68 2.61
  68  0.842  0.066  0.180-  48 2.05  19 2.25  37 2.26  33 2.26  16 2.36  67 2.61
  69  0.583  0.477  0.066-  40 2.07  18 2.07  12 2.09  70 2.69
  70  0.674  0.397  0.180-  21 2.25  19 2.26  13 2.26  18 2.36  40 2.36  69 2.69
  71  0.768  0.303  0.315-  22 2.25  14 2.26  20 2.26  19 2.36  13 2.36
  72  0.862  0.209  0.451-   5 2.02  15 2.09  23 2.12  20 2.36  14 2.36
  73  0.073  0.667  0.270-   1 2.25  34 2.26  44 2.26  33 2.36  43 2.36
  74  0.167  0.573  0.405-  35 2.02  29 2.02   2 2.25  34 2.36  44 2.36
  75  0.353  0.887  0.012-  30 1.99  36 1.99
  76  0.479  0.761  0.135-  40 2.25  31 2.26  45 2.26  30 2.36  36 2.36
  77  0.030  0.878  0.451-  35 2.02   5 2.08  39 2.09  34 2.36  38 2.36
  78  0.436  0.972  0.315-   8 2.25  26 2.26  46 2.26  25 2.36  45 2.36
  79  0.276  0.645  0.067-  28 2.07  12 2.13  30 2.14  80 2.61
  80  0.342  0.566  0.180-  12 2.05  31 2.25   1 2.26  21 2.26  28 2.36  79 2.61
  81  0.083  0.977  0.066-   4 2.07  30 2.07  48 2.09  82 2.69
  82  0.174  0.897  0.180-  33 2.25  31 2.26  25 2.26  30 2.36   4 2.36  81 2.69
  83  0.268  0.803  0.315-  34 2.25  26 2.26  32 2.26  31 2.36  25 2.36
  84  0.362  0.709  0.451-  27 2.00  35 2.08  41 2.14  32 2.36  26 2.36
  85  0.573  0.667  0.270-  13 2.25  46 2.26  32 2.26  45 2.36  31 2.36
  86  0.667  0.573  0.405-  41 2.05  47 2.06  14 2.25  46 2.36  32 2.36  64 2.73
  87  0.979  0.761  0.135-  42 2.15  48 2.15  28 2.25  43 2.26  33 2.26
  88  0.710  0.030  0.529-  39 2.05  17 2.08  23 2.08  61 2.73
  89  0.530  0.878  0.451-  27 2.00  17 2.13  47 2.14  46 2.36  26 2.36
  90  0.936  0.972  0.315-  20 2.25  38 2.26  34 2.26  37 2.36  33 2.36
  91  0.762  0.657  0.066-  40 2.07  24 2.07  42 2.09  92 2.69
  92  0.842  0.566  0.180-  43 2.25  13 2.26   9 2.26  40 2.36  24 2.36  91 2.69
  93  0.595  0.964  0.067-  16 2.07  42 2.13  36 2.14  94 2.61
  94  0.674  0.897  0.180-  42 2.05  45 2.25  43 2.26  37 2.26  16 2.36  93 2.61
  95  0.768  0.803  0.315-  46 2.25  38 2.26  44 2.26  43 2.36  37 2.36
  96  0.862  0.709  0.451-  29 2.02  39 2.09  47 2.12  44 2.36  38 2.36

  LATTYP: Found a base centered orthorhombic cell.
 ALAT       =    11.8257374459
 B/A-ratio  =     1.6199260857
 C/A-ratio  =     1.8387210052

  Lattice vectors:

 A1 = (  11.2564630382,   0.0000000000,   0.0000000000)
 A2 = (  -5.0445621212, -10.0628203371,   0.0000000000)
 A3 = (   0.0000000000,   0.0000000000, -21.7442318436)

Analysis of symmetry for initial positions (statically):
 Subroutine PRICEL returns:
 Original cell was already a primitive cell.

 Routine SETGRP: Setting up the symmetry group for a
 base centered orthorhombic supercell.

 Subroutine GETGRP returns: Found  1 space group operations
 (whereof  1 operations were pure point group operations)
 out of a pool of  8 trial point group operations.

The static configuration has the point symmetry C_1 .

Analysis of symmetry for dynamics (positions and initial velocities):
 Subroutine PRICEL returns:
 Original cell was already a primitive cell.

 Routine SETGRP: Setting up the symmetry group for a
 base centered orthorhombic supercell.

 Subroutine GETGRP returns: Found  1 space group operations
 (whereof  1 operations were pure point group operations)
 out of a pool of  8 trial point group operations.

The dynamic configuration has the point symmetry C_1 .

 Subroutine INISYM returns: Found  1 space group operations
 (whereof  1 operations are pure point group operations),
 and found     1 'primitive' translations

 KPOINTS: gamma-point-only calculation. no periodi

Automatic generation of k-mesh.
Space group operators:
 irot       det(A)        alpha          n_x          n_y          n_z        tau_x        tau_y        tau_z
[...]
     0.000000000  0.000000000 21.744231844     0.000000000  0.000000000  0.045989208

  length of vectors
    11.256463038 11.256463038 21.744231844     0.099375718  0.099375718  0.045989208

 FORCES acting on ions
    electron-ion (+dipol)            ewald-force                    non-local-force                 convergence-correction
   0.260E+03 -.420E+03 0.523E+03   -.260E+03 0.421E+03 -.522E+03   0.565E+00 -.100E+01 -.640E+00   0.758E-02 0.641E-03 -.174E-01
   0.331E+03 -.495E+03 -.272E+04   -.332E+03 0.496E+03 0.272E+04   0.733E+00 -.145E+01 0.124E+01   -.567E-02 0.661E-02 -.155E-01
   0.444E+03 -.560E+03 -.577E+04   -.442E+03 0.558E+03 0.577E+04   -.186E+01 0.245E+01 0.603E+01   -.150E-02 0.460E-03 -.646E-03
   0.284E+03 -.461E+03 0.390E+04   -.286E+03 0.466E+03 -.390E+04   0.236E+01 -.383E+01 0.247E+01   0.399E-02 -.924E-02 0.743E-02
   -.170E+03 0.347E+03 -.501E+04   0.169E+03 -.348E+03 0.501E+04   0.116E+01 0.103E+01 0.130E+01   0.451E-02 0.200E-03 -.880E-02
   0.653E+02 0.286E+03 0.489E+04   -.652E+02 -.290E+03 -.489E+04   0.344E+00 0.398E+01 0.347E+01   -.280E-04 -.361E-02 0.785E-02
   0.222E+03 0.501E+03 0.159E+04   -.223E+03 -.502E+03 -.158E+04   0.701E+00 0.844E+00 -.952E+00   0.644E-03 -.332E-03 -.749E-02
   0.325E+03 0.412E+03 -.144E+04   -.326E+03 -.412E+03 0.144E+04   0.994E+00 0.391E+00 0.248E+01   -.102E-01 -.807E-02 -.227E-01
   -.501E+03 -.104E+02 0.168E+04   0.501E+03 0.103E+02 -.169E+04   -.281E+00 0.112E+00 0.856E+00   0.303E-02 -.794E-03 -.822E-02
   -.535E+03 -.873E+01 -.146E+04   0.536E+03 0.951E+01 0.146E+04   -.107E+01 -.805E+00 0.194E+01   0.320E-02 -.628E-02 -.166E-01
   -.290E+03 0.151E+03 -.502E+04   0.291E+03 -.152E+03 0.502E+04   -.118E+01 0.287E+00 0.148E+01   0.781E-03 -.690E-03 -.576E-02
   -.283E+03 0.693E+02 0.489E+04   0.287E+03 -.714E+02 -.489E+04   -.373E+01 0.154E+01 0.351E+01   0.577E-02 0.585E-02 0.106E-01
   0.241E+03 -.391E+03 0.597E+03   -.241E+03 0.392E+03 -.597E+03   0.558E+00 -.965E+00 -.214E+00   -.639E-02 0.776E-02 -.142E-01
   0.185E+03 -.340E+03 -.240E+04   -.186E+03 0.341E+03 0.239E+04   0.543E+00 -.801E+00 -.118E-01   0.150E-02 0.207E-02 -.894E-02
   -.162E+03 0.132E+03 -.560E+04   0.159E+03 -.128E+03 0.560E+04   0.310E+01 -.458E+01 -.320E-01   0.174E-02 0.196E-02 -.240E-03
   0.277E+03 -.447E+03 0.416E+04   -.279E+03 0.451E+03 -.416E+04   0.194E+01 -.323E+01 0.437E+01   -.195E-02 0.185E-02 0.840E-02
   0.495E+03 0.394E+03 -.477E+04   -.498E+03 -.397E+03 0.478E+04   0.195E+01 0.339E+01 -.204E+01   -.554E-02 -.588E-02 -.433E-02
   0.290E+03 0.497E+03 0.486E+04   -.292E+03 -.502E+03 -.486E+04   0.155E+01 0.396E+01 0.443E+01   -.245E-03 0.493E-02 0.178E-02
   0.227E+03 0.435E+03 0.169E+04   -.227E+03 -.435E+03 -.169E+04   0.150E-01 0.323E+00 0.972E+00   -.121E-02 -.337E-02 -.807E-02
   0.194E+03 0.446E+03 -.143E+04   -.195E+03 -.447E+03 0.142E+04   0.114E+01 0.495E+00 0.192E+01   0.553E-02 -.659E-02 -.219E-01
   -.537E+03 0.283E+02 0.159E+04   0.538E+03 -.281E+02 -.159E+04   -.113E+01 -.258E+00 -.821E+00   -.507E-02 0.681E-02 -.103E-01
   -.465E+03 -.708E+02 -.141E+04   0.465E+03 0.713E+02 0.140E+04   -.716E+00 -.698E+00 0.248E+01   0.359E-02 0.270E-02 -.225E-01
   -.529E+03 -.114E+03 -.477E+04   0.534E+03 0.116E+03 0.477E+04   -.426E+01 -.792E+00 -.211E+01   0.309E-02 0.888E-03 -.110E-02
   -.576E+03 -.365E+02 0.486E+04   0.582E+03 0.359E+02 -.486E+04   -.421E+01 0.379E+00 0.440E+01   -.307E-02 -.765E-04 0.114E-02
   0.242E+03 -.392E+03 0.556E+03   -.243E+03 0.393E+03 -.556E+03   0.629E+00 -.110E+01 -.543E+00   0.264E-02 -.113E-01 -.160E-01
   0.331E+03 -.495E+03 -.272E+04   -.332E+03 0.496E+03 0.272E+04   0.681E+00 -.137E+01 0.123E+01   -.343E-02 0.204E-02 -.208E-01
   0.444E+03 -.560E+03 -.577E+04   -.442E+03 0.558E+03 0.577E+04   -.191E+01 0.251E+01 0.588E+01   0.311E-03 0.114E-03 -.756E-02
   0.274E+03 -.445E+03 0.416E+04   -.276E+03 0.449E+03 -.416E+04   0.200E+01 -.321E+01 0.437E+01   0.611E-02 0.346E-02 0.890E-02
   -.170E+03 0.347E+03 -.501E+04   0.169E+03 -.348E+03 0.501E+04   0.112E+01 0.112E+01 0.129E+01   -.405E-03 -.406E-04 -.300E-02
   0.291E+03 0.496E+03 0.486E+04   -.293E+03 -.502E+03 -.486E+04   0.155E+01 0.394E+01 0.447E+01   0.657E-02 0.437E-03 0.109E-01
   0.240E+03 0.427E+03 0.168E+04   -.241E+03 -.427E+03 -.168E+04   0.107E+00 0.172E+00 0.761E+00   0.132E-02 0.104E-01 -.811E-02
   0.322E+03 0.406E+03 -.144E+04   -.323E+03 -.407E+03 0.144E+04   0.937E+00 0.336E+00 0.253E+01   -.367E-02 0.706E-02 -.229E-01
   -.558E+03 0.389E+02 0.159E+04   0.559E+03 -.388E+02 -.159E+04   -.113E+01 -.115E+00 -.889E+00   0.640E-02 -.275E-02 -.449E-02
   -.541E+03 -.878E+01 -.147E+04   0.542E+03 0.956E+01 0.146E+04   -.111E+01 -.836E+00 0.188E+01   0.856E-02 0.200E-02 -.248E-01
   -.290E+03 0.151E+03 -.502E+04   0.292E+03 -.151E+03 0.502E+04   -.128E+01 0.262E+00 0.143E+01   0.296E-02 0.404E-03 -.554E-02
   -.572E+03 -.382E+02 0.486E+04   0.578E+03 0.375E+02 -.486E+04   -.423E+01 0.383E+00 0.448E+01   -.739E-02 -.608E-02 0.899E-02
   0.258E+03 -.419E+03 0.564E+03   -.259E+03 0.420E+03 -.563E+03   0.476E+00 -.843E+00 -.375E+00   0.370E-02 -.718E-02 -.151E-01
   0.185E+03 -.340E+03 -.240E+04   -.186E+03 0.341E+03 0.240E+04   0.567E+00 -.871E+00 0.225E-01   0.157E-02 -.313E-03 -.158E-01
   -.162E+03 0.132E+03 -.560E+04   0.159E+03 -.128E+03 0.561E+04   0.309E+01 -.449E+01 0.465E-01   -.381E-03 -.443E-02 -.996E-03
   0.287E+03 -.463E+03 0.391E+04   -.289E+03 0.467E+03 -.391E+04   0.234E+01 -.382E+01 0.253E+01   -.779E-02 0.606E-02 0.451E-02
   0.495E+03 0.394E+03 -.477E+04   -.498E+03 -.397E+03 0.478E+04   0.190E+01 0.337E+01 -.206E+01   0.112E-02 0.432E-02 -.450E-02
   0.643E+02 0.287E+03 0.489E+04   -.641E+02 -.291E+03 -.490E+04   0.327E+00 0.401E+01 0.344E+01   -.334E-02 -.339E-02 0.817E-02
   0.209E+03 0.508E+03 0.160E+04   -.209E+03 -.509E+03 -.160E+04   0.606E+00 0.101E+01 -.765E+00   0.404E-02 0.411E-02 -.398E-02
   0.197E+03 0.452E+03 -.143E+04   -.198E+03 -.452E+03 0.143E+04   0.118E+01 0.518E+00 0.185E+01   0.189E-02 0.430E-03 -.214E-01
   -.480E+03 -.210E+02 0.168E+04   0.480E+03 0.211E+02 -.168E+04   -.246E+00 -.429E-01 0.883E+00   -.165E-01 0.712E-04 -.748E-02
   -.458E+03 -.708E+02 -.140E+04   0.459E+03 0.713E+02 0.140E+04   -.637E+00 -.672E+00 0.253E+01   -.448E-02 0.287E-02 -.205E-01
   -.529E+03 -.114E+03 -.476E+04   0.533E+03 0.115E+03 0.477E+04   -.423E+01 -.836E+00 -.213E+01   -.189E-02 0.605E-03 -.374E-02
   -.287E+03 0.715E+02 0.489E+04   0.291E+03 -.735E+02 -.490E+04   -.371E+01 0.147E+01 0.341E+01   0.970E-02 -.218E-02 0.866E-02
   -.803E+02 0.123E+03 0.246E+03   0.815E+02 -.125E+03 -.248E+03   -.117E+01 0.188E+01 0.175E+01   0.372E-02 -.699E-02 -.557E-02
   -.121E+03 0.183E+03 -.103E+04   0.122E+03 -.185E+03 0.103E+04   -.231E+00 0.675E+00 -.123E+01   0.326E-02 -.161E-02 -.847E-02
   -.123E+03 0.200E+03 0.154E+04   0.123E+03 -.201E+03 -.154E+04   -.282E+00 0.425E+00 0.178E+01   -.752E-03 0.235E-02 0.569E-02
   -.170E+03 -.840E+02 -.162E+04   0.172E+03 0.858E+02 0.163E+04   -.187E+01 -.660E+00 -.168E+01   -.169E-02 -.869E-03 -.118E-02
   -.589E+02 -.159E+03 -.249E+03   0.603E+02 0.162E+03 0.249E+03   -.143E+01 -.259E+01 0.383E-03   -.142E-02 0.389E-02 -.132E-01
   -.147E+02 -.182E+03 0.213E+04   0.134E+02 0.185E+03 -.213E+04   0.148E+01 -.137E+01 0.334E+01   -.122E-02 -.359E-02 0.224E-02
   -.697E+02 -.131E+03 0.935E+03   0.714E+02 0.133E+03 -.935E+03   -.162E+01 -.235E+01 0.834E+00   -.162E-02 -.445E-02 0.252E-02
   0.539E+02 -.530E+02 0.212E+04   -.542E+02 0.539E+02 -.213E+04   -.289E+00 -.922E+00 0.373E+01   -.147E-02 -.814E-03 0.108E-02
   0.211E+03 -.561E+02 0.896E+03   -.213E+03 0.560E+02 -.893E+03   0.167E+01 0.678E+00 0.430E+00   0.336E-02 -.959E-03 0.180E-02
   0.171E+03 -.650E+01 -.255E+03   -.173E+03 0.638E+01 0.255E+03   0.287E+01 0.150E+00 -.201E+00   -.133E-02 -.720E-04 -.107E-01
   0.267E+03 -.164E+02 -.157E+04   -.270E+03 0.167E+02 0.157E+04   0.176E+01 -.208E+00 -.170E+01   -.319E-02 -.115E-02 -.150E-02
   -.688E+02 0.118E+03 0.253E+03   0.700E+02 -.120E+03 -.255E+03   -.120E+01 0.204E+01 0.241E+01   -.185E-02 -.846E-04 -.113E-01
[...]
   0.167E+03 -.798E+01 -.249E+03   -.170E+03 0.803E+01 0.250E+03   0.293E+01 -.365E-01 -.375E+00   0.151E-02 0.317E-02 -.122E-01
   0.267E+03 -.168E+02 -.157E+04   -.270E+03 0.170E+02 0.157E+04   0.169E+01 -.154E+00 -.175E+01   -.126E-03 0.193E-02 -.307E-02
   -.667E+02 0.115E+03 0.254E+03   0.678E+02 -.117E+03 -.257E+03   -.112E+01 0.194E+01 0.256E+01   -.343E-02 0.328E-02 -.105E-01
   -.721E+02 0.131E+03 -.880E+03   0.735E+02 -.133E+03 0.876E+03   -.850E+00 0.120E+01 0.875E+00   0.476E-03 0.541E-03 -.383E-02
   -.125E+03 0.201E+03 0.154E+04   0.126E+03 -.203E+03 -.154E+04   -.283E+00 0.527E+00 0.192E+01   0.311E-02 0.108E-02 0.578E-02
   -.355E+02 0.508E+02 -.234E+04   0.363E+02 -.520E+02 0.234E+04   -.490E+00 0.788E+00 -.201E+01   0.642E-03 -.220E-02 0.976E-03
   -.339E+02 -.229E+03 -.153E+04   0.350E+02 0.232E+03 0.153E+04   -.586E+00 -.134E+01 -.170E+01   -.217E-02 -.744E-03 -.251E-02
   -.874E+02 -.148E+03 -.231E+03   0.890E+02 0.151E+03 0.232E+03   -.150E+01 -.235E+01 -.349E+00   0.234E-02 -.223E-02 -.104E-01
   -.149E+02 -.182E+03 0.213E+04   0.137E+02 0.185E+03 -.213E+04   0.143E+01 -.133E+01 0.323E+01   -.374E-02 -.197E-02 0.166E-02
   -.725E+02 -.130E+03 0.939E+03   0.741E+02 0.132E+03 -.940E+03   -.146E+01 -.233E+01 0.100E+01   -.159E-02 0.269E-02 -.745E-03
   0.549E+02 -.535E+02 0.212E+04   -.552E+02 0.544E+02 -.213E+04   -.278E+00 -.961E+00 0.368E+01   -.585E-02 -.924E-03 0.159E-02
   0.213E+03 -.569E+02 0.900E+03   -.216E+03 0.569E+02 -.898E+03   0.176E+01 0.553E+00 0.352E+00   -.372E-02 -.108E-02 0.380E-02
   0.170E+03 -.503E+00 -.226E+03   -.173E+03 0.270E+00 0.226E+03   0.288E+01 0.218E+00 -.107E+00   -.400E-03 0.817E-03 -.101E-01
   0.105E+03 0.580E+02 -.159E+04   -.106E+03 -.587E+02 0.159E+04   0.959E+00 0.152E+01 -.160E+01   -.949E-03 0.602E-03 -.641E-03
   -.349E+01 0.645E+01 -.103E+03   -.236E-11 -.215E-11 0.191E-10   0.326E+01 -.648E+01 0.104E+03   0.946E-02 0.191E-02 -.418E+00

 POSITION                                       TOTAL-FORCE (eV/Angst)
      5.35228      4.81788      5.50842         0.016534     -0.044809     -0.054449
      5.93595      3.87238      8.44448         0.091013     -0.041235     -0.037784
      6.54255      2.88814     10.98188         0.026184     -0.049720      1.358864
      2.24633      0.73197      2.57236        -0.273432      0.432876      2.153143
      0.74410      0.54707     10.14705         0.299087     -0.426923      1.072676
      4.77381      3.22172      2.21413         0.507134     -0.287518     -1.114897
      5.35228      2.40903      4.73270         0.023159      0.003474      0.122449
      5.93595      1.46353      7.66876         0.204358     -0.014896     -0.041882
      1.87746      3.73836      4.73270        -0.088288      0.007897      0.110933
      2.46113      2.79286      7.66876        -0.165047     -0.024794     -0.235379
      3.07993      1.99025     10.14671         0.302727     -0.314481      1.153732
      7.03845      4.61969      2.21414         0.019925     -0.539779     -1.117995
     10.98051      4.81788      5.50842         0.059342     -0.129405     -0.142044
     11.56418      3.87238      8.44448        -0.214627      0.139027     -1.122390
     11.68312      3.68758     10.81179         0.485338     -0.922495      0.915682
      7.87456      0.73197      2.57236        -0.345467      0.523236      1.423802
      6.46497      0.51158     10.28569        -1.078382      0.125003      0.484267
     10.39684      3.35453      1.79664        -0.505521     -1.531804      2.541692
     10.98051      2.40903      4.73270         0.043350      0.082994      0.121657
     11.56418      1.46353      7.66876        -0.016449      0.073013     -0.262217
      7.50570      3.73836      4.73270        -0.032395     -0.056092      0.167288
      8.08937      2.79286      7.66876         0.019164     -0.172538     -0.037282
      8.70717      1.89647     10.28461         0.213259      0.896742      0.504404
     12.55026      4.68386      1.79664         1.609401     -0.243650      2.549950
      7.87456      9.84929      5.50842         0.093206     -0.166533     -0.213538
      8.45823      8.90379      8.44448         0.108917     -0.051233      0.001552
      9.06482      7.91957     10.98187         0.003942     -0.020257      1.355218
      4.76861      5.76338      2.57236        -0.314130      0.526888      1.367965
      3.26637      5.57848     10.14705         0.315707     -0.382661      1.059592
      7.29089      8.38594      1.79664        -0.479377     -1.557560      2.630326
      7.87456      7.44044      4.73270         0.012399      0.095696      0.082539
      8.45823      6.49494      7.66876         0.173524     -0.027770     -0.017573
      4.39975      8.76977      4.73270        -0.026139     -0.041170      0.150713
      4.98341      7.82427      7.66876        -0.169654     -0.047696     -0.264188
      5.60222      7.02167     10.14672         0.263691     -0.313381      1.138887
      9.44431      9.71527      1.79664         1.609999     -0.247828      2.596024
     13.50279      9.84929      5.50842        -0.004178     -0.025053      0.021795
     14.08646      8.90379      8.44448        -0.209561      0.130274     -1.141728
     14.20544      8.71893     10.81183         0.484046     -0.910289      0.954582
     10.39684      5.76338      2.57236        -0.272192      0.436936      2.200599
      8.98725      5.54300     10.28568        -1.072179      0.113364      0.470711
     12.92431      8.25313      2.21412         0.484881     -0.255483     -1.140981
     13.50279      7.44044      4.73270         0.059560      0.006279      0.175005
     14.08646      6.49494      7.66876         0.003733      0.048062     -0.278490
     10.02798      8.76977      4.73270        -0.107179      0.001642      0.116350
     10.61165      7.82427      7.66876         0.035570     -0.158809     -0.030666
     11.22945      6.92787     10.28460         0.226532      0.888511      0.488796
     15.18893      9.65111      2.21411         0.035464     -0.561217     -1.124029
      1.66190      1.67871      5.87212         0.065969     -0.000311      0.101279
      2.24556      0.73321      8.80817         0.855411     -1.342112     -1.606114
      6.70646      2.62422      2.93606         0.539539     -0.880690     -0.361240
      2.24556      3.80055      9.79595        -0.154577      1.110095     -0.116834
      7.29013      4.74605      6.85989         0.000345      0.105714      0.052081
      3.74426      1.57999      1.42965         0.189930      1.377618     -2.624148
      4.18418      0.66015      3.92384         0.108036     -0.329911      0.857633
      3.41066      4.67095      1.45991        -0.613529      0.007050     -2.061168
      3.96438      3.99884      3.92384        -0.657626      0.552146      2.579170
      4.54805      3.05334      6.85989        -0.088024      0.032879      0.031893
      5.13172      2.10784      9.79595        -1.441449      0.109059     -0.765673
      7.29013      1.67871      5.87212        -0.013205     -0.019724      0.092482
[...]
      6.48666      9.03025      3.92384         0.247163     -0.274057      0.810140
      7.07033      8.08475      6.85989        -0.066218      0.024491      0.005028
      7.65400      7.13925      9.79595        -1.432592      0.099764     -0.794034
      9.81241      6.71012      5.87212         0.015548     -0.080952      0.151770
     10.39608      5.76462      8.80817         0.511959     -0.790769     -2.952483
     14.85697      7.65563      2.93606         0.528429     -0.867125     -0.320569
      8.14516      0.29881     11.49345         0.315843     -0.429383      2.462815
     10.39608      8.83196      9.79595         0.433070      1.394855     -0.741163
     15.44064      9.77746      6.85989         0.077451      0.030752     -0.007102
     11.89476      6.61140      1.42964         0.210589      1.397893     -2.638146
     12.33469      5.69156      3.92384         0.116259     -0.340560      0.827177
     11.56117      9.70236      1.45991        -0.599041      0.008431     -2.095491
     12.11489      9.03025      3.92384        -0.629855      0.599767      2.611207
     12.69856      8.08475      6.85989        -0.062638     -0.014350      0.051459
     13.28223      7.13925      9.79595        -0.817778      0.770620     -0.036691
    total drift:                               -0.219702     -0.025664      0.099225

  FREE ENERGIE OF THE ION-ELECTRON SYSTEM (eV)
  free  energy   TOTEN  =      -476.34069821 eV

  energy  without entropy=     -475.25250138  energy(sigma->0) =     -475.79659980