 vasp.5.4.4.18Apr17-6-g9f103f2a35 (build Aug 13 2019 17:33:20) gamma-only

 executed on             LinuxIFC date 2020.05.11  16:55:01

 INCAR:
 POTCAR:    PAW_PBE Ni_pv 06Sep2000
 POTCAR:    PAW_PBE S 06Sep2000
 POTCAR:    PAW_PBE Ni_pv 06Sep2000
   VRHFIN =Ni:

   TITEL  = PAW_PBE Ni_pv 06Sep2000
   POMASS =   58.690; ZVAL   =   16.000    mass and valenz
   ENMAX  =  367.986; ENMIN  =  275.989 eV

 POTCAR:    PAW_PBE S 06Sep2000
   VRHFIN =S : s2p4

   TITEL  = PAW_PBE S 06Sep2000
   POMASS =   32.066; ZVAL   =    6.000    mass and valenz
   ENMAX  =  258.689; ENMIN  =  194.016 eV

 Optimization of the real space projectors (new method)

 maximal supplied QI-value         = 18.90
 optimisation between [QCUT,QGAM] = [ 10.77, 21.73] = [ 32.49,132.25] Ry
 Optimized for a Real-space Cutoff    1.38 Angstroem

   l    n(q)    QCUT    max X(q) W(low)/X(q) W(high)/X(q)  e(spline)
   1      8    10.771     2.836    0.40E-04    0.29E-04    0.12E-06
   1      8    10.771     4.023    0.10E-03    0.48E-04    0.29E-06
   2      8    10.771    73.368    0.42E-03    0.97E-04    0.44E-06
   2      8    10.771    69.010    0.42E-03    0.99E-04    0.45E-06
   0      9    10.771    54.797    0.10E-03    0.56E-04    0.74E-07
   0      9    10.771    24.266    0.89E-04    0.49E-04    0.67E-07
 Optimization of the real space projectors (new method)

 maximal supplied QI-value         = 19.84
 optimisation between [QCUT,QGAM] = [ 10.71, 21.63] = [ 32.15,130.99] Ry
 Optimized for a Real-space Cutoff    1.19 Angstroem

   l    n(q)    QCUT    max X(q) W(low)/X(q) W(high)/X(q)  e(spline)
   0      8    10.715   187.594    0.41E-03    0.53E-04    0.66E-07
   0      8    10.715   164.243    0.41E-03    0.53E-04    0.65E-07
   1      7    10.715    67.533    0.19E-03    0.59E-03    0.68E-07
   1      7    10.715    50.729    0.19E-03    0.58E-03    0.67E-07
  PAW_PBE Ni_pv 06Sep2000               :
  PAW_PBE S 06Sep2000                   :

 POSCAR: Type_036 Type_136
  positions in cartesian coordinates
 exchange correlation table for  LEXCH =        8
   RHO(1)=    0.500       N(1)  =     2000
   RHO(2)=  100.500       N(2)  =     4000

 ion  position               nearest neighbor table
   1  0.770  0.107  0.116-  49 2.07  63 2.09  41 2.12  64 2.15
   2  0.809  0.119  0.268-  37 2.05  50 2.08  64 2.09  42 2.11
   3  0.214  0.625  0.096-  43 2.03  44 2.10  61 2.21   4 2.41  51 2.47  13 2.50
   4  0.297  0.645  0.216-  52 2.12  62 2.17  44 2.25  51 2.26  61 2.26   3 2.41  27 2.53  14 2.53

   5  0.386  0.119  0.125-  45 2.04  46 2.14  67 2.18   6 2.44  29 2.50  53 2.52
   6  0.470  0.145  0.248-  54 2.11  68 2.12  46 2.25  53 2.26  67 2.26   5 2.44  30 2.53  17 2.53

[...]

  24  0.905  0.291  0.112-  49 2.04  66 2.09  50 2.10  38 2.14  25 2.45
  25  0.946  0.274  0.257-  37 2.04  38 2.08  50 2.13  65 2.17  24 2.45
  26  0.419  0.876  0.058-  67 2.09  51 2.15  27 2.34  39 2.45  13 2.46
  27  0.425  0.777  0.191-  52 2.17  67 2.25  39 2.26  51 2.26  26 2.34  40 2.36  28 2.47  14 2.53
                             4 2.53
  28  0.466  0.824  0.334-  68 2.00  52 2.04  40 2.07  27 2.47
  29  0.529  0.145  0.089-  41 2.04  67 2.05  53 2.05   5 2.50
  30  0.597  0.277  0.223-  54 2.05  42 2.15  69 2.25  53 2.26  41 2.26   6 2.53  17 2.53
  31  0.080  0.777  0.127-  71 2.03  56 2.04  43 2.08  32 2.27  44 2.36  55 2.36   7 2.53  18 2.53

[...]

  37  0.914  0.111  0.331-  25 2.04  12 2.05   2 2.05
  38  0.999  0.167  0.159-  12 2.08  25 2.08  24 2.14   9 2.17
  39  0.474  0.645  0.087-  10 2.00  13 2.03  27 2.26  14 2.26  26 2.45
  40  0.509  0.645  0.278-  28 2.07  15 2.08  10 2.17  11 2.25  27 2.36  14 2.36
  41  0.647  0.145  0.119-  29 2.04  16 2.06   1 2.12  30 2.26  17 2.26  42 2.65  63 2.79
  42  0.684  0.143  0.278-   2 2.11  17 2.12  30 2.15  41 2.65
  43  0.112  0.644  0.031-   3 2.03  18 2.06  31 2.08
  44  0.164  0.645  0.214-  19 2.05   3 2.10  32 2.16   4 2.25  31 2.36  18 2.36
  45  0.283  0.145  0.063-   5 2.04  33 2.07  20 2.07
  46  0.336  0.145  0.246-  21 2.04  34 2.04   5 2.14   6 2.25  33 2.36  20 2.36
  47  0.819  0.645  0.151-  35 2.11  22 2.25   7 2.25  36 2.26  23 2.26
  48  0.833  0.645  0.332-   8 2.01  23 2.08  36 2.08
  49  0.805  0.273  0.041-  22 2.03  24 2.04   1 2.07
  50  0.829  0.314  0.214-   2 2.08  24 2.10  25 2.13  22 2.13  23 2.25
  51  0.312  0.814  0.119-  13 2.05  26 2.15  20 2.25   4 2.26  27 2.26   3 2.47
  52  0.352  0.783  0.302-  21 2.01  28 2.04   4 2.12  27 2.17  62 2.67
  53  0.484  0.314  0.151-  29 2.05  14 2.25  30 2.26   6 2.26   5 2.52
  54  0.533  0.275  0.330-  15 1.99  30 2.05   6 2.11  68 2.61
  55  0.001  0.814  0.246-   8 2.05  12 2.13  32 2.14   7 2.36  31 2.36
  56  0.972  0.803  0.073-   7 2.01  31 2.04
  57  0.141  0.326  0.110-  18 2.09  33 2.09   9 2.13  58 2.71
  58  0.183  0.291  0.271-  19 2.01  34 2.04  33 2.16   9 2.21  72 2.55  57 2.71
  59  0.657  0.814  0.183-  16 2.13  35 2.15  10 2.22  17 2.25  36 2.26  11 2.26  60 2.78
  60  0.692  0.797  0.350-  11 2.03  36 2.04  59 2.78
  61  0.312  0.477  0.119-  13 2.03   3 2.21  33 2.25   4 2.26  14 2.26
  62  0.357  0.504  0.301-  34 2.01  15 2.06  14 2.12   4 2.17  52 2.67
  63  0.739  0.972  0.019-  35 2.02  16 2.05   1 2.09  41 2.79
  64  0.828  0.950  0.190-   2 2.09  35 2.11  12 2.12   1 2.15  36 2.19
  65  0.001  0.477  0.246-  19 2.04   8 2.06  25 2.17   7 2.36  18 2.36  66 2.79
  66  0.967  0.470  0.078-   7 2.08  24 2.09  18 2.11  65 2.79
  67  0.484  0.977  0.151-  29 2.05  26 2.09   5 2.18  27 2.25  17 2.26   6 2.26
  68  0.527  0.002  0.328-  28 2.00  17 2.07   6 2.12  54 2.61
  69  0.657  0.477  0.183-  10 2.19  30 2.25  23 2.26  11 2.26  22 2.29  70 2.74
  70  0.691  0.490  0.348-  11 2.03  23 2.03  69 2.74
  71  0.139  0.962  0.120-  31 2.03   9 2.06  20 2.08  32 2.39  72 2.76
  72  0.186  0.025  0.279-  32 1.99  21 2.04   9 2.18  20 2.25  58 2.55  71 2.76

  LATTYP: Found a simple orthorhombic cell.
 ALAT       =     9.5784100000
 B/A-ratio  =     1.6880763216
 C/A-ratio  =     1.7627867312

  Lattice vectors:

 A1 = (   0.0000000000,   9.5784100000,   0.0000000000)
 A2 = (   0.0000000000,   0.0000000000, -16.1690871197)
 A3 = ( -16.8846940542,   0.0000000000,   0.0000000000)

Analysis of symmetry for initial positions (statically):
 Subroutine PRICEL returns:
 Original cell was already a primitive cell.

 Routine SETGRP: Setting up the symmetry group for a
 simple orthorhombic supercell.

 Subroutine GETGRP returns: Found  1 space group operations
 (whereof  1 operations were pure point group operations)
 out of a pool of  8 trial point group operations.

The static configuration has the point symmetry C_1 .

Analysis of symmetry for dynamics (positions and initial velocities):
 Subroutine PRICEL returns:
 Original cell was already a primitive cell.

 Routine SETGRP: Setting up the symmetry group for a
 simple orthorhombic supercell.

 Subroutine GETGRP returns: Found  1 space group operations
 (whereof  1 operations were pure point group operations)
 out of a pool of  8 trial point group operations.

The dynamic configuration has the point symmetry C_1 .

 Subroutine INISYM returns: Found  1 space group operations
 (whereof  1 operations are pure point group operations),
 and found     1 'primitive' translations

 KPOINTS: gamma-point-only calculation. no periodi

Automatic generation of k-mesh.
Space group operators:
 irot       det(A)        alpha          n_x          n_y          n_z        tau_x        tau_y        tau_z
    1     1.000000     0.000000     1.000000     0.000000     0.000000     0.000000     0.000000     0.000000

 Subroutine IBZKPT returns following result:

 Found      1 irreducible k-points:

 Following reciprocal coordinates:
            Coordinates               Weight
  0.000000  0.000000  0.000000      1.000000

 Following cartesian coordinates:
            Coordinates               Weight
  0.000000  0.000000  0.000000      1.000000

 SYSTEM =  "Millerite NiS"
 POSCAR =  Type_036 Type_136

 Startparameter for this run:
   NWRITE =      2    write-flag & timer
   PREC   = normal    normal or accurate (medium, high low for compatibility)
   ISTART =      0    job   : 0-new  1-cont  2-samecut
   ICHARG =      2    charge: 1-file 2-atom 10-const
   ISPIN  =      1    spin polarized calculation?
   LNONCOLLINEAR =      F non collinear calculations
   LSORBIT =      F    spin-orbit coupling
   INIWAV =      1    electr: 0-lowe 1-rand  2-diag
   LASPH  =      F    aspherical Exc in radial PAW
   METAGGA=      F    non-selfconsistent MetaGGA calc.

 Electronic Relaxation 1
   ENCUT  =  450.0 eV  33.07 Ry    5.75 a.u.  29.20 16.57 27.97*2*pi/ulx,y,z
   ENINI  =  450.0     initial cutoff
   ENAUG  =  703.4 eV  augmentation charge cutoff
   NELM   =    100;   NELMIN=  2; NELMDL= -5     # of ELM steps
   EDIFF  = 0.1E-03   stopping-criterion for ELM
   LREAL  =      T    real-space projection
   NLSPLINE    = F    spline interpolate recip. space projectors
   LCOMPAT=      F    compatible to vasp.4.4
   GGA_COMPAT  = T    GGA compatible to vasp.4.4-vasp.4.6
   LMAXPAW     = -100 max onsite density
   LMAXMIX     =    2 max onsite mixed and CHGCAR
   VOSKOWN=      0    Vosko Wilk Nusair interpolation
   ROPT   =   -0.00050  -0.00050
 Ionic relaxation
   EDIFFG = 0.1E-02   stopping-criterion for IOM
   NSW    =      0    number of steps for IOM
   NBLOCK =      1;   KBLOCK =      1    inner block; outer block
   IBRION =     -1    ionic relax: 0-MD 1-quasi-New 2-CG
   NFREE  =      0    steps in history (QN), initial steepest desc. (CG)
   ISIF   =      2    stress and relaxation
   IWAVPR =     10    prediction:  0-non 1-charg 2-wave 3-comb
   ISYM   =      2    0-nonsym 1-usesym 2-fastsym
   LCORR  =      T    Harris-Foulkes like correction to forces

   POTIM  = 0.5000    time-step for ionic-motion
   TEIN   =    0.0    initial temperature
   TEBEG  =    0.0;   TEEND  =   0.0 temperature during run
   SMASS  =  -3.00    Nose mass-parameter (am)
   estimated Nose-frequenzy (Omega)   =  0.10E-29 period in steps =****** mass=  -0.652E-26a.u.
   SCALEE = 1.0000    scale energy and forces
   NPACO  =    256;   APACO  = 16.0  distance and # of slots for P.C.
   PSTRESS=    0.0 pullay stress

  Mass of Ions in am
   POMASS =  58.69 32.07
  Ionic Valenz
   ZVAL   =  16.00  6.00
  Atomic Wigner-Seitz radii
  virtual crystal weights
   VCA    =   1.00  1.00
   NELECT =     792.0000    total number of electrons
   NUPDOWN=      -1.0000    fix difference up-down

 DOS related values:
   EMIN   =  10.00;   EMAX   =-10.00  energy-range for DOS
   EFERMI =   0.00
   ISMEAR =     0;   SIGMA  =   0.20  broadening in eV -4-tet -1-fermi 0-gaus

 Electronic relaxation 2 (details)
   IALGO  =     38    algorithm
   LDIAG  =      T    sub-space diagonalisation (order eigenvalues)
   LSUBROT=      F    optimize rotation matrix (better conditioning)
   TURBO    =      0    0=normal 1=particle mesh
   IRESTART =      0    0=no restart 2=restart with 2 vectors
   NREBOOT  =      0    no. of reboots
   NMIN     =      0    reboot dimension
   EREF     =   0.00    reference energy to select bands
   IMIX   =      4    mixing-type and parameters
     AMIX     =   0.40;   BMIX     =  1.00
[...]
  Fock        0.00000     0.00000     0.00000     0.00000     0.00000     0.00000
  Total     131.93806   138.63096   141.32396     4.37985     0.64467     0.29143
  in kB      80.83670    84.93735    86.58731     2.68348     0.39498     0.17855

 VOLUME and BASIS-vectors are now :
  energy-cutoff  :      450.00
  volume of cell :     2615.00
      direct lattice vectors                 reciprocal lattice vectors
    16.884694054  0.000000000  0.000000000     0.059225237  0.000000000  0.000000000
     0.000000000  9.578410000  0.000000000     0.000000000  0.104401461  0.000000000
     0.000000000  0.000000000 16.169087120     0.000000000  0.000000000  0.061846411

  length of vectors
    16.884694054  9.578410000 16.169087120     0.059225237  0.104401461  0.061846411

 FORCES acting on ions
    electron-ion (+dipol)            ewald-force                    non-local-force                 convergence-correction
   -.412E+03 -.206E+03 0.209E+04   0.415E+03 0.208E+03 -.209E+04   -.147E+01 -.159E+01 0.454E+01   0.211E-01 0.107E+00 0.871E-01
   0.826E+02 -.108E+02 -.249E+04   -.864E+02 0.100E+02 0.250E+04   0.164E+01 0.732E+00 -.444E+01   0.122E+00 0.590E-01 0.229E+00
   0.305E+03 0.110E+03 0.281E+04   -.305E+03 -.111E+03 -.282E+04   0.614E+00 0.956E+00 0.604E+01   0.273E-01 0.314E-01 -.519E-01
   0.759E+03 0.886E+02 -.128E+04   -.762E+03 -.894E+02 0.128E+04   0.264E+01 0.450E+00 -.309E+01   -.557E-01 0.702E-01 0.242E+00
   0.216E+03 -.477E+03 0.224E+04   -.217E+03 0.478E+03 -.225E+04   0.162E+01 -.480E+00 0.793E+01   0.112E-01 -.111E+00 -.795E-02
   0.263E+03 -.191E+03 -.189E+04   -.266E+03 0.193E+03 0.189E+04   0.265E+01 -.122E+01 -.585E+01   -.576E-01 0.288E-01 0.191E+00
   0.501E+03 -.125E+03 0.125E+04   -.506E+03 0.126E+03 -.126E+04   0.468E+01 -.958E+00 0.332E+01   -.768E-01 -.736E-01 0.546E+00
   -.188E+03 -.677E+02 -.317E+04   0.184E+03 0.680E+02 0.317E+04   0.431E+01 -.437E+00 0.103E+01   -.221E-01 -.193E-01 0.327E+00
   0.895E+03 -.430E+02 0.225E+03   -.900E+03 0.445E+02 -.227E+03   0.491E+01 -.546E+00 0.295E+01   0.105E-01 -.448E-01 0.198E+00
   -.470E+03 0.366E+03 0.169E+04   0.473E+03 -.367E+03 -.170E+04   -.255E+01 0.852E+00 0.324E+01   0.238E-01 -.526E-01 0.914E-01
   -.154E+02 0.102E+03 -.240E+04   0.127E+02 -.102E+03 0.241E+04   0.190E+01 -.416E-01 -.714E+01   -.312E-01 -.101E+00 0.248E+00
   -.406E+03 0.317E+03 -.746E+03   0.411E+03 -.321E+03 0.746E+03   -.419E+01 0.360E+01 -.116E+01   0.742E-01 0.494E-01 0.300E+00
   0.495E+02 0.519E+03 0.395E+04   -.508E+02 -.520E+03 -.395E+04   0.949E+00 0.634E+00 0.499E+01   0.703E-01 0.155E+00 -.246E+00
   -.196E+03 0.671E+03 0.464E+03   0.196E+03 -.675E+03 -.466E+03   0.510E+00 0.375E+01 0.119E+00   0.155E+00 -.143E+00 0.314E+00
   -.162E+03 0.155E+03 -.352E+04   0.165E+03 -.159E+03 0.352E+04   -.324E+01 0.471E+01 0.191E+00   0.438E-01 -.366E-01 0.260E+00
   0.429E+02 0.378E+03 0.330E+04   -.415E+02 -.378E+03 -.331E+04   -.252E+01 -.755E+00 0.535E+01   -.175E+00 -.136E-01 -.731E-01
   -.562E+03 0.253E+03 -.123E+04   0.565E+03 -.257E+03 0.123E+04   -.247E+01 0.334E+01 -.643E+01   -.135E+00 0.972E-02 0.207E+00
   0.290E+03 0.606E+03 0.188E+04   -.292E+03 -.611E+03 -.189E+04   0.121E+01 0.437E+01 0.364E+01   0.458E-01 -.630E-01 0.178E+00
   0.185E+03 0.121E+03 -.271E+04   -.184E+03 -.123E+03 0.271E+04   -.156E+01 0.235E+01 0.213E+00   -.117E+00 0.802E-02 0.313E+00
   0.501E+03 0.253E+03 0.119E+04   -.500E+03 -.256E+03 -.119E+04   -.261E+00 0.213E+01 0.465E+01   0.524E-01 0.452E-01 0.138E+00
   0.427E+03 0.312E+02 -.338E+04   -.425E+03 -.358E+02 0.338E+04   -.299E+01 0.498E+01 0.140E+01   0.656E-02 0.196E-01 0.214E+00
   0.244E+03 -.254E+03 0.249E+04   -.246E+03 0.255E+03 -.249E+04   0.176E+01 0.484E+00 0.474E+01   -.700E-01 0.259E-01 0.794E-01
   -.423E+03 0.481E+03 -.173E+04   0.425E+03 -.484E+03 0.173E+04   -.169E+01 0.295E+01 -.451E+01   0.703E-01 -.194E-01 0.235E+00
   -.502E+03 0.183E+03 0.251E+04   0.505E+03 -.180E+03 -.252E+04   -.289E+01 -.275E+01 0.566E+01   -.900E-02 -.186E-01 0.175E+00
   -.447E+03 -.199E+03 -.217E+04   0.451E+03 0.203E+03 0.217E+04   -.282E+01 -.251E+01 -.454E+01   0.271E-01 0.413E-01 0.266E+00
   -.139E+03 -.252E+03 0.391E+04   0.137E+03 0.253E+03 -.391E+04   0.238E+01 -.158E+00 -.189E+01   -.941E-03 0.137E+00 -.194E+00
   -.169E+03 -.198E+03 -.105E+03   0.169E+03 0.199E+03 0.107E+03   0.445E+00 -.235E+01 -.152E+01   0.591E-01 0.218E+00 0.115E+00
   -.131E+03 -.869E+02 -.377E+04   0.134E+03 0.907E+02 0.377E+04   -.299E+01 -.431E+01 0.182E+01   -.325E-01 0.323E-02 0.240E+00
   -.179E+03 -.662E+03 0.344E+04   0.177E+03 0.664E+03 -.345E+04   0.127E+01 -.221E+01 0.467E+01   -.145E+00 0.323E-02 -.637E-01
   -.654E+03 -.602E+03 -.705E+03   0.657E+03 0.608E+03 0.706E+03   -.159E+01 -.551E+01 -.279E+01   -.939E-01 0.102E+00 0.198E+00
   0.366E+03 -.605E+03 0.198E+04   -.369E+03 0.607E+03 -.199E+04   0.277E+01 -.278E+01 0.391E+01   0.152E+00 0.920E-01 0.263E+00
   0.331E+03 -.101E+03 -.233E+04   -.331E+03 0.100E+03 0.233E+04   -.836E+00 0.588E-02 -.289E+01   -.195E-01 0.518E-01 0.308E+00
   0.254E+03 -.377E+03 0.127E+04   -.253E+03 0.381E+03 -.127E+04   0.127E-01 -.319E+01 0.476E+01   0.276E-01 -.133E+00 0.108E+00
   0.369E+03 -.660E+02 -.327E+04   -.367E+03 0.709E+02 0.327E+04   -.214E+01 -.510E+01 0.884E+00   0.603E-01 -.658E-01 0.236E+00
   -.617E+03 0.509E+03 0.267E+04   0.619E+03 -.513E+03 -.267E+04   -.175E+01 0.224E+01 0.744E+01   -.152E-01 -.895E-01 0.720E-01
   -.581E+03 -.405E+03 -.179E+04   0.583E+03 0.408E+03 0.180E+04   -.225E+01 -.347E+01 -.631E+01   0.104E+00 -.992E-01 0.309E+00
   -.168E+03 0.799E+02 -.157E+04   0.169E+03 -.810E+02 0.157E+04   -.139E+00 0.621E+00 -.113E+01   0.397E-01 0.192E-01 0.613E-01
   -.166E+03 0.106E+03 0.595E+03   0.165E+03 -.108E+03 -.598E+03   0.169E+01 0.168E+01 0.925E+00   0.166E-01 -.240E-05 0.973E-01
   -.348E+03 0.238E+03 0.135E+04   0.352E+03 -.241E+03 -.135E+04   -.289E+01 0.301E+01 0.251E+01   0.330E-01 0.445E-01 -.817E-01
   -.146E+03 0.353E+02 -.923E+03   0.147E+03 -.353E+02 0.928E+03   0.978E+00 -.502E-02 -.421E+01   -.159E-01 -.408E-01 0.162E+00
   -.224E+03 -.367E+03 0.853E+03   0.225E+03 0.372E+03 -.857E+03   -.106E+01 -.328E+01 0.306E+01   -.381E-01 0.525E-01 0.112E-01
   -.201E+03 -.708E+02 -.108E+04   0.203E+03 0.709E+02 0.109E+04   -.685E+00 -.136E-01 -.262E+01   -.911E-02 0.268E-01 0.775E-01
   0.153E+03 -.276E+02 0.171E+04   -.153E+03 0.271E+02 -.171E+04   -.496E+00 0.701E+00 0.228E+01   0.518E-01 0.129E-02 -.757E-01
   0.535E+02 -.300E+02 -.537E+03   -.525E+02 0.296E+02 0.543E+03   0.799E-01 0.117E+01 -.381E+01   -.366E-01 0.363E-01 0.114E+00
   0.205E+03 -.998E+02 0.162E+04   -.206E+03 0.100E+03 -.163E+04   0.136E+01 -.207E+00 0.171E+01   0.236E-01 -.202E-01 -.258E-01
   0.310E+02 -.680E+02 -.671E+03   -.294E+02 0.686E+02 0.677E+03   0.604E+00 -.502E+00 -.456E+01   0.179E-02 -.282E-01 0.758E-01
   -.160E+03 0.231E+02 0.658E+03   0.161E+03 -.234E+02 -.661E+03   -.782E+00 -.770E+00 0.184E+01   -.116E-01 -.561E-01 0.857E-01
   -.152E+03 0.351E+00 -.146E+04   0.155E+03 -.527E+00 0.146E+04   -.180E+01 0.325E+00 -.228E+01   0.148E+00 -.168E-01 0.638E-01
   0.167E+01 -.305E+02 0.159E+04   -.166E+01 0.311E+02 -.159E+04   -.374E+00 -.639E+00 0.221E+01   -.246E-01 0.445E-01 -.407E-01
   0.333E+02 -.660E+02 -.386E+03   -.337E+02 0.674E+02 0.389E+03   -.487E+00 0.243E+00 -.175E+01   0.287E-01 0.331E-01 0.913E-01
   0.358E+03 -.204E+03 0.782E+03   -.361E+03 0.206E+03 -.783E+03   0.173E+01 -.107E+01 -.106E+00   0.375E-01 0.959E-01 -.350E-01
   0.290E+03 0.949E+02 -.129E+04   -.292E+03 -.936E+02 0.129E+04   0.308E+00 -.817E+00 -.281E+01   0.349E-01 0.700E-01 0.145E+00
   -.263E+01 -.306E+03 0.684E+03   0.226E+01 0.309E+03 -.686E+03   -.677E+00 -.154E+01 0.211E+01   0.866E-02 -.306E-01 0.437E-01
   -.188E+03 0.507E+02 -.150E+04   0.190E+03 -.490E+02 0.150E+04   -.158E+01 -.155E+01 -.154E+01   -.640E-01 0.878E-01 0.644E-01
   0.529E+02 -.172E+03 -.702E+03   -.534E+02 0.172E+03 0.706E+03   0.345E+00 -.154E+00 -.251E+01   -.281E-01 -.731E-01 0.201E+00
   0.223E+03 -.307E+03 0.133E+04   -.226E+03 0.310E+03 -.133E+04   0.138E+01 -.119E+01 0.744E+00   -.626E-03 0.370E-01 -.697E-02
   0.196E+03 0.107E+03 0.108E+04   -.197E+03 -.107E+03 -.108E+04   -.235E-01 0.335E+00 0.484E+01   0.216E-01 -.594E-01 0.212E-01
   0.299E+03 0.750E+02 -.103E+04   -.301E+03 -.725E+02 0.104E+04   0.313E+00 -.179E+01 -.253E+01   -.773E-02 -.354E-01 0.792E-01
   -.461E+02 0.625E+02 0.109E+03   0.447E+02 -.607E+02 -.108E+03   0.143E+00 -.172E+01 -.834E+00   -.295E-01 -.256E-01 0.760E-01
   -.680E+02 -.258E+03 -.157E+04   0.668E+02 0.261E+03 0.157E+04   0.865E+00 -.161E+01 -.113E+01   0.377E-02 -.215E-01 0.846E-01
   0.656E+02 0.380E+03 0.876E+03   -.655E+02 -.383E+03 -.879E+03   -.941E+00 0.140E+01 0.243E+01   -.168E-01 -.627E-01 -.179E-01
   0.256E+03 -.540E+02 -.126E+04   -.257E+03 0.530E+02 0.126E+04   -.454E+00 0.454E+00 -.305E+01   0.870E-01 -.516E-01 0.168E+00
   -.242E+03 -.924E+01 0.170E+04   0.243E+03 0.896E+01 -.171E+04   -.616E+00 -.881E-01 0.241E+01   -.155E-01 0.102E-01 -.104E+00
   -.272E+03 0.899E+02 0.605E+02   0.275E+03 -.906E+02 -.607E+02   -.230E+01 0.195E+00 0.202E+00   0.426E-01 0.553E-02 0.109E+00
   0.632E+02 0.150E+03 -.671E+03   -.639E+02 -.152E+03 0.673E+03   -.110E+00 0.103E+01 -.153E+01   -.780E-01 0.592E-01 0.194E+00
   0.710E+02 0.889E+02 0.131E+04   -.725E+02 -.887E+02 -.131E+04   0.106E+01 -.592E+00 0.390E+01   -.230E-01 -.443E-01 -.473E-03
   -.993E+02 0.133E+03 0.404E+03   0.995E+02 -.135E+03 -.403E+03   -.499E+00 0.105E+01 -.832E+00   -.625E-01 -.992E-03 -.130E-01
   -.175E+03 -.699E+02 -.149E+04   0.177E+03 0.685E+02 0.149E+04   -.971E+00 0.135E+01 -.206E+01   -.583E-01 -.310E-01 0.766E-01
   -.118E+02 0.149E+03 0.391E+03   0.102E+02 -.151E+03 -.394E+03   0.141E+01 0.942E+00 0.136E+01   0.219E-02 -.160E-01 0.487E-01
   -.600E+02 0.289E+03 -.153E+04   0.588E+02 -.292E+03 0.153E+04   0.881E+00 0.174E+01 -.113E+01   -.308E-02 -.234E-02 0.687E-01
   0.238E+03 -.109E+03 0.104E+04   -.239E+03 0.110E+03 -.105E+04   0.582E+00 -.169E+01 0.557E+01   0.303E-01 0.460E-01 0.516E-01
   0.318E+03 -.116E+03 -.117E+04   -.318E+03 0.115E+03 0.117E+04   -.202E+00 0.653E+00 -.324E+01   0.191E-02 -.196E-01 0.761E-01
   0.713E+01 0.410E+01 -.334E+02   -.125E-11 -.682E-12 -.114E-11   -.731E+01 -.418E+01 0.254E+02   0.199E+00 0.208E+00 0.800E+01

 POSITION                                       TOTAL-FORCE (eV/Angst)
     13.00540      1.02321      1.86922         1.242447      0.224351      0.837770
     13.65448      1.14374      4.33878        -1.993013     -0.023166      0.242170
      3.61492      5.98920      1.54952         1.139975      0.231978     -0.435748
      5.02033      6.18092      3.49202        -0.170013     -0.256555     -0.207121
      6.52581      1.14171      2.02779         0.837093      0.328584     -0.349581
      7.93172      1.39171      4.00611        -0.633726      0.316493     -0.834471
     16.08224      6.18092      2.46384        -0.321673     -0.567569      1.772299
     16.01659      6.18163      4.89186         0.525104     -0.109195      1.155581
      2.10894      1.39171      2.97793        -0.628993      0.878311      0.799667
      9.62721      6.15976      2.58501         0.436834      0.140097     -0.461023
     10.84312      6.18092      4.52020        -0.827731     -0.165677     -0.588205
     15.93702      0.07837      3.63801         0.301994     -0.820794     -0.717195
      6.03580      6.16540      0.93679        -0.316562     -0.083383     -1.686528
      7.17375      4.91558      3.08454         0.597601     -0.152584     -1.525178
      7.98442      4.34388      5.26398        -0.244590      0.638563      0.931181
     10.69635      9.02716      1.26850        -1.280807     -0.633486     -0.410944
     10.08514      0.12638      3.59863         0.739771     -0.475401     -1.117517
      1.35096      4.91558      2.05636        -0.313500     -0.368280      0.883761
      2.03037      4.48707      4.35196        -0.303667      0.604096      1.140248
      4.26235      0.12638      2.57045         0.614013     -0.858228      0.836397
      5.05448      9.29586      4.96055        -0.101686      0.360221      0.746449
     13.07711      4.13195      1.90800        -0.718731      0.950767      0.207703
     12.99653      4.91558      4.11272         0.399370     -0.172503     -1.375220
     15.27241      2.79118      1.80703         0.754282     -0.142660     -0.630623
     15.97717      2.62124      4.15216         0.885060      1.038337      0.347085
      7.07424      8.39524      0.94431         0.134728      0.229970     -0.672856
      7.17375      7.44626      3.08454         0.619420     -0.477709      0.267419
      7.87164      7.89525      5.40683        -0.074485     -0.545190      0.681435
      8.93731      1.39156      1.43292        -0.262588     -0.138841     -1.886163
     10.08514      2.65705      3.59863         0.998303      0.557299     -1.714813
      1.35096      7.44626      2.05636         0.052833     -1.358419      0.083906
      2.13703      8.15473      4.06471        -0.389753     -0.536077      0.298295
      4.26235      2.65705      2.57045         0.925982      0.614317      0.508842
      5.03615      3.07993      4.93398        -0.113741     -0.324640      0.667800
     12.85291      7.91205      1.72877        -0.196738     -0.967597     -0.352690
     12.99653      7.44626      4.11272         0.418818      0.094144     -1.484463
     15.43197      1.06512      5.35786         0.730287     -0.477089      4.369876
     16.87108      1.59926      2.57302         1.040397     -0.658223     -1.336952
      8.00634      6.18092      1.40713         0.928333      0.470267     -2.841929
      8.59001      6.18092      4.49167         1.668857     -0.013680      1.145947
     10.91773      1.39171      1.92122         0.129027      1.805309     -0.568071
     11.55712      1.36974      4.49100         0.788863      0.096568      1.923538
      1.88294      6.16743      0.50452        -0.038480      0.252905     -3.683613
      2.76722      6.18092      3.46349         1.073376      0.741721      2.078703
      4.77059      1.39204      1.01255         0.319751      0.157288     -4.068257
      5.67861      1.39171      3.97758         2.196938      0.117159      0.878821
     13.82913      6.18092      2.43531         1.011011     -1.117072     -1.288455
     14.06735      6.17731      5.37130         0.923796      0.130449      2.611072
     13.58506      2.61164      0.66666        -0.385593      0.033742     -3.769059
     13.99844      3.00295      3.46826        -0.831620      1.695616      1.377678
      5.26426      7.79215      1.92599        -1.349976      1.181080     -0.626265
      5.94450      7.49635      4.87642        -1.223759      0.517668      1.847391
      8.17565      3.00295      2.44008        -1.031158      1.108480      0.102723
      9.00072      2.63253      5.33775         0.033132      0.202251      3.076174
      0.02514      7.79215      3.98236        -0.203993      0.571787      0.886016
     16.41531      7.69489      1.17710        -1.429984      1.914482     -2.884946
      2.38486      3.12549      1.77880        -0.689607     -0.248892     -2.892342
      3.09279      2.78417      4.37639        -0.841634      0.695200      2.076456
     11.08705      7.79215      2.95417        -1.283983      0.074797      0.172317
     11.68781      7.63051      5.66101        -0.373163      1.591611      3.383762
      5.26426      4.56969      1.92599        -0.841837     -1.640257     -0.065392
      6.02102      4.83120      4.86065        -1.320808     -0.544177      2.096594
     12.48556      9.31156      0.31356         0.666383     -0.354649     -3.840109
     13.97450      9.09728      3.06645         0.724124     -0.464605      0.181335
      0.02514      4.56969      3.98236        -0.853342     -0.676652      1.237187
     16.32693      4.50305      1.25503        -0.397008     -0.346979     -2.873981
      8.17565      9.35889      2.44008        -0.365469     -1.575970     -0.121368
      8.90570      0.02299      5.29776         0.167327     -0.081746      2.686140
     11.08705      4.56969      2.95417        -0.211162     -1.117121     -1.242695
     11.65983      4.69038      5.62677        -0.384251     -1.715787      3.530696
      2.34727      9.21124      1.93319        -0.439082     -0.099566     -2.308325
      3.13679      0.23809      4.51175        -0.637323     -0.255489      2.791662
    total drift:                                0.013881      0.124601     -0.031598

  FREE ENERGIE OF THE ION-ELECTRON SYSTEM (eV)
  free  energy   TOTEN  =      -340.03372031 eV

  energy  without entropy=     -338.91783188  energy(sigma->0) =     -339.47577610