 vasp.5.4.4.18Apr17-6-g9f103f2a35 (build Aug 13 2019 17:33:20) gamma-only

 executed on             LinuxIFC date 2020.05.10  21:27:23

 INCAR:
 POTCAR:    PAW_PBE Ni_pv 06Sep2000
 POTCAR:    PAW_PBE S 06Sep2000
 POTCAR:    PAW_PBE Ni_pv 06Sep2000
   VRHFIN =Ni:

   TITEL  = PAW_PBE Ni_pv 06Sep2000
   POMASS =   58.690; ZVAL   =   16.000    mass and valenz
   ENMAX  =  367.986; ENMIN  =  275.989 eV

 POTCAR:    PAW_PBE S 06Sep2000
   VRHFIN =S : s2p4

   TITEL  = PAW_PBE S 06Sep2000
   POMASS =   32.066; ZVAL   =    6.000    mass and valenz
   ENMAX  =  258.689; ENMIN  =  194.016 eV

 Optimization of the real space projectors (new method)

 maximal supplied QI-value         = 18.90
 optimisation between [QCUT,QGAM] = [ 10.77, 21.73] = [ 32.49,132.25] Ry
 Optimized for a Real-space Cutoff    1.38 Angstroem

   l    n(q)    QCUT    max X(q) W(low)/X(q) W(high)/X(q)  e(spline)
   1      8    10.771     2.836    0.40E-04    0.29E-04    0.12E-06
   1      8    10.771     4.023    0.10E-03    0.48E-04    0.29E-06
   2      8    10.771    73.368    0.42E-03    0.97E-04    0.44E-06
   2      8    10.771    69.010    0.42E-03    0.99E-04    0.45E-06
   0      9    10.771    54.797    0.10E-03    0.56E-04    0.74E-07
   0      9    10.771    24.266    0.89E-04    0.49E-04    0.67E-07
 Optimization of the real space projectors (new method)

 maximal supplied QI-value         = 19.84
 optimisation between [QCUT,QGAM] = [ 10.71, 21.63] = [ 32.15,130.99] Ry
 Optimized for a Real-space Cutoff    1.19 Angstroem

   l    n(q)    QCUT    max X(q) W(low)/X(q) W(high)/X(q)  e(spline)
   0      8    10.715   187.594    0.41E-03    0.53E-04    0.66E-07
   0      8    10.715   164.243    0.41E-03    0.53E-04    0.65E-07
   1      7    10.715    67.533    0.19E-03    0.59E-03    0.68E-07
   1      7    10.715    50.729    0.19E-03    0.58E-03    0.67E-07
  PAW_PBE Ni_pv 06Sep2000               :
  PAW_PBE S 06Sep2000                   :

 POSCAR: Type_048 Type_148
  positions in cartesian coordinates
 exchange correlation table for  LEXCH =        8
   RHO(1)=    0.500       N(1)  =     2000
   RHO(2)=  100.500       N(2)  =     4000

 ion  position               nearest neighbor table
   1  0.261  0.479  0.253-  72 2.25  59 2.26  79 2.26  55 2.36  60 2.36   7 2.53  21 2.53
   2  0.355  0.385  0.388-  73 2.25  55 2.26  60 2.26  61 2.36  66 2.36   3 2.37   8 2.53  22 2.53

   3  0.373  0.367  0.497-  53 2.04  66 2.09  61 2.09   2 2.37
   4  0.167  0.073  0.118-  80 2.04  56 2.07  64 2.25  57 2.36  81 2.36  36 2.53
   5  0.049  0.054  0.472-  50 2.05  75 2.08  71 2.10  76 2.14
   6  0.274  0.333  0.083-  51 1.99  58 2.06  56 2.13  52 2.36  59 2.36  12 2.48  28 2.53
   7  0.368  0.239  0.218-  57 2.25  59 2.26  52 2.26  60 2.36  62 2.36   1 2.53  21 2.53
   8  0.462  0.145  0.353-  77 2.25  60 2.26  62 2.26  61 2.36  63 2.36   2 2.53  22 2.53
   9  0.000  0.372  0.218-  59 2.25  64 2.26  92 2.26  49 2.36  67 2.36  13 2.53  19 2.53
  10  0.094  0.278  0.353-  60 2.25  49 2.26  67 2.26  54 2.36  50 2.36  20 2.53  14 2.53
  11  0.185  0.191  0.472-  50 2.05  75 2.08  54 2.10  61 2.14
  12  0.408  0.456  0.101-  51 2.02  79 2.07  52 2.11  78 2.12  28 2.45   6 2.48
  13  0.761  0.479  0.253-  84 2.25  69 2.26  92 2.26  67 2.36  70 2.36  19 2.53   9 2.53
  14  0.855  0.385  0.388-  85 2.25  67 2.26  70 2.26  71 2.36  54 2.36  15 2.37  20 2.53  10 2.53

[...]

  39  0.873  0.867  0.497-  88 2.04  96 2.09  76 2.09  38 2.37
  40  0.669  0.590  0.140-  92 2.04  91 2.14  74 2.15  69 2.31  18 2.46
  41  0.549  0.554  0.472-  85 2.05  65 2.08  83 2.10  66 2.14
  42  0.774  0.833  0.083-  86 2.04  93 2.06  91 2.13  87 2.36  94 2.36  16 2.48
  43  0.868  0.739  0.218-  92 2.25  94 2.26  87 2.26  95 2.36  72 2.36  37 2.53  33 2.53
  44  0.962  0.645  0.353-  67 2.25  95 2.26  72 2.26  96 2.36  73 2.36  38 2.53  34 2.53
  45  0.500  0.872  0.218-  94 2.25  74 2.26  57 2.26  84 2.36  77 2.36  25 2.53  31 2.53
  46  0.594  0.778  0.353-  95 2.25  84 2.26  77 2.26  89 2.36  85 2.36  32 2.53  26 2.53
  47  0.685  0.691  0.472-  85 2.05  65 2.08  89 2.10  96 2.14
  48  0.987  0.943  0.113-  80 2.07  86 2.07  87 2.14  68 2.16  33 2.39  81 2.42
  49  0.073  0.167  0.270-  25 2.25  10 2.26  20 2.26   9 2.36  19 2.36
  50  0.167  0.073  0.405-  11 2.05   5 2.05  26 2.25  10 2.36  20 2.36  75 2.70
  51  0.370  0.389  0.020-   6 1.99  12 2.02  78 2.77
  52  0.479  0.261  0.135-  12 2.11   7 2.26  21 2.26   6 2.36  16 2.39
  53  0.210  0.530  0.527-   3 2.04  35 2.08  29 2.08  73 2.70
  54  0.030  0.378  0.451-  15 2.09  11 2.10  29 2.14  10 2.36  14 2.36
  55  0.436  0.472  0.315-  32 2.25   2 2.26  22 2.26   1 2.36  21 2.36
  56  0.275  0.146  0.067-   4 2.07  36 2.13   6 2.13  57 2.62
  57  0.342  0.066  0.180-  36 2.04   7 2.25  25 2.26  45 2.26   4 2.36  56 2.62
  58  0.090  0.482  0.059-  28 2.06  24 2.06   6 2.06
  59  0.174  0.397  0.180-   9 2.25   7 2.26   1 2.26   6 2.36  28 2.36
  60  0.268  0.303  0.315-  10 2.25   2 2.26   8 2.26   7 2.36   1 2.36
  61  0.362  0.209  0.451-   3 2.09  17 2.10  11 2.14   8 2.36   2 2.36
  62  0.573  0.167  0.270-  37 2.25  22 2.26   8 2.26  21 2.36   7 2.36
  63  0.667  0.073  0.405-  17 2.05  23 2.05  38 2.25  22 2.36   8 2.36  88 2.70
  64  0.979  0.261  0.135-  18 2.00  24 2.25   4 2.25  19 2.26   9 2.26
  65  0.710  0.530  0.527-  15 2.04  47 2.08  41 2.08  85 2.70
  66  0.530  0.378  0.451-   3 2.09  23 2.10  41 2.14  22 2.36   2 2.36
  67  0.936  0.472  0.315-  44 2.25  14 2.26  10 2.26  13 2.36   9 2.36
  68  0.842  0.066  0.180-  48 2.16  16 2.19  19 2.25  37 2.26  33 2.26  86 2.79
  69  0.674  0.397  0.180-  18 2.00  21 2.25  19 2.26  13 2.26  40 2.31
  70  0.768  0.303  0.315-  22 2.25  14 2.26  20 2.26  19 2.36  13 2.36
  71  0.862  0.209  0.451-  15 2.09   5 2.10  23 2.14  20 2.36  14 2.36
  72  0.073  0.667  0.270-   1 2.25  34 2.26  44 2.26  33 2.36  43 2.36
  73  0.167  0.573  0.405-  29 2.05  35 2.05   2 2.25  34 2.36  44 2.36  53 2.70
  74  0.479  0.761  0.135-  30 2.13  36 2.15  40 2.15  31 2.26  45 2.26
  75  0.210  0.030  0.527-  27 2.04   5 2.08  11 2.08  50 2.70
  76  0.030  0.878  0.451-  39 2.09  35 2.10   5 2.14  34 2.36  38 2.36
  77  0.436  0.972  0.315-   8 2.25  26 2.26  46 2.26  25 2.36  45 2.36
  78  0.274  0.645  0.066-  28 2.07  30 2.09  12 2.12  79 2.64  51 2.77
  79  0.342  0.566  0.180-  12 2.07  31 2.25   1 2.26  21 2.26  28 2.36  78 2.64
  80  0.125  0.960  0.056-   4 2.04  48 2.07  30 2.07  81 2.78
  81  0.174  0.897  0.180-  30 2.06  33 2.25  31 2.26  25 2.26   4 2.36  48 2.42  80 2.78
  82  0.268  0.803  0.315-  34 2.25  26 2.26  32 2.26  31 2.36  25 2.36
  83  0.362  0.709  0.451-  27 2.09  41 2.10  35 2.14  32 2.36  26 2.36
  84  0.573  0.667  0.270-  13 2.25  46 2.26  32 2.26  45 2.36  31 2.36
  85  0.667  0.573  0.405-  41 2.05  47 2.05  14 2.25  46 2.36  32 2.36  65 2.70
  86  0.818  0.986  0.062-  42 2.04  48 2.07  16 2.08  93 2.71  68 2.79
  87  0.979  0.761  0.135-  48 2.14  28 2.25  43 2.26  33 2.26  42 2.36
  88  0.710  0.030  0.527-  39 2.04  23 2.08  17 2.08  63 2.70
  89  0.530  0.878  0.451-  27 2.09  47 2.10  17 2.14  46 2.36  26 2.36
  90  0.936  0.972  0.315-  20 2.25  38 2.26  34 2.26  37 2.36  33 2.36
  91  0.772  0.646  0.073-  42 2.13  40 2.14  24 2.15  92 2.51
  92  0.842  0.566  0.180-  40 2.04  24 2.04  43 2.25  13 2.26   9 2.26  91 2.51
  93  0.582  0.977  0.070-  42 2.06  36 2.09  16 2.14  94 2.62  86 2.71
  94  0.674  0.897  0.180-  16 2.08  45 2.25  43 2.26  37 2.26  42 2.36  93 2.62
  95  0.768  0.803  0.315-  46 2.25  38 2.26  44 2.26  43 2.36  37 2.36
  96  0.862  0.709  0.451-  39 2.09  29 2.10  47 2.14  44 2.36  38 2.36

  LATTYP: Found a base centered orthorhombic cell.
 ALAT       =    11.8257374459
 B/A-ratio  =     1.6199260857
 C/A-ratio  =     1.8387210052

  Lattice vectors:

 A1 = (  11.2564630382,   0.0000000000,   0.0000000000)
 A2 = (  -5.0445621212, -10.0628203371,   0.0000000000)
 A3 = (   0.0000000000,   0.0000000000, -21.7442318436)

Analysis of symmetry for initial positions (statically):
 Subroutine PRICEL returns:
 Original cell was already a primitive cell.

 Routine SETGRP: Setting up the symmetry group for a
 base centered orthorhombic supercell.

 Subroutine GETGRP returns: Found  1 space group operations
 (whereof  1 operations were pure point group operations)
 out of a pool of  8 trial point group operations.

The static configuration has the point symmetry C_1 .

Analysis of symmetry for dynamics (positions and initial velocities):
 Subroutine PRICEL returns:
 Original cell was already a primitive cell.

 Routine SETGRP: Setting up the symmetry group for a
 base centered orthorhombic supercell.

 Subroutine GETGRP returns: Found  1 space group operations
 (whereof  1 operations were pure point group operations)
 out of a pool of  8 trial point group operations.

The dynamic configuration has the point symmetry C_1 .

 Subroutine INISYM returns: Found  1 space group operations
 (whereof  1 operations are pure point group operations),
 and found     1 'primitive' translations

 KPOINTS: gamma-point-only calculation. no periodi

Automatic generation of k-mesh.
Space group operators:
 irot       det(A)        alpha          n_x          n_y          n_z        tau_x        tau_y        tau_z
    1     1.000000     0.000000     1.000000     0.000000     0.000000     0.000000     0.000000     0.000000

 Subroutine IBZKPT returns following result:

 Found      1 irreducible k-points:

 Following reciprocal coordinates:
            Coordinates               Weight
  0.000000  0.000000  0.000000      1.000000

 Following cartesian coordinates:
            Coordinates               Weight
  0.000000  0.000000  0.000000      1.000000

 SYSTEM =  "Millerite NiS"
 POSCAR =  Type_048 Type_148

 Startparameter for this run:
   NWRITE =      2    write-flag & timer
   PREC   = normal    normal or accurate (medium, high low for compatibility)
   ISTART =      0    job   : 0-new  1-cont  2-samecut
   ICHARG =      2    charge: 1-file 2-atom 10-const
   ISPIN  =      1    spin polarized calculation?
   LNONCOLLINEAR =      F non collinear calculations
   LSORBIT =      F    spin-orbit coupling
   INIWAV =      1    electr: 0-lowe 1-rand  2-diag
   LASPH  =      F    aspherical Exc in radial PAW
   METAGGA=      F    non-selfconsistent MetaGGA calc.

 Electronic Relaxation 1
   ENCUT  =  450.0 eV  33.07 Ry    5.75 a.u.  19.47 19.47 37.61*2*pi/ulx,y,z
   ENINI  =  450.0     initial cutoff
   ENAUG  =  703.4 eV  augmentation charge cutoff
   NELM   =    100;   NELMIN=  2; NELMDL= -5     # of ELM steps
   EDIFF  = 0.1E-03   stopping-criterion for ELM
   LREAL  =      T    real-space projection
   NLSPLINE    = F    spline interpolate recip. space projectors
   LCOMPAT=      F    compatible to vasp.4.4
   GGA_COMPAT  = T    GGA compatible to vasp.4.4-vasp.4.6
   LMAXPAW     = -100 max onsite density
   LMAXMIX     =    2 max onsite mixed and CHGCAR
   VOSKOWN=      0    Vosko Wilk Nusair interpolation
   ROPT   =   -0.00050  -0.00050
 Ionic relaxation
   EDIFFG = 0.1E-02   stopping-criterion for IOM
   NSW    =      0    number of steps for IOM
   NBLOCK =      1;   KBLOCK =      1    inner block; outer block
[...]
     0.000000000  0.000000000 21.744231844     0.000000000  0.000000000  0.045989208

  length of vectors
    11.256463038 11.256463038 21.744231844     0.099375718  0.099375718  0.045989208

 FORCES acting on ions
    electron-ion (+dipol)            ewald-force                    non-local-force                 convergence-correction
   0.234E+03 -.366E+03 0.692E+03   -.235E+03 0.367E+03 -.692E+03   0.540E+00 -.815E+00 -.256E+00   -.999E-01 -.729E-01 -.118E+00
   0.226E+03 -.368E+03 -.232E+04   -.227E+03 0.369E+03 0.231E+04   0.556E+00 -.926E+00 0.695E-01   0.333E-01 -.136E+00 0.263E+00
   -.182E+02 0.289E+02 -.557E+04   0.157E+02 -.249E+02 0.557E+04   0.290E+01 -.470E+01 0.761E+00   0.102E-01 -.191E-01 0.335E+00
   0.255E+03 -.542E+03 0.431E+04   -.258E+03 0.546E+03 -.431E+04   0.217E+01 -.344E+01 0.440E+01   0.852E-01 -.660E-01 -.145E+00
   0.303E+03 0.222E+03 -.484E+04   -.307E+03 -.226E+03 0.485E+04   0.351E+01 0.333E+01 -.226E+01   0.372E-01 0.715E-01 0.239E+00
   0.216E+03 0.544E+03 0.507E+04   -.219E+03 -.549E+03 -.508E+04   0.224E+01 0.343E+01 0.411E+01   -.782E-01 -.986E-01 -.103E+00
   0.206E+03 0.452E+03 0.185E+04   -.206E+03 -.452E+03 -.185E+04   0.171E+00 0.913E-01 0.100E+01   -.901E-01 -.105E+00 -.102E+00
   0.249E+03 0.425E+03 -.133E+04   -.250E+03 -.426E+03 0.132E+04   0.950E+00 0.337E+00 0.209E+01   0.258E-01 0.360E-01 -.118E-01
   -.532E+03 0.816E+02 0.173E+04   0.533E+03 -.818E+02 -.173E+04   -.112E+01 0.262E+00 -.762E+00   0.848E-01 -.780E-02 -.155E+00
   -.505E+03 -.306E+02 -.134E+04   0.506E+03 0.312E+02 0.133E+04   -.894E+00 -.714E+00 0.207E+01   0.109E+00 -.639E-01 0.187E-01
   -.337E+03 -.170E+03 -.484E+04   0.342E+03 0.172E+03 0.484E+04   -.457E+01 -.159E+01 -.223E+01   0.182E-01 0.228E-01 0.237E+00
   -.980E+03 0.603E+02 0.487E+04   0.983E+03 -.606E+02 -.488E+04   -.204E+01 0.426E+00 0.385E+01   -.322E-01 0.174E-01 -.158E+00
   0.278E+03 -.321E+03 0.619E+03   -.279E+03 0.322E+03 -.617E+03   0.546E+00 -.399E+00 -.147E+01   0.372E-01 0.597E-02 -.173E+00
   0.234E+03 -.367E+03 -.232E+04   -.235E+03 0.368E+03 0.232E+04   0.714E+00 -.941E+00 0.568E-01   0.269E-03 -.926E-01 0.271E+00
   -.161E+02 0.289E+02 -.558E+04   0.136E+02 -.248E+02 0.558E+04   0.298E+01 -.482E+01 0.850E+00   -.216E-01 -.204E-01 0.369E+00
   0.426E+02 -.742E+03 0.408E+04   -.421E+02 0.749E+03 -.408E+04   -.984E+00 -.546E+01 0.910E+00   -.554E-01 -.112E+00 -.166E+00
   0.301E+03 0.222E+03 -.484E+04   -.305E+03 -.225E+03 0.484E+04   0.359E+01 0.332E+01 -.228E+01   -.734E-02 0.123E+00 0.213E+00
   0.611E+03 0.424E+03 0.536E+04   -.609E+03 -.422E+03 -.536E+04   -.227E+01 -.264E+01 -.218E+01   0.113E+00 0.639E-01 -.936E-01
   0.321E+03 0.496E+03 0.187E+04   -.322E+03 -.497E+03 -.187E+04   0.498E+00 0.844E+00 -.384E+00   0.328E-01 -.982E-01 -.344E-01
   0.262E+03 0.427E+03 -.133E+04   -.262E+03 -.427E+03 0.133E+04   0.918E+00 0.288E+00 0.208E+01   -.135E-01 -.530E-01 0.188E-01
   -.593E+03 0.621E+02 0.188E+04   0.594E+03 -.624E+02 -.187E+04   -.959E+00 0.407E+00 -.349E+00   -.735E-01 -.980E-01 -.485E-01
   -.502E+03 -.323E+02 -.132E+04   0.503E+03 0.330E+02 0.131E+04   -.665E+00 -.718E+00 0.215E+01   0.223E-01 -.960E-01 0.758E-01
   -.335E+03 -.171E+03 -.484E+04   0.340E+03 0.173E+03 0.484E+04   -.452E+01 -.168E+01 -.233E+01   -.161E-01 0.864E-01 0.188E+00
   -.168E+03 0.445E+02 0.508E+04   0.171E+03 -.468E+02 -.509E+04   -.396E+01 0.147E+01 0.603E+01   0.897E-01 0.116E+00 -.114E+00
   0.235E+03 -.441E+03 0.666E+03   -.235E+03 0.442E+03 -.665E+03   -.131E+00 -.108E+01 -.973E+00   -.179E-01 0.113E+00 -.218E+00
   0.229E+03 -.377E+03 -.233E+04   -.229E+03 0.377E+03 0.233E+04   0.586E+00 -.918E+00 -.896E-01   -.734E-01 0.160E+00 0.323E+00
   -.174E+02 0.269E+02 -.558E+04   0.150E+02 -.232E+02 0.558E+04   0.291E+01 -.456E+01 0.802E+00   -.356E-01 0.530E-01 0.396E+00
   0.290E+03 -.466E+03 0.413E+04   -.293E+03 0.470E+03 -.413E+04   0.251E+01 -.368E+01 0.288E+01   -.882E-01 0.461E-01 -.117E+00
   0.301E+03 0.226E+03 -.484E+04   -.306E+03 -.229E+03 0.485E+04   0.356E+01 0.329E+01 -.235E+01   0.159E-01 -.115E+00 0.276E+00
   -.677E+02 0.404E+03 0.506E+04   0.675E+02 -.407E+03 -.506E+04   0.106E+01 0.310E+01 0.492E+01   0.363E-01 0.958E-01 -.112E+00
   0.198E+03 0.524E+03 0.173E+04   -.198E+03 -.525E+03 -.173E+04   -.435E+00 0.140E+01 -.114E+01   -.267E-01 0.392E-01 -.261E+00
   0.259E+03 0.446E+03 -.134E+04   -.260E+03 -.446E+03 0.134E+04   0.107E+01 0.240E+00 0.206E+01   -.873E-01 -.159E+00 0.540E-01
   -.417E+03 0.282E+02 0.159E+04   0.417E+03 -.294E+02 -.159E+04   -.191E-01 0.859E+00 -.158E+01   0.497E-01 0.659E-01 -.242E+00
   -.500E+03 -.308E+02 -.135E+04   0.501E+03 0.315E+02 0.135E+04   -.840E+00 -.788E+00 0.231E+01   0.661E-01 0.112E-01 -.890E-02
   -.336E+03 -.168E+03 -.484E+04   0.341E+03 0.170E+03 0.485E+04   -.449E+01 -.173E+01 -.230E+01   0.424E-01 -.608E-01 0.284E+00
   -.364E+03 0.741E+02 0.508E+04   0.368E+03 -.763E+02 -.509E+04   -.425E+01 0.151E+01 0.272E+01   0.543E-01 0.159E-01 -.129E+00
   0.243E+03 -.433E+03 0.674E+03   -.244E+03 0.433E+03 -.673E+03   0.567E+00 -.169E+00 -.166E+01   -.281E-01 0.121E+00 -.170E+00
   0.232E+03 -.379E+03 -.233E+04   -.233E+03 0.380E+03 0.233E+04   0.600E+00 -.963E+00 -.662E-01   0.160E-01 0.115E+00 0.205E+00
   -.166E+02 0.261E+02 -.558E+04   0.143E+02 -.221E+02 0.558E+04   0.283E+01 -.481E+01 0.817E+00   -.244E-02 0.625E-01 0.341E+00
   0.468E+03 -.256E+03 0.409E+04   -.473E+03 0.257E+03 -.410E+04   0.392E+01 -.189E+01 0.384E+01   0.877E-01 0.185E+00 -.147E+00
   0.303E+03 0.227E+03 -.484E+04   -.307E+03 -.231E+03 0.484E+04   0.353E+01 0.333E+01 -.227E+01   -.356E-01 -.106E+00 0.344E+00
   0.786E+02 0.346E+03 0.535E+04   -.790E+02 -.354E+03 -.535E+04   0.934E+00 0.524E+01 0.470E+01   -.555E-01 0.427E-01 -.124E+00
   0.232E+03 0.425E+03 0.182E+04   -.233E+03 -.425E+03 -.182E+04   0.451E+00 -.135E+00 0.116E+01   -.272E-01 -.288E-01 -.252E+00
   0.252E+03 0.437E+03 -.135E+04   -.253E+03 -.437E+03 0.134E+04   0.951E+00 0.201E+00 0.199E+01   0.222E-01 -.135E+00 0.757E-04
   -.537E+03 -.224E+02 0.174E+04   0.538E+03 0.228E+02 -.174E+04   -.910E+00 -.496E+00 -.646E+00   0.176E-01 0.904E-01 -.333E+00
   -.503E+03 -.387E+02 -.135E+04   0.504E+03 0.394E+02 0.135E+04   -.753E+00 -.828E+00 0.212E+01   0.102E+00 0.413E-01 0.596E-02
   -.336E+03 -.169E+03 -.484E+04   0.341E+03 0.171E+03 0.485E+04   -.455E+01 -.167E+01 -.223E+01   -.302E-01 -.779E-01 0.357E+00
   -.186E+02 -.295E+03 0.482E+04   0.198E+02 0.297E+03 -.482E+04   -.215E+00 -.175E+01 0.698E+01   -.219E-01 -.116E-01 -.158E+00
   -.734E+02 0.114E+03 0.298E+03   0.746E+02 -.116E+03 -.300E+03   -.116E+01 0.202E+01 0.252E+01   0.116E-01 0.158E-02 -.408E-01
   -.768E+02 0.123E+03 -.886E+03   0.780E+02 -.124E+03 0.882E+03   -.733E+00 0.110E+01 0.911E+00   -.780E-03 0.455E-01 0.692E-01
   -.199E+03 0.807E+02 0.237E+04   0.200E+03 -.813E+02 -.237E+04   0.620E-01 0.577E+00 0.104E+01   -.843E-02 -.165E-01 -.914E-01
   -.185E+03 0.231E+03 0.160E+04   0.186E+03 -.233E+03 -.160E+04   -.590E+00 0.531E+00 0.290E+01   -.484E-01 -.819E-01 -.365E-01
   -.337E+01 0.552E+01 -.233E+04   0.386E+01 -.631E+01 0.234E+04   -.377E+00 0.639E+00 -.217E+01   0.560E-01 -.111E+00 0.946E-01
   -.124E+03 -.108E+03 -.156E+04   0.125E+03 0.109E+03 0.156E+04   -.154E+01 -.563E+00 -.163E+01   -.253E-01 -.323E-01 0.144E+00
   -.767E+02 -.145E+03 -.184E+03   0.781E+02 0.147E+03 0.184E+03   -.143E+01 -.252E+01 -.327E+00   0.644E-02 -.462E-01 -.820E-02
   -.534E+00 -.762E+02 0.217E+04   0.256E-01 0.773E+02 -.217E+04   0.628E+00 -.343E+00 0.390E+01   0.176E-01 -.551E-01 -.306E-01
   -.606E+02 -.222E+03 0.960E+03   0.616E+02 0.224E+03 -.958E+03   -.111E+01 -.150E+01 0.855E+00   0.280E-01 0.219E-01 -.921E-01
   0.163E+03 -.885E+02 0.226E+04   -.165E+03 0.908E+02 -.226E+04   0.721E+00 -.165E+01 0.240E+01   -.587E-01 0.295E-02 -.501E-01
   0.144E+03 0.207E+02 0.989E+03   -.146E+03 -.210E+02 -.989E+03   0.245E+01 0.149E+00 0.123E+01   -.157E-01 -.421E-01 -.286E-01
   0.166E+03 0.541E+00 -.185E+03   -.169E+03 -.349E+00 0.185E+03   0.294E+01 -.155E+00 -.501E+00   -.138E-01 -.494E-01 -.528E-01
[...]
   0.152E+03 0.626E+02 -.156E+04   -.154E+03 -.635E+02 0.156E+04   0.120E+01 0.124E+01 -.175E+01   0.227E-01 0.219E-01 0.183E+00
   -.617E+02 0.121E+03 0.272E+03   0.625E+02 -.123E+03 -.273E+03   -.785E+00 0.197E+01 0.220E+01   0.106E-01 -.312E-01 -.121E+00
   -.754E+02 0.126E+03 -.888E+03   0.767E+02 -.128E+03 0.883E+03   -.759E+00 0.101E+01 0.107E+01   -.165E-01 -.553E-01 0.113E+00
   -.104E+03 -.247E+03 0.231E+04   0.105E+03 0.250E+03 -.231E+04   0.550E+00 -.120E+01 0.398E+01   0.698E-02 -.237E-01 -.348E-01
   0.111E+02 0.161E+03 0.160E+04   -.103E+02 -.165E+03 -.160E+04   -.138E+01 0.176E+01 0.178E+01   -.393E-02 0.416E-01 -.821E-01
   -.319E+01 0.452E+01 -.233E+04   0.368E+01 -.539E+01 0.234E+04   -.349E+00 0.607E+00 -.214E+01   0.384E-01 -.222E-01 0.939E-01
   -.124E+03 -.109E+03 -.156E+04   0.125E+03 0.111E+03 0.156E+04   -.157E+01 -.556E+00 -.155E+01   -.605E-01 0.395E-01 0.174E+00
   -.704E+02 -.161E+03 -.195E+03   0.717E+02 0.164E+03 0.195E+03   -.131E+01 -.283E+01 -.238E+00   0.292E-01 0.566E-01 -.414E-01
   0.101E+03 -.474E+02 0.219E+04   -.103E+03 0.487E+02 -.220E+04   0.104E+01 -.124E+01 0.437E+01   0.129E-02 0.127E-01 -.312E-01
   -.105E+03 -.186E+03 0.950E+03   0.107E+03 0.187E+03 -.946E+03   -.199E+00 -.106E+01 -.385E-01   -.559E-02 0.310E-02 -.998E-01
   0.813E+02 -.121E+03 0.217E+04   -.828E+02 0.123E+03 -.218E+04   0.477E+00 -.174E+01 0.407E+01   -.362E-01 -.145E-01 -.305E-01
   0.172E+03 0.292E+02 0.100E+04   -.175E+03 -.307E+02 -.100E+04   0.249E+01 -.371E-01 0.104E+01   -.199E-01 0.243E-01 -.108E+00
   0.169E+03 -.602E+01 -.194E+03   -.172E+03 0.584E+01 0.194E+03   0.283E+01 0.197E+00 -.123E+00   0.109E-02 0.140E-01 -.588E-01
   0.152E+03 0.617E+02 -.156E+04   -.154E+03 -.625E+02 0.156E+04   0.124E+01 0.113E+01 -.168E+01   0.175E-01 0.984E-02 0.140E+00
   -.124E+02 0.215E+02 -.729E+02   0.568E-12 0.367E-11 0.127E-10   0.120E+02 -.213E+02 0.718E+02   0.195E+00 -.149E+00 0.119E+01

 POSITION                                       TOTAL-FORCE (eV/Angst)
      5.35228      4.81788      5.50842         0.036051     -0.224009     -0.045336
      5.93595      3.87238      8.44448        -0.088165      0.177073     -0.924232
      6.04873      3.68969     10.80823         0.442426     -0.737580      0.734316
      2.24633      0.73197      2.57236         0.042138      0.649371      1.623467
      0.82435      0.54694     10.27045        -0.533210     -0.017986      0.484769
      4.76861      3.35453      1.79664        -0.750886     -1.910542      2.338638
      5.35228      2.40903      4.73270        -0.001430      0.164393      0.258555
      5.93595      1.46353      7.66876         0.026216     -0.089085     -0.048317
      1.87746      3.73836      4.73270         0.108807     -0.013246      0.207317
      2.46113      2.79286      7.66876        -0.011264     -0.133059     -0.060317
      3.04906      1.92028     10.27037         0.237543      0.514639      0.489042
      6.88683      4.58405      2.18752         1.652278      0.194127      0.105099
     10.98051      4.81788      5.50842         0.009832     -0.100937      0.055115
     11.56418      3.87238      8.44448        -0.113294      0.109671     -0.958691
     11.67704      3.68955     10.80831         0.485639     -0.752632      0.769097
      7.89830      0.55532      2.86794        -0.588536      2.113148      0.219894
      6.45253      0.54692     10.27043        -0.530154      0.001441      0.478996
     10.70060      3.59770      2.31377        -0.641491     -0.206244     -1.668693
     10.98051      2.40903      4.73270        -0.048797      0.001444      0.227109
     11.56418      1.46353      7.66876         0.054668     -0.023900     -0.049821
      7.50570      3.73836      4.73270         0.035319     -0.026840      0.130963
      8.08937      2.79286      7.66876         0.000507     -0.072978     -0.041058
      8.67724      1.92027     10.27046         0.275371      0.480184      0.473343
     12.88725      4.68523      2.23572        -0.575925     -0.664987     -0.699486
      7.87456      9.84929      5.50842        -0.068890      0.137719      0.160543
      8.45823      8.90379      8.44448        -0.081222      0.107699     -1.054450
      8.57103      8.72106     10.80827         0.472539     -0.741746      0.771316
      4.76861      5.76338      2.57236        -0.811994      0.490356      2.209539
      3.34661      5.57833     10.27041        -0.553005     -0.006554      0.455042
      7.28297      8.17162      2.22974         0.857887     -0.414076     -0.742782
      7.87456      7.44044      4.73270        -0.058478      0.056295      0.151041
      8.45823      6.49494      7.66876         0.025906     -0.026030      0.006475
      4.39975      8.76977      4.73270        -0.175352     -0.241976      1.196140
      4.98341      7.82427      7.66876        -0.042741     -0.102075      0.049731
      5.57131      6.95166     10.27042         0.289682      0.478171      0.428709
      9.52058      9.65191      2.20664         0.013097     -0.677973     -1.174415
     13.50279      9.84929      5.50842        -0.120119      0.091610     -0.060920
     14.08646      8.90379      8.44448        -0.115547      0.125844     -1.011681
     14.19929      8.72101     10.80828         0.453084     -0.744493      0.765188
     10.50617      5.93413      3.04955        -1.015075     -0.270206     -0.684722
      8.97485      5.57833     10.27057        -0.517100     -0.017364      0.479913
     12.91912      8.38594      1.79664         0.468826     -2.311504      0.982191
     13.50279      7.44044      4.73270         0.025964      0.007951      0.210086
     14.08646      6.49494      7.66876         0.087511     -0.004117     -0.067171
     10.02798      8.76977      4.73270        -0.083478      0.021842      0.349895
     10.61165      7.82427      7.66876        -0.018561     -0.069795     -0.017755
     11.19952      6.95165     10.27059         0.199333      0.502757      0.457353
     15.86304      9.48658      2.46286         0.944406      0.034552      0.322524
      1.66190      1.67871      5.87212         0.059695     -0.005214      0.055240
      2.24556      0.73321      8.80817         0.459225     -0.693354     -3.102493
      6.12373      3.91038      0.44557         1.248129     -0.030611     -4.050144
      6.70646      2.62422      2.93606         0.221450     -1.501392      0.631562
      5.03400      5.33346     11.45711         0.171445     -0.267664      2.784126
      2.24556      3.80055      9.79595         0.071961      0.989407     -0.125811
      7.29013      4.74605      6.85989        -0.017462      0.015387     -0.050626
      3.83001      1.46959      1.45299         0.140015      0.647165     -1.939840
      4.18418      0.66015      3.92384        -0.093349      0.952366      2.712989
      3.44855      4.85145      1.28364        -1.035959      0.624017     -2.761030
      3.96438      3.99884      3.92384         0.167857     -0.247925      0.780526
      4.54805      3.05334      6.85989        -0.003793     -0.012445     -0.076920
[...]
      7.07033      8.08475      6.85989        -0.045660     -0.027776     -0.044415
      7.65400      7.13925      9.79595        -0.921949      0.373637     -0.057402
      9.81241      6.71012      5.87212        -0.021111      0.138390      0.195657
     10.39608      5.76462      8.80817         0.498038     -0.723979     -3.142584
     14.17991      9.92555      1.33998         1.217376      1.477782     -3.138208
     14.85697      7.65563      2.93606        -0.531606     -1.496572      0.069292
      8.13997      0.30199     11.45705         0.185262     -0.283723      2.785213
     10.39608      8.83196      9.79595         0.074447      0.976298     -0.093596
     15.44064      9.77746      6.85989         0.092489     -0.074425     -0.086363
     11.94664      6.50079      1.57719        -0.442707      0.039608     -1.780847
     12.33469      5.69156      3.92384         1.470496      0.905594      3.313433
     11.47938      9.82958      1.51358        -1.085711      0.719231     -2.144795
     12.11489      9.03025      3.92384        -0.383584     -1.493309      2.127189
     12.69856      8.08475      6.85989        -0.046017      0.030055     -0.084104
     13.28223      7.13925      9.79595        -0.873513      0.371564     -0.105083
    total drift:                               -0.245437      0.029312      0.122961

  FREE ENERGIE OF THE ION-ELECTRON SYSTEM (eV)
  free  energy   TOTEN  =      -476.63559427 eV

  energy  without entropy=     -475.49849971  energy(sigma->0) =     -476.06704699