 vasp.5.4.4.18Apr17-6-g9f103f2a35 (build Aug 13 2019 17:33:20) gamma-only

 executed on             LinuxIFC date 2020.05.12  09:52:04

 INCAR:
 POTCAR:    PAW_PBE Ni_pv 06Sep2000
 POTCAR:    PAW_PBE S 06Sep2000
 POTCAR:    PAW_PBE Ni_pv 06Sep2000
   VRHFIN =Ni:

   TITEL  = PAW_PBE Ni_pv 06Sep2000
   POMASS =   58.690; ZVAL   =   16.000    mass and valenz
   ENMAX  =  367.986; ENMIN  =  275.989 eV

 POTCAR:    PAW_PBE S 06Sep2000
   VRHFIN =S : s2p4

   TITEL  = PAW_PBE S 06Sep2000
   POMASS =   32.066; ZVAL   =    6.000    mass and valenz
   ENMAX  =  258.689; ENMIN  =  194.016 eV

 Optimization of the real space projectors (new method)

 maximal supplied QI-value         = 18.90
 optimisation between [QCUT,QGAM] = [ 10.77, 21.73] = [ 32.49,132.25] Ry
 Optimized for a Real-space Cutoff    1.38 Angstroem

   l    n(q)    QCUT    max X(q) W(low)/X(q) W(high)/X(q)  e(spline)
   1      8    10.771     2.836    0.40E-04    0.29E-04    0.12E-06
   1      8    10.771     4.023    0.10E-03    0.48E-04    0.29E-06
   2      8    10.771    73.368    0.42E-03    0.97E-04    0.44E-06
   2      8    10.771    69.010    0.42E-03    0.99E-04    0.45E-06
   0      9    10.771    54.797    0.10E-03    0.56E-04    0.74E-07
   0      9    10.771    24.266    0.89E-04    0.49E-04    0.67E-07
 Optimization of the real space projectors (new method)

 maximal supplied QI-value         = 19.84
 optimisation between [QCUT,QGAM] = [ 10.71, 21.63] = [ 32.15,130.99] Ry
 Optimized for a Real-space Cutoff    1.19 Angstroem

   l    n(q)    QCUT    max X(q) W(low)/X(q) W(high)/X(q)  e(spline)
   0      8    10.715   187.594    0.41E-03    0.53E-04    0.66E-07
   0      8    10.715   164.243    0.41E-03    0.53E-04    0.65E-07
   1      7    10.715    67.533    0.19E-03    0.59E-03    0.68E-07
   1      7    10.715    50.729    0.19E-03    0.58E-03    0.67E-07
  PAW_PBE Ni_pv 06Sep2000               :
  PAW_PBE S 06Sep2000                   :

 POSCAR: Type_048 Type_148
  positions in cartesian coordinates
 exchange correlation table for  LEXCH =        8
   RHO(1)=    0.500       N(1)  =     2000
   RHO(2)=  100.500       N(2)  =     4000

 ion  position               nearest neighbor table
   1  0.256  0.016  0.152-  75 2.25  64 2.26  82 2.26  52 2.36  93 2.36   5 2.40   9 2.53
   2  0.256  0.016  0.481-  76 2.25  65 2.26  83 2.26  53 2.36  94 2.36  10 2.53   6 2.53
   3  0.006  0.266  0.317-  61 2.25  67 2.26  71 2.26  54 2.36  58 2.36   7 2.53  23 2.53
   4  0.015  0.262  0.638-  55 2.11  68 2.14  72 2.15  59 2.20   8 2.33  24 2.48
   5  0.209  0.030  0.071-  79 2.01  82 2.09  60 2.10   1 2.40  17 2.48  93 2.55
   6  0.256  0.016  0.394-  80 2.25  61 2.26  83 2.26  49 2.36  94 2.36   2 2.53  10 2.53
   7  0.006  0.266  0.230-  64 2.25  71 2.26  62 2.26  58 2.36  50 2.36   3 2.53  23 2.53
   8  0.006  0.266  0.558-  65 2.25  72 2.26  63 2.26   4 2.33  59 2.36  51 2.36  24 2.53
   9  0.182  0.229  0.121-  64 2.07  56 2.12  60 2.13  52 2.21   1 2.53
  10  0.190  0.215  0.438-  57 2.25  65 2.26  61 2.26  53 2.36  49 2.36   2 2.53   6 2.53
  11  0.440  0.465  0.273-  84 2.25  50 2.26  54 2.26  62 2.36  67 2.36  19 2.53  15 2.53
  12  0.440  0.465  0.602-  55 2.11  68 2.14  85 2.25  51 2.26  63 2.36  16 2.48  20 2.53
  13  0.756  0.016  0.152-  87 2.25  52 2.26  93 2.26  64 2.36  82 2.36  17 2.40  21 2.51
  14  0.756  0.016  0.481-  88 2.25  53 2.26  94 2.26  65 2.36  83 2.36  22 2.53  18 2.53
  15  0.506  0.266  0.317-  49 2.25  54 2.26  58 2.26  67 2.36  71 2.36  19 2.53  11 2.53
  16  0.515  0.262  0.638-  68 2.11  55 2.14  59 2.15  72 2.20  20 2.33  12 2.48
  17  0.815  0.028  0.071-  79 2.01  82 2.09  60 2.10  13 2.40   5 2.48  93 2.52
  18  0.756  0.016  0.394-  91 2.25  49 2.26  94 2.26  61 2.36  83 2.36  14 2.53  22 2.53
  19  0.506  0.266  0.230-  52 2.25  58 2.26  50 2.26  71 2.36  62 2.36  15 2.53  11 2.53
  20  0.506  0.266  0.558-  53 2.25  59 2.26  51 2.26  16 2.33  72 2.36  63 2.36  12 2.53
  21  0.707  0.228  0.121-  64 2.08  60 2.13  52 2.16  69 2.17  13 2.51
  22  0.690  0.215  0.438-  70 2.25  53 2.26  49 2.26  65 2.36  61 2.36  14 2.53  18 2.53
  23  0.940  0.465  0.273-  95 2.25  62 2.26  67 2.26  50 2.36  54 2.36   7 2.53   3 2.53
  24  0.940  0.465  0.602-  68 2.11  55 2.14  96 2.25  63 2.26  51 2.36   4 2.48   8 2.53
  25  0.256  0.516  0.152-  50 2.25  89 2.26  56 2.26  77 2.36  69 2.36  29 2.40  33 2.51
  26  0.256  0.516  0.481-  51 2.25  90 2.26  57 2.26  78 2.36  70 2.36  34 2.53  30 2.53
  27  0.006  0.766  0.317-  86 2.25  91 2.26  95 2.26  80 2.36  84 2.36  31 2.53  47 2.53
  28  0.015  0.762  0.638-  81 2.11  92 2.14  96 2.15  85 2.20  32 2.33  48 2.48
  29  0.315  0.528  0.071-  66 2.01  69 2.09  73 2.10  25 2.40  41 2.48  56 2.52
  30  0.256  0.516  0.394-  54 2.25  86 2.26  57 2.26  74 2.36  70 2.36  26 2.53  34 2.53
  31  0.006  0.766  0.230-  89 2.25  95 2.26  87 2.26  84 2.36  75 2.36  27 2.53  47 2.53
  32  0.006  0.766  0.558-  90 2.25  96 2.26  88 2.26  28 2.33  85 2.36  76 2.36  48 2.53
  33  0.207  0.728  0.121-  77 2.08  73 2.13  89 2.16  82 2.17  25 2.51
  34  0.190  0.715  0.438-  83 2.25  90 2.26  86 2.26  78 2.36  74 2.36  26 2.53  30 2.53
  35  0.440  0.965  0.273-  58 2.25  75 2.26  80 2.26  87 2.36  91 2.36  43 2.53  39 2.53
  36  0.440  0.965  0.602-  81 2.11  92 2.14  59 2.25  76 2.26  88 2.36  40 2.48  44 2.53
  37  0.756  0.516  0.152-  62 2.25  77 2.26  69 2.26  89 2.36  56 2.36  41 2.40  45 2.53
  38  0.756  0.516  0.481-  63 2.25  78 2.26  70 2.26  90 2.36  57 2.36  46 2.53  42 2.53
  39  0.506  0.766  0.317-  74 2.25  80 2.26  84 2.26  91 2.36  95 2.36  43 2.53  35 2.53
  40  0.515  0.762  0.638-  92 2.11  81 2.14  85 2.15  96 2.20  44 2.33  36 2.48
  41  0.709  0.530  0.071-  66 2.01  69 2.09  73 2.10  37 2.40  29 2.48  56 2.55
  42  0.756  0.516  0.394-  67 2.25  74 2.26  70 2.26  86 2.36  57 2.36  38 2.53  46 2.53
  43  0.506  0.766  0.230-  77 2.25  84 2.26  75 2.26  95 2.36  87 2.36  39 2.53  35 2.53
  44  0.506  0.766  0.558-  78 2.25  85 2.26  76 2.26  40 2.33  96 2.36  88 2.36  36 2.53
  45  0.682  0.729  0.121-  77 2.07  93 2.12  73 2.13  89 2.21  37 2.53
  46  0.690  0.715  0.438-  94 2.25  78 2.26  74 2.26  90 2.36  86 2.36  38 2.53  42 2.53
  47  0.940  0.965  0.273-  71 2.25  87 2.26  91 2.26  75 2.36  80 2.36  31 2.53  27 2.53
  48  0.940  0.965  0.602-  92 2.11  81 2.14  72 2.25  88 2.26  76 2.36  28 2.48  32 2.53
  49  0.468  0.167  0.382-  15 2.25  18 2.26  22 2.26   6 2.36  10 2.36
  50  0.218  0.417  0.218-  25 2.25  11 2.26  19 2.26  23 2.36   7 2.36
  51  0.218  0.417  0.547-  26 2.25  12 2.26  20 2.26  24 2.36   8 2.36
  52  0.468  0.167  0.164-  21 2.16   9 2.21  19 2.25  13 2.26   1 2.36
  53  0.468  0.167  0.493-  20 2.25  22 2.26  14 2.26  10 2.36   2 2.36
  54  0.218  0.417  0.329-  30 2.25  15 2.26  11 2.26   3 2.36  23 2.36
  55  0.218  0.391  0.642-   4 2.11  12 2.11  24 2.14  16 2.14  59 2.77
  56  0.053  0.414  0.109-   9 2.12  25 2.26  37 2.36  29 2.52  41 2.55
  57  0.053  0.414  0.438-  10 2.25  26 2.26  30 2.26  38 2.36  42 2.36
  58  0.303  0.164  0.273-  35 2.25  19 2.26  15 2.26   7 2.36   3 2.36
  59  0.303  0.164  0.602-  16 2.15   4 2.20  36 2.25  20 2.26   8 2.36  55 2.77
  60  0.959  0.182  0.072-  17 2.10   5 2.10  21 2.13   9 2.13  79 2.70  64 2.70
[...]
  82  0.053  0.914  0.109-  17 2.09   5 2.09  33 2.17   1 2.26  13 2.36  79 2.70
  83  0.053  0.914  0.438-  34 2.25   2 2.26   6 2.26  14 2.36  18 2.36
  84  0.303  0.664  0.273-  11 2.25  43 2.26  39 2.26  31 2.36  27 2.36
  85  0.303  0.664  0.602-  40 2.15  28 2.20  12 2.25  44 2.26  32 2.36  81 2.77
  86  0.968  0.667  0.382-  27 2.25  30 2.26  34 2.26  42 2.36  46 2.36
  87  0.718  0.917  0.218-  13 2.25  47 2.26  31 2.26  35 2.36  43 2.36
  88  0.718  0.917  0.547-  14 2.25  48 2.26  32 2.26  36 2.36  44 2.36
  89  0.968  0.667  0.164-  33 2.16  45 2.21  31 2.25  25 2.26  37 2.36
  90  0.968  0.667  0.493-  32 2.25  34 2.26  26 2.26  46 2.36  38 2.36
  91  0.718  0.917  0.329-  18 2.25  27 2.26  47 2.26  39 2.36  35 2.36
  92  0.718  0.891  0.642-  40 2.11  48 2.11  36 2.14  28 2.14  96 2.77
  93  0.553  0.914  0.109-  45 2.12  13 2.26   1 2.36  17 2.52   5 2.55
  94  0.553  0.914  0.438-  46 2.25  14 2.26  18 2.26   2 2.36   6 2.36
  95  0.803  0.664  0.273-  23 2.25  31 2.26  27 2.26  43 2.36  39 2.36
  96  0.803  0.664  0.602-  28 2.15  40 2.20  24 2.25  32 2.26  44 2.36  92 2.77

  LATTYP: Found a simple monoclinic cell.
 ALAT       =    13.8711386352
 B/A-ratio  =     2.1019774055
 C/A-ratio  =     1.3233367991
 COS(beta)  =    -0.9620914447

  Lattice vectors:

 A1 = (  -8.3714133957, -11.0601955134,   0.0000000000)
 A2 = (   0.0000000000,   0.0000000000, -29.1568200000)
 A3 = (  14.6499733957,  11.0601955134,   0.0000000000)

Analysis of symmetry for initial positions (statically):
 Subroutine PRICEL returns following result:

[...]

   2 primitive cells build up your supercell.

 Routine SETGRP: Setting up the symmetry group for a
 simple monoclinic supercell.

 Subroutine GETGRP returns: Found  1 space group operations
 (whereof  1 operations were pure point group operations)
 out of a pool of  4 trial point group operations.

The static configuration has the point symmetry C_1 .

Analysis of symmetry for dynamics (positions and initial velocities):
 Subroutine PRICEL returns following result:

  LATTYP: Found a simple monoclinic cell.
 ALAT       =    10.0330724044
 B/A-ratio  =     2.9060709247
 C/A-ratio  =     1.5175735465
 COS(beta)  =    -0.9738277425

  Lattice vectors:

 A1 = (  -8.3714133020,   5.5300977567,   0.0000000000)
 A2 = (   0.0000000000,   0.0000000000, -29.1568200000)
 A3 = (  10.4642666041, -11.0601955134,   0.0000000000)

   2 primitive cells build up your supercell.

 Routine SETGRP: Setting up the symmetry group for a
 simple monoclinic supercell.

 Subroutine GETGRP returns: Found  1 space group operations
 (whereof  1 operations were pure point group operations)
 out of a pool of  4 trial point group operations.

The dynamic configuration has the point symmetry C_1 .

 Subroutine INISYM returns: Found  1 space group operations
 (whereof  1 operations are pure point group operations),
 and found     2 'primitive' translations

 KPOINTS: gamma-point-only calculation. no periodi

Automatic generation of k-mesh.
Space group operators:
 irot       det(A)        alpha          n_x          n_y          n_z        tau_x        tau_y        tau_z
    1     1.000000     0.000000     1.000000     0.000000     0.000000     0.000000     0.000000     0.000000

 Subroutine IBZKPT returns following result:

 Found      1 irreducible k-points:

 Following reciprocal coordinates:
            Coordinates               Weight
  0.000000  0.000000  0.000000      1.000000

 Following cartesian coordinates:
            Coordinates               Weight
  0.000000  0.000000  0.000000      1.000000

 SYSTEM =  "Millerite NiS"
 POSCAR =  Type_048 Type_148

 Startparameter for this run:
   NWRITE =      2    write-flag & timer
   PREC   = normal    normal or accurate (medium, high low for compatibility)
   ISTART =      0    job   : 0-new  1-cont  2-samecut
   ICHARG =      2    charge: 1-file 2-atom 10-const
[...]
     0.000000000  0.000000000 29.156820000     0.000000000  0.000000000  0.034297293

  length of vectors
     6.278560000 11.256463038 29.156820000     0.162098538  0.090414315  0.034297293

 FORCES acting on ions
    electron-ion (+dipol)            ewald-force                    non-local-force                 convergence-correction
   -.202E+03 0.253E+03 0.437E+04   0.201E+03 -.254E+03 -.437E+04   0.446E+00 0.142E+01 0.987E+00   0.227E-01 -.495E-01 -.834E+00
   -.413E+02 0.256E+03 -.334E+04   0.405E+02 -.256E+03 0.334E+04   0.979E+00 0.472E+00 -.778E+00   0.934E-02 0.835E-01 0.111E+01
   -.421E+02 0.257E+03 0.436E+03   0.412E+02 -.257E+03 -.436E+03   0.959E+00 0.629E+00 -.717E+00   0.398E-02 -.134E+00 0.676E+00
   -.126E+02 0.455E+03 -.728E+04   0.128E+02 -.456E+03 0.728E+04   -.136E+00 0.100E+01 0.558E+00   0.407E-02 -.146E-01 0.203E+00
   -.705E+03 0.112E+03 0.708E+04   0.711E+03 -.112E+03 -.708E+04   -.262E+01 0.878E-01 0.349E+01   -.155E+00 -.130E+00 -.386E+00
   -.413E+02 0.258E+03 -.450E+03   0.405E+02 -.258E+03 0.448E+03   0.956E+00 0.496E+00 0.110E+01   0.243E-02 0.790E-01 0.176E+01
   -.497E+02 0.245E+03 0.329E+04   0.487E+02 -.246E+03 -.329E+04   0.113E+01 0.774E+00 0.178E+01   0.112E-01 -.839E-01 -.115E+01
   -.370E+02 0.274E+03 -.415E+04   0.359E+02 -.275E+03 0.414E+04   0.118E+01 0.810E+00 0.211E+01   -.628E-02 0.137E-01 0.748E+00
   -.364E+03 -.490E+03 0.582E+04   0.368E+03 0.492E+03 -.582E+04   -.278E+01 -.223E+01 0.178E+01   -.101E+00 -.133E+00 -.532E+00
   -.411E+02 -.514E+03 -.189E+04   0.404E+02 0.515E+03 0.189E+04   0.870E+00 -.125E+01 0.288E-01   0.251E-02 -.741E-01 0.158E+01
   -.384E+02 -.516E+03 0.189E+04   0.377E+02 0.516E+03 -.189E+04   0.982E+00 -.934E+00 0.469E+00   0.231E-02 0.132E+00 -.428E+00
   -.284E+02 -.672E+03 -.586E+04   0.282E+02 0.676E+03 0.586E+04   0.228E+00 -.413E+01 -.344E+00   0.637E-02 -.159E+00 0.425E+00
   0.132E+03 0.286E+03 0.440E+04   -.134E+03 -.288E+03 -.440E+04   0.182E+01 0.153E+01 0.122E+01   -.352E-01 0.656E-01 -.820E+00
   -.413E+02 0.256E+03 -.334E+04   0.404E+02 -.256E+03 0.334E+04   0.978E+00 0.476E+00 -.771E+00   0.135E-01 0.828E-01 0.111E+01
   -.405E+02 0.258E+03 0.438E+03   0.396E+02 -.258E+03 -.438E+03   0.985E+00 0.560E+00 -.728E+00   0.673E-02 -.120E+00 0.672E+00
   -.126E+02 0.455E+03 -.728E+04   0.128E+02 -.456E+03 0.728E+04   -.135E+00 0.100E+01 0.557E+00   0.881E-02 -.266E-01 0.255E+00
   0.691E+03 0.176E+03 0.706E+04   -.698E+03 -.175E+03 -.706E+04   0.418E+01 -.955E+00 0.396E+01   0.154E+00 0.272E-01 -.355E+00
   -.412E+02 0.258E+03 -.450E+03   0.403E+02 -.258E+03 0.448E+03   0.966E+00 0.487E+00 0.107E+01   0.447E-02 0.779E-01 0.173E+01
   -.272E+02 0.258E+03 0.332E+04   0.262E+02 -.259E+03 -.332E+04   0.112E+01 0.876E+00 0.223E+01   0.768E-02 -.900E-01 -.118E+01
   -.370E+02 0.274E+03 -.415E+04   0.359E+02 -.275E+03 0.414E+04   0.118E+01 0.816E+00 0.211E+01   -.308E-02 0.703E-02 0.821E+00
   0.294E+03 -.447E+03 0.577E+04   -.298E+03 0.448E+03 -.578E+04   0.226E+01 -.491E+00 0.323E+01   0.329E-01 -.950E-01 -.613E+00
   -.411E+02 -.514E+03 -.189E+04   0.404E+02 0.515E+03 0.189E+04   0.882E+00 -.125E+01 0.351E-01   0.114E-01 -.463E-01 0.157E+01
   -.438E+02 -.520E+03 0.189E+04   0.431E+02 0.520E+03 -.189E+04   0.915E+00 -.869E+00 0.476E+00   0.721E-02 0.136E+00 -.434E+00
   -.284E+02 -.672E+03 -.586E+04   0.282E+02 0.676E+03 0.586E+04   0.228E+00 -.413E+01 -.344E+00   0.503E-02 -.118E+00 0.386E+00
   0.132E+03 0.286E+03 0.440E+04   -.134E+03 -.288E+03 -.440E+04   0.182E+01 0.153E+01 0.122E+01   -.328E-01 0.659E-01 -.820E+00
   -.413E+02 0.256E+03 -.334E+04   0.404E+02 -.256E+03 0.334E+04   0.978E+00 0.476E+00 -.771E+00   0.140E-01 0.786E-01 0.111E+01
   -.405E+02 0.258E+03 0.438E+03   0.396E+02 -.258E+03 -.438E+03   0.985E+00 0.560E+00 -.728E+00   0.553E-02 -.120E+00 0.672E+00
   -.126E+02 0.455E+03 -.728E+04   0.128E+02 -.456E+03 0.728E+04   -.135E+00 0.100E+01 0.557E+00   0.931E-02 -.268E-01 0.252E+00
   0.691E+03 0.176E+03 0.706E+04   -.698E+03 -.175E+03 -.706E+04   0.418E+01 -.955E+00 0.396E+01   0.154E+00 0.259E-01 -.354E+00
   -.412E+02 0.258E+03 -.450E+03   0.403E+02 -.258E+03 0.448E+03   0.966E+00 0.487E+00 0.107E+01   0.413E-02 0.753E-01 0.173E+01
   -.272E+02 0.258E+03 0.332E+04   0.262E+02 -.259E+03 -.332E+04   0.112E+01 0.876E+00 0.223E+01   0.640E-02 -.895E-01 -.118E+01
   -.370E+02 0.274E+03 -.415E+04   0.359E+02 -.275E+03 0.414E+04   0.118E+01 0.816E+00 0.211E+01   -.315E-02 0.676E-02 0.822E+00
   0.294E+03 -.447E+03 0.577E+04   -.298E+03 0.448E+03 -.578E+04   0.226E+01 -.491E+00 0.323E+01   0.356E-01 -.912E-01 -.611E+00
   -.411E+02 -.514E+03 -.189E+04   0.404E+02 0.515E+03 0.189E+04   0.882E+00 -.125E+01 0.351E-01   0.120E-01 -.496E-01 0.157E+01
   -.438E+02 -.520E+03 0.189E+04   0.431E+02 0.520E+03 -.189E+04   0.915E+00 -.869E+00 0.476E+00   0.831E-02 0.134E+00 -.436E+00
   -.284E+02 -.672E+03 -.586E+04   0.282E+02 0.676E+03 0.586E+04   0.228E+00 -.413E+01 -.344E+00   0.493E-02 -.115E+00 0.386E+00
   -.202E+03 0.253E+03 0.437E+04   0.201E+03 -.254E+03 -.437E+04   0.446E+00 0.142E+01 0.987E+00   0.216E-01 -.499E-01 -.831E+00
   -.413E+02 0.256E+03 -.334E+04   0.405E+02 -.256E+03 0.334E+04   0.979E+00 0.472E+00 -.778E+00   0.838E-02 0.801E-01 0.110E+01
   -.421E+02 0.257E+03 0.436E+03   0.412E+02 -.257E+03 -.436E+03   0.959E+00 0.629E+00 -.717E+00   0.557E-02 -.135E+00 0.675E+00
   -.126E+02 0.455E+03 -.728E+04   0.128E+02 -.456E+03 0.728E+04   -.136E+00 0.100E+01 0.558E+00   0.312E-02 -.169E-01 0.207E+00
   -.705E+03 0.112E+03 0.708E+04   0.711E+03 -.112E+03 -.708E+04   -.262E+01 0.878E-01 0.349E+01   -.155E+00 -.133E+00 -.388E+00
   -.413E+02 0.258E+03 -.450E+03   0.405E+02 -.258E+03 0.448E+03   0.956E+00 0.496E+00 0.110E+01   0.299E-02 0.779E-01 0.176E+01
   -.497E+02 0.245E+03 0.329E+04   0.487E+02 -.246E+03 -.329E+04   0.113E+01 0.774E+00 0.178E+01   0.128E-01 -.830E-01 -.115E+01
   -.370E+02 0.274E+03 -.415E+04   0.359E+02 -.275E+03 0.414E+04   0.118E+01 0.810E+00 0.211E+01   -.690E-02 0.130E-01 0.747E+00
   -.364E+03 -.490E+03 0.582E+04   0.368E+03 0.492E+03 -.582E+04   -.278E+01 -.223E+01 0.178E+01   -.104E+00 -.131E+00 -.532E+00
   -.411E+02 -.514E+03 -.189E+04   0.404E+02 0.515E+03 0.189E+04   0.870E+00 -.125E+01 0.288E-01   0.204E-02 -.774E-01 0.158E+01
   -.384E+02 -.516E+03 0.189E+04   0.377E+02 0.516E+03 -.189E+04   0.982E+00 -.934E+00 0.469E+00   0.845E-03 0.130E+00 -.428E+00
   -.284E+02 -.672E+03 -.586E+04   0.282E+02 0.676E+03 0.586E+04   0.228E+00 -.413E+01 -.344E+00   0.589E-02 -.157E+00 0.426E+00
   0.398E+02 -.833E+02 -.898E+02   -.404E+02 0.844E+02 0.870E+02   0.491E+00 -.131E+01 0.254E+01   -.648E-02 0.554E-02 0.672E+00
   0.407E+02 -.933E+02 0.134E+04   -.414E+02 0.942E+02 -.134E+04   0.681E+00 -.122E+01 0.324E+01   0.103E-01 0.855E-01 -.563E+00
   0.391E+02 -.987E+02 -.150E+04   -.399E+02 0.100E+03 0.150E+04   0.781E+00 -.135E+01 0.218E+01   0.275E-03 0.224E-01 0.204E+00
   0.400E+02 -.298E+02 0.160E+04   -.414E+02 0.320E+02 -.160E+04   0.136E+01 -.193E+01 -.219E+01   0.569E-01 -.146E+00 -.390E+00
   0.399E+02 -.806E+02 -.133E+04   -.405E+02 0.817E+02 0.133E+04   0.469E+00 -.133E+01 -.252E+01   -.419E-02 -.684E-01 0.290E+00
   0.397E+02 -.837E+02 0.857E+02   -.404E+02 0.848E+02 -.839E+02   0.675E+00 -.136E+01 -.270E+01   -.102E-02 0.487E-01 0.378E+00
   0.113E+00 -.194E+03 -.280E+04   -.507E+00 0.198E+03 0.281E+04   0.369E+00 -.232E+01 -.435E+01   0.235E-01 -.157E+00 0.511E-01
   0.150E+02 0.583E+02 0.236E+04   -.159E+02 -.602E+02 -.236E+04   0.134E+01 0.415E+01 0.127E+00   -.264E-01 0.996E-01 -.119E+00
   0.396E+02 0.166E+03 -.710E+03   -.404E+02 -.169E+03 0.710E+03   0.718E+00 0.270E+01 0.608E-01   -.491E-02 0.736E-03 0.631E+00
   0.381E+02 0.168E+03 0.707E+03   -.389E+02 -.171E+03 -.706E+03   0.679E+00 0.290E+01 -.195E+00   -.989E-02 -.306E-01 -.153E+00
   0.362E+02 0.238E+03 -.218E+04   -.365E+02 -.241E+03 0.218E+04   0.106E+00 0.204E+01 -.133E+00   0.249E-01 0.100E+00 0.246E+00
   -.544E+01 -.334E+03 0.277E+04   0.511E+01 0.341E+03 -.278E+04   0.186E+00 -.542E+01 0.474E+01   -.458E-01 0.476E-01 -.197E+00
[...]
   0.395E+02 0.166E+03 -.710E+03   -.404E+02 -.169E+03 0.710E+03   0.731E+00 0.272E+01 0.209E-01   0.170E-01 0.428E-02 0.630E+00
   0.408E+02 0.169E+03 0.704E+03   -.417E+02 -.171E+03 -.704E+03   0.772E+00 0.286E+01 -.267E+00   -.132E-01 -.403E-01 -.151E+00
   0.363E+02 0.238E+03 -.218E+04   -.365E+02 -.241E+03 0.218E+04   0.109E+00 0.204E+01 -.126E+00   -.124E-01 0.101E+00 0.246E+00
   0.398E+02 -.833E+02 -.898E+02   -.404E+02 0.844E+02 0.870E+02   0.491E+00 -.131E+01 0.254E+01   -.696E-02 0.459E-02 0.671E+00
   0.407E+02 -.933E+02 0.134E+04   -.414E+02 0.942E+02 -.134E+04   0.681E+00 -.122E+01 0.324E+01   0.104E-01 0.852E-01 -.564E+00
   0.391E+02 -.987E+02 -.150E+04   -.399E+02 0.100E+03 0.150E+04   0.781E+00 -.135E+01 0.218E+01   0.311E-03 0.230E-01 0.204E+00
   0.400E+02 -.298E+02 0.160E+04   -.414E+02 0.320E+02 -.160E+04   0.136E+01 -.193E+01 -.219E+01   0.567E-01 -.145E+00 -.389E+00
   0.399E+02 -.806E+02 -.133E+04   -.405E+02 0.817E+02 0.133E+04   0.469E+00 -.133E+01 -.252E+01   -.415E-02 -.695E-01 0.290E+00
   0.397E+02 -.837E+02 0.857E+02   -.404E+02 0.848E+02 -.839E+02   0.675E+00 -.136E+01 -.270E+01   -.243E-03 0.486E-01 0.377E+00
   0.112E+00 -.194E+03 -.280E+04   -.507E+00 0.198E+03 0.281E+04   0.369E+00 -.232E+01 -.435E+01   0.236E-01 -.156E+00 0.513E-01
   0.150E+02 0.583E+02 0.236E+04   -.159E+02 -.602E+02 -.236E+04   0.134E+01 0.415E+01 0.127E+00   -.266E-01 0.101E+00 -.119E+00
   0.396E+02 0.166E+03 -.710E+03   -.404E+02 -.169E+03 0.710E+03   0.718E+00 0.270E+01 0.608E-01   -.510E-02 0.953E-03 0.631E+00
   0.381E+02 0.168E+03 0.707E+03   -.389E+02 -.171E+03 -.706E+03   0.679E+00 0.290E+01 -.195E+00   -.970E-02 -.307E-01 -.153E+00
   0.362E+02 0.238E+03 -.218E+04   -.365E+02 -.241E+03 0.218E+04   0.106E+00 0.204E+01 -.133E+00   0.249E-01 0.994E-01 0.246E+00
   -.662E+02 0.205E+02 -.627E+02   -.540E-12 0.236E-11 0.455E-11   0.662E+02 -.190E+02 0.461E+02   0.179E-01 -.147E+01 0.167E+02

 POSITION                                       TOTAL-FORCE (eV/Angst)
      1.64370      0.18204      4.44331         0.308308      0.167481      0.554056
      1.64370      0.18204     14.02172         0.106349      0.123853     -0.343066
      0.59727      2.94708      9.23251         0.074777      0.224711     -0.332106
      0.63868      2.89344     18.60505         0.025118     -0.606677     -0.103848
      1.37673      0.32849      2.06472         2.358780     -0.207469      0.889719
      1.64370      0.18204     11.49105         0.100335      0.140326      0.310975
      0.59727      2.94708      6.70184         0.122988      0.029314      0.643804
      0.59727      2.94708     16.28025         0.090484      0.238689     -1.034444
      1.62218      2.53680      3.51753         0.978949     -0.794957     -0.200618
      1.64370      2.37366     12.75638         0.160454     -0.339383     -0.017269
      3.73655      5.13871      7.96718         0.199545     -0.399373      0.106339
      3.73655      5.13871     17.54559         0.081477      0.008146     -2.113054
      4.78298      0.18204      4.44331        -0.208721      0.026045      0.530657
      4.78298      0.18204     14.02172         0.104949      0.125914     -0.341022
      3.73655      2.94708      9.23251         0.059868      0.204626     -0.344166
      3.77796      2.89344     18.60505         0.025516     -0.604116     -0.110697
      5.17494      0.30669      2.07917        -2.484816     -0.291581      0.736129
      4.78298      0.18204     11.49105         0.110300      0.138925      0.300880
      3.73655      2.94708      6.70184         0.117002      0.160170      0.754217
      3.73655      2.94708     16.28025         0.090123      0.237793     -1.036623
      4.91496      2.51769      3.53118        -1.649002     -0.280993     -0.273824
      4.78298      2.37366     12.75638         0.175314     -0.339241     -0.020615
      6.87583      5.13871      7.96718         0.214356     -0.336691      0.119915
      6.87583      5.13871     17.54559         0.081406      0.007463     -2.112490
      2.69013      5.71213      4.44331        -0.208721      0.026045      0.530657
      2.69013      5.71213     14.02172         0.104949      0.125914     -0.341022
      1.64370      8.47718      9.23251         0.059868      0.204626     -0.344166
      1.68510      8.42354     18.60505         0.025516     -0.604116     -0.110697
      3.08208      5.83679      2.07917        -2.484816     -0.291581      0.736129
      2.69013      5.71213     11.49105         0.110300      0.138925      0.300880
      1.64370      8.47718      6.70184         0.117002      0.160170      0.754217
      1.64370      8.47718     16.28025         0.090123      0.237793     -1.036623
      2.82210      8.04779      3.53118        -1.649002     -0.280993     -0.273824
      2.69013      7.90376     12.75638         0.175314     -0.339241     -0.020615
      4.78298     10.66881      7.96718         0.214356     -0.336691      0.119915
      4.78298     10.66881     17.54559         0.081406      0.007463     -2.112490
      5.82941      5.71213      4.44331         0.308308      0.167481      0.554056
      5.82941      5.71213     14.02172         0.106349      0.123853     -0.343066
      4.78298      8.47718      9.23251         0.074777      0.224711     -0.332106
      4.82438      8.42354     18.60505         0.025118     -0.606677     -0.103848
      5.56244      5.85859      2.06472         2.358780     -0.207469      0.889719
      5.82941      5.71213     11.49105         0.100335      0.140326      0.310975
      4.78298      8.47718      6.70184         0.122988      0.029314      0.643804
      4.78298      8.47718     16.28025         0.090484      0.238689     -1.034444
      5.80789      8.06690      3.51753         0.978949     -0.794957     -0.200618
      5.82941      7.90376     12.75638         0.160454     -0.339383     -0.017269
      7.92226     10.66881      7.96718         0.199545     -0.399373      0.106339
      7.92226     10.66881     17.54559         0.081477      0.008146     -2.113054
      3.28961      1.84282     11.14515        -0.124766     -0.263667      0.399243
      2.24318      4.60787      6.35595        -0.085460     -0.234608      0.267868
      2.24318      4.60787     15.93436        -0.080639     -0.071205     -0.270377
      3.28961      1.84282      4.78920         0.029327      0.181195     -0.301113
      3.28961      1.84282     14.36761        -0.115532     -0.223141     -0.410303
      2.24318      4.60787      9.57841        -0.097292     -0.256545     -0.470151
      2.18595      4.32138     18.72379        -0.002378      1.275162      3.822122
      1.19676      4.58218      3.17797         0.457886      2.417373     -0.538768
      1.19676      4.58218     12.75638        -0.123910      0.531082      0.028069
      2.24318      1.81714      7.96718        -0.166214      0.629250     -0.034249
      2.24318      1.81714     17.54559        -0.112519     -0.818277     -0.013054
      6.39971      2.01488      2.09440        -0.189563      1.960387     -2.472368
[...]
      2.24318     10.11228      3.17797         0.093332     -0.882596      1.608476
      2.24318     10.11228     12.75638        -0.126715      0.536149      0.020360
      3.28961      7.34723      7.96718        -0.136275      0.570632     -0.160216
      3.28961      7.34723     17.54559        -0.112459     -0.819051     -0.012843
      7.47532      7.37292     11.14515        -0.124766     -0.263667      0.399243
      6.42889     10.13797      6.35595        -0.085460     -0.234608      0.267868
      6.42889     10.13797     15.93436        -0.080639     -0.071205     -0.270377
      7.47532      7.37292      4.78920         0.029327      0.181195     -0.301113
      7.47532      7.37292     14.36761        -0.115532     -0.223141     -0.410303
      6.42889     10.13797      9.57841        -0.097292     -0.256545     -0.470151
      6.37166      9.85147     18.72379        -0.002378      1.275162      3.822122
      5.38246     10.11228      3.17797         0.457886      2.417373     -0.538768
      5.38246     10.11228     12.75638        -0.123910      0.531082      0.028069
      6.42889      7.34723      7.96718        -0.166214      0.629250     -0.034249
      6.42889      7.34723     17.54559        -0.112519     -0.818277     -0.013054
    total drift:                               -0.024468     -0.007745      0.107294

  FREE ENERGIE OF THE ION-ELECTRON SYSTEM (eV)
  free  energy   TOTEN  =      -479.86312676 eV

  energy  without entropy=     -478.65779793  energy(sigma->0) =     -479.26046235