 vasp.6.1.0 28Jan20 (build Mar 31 2020 17:42:31) gamma-only

 executed on             LinuxIFC date 2020.04.12  21:58:54

 INCAR:
 POTCAR:    PAW_PBE Ni_pv 06Sep2000
 POTCAR:    PAW_PBE S 06Sep2000
 POTCAR:    PAW_PBE Ni_pv 06Sep2000
   VRHFIN =Ni:

   TITEL  = PAW_PBE Ni_pv 06Sep2000
   POMASS =   58.690; ZVAL   =   16.000    mass and valenz
   ENMAX  =  367.986; ENMIN  =  275.989 eV

 POTCAR:    PAW_PBE S 06Sep2000
   VRHFIN =S : s2p4

   TITEL  = PAW_PBE S 06Sep2000
   POMASS =   32.066; ZVAL   =    6.000    mass and valenz
   ENMAX  =  258.689; ENMIN  =  194.016 eV

 Optimization of the real space projectors (new method)

 maximal supplied QI-value         = 18.90
 optimisation between [QCUT,QGAM] = [ 10.77, 21.73] = [ 32.49,132.25] Ry
 Optimized for a Real-space Cutoff    1.38 Angstroem

   l    n(q)    QCUT    max X(q) W(low)/X(q) W(high)/X(q)  e(spline)
   1      8    10.771     2.836    0.40E-04    0.29E-04    0.12E-06
   1      8    10.771     4.023    0.10E-03    0.48E-04    0.29E-06
   2      8    10.771    73.368    0.42E-03    0.97E-04    0.44E-06
   2      8    10.771    69.010    0.42E-03    0.99E-04    0.45E-06
   0      9    10.771    54.797    0.10E-03    0.56E-04    0.74E-07
   0      9    10.771    24.266    0.89E-04    0.49E-04    0.67E-07
 Optimization of the real space projectors (new method)

 maximal supplied QI-value         = 19.84
 optimisation between [QCUT,QGAM] = [ 10.71, 21.63] = [ 32.15,130.99] Ry
 Optimized for a Real-space Cutoff    1.19 Angstroem

   l    n(q)    QCUT    max X(q) W(low)/X(q) W(high)/X(q)  e(spline)
   0      8    10.715   187.594    0.41E-03    0.53E-04    0.66E-07
   0      8    10.715   164.243    0.41E-03    0.53E-04    0.65E-07
   1      7    10.715    67.533    0.19E-03    0.59E-03    0.68E-07
   1      7    10.715    50.729    0.19E-03    0.58E-03    0.67E-07
  PAW_PBE Ni_pv 06Sep2000               :
  PAW_PBE S 06Sep2000                   :

 POSCAR: Structure 10 made from 001-2.xsd file
  positions in direct lattice
 exchange correlation table for  LEXCH =        8
   RHO(1)=    0.500       N(1)  =     2000
   RHO(2)=  100.500       N(2)  =     4000

 ion  position               nearest neighbor table
   1  0.458  0.542  0.077-  32 2.25  46 2.26  37 2.26  47 2.36  38 2.36  10 2.53  19 2.53
   2  0.458  0.542  0.239-  33 2.25  47 2.26  38 2.26  48 2.36  39 2.36  11 2.53  20 2.53
   3  0.458  0.542  0.400-  34 2.25  48 2.26  39 2.26  49 2.36  40 2.36  12 2.53  21 2.53
   4  0.125  0.875  0.131-  35 2.25  50 2.26  41 2.26  51 2.36  42 2.36  13 2.53  22 2.53
   5  0.125  0.875  0.292-  36 2.25  51 2.26  42 2.26  52 2.36  43 2.36  14 2.53  23 2.53
   6  0.125  0.875  0.454-  52 2.26  43 2.26  15 2.53  24 2.53
   7  0.792  0.208  0.023-  28 2.25  53 2.36  44 2.36  16 2.53  25 2.53
   8  0.792  0.208  0.185-  29 2.25  53 2.26  44 2.26  54 2.36  45 2.36  17 2.53  26 2.53
   9  0.792  0.208  0.346-  30 2.25  54 2.26  45 2.26  18 2.53  27 2.53
  10  0.458  0.277  0.077-  41 2.25  46 2.26  28 2.26  47 2.36  29 2.36   1 2.53  19 2.53
  11  0.458  0.277  0.239-  42 2.25  47 2.26  29 2.26  48 2.36  30 2.36   2 2.53  20 2.53
  12  0.458  0.277  0.400-  43 2.25  48 2.26  30 2.26  49 2.36  31 2.36   3 2.53  21 2.53
  13  0.125  0.611  0.131-  44 2.25  50 2.26  32 2.26  51 2.36  33 2.36   4 2.53  22 2.53
  14  0.125  0.611  0.292-  45 2.25  51 2.26  33 2.26  52 2.36  34 2.36   5 2.53  23 2.53
  15  0.125  0.611  0.454-  52 2.26  34 2.26   6 2.53  24 2.53
  16  0.792  0.944  0.023-  37 2.25  53 2.36  35 2.36   7 2.53  25 2.53
  17  0.792  0.944  0.185-  38 2.25  53 2.26  35 2.26  54 2.36  36 2.36   8 2.53  26 2.53
  18  0.792  0.944  0.346-  39 2.25  54 2.26  36 2.26   9 2.53  27 2.53
  19  0.723  0.542  0.077-  50 2.25  37 2.26  28 2.26  38 2.36  29 2.36  10 2.53   1 2.53
  20  0.723  0.542  0.239-  51 2.25  38 2.26  29 2.26  30 2.36  39 2.36  11 2.53   2 2.53
  21  0.723  0.542  0.400-  52 2.25  39 2.26  30 2.26  40 2.36  31 2.36  12 2.53   3 2.53
  22  0.389  0.875  0.131-  53 2.25  41 2.26  32 2.26  42 2.36  33 2.36  13 2.53   4 2.53
  23  0.389  0.875  0.292-  54 2.25  42 2.26  33 2.26  34 2.36  43 2.36  14 2.53   5 2.53
  24  0.389  0.875  0.454-  34 2.26  43 2.26   6 2.53  15 2.53
  25  0.056  0.208  0.023-  46 2.25  44 2.36  35 2.36  16 2.53   7 2.53
  26  0.056  0.208  0.185-  47 2.25  35 2.26  44 2.26  36 2.36  45 2.36  17 2.53   8 2.53
  27  0.056  0.208  0.346-  48 2.25  45 2.26  36 2.26  18 2.53   9 2.53
  28  0.659  0.341  0.000-   7 2.25  19 2.26  10 2.26
  29  0.659  0.341  0.162-   8 2.25  20 2.26  11 2.26  19 2.36  10 2.36
  30  0.659  0.341  0.323-   9 2.25  21 2.26  12 2.26  20 2.36  11 2.36
  31  0.659  0.341  0.485-  21 2.36  12 2.36
  32  0.325  0.675  0.054-   1 2.25  22 2.26  13 2.26
  33  0.325  0.675  0.216-   2 2.25  23 2.26  14 2.26  22 2.36  13 2.36
  34  0.325  0.675  0.377-   3 2.25  24 2.26  15 2.26  23 2.36  14 2.36
  35  0.992  0.008  0.108-   4 2.25  26 2.26  17 2.26  25 2.36  16 2.36
  36  0.992  0.008  0.269-   5 2.25  27 2.26  18 2.26  26 2.36  17 2.36
  37  0.659  0.678  0.000-  16 2.25  19 2.26   1 2.26
  38  0.659  0.678  0.162-  17 2.25  20 2.26   2 2.26  19 2.36   1 2.36
  39  0.659  0.678  0.323-  18 2.25  21 2.26   3 2.26  20 2.36   2 2.36
  40  0.659  0.678  0.485-  21 2.36   3 2.36
  41  0.325  0.011  0.054-  10 2.25  22 2.26   4 2.26
  42  0.325  0.011  0.216-  11 2.25  23 2.26   5 2.26  22 2.36   4 2.36
  43  0.325  0.011  0.377-  12 2.25  24 2.26   6 2.26  23 2.36   5 2.36
  44  0.992  0.344  0.108-  13 2.25  26 2.26   8 2.26  25 2.36   7 2.36
  45  0.992  0.344  0.269-  14 2.25  27 2.26   9 2.26  26 2.36   8 2.36
  46  0.322  0.341  0.000-  25 2.25  10 2.26   1 2.26
  47  0.322  0.341  0.162-  26 2.25  11 2.26   2 2.26   1 2.36  10 2.36
  48  0.322  0.341  0.323-  27 2.25  12 2.26   3 2.26   2 2.36  11 2.36
  49  0.322  0.341  0.485-   3 2.36  12 2.36
  50  0.989  0.675  0.054-  19 2.25  13 2.26   4 2.26
  51  0.989  0.675  0.216-  20 2.25  14 2.26   5 2.26   4 2.36  13 2.36
  52  0.989  0.675  0.377-  21 2.25  15 2.26   6 2.26   5 2.36  14 2.36
  53  0.656  0.008  0.108-  22 2.25  17 2.26   8 2.26   7 2.36  16 2.36
  54  0.656  0.008  0.269-  23 2.25  18 2.26   9 2.26   8 2.36  17 2.36

  LATTYP: Found a hexagonal cell.
 ALAT       =     9.5784100000
 C/A-ratio  =     2.0272508694

  Lattice vectors:

 A1 = (   8.2951463879,  -4.7892050000,   0.0000000000)
 A2 = (   0.0000000000,   9.5784100000,   0.0000000000)
 A3 = (   0.0000000000,   0.0000000000,  19.4178400000)

Analysis of symmetry for initial positions (statically):
 Subroutine PRICEL returns:
 Original cell was already a primitive cell.

 Routine SETGRP: Setting up the symmetry group for a
 hexagonal supercell.

 Subroutine GETGRP returns: Found  6 space group operations
 (whereof  2 operations were pure point group operations)
 out of a pool of 24 trial point group operations.

The static configuration has the point symmetry C_1h.
 The point group associated with its full space group is C_3v.

Analysis of symmetry for dynamics (positions and initial velocities):
 Subroutine PRICEL returns:
 Original cell was already a primitive cell.

 Routine SETGRP: Setting up the symmetry group for a
 hexagonal supercell.

 Subroutine GETGRP returns: Found  6 space group operations
 (whereof  2 operations were pure point group operations)
 out of a pool of 24 trial point group operations.

The dynamic configuration has the point symmetry C_1h.
 The point group associated with its full space group is C_3v.

 Subroutine INISYM returns: Found  6 space group operations
 (whereof  2 operations are pure point group operations),
 and found     1 'primitive' translations

                                     Primitive cell

  volume of cell :    1542.8311

  direct lattice vectors                    reciprocal lattice vectors
     8.295146388 -4.789205000  0.000000000     0.120552423  0.000000000  0.000000000
     0.000000000  9.578410000  0.000000000     0.060276212  0.104401461  0.000000000
     0.000000000  0.000000000 19.417840000     0.000000000  0.000000000  0.051499034

  length of vectors
     9.578410000  9.578410000 19.417840000     0.120552423  0.120552423  0.051499034

  position of ions in fractional coordinates (direct lattice)
     0.458432433  0.541567567  0.076907120
     0.458432433  0.541567567  0.238577007
     0.458432433  0.541567567  0.400246894
     0.125099100  0.874900900  0.130797082
     0.125099100  0.874900900  0.292466969
     0.125099100  0.874900900  0.454136856
     0.791765767  0.208234233  0.023017157
     0.791765767  0.208234233  0.184687044
     0.791765767  0.208234233  0.346356932
     0.458432433  0.277361567  0.076907120
     0.458432433  0.277361567  0.238577007
     0.458432433  0.277361567  0.400246894
     0.125099100  0.610694900  0.130797082
     0.125099100  0.610694900  0.292466969
     0.125099100  0.610694900  0.454136856
     0.791765767  0.944028233  0.023017157
     0.791765767  0.944028233  0.184687044
     0.791765767  0.944028233  0.346356932
     0.722638433  0.541567567  0.076907120
     0.722638433  0.541567567  0.238577007
     0.722638433  0.541567567  0.400246894
     0.389305100  0.874900900  0.130797082
     0.389305100  0.874900900  0.292466969
     0.389305100  0.874900900  0.454136856
     0.055971767  0.208234233  0.023017157
     0.055971767  0.208234233  0.184687044
     0.055971767  0.208234233  0.346356932
     0.658644433  0.341355567  0.000000000
     0.658644433  0.341355567  0.161669887
     0.658644433  0.341355567  0.323339774
     0.658644433  0.341355567  0.485009661
     0.325311100  0.674688900  0.053889962
     0.325311100  0.674688900  0.215559849
     0.325311100  0.674688900  0.377229737
     0.991977767  0.008022233  0.107779925
     0.991977767  0.008022233  0.269449812
     0.658644433  0.677785567  0.000000000
     0.658644433  0.677785567  0.161669887
     0.658644433  0.677785567  0.323339774
     0.658644433  0.677785567  0.485009661
     0.325311100  0.011118900  0.053889962
     0.325311100  0.011118900  0.215559849
     0.325311100  0.011118900  0.377229737
     0.991977767  0.344452233  0.107779925
     0.991977767  0.344452233  0.269449812
     0.322214433  0.341355567  0.000000000
     0.322214433  0.341355567  0.161669887
     0.322214433  0.341355567  0.323339774
     0.322214433  0.341355567  0.485009661
     0.988881100  0.674688900  0.053889962
     0.988881100  0.674688900  0.215559849
     0.988881100  0.674688900  0.377229737
     0.655547767  0.008022233  0.107779925
     0.655547767  0.008022233  0.269449812

  ion indices of the primitive-cell ions
   primitive index   ion index
                 1           1
                 2           2
                 3           3
                 4           4
                 5           5
                 6           6
                 7           7
                 8           8
                 9           9
                10          10
                11          11
                12          12
                13          13
                14          14
                15          15
                16          16
                17          17
                18          18
[...]
      51 -91.7804      52 -91.8558      53 -91.8555      54 -91.7556

 E-fermi :   0.9233     XC(G=0):  -6.7854     alpha+bet : -6.4122

 k-point     1 :       0.0000    0.0000    0.0000
  band No.  band energies     occupation
      1     -63.2660      2.00000
      2     -63.2588      2.00000
      3     -63.2588      2.00000
      4     -63.2248      2.00000
      5     -63.2159      2.00000
      6     -63.2159      2.00000
      7     -63.1975      2.00000
      8     -63.1974      2.00000
      9     -63.1711      2.00000
     10     -63.1669      2.00000
     11     -63.1669      2.00000
     12     -63.1611      2.00000
     13     -63.1538      2.00000
     14     -63.1538      2.00000
     15     -63.1480      2.00000
     16     -63.1480      2.00000
     17     -63.1462      2.00000
     18     -63.1405      2.00000
     19     -63.1403      2.00000
     20     -63.1384      2.00000
     21     -63.1384      2.00000
     22     -63.1322      2.00000
     23     -63.1322      2.00000
     24     -63.1314      2.00000
     25     -63.1234      2.00000
     26     -63.1157      2.00000
     27     -63.0924      2.00000
     28     -63.0923      2.00000
     29     -63.0731      2.00000
     30     -63.0731      2.00000
     31     -63.0653      2.00000
     32     -63.0590      2.00000
     33     -63.0589      2.00000
     34     -63.0569      2.00000
     35     -63.0569      2.00000
     36     -63.0475      2.00000
     37     -63.0420      2.00000
     38     -63.0401      2.00000
     39     -63.0401      2.00000
     40     -63.0311      2.00000
     41     -63.0265      2.00000
     42     -63.0264      2.00000
     43     -63.0011      2.00000
     44     -62.9844      2.00000
     45     -62.9835      2.00000
     46     -62.9834      2.00000
     47     -62.9274      2.00000
     48     -62.9274      2.00000
     49     -62.9052      2.00000
     50     -62.9018      2.00000
     51     -62.8472      2.00000
     52     -62.8472      2.00000
     53     -62.8457      2.00000
     54     -62.8457      2.00000
     55     -62.6151      2.00000
     56     -62.5685      2.00000
     57     -62.5610      2.00000
     58     -62.5610      2.00000
     59     -62.5148      2.00000
     60     -62.5148      2.00000
[...]
    346       6.1411      0.00000
    347       6.2503      0.00000
    348       6.2503      0.00000
    349       6.3363      0.00000
    350       6.4440      0.00000
    351       6.4440      0.00000
    352       6.5122      0.00000
    353       6.8251      0.00000
    354       6.8251      0.00000
    355       6.9354      0.00000
    356       7.0448      0.00000
    357       7.0703      0.00000
    358       7.0705      0.00000
    359       7.0783      0.00000
    360       7.2470      0.00000

 soft charge-density along one line, spin component           1
         0         1         2         3         4         5         6         7         8         9
 total charge-density along one line

------------------------ aborting loop because EDIFF is reached ----------------------------------------

  FORCE on cell =-STRESS in cart. coord.  units (eV):
  Direction    XX          YY          ZZ          XY          YZ          ZX
  Alpha Z  1356.23626  1356.23626  1356.23626
  Ewald  148524.64082148524.64081************     0.00000    -0.00001     0.00001
  Hartree176082.80053176082.80062************    -0.00008     0.00016    -0.00009
  E(xc)   -3769.16056 -3769.15888 -3771.53739    -0.00146     0.00000     0.00003
  Local  ************************324922.12175    -0.02669    -0.00014     0.00025
  n-local  -519.51837  -519.53579  -518.42201     0.01508     0.01265    -0.00754
  augment  4346.75549  4346.73799  4338.05945     0.01508    -0.00031    -0.00001
  Kinetic  8227.14188  8227.14400  8235.86412    -0.00183    -0.00056     0.00039
  Fock        0.00000     0.00000     0.00000     0.00000     0.00000     0.00000
  Total     -20.63239   -20.63239   -32.22445     0.00000    -0.00000    -0.00000
  in kB     -21.42603   -21.42603   -33.46399     0.00000    -0.00000    -0.00000

 VOLUME and BASIS-vectors are now :
  energy-cutoff  :      450.00
  volume of cell :     1542.83
      direct lattice vectors                 reciprocal lattice vectors
     8.295146388 -4.789205000  0.000000000     0.120552423  0.000000000  0.000000000
     0.000000000  9.578410000  0.000000000     0.060276212  0.104401461  0.000000000
     0.000000000  0.000000000 19.417840000     0.000000000  0.000000000  0.051499034

  length of vectors
     9.578410000  9.578410000 19.417840000     0.120552423  0.120552423  0.051499034

 FORCES acting on ions
    electron-ion (+dipol)            ewald-force                    non-local-force                 convergence-correction
   0.304E+03 -.526E+03 0.337E+04   -.306E+03 0.529E+03 -.337E+04   0.167E+01 -.289E+01 0.374E+01   0.124E-01 -.215E-01 0.540E-01
   0.272E+03 -.471E+03 -.193E+03   -.272E+03 0.472E+03 0.191E+03   0.440E+00 -.762E+00 0.120E+01   0.220E-01 -.381E-01 0.359E+00
   0.272E+03 -.471E+03 -.359E+04   -.272E+03 0.471E+03 0.359E+04   -.122E+00 0.211E+00 -.505E+01   0.354E-01 -.614E-01 -.238E+00
   0.195E+03 -.339E+03 0.247E+04   -.196E+03 0.339E+03 -.247E+04   0.386E+00 -.668E+00 0.430E+01   -.600E-01 0.104E+00 0.143E+00
   0.297E+03 -.514E+03 -.137E+04   -.297E+03 0.514E+03 0.137E+04   0.581E+00 -.101E+01 0.999E+00   -.211E+00 0.366E+00 0.145E+00
   0.439E+03 -.761E+03 -.430E+04   -.433E+03 0.750E+03 0.430E+04   -.587E+01 0.102E+02 0.703E+01   -.169E+00 0.294E+00 -.724E-01
   0.240E+03 -.416E+03 0.426E+04   -.241E+03 0.418E+03 -.425E+04   0.697E+00 -.121E+01 -.254E+01   0.315E-01 -.545E-01 -.238E-01
   0.251E+03 -.435E+03 0.933E+03   -.252E+03 0.436E+03 -.934E+03   0.555E+00 -.962E+00 0.706E+00   0.768E-01 -.133E+00 0.608E+00
   0.119E+03 -.205E+03 -.305E+04   -.118E+03 0.204E+03 0.304E+04   -.136E+01 0.236E+01 0.374E+01   0.337E+00 -.584E+00 -.816E-02
   0.304E+03 0.526E+03 0.337E+04   -.306E+03 -.529E+03 -.337E+04   0.167E+01 0.289E+01 0.374E+01   0.124E-01 0.216E-01 0.540E-01
   0.272E+03 0.471E+03 -.193E+03   -.272E+03 -.472E+03 0.191E+03   0.440E+00 0.762E+00 0.120E+01   0.220E-01 0.381E-01 0.359E+00
   0.272E+03 0.471E+03 -.359E+04   -.272E+03 -.471E+03 0.359E+04   -.122E+00 -.211E+00 -.505E+01   0.354E-01 0.614E-01 -.238E+00
   0.195E+03 0.339E+03 0.247E+04   -.196E+03 -.339E+03 -.247E+04   0.386E+00 0.668E+00 0.430E+01   -.600E-01 -.104E+00 0.143E+00
   0.297E+03 0.514E+03 -.137E+04   -.297E+03 -.514E+03 0.137E+04   0.581E+00 0.101E+01 0.999E+00   -.211E+00 -.366E+00 0.145E+00
   0.439E+03 0.761E+03 -.430E+04   -.433E+03 -.750E+03 0.430E+04   -.587E+01 -.102E+02 0.703E+01   -.169E+00 -.294E+00 -.724E-01
   0.240E+03 0.416E+03 0.426E+04   -.241E+03 -.418E+03 -.425E+04   0.697E+00 0.121E+01 -.254E+01   0.315E-01 0.545E-01 -.238E-01
   0.251E+03 0.435E+03 0.933E+03   -.252E+03 -.436E+03 -.934E+03   0.555E+00 0.962E+00 0.706E+00   0.768E-01 0.133E+00 0.608E+00
   0.119E+03 0.205E+03 -.305E+04   -.118E+03 -.204E+03 0.304E+04   -.136E+01 -.236E+01 0.374E+01   0.337E+00 0.584E+00 -.817E-02
   -.608E+03 -.499E-03 0.337E+04   0.611E+03 -.637E-05 -.337E+04   -.334E+01 0.238E-16 0.374E+01   -.249E-01 0.141E-04 0.540E-01
   -.544E+03 -.525E-03 -.193E+03   0.545E+03 -.685E-05 0.191E+03   -.879E+00 0.158E-16 0.120E+01   -.440E-01 0.195E-04 0.359E+00
   -.544E+03 -.514E-03 -.359E+04   0.544E+03 -.398E-05 0.359E+04   0.244E+00 -.911E-17 -.505E+01   -.708E-01 0.100E-04 -.238E+00
   -.391E+03 0.575E-03 0.247E+04   0.392E+03 0.416E-05 -.247E+04   -.772E+00 -.175E-16 0.430E+01   0.120E+00 -.998E-05 0.143E+00
   -.593E+03 0.513E-03 -.137E+04   0.594E+03 0.426E-05 0.137E+04   -.116E+01 0.124E-17 0.999E+00   0.422E+00 -.946E-05 0.145E+00
   -.879E+03 0.443E-03 -.430E+04   0.866E+03 0.276E-05 0.430E+04   0.117E+02 0.140E-15 0.703E+01   0.339E+00 -.796E-05 -.724E-01
   -.480E+03 0.523E-04 0.426E+04   0.482E+03 0.763E-06 -.425E+04   -.139E+01 -.750E-17 -.254E+01   -.629E-01 -.394E-05 -.238E-01
   -.502E+03 0.378E-04 0.933E+03   0.503E+03 0.261E-05 -.934E+03   -.111E+01 -.217E-16 0.706E+00   -.154E+00 -.184E-05 0.608E+00
   -.237E+03 0.257E-04 -.305E+04   0.235E+03 0.266E-05 0.304E+04   0.272E+01 0.833E-16 0.374E+01   -.674E+00 -.875E-07 -.817E-02
   -.227E+02 0.393E+02 0.181E+04   0.226E+02 -.392E+02 -.181E+04   0.418E+00 -.723E+00 0.494E+01   0.973E-02 -.169E-01 -.509E-01
   -.873E+02 0.151E+03 0.616E+03   0.886E+02 -.153E+03 -.616E+03   -.128E+01 0.222E+01 0.954E-01   0.159E-01 -.275E-01 0.112E+00
   -.111E+03 0.192E+03 -.726E+03   0.112E+03 -.194E+03 0.726E+03   -.108E+01 0.187E+01 0.332E-01   0.971E-01 -.168E+00 0.793E-01
   -.123E+03 0.213E+03 -.174E+04   0.124E+03 -.214E+03 0.175E+04   -.965E+00 0.167E+01 -.503E+01   0.300E-01 -.520E-01 -.868E-01
   0.262E+02 -.454E+02 0.166E+04   -.267E+02 0.462E+02 -.166E+04   0.480E+00 -.832E+00 0.536E+01   0.893E-02 -.155E-01 -.255E-01
   -.763E+02 0.132E+03 0.198E+03   0.778E+02 -.135E+03 -.198E+03   -.144E+01 0.250E+01 0.457E+00   0.365E-01 -.633E-01 0.891E-01
   -.938E+02 0.163E+03 -.110E+04   0.948E+02 -.164E+03 0.110E+04   -.116E+01 0.201E+01 0.871E+00   0.742E-01 -.128E+00 -.646E-01
   -.111E+03 0.192E+03 0.107E+04   0.112E+03 -.194E+03 -.107E+04   -.115E+01 0.199E+01 -.412E+00   -.247E-01 0.428E-01 0.717E-01
   -.684E+02 0.118E+03 -.337E+03   0.697E+02 -.121E+03 0.336E+03   -.130E+01 0.225E+01 0.128E+01   -.143E+00 0.248E+00 0.316E+00
   -.227E+02 -.393E+02 0.181E+04   0.226E+02 0.392E+02 -.181E+04   0.418E+00 0.723E+00 0.494E+01   0.973E-02 0.169E-01 -.509E-01
   -.873E+02 -.151E+03 0.616E+03   0.886E+02 0.153E+03 -.616E+03   -.128E+01 -.222E+01 0.954E-01   0.159E-01 0.275E-01 0.112E+00
   -.111E+03 -.192E+03 -.726E+03   0.112E+03 0.194E+03 0.726E+03   -.108E+01 -.187E+01 0.332E-01   0.971E-01 0.168E+00 0.793E-01
   -.123E+03 -.213E+03 -.174E+04   0.124E+03 0.214E+03 0.175E+04   -.965E+00 -.167E+01 -.503E+01   0.300E-01 0.520E-01 -.868E-01
   0.262E+02 0.454E+02 0.166E+04   -.267E+02 -.462E+02 -.166E+04   0.480E+00 0.832E+00 0.536E+01   0.893E-02 0.155E-01 -.255E-01
   -.763E+02 -.132E+03 0.198E+03   0.778E+02 0.135E+03 -.198E+03   -.144E+01 -.250E+01 0.457E+00   0.365E-01 0.633E-01 0.891E-01
   -.938E+02 -.163E+03 -.110E+04   0.948E+02 0.164E+03 0.110E+04   -.116E+01 -.201E+01 0.871E+00   0.742E-01 0.128E+00 -.646E-01
   -.111E+03 -.192E+03 0.107E+04   0.112E+03 0.194E+03 -.107E+04   -.115E+01 -.199E+01 -.412E+00   -.247E-01 -.428E-01 0.717E-01
   -.684E+02 -.118E+03 -.337E+03   0.697E+02 0.121E+03 0.336E+03   -.130E+01 -.225E+01 0.128E+01   -.143E+00 -.248E+00 0.316E+00
   0.453E+02 -.107E-04 0.181E+04   -.453E+02 0.447E-06 -.181E+04   -.835E+00 0.278E-16 0.494E+01   -.195E-01 0.163E-05 -.509E-01
   0.175E+03 0.463E-05 0.616E+03   -.177E+03 -.176E-06 -.616E+03   0.256E+01 -.164E-16 0.954E-01   -.317E-01 0.299E-05 0.112E+00
   0.222E+03 0.124E-04 -.726E+03   -.224E+03 -.330E-06 0.726E+03   0.216E+01 0.201E-16 0.332E-01   -.194E+00 0.274E-05 0.793E-01
   0.245E+03 0.206E-04 -.174E+04   -.247E+03 -.724E-06 0.175E+04   0.193E+01 0.271E-16 -.503E+01   -.600E-01 0.172E-05 -.868E-01
   -.525E+02 0.218E-04 0.166E+04   0.534E+02 -.182E-05 -.166E+04   -.961E+00 0.130E-16 0.536E+01   -.179E-01 0.201E-05 -.255E-01
   0.153E+03 0.152E-04 0.198E+03   -.156E+03 -.214E-05 -.198E+03   0.288E+01 0.410E-16 0.457E+00   -.731E-01 0.213E-05 0.891E-01
   0.188E+03 0.272E-04 -.110E+04   -.190E+03 -.155E-05 0.110E+04   0.232E+01 -.313E-16 0.871E+00   -.148E+00 0.170E-05 -.646E-01
   0.222E+03 0.908E-04 0.107E+04   -.224E+03 0.236E-05 -.107E+04   0.229E+01 -.186E-16 -.412E+00   0.494E-01 -.474E-05 0.717E-01
   0.137E+03 0.969E-04 -.337E+03   -.139E+03 0.248E-05 0.336E+03   0.260E+01 0.209E-16 0.128E+01   0.286E+00 -.534E-05 0.316E+00
   0.930E-03 -.818E-03 -.695E+02   -.134E-11 0.916E-12 0.387E-11   -.444E-15 0.528E-15 0.652E+02   -.339E-06 0.579E-06 0.422E+01

 POSITION                                       TOTAL-FORCE (eV/Angst)
      3.80276      2.99183      1.49337        -0.126238      0.218651     -0.217121
      3.80276      2.99183      4.63265         0.184024     -0.318739     -0.076718
      3.80276      2.99183      7.77193         0.005915     -0.010246      0.866239
      1.03772      7.78103      2.53980         0.028705     -0.049718     -0.350035
      1.03772      7.78103      5.67908         0.061403     -0.106353      0.211120
      1.03772      7.78103      8.81836         0.357624     -0.619424     -1.330674
      6.56781     -1.79738      0.44694        -0.105639      0.182973      0.955018
      6.56781     -1.79738      3.58622        -0.070311      0.121783     -0.095433
      6.56781     -1.79738      6.72550        -0.065898      0.114139     -1.061012
      3.80276      0.46116      1.49337        -0.126238     -0.218651     -0.217121
      3.80276      0.46116      4.63265         0.184024      0.318739     -0.076718
      3.80276      0.46116      7.77193         0.005915      0.010246      0.866239
      1.03772      5.25036      2.53980         0.028705      0.049718     -0.350035
      1.03772      5.25036      5.67908         0.061403      0.106353      0.211120
      1.03772      5.25036      8.81836         0.357624      0.619424     -1.330674
      6.56781      5.25036      0.44694        -0.105639     -0.182973      0.955018
      6.56781      5.25036      3.58622        -0.070311     -0.121783     -0.095433
      6.56781      5.25036      6.72550        -0.065898     -0.114139     -1.061012
      5.99439      1.72649      1.49337         0.252477     -0.000000     -0.217121
      5.99439      1.72649      4.63265        -0.368048     -0.000000     -0.076718
      5.99439      1.72649      7.77193        -0.011831     -0.000000      0.866239
      3.22934      6.51570      2.53980        -0.057409     -0.000000     -0.350035
      3.22934      6.51570      5.67908        -0.122806     -0.000000      0.211120
      3.22934      6.51570      8.81836        -0.715249     -0.000000     -1.330674
      0.46429      1.72649      0.44694         0.211279     -0.000000      0.955018
      0.46429      1.72649      3.58622         0.140623     -0.000000     -0.095433
      0.46429      1.72649      6.72550         0.131796     -0.000000     -1.061012
      5.46355      0.11526      0.00000         0.390924     -0.677100      0.377197
      5.46355      0.11526      3.13928         0.016678     -0.028887      0.022086
      5.46355      0.11526      6.27856         0.096934     -0.167894      0.528180
      5.46355      0.11526      9.41784        -0.149404      0.258775     -1.550001
      2.69850      4.90447      1.04643         0.020919     -0.036234      0.353366
      2.69850      4.90447      4.18571         0.032588     -0.056445     -0.029931
      2.69850      4.90447      7.32499        -0.114095      0.197618      1.479506
      8.22860     -4.67394      2.09285        -0.098155      0.170010     -1.015904
      8.22860     -4.67394      5.23213        -0.123320      0.213596      0.934118
      5.46355      3.33772      0.00000         0.390924      0.677100      0.377197
      5.46355      3.33772      3.13928         0.016678      0.028887      0.022086
      5.46355      3.33772      6.27856         0.096934      0.167894      0.528180
      5.46355      3.33772      9.41784        -0.149404     -0.258775     -1.550001
      2.69850     -1.45148      1.04643         0.020919      0.036234      0.353366
      2.69850     -1.45148      4.18571         0.032588      0.056445     -0.029931
      2.69850     -1.45148      7.32499        -0.114095     -0.197618      1.479506
      8.22860     -1.45148      2.09285        -0.098155     -0.170010     -1.015904
      8.22860     -1.45148      5.23213        -0.123320     -0.213596      0.934118
      2.67282      1.72649      0.00000        -0.781847     -0.000000      0.377197
      2.67282      1.72649      3.13928        -0.033356     -0.000000      0.022086
      2.67282      1.72649      6.27856        -0.193867     -0.000000      0.528180
      2.67282      1.72649      9.41784         0.298808     -0.000000     -1.550001
      8.20291      1.72649      1.04643        -0.041839     -0.000000      0.353366
      8.20291      1.72649      4.18571        -0.065177     -0.000000     -0.029931
      8.20291      1.72649      7.32499         0.228190     -0.000000      1.479506
      5.43786     -3.06271      2.09285         0.196310     -0.000000     -1.015904
      5.43786     -3.06271      5.23213         0.246640     -0.000000      0.934118
    total drift:                                0.000930     -0.000818     -0.050165

  FREE ENERGIE OF THE ION-ELECTRON SYSTEM (eV)
  free  energy   TOTEN  =      -264.66513029 eV

  energy  without entropy=     -263.77540365  energy(sigma->0) =     -264.22026697