 vasp.5.4.4.18Apr17-6-g9f103f2a35 (build Aug 13 2019 17:33:20) gamma-only

 executed on             LinuxIFC date 2020.05.11  18:05:52

 INCAR:
 POTCAR:    PAW_PBE Ni_pv 06Sep2000
 POTCAR:    PAW_PBE S 06Sep2000
 POTCAR:    PAW_PBE Ni_pv 06Sep2000
   VRHFIN =Ni:

   TITEL  = PAW_PBE Ni_pv 06Sep2000
   POMASS =   58.690; ZVAL   =   16.000    mass and valenz
   ENMAX  =  367.986; ENMIN  =  275.989 eV

 POTCAR:    PAW_PBE S 06Sep2000
   VRHFIN =S : s2p4

   TITEL  = PAW_PBE S 06Sep2000
   POMASS =   32.066; ZVAL   =    6.000    mass and valenz
   ENMAX  =  258.689; ENMIN  =  194.016 eV

 Optimization of the real space projectors (new method)

 maximal supplied QI-value         = 18.90
 optimisation between [QCUT,QGAM] = [ 10.77, 21.73] = [ 32.49,132.25] Ry
 Optimized for a Real-space Cutoff    1.38 Angstroem

   l    n(q)    QCUT    max X(q) W(low)/X(q) W(high)/X(q)  e(spline)
   1      8    10.771     2.836    0.40E-04    0.29E-04    0.12E-06
   1      8    10.771     4.023    0.10E-03    0.48E-04    0.29E-06
   2      8    10.771    73.368    0.42E-03    0.97E-04    0.44E-06
   2      8    10.771    69.010    0.42E-03    0.99E-04    0.45E-06
   0      9    10.771    54.797    0.10E-03    0.56E-04    0.74E-07
   0      9    10.771    24.266    0.89E-04    0.49E-04    0.67E-07
 Optimization of the real space projectors (new method)

 maximal supplied QI-value         = 19.84
 optimisation between [QCUT,QGAM] = [ 10.71, 21.63] = [ 32.15,130.99] Ry
 Optimized for a Real-space Cutoff    1.19 Angstroem

   l    n(q)    QCUT    max X(q) W(low)/X(q) W(high)/X(q)  e(spline)
   0      8    10.715   187.594    0.41E-03    0.53E-04    0.66E-07
   0      8    10.715   164.243    0.41E-03    0.53E-04    0.65E-07
   1      7    10.715    67.533    0.19E-03    0.59E-03    0.68E-07
   1      7    10.715    50.729    0.19E-03    0.58E-03    0.67E-07
  PAW_PBE Ni_pv 06Sep2000               :
  PAW_PBE S 06Sep2000                   :

 POSCAR: Type_036 Type_136
  positions in cartesian coordinates
 exchange correlation table for  LEXCH =        8
   RHO(1)=    0.500       N(1)  =     2000
   RHO(2)=  100.500       N(2)  =     4000

 ion  position               nearest neighbor table
   1  0.780  0.145  0.121-  63 2.07  49 2.08  41 2.25  50 2.36  64 2.36
   2  0.798  0.145  0.285-  64 2.04  50 2.04  42 2.06
   3  0.215  0.661  0.097-  43 2.03  44 2.09  51 2.22   4 2.38  61 2.43  26 2.48
   4  0.297  0.645  0.216-  62 2.10  52 2.12  44 2.25  51 2.26  61 2.26   3 2.38  27 2.53  16 2.53

   5  0.389  0.172  0.117-  45 2.04  46 2.06  53 2.18  17 2.45  67 2.52   6 2.53
   6  0.470  0.145  0.248-  54 2.04  68 2.08  46 2.23  53 2.26  67 2.26   5 2.53  30 2.53  18 2.53

[...]

   8  0.951  0.644  0.305-  48 2.01  65 2.05  55 2.06   7 2.47
   9  0.125  0.145  0.184-  71 2.08  57 2.11  72 2.17  38 2.25  10 2.31  58 2.36  32 2.38  33 2.53
                            21 2.53
  10  0.084  0.163  0.320-  37 2.02  72 2.19  58 2.21   9 2.31
  11  0.580  0.642  0.148-  39 2.04  69 2.12  40 2.12  59 2.17  12 2.37
  12  0.642  0.645  0.280-  70 2.02  60 2.03  40 2.22  59 2.26  69 2.26  11 2.37  36 2.53  23 2.53

[...]

  37  0.973  0.147  0.367-  10 2.02  25 2.05  14 2.06
  38  0.991  0.145  0.182-  14 2.08  25 2.10  13 2.19  24 2.20   9 2.25
  39  0.474  0.645  0.087-  26 2.03  11 2.04  15 2.14  27 2.26  16 2.26
  40  0.512  0.643  0.259-  28 2.05  11 2.12  12 2.22  16 2.22  27 2.25
  41  0.647  0.145  0.119-  17 2.02   1 2.25  30 2.26  18 2.26  29 2.49  42 2.76
  42  0.676  0.144  0.287-   2 2.06  18 2.10  30 2.11  41 2.76
  43  0.112  0.644  0.032-   3 2.03  19 2.06  31 2.07
  44  0.164  0.645  0.214-  20 2.03   3 2.09   4 2.25  31 2.36  19 2.36
  45  0.281  0.145  0.062-   5 2.04  21 2.06  33 2.07
  46  0.339  0.140  0.232-  34 2.06   5 2.06   6 2.23  21 2.23  33 2.29  72 2.78
  47  0.819  0.645  0.151-  35 2.20   7 2.25  36 2.26  23 2.26  22 2.37
  48  0.835  0.646  0.331-   8 2.01  36 2.08  23 2.08
  49  0.817  0.292  0.035-  22 2.02  24 2.06   1 2.08
  50  0.829  0.314  0.214-   2 2.04  24 2.10  22 2.15  25 2.18  23 2.25   1 2.36
  51  0.312  0.814  0.119-  26 2.03   3 2.22  21 2.25   4 2.26  27 2.26
  52  0.361  0.778  0.298-  27 2.04  28 2.05   4 2.12
  53  0.484  0.314  0.151-  17 2.07  15 2.08  29 2.15   5 2.18  16 2.25  30 2.26   6 2.26
  54  0.522  0.293  0.320-  30 2.03   6 2.04  68 2.78
  55  0.001  0.814  0.246-  32 2.03   8 2.06  14 2.14   7 2.36  31 2.36  56 2.79
  56  0.967  0.820  0.078-   7 2.08  13 2.09  31 2.11  55 2.79
  57  0.141  0.324  0.110-  19 2.10  33 2.10   9 2.11  58 2.79
  58  0.174  0.314  0.278-  20 2.03  34 2.05  10 2.21   9 2.36  33 2.36  72 2.54  57 2.79
  59  0.657  0.814  0.183-  11 2.17  18 2.25  36 2.26  12 2.26  35 2.32  60 2.75
  60  0.691  0.799  0.349-  12 2.03  36 2.03  59 2.75
  61  0.312  0.477  0.119-  26 2.05  33 2.25   4 2.26  16 2.26   3 2.43  15 2.49
  62  0.346  0.486  0.290-  34 2.02  16 2.10   4 2.10
  63  0.817  0.997  0.036-  35 2.02  13 2.06   1 2.07
  64  0.829  0.977  0.214-   2 2.04  13 2.10  35 2.14  14 2.23  36 2.25   1 2.36
  65  0.001  0.477  0.246-  20 2.01   8 2.05  25 2.17   7 2.36  19 2.36  66 2.77
  66  0.968  0.470  0.079-   7 2.08  19 2.09  24 2.09  65 2.77
  67  0.484  0.977  0.151-  17 2.04  27 2.25  18 2.26   6 2.26   5 2.52
  68  0.525  0.003  0.326-  28 2.00  18 2.07   6 2.08  54 2.78
  69  0.657  0.477  0.183-  29 2.10  11 2.12  22 2.20  30 2.25  23 2.26  12 2.26  70 2.78
  70  0.692  0.495  0.350-  12 2.02  23 2.03  69 2.78
  71  0.140  0.963  0.116-  31 2.06  21 2.08   9 2.08  32 2.19
  72  0.191  0.050  0.284-  32 2.01   9 2.17  10 2.19  21 2.30  58 2.54  46 2.78

  LATTYP: Found a simple orthorhombic cell.
 ALAT       =     9.5784100000
 B/A-ratio  =     1.6880763216
 C/A-ratio  =     1.7627867312

  Lattice vectors:

 A1 = (   0.0000000000,   9.5784100000,   0.0000000000)
 A2 = (   0.0000000000,   0.0000000000, -16.1690871197)
 A3 = ( -16.8846940542,   0.0000000000,   0.0000000000)

Analysis of symmetry for initial positions (statically):
 Subroutine PRICEL returns:
 Original cell was already a primitive cell.

 Routine SETGRP: Setting up the symmetry group for a
 simple orthorhombic supercell.

 Subroutine GETGRP returns: Found  1 space group operations
 (whereof  1 operations were pure point group operations)
 out of a pool of  8 trial point group operations.

The static configuration has the point symmetry C_1 .

Analysis of symmetry for dynamics (positions and initial velocities):
 Subroutine PRICEL returns:
 Original cell was already a primitive cell.

 Routine SETGRP: Setting up the symmetry group for a
 simple orthorhombic supercell.

 Subroutine GETGRP returns: Found  1 space group operations
 (whereof  1 operations were pure point group operations)
 out of a pool of  8 trial point group operations.

The dynamic configuration has the point symmetry C_1 .

 Subroutine INISYM returns: Found  1 space group operations
 (whereof  1 operations are pure point group operations),
 and found     1 'primitive' translations

 KPOINTS: gamma-point-only calculation. no periodi

Automatic generation of k-mesh.
Space group operators:
 irot       det(A)        alpha          n_x          n_y          n_z        tau_x        tau_y        tau_z
    1     1.000000     0.000000     1.000000     0.000000     0.000000     0.000000     0.000000     0.000000

 Subroutine IBZKPT returns following result:

 Found      1 irreducible k-points:

 Following reciprocal coordinates:
            Coordinates               Weight
  0.000000  0.000000  0.000000      1.000000

 Following cartesian coordinates:
            Coordinates               Weight
  0.000000  0.000000  0.000000      1.000000

 SYSTEM =  "Millerite NiS"
 POSCAR =  Type_036 Type_136

 Startparameter for this run:
   NWRITE =      2    write-flag & timer
   PREC   = normal    normal or accurate (medium, high low for compatibility)
   ISTART =      0    job   : 0-new  1-cont  2-samecut
   ICHARG =      2    charge: 1-file 2-atom 10-const
   ISPIN  =      1    spin polarized calculation?
   LNONCOLLINEAR =      F non collinear calculations
   LSORBIT =      F    spin-orbit coupling
   INIWAV =      1    electr: 0-lowe 1-rand  2-diag
   LASPH  =      F    aspherical Exc in radial PAW
   METAGGA=      F    non-selfconsistent MetaGGA calc.

 Electronic Relaxation 1
   ENCUT  =  450.0 eV  33.07 Ry    5.75 a.u.  29.20 16.57 27.97*2*pi/ulx,y,z
   ENINI  =  450.0     initial cutoff
   ENAUG  =  703.4 eV  augmentation charge cutoff
   NELM   =    100;   NELMIN=  2; NELMDL= -5     # of ELM steps
   EDIFF  = 0.1E-03   stopping-criterion for ELM
   LREAL  =      T    real-space projection
   NLSPLINE    = F    spline interpolate recip. space projectors
   LCOMPAT=      F    compatible to vasp.4.4
   GGA_COMPAT  = T    GGA compatible to vasp.4.4-vasp.4.6
   LMAXPAW     = -100 max onsite density
   LMAXMIX     =    2 max onsite mixed and CHGCAR
   VOSKOWN=      0    Vosko Wilk Nusair interpolation
   ROPT   =   -0.00050  -0.00050
 Ionic relaxation
   EDIFFG = 0.1E-02   stopping-criterion for IOM
   NSW    =      0    number of steps for IOM
   NBLOCK =      1;   KBLOCK =      1    inner block; outer block
   IBRION =     -1    ionic relax: 0-MD 1-quasi-New 2-CG
   NFREE  =      0    steps in history (QN), initial steepest desc. (CG)
   ISIF   =      2    stress and relaxation
   IWAVPR =     10    prediction:  0-non 1-charg 2-wave 3-comb
   ISYM   =      2    0-nonsym 1-usesym 2-fastsym
   LCORR  =      T    Harris-Foulkes like correction to forces

   POTIM  = 0.5000    time-step for ionic-motion
   TEIN   =    0.0    initial temperature
   TEBEG  =    0.0;   TEEND  =   0.0 temperature during run
   SMASS  =  -3.00    Nose mass-parameter (am)
   estimated Nose-frequenzy (Omega)   =  0.10E-29 period in steps =****** mass=  -0.652E-26a.u.
   SCALEE = 1.0000    scale energy and forces
   NPACO  =    256;   APACO  = 16.0  distance and # of slots for P.C.
   PSTRESS=    0.0 pullay stress

  Mass of Ions in am
   POMASS =  58.69 32.07
  Ionic Valenz
   ZVAL   =  16.00  6.00
  Atomic Wigner-Seitz radii
  virtual crystal weights
   VCA    =   1.00  1.00
   NELECT =     792.0000    total number of electrons
   NUPDOWN=      -1.0000    fix difference up-down

 DOS related values:
   EMIN   =  10.00;   EMAX   =-10.00  energy-range for DOS
   EFERMI =   0.00
   ISMEAR =     0;   SIGMA  =   0.20  broadening in eV -4-tet -1-fermi 0-gaus

 Electronic relaxation 2 (details)
   IALGO  =     38    algorithm
   LDIAG  =      T    sub-space diagonalisation (order eigenvalues)
   LSUBROT=      F    optimize rotation matrix (better conditioning)
   TURBO    =      0    0=normal 1=particle mesh
   IRESTART =      0    0=no restart 2=restart with 2 vectors
   NREBOOT  =      0    no. of reboots
   NMIN     =      0    reboot dimension
   EREF     =   0.00    reference energy to select bands
   IMIX   =      4    mixing-type and parameters
     AMIX     =   0.40;   BMIX     =  1.00
     AMIX_MAG =   1.60;   BMIX_MAG =  1.00
     AMIN     =   0.10
     WC   =   100.;   INIMIX=   1;  MIXPRE=   1;  MAXMIX= -45

 Intra band minimization:
   WEIMIN = 0.0000     energy-eigenvalue tresh-hold
   EBREAK =  0.53E-07  absolut break condition
[...]
  Fock        0.00000     0.00000     0.00000     0.00000     0.00000     0.00000
  Total     115.89827   122.16007   146.19361     5.54373    -0.44458    -3.91162
  in kB      71.00933    74.84585    89.57088     3.39657    -0.27239    -2.39660

 VOLUME and BASIS-vectors are now :
  energy-cutoff  :      450.00
  volume of cell :     2615.00
      direct lattice vectors                 reciprocal lattice vectors
    16.884694054  0.000000000  0.000000000     0.059225237  0.000000000  0.000000000
     0.000000000  9.578410000  0.000000000     0.000000000  0.104401461  0.000000000
     0.000000000  0.000000000 16.169087120     0.000000000  0.000000000  0.061846411

  length of vectors
    16.884694054  9.578410000 16.169087120     0.059225237  0.104401461  0.061846411

 FORCES acting on ions
    electron-ion (+dipol)            ewald-force                    non-local-force                 convergence-correction
   0.587E+03 0.152E+03 0.202E+04   -.590E+03 -.152E+03 -.203E+04   0.371E+01 -.203E+00 0.546E+01   -.478E-02 0.556E-02 -.412E-02
   0.397E+03 0.375E+02 -.296E+04   -.402E+03 -.375E+02 0.295E+04   0.503E+01 -.593E-01 0.220E+01   0.292E-02 0.134E-01 0.206E-02
   0.100E+03 -.117E+03 0.262E+04   -.100E+03 0.117E+03 -.263E+04   0.118E+01 -.675E+00 0.683E+01   0.322E-03 -.814E-02 -.111E-01
   0.510E+03 -.247E+03 -.155E+04   -.513E+03 0.247E+03 0.156E+04   0.315E+01 -.628E-02 -.550E+01   -.159E-01 -.140E-01 -.222E-01
   0.227E+03 0.444E+03 0.224E+04   -.229E+03 -.445E+03 -.225E+04   0.248E+01 0.741E+00 0.817E+01   0.139E-01 0.157E-01 -.118E-01
   0.543E+03 0.152E+03 -.213E+04   -.547E+03 -.154E+03 0.214E+04   0.280E+01 0.838E+00 -.783E+01   0.512E-02 0.172E-01 -.136E-01
   0.469E+03 0.186E+02 0.132E+04   -.475E+03 -.186E+02 -.132E+04   0.544E+01 0.122E+00 0.353E+01   0.105E-01 -.712E-02 -.266E-02
   -.127E+03 -.648E+02 -.321E+04   0.125E+03 0.641E+02 0.321E+04   0.363E+01 0.860E+00 0.238E+00   0.786E-02 -.113E-01 0.488E-02
   0.183E+03 -.226E+03 0.896E+03   -.188E+03 0.230E+03 -.901E+03   0.452E+01 -.213E+01 0.438E+01   -.773E-03 0.794E-02 0.715E-02
   -.328E+03 -.972E+02 -.355E+04   0.326E+03 0.969E+02 0.356E+04   0.351E+01 0.514E+00 -.555E+01   0.212E-02 0.106E-01 0.282E-02
   -.300E+03 -.530E+03 0.173E+04   0.302E+03 0.531E+03 -.174E+04   -.179E+01 -.138E+01 0.355E+01   -.431E-02 -.202E-01 -.128E-01
   0.412E+03 -.134E+02 -.249E+04   -.415E+03 0.132E+02 0.250E+04   0.154E+01 0.352E+00 -.782E+01   0.210E-02 -.250E-01 -.114E-01
   -.487E+03 0.204E+03 0.243E+04   0.493E+03 -.206E+03 -.243E+04   -.519E+01 0.306E+01 0.582E+01   0.122E-01 0.274E-02 -.665E-02
   0.131E+03 0.565E+03 -.236E+04   -.131E+03 -.568E+03 0.236E+04   -.564E+00 0.245E+01 -.465E+01   0.117E-01 0.863E-02 -.320E-03
   0.290E+02 0.202E+03 0.381E+04   -.270E+02 -.201E+03 -.381E+04   -.221E+01 -.133E+01 -.224E+00   0.553E-02 0.337E-02 -.267E-02
   -.126E+03 0.273E+03 -.798E+03   0.126E+03 -.276E+03 0.803E+03   -.206E+00 0.338E+01 -.483E+01   0.541E-02 -.150E-01 -.278E-01
   -.159E+03 0.785E+03 0.331E+04   0.158E+03 -.787E+03 -.332E+04   0.187E+00 0.201E+01 0.556E+01   0.389E-02 0.191E-01 -.111E-01
   -.339E+03 0.586E+03 -.782E+03   0.343E+03 -.592E+03 0.783E+03   -.280E+01 0.547E+01 -.238E+01   -.142E-02 0.113E-01 -.191E-01
   -.531E+02 0.539E+03 0.189E+04   0.530E+02 -.544E+03 -.189E+04   0.408E+00 0.494E+01 0.391E+01   0.206E-01 0.135E-02 0.247E-02
   -.308E+03 -.292E+03 -.290E+04   0.309E+03 0.290E+03 0.290E+04   -.698E+00 0.201E+01 0.132E+01   0.605E-02 -.457E-02 -.561E-02
   -.302E+03 0.580E+03 0.822E+03   0.303E+03 -.584E+03 -.825E+03   -.470E+00 0.252E+01 0.386E+01   -.809E-03 -.477E-02 -.258E-02
   0.145E+03 -.482E+03 0.245E+04   -.147E+03 0.485E+03 -.245E+04   0.119E+01 -.907E+00 0.721E+01   -.131E-01 0.844E-02 0.133E-01
   -.214E+03 0.300E+03 -.178E+04   0.217E+03 -.303E+03 0.178E+04   -.216E+01 0.250E+01 -.519E+01   -.996E-02 -.888E-02 0.301E-02
   -.555E+03 -.236E+03 0.243E+04   0.562E+03 0.239E+03 -.243E+04   -.523E+01 -.321E+01 0.565E+01   0.128E-01 0.350E-02 0.424E-02
   0.557E+02 -.577E+03 -.227E+04   -.547E+02 0.581E+03 0.228E+04   -.166E+01 -.304E+01 -.469E+01   0.854E-02 0.894E-02 0.158E-02
   0.786E+02 -.504E+03 0.374E+04   -.803E+02 0.505E+03 -.375E+04   0.134E+01 -.266E+00 0.524E+01   -.175E-02 -.140E-01 -.884E-02
   -.565E+02 -.738E+03 0.124E+03   0.562E+02 0.743E+03 -.125E+03   0.718E+00 -.467E+01 -.961E+00   -.114E-02 -.100E-01 -.324E-01
   0.125E+03 -.518E+02 -.358E+04   -.125E+03 0.555E+02 0.358E+04   0.381E+00 -.430E+01 0.205E+01   0.276E-02 -.708E-02 0.411E-02
   -.550E+03 -.297E+03 0.314E+04   0.549E+03 0.297E+03 -.314E+04   0.155E+01 0.116E+00 0.123E+01   -.185E-01 -.898E-04 -.192E-03
   -.345E+03 -.265E+03 -.144E+04   0.350E+03 0.269E+03 0.145E+04   -.353E+01 -.392E+01 -.625E+01   -.498E-02 0.152E-01 -.210E-01
   -.204E+02 -.342E+03 0.192E+04   0.184E+02 0.343E+03 -.192E+04   0.180E+01 -.163E+01 0.386E+01   0.201E-01 -.958E-02 -.376E-02
   -.378E+03 0.577E+03 -.189E+04   0.379E+03 -.578E+03 0.189E+04   -.779E+00 0.894E+00 -.168E+01   0.308E-02 -.603E-02 -.100E-02
   0.130E+03 -.327E+03 0.110E+04   -.131E+03 0.331E+03 -.111E+04   0.107E+01 -.331E+01 0.378E+01   0.131E-02 0.190E-01 0.618E-02
   -.234E+03 0.242E+02 -.339E+04   0.235E+03 -.206E+02 0.338E+04   -.674E+00 -.370E+01 0.316E+01   -.646E-02 0.705E-02 -.593E-03
   0.479E+03 0.395E+03 0.254E+04   -.482E+03 -.398E+03 -.254E+04   0.164E+01 0.194E+01 0.742E+01   -.415E-02 -.576E-02 -.980E-02
   -.135E+03 -.374E+03 -.173E+04   0.137E+03 0.377E+03 0.173E+04   -.180E+01 -.254E+01 -.452E+01   -.350E-02 -.179E-01 -.226E-02
   0.110E+03 0.202E+02 -.173E+04   -.110E+03 -.202E+02 0.174E+04   -.968E+00 0.972E-01 -.155E+01   0.456E-02 0.476E-02 0.178E-03
   -.214E+03 -.402E+02 0.415E+03   0.215E+03 0.404E+02 -.418E+03   0.252E-01 0.277E+00 0.112E+01   0.104E-02 0.402E-02 -.451E-03
   -.278E+03 -.353E+03 0.121E+04   0.281E+03 0.356E+03 -.122E+04   -.144E+01 -.286E+01 0.259E+01   -.199E-02 -.935E-02 -.541E-02
   -.712E+01 0.149E+03 -.901E+03   0.627E+01 -.152E+03 0.907E+03   0.110E+01 0.146E+01 -.358E+01   0.580E-02 -.982E-02 -.794E-02
   -.212E+03 0.211E+03 0.911E+03   0.214E+03 -.213E+03 -.914E+03   -.523E+00 0.201E+01 0.173E+01   -.129E-01 0.605E-02 -.323E-02
   -.373E+02 0.184E+02 -.116E+04   0.384E+02 -.187E+02 0.116E+04   -.365E+00 0.358E+00 -.250E+01   -.429E-02 0.574E-02 -.289E-02
   0.760E+02 0.187E+02 0.170E+04   -.763E+02 -.189E+02 -.171E+04   0.354E+00 0.252E+00 0.217E+01   0.808E-02 -.129E-02 0.311E-02
   -.894E+02 -.132E+03 -.556E+03   0.891E+02 0.134E+03 0.562E+03   0.970E+00 -.594E+00 -.391E+01   -.205E-02 -.552E-02 -.408E-02
   0.128E+03 0.959E+02 0.156E+04   -.130E+03 -.962E+02 -.157E+04   0.137E+01 0.361E+00 0.214E+01   0.753E-03 0.287E-02 -.383E-02
   -.313E+02 0.272E+03 -.708E+03   0.308E+02 -.275E+03 0.713E+03   0.130E+01 0.199E+01 -.294E+01   -.350E-02 0.683E-02 0.316E-02
   -.255E+02 0.202E+02 0.703E+03   0.262E+02 -.204E+02 -.707E+03   -.190E+00 -.293E+00 0.217E+01   -.499E-02 -.529E-02 0.993E-03
   -.585E+02 -.727E+01 -.145E+04   0.612E+02 0.738E+01 0.146E+04   -.184E+01 -.147E+00 -.256E+01   -.265E-02 -.848E-02 -.979E-03
   0.701E+01 -.871E+02 0.171E+04   -.693E+01 0.883E+02 -.171E+04   -.433E+00 -.390E+00 0.253E+01   0.135E-02 0.282E-02 -.312E-02
   0.615E+02 -.146E+03 -.377E+03   -.612E+02 0.146E+03 0.380E+03   -.832E+00 0.725E+00 -.205E+01   0.160E-02 0.831E-02 0.361E-02
   0.220E+02 -.396E+03 0.747E+03   -.223E+02 0.400E+03 -.749E+03   -.684E+00 -.164E+01 0.223E+01   -.290E-02 -.806E-02 -.901E-02
   0.342E+03 -.163E+03 -.130E+04   -.345E+03 0.167E+03 0.131E+04   0.911E+00 -.236E+01 -.154E+01   -.695E-02 -.144E-02 0.163E-03
   0.870E+02 -.634E+02 0.190E+03   -.887E+02 0.657E+02 -.189E+03   0.893E+00 -.831E+00 -.147E+01   0.623E-02 0.585E-02 -.112E-01
   0.786E+02 -.209E+03 -.152E+04   -.794E+02 0.212E+03 0.152E+04   0.392E+00 -.142E+01 -.893E+00   0.173E-02 0.468E-02 -.409E-02
   -.663E+00 0.473E+02 -.660E+03   0.106E-01 -.468E+02 0.664E+03   -.394E+00 -.113E+01 -.257E+01   0.734E-02 0.507E-03 -.175E-03
   0.673E+02 -.448E+02 0.136E+04   -.687E+02 0.444E+02 -.136E+04   0.110E+01 0.981E+00 0.390E+01   0.393E-02 0.316E-02 -.334E-02
   0.984E+02 0.253E+02 0.110E+04   -.993E+02 -.263E+02 -.111E+04   0.147E+00 0.718E+00 0.363E+01   0.941E-03 0.720E-02 0.933E-03
   -.552E+02 -.112E+03 -.940E+03   0.550E+02 0.115E+03 0.941E+03   -.482E+00 -.335E+01 0.126E+00   0.619E-03 0.619E-02 0.181E-02
   0.836E+02 -.146E+03 0.356E+03   -.859E+02 0.148E+03 -.358E+03   0.234E+01 -.104E+01 0.137E+01   -.526E-02 -.410E-02 -.490E-02
   0.646E+02 -.253E+03 -.154E+04   -.657E+02 0.257E+03 0.154E+04   0.672E+00 -.183E+01 -.136E+01   -.205E-02 -.407E-02 0.153E-02
   0.242E+03 0.240E+03 0.738E+03   -.244E+03 -.242E+03 -.739E+03   0.143E+01 0.112E+01 -.708E-01   0.167E-02 0.352E-02 -.734E-02
   -.255E+02 -.405E+02 -.130E+04   0.264E+02 0.394E+02 0.130E+04   -.510E+00 0.942E+00 -.268E+01   -.382E-02 -.857E-02 -.669E-03
   0.781E+02 0.103E+03 0.169E+04   -.780E+02 -.104E+03 -.170E+04   -.371E+00 0.570E+00 0.271E+01   0.185E-02 -.260E-02 -.376E-02
   0.973E+02 0.143E+03 -.373E+03   -.975E+02 -.143E+03 0.377E+03   -.179E+00 -.779E+00 -.179E+01   0.261E-02 -.289E-03 -.199E-02
   0.385E+02 0.791E+02 -.549E+03   -.392E+02 -.810E+02 0.551E+03   -.418E+00 0.123E+01 -.108E+01   0.851E-02 -.509E-02 0.226E-02
   0.582E+02 0.586E+02 0.133E+04   -.598E+02 -.584E+02 -.134E+04   0.112E+01 -.970E+00 0.380E+01   0.488E-02 -.399E-02 -.109E-02
   0.691E+02 0.311E+03 0.583E+03   -.693E+02 -.314E+03 -.584E+03   -.663E+00 0.164E+01 0.168E+01   0.346E-02 0.421E-02 -.901E-02
   -.143E+02 -.553E+02 -.146E+04   0.155E+02 0.532E+02 0.146E+04   -.111E+01 0.219E+01 -.221E+01   0.233E-02 0.608E-02 -.120E-02
   -.579E+02 -.255E+02 0.892E+02   0.571E+02 0.234E+02 -.895E+02   0.978E+00 0.918E+00 -.441E+00   -.559E-02 -.176E-02 -.177E-02
   0.963E+02 0.251E+03 -.157E+04   -.976E+02 -.255E+03 0.158E+04   0.869E+00 0.176E+01 -.868E+00   0.173E-02 -.148E-02 -.623E-02
   0.458E+01 -.429E+02 0.114E+04   -.475E+01 0.446E+02 -.115E+04   -.460E+00 -.145E+01 0.526E+01   -.394E-03 -.521E-02 -.122E-02
   -.406E+03 0.202E+03 -.122E+04   0.410E+03 -.205E+03 0.122E+04   -.293E+01 0.139E+01 -.246E+01   -.183E-02 0.246E-02 0.218E-02
   -.186E+02 0.269E+01 -.330E+02   -.125E-11 -.711E-12 -.455E-11   0.187E+02 -.264E+01 0.330E+02   0.771E-01 -.116E-01 -.272E+00

 POSITION                                       TOTAL-FORCE (eV/Angst)
     13.17084      1.39171      1.94975         0.085815     -0.181593      0.894505
     13.47453      1.39057      4.60745         0.074431     -0.040516      0.974104
      3.63028      6.33086      1.56123         1.077001     -0.430289     -0.483635
      5.02033      6.18092      3.49202        -0.561566      0.157041     -0.343853
      6.56492      1.64428      1.89145         1.187356     -0.032537     -0.796850
      7.93172      1.39171      4.00611        -1.215246     -1.024146     -1.459658
     16.08224      6.18092      2.46384        -0.461654      0.073950      1.549020
     16.06476      6.17212      4.93431         0.667473      0.125426      0.848102
      2.10894      1.39171      2.97793        -0.559654      1.383959     -0.821117
      1.41136      1.56019      5.17848         1.010093      0.185520      0.195321
      9.78572      6.14521      2.39678         0.703318      0.142082     -0.974762
     10.84312      6.18092      4.52020        -0.913976      0.091490     -1.043458
     15.37809      0.02350      1.90661         0.925636      0.874657     -0.002313
     15.99572      0.10582      4.40437        -0.913791     -0.925554     -0.167098
      7.48522      4.17773      0.86429        -0.195304     -0.414650     -0.733191
      7.17375      4.91558      3.08454         0.050120      0.131489      0.433826
      8.95891      1.37086      1.42599        -0.314065     -0.053485     -1.856010
     10.08514      0.12638      3.59863         0.445633     -0.515710     -1.862291
      1.35096      4.91558      2.05636         0.321892     -0.376990      1.591263
      1.91861      4.75513      4.63864         0.152685      0.616850      1.021425
      4.26235      0.12638      2.57045         0.668628     -0.877929      1.300800
     12.94781      4.04052      1.90946        -0.563128      1.206489      0.248917
     12.99653      4.91558      4.11272         0.855820     -0.099624     -1.566075
     15.36490      2.75349      1.89587         0.930968     -0.780345      0.161917
     15.94151      2.67529      4.39991        -0.666078      0.564210     -0.376665
      6.02710      6.18796      0.93475        -0.345140      0.016822     -1.649713
      7.17375      7.44626      3.08454         0.341513      0.275706     -2.192497
      8.05426      7.78528      5.28540         0.012804     -0.594131      1.121001
      9.97080      3.64250      1.43832         0.019150      0.185775     -0.954230
     10.08514      2.65705      3.59863         1.182519     -0.228581     -0.819523
      1.35096      7.44626      2.05636        -0.162979     -0.732110      0.552293
      1.78196      8.81792      3.93899        -0.004026     -0.765135      0.344716
      4.26235      2.65705      2.57045         0.195056      0.859155      0.506375
      4.94684      2.86019      4.89656         0.102883     -0.080877      0.999876
     13.11468      8.19540      1.90549        -1.027496     -0.683812      0.396533
     12.99653      7.44626      4.11272         0.408889      0.108683     -1.438817
     16.42650      1.40609      5.94095        -0.861170      0.064121      4.207010
     16.74052      1.39171      2.94940         1.552972      0.525529     -2.496743
      8.00634      6.18092      1.40713         1.262982      0.232970     -3.090650
      8.65281      6.15650      4.18726         0.247280     -1.112766      2.104692
     10.91773      1.39171      1.92122         1.552152      0.403635     -1.182037
     11.41371      1.38008      4.63573         0.695110      0.089802      2.636863
      1.89532      6.17236      0.52098         0.009987      0.067625     -3.723579
      2.76722      6.18092      3.46349         0.584886      1.185630      1.645507
      4.74001      1.38488      1.01002         0.344977      0.086833     -4.124032
      5.71998      1.34443      3.74361         0.778635     -0.947819      1.996338
     13.82913      6.18092      2.43531         0.534644     -0.449687     -1.468886
     14.09527      6.18290      5.34791         0.893767     -0.041898      2.774912
     13.79826      2.79966      0.55930        -0.354602      0.768551     -3.936658
     13.99844      3.00295      3.46826        -0.590650      1.467337      1.653273
      5.26426      7.79215      1.92599        -0.941596      1.748255      0.139909
      6.08958      7.44853      4.81783        -1.727331      1.300938      2.809583
      8.17565      3.00295      2.44008        -0.767063      1.466199     -0.370723
      8.81155      2.80682      5.17554        -0.444417      1.701742      3.532735
      0.02514      7.79215      3.98236        -1.040293     -0.661294      1.338798
     16.33003      7.85232      1.25719        -0.346710      0.589756     -2.810912
      2.37328      3.10460      1.77075        -0.748140     -0.179509     -2.627889
      2.93654      3.00295      4.49645        -0.719005      0.386013      1.416638
     11.08705      7.79215      2.95417         0.067191      1.274002     -1.183727
     11.66871      7.65458      5.63893        -0.357332      1.724516      3.524559
      5.26426      4.56969      1.92599        -0.653912     -1.173241     -0.806506
      5.84163      4.65663      4.68433         0.376273     -0.139536      2.471796
     13.79991      9.54831      0.57712        -0.244300     -0.691407     -3.952300
     13.99844      9.35889      3.46826        -0.405530     -1.378093      1.865863
      0.02514      4.56969      3.98236        -1.152078     -0.664805      0.866365
     16.34388      4.49747      1.27273        -0.520793     -0.732330     -2.791797
      8.17565      9.35889      2.44008        -0.935768     -1.161046     -0.163174
      8.87078      0.03195      5.27295         0.110341      0.135068      2.929699
     11.08705      4.56969      2.95417         0.202828     -1.177967     -0.735800
     11.69127      4.73745      5.65912        -0.457105     -1.749406      3.617543
      2.36698      9.22443      1.87238        -0.630107      0.244273     -2.474293
      3.22194      0.47928      4.59608         1.168301     -1.363278      2.809383
    total drift:                                0.118470      0.034432     -0.209255

  FREE ENERGIE OF THE ION-ELECTRON SYSTEM (eV)
  free  energy   TOTEN  =      -340.35987957 eV

  energy  without entropy=     -339.24612066  energy(sigma->0) =     -339.80300012