 vasp.5.4.4.18Apr17-6-g9f103f2a35 (build Aug 13 2019 17:33:20) gamma-only

 executed on             LinuxIFC date 2020.05.10  22:44:37

 INCAR:
 POTCAR:    PAW_PBE Ni_pv 06Sep2000
 POTCAR:    PAW_PBE S 06Sep2000
 POTCAR:    PAW_PBE Ni_pv 06Sep2000
   VRHFIN =Ni:

   TITEL  = PAW_PBE Ni_pv 06Sep2000
   POMASS =   58.690; ZVAL   =   16.000    mass and valenz
   ENMAX  =  367.986; ENMIN  =  275.989 eV

 POTCAR:    PAW_PBE S 06Sep2000
   VRHFIN =S : s2p4

   TITEL  = PAW_PBE S 06Sep2000
   POMASS =   32.066; ZVAL   =    6.000    mass and valenz
   ENMAX  =  258.689; ENMIN  =  194.016 eV

 Optimization of the real space projectors (new method)

 maximal supplied QI-value         = 18.90
 optimisation between [QCUT,QGAM] = [ 10.77, 21.73] = [ 32.49,132.25] Ry
 Optimized for a Real-space Cutoff    1.38 Angstroem

   l    n(q)    QCUT    max X(q) W(low)/X(q) W(high)/X(q)  e(spline)
   1      8    10.771     2.836    0.40E-04    0.29E-04    0.12E-06
   1      8    10.771     4.023    0.10E-03    0.48E-04    0.29E-06
   2      8    10.771    73.368    0.42E-03    0.97E-04    0.44E-06
   2      8    10.771    69.010    0.42E-03    0.99E-04    0.45E-06
   0      9    10.771    54.797    0.10E-03    0.56E-04    0.74E-07
   0      9    10.771    24.266    0.89E-04    0.49E-04    0.67E-07
 Optimization of the real space projectors (new method)

 maximal supplied QI-value         = 19.84
 optimisation between [QCUT,QGAM] = [ 10.71, 21.63] = [ 32.15,130.99] Ry
 Optimized for a Real-space Cutoff    1.19 Angstroem

   l    n(q)    QCUT    max X(q) W(low)/X(q) W(high)/X(q)  e(spline)
   0      8    10.715   187.594    0.41E-03    0.53E-04    0.66E-07
   0      8    10.715   164.243    0.41E-03    0.53E-04    0.65E-07
   1      7    10.715    67.533    0.19E-03    0.59E-03    0.68E-07
   1      7    10.715    50.729    0.19E-03    0.58E-03    0.67E-07
  PAW_PBE Ni_pv 06Sep2000               :
  PAW_PBE S 06Sep2000                   :

 POSCAR: Type_052 Type_152
  positions in cartesian coordinates
 exchange correlation table for  LEXCH =        8
   RHO(1)=    0.500       N(1)  =     2000
   RHO(2)=  100.500       N(2)  =     4000

 ion  position               nearest neighbor table
   1  0.261  0.479  0.291-  79 2.25  63 2.26  87 2.26  59 2.36  64 2.36   6 2.53  21 2.53
   2  0.355  0.385  0.419-  57 2.13  71 2.19  65 2.20  59 2.26  64 2.26  80 2.31   7 2.53  22 2.53

   3  0.167  0.073  0.162-  60 2.06  88 2.25  69 2.25  61 2.36  89 2.36  38 2.53  33 2.53
   4  0.045  0.051  0.497-  83 2.06  54 2.06  78 2.08  84 2.14
   5  0.274  0.333  0.128-  60 2.11  62 2.13  55 2.13  56 2.36  63 2.36  11 2.53  30 2.53
   6  0.368  0.239  0.257-  61 2.25  63 2.26  56 2.26  64 2.36  66 2.36   1 2.53  21 2.53
   7  0.462  0.145  0.385-  65 2.09  85 2.25  64 2.26  66 2.26  67 2.36   2 2.53  22 2.53
   8  0.000  0.372  0.257-  63 2.25  69 2.26 100 2.26  53 2.36  72 2.36  12 2.53  19 2.53
   9  0.094  0.278  0.385-  64 2.25  53 2.26  72 2.26  54 2.36  58 2.36  20 2.53  13 2.53
  10  0.185  0.190  0.499-  54 2.04  83 2.06  58 2.11  65 2.13
  11  0.406  0.465  0.128-  75 2.09  55 2.13  86 2.26  56 2.36  87 2.36  30 2.53   5 2.53
  12  0.761  0.479  0.291-  92 2.25  76 2.26 100 2.26  72 2.36  77 2.36  19 2.53   8 2.53
  13  0.855  0.385  0.419-  93 2.25  72 2.26  77 2.26  14 2.36  78 2.36  58 2.36  20 2.53   9 2.53

[...]

  42  0.760  0.925  0.511-  96 2.03  84 2.09 104 2.30  67 2.32  41 2.32  17 2.44
  43  0.667  0.573  0.162-  99 2.06  75 2.07  82 2.25 100 2.36  76 2.36  24 2.53  18 2.53
  44  0.555  0.542  0.496-  93 2.02  70 2.07  91 2.11  71 2.13
  45  0.716  0.025  0.045-  94 2.01  73 2.03 101 2.04  15 2.42
  46  0.774  0.833  0.128-  99 2.08 101 2.26  94 2.26  95 2.36 102 2.36  52 2.53  16 2.53
  47  0.868  0.739  0.257- 100 2.25 102 2.26  95 2.26 103 2.36  79 2.36  40 2.53  36 2.53
  48  0.962  0.645  0.385-  80 2.12  72 2.25 103 2.26  79 2.26 104 2.36  31 2.44  41 2.53  37 2.53

  49  0.500  0.872  0.257- 102 2.25  82 2.26  61 2.26  92 2.36  85 2.36  26 2.53  34 2.53
  50  0.594  0.778  0.385- 103 2.25  92 2.26  85 2.26  93 2.36  97 2.36  35 2.53  27 2.53
  51  0.688  0.691  0.498-  93 2.05  70 2.08 104 2.11  97 2.11
  52  0.906  0.965  0.128-  88 2.17  94 2.26  73 2.26  29 2.32  95 2.36  74 2.36  25 2.36  16 2.53
                            46 2.53
  53  0.073  0.167  0.306-  26 2.25   9 2.26  20 2.26   8 2.36  19 2.36
  54  0.167  0.073  0.435-  10 2.04   4 2.06  27 2.25   9 2.36  20 2.36
  55  0.373  0.367  0.055-  15 2.01  39 2.02   5 2.13  11 2.13
  56  0.479  0.261  0.178-  15 2.10  16 2.25   6 2.26  21 2.26   5 2.36  11 2.36
  57  0.256  0.456  0.500-  31 2.03   2 2.13  80 2.44  65 2.62
  58  0.030  0.378  0.478-  31 2.09  10 2.11  14 2.11   9 2.36  13 2.36
  59  0.436  0.472  0.350-  35 2.25   2 2.26  22 2.26   1 2.36  21 2.36
  60  0.261  0.155  0.111-   3 2.06  38 2.07   5 2.11  61 2.72
  61  0.342  0.066  0.221-   6 2.25  26 2.26  49 2.26   3 2.36  38 2.36  60 2.72
  62  0.080  0.480  0.107-  39 2.04  24 2.09   5 2.13  30 2.13
  63  0.174  0.397  0.221-   8 2.25   6 2.26   1 2.26   5 2.36  30 2.36
  64  0.268  0.303  0.350-   9 2.25   2 2.26   7 2.26   1 2.36   6 2.36  65 2.74
  65  0.347  0.212  0.461-  17 2.07   7 2.09  10 2.13   2 2.20  57 2.62  64 2.74
  66  0.573  0.167  0.306-  40 2.25  22 2.26   7 2.26  21 2.36   6 2.36
  67  0.667  0.073  0.435-  23 2.05  17 2.11  41 2.25  42 2.32  22 2.36   7 2.36
  68  0.848  0.391  0.061-  18 1.99  24 2.00
  69  0.979  0.261  0.178-   3 2.25  19 2.26   8 2.26  18 2.36  24 2.36
  70  0.706  0.533  0.550-  14 2.03  44 2.07  51 2.08  93 2.69
  71  0.529  0.376  0.465-  22 2.10  23 2.11  44 2.13   2 2.19
  72  0.936  0.472  0.350-  48 2.25  13 2.26   9 2.26  12 2.36   8 2.36
  73  0.748  0.160  0.093-  45 2.03  18 2.25  16 2.26  52 2.26  15 2.26
  74  0.842  0.066  0.221-  19 2.25  40 2.26  36 2.26  16 2.36  52 2.36
  75  0.582  0.479  0.111-  43 2.07  18 2.08  11 2.09  76 2.73
  76  0.674  0.397  0.221-  21 2.25  19 2.26  12 2.26  18 2.36  43 2.36  75 2.73
  77  0.768  0.303  0.350-  22 2.25  13 2.26  20 2.26  12 2.36  19 2.36
  78  0.862  0.209  0.478-   4 2.08  14 2.10  23 2.13  13 2.36  20 2.36
  79  0.073  0.667  0.306-   1 2.25  37 2.26  48 2.26  36 2.36  47 2.36  80 2.60
  80  0.163  0.582  0.411-  37 2.06  31 2.08  48 2.12   2 2.31  57 2.44  79 2.60
  81  0.346  0.886  0.057-  33 2.02  32 2.09  38 2.11
  82  0.479  0.761  0.178-  43 2.25  34 2.26  49 2.26  33 2.36  38 2.36
  83  0.179  0.054  0.557-  28 2.01  10 2.06   4 2.06
  84  0.935  0.938  0.490-  41 2.08  42 2.09   4 2.14
  85  0.436  0.972  0.350-   7 2.25  27 2.26  50 2.26  26 2.36  49 2.36
  86  0.248  0.660  0.093-  29 1.97  39 2.06  32 2.22  33 2.25  30 2.26  11 2.26
  87  0.342  0.566  0.221-  34 2.25   1 2.26  21 2.26  30 2.36  11 2.36
  88  0.083  0.979  0.098-  25 2.09  32 2.12  33 2.15  52 2.17   3 2.25
  89  0.174  0.897  0.221-  36 2.25  34 2.26  26 2.26  33 2.36   3 2.36
  90  0.268  0.803  0.350-  37 2.25  27 2.26  35 2.26  26 2.36  34 2.36
  91  0.395  0.725  0.473-  27 2.06  44 2.11  35 2.20  28 2.27  97 2.76
  92  0.573  0.667  0.306-  12 2.25  50 2.26  35 2.26  49 2.36  34 2.36
  93  0.667  0.573  0.435-  44 2.02  51 2.05  13 2.25  50 2.36  35 2.36  70 2.69
  94  0.885  0.855  0.050-  29 1.98  45 2.01  25 2.05  52 2.26  46 2.26
  95  0.979  0.761  0.178-  29 2.10  30 2.25  47 2.26  36 2.26  46 2.36  52 2.36
  96  0.640  0.089  0.558-  42 2.03  23 2.05  17 2.06
  97  0.530  0.878  0.478-  51 2.11  17 2.12  28 2.12  50 2.36  27 2.36  91 2.76
  98  0.936  0.972  0.350-  20 2.25  41 2.26  37 2.26  40 2.36  36 2.36
  99  0.759  0.659  0.111-  43 2.06  46 2.08  24 2.10 100 2.72
 100  0.842  0.566  0.221-  47 2.25  12 2.26   8 2.26  43 2.36  24 2.36  99 2.72
 101  0.580  0.991  0.093-  45 2.04  38 2.25  46 2.26  16 2.26  15 2.27
 102  0.674  0.897  0.221-  49 2.25  47 2.26  40 2.26  46 2.36  16 2.36
 103  0.768  0.803  0.350-  50 2.25  41 2.26  48 2.26  40 2.36  47 2.36
 104  0.862  0.709  0.478-  51 2.11  31 2.16  42 2.30  41 2.36  48 2.36

  LATTYP: Found a base centered orthorhombic cell.
 ALAT       =    11.8257374459
 B/A-ratio  =     1.6199260857
 C/A-ratio  =     1.9350716598

  Lattice vectors:

 A1 = (  11.2564630382,   0.0000000000,   0.0000000000)
 A2 = (  -5.0445621212, -10.0628203371,   0.0000000000)
 A3 = (   0.0000000000,   0.0000000000, -22.8836493875)

Analysis of symmetry for initial positions (statically):
 Subroutine PRICEL returns:
 Original cell was already a primitive cell.

 Routine SETGRP: Setting up the symmetry group for a
 base centered orthorhombic supercell.

 Subroutine GETGRP returns: Found  1 space group operations
 (whereof  1 operations were pure point group operations)
 out of a pool of  8 trial point group operations.

The static configuration has the point symmetry C_1 .

Analysis of symmetry for dynamics (positions and initial velocities):
 Subroutine PRICEL returns:
 Original cell was already a primitive cell.

 Routine SETGRP: Setting up the symmetry group for a
 base centered orthorhombic supercell.

 Subroutine GETGRP returns: Found  1 space group operations
 (whereof  1 operations were pure point group operations)
 out of a pool of  8 trial point group operations.

The dynamic configuration has the point symmetry C_1 .

 Subroutine INISYM returns: Found  1 space group operations
 (whereof  1 operations are pure point group operations),
 and found     1 'primitive' translations

 KPOINTS: gamma-point-only calculation. no periodi

Automatic generation of k-mesh.
Space group operators:
 irot       det(A)        alpha          n_x          n_y          n_z        tau_x        tau_y        tau_z
    1     1.000000     0.000001     1.000000     0.000000     0.000000     0.000000     0.000000     0.000000

 Subroutine IBZKPT returns following result:

 Found      1 irreducible k-points:

 Following reciprocal coordinates:
            Coordinates               Weight
  0.000000  0.000000  0.000000      1.000000

 Following cartesian coordinates:
            Coordinates               Weight
  0.000000  0.000000  0.000000      1.000000

 SYSTEM =  "Millerite NiS"
 POSCAR =  Type_052 Type_152

 Startparameter for this run:
   NWRITE =      2    write-flag & timer
   PREC   = normal    normal or accurate (medium, high low for compatibility)
   ISTART =      0    job   : 0-new  1-cont  2-samecut
   ICHARG =      2    charge: 1-file 2-atom 10-const
   ISPIN  =      1    spin polarized calculation?
   LNONCOLLINEAR =      F non collinear calculations
   LSORBIT =      F    spin-orbit coupling
   INIWAV =      1    electr: 0-lowe 1-rand  2-diag
   LASPH  =      F    aspherical Exc in radial PAW
   METAGGA=      F    non-selfconsistent MetaGGA calc.

 Electronic Relaxation 1
   ENCUT  =  450.0 eV  33.07 Ry    5.75 a.u.  19.47 19.47 39.58*2*pi/ulx,y,z
   ENINI  =  450.0     initial cutoff
   ENAUG  =  703.4 eV  augmentation charge cutoff
   NELM   =    100;   NELMIN=  2; NELMDL= -5     # of ELM steps
   EDIFF  = 0.1E-03   stopping-criterion for ELM
   LREAL  =      T    real-space projection
   NLSPLINE    = F    spline interpolate recip. space projectors
   LCOMPAT=      F    compatible to vasp.4.4
   GGA_COMPAT  = T    GGA compatible to vasp.4.4-vasp.4.6
[...]
     0.000000000  0.000000000 22.883649388     0.000000000  0.000000000  0.043699324

  length of vectors
    11.256463038 11.256463038 22.883649388     0.099375718  0.099375718  0.043699324

 FORCES acting on ions
    electron-ion (+dipol)            ewald-force                    non-local-force                 convergence-correction
   0.216E+03 -.403E+03 -.282E+03   -.217E+03 0.404E+03 0.281E+03   0.464E+00 -.971E+00 0.912E+00   0.182E+00 -.213E-01 -.488E+00
   0.144E+03 -.618E+03 -.357E+04   -.143E+03 0.619E+03 0.357E+04   -.125E+01 -.619E+00 -.390E+00   0.160E+00 0.146E+00 -.446E-01
   0.169E+03 -.622E+03 0.314E+04   -.171E+03 0.625E+03 -.314E+04   0.158E+01 -.344E+01 0.367E+00   0.199E+00 -.616E-01 -.397E+00
   0.335E+03 0.672E+03 -.522E+04   -.337E+03 -.675E+03 0.522E+04   0.871E+00 0.179E+01 -.310E+01   -.618E-01 -.302E-01 0.140E+00
   0.657E+03 0.661E+03 0.405E+04   -.661E+03 -.666E+03 -.405E+04   0.346E+01 0.387E+01 0.489E+00   0.239E+00 0.547E-01 -.509E+00
   0.305E+03 0.458E+03 0.833E+03   -.306E+03 -.458E+03 -.833E+03   0.139E+01 0.534E+00 0.143E+00   0.285E-01 0.931E-01 -.584E+00
   0.216E+03 0.319E+03 -.201E+04   -.216E+03 -.322E+03 0.201E+04   0.329E+00 0.285E+01 0.300E+01   -.195E-01 0.322E-01 -.189E+00
   -.465E+03 -.779E+00 0.964E+03   0.466E+03 0.114E+01 -.964E+03   -.850E+00 -.273E+00 0.550E+00   -.770E-03 -.645E-01 -.337E+00
   -.498E+03 -.490E+02 -.208E+04   0.498E+03 0.499E+02 0.208E+04   0.105E+00 -.851E+00 0.236E+01   -.450E-01 -.125E+00 -.203E+00
   -.407E+03 -.398E+03 -.537E+04   0.409E+03 0.401E+03 0.537E+04   -.710E+00 -.224E+01 -.344E+01   -.229E-01 -.152E-01 0.184E+00
   -.873E+03 -.219E+03 0.402E+04   0.878E+03 0.220E+03 -.402E+04   -.473E+01 -.116E+01 -.298E+00   -.185E+00 -.696E-01 -.461E+00
   0.255E+03 -.413E+03 -.113E+03   -.255E+03 0.414E+03 0.113E+03   0.508E+00 -.106E+01 -.399E+00   -.149E+00 -.755E-03 -.309E+00
   0.215E+03 -.392E+03 -.300E+04   -.215E+03 0.394E+03 0.299E+04   0.184E+00 -.983E+00 0.893E-01   -.109E+00 -.771E-01 -.746E-01
   -.909E+02 -.296E+02 -.597E+04   0.891E+02 0.338E+02 0.597E+04   0.230E+01 -.494E+01 0.815E+00   -.132E+00 0.299E-01 0.282E+00
   0.215E+03 -.256E+03 0.531E+04   -.214E+03 0.253E+03 -.531E+04   -.547E+00 0.209E+01 0.543E+01   -.410E-01 -.417E-01 -.287E+00
   0.264E+03 -.244E+03 0.244E+04   -.264E+03 0.242E+03 -.244E+04   0.763E-01 0.740E+00 -.296E+01   -.202E+00 0.172E+00 -.624E+00
   0.408E+03 -.187E+03 -.523E+04   -.412E+03 0.186E+03 0.524E+04   0.350E+01 -.262E-01 -.321E+01   0.455E-01 -.721E-01 0.307E+00
   0.113E+02 0.174E+03 0.432E+04   -.121E+02 -.177E+03 -.432E+04   0.294E+00 0.141E+01 0.408E+01   -.189E+00 -.416E-01 -.464E+00
   0.190E+03 0.381E+03 0.929E+03   -.191E+03 -.381E+03 -.929E+03   0.738E+00 0.760E+00 0.896E+00   -.321E-01 0.450E-01 -.313E+00
   0.232E+03 0.509E+03 -.209E+04   -.233E+03 -.510E+03 0.208E+04   0.102E+01 0.398E+00 0.222E+01   0.385E-01 -.273E-01 -.167E+00
   -.559E+03 -.828E+02 0.806E+03   0.560E+03 0.838E+02 -.806E+03   -.106E+01 -.113E+01 0.345E+00   -.117E+00 0.125E+00 -.512E+00
   -.438E+03 -.123E+03 -.210E+04   0.441E+03 0.123E+03 0.210E+04   -.278E+01 -.709E+00 0.226E+01   0.104E+00 0.179E+00 -.106E+00
   -.203E+03 -.406E+03 -.533E+04   0.205E+03 0.410E+03 0.533E+04   -.199E+01 -.270E+01 -.335E+01   0.150E-01 0.987E-01 0.212E+00
   -.277E+03 0.775E+02 0.442E+04   0.279E+03 -.779E+02 -.442E+04   -.142E+01 0.464E+00 0.422E+01   0.621E-01 -.582E-01 -.485E+00
   -.377E+03 -.881E+03 0.628E+04   0.379E+03 0.879E+03 -.628E+04   -.179E+01 0.333E+01 0.117E+00   -.883E-01 -.200E+00 -.254E+00
   0.249E+03 -.374E+03 -.185E+03   -.250E+03 0.375E+03 0.185E+03   0.722E+00 -.947E+00 -.134E+00   -.311E-01 -.170E+00 -.418E+00
   0.474E+03 -.146E+03 -.302E+04   -.475E+03 0.149E+03 0.302E+04   0.116E+01 -.210E+01 0.161E+01   -.100E+00 -.104E+00 -.695E-01
   0.188E+03 0.403E+03 -.588E+04   -.190E+03 -.403E+03 0.588E+04   0.292E+01 -.122E+01 -.335E+01   -.406E-02 -.191E+00 0.228E+00
   0.288E+03 0.432E+03 0.475E+04   -.289E+03 -.434E+03 -.475E+04   0.487E-01 0.160E+01 0.230E+01   0.204E+00 -.232E+00 -.614E+00
   0.252E+03 -.451E+02 0.243E+04   -.253E+03 0.452E+02 -.243E+04   0.592E+00 -.518E-01 -.354E+01   0.226E+00 -.943E-01 -.726E+00
   -.382E+03 -.159E+03 -.532E+04   0.378E+03 0.159E+03 0.532E+04   0.272E+01 0.116E+01 -.287E+01   0.333E-01 -.212E-01 0.282E+00
   -.770E+03 0.114E+03 0.631E+04   0.769E+03 -.110E+03 -.631E+04   0.488E+00 -.334E+01 0.261E+00   -.243E+00 -.123E+00 -.213E+00
   -.516E+03 0.394E+03 0.366E+04   0.519E+03 -.397E+03 -.365E+04   -.212E+01 0.188E+01 -.138E+01   -.355E-01 -.610E-01 -.453E+00
   0.159E+03 0.462E+03 0.850E+03   -.160E+03 -.463E+03 -.851E+03   0.903E+00 0.418E+00 0.132E+01   -.485E-01 0.413E-01 -.349E+00
   0.468E+03 0.432E+03 -.225E+04   -.469E+03 -.433E+03 0.224E+04   0.161E+01 0.921E+00 0.231E+01   -.858E-01 -.428E-01 -.107E+00
   -.547E+03 -.431E+02 0.647E+03   0.548E+03 0.439E+02 -.647E+03   -.133E+01 -.760E+00 0.827E+00   0.138E+00 0.300E-01 -.405E+00
   -.653E+03 -.144E+02 -.273E+04   0.654E+03 0.175E+02 0.273E+04   -.175E+01 -.197E+01 0.113E+01   0.240E+00 0.837E-01 -.194E+00
   -.497E+03 0.126E+03 0.432E+04   0.500E+03 -.126E+03 -.432E+04   -.144E+01 -.320E+00 0.262E+01   0.944E-01 0.134E+00 -.349E+00
   0.360E+03 0.361E+03 0.635E+04   -.363E+03 -.360E+03 -.635E+04   0.301E+01 -.455E+00 0.403E+01   0.137E+00 0.615E-01 -.121E+00
   0.244E+03 -.383E+03 -.246E+03   -.245E+03 0.383E+03 0.246E+03   0.927E+00 -.987E+00 0.288E+00   0.369E-01 0.101E+00 -.431E+00
   -.166E+03 -.580E+02 -.310E+04   0.167E+03 0.567E+02 0.310E+04   -.185E+01 0.742E+00 0.172E+01   -.556E-02 0.195E+00 0.103E+00
   -.279E+03 0.533E+03 -.579E+04   0.280E+03 -.535E+03 0.580E+04   -.145E+01 0.637E+00 -.489E+01   0.189E-01 0.391E-02 0.325E+00
   0.252E+03 -.466E+03 0.336E+04   -.254E+03 0.470E+03 -.336E+04   0.245E+01 -.386E+01 0.220E+01   -.213E+00 -.132E-01 -.390E+00
   0.777E+03 0.102E+03 -.537E+04   -.780E+03 -.105E+03 0.537E+04   0.188E+01 0.292E+01 -.211E+01   -.144E+00 0.433E-01 0.198E+00
   0.626E+03 -.112E+03 0.632E+04   -.628E+03 0.113E+03 -.632E+04   0.164E+01 -.929E+00 0.525E+01   -.548E-01 0.880E-01 -.224E+00
   0.854E+03 0.753E+03 0.400E+04   -.857E+03 -.755E+03 -.400E+04   0.357E+01 0.269E+01 -.129E+01   -.318E-01 0.191E+00 -.578E+00
   0.339E+03 0.507E+03 0.800E+03   -.340E+03 -.508E+03 -.799E+03   0.164E+01 0.347E+00 -.377E-01   0.498E-01 0.103E+00 -.461E+00
   0.165E+03 0.302E+03 -.221E+04   -.170E+03 -.303E+03 0.221E+04   0.346E+01 0.106E+01 0.844E+00   -.402E-01 -.561E-01 -.163E+00
   -.476E+03 0.412E+02 0.958E+03   0.477E+03 -.407E+02 -.958E+03   -.931E+00 -.412E+00 0.621E+00   -.327E+00 0.185E-01 -.458E+00
   -.432E+03 0.391E+02 -.206E+04   0.433E+03 -.382E+02 0.206E+04   -.152E+01 -.890E+00 0.259E+01   -.198E+00 -.560E-01 -.109E+00
   -.259E+03 -.628E+02 -.535E+04   0.264E+03 0.637E+02 0.535E+04   -.441E+01 -.406E+00 -.211E+01   -.190E+00 -.579E-02 0.303E+00
   -.372E+03 -.545E+03 0.326E+04   0.373E+03 0.549E+03 -.326E+04   -.198E+01 -.228E+01 -.297E+01   -.585E-01 -.628E-01 -.669E+00
   -.738E+02 0.120E+03 -.188E+02   0.749E+02 -.122E+03 0.170E+02   -.101E+01 0.182E+01 0.210E+01   0.330E-01 -.692E-01 -.107E+00
   -.172E+02 0.168E+03 -.112E+04   0.175E+02 -.169E+03 0.112E+04   -.215E+00 0.561E+00 0.153E+01   -.157E-01 -.147E-01 -.572E-01
   -.695E+02 0.128E+03 0.247E+04   0.709E+02 -.130E+03 -.248E+04   -.742E+00 0.709E+00 0.263E+01   -.463E-01 0.669E-01 0.971E-02
   -.349E+02 0.666E+02 0.917E+03   0.359E+02 -.681E+02 -.915E+03   -.946E+00 0.149E+01 -.212E+00   -.278E-01 0.317E-01 -.240E+00
   -.183E+03 -.127E+03 -.224E+04   0.185E+03 0.126E+03 0.224E+04   -.915E+00 0.245E+00 -.396E+01   0.863E-01 0.136E-03 0.106E+00
   -.173E+03 -.150E+03 -.184E+04   0.174E+03 0.151E+03 0.184E+04   -.182E+01 -.394E+00 -.219E+01   -.125E-01 -.387E-01 0.456E-01
   -.597E+02 -.189E+03 -.551E+03   0.608E+02 0.192E+03 0.551E+03   -.783E+00 -.277E+01 -.140E+00   0.460E-02 0.415E-01 -.128E+00
   0.993E+02 -.140E+03 0.194E+04   -.101E+03 0.141E+03 -.195E+04   0.135E+01 -.450E-01 0.377E+01   0.102E+00 -.583E-02 -.111E+00
[...]
   0.430E+03 0.140E+03 -.194E+04   -.435E+03 -.142E+03 0.194E+04   0.256E+01 0.184E+01 -.844E+00   0.289E-01 -.859E-01 0.688E-01
   -.620E+02 0.125E+03 -.167E+02   0.632E+02 -.126E+03 0.151E+02   -.936E+00 0.176E+01 0.174E+01   -.109E+00 -.328E-01 -.183E+00
   -.409E+02 0.101E+03 -.114E+04   0.425E+02 -.103E+03 0.114E+04   -.488E+00 0.923E+00 0.117E+01   -.118E+00 -.193E-01 0.746E-01
   0.348E+03 0.386E+03 0.238E+04   -.350E+03 -.391E+03 -.239E+04   -.166E+00 0.301E+01 0.272E+01   0.404E-01 0.589E-01 -.133E+00
   0.699E+02 0.164E+03 0.846E+03   -.703E+02 -.166E+03 -.845E+03   -.173E+00 0.148E+01 0.266E+00   0.823E-01 -.274E-01 -.226E+00
   0.253E+02 -.141E+03 -.255E+04   -.256E+02 0.142E+03 0.255E+04   -.226E+00 -.494E-01 -.126E+01   0.160E-01 -.762E-02 0.134E+00
   -.520E+02 0.940E+01 -.178E+04   0.536E+02 -.805E+01 0.179E+04   -.128E+01 -.468E+00 -.147E+01   -.257E-01 -.401E-01 0.986E-01
   -.108E+03 -.115E+03 -.538E+03   0.109E+03 0.118E+03 0.539E+03   -.112E+01 -.279E+01 -.112E+00   0.290E-01 0.725E-01 -.133E+00
   0.150E+03 -.616E+02 0.196E+04   -.152E+03 0.640E+02 -.197E+04   0.184E+01 -.111E+01 0.353E+01   -.258E-02 0.387E-01 -.177E+00
   -.281E+02 -.128E+03 0.670E+03   0.296E+02 0.130E+03 -.669E+03   -.121E+01 -.197E+01 0.433E+00   -.377E-01 -.292E-01 -.120E+00
   0.453E+03 0.202E+03 0.194E+04   -.457E+03 -.204E+03 -.194E+04   0.171E+01 0.131E+01 0.275E+01   0.450E-01 0.983E-01 -.144E+00
   0.226E+03 0.333E+02 0.626E+03   -.229E+03 -.333E+02 -.625E+03   0.273E+01 0.295E-01 0.295E+00   -.258E-01 0.808E-01 -.191E+00
   0.156E+03 0.183E+02 -.492E+03   -.159E+03 -.182E+02 0.492E+03   0.264E+01 -.295E-01 -.172E+00   -.189E-01 0.543E-01 -.120E+00
   -.113E+03 0.854E+02 -.190E+04   0.112E+03 -.876E+02 0.191E+04   0.190E+01 0.231E+01 -.245E+01   -.502E-01 0.463E-01 0.133E+00
   -.186E+02 0.137E+02 -.272E+02   0.114E-11 0.237E-11 0.102E-10   0.194E+02 -.135E+02 0.432E+02   -.105E+01 -.882E-01 -.161E+02

 POSITION                                       TOTAL-FORCE (eV/Angst)
      5.35228      4.81788      6.64784         0.164464     -0.258865     -0.199729
      5.93595      3.87238      9.58390         0.053874     -0.066663     -0.682228
      2.24633      0.73197      3.71178        -0.610433      0.086764      1.308439
      0.76041      0.51301     11.36308        -1.199725     -0.661063      0.134616
      4.76861      3.35453      2.93606        -0.023567     -0.856282      1.586686
      5.35228      2.40903      5.87212        -0.126023     -0.042488      0.010658
      5.93595      1.46353      8.80817         0.137104     -0.507061     -1.371002
      1.87746      3.73836      5.87212         0.002017      0.022597      0.054233
      2.46113      2.79286      8.80817        -0.236959     -0.026846     -0.019272
      3.04428      1.90986     11.40952         1.110097      0.380859      0.191718
      6.92203      4.68386      2.93606         0.237140     -0.024047      1.313051
     10.98051      4.81788      6.64784         0.064294     -0.100188     -0.090435
     11.56418      3.87238      9.58390        -0.106746      0.239038     -1.083792
     11.64839      3.72479     11.93585         0.368025     -0.670815      0.882278
      7.02674      2.11918      2.05971         0.087333     -0.449871     -0.645218
      7.87456      0.73197      3.71178         0.344062     -0.611405      1.315682
      6.23756      0.66837     11.28021        -0.564424     -0.432890      0.179818
     10.39684      3.35453      2.93606        -0.738704     -1.472460      2.391657
     10.98051      2.40903      5.87212         0.061451      0.087399      0.000865
     11.56418      1.46353      8.80817         0.020538     -0.003360     -0.096691
      7.50570      3.73836      5.87212        -0.023583      0.017133      0.087300
      8.08937      2.79286      8.80817         0.149541     -0.240034     -1.251979
      8.68033      1.97877     11.35612         0.539436      1.101653      0.420549
     12.55026      4.68386      2.93606         0.951259      0.025983      2.447651
     15.74553      9.95320      0.68234         0.289482      0.825868     -1.244045
      7.87456      9.84929      6.64784         0.101615     -0.079996     -0.081768
      8.45823      8.90379      9.58390         0.084071      0.705926     -2.214263
      8.53367      9.27558     11.85685         0.638829     -1.002840      0.013909
      4.41080      7.61466      2.14312        -0.091531     -0.700598     -0.544952
      4.76861      5.76338      3.71178        -0.212328     -0.056472      1.819099
      3.44172      5.50992     10.95628        -0.860656      0.808960      0.762989
      6.41599      8.39350      0.79818        -0.627974     -0.294121     -1.081219
      7.29089      8.38594      2.93606         0.267327     -0.738739      3.564355
      7.87456      7.44044      5.87212        -0.002529      0.009502      0.063633
      8.45823      6.49494      8.80817         0.318091     -0.091015     -0.468655
      4.39975      8.76977      5.87212         0.055598      0.125983      0.110565
      4.98341      7.82427      8.80817         0.384354      1.218562     -0.956626
      9.44431      9.71527      2.93606         0.937841     -0.448290      1.341018
      4.84819      5.32041      1.19590        -0.755768      0.625802     -1.489414
     13.50279      9.84929      6.64784         0.099918     -0.227072     -0.105434
     14.08646      8.90379      9.58390        -0.032344     -0.400784     -2.042368
     13.22729      9.31172     11.70153        -0.122206     -0.990510      0.338732
     10.39684      5.76338      3.71178        -0.336378      0.418794      2.114841
      8.98101      5.44904     11.35557        -1.379364     -0.476992      0.274858
      8.18100      0.24977      1.03785        -0.164657      0.362044     -1.771149
     12.91912      8.38594      2.93606         0.011573      0.160557      0.965735
     13.50279      7.44044      5.87212        -0.145566     -0.172555      0.098402
     14.08646      6.49494      8.80817        -0.957145      0.555876     -1.176386
     10.02798      8.76977      5.87212         0.042777      0.058769     -0.030246
     10.61165      7.82427      8.80817        -0.035960     -0.005994     -0.177959
     11.23441      6.95152     11.39279         0.321528      0.461535      0.454806
     15.07254      9.71527      2.93606        -0.397832      1.125876      2.361637
      1.66190      1.67871      7.01153         0.122403     -0.103353      0.182493
      2.24556      0.73321      9.94759         0.034666     -0.998984     -2.897694
      6.04453      3.68824      1.26497         0.632368     -0.691740     -3.477652
      6.70646      2.62422      4.07548         0.019158      0.070276      1.555944
      5.18474      4.59303     11.43831         0.854412      0.070648      2.186571
      2.24556      3.80055     10.93537        -0.829161      0.533908      0.017541
      7.29013      4.74605      7.99931         0.322390      0.290527     -0.770968
      3.72151      1.56416      2.54104        -0.333582      1.429838     -2.289423
[...]
      7.07033      8.08475      7.99931        -0.219858      0.137053      0.037546
      8.09986      7.29577     10.82498        -2.658328     -0.069212      1.978948
      9.81241      6.71012      7.01153         0.149181     -0.030761     -0.090577
     10.39608      5.76462      9.94759         1.050192     -0.907836     -3.214543
     14.27330      8.60113      1.13942        -1.747450     -1.554400     -3.049043
     14.85697      7.65563      4.07548        -0.431264      0.089964      1.580451
      7.64848      0.89631     12.76443        -0.456575      0.726337      3.775932
     10.39608      8.83196     10.93537         0.242937      0.838097     -0.033962
     15.44064      9.77746      7.99931         0.043986     -0.063607      0.194481
     11.86774      6.62856      2.54930        -0.103259      1.262215     -2.340789
     12.33469      5.69156      5.06325         0.207263      0.049824      0.691611
     11.53122      9.97575      2.12720        -1.951750     -0.472869      0.309839
     12.11489      9.03025      5.06325         0.121412      0.106079      0.301628
     12.69856      8.08475      7.99931        -0.160393      0.144356      0.045047
     13.28223      7.13925     10.93537         0.641145      0.129066      0.433537
    total drift:                               -0.244668      0.132857     -0.082014

  FREE ENERGIE OF THE ION-ELECTRON SYSTEM (eV)
  free  energy   TOTEN  =      -511.34420153 eV

  energy  without entropy=     -509.99424580  energy(sigma->0) =     -510.66922367