 vasp.5.4.4.18Apr17-6-g9f103f2a35 (build Aug 13 2019 17:33:20) gamma-only

 executed on             LinuxIFC date 2020.05.11  09:16:17

 INCAR:
 POTCAR:    PAW_PBE Ni_pv 06Sep2000
 POTCAR:    PAW_PBE S 06Sep2000
 POTCAR:    PAW_PBE Ni_pv 06Sep2000
   VRHFIN =Ni:

   TITEL  = PAW_PBE Ni_pv 06Sep2000
   POMASS =   58.690; ZVAL   =   16.000    mass and valenz
   ENMAX  =  367.986; ENMIN  =  275.989 eV

 POTCAR:    PAW_PBE S 06Sep2000
   VRHFIN =S : s2p4

   TITEL  = PAW_PBE S 06Sep2000
   POMASS =   32.066; ZVAL   =    6.000    mass and valenz
   ENMAX  =  258.689; ENMIN  =  194.016 eV

 Optimization of the real space projectors (new method)

 maximal supplied QI-value         = 18.90
 optimisation between [QCUT,QGAM] = [ 10.77, 21.73] = [ 32.49,132.25] Ry
 Optimized for a Real-space Cutoff    1.38 Angstroem

   l    n(q)    QCUT    max X(q) W(low)/X(q) W(high)/X(q)  e(spline)
   1      8    10.771     2.836    0.40E-04    0.29E-04    0.12E-06
   1      8    10.771     4.023    0.10E-03    0.48E-04    0.29E-06
   2      8    10.771    73.368    0.42E-03    0.97E-04    0.44E-06
   2      8    10.771    69.010    0.42E-03    0.99E-04    0.45E-06
   0      9    10.771    54.797    0.10E-03    0.56E-04    0.74E-07
   0      9    10.771    24.266    0.89E-04    0.49E-04    0.67E-07
 Optimization of the real space projectors (new method)

 maximal supplied QI-value         = 19.84
 optimisation between [QCUT,QGAM] = [ 10.71, 21.63] = [ 32.15,130.99] Ry
 Optimized for a Real-space Cutoff    1.19 Angstroem

   l    n(q)    QCUT    max X(q) W(low)/X(q) W(high)/X(q)  e(spline)
   0      8    10.715   187.594    0.41E-03    0.53E-04    0.66E-07
   0      8    10.715   164.243    0.41E-03    0.53E-04    0.65E-07
   1      7    10.715    67.533    0.19E-03    0.59E-03    0.68E-07
   1      7    10.715    50.729    0.19E-03    0.58E-03    0.67E-07
  PAW_PBE Ni_pv 06Sep2000               :
  PAW_PBE S 06Sep2000                   :

 POSCAR: Type_048 Type_148
  positions in cartesian coordinates
 exchange correlation table for  LEXCH =        8
   RHO(1)=    0.500       N(1)  =     2000
   RHO(2)=  100.500       N(2)  =     4000

 ion  position               nearest neighbor table
   1  0.261  0.479  0.295-  73 2.25  58 2.26  80 2.26  59 2.36  54 2.36   6 2.53  20 2.53
   2  0.355  0.385  0.426-  60 2.07  65 2.08  74 2.25  54 2.26  59 2.26   7 2.53  21 2.53
   3  0.167  0.073  0.165-  81 2.11  64 2.25  55 2.31  56 2.36  82 2.36  28 2.47  34 2.53  29 2.53

   4  0.017  0.082  0.494-  72 2.01  50 2.02  77 2.10  19 2.42
   5  0.274  0.333  0.130-  51 2.06  57 2.08  55 2.16  52 2.36  58 2.36  11 2.53  26 2.53
   6  0.368  0.239  0.261-  56 2.25  58 2.26  52 2.26  59 2.36  61 2.36   1 2.53  20 2.53
   7  0.462  0.145  0.391-  60 2.05  62 2.15  78 2.25  59 2.26  61 2.26   2 2.53  21 2.53
   8  0.000  0.372  0.261-  58 2.25  64 2.26  92 2.26  49 2.36  66 2.36  18 2.53  13 2.53
   9  0.094  0.278  0.391-  53 2.19  59 2.25  49 2.26  66 2.26  50 2.36  10 2.38  14 2.53  19 2.53

[...]

  48  0.716  0.525  0.059-  63 2.01  69 2.06  91 2.06  38 2.45  22 2.51  17 2.53
  49  0.073  0.167  0.311-  24 2.25   9 2.26  19 2.26   8 2.36  18 2.36
  50  0.167  0.073  0.442-   4 2.02  10 2.07  25 2.25   9 2.36  19 2.36  53 2.73
  51  0.365  0.375  0.060-  15 2.04  11 2.04   5 2.06
  52  0.479  0.261  0.181-  15 2.16  16 2.25   6 2.26  20 2.26  11 2.36   5 2.36
  53  0.019  0.325  0.482-  27 2.03  10 2.06  14 2.10   9 2.19  50 2.73  72 2.77
  54  0.436  0.472  0.355-  31 2.25   2 2.26  21 2.26   1 2.36  20 2.36
  55  0.269  0.155  0.098-  28 2.07  34 2.12  12 2.16   5 2.16   3 2.31
  56  0.342  0.066  0.225-   6 2.25  24 2.26  44 2.26   3 2.36  34 2.36
  57  0.083  0.480  0.112-  26 2.06   5 2.08  22 2.11  58 2.73
  58  0.174  0.397  0.225-   8 2.25   1 2.26   6 2.26   5 2.36  26 2.36  57 2.73
  59  0.268  0.303  0.355-   9 2.25   7 2.26   2 2.26   6 2.36   1 2.36
  60  0.397  0.215  0.475-  10 2.01   7 2.05   2 2.07  65 2.74
  61  0.573  0.167  0.311-  35 2.25  21 2.26   7 2.26  20 2.36   6 2.36  62 2.62
  62  0.666  0.074  0.417-  21 2.14   7 2.15  36 2.24  61 2.62
  63  0.885  0.355  0.062-  48 2.01  22 2.06  17 2.06
  64  0.979  0.261  0.181-   3 2.25  18 2.26   8 2.26  22 2.36  17 2.36
  65  0.521  0.376  0.470-  39 2.02  21 2.06   2 2.08  60 2.74
  66  0.936  0.472  0.355-  43 2.25  14 2.26   9 2.26  13 2.36   8 2.36
  67  0.748  0.160  0.094-  23 1.98  17 2.25  16 2.26  47 2.26  15 2.44
  68  0.842  0.066  0.225-  18 2.25  35 2.26  32 2.26  16 2.36  47 2.36
  69  0.583  0.483  0.106-  48 2.06  38 2.12  17 2.12  11 2.16
  70  0.674  0.397  0.225-  20 2.25  13 2.26  18 2.26  17 2.36  38 2.36
  71  0.768  0.303  0.355-  21 2.25  19 2.26  14 2.26  18 2.36  13 2.36  72 2.64
  72  0.840  0.222  0.465-   4 2.01  19 2.09  14 2.11  71 2.64  53 2.77
  73  0.073  0.667  0.311-   1 2.25  33 2.26  43 2.26  32 2.36  42 2.36
  74  0.156  0.565  0.431-  37 2.07  27 2.14  43 2.15   2 2.25  33 2.35
  75  0.390  0.869  0.056-  28 2.02  34 2.06  12 2.16  29 2.27
  76  0.479  0.761  0.181-  38 2.25  30 2.26  44 2.26  34 2.36  29 2.36
  77  0.013  0.904  0.468-  37 2.06   4 2.10  36 2.12  33 2.18  90 2.69
  78  0.436  0.972  0.355-   7 2.25  25 2.26  45 2.26  24 2.36  44 2.36  89 2.79
  79  0.261  0.657  0.113-  26 2.07  11 2.08  29 2.09  80 2.72
  80  0.342  0.566  0.225-  30 2.25   1 2.26  20 2.26  26 2.36  11 2.36  79 2.72
  81  0.082  0.981  0.109-  28 2.06  29 2.11   3 2.11  47 2.12
  82  0.174  0.897  0.225-  32 2.25  24 2.26  30 2.26  29 2.36   3 2.36
  83  0.268  0.803  0.355-  33 2.25  31 2.26  25 2.26  30 2.36  24 2.36
  84  0.372  0.720  0.472-  39 2.02  25 2.06  31 2.07
  85  0.573  0.667  0.311-  13 2.25  45 2.26  31 2.26  44 2.36  30 2.36
  86  0.667  0.573  0.442-  46 2.02  39 2.03  14 2.25  45 2.36  31 2.36
  87  0.885  0.850  0.060-  23 2.01  40 2.05  41 2.09  47 2.13
  88  0.979  0.761  0.181-  26 2.25  42 2.26  32 2.26  47 2.36  41 2.36
  89  0.519  0.877  0.470-  46 2.01  25 2.07  45 2.07  78 2.79
  90  0.936  0.972  0.355-  19 2.25  36 2.26  33 2.26  35 2.36  32 2.36  77 2.69
  91  0.758  0.658  0.107-  48 2.06  22 2.12  38 2.13  41 2.13
  92  0.842  0.566  0.225-  42 2.25  13 2.26   8 2.26  38 2.36  22 2.36
  93  0.580  0.991  0.094-  40 2.01  12 2.09  15 2.15  34 2.25  41 2.26  16 2.26
  94  0.674  0.897  0.225-  44 2.25  35 2.26  42 2.26  41 2.36  16 2.36
  95  0.768  0.803  0.355-  45 2.25  43 2.26  36 2.26  42 2.36  35 2.36
  96  0.862  0.709  0.486-  37 2.03  46 2.05  27 2.22  43 2.36  36 2.36

  LATTYP: Found a base centered orthorhombic cell.
 ALAT       =    11.8257374459
 B/A-ratio  =     1.6199260857
 C/A-ratio  =     1.9043172636

  Lattice vectors:

 A1 = (  11.2564630382,   0.0000000000,   0.0000000000)
 A2 = (  -5.0445621212, -10.0628203371,   0.0000000000)
 A3 = (   0.0000000000,   0.0000000000, -22.5199559732)

Analysis of symmetry for initial positions (statically):
 Subroutine PRICEL returns:
 Original cell was already a primitive cell.

 Routine SETGRP: Setting up the symmetry group for a
 base centered orthorhombic supercell.

 Subroutine GETGRP returns: Found  1 space group operations
 (whereof  1 operations were pure point group operations)
 out of a pool of  8 trial point group operations.

The static configuration has the point symmetry C_1 .

Analysis of symmetry for dynamics (positions and initial velocities):
 Subroutine PRICEL returns:
 Original cell was already a primitive cell.

 Routine SETGRP: Setting up the symmetry group for a
 base centered orthorhombic supercell.

 Subroutine GETGRP returns: Found  1 space group operations
 (whereof  1 operations were pure point group operations)
 out of a pool of  8 trial point group operations.

The dynamic configuration has the point symmetry C_1 .

 Subroutine INISYM returns: Found  1 space group operations
 (whereof  1 operations are pure point group operations),
 and found     1 'primitive' translations

 KPOINTS: gamma-point-only calculation. no periodi

Automatic generation of k-mesh.
Space group operators:
 irot       det(A)        alpha          n_x          n_y          n_z        tau_x        tau_y        tau_z
    1     1.000000     0.000000     1.000000     0.000000     0.000000     0.000000     0.000000     0.000000

 Subroutine IBZKPT returns following result:

 Found      1 irreducible k-points:

 Following reciprocal coordinates:
            Coordinates               Weight
  0.000000  0.000000  0.000000      1.000000

 Following cartesian coordinates:
            Coordinates               Weight
  0.000000  0.000000  0.000000      1.000000

 SYSTEM =  "Millerite NiS"
 POSCAR =  Type_048 Type_148

 Startparameter for this run:
   NWRITE =      2    write-flag & timer
   PREC   = normal    normal or accurate (medium, high low for compatibility)
   ISTART =      0    job   : 0-new  1-cont  2-samecut
   ICHARG =      2    charge: 1-file 2-atom 10-const
   ISPIN  =      1    spin polarized calculation?
   LNONCOLLINEAR =      F non collinear calculations
   LSORBIT =      F    spin-orbit coupling
   INIWAV =      1    electr: 0-lowe 1-rand  2-diag
   LASPH  =      F    aspherical Exc in radial PAW
   METAGGA=      F    non-selfconsistent MetaGGA calc.

 Electronic Relaxation 1
   ENCUT  =  450.0 eV  33.07 Ry    5.75 a.u.  19.47 19.47 38.95*2*pi/ulx,y,z
   ENINI  =  450.0     initial cutoff
   ENAUG  =  703.4 eV  augmentation charge cutoff
   NELM   =    100;   NELMIN=  2; NELMDL= -5     # of ELM steps
   EDIFF  = 0.1E-03   stopping-criterion for ELM
   LREAL  =      T    real-space projection
   NLSPLINE    = F    spline interpolate recip. space projectors
   LCOMPAT=      F    compatible to vasp.4.4
   GGA_COMPAT  = T    GGA compatible to vasp.4.4-vasp.4.6
   LMAXPAW     = -100 max onsite density
   LMAXMIX     =    2 max onsite mixed and CHGCAR
   VOSKOWN=      0    Vosko Wilk Nusair interpolation
   ROPT   =   -0.00050  -0.00050
 Ionic relaxation
   EDIFFG = 0.1E-02   stopping-criterion for IOM
   NSW    =      0    number of steps for IOM
   NBLOCK =      1;   KBLOCK =      1    inner block; outer block
   IBRION =     -1    ionic relax: 0-MD 1-quasi-New 2-CG
   NFREE  =      0    steps in history (QN), initial steepest desc. (CG)
   ISIF   =      2    stress and relaxation
   IWAVPR =     10    prediction:  0-non 1-charg 2-wave 3-comb
   ISYM   =      2    0-nonsym 1-usesym 2-fastsym
   LCORR  =      T    Harris-Foulkes like correction to forces

   POTIM  = 0.5000    time-step for ionic-motion
   TEIN   =    0.0    initial temperature
   TEBEG  =    0.0;   TEEND  =   0.0 temperature during run
   SMASS  =  -3.00    Nose mass-parameter (am)
   estimated Nose-frequenzy (Omega)   =  0.10E-29 period in steps =****** mass=  -0.290E-26a.u.
   SCALEE = 1.0000    scale energy and forces
   NPACO  =    256;   APACO  = 16.0  distance and # of slots for P.C.
   PSTRESS=    0.0 pullay stress

  Mass of Ions in am
   POMASS =  58.69 32.07
  Ionic Valenz
   ZVAL   =  16.00  6.00
  Atomic Wigner-Seitz radii
  virtual crystal weights
   VCA    =   1.00  1.00
   NELECT =    1056.0000    total number of electrons
   NUPDOWN=      -1.0000    fix difference up-down

 DOS related values:
   EMIN   =  10.00;   EMAX   =-10.00  energy-range for DOS
[...]
     0.000000000  0.000000000 22.519955973     0.000000000  0.000000000  0.044405060

  length of vectors
    11.256463038 11.256463038 22.519955973     0.099375718  0.099375718  0.044405060

 FORCES acting on ions
    electron-ion (+dipol)            ewald-force                    non-local-force                 convergence-correction
   0.191E+03 -.421E+03 -.693E+03   -.191E+03 0.422E+03 0.692E+03   0.518E+00 -.949E+00 -.469E-01   0.262E-01 -.378E-01 0.333E+00
   0.155E+02 -.348E+03 -.433E+04   -.177E+02 0.351E+03 0.433E+04   0.141E+01 -.154E+01 -.290E+01   0.197E-01 0.922E-01 0.460E+00
   0.420E+03 -.567E+03 0.240E+04   -.421E+03 0.570E+03 -.239E+04   0.130E+01 -.243E+01 -.136E+01   0.873E-01 -.753E-02 -.374E+00
   0.166E+03 0.288E+03 -.594E+04   -.169E+03 -.289E+03 0.594E+04   0.276E+01 0.708E-01 0.125E+01   0.282E-01 -.441E-01 0.391E+00
   0.600E+03 -.125E+03 0.387E+04   -.604E+03 0.124E+03 -.387E+04   0.288E+01 -.338E+00 0.312E+01   0.440E-01 -.318E+00 -.260E+00
   0.256E+03 0.397E+03 0.287E+03   -.258E+03 -.398E+03 -.287E+03   0.112E+01 0.937E+00 0.212E+00   0.262E-01 -.181E-01 0.120E+00
   0.303E+02 0.557E+03 -.321E+04   -.327E+02 -.561E+03 0.320E+04   0.256E+01 0.388E+01 -.168E+01   -.184E-01 -.131E-01 0.457E+00
   -.508E+03 -.210E+02 0.483E+03   0.508E+03 0.216E+02 -.485E+03   -.489E+00 -.420E+00 0.117E+01   0.310E-01 -.698E-01 0.263E+00
   -.406E+03 0.918E+02 -.258E+04   0.408E+03 -.911E+02 0.258E+04   -.229E+01 -.587E+00 0.256E+01   0.180E-01 0.503E-01 0.516E+00
   -.478E+03 0.348E+03 -.566E+04   0.485E+03 -.350E+03 0.566E+04   -.720E+01 0.205E+01 0.146E+01   -.101E+00 -.920E-02 0.373E+00
   -.398E+03 -.482E+03 0.401E+04   0.401E+03 0.484E+03 -.401E+04   -.185E+01 -.206E+01 0.362E+01   -.782E-01 -.170E+00 -.161E+00
   0.730E+02 -.252E+03 0.614E+04   -.724E+02 0.251E+03 -.614E+04   0.359E-01 0.162E+01 0.183E+01   -.146E+00 0.967E-01 -.274E+00
   0.286E+03 -.387E+03 -.710E+03   -.287E+03 0.389E+03 0.710E+03   0.716E+00 -.127E+01 0.256E+00   0.189E-01 -.420E-01 0.386E+00
   0.538E+03 -.348E+03 -.414E+04   -.541E+03 0.352E+03 0.414E+04   0.222E+01 -.280E+01 -.105E+01   -.215E-01 0.145E+00 0.557E+00
   -.183E+03 -.518E+03 0.500E+04   0.184E+03 0.520E+03 -.500E+04   -.178E+00 -.209E+01 0.584E+01   -.128E+00 -.244E+00 -.317E+00
   -.287E+02 -.261E+03 0.215E+04   0.307E+02 0.260E+03 -.214E+04   -.140E+01 0.119E+00 -.227E+01   -.857E-01 0.976E-01 -.271E+00
   0.176E+03 0.571E+03 0.373E+04   -.179E+03 -.576E+03 -.373E+04   0.181E+01 0.344E+01 0.206E+01   -.150E+00 -.419E+00 0.743E-02
   0.243E+03 0.450E+03 0.397E+03   -.244E+03 -.451E+03 -.398E+03   0.705E+00 0.701E+00 0.109E+01   0.371E-01 -.212E-01 0.213E+00
   0.356E+03 0.458E+03 -.272E+04   -.357E+03 -.460E+03 0.272E+04   0.104E+01 0.267E+01 0.177E+01   0.278E-01 -.395E-01 0.628E+00
   -.521E+03 -.806E+02 0.319E+03   0.522E+03 0.815E+02 -.319E+03   -.123E+01 -.774E+00 -.133E+00   0.100E-01 -.540E-01 0.214E+00
   -.486E+03 0.147E+03 -.324E+04   0.491E+03 -.147E+03 0.324E+04   -.426E+01 0.161E+00 -.175E+01   0.244E-01 0.957E-01 0.463E+00
   -.847E+03 0.365E+02 0.386E+04   0.853E+03 -.371E+02 -.386E+04   -.514E+01 0.429E+00 0.140E+01   0.278E+00 -.128E+00 0.640E-01
   -.756E+03 -.354E+03 0.597E+04   0.751E+03 0.352E+03 -.597E+04   0.554E+01 0.237E+01 -.234E+01   -.280E-01 0.887E-02 -.243E+00
   0.259E+03 -.357E+03 -.779E+03   -.259E+03 0.358E+03 0.778E+03   0.709E+00 -.125E+01 0.177E+00   0.455E-02 0.341E-01 0.297E+00
   0.273E+03 -.439E+03 -.428E+04   -.275E+03 0.443E+03 0.428E+04   0.135E+01 -.248E+01 -.309E+01   0.463E-01 -.125E+00 0.586E+00
   0.285E+03 -.510E+03 0.300E+04   -.288E+03 0.514E+03 -.300E+04   0.208E+01 -.350E+01 0.207E+01   0.366E-01 -.303E-01 -.556E-01
   -.365E+02 0.293E+03 -.548E+04   0.367E+02 -.294E+03 0.548E+04   -.197E-01 0.748E+00 -.230E+01   -.828E-02 0.147E+00 0.455E+00
   0.838E+03 -.313E+03 0.592E+04   -.842E+03 0.313E+03 -.593E+04   0.287E+01 0.880E+00 0.512E+01   0.239E+00 0.975E-02 -.334E+00
   0.429E+03 0.873E+03 0.384E+04   -.430E+03 -.879E+03 -.384E+04   0.151E+01 0.437E+01 0.199E+00   0.321E-01 0.273E+00 -.381E+00
   0.278E+03 0.482E+03 0.406E+03   -.279E+03 -.482E+03 -.407E+03   0.714E+00 0.367E+00 0.109E+01   -.394E-02 -.562E-01 0.232E+00
   0.326E+03 0.379E+03 -.278E+04   -.327E+03 -.381E+03 0.277E+04   0.165E+01 0.194E+01 0.162E+01   0.824E-01 -.438E-01 0.738E+00
   -.540E+03 0.181E+02 0.425E+03   0.541E+03 -.175E+02 -.427E+03   -.908E+00 -.675E+00 0.125E+01   0.110E+00 -.135E-01 0.166E+00
   -.764E+03 -.553E+02 -.281E+04   0.768E+03 0.556E+02 0.281E+04   -.348E+01 -.393E-01 0.171E+01   0.333E-01 -.396E-01 0.645E+00
   -.342E+03 0.355E+03 0.311E+04   0.345E+03 -.358E+03 -.310E+04   -.213E+01 0.160E+01 -.266E+01   -.258E-01 0.276E+00 -.583E+00
   0.231E+03 -.406E+03 -.820E+03   -.231E+03 0.407E+03 0.818E+03   0.487E+00 -.849E+00 0.140E+01   -.808E-02 0.366E-01 0.252E+00
   0.528E+03 -.841E+03 -.424E+04   -.531E+03 0.843E+03 0.424E+04   0.172E+01 -.145E+01 -.344E+00   0.332E-01 -.116E+00 0.644E+00
   -.571E+03 -.106E+03 -.610E+04   0.574E+03 0.106E+03 0.611E+04   -.171E+01 -.388E+00 -.424E+01   -.465E-01 -.600E-01 0.373E+00
   0.346E+03 -.482E+03 0.246E+04   -.348E+03 0.486E+03 -.246E+04   0.191E+01 -.284E+01 -.962E+00   -.110E+00 0.126E+00 0.260E+00
   0.203E+03 0.350E+03 -.581E+04   -.204E+03 -.351E+03 0.581E+04   0.915E+00 0.146E+01 0.192E+01   0.129E+00 0.142E+00 0.326E+00
   0.186E+03 0.680E+03 0.599E+04   -.183E+03 -.675E+03 -.599E+04   -.442E+01 -.471E+01 -.431E+00   0.711E-01 0.420E+00 -.183E+00
   0.477E+02 0.830E+03 0.342E+04   -.484E+02 -.832E+03 -.342E+04   0.254E+00 0.197E+01 -.135E+01   0.262E-01 0.305E+00 -.235E+00
   0.205E+03 0.468E+03 0.441E+03   -.206E+03 -.469E+03 -.443E+03   0.990E+00 0.493E+00 0.125E+01   -.953E-03 -.105E+00 0.224E+00
   0.307E+03 0.185E+03 -.246E+04   -.311E+03 -.186E+03 0.246E+04   0.301E+01 0.135E+01 0.272E+01   -.107E-01 -.641E-01 0.710E+00
   -.484E+03 0.303E+02 0.311E+03   0.485E+03 -.299E+02 -.312E+03   -.998E+00 -.370E+00 0.131E+01   0.489E-01 0.205E-01 0.185E+00
   -.443E+03 -.172E+03 -.279E+04   0.446E+03 0.172E+03 0.278E+04   -.291E+01 -.467E+00 0.110E+01   -.115E-01 -.115E+00 0.748E+00
   -.779E+02 -.198E+03 -.583E+04   0.776E+02 0.200E+03 0.583E+04   0.966E+00 -.152E+01 0.105E+01   -.100E+00 -.100E+00 0.301E+00
   -.797E+03 0.177E+03 0.352E+04   0.798E+03 -.177E+03 -.351E+04   -.122E+01 -.277E+00 -.426E+00   -.967E-02 0.148E+00 -.409E+00
   0.226E+03 -.305E+03 0.608E+04   -.226E+03 0.306E+03 -.609E+04   -.243E+00 0.559E+00 0.581E+01   -.668E-01 0.453E-01 -.315E+00
   -.642E+02 0.134E+03 -.231E+03   0.657E+02 -.136E+03 0.230E+03   -.143E+01 0.176E+01 0.894E+00   -.134E-01 0.517E-01 0.929E-01
   -.111E+03 0.267E+03 -.159E+04   0.112E+03 -.269E+03 0.159E+04   0.748E+00 0.109E+01 -.131E+01   -.549E-01 -.108E-01 0.252E+00
   0.797E+02 -.323E+03 0.242E+04   -.801E+02 0.324E+03 -.242E+04   0.404E+00 -.117E+01 0.171E+01   -.234E-01 -.916E-01 -.127E+00
   -.705E+02 -.232E+01 0.779E+03   0.714E+02 0.137E+01 -.778E+03   -.782E+00 0.802E+00 0.144E+00   -.432E-02 -.541E-01 -.411E-01
   0.129E+03 0.190E+02 -.229E+04   -.129E+03 -.175E+02 0.230E+04   -.870E+00 -.775E+00 -.347E+01   0.142E-01 0.243E-01 0.153E+00
   -.697E+02 -.138E+03 -.768E+03   0.709E+02 0.141E+03 0.768E+03   -.122E+01 -.287E+01 -.957E+00   0.259E-01 0.734E-02 0.177E+00
   0.152E+03 -.452E+03 0.168E+04   -.153E+03 0.456E+03 -.168E+04   0.231E+00 -.133E+01 0.539E+00   0.309E-01 -.132E+00 -.218E+00
   -.433E+02 -.152E+03 0.410E+03   0.444E+02 0.155E+03 -.410E+03   -.860E+00 -.260E+01 0.793E+00   0.257E-01 0.358E-01 -.386E-01
   0.886E+02 -.128E+03 0.188E+04   -.891E+02 0.130E+03 -.188E+04   -.742E+00 -.188E+01 0.407E+01   0.589E-01 -.577E-01 -.103E+00
   0.176E+03 -.370E+02 0.503E+03   -.179E+03 0.372E+02 -.503E+03   0.294E+01 -.302E+00 0.577E+00   -.205E-01 -.555E-01 0.583E-01
   0.106E+03 0.165E+02 -.723E+03   -.109E+03 -.163E+02 0.723E+03   0.270E+01 -.238E+00 -.438E+00   -.716E-02 0.660E-02 0.154E+00
   -.222E+03 0.169E+03 -.226E+04   0.223E+03 -.172E+03 0.227E+04   -.383E+00 0.149E+01 -.130E+01   -.300E-01 0.106E-02 0.142E+00
[...]
   0.167E+03 0.186E+01 -.774E+03   -.170E+03 -.198E+01 0.774E+03   0.234E+01 0.124E+00 -.828E+00   -.277E-02 -.319E-01 0.219E+00
   0.307E+03 -.104E+03 -.216E+04   -.311E+03 0.104E+03 0.216E+04   0.176E+01 0.697E+00 -.121E+01   0.797E-01 -.866E-01 0.174E+00
   -.589E+02 0.118E+03 -.246E+03   0.601E+02 -.120E+03 0.245E+03   -.106E+01 0.203E+01 0.917E+00   -.874E-03 -.834E-03 0.180E+00
   -.608E+02 0.188E+03 -.154E+04   0.622E+02 -.190E+03 0.154E+04   -.624E+00 0.466E+00 -.153E+01   -.427E-01 0.889E-01 0.309E+00
   -.392E+03 0.568E+03 0.206E+04   0.395E+03 -.574E+03 -.206E+04   -.182E+01 0.305E+01 0.102E+01   0.439E-01 0.141E+00 -.182E+00
   -.126E+03 0.189E+03 0.105E+04   0.126E+03 -.190E+03 -.105E+04   -.714E+00 0.117E+01 0.181E+01   0.149E-01 0.369E-01 -.139E-02
   -.883E+02 -.389E+03 -.213E+04   0.908E+02 0.393E+03 0.214E+04   -.169E+01 -.184E+01 -.749E+00   0.295E-01 -.147E+00 0.174E+00
   -.551E+02 -.170E+03 -.750E+03   0.556E+02 0.173E+03 0.750E+03   -.611E+00 -.270E+01 -.670E+00   0.500E-01 -.138E-01 0.199E+00
   -.127E+03 -.153E+03 0.171E+04   0.127E+03 0.155E+03 -.172E+04   -.146E+00 -.616E-01 0.676E+00   0.580E-01 0.148E+00 -.290E-01
   -.919E+02 -.145E+03 0.488E+03   0.927E+02 0.147E+03 -.488E+03   -.796E+00 -.220E+01 0.970E+00   0.342E-01 -.105E-01 0.123E+00
   0.717E+02 0.110E+03 0.152E+04   -.727E+02 -.111E+03 -.152E+04   0.246E+00 0.570E+00 0.532E+00   -.852E-01 0.120E+00 -.177E+00
   0.157E+03 0.312E+02 0.421E+03   -.160E+03 -.312E+02 -.422E+03   0.277E+01 -.145E+00 0.545E+00   -.439E-01 0.301E-01 -.185E-01
   0.185E+03 -.566E+02 -.751E+03   -.187E+03 0.566E+02 0.751E+03   0.264E+01 -.343E+00 -.384E+00   -.532E-01 -.517E-01 0.224E+00
   0.188E+03 -.176E+03 -.217E+04   -.191E+03 0.176E+03 0.217E+04   0.255E+01 -.889E+00 -.273E+01   -.440E-01 -.516E-01 0.165E+00
   -.122E+02 0.768E+01 -.569E+02   -.938E-12 -.105E-11 0.364E-11   0.115E+02 -.771E+01 0.459E+02   0.491E+00 0.658E-01 0.112E+02

 POSITION                                       TOTAL-FORCE (eV/Angst)
      5.35228      4.81788      6.64784         0.157498     -0.239699     -0.269870
      5.93595      3.87238      9.58390        -0.757223      1.364379     -1.730795
      2.24633      0.73197      3.71178        -0.044942      0.767649      1.407958
      0.60361      0.82755     11.12099         0.103654     -1.022018      1.820778
      4.76861      3.35453      2.93606        -0.516026     -0.670230      1.842592
      5.35228      2.40903      5.87212        -0.091666      0.145118     -0.095997
      5.93595      1.46353      8.80817         0.072455     -0.413023     -2.175299
      1.87746      3.73836      5.87212        -0.120838      0.033766      0.059096
      2.46113      2.79286      8.80817        -0.067250      0.089433     -1.272558
      3.54889      2.09263     10.81152        -0.191614      0.184888      0.992391
      6.92203      4.68386      2.93606         1.071753      0.098082      1.817413
      4.94156      0.39502      0.79816         0.548560      0.471580     -1.238900
     10.98051      4.81788      6.64784         0.165236     -0.170967     -0.135466
     11.56418      3.87238      9.58390        -0.418027      1.061238     -1.370514
      6.83212      2.03426      2.00403         0.703342     -0.685014     -0.845474
      7.87456      0.73197      3.71178         0.523216     -0.089609      0.864404
     10.39684      3.35453      2.93606        -0.560897     -1.765477      1.926859
     10.98051      2.40903      5.87212         0.089851      0.029177     -0.020763
     11.56418      1.46353      8.80817         0.282648      0.081065     -2.227285
      7.50570      3.73836      5.87212        -0.032690      0.093377      0.023738
      8.08937      2.79286      8.80817         0.280791     -0.036125     -2.008405
     12.55026      4.68386      2.93606         1.462651     -0.289375      2.369863
      9.39989      0.34804      0.60188         0.310157      0.425582     -1.689787
      7.87456      9.84929      6.64784        -0.013352     -0.253562     -0.120008
      8.45823      8.90379      9.58390        -0.684146      0.783134     -1.274159
      4.76861      5.76338      3.71178        -0.268910      0.576474      2.016770
      2.78483      5.07439     10.65305         0.200243      0.316504      0.655785
      2.47404      0.26674      1.29783        -0.977412      1.024010     -1.581816
      7.29089      8.38594      2.93606         0.440768     -0.912609      1.253757
      7.87456      7.44044      5.87212        -0.010388      0.147934      0.092365
      8.45823      6.49494      8.80817         0.182652     -0.079285     -1.986134
      4.39975      8.76977      5.87212         0.127311     -0.018290      0.020719
      4.98341      7.82427      8.80817         0.491757      0.221253     -1.124106
      9.44431      9.71527      2.93606         0.945960     -0.796265      3.819960
     13.50279      9.84929      6.64784         0.144411     -0.135341      0.017260
     14.08646      8.90379      9.58390        -0.972367      0.439020     -0.950879
      4.05808      7.19820     11.00580         1.061902     -0.301102      1.582375
     10.39684      5.76338      3.71178        -0.431678      0.750159      2.179783
      8.72363      5.49417     11.05853         0.004939     -0.220843      1.350328
     12.44038      9.10439      0.56542        -0.757642     -0.087146     -1.227386
     12.91912      8.38594      2.93606        -0.395499     -0.152035      1.785428
     13.50279      7.44044      5.87212         0.009397      0.017256      0.007293
     14.08646      6.49494      8.80817        -0.902072      0.661432     -1.993461
     10.02798      8.76977      5.87212        -0.076885     -0.013611      0.019073
     10.61165      7.82427      8.80817         0.102965     -0.331382     -1.893767
     11.23851      7.15451     11.13919         0.537375     -0.246175      1.550515
     15.07254      9.71527      2.93606         0.126207      0.316667      1.469400
     10.71253      5.28360      1.33303        -0.728246      1.276909     -1.935326
      1.66190      1.67871      7.01153         0.072216     -0.194587     -0.191135
      2.24556      0.73321      9.94759         1.670335     -1.740548     -0.808781
      6.00666      3.77732      1.34886         0.019969      0.396225     -3.952160
      6.70646      2.62422      4.07548         0.162361     -0.209671      0.982855
      1.86029      3.27446     10.85943        -0.262341      0.719908      2.788623
      7.29013      4.74605      7.99931        -0.001794      0.192987     -0.698155
      3.80748      1.55990      2.21697        -0.572568      1.924678     -0.519214
      4.18418      0.66015      5.06325         0.199468      0.033502      0.174544
      3.35499      4.83235      2.53156        -1.180594      0.569014     -2.267018
      3.96438      3.99884      5.06325        -0.150353     -0.242729      0.569429
      4.54805      3.05334      7.99931        -0.183255     -0.061709     -0.410740
      5.55131      2.16676     10.69044         0.263847     -1.112795      3.261051
[...]
      6.48666      9.03025      5.06325         0.158324     -0.133523      0.844117
      7.07033      8.08475      7.99931        -0.237102     -0.028467     -0.519709
      7.81668      7.24356     10.62800        -2.233290      0.353293      2.528168
      9.81241      6.71012      7.01153         0.170917     -0.203705     -0.136635
     10.39608      5.76462      9.94759         0.752489     -1.454642     -0.870100
     14.25486      8.55711      1.34387         1.580785     -2.457370     -2.302343
     14.85697      7.65563      4.07548         0.012251      0.018829      0.272802
     10.26508      8.82920     10.58559         0.800707      2.301872      2.233628
     15.44064      9.77746      7.99931         0.032305     -0.043767     -1.039738
     11.85132      6.61747      2.41291         0.445764      1.771992     -1.386776
     12.33469      5.69156      5.06325         0.068263     -0.143293      0.671723
     11.53122      9.97575      2.12720        -0.827553     -0.370102      0.694362
     12.11489      9.03025      5.06325        -0.092837     -0.058501     -0.013152
     12.69856      8.08475      7.99931        -0.050605     -0.379701     -0.099035
     13.28223      7.13925     10.93537        -0.867787     -0.178082      0.937520
    total drift:                               -0.207637      0.041006      0.207727

  FREE ENERGIE OF THE ION-ELECTRON SYSTEM (eV)
  free  energy   TOTEN  =      -470.18473583 eV

  energy  without entropy=     -468.84584890  energy(sigma->0) =     -469.51529236