 vasp.5.4.4.18Apr17-6-g9f103f2a35 (build Aug 13 2019 17:33:20) gamma-only

 executed on             LinuxIFC date 2020.05.11  16:43:49

 INCAR:
 POTCAR:    PAW_PBE Ni_pv 06Sep2000
 POTCAR:    PAW_PBE S 06Sep2000
 POTCAR:    PAW_PBE Ni_pv 06Sep2000
   VRHFIN =Ni:

   TITEL  = PAW_PBE Ni_pv 06Sep2000
   POMASS =   58.690; ZVAL   =   16.000    mass and valenz
   ENMAX  =  367.986; ENMIN  =  275.989 eV

 POTCAR:    PAW_PBE S 06Sep2000
   VRHFIN =S : s2p4

   TITEL  = PAW_PBE S 06Sep2000
   POMASS =   32.066; ZVAL   =    6.000    mass and valenz
   ENMAX  =  258.689; ENMIN  =  194.016 eV

 Optimization of the real space projectors (new method)

 maximal supplied QI-value         = 18.90
 optimisation between [QCUT,QGAM] = [ 10.77, 21.73] = [ 32.49,132.25] Ry
 Optimized for a Real-space Cutoff    1.38 Angstroem

   l    n(q)    QCUT    max X(q) W(low)/X(q) W(high)/X(q)  e(spline)
   1      8    10.771     2.836    0.40E-04    0.29E-04    0.12E-06
   1      8    10.771     4.023    0.10E-03    0.48E-04    0.29E-06
   2      8    10.771    73.368    0.42E-03    0.97E-04    0.44E-06
   2      8    10.771    69.010    0.42E-03    0.99E-04    0.45E-06
   0      9    10.771    54.797    0.10E-03    0.56E-04    0.74E-07
   0      9    10.771    24.266    0.89E-04    0.49E-04    0.67E-07
 Optimization of the real space projectors (new method)

 maximal supplied QI-value         = 19.84
 optimisation between [QCUT,QGAM] = [ 10.71, 21.63] = [ 32.15,130.99] Ry
 Optimized for a Real-space Cutoff    1.19 Angstroem

   l    n(q)    QCUT    max X(q) W(low)/X(q) W(high)/X(q)  e(spline)
   0      8    10.715   187.594    0.41E-03    0.53E-04    0.66E-07
   0      8    10.715   164.243    0.41E-03    0.53E-04    0.65E-07
   1      7    10.715    67.533    0.19E-03    0.59E-03    0.68E-07
   1      7    10.715    50.729    0.19E-03    0.58E-03    0.67E-07
  PAW_PBE Ni_pv 06Sep2000               :
  PAW_PBE S 06Sep2000                   :

 POSCAR: Type_036 Type_136
  positions in cartesian coordinates
 exchange correlation table for  LEXCH =        8
   RHO(1)=    0.500       N(1)  =     2000
   RHO(2)=  100.500       N(2)  =     4000

 ion  position               nearest neighbor table
   1  0.780  0.145  0.121-  49 2.09  63 2.11  64 2.16  41 2.25   2 2.28  50 2.36  24 2.41  22 2.42

   2  0.733  0.190  0.250-  42 1.99  50 2.09   1 2.28  64 2.30  30 2.49  41 2.62
   3  0.216  0.672  0.096-  43 2.02  44 2.12  51 2.15   4 2.40  26 2.48  61 2.50
   4  0.297  0.645  0.216-  52 2.13  62 2.13  44 2.25  51 2.26  61 2.26   3 2.40  27 2.53  14 2.53

[...]

  12  0.902  0.926  0.138-  63 2.09  56 2.09  38 2.13  64 2.21  55 2.21  35 2.47
  13  0.463  0.444  0.050-  39 2.03  53 2.06  14 2.45
  14  0.425  0.513  0.191-  53 2.20  62 2.20  39 2.26  61 2.26  40 2.36  13 2.45  15 2.50  27 2.53
                             4 2.53
  15  0.449  0.494  0.343-  62 2.03  54 2.04  40 2.05  14 2.50
  16  0.526  0.139  0.101-  67 2.05  41 2.06  53 2.06  29 2.48
  17  0.597  0.013  0.223-  42 2.09  67 2.17  68 2.18  59 2.25  41 2.26   5 2.53  30 2.53
  18  0.080  0.513  0.127-  66 2.07  43 2.08  57 2.10  44 2.36  65 2.36  25 2.39   6 2.53  31 2.53

[...]

  28  0.453  0.804  0.340-  68 2.02  52 2.04  40 2.05  27 2.48
  29  0.602  0.358  0.086-  69 2.14  53 2.22  41 2.24  30 2.35  16 2.48
  30  0.597  0.277  0.223-  42 2.11  54 2.19  53 2.19  69 2.25  41 2.26  29 2.35   2 2.49   5 2.53
                            17 2.53
  31  0.080  0.777  0.127-  43 2.08  71 2.10  56 2.13  55 2.23  44 2.36  32 2.45   6 2.53  18 2.53

[...]

  37  0.034  0.170  0.270-   9 2.06   8 2.08  25 2.12  58 2.73
  38  0.952  0.127  0.120-  24 2.07  25 2.12  12 2.13
  39  0.474  0.645  0.087-  10 1.99  26 2.02  13 2.03  27 2.26  14 2.26
  40  0.509  0.645  0.278-  15 2.05  28 2.05  10 2.18  11 2.25  27 2.36  14 2.36
  41  0.647  0.145  0.119-  16 2.06  29 2.24   1 2.25  30 2.26  17 2.26   2 2.62
  42  0.638  0.143  0.317-   2 1.99  17 2.09  30 2.11  68 2.61  54 2.73
  43  0.114  0.645  0.032-   3 2.02  18 2.08  31 2.08
  44  0.164  0.645  0.214-  19 2.04  32 2.08   3 2.12   4 2.25  31 2.36  18 2.36
  45  0.276  0.146  0.067-  33 1.99  20 2.00
  46  0.336  0.145  0.246-  34 2.01  21 2.02   5 2.25  33 2.36  20 2.36
  47  0.819  0.645  0.151-  35 2.24   6 2.25  36 2.26  23 2.26  48 2.70
  48  0.852  0.646  0.314-   7 2.06  36 2.10  23 2.11  47 2.70
  49  0.791  0.283  0.021-  22 2.04  24 2.05   1 2.09
  50  0.829  0.314  0.214-   2 2.09  22 2.13  24 2.14  23 2.25   1 2.36
  51  0.312  0.814  0.119-  26 2.04   3 2.15  20 2.25   4 2.26  27 2.26
  52  0.342  0.808  0.292-  28 2.04  21 2.09   4 2.13  27 2.18
  53  0.489  0.325  0.152-  13 2.06  16 2.06  30 2.19  14 2.20  29 2.22   5 2.33  54 2.71
  54  0.508  0.314  0.319-  15 2.04   5 2.09  30 2.19  53 2.71  42 2.73
  55  0.989  0.829  0.222-   7 2.07  32 2.09   6 2.18  12 2.21  31 2.23  56 2.61
  56  0.971  0.797  0.063-   6 2.07  12 2.09  31 2.13  55 2.61
  57  0.133  0.317  0.108-   8 2.06  18 2.10  25 2.21  33 2.22
  58  0.174  0.314  0.278-   9 2.02  34 2.04  19 2.10   8 2.36  33 2.36  37 2.73
  59  0.657  0.814  0.183-  35 2.12  17 2.25  36 2.26  11 2.26  10 2.32
  60  0.695  0.791  0.352-  36 2.02  11 2.03  70 2.77
  61  0.312  0.477  0.119-  26 2.02  33 2.25   4 2.26  14 2.26   3 2.50
  62  0.339  0.479  0.292-  15 2.03  34 2.09   4 2.13  14 2.20
  63  0.824  0.984  0.044-  35 2.02  12 2.09   1 2.11  64 2.78
  64  0.799  0.988  0.214-  35 2.15   1 2.16  36 2.18  12 2.21   2 2.30  63 2.78
  65  0.001  0.477  0.246-  19 2.01   7 2.06  25 2.13   6 2.36  18 2.36  66 2.77
  66  0.970  0.460  0.078-  24 2.06  18 2.07   6 2.16  25 2.22  65 2.77
  67  0.485  0.969  0.164-  16 2.05  27 2.14  17 2.17   5 2.18  68 2.61
  68  0.512  0.985  0.323-  28 2.02   5 2.09  17 2.18  42 2.61  67 2.61
  69  0.657  0.477  0.183-  22 2.06  10 2.11  29 2.14  30 2.25  23 2.26  11 2.26
  70  0.697  0.502  0.353-  23 2.02  11 2.04  60 2.77
  71  0.141  0.966  0.110-  20 2.09  31 2.10   8 2.12  72 2.78
  72  0.174  0.977  0.278-   9 2.02  21 2.03  32 2.12   8 2.36  20 2.36  71 2.78

  LATTYP: Found a simple orthorhombic cell.
 ALAT       =     9.5784100000
 B/A-ratio  =     1.6880763216
 C/A-ratio  =     1.7627867312

  Lattice vectors:

 A1 = (   0.0000000000,   9.5784100000,   0.0000000000)
 A2 = (   0.0000000000,   0.0000000000, -16.1690871197)
 A3 = ( -16.8846940542,   0.0000000000,   0.0000000000)

Analysis of symmetry for initial positions (statically):
 Subroutine PRICEL returns:
 Original cell was already a primitive cell.

 Routine SETGRP: Setting up the symmetry group for a
 simple orthorhombic supercell.

 Subroutine GETGRP returns: Found  1 space group operations
 (whereof  1 operations were pure point group operations)
 out of a pool of  8 trial point group operations.

The static configuration has the point symmetry C_1 .

Analysis of symmetry for dynamics (positions and initial velocities):
 Subroutine PRICEL returns:
 Original cell was already a primitive cell.

 Routine SETGRP: Setting up the symmetry group for a
 simple orthorhombic supercell.

 Subroutine GETGRP returns: Found  1 space group operations
 (whereof  1 operations were pure point group operations)
 out of a pool of  8 trial point group operations.

The dynamic configuration has the point symmetry C_1 .

 Subroutine INISYM returns: Found  1 space group operations
 (whereof  1 operations are pure point group operations),
 and found     1 'primitive' translations

 KPOINTS: gamma-point-only calculation. no periodi

Automatic generation of k-mesh.
Space group operators:
 irot       det(A)        alpha          n_x          n_y          n_z        tau_x        tau_y        tau_z
    1     1.000000     0.000000     1.000000     0.000000     0.000000     0.000000     0.000000     0.000000

 Subroutine IBZKPT returns following result:

 Found      1 irreducible k-points:

 Following reciprocal coordinates:
            Coordinates               Weight
  0.000000  0.000000  0.000000      1.000000

 Following cartesian coordinates:
            Coordinates               Weight
  0.000000  0.000000  0.000000      1.000000

 SYSTEM =  "Millerite NiS"
 POSCAR =  Type_036 Type_136

 Startparameter for this run:
   NWRITE =      2    write-flag & timer
   PREC   = normal    normal or accurate (medium, high low for compatibility)
   ISTART =      0    job   : 0-new  1-cont  2-samecut
   ICHARG =      2    charge: 1-file 2-atom 10-const
   ISPIN  =      1    spin polarized calculation?
   LNONCOLLINEAR =      F non collinear calculations
   LSORBIT =      F    spin-orbit coupling
   INIWAV =      1    electr: 0-lowe 1-rand  2-diag
   LASPH  =      F    aspherical Exc in radial PAW
   METAGGA=      F    non-selfconsistent MetaGGA calc.

 Electronic Relaxation 1
   ENCUT  =  450.0 eV  33.07 Ry    5.75 a.u.  29.20 16.57 27.97*2*pi/ulx,y,z
   ENINI  =  450.0     initial cutoff
   ENAUG  =  703.4 eV  augmentation charge cutoff
   NELM   =    100;   NELMIN=  2; NELMDL= -5     # of ELM steps
   EDIFF  = 0.1E-03   stopping-criterion for ELM
   LREAL  =      T    real-space projection
   NLSPLINE    = F    spline interpolate recip. space projectors
   LCOMPAT=      F    compatible to vasp.4.4
   GGA_COMPAT  = T    GGA compatible to vasp.4.4-vasp.4.6
   LMAXPAW     = -100 max onsite density
   LMAXMIX     =    2 max onsite mixed and CHGCAR
   VOSKOWN=      0    Vosko Wilk Nusair interpolation
   ROPT   =   -0.00050  -0.00050
 Ionic relaxation
   EDIFFG = 0.1E-02   stopping-criterion for IOM
   NSW    =      0    number of steps for IOM
   NBLOCK =      1;   KBLOCK =      1    inner block; outer block
   IBRION =     -1    ionic relax: 0-MD 1-quasi-New 2-CG
   NFREE  =      0    steps in history (QN), initial steepest desc. (CG)
   ISIF   =      2    stress and relaxation
   IWAVPR =     10    prediction:  0-non 1-charg 2-wave 3-comb
   ISYM   =      2    0-nonsym 1-usesym 2-fastsym
   LCORR  =      T    Harris-Foulkes like correction to forces

   POTIM  = 0.5000    time-step for ionic-motion
   TEIN   =    0.0    initial temperature
   TEBEG  =    0.0;   TEEND  =   0.0 temperature during run
   SMASS  =  -3.00    Nose mass-parameter (am)
   estimated Nose-frequenzy (Omega)   =  0.10E-29 period in steps =****** mass=  -0.652E-26a.u.
   SCALEE = 1.0000    scale energy and forces
   NPACO  =    256;   APACO  = 16.0  distance and # of slots for P.C.
   PSTRESS=    0.0 pullay stress

  Mass of Ions in am
   POMASS =  58.69 32.07
  Ionic Valenz
   ZVAL   =  16.00  6.00
  Atomic Wigner-Seitz radii
  virtual crystal weights
   VCA    =   1.00  1.00
   NELECT =     792.0000    total number of electrons
   NUPDOWN=      -1.0000    fix difference up-down

 DOS related values:
   EMIN   =  10.00;   EMAX   =-10.00  energy-range for DOS
   EFERMI =   0.00
   ISMEAR =     0;   SIGMA  =   0.20  broadening in eV -4-tet -1-fermi 0-gaus

 Electronic relaxation 2 (details)
   IALGO  =     38    algorithm
   LDIAG  =      T    sub-space diagonalisation (order eigenvalues)
   LSUBROT=      F    optimize rotation matrix (better conditioning)
   TURBO    =      0    0=normal 1=particle mesh
   IRESTART =      0    0=no restart 2=restart with 2 vectors
   NREBOOT  =      0    no. of reboots
[...]
  Fock        0.00000     0.00000     0.00000     0.00000     0.00000     0.00000
  Total     133.13001   126.91058   136.22503     4.62681    -5.46259     2.30096
  in kB      81.56699    77.75643    83.46327     2.83478    -3.34686     1.40977

 VOLUME and BASIS-vectors are now :
  energy-cutoff  :      450.00
  volume of cell :     2615.00
      direct lattice vectors                 reciprocal lattice vectors
    16.884694054  0.000000000  0.000000000     0.059225237  0.000000000  0.000000000
     0.000000000  9.578410000  0.000000000     0.000000000  0.104401461  0.000000000
     0.000000000  0.000000000 16.169087120     0.000000000  0.000000000  0.061846411

  length of vectors
    16.884694054  9.578410000 16.169087120     0.059225237  0.104401461  0.061846411

 FORCES acting on ions
    electron-ion (+dipol)            ewald-force                    non-local-force                 convergence-correction
   -.177E+03 0.530E+03 0.187E+04   0.174E+03 -.532E+03 -.188E+04   0.219E+01 0.987E+00 0.411E+01   0.104E-02 -.232E-01 -.200E-01
   -.787E+03 0.270E+03 -.245E+04   0.789E+03 -.271E+03 0.246E+04   -.484E+00 0.295E+00 -.375E+01   -.255E-02 -.454E-03 0.296E-01
   0.132E+03 -.123E+03 0.285E+04   -.132E+03 0.123E+03 -.285E+04   0.859E+00 -.494E+00 0.783E+01   0.171E-01 -.203E-03 0.167E-01
   0.595E+03 -.395E+02 -.110E+04   -.597E+03 0.391E+02 0.110E+04   0.193E+01 0.276E+00 -.548E+01   -.718E-02 -.182E-02 0.331E-02
   0.611E+03 0.139E+03 -.145E+04   -.618E+03 -.138E+03 0.146E+04   0.575E+01 -.511E+00 -.542E+01   -.404E-01 -.439E-02 -.133E-02
   0.704E+03 0.768E+02 0.117E+04   -.708E+03 -.799E+02 -.117E+04   0.336E+01 0.209E+01 0.291E+01   0.289E-01 0.958E-02 0.238E-01
   0.439E+03 -.107E+03 -.333E+04   -.439E+03 0.110E+03 0.333E+04   0.558E+00 -.274E+01 -.342E+00   0.326E-01 0.108E-02 0.114E-01
   0.594E+03 0.348E+03 0.652E+03   -.595E+03 -.353E+03 -.657E+03   0.270E+01 0.378E+01 0.576E+01   0.333E-01 -.448E-02 0.665E-02
   0.786E+03 0.110E+03 -.372E+04   -.786E+03 -.110E+03 0.372E+04   -.115E+00 0.295E+00 0.102E+00   0.204E-01 0.616E-02 -.805E-02
   -.491E+03 -.570E+03 0.157E+04   0.495E+03 0.572E+03 -.157E+04   -.304E+01 -.151E+01 0.333E+01   -.345E-01 -.601E-03 -.132E-01
   -.129E+02 -.182E+03 -.241E+04   0.992E+01 0.182E+03 0.241E+04   0.198E+01 -.411E+00 -.702E+01   -.244E-02 0.535E-02 0.144E-01
   -.390E+03 -.285E+03 0.104E+04   0.393E+03 0.286E+03 -.104E+04   -.231E+01 -.693E+00 0.136E+01   0.259E-01 -.155E-01 0.115E-01
   0.148E+03 0.397E+03 0.392E+04   -.144E+03 -.397E+03 -.392E+04   -.422E+01 -.426E+00 -.124E+00   -.271E-01 0.150E-02 0.157E-02
   0.670E+02 0.484E+03 0.181E+02   -.686E+02 -.486E+03 -.162E+02   0.119E+01 0.264E+01 -.172E+01   -.322E-01 -.182E-02 -.173E-01
   -.794E+02 0.189E+03 -.377E+04   0.778E+02 -.190E+03 0.377E+04   0.203E+01 0.155E+01 0.193E+01   -.262E-01 0.608E-02 -.317E-02
   0.492E+03 0.777E+03 0.323E+04   -.495E+03 -.780E+03 -.324E+04   0.241E+01 0.270E+01 0.390E+01   -.402E-01 0.784E-02 -.138E-01
   -.446E+03 0.757E+03 -.706E+03   0.450E+03 -.763E+03 0.706E+03   -.368E+01 0.534E+01 -.373E+00   -.399E-01 -.970E-02 0.619E-02
   -.972E+02 0.342E+03 0.198E+04   0.101E+03 -.342E+03 -.199E+04   -.289E+01 0.813E+00 0.427E+01   0.322E-01 0.910E-02 0.242E-01
   0.415E+02 0.137E+03 -.300E+04   -.419E+02 -.138E+03 0.300E+04   0.906E+00 0.131E+01 0.503E+00   0.176E-01 0.800E-02 0.870E-02
   -.261E+03 0.255E+03 0.144E+04   0.263E+03 -.257E+03 -.144E+04   -.839E+00 0.817E+00 0.511E+01   0.620E-03 0.846E-02 0.304E-02
   -.439E+02 0.274E+03 -.314E+04   0.450E+02 -.275E+03 0.314E+04   -.102E+01 0.114E+01 0.112E+01   0.227E-03 0.203E-03 -.330E-02
   -.190E+03 -.671E+03 0.216E+04   0.189E+03 0.674E+03 -.216E+04   0.710E+00 -.111E+01 0.631E+01   -.139E-01 0.236E-01 -.515E-02
   -.698E+03 0.295E+03 -.187E+04   0.702E+03 -.298E+03 0.188E+04   -.277E+01 0.298E+01 -.548E+01   0.159E-01 0.267E-01 0.296E-01
   -.453E+03 -.664E+02 0.240E+04   0.454E+03 0.667E+02 -.240E+04   -.808E+00 -.375E+00 0.440E+01   0.256E-01 0.197E-02 -.800E-02
   0.437E+03 0.495E+03 0.425E+03   -.438E+03 -.497E+03 -.425E+03   0.388E+00 0.184E+01 -.358E+00   0.527E-01 0.264E-02 0.206E-01
   0.733E+02 -.356E+03 0.390E+04   -.754E+02 0.356E+03 -.390E+04   0.186E+01 0.251E-02 0.525E+01   -.441E-02 -.633E-02 0.386E-03
   -.229E+03 -.847E+03 0.535E+03   0.228E+03 0.851E+03 -.535E+03   0.484E+00 -.386E+01 -.604E+00   -.283E-01 0.198E-02 0.609E-02
   -.145E+03 -.265E+03 -.363E+04   0.144E+03 0.267E+03 0.363E+04   0.167E+01 -.257E+01 0.177E+01   -.233E-01 0.125E-01 0.713E-02
   -.343E+03 -.263E+03 0.342E+04   0.342E+03 0.263E+03 -.342E+04   0.124E+01 0.566E+00 0.269E+01   -.472E-01 0.460E-03 -.172E-01
   -.247E+03 -.235E+03 -.130E+04   0.250E+03 0.239E+03 0.131E+04   -.304E+01 -.392E+01 -.377E+01   -.475E-01 0.121E-01 -.137E-02
   0.150E+03 -.772E+03 0.196E+04   -.150E+03 0.777E+03 -.196E+04   -.399E+00 -.463E+01 0.246E+01   0.230E-01 0.386E-02 0.241E-01
   0.112E+03 -.438E+03 -.267E+04   -.110E+03 0.438E+03 0.268E+04   -.169E+01 -.173E+00 -.143E+01   0.111E-01 -.139E-01 0.365E-02
   -.198E+03 -.221E+03 0.143E+04   0.199E+03 0.222E+03 -.143E+04   -.114E+01 -.414E+00 0.507E+01   0.560E-02 -.413E-03 0.738E-02
   -.625E+02 -.214E+03 -.321E+04   0.630E+02 0.215E+03 0.321E+04   -.640E+00 -.388E+00 0.134E+01   -.145E-01 -.126E-02 -.990E-02
   0.361E+03 0.291E+03 0.252E+04   -.362E+03 -.293E+03 -.253E+04   0.450E+00 0.863E+00 0.658E+01   0.129E-02 -.154E-01 0.632E-02
   -.522E+03 -.523E+03 -.191E+04   0.524E+03 0.525E+03 0.191E+04   -.223E+01 -.207E+01 -.578E+01   0.175E-01 -.878E-02 0.221E-01
   0.568E+03 0.144E+03 -.936E+03   -.573E+03 -.147E+03 0.939E+03   0.250E+01 0.108E+01 -.159E+01   0.147E-01 -.165E-02 0.504E-02
   -.168E+03 0.198E+03 0.653E+03   0.171E+03 -.199E+03 -.656E+03   -.182E+01 0.698E+00 0.171E+01   0.157E-01 -.936E-02 0.146E-02
   -.273E+03 -.396E+03 0.130E+04   0.276E+03 0.399E+03 -.130E+04   -.201E+01 -.126E+01 0.248E+01   -.144E-01 -.264E-02 -.267E-02
   -.218E+03 -.628E+02 -.850E+03   0.218E+03 0.633E+02 0.855E+03   0.115E+01 -.524E+00 -.382E+01   -.133E-01 0.901E-02 0.216E-02
   -.169E+03 0.327E+03 0.993E+03   0.170E+03 -.330E+03 -.998E+03   -.210E+00 0.322E+01 0.326E+01   -.178E-01 0.373E-03 -.113E-01
   -.174E+03 0.979E+02 -.156E+04   0.177E+03 -.984E+02 0.156E+04   -.196E+01 0.297E+00 -.230E+01   -.133E-01 -.973E-03 0.163E-01
   0.809E+02 0.141E+02 0.172E+04   -.811E+02 -.143E+02 -.172E+04   0.256E+00 -.923E-01 0.161E+01   0.410E-02 0.170E-02 0.252E-02
   -.105E+03 -.238E+01 -.363E+03   0.105E+03 0.200E+01 0.367E+03   0.127E+01 0.738E+00 -.257E+01   -.268E-02 -.268E-02 0.137E-01
   -.140E+03 0.363E+02 0.151E+04   0.142E+03 -.362E+02 -.151E+04   0.242E+00 -.251E+00 0.793E+00   0.382E-03 0.271E-02 0.476E-02
   -.210E+03 0.234E+02 -.260E+03   0.212E+03 -.237E+02 0.261E+03   -.122E+00 0.314E+00 -.237E+01   -.736E-02 0.180E-02 0.206E-02
   -.477E+02 0.645E+02 0.651E+03   0.485E+02 -.658E+02 -.655E+03   -.969E+00 0.126E+01 0.305E+01   0.440E-02 0.426E-02 0.898E-02
   -.130E+03 0.462E+01 -.130E+04   0.132E+03 -.452E+01 0.131E+04   -.979E+00 -.798E-01 -.348E+01   0.672E-02 0.243E-02 0.262E-02
   0.149E+02 -.288E+02 0.174E+04   -.153E+02 0.290E+02 -.175E+04   -.191E+00 0.427E+00 0.173E+01   -.411E-02 -.240E-02 -.204E-01
   -.430E+03 0.576E+02 -.685E+03   0.434E+03 -.583E+02 0.691E+03   -.389E+01 0.134E+01 -.375E+01   0.118E-01 0.931E-02 0.159E-01
   -.965E+01 -.454E+03 0.892E+03   0.937E+01 0.458E+03 -.895E+03   -.254E+00 -.138E+01 0.252E+01   0.957E-03 -.215E-02 0.117E-02
   0.237E+03 -.421E+02 -.101E+04   -.239E+03 0.425E+02 0.101E+04   0.603E+00 -.343E-01 -.121E+01   -.125E-02 0.251E-02 0.256E-02
   0.277E+03 0.984E+02 0.384E+03   -.280E+03 -.976E+02 -.383E+03   0.220E+01 -.676E+00 -.145E+01   -.123E-01 -.183E-02 -.571E-02
   -.995E+02 0.595E+02 -.134E+04   0.983E+02 -.592E+02 0.134E+04   0.172E+01 -.406E+00 -.204E+01   -.884E-02 -.522E-02 -.291E-03
   0.211E+03 -.464E+03 -.483E+03   -.211E+03 0.468E+03 0.487E+03   0.188E+00 -.241E+01 -.205E+01   0.161E-01 -.694E-02 0.105E-01
   0.825E+02 -.141E+03 0.147E+04   -.837E+02 0.142E+03 -.147E+04   0.111E+01 -.243E+00 0.391E+01   0.115E-01 -.117E-02 0.274E-03
   -.506E+02 0.735E+02 0.118E+04   0.514E+02 -.741E+02 -.119E+04   -.349E+00 0.548E+00 0.572E+01   0.145E-01 -.146E-02 0.618E-02
   0.135E+03 -.173E+03 -.784E+03   -.136E+03 0.177E+03 0.785E+03   0.946E+00 -.175E+01 -.771E-01   0.530E-02 0.761E-02 0.131E-02
   0.735E+02 -.112E+03 0.348E+03   -.756E+02 0.114E+03 -.351E+03   0.432E+00 -.205E+01 0.196E+01   -.319E-02 -.457E-02 0.119E-02
   -.948E+02 -.287E+03 -.155E+04   0.942E+02 0.291E+03 0.155E+04   0.205E+00 -.240E+01 -.910E+00   0.379E-02 0.471E-03 0.585E-02
   0.204E+03 0.370E+03 0.857E+03   -.206E+03 -.373E+03 -.858E+03   0.111E+01 0.119E+01 0.981E+00   0.759E-03 -.232E-03 0.108E-02
   0.252E+03 0.281E+02 -.101E+04   -.253E+03 -.285E+02 0.102E+04   0.819E+00 0.259E+00 -.128E+01   -.134E-01 -.280E-02 -.460E-02
   -.622E+02 0.514E+02 0.157E+04   0.630E+02 -.521E+02 -.157E+04   -.810E+00 0.262E+00 0.340E+01   0.358E-02 -.422E-02 -.966E-02
   -.221E+03 -.853E+02 -.633E+03   0.223E+03 0.865E+02 0.638E+03   -.133E+01 -.696E+00 -.267E+01   0.630E-02 -.145E-01 0.951E-02
   0.344E+03 0.272E+03 -.765E+03   -.347E+03 -.274E+03 0.769E+03   0.185E+01 0.159E+01 -.244E+01   0.193E-01 0.116E-01 0.144E-01
   0.132E+03 -.102E+02 0.133E+04   -.134E+03 0.110E+02 -.134E+04   0.570E+00 -.342E+00 0.479E+01   0.149E-01 0.100E-01 -.138E-02
   0.129E+03 0.170E+03 0.606E+03   -.130E+03 -.172E+03 -.610E+03   0.200E+00 0.890E+00 0.301E+01   -.158E-01 0.242E-02 -.206E-02
   -.132E+03 -.275E+02 -.132E+04   0.132E+03 0.272E+02 0.132E+04   0.479E+00 0.363E+00 -.363E+01   -.176E-01 -.706E-02 0.723E-02
   -.108E+03 -.144E+03 0.120E+03   0.107E+03 0.144E+03 -.120E+03   -.681E-02 0.555E+00 -.182E-01   -.121E-01 0.496E-02 0.195E-02
   -.104E+03 0.227E+03 -.160E+04   0.103E+03 -.231E+03 0.161E+04   0.589E-01 0.216E+01 -.677E+00   0.378E-02 0.172E-02 0.717E-02
   0.150E+03 -.834E+02 0.109E+04   -.152E+03 0.847E+02 -.109E+04   0.473E+00 -.760E+00 0.348E+01   0.602E-02 0.148E-03 0.553E-02
   0.183E+03 0.201E+03 -.784E+03   -.184E+03 -.205E+03 0.786E+03   0.107E+00 0.155E+01 -.880E+00   0.305E-02 -.356E-02 -.976E-04
   -.497E+01 -.745E+01 -.419E+02   -.512E-12 -.162E-11 -.398E-11   0.492E+01 0.743E+01 0.417E+02   -.592E-01 0.384E-01 0.260E+00

 POSITION                                       TOTAL-FORCE (eV/Angst)
     13.17084      1.39171      1.94975        -0.358304     -1.028858     -0.521052
     12.38145      1.82104      4.04973         0.995070     -0.438278      0.220658
      3.64022      6.43726      1.54704         0.969786     -0.406123     -0.236892
      5.02033      6.18092      3.49202        -0.438635     -0.110746     -0.072533
      7.93172      1.39171      4.00611        -1.626197     -0.196166     -1.190404
     16.08224      6.18092      2.46384        -0.473400     -1.086636      0.596075
     16.42968      6.34927      4.89594         0.147604     -0.189524      0.757275
      2.10894      1.39171      2.97793         0.922610     -0.941806      1.095993
      2.26861      1.39291      5.51482         0.360252      0.006948      1.560796
      9.61799      6.04193      2.57069         0.838431      0.623782     -0.129861
     10.84312      6.18092      4.52020        -0.955828      0.201332     -1.075192
     15.22467      8.86785      2.23787         0.385491      0.499076      1.156100
      7.81113      4.25045      0.81312        -0.258053     -0.770149     -0.922838
      7.17375      4.91558      3.08454        -0.380521      0.060240      0.134522
      7.58197      4.73514      5.54253         0.423379      0.138880      0.826596
      8.88143      1.33020      1.62867        -0.831232     -0.002715     -1.541019
     10.08514      0.12638      3.59863         0.017384     -1.019556     -0.388792
      1.35096      4.91558      2.05636         0.950109      0.649535      1.394360
      1.89077      4.81194      4.69603         0.448114      0.478463      1.104568
      4.26235      0.12638      2.57045         0.841384     -0.885681      2.199080
      4.84959      9.56365      5.15896         0.091246     -0.334719      0.911122
     12.69737      3.76337      1.96350         0.030462      1.665477     -0.233261
     12.99653      4.91558      4.11272         1.515172     -0.029653     -2.028117
     14.97948      2.93876      1.57103         0.509844     -0.055508     -0.047486
      0.24955      2.88693      2.69389        -0.210882     -0.204467     -0.277691
      6.03491      6.16867      0.95716        -0.222002      0.023348     -1.673426
      7.17375      7.44626      3.08454        -0.036662     -0.142925     -0.599660
      7.65106      7.70063      5.50493         0.324845     -0.373935      0.995571
     10.17221      3.43242      1.38463         0.126391      0.299462     -0.848211
     10.08514      2.65705      3.59863        -0.025742      0.450591      0.925323
      1.35096      7.44626      2.05636        -0.144210      0.254120      0.387725
      1.69179      7.64409      4.47422         0.426533     -0.197576      1.112161
      4.26235      2.65705      2.57045        -0.414111      1.160133      1.741456
      4.83402      2.76011      5.19135        -0.102628      0.275500      0.920066
     12.89085      8.13755      1.88912        -0.698296     -1.138681     -0.361362
     12.99653      7.44626      4.11272         0.452510     -0.375302     -1.082423
      0.57751      1.63022      4.36731        -2.966799     -1.309944      1.561994
     16.06899      1.21781      1.93707         1.130986     -0.381736     -0.838487
      8.00634      6.18092      1.40713         1.025093      1.644289     -2.814814
      8.59001      6.18092      4.49167         0.994035     -0.039954      0.852595
     10.91773      1.39171      1.92122         0.974149     -0.270509     -1.199212
     10.77249      1.37064      5.12555         0.994176     -0.152244      3.352920
      1.92197      6.17744      0.51086         0.128145     -0.270334     -3.722094
      2.76722      6.18092      3.46349         1.108297      0.355540      1.451597
      4.65677      1.40019      1.08026         1.523616     -0.087149     -4.068074
      5.67861      1.39171      3.97758         2.345065      0.056634     -1.118770
     13.82913      6.18092      2.43531        -0.160102     -0.076900     -0.827536
     14.38075      6.19005      5.07827         0.842573      0.027952      2.439765
     13.35734      2.71117      0.34360        -0.639890      0.679116     -3.392994
     13.99844      3.00295      3.46826         0.589847      0.619160      2.030898
      5.26426      7.79215      1.92599        -0.540455      2.058767     -0.604107
      5.77205      7.74380      4.72346        -1.068254      0.319257      1.988031
      8.26252      3.11194      2.46409        -1.263779      0.158112     -0.810393
      8.58464      3.00696      5.15569         0.439193     -0.104269      2.410294
     16.70522      7.94030      3.59718        -0.145704      1.640106      1.410315
     16.39012      7.63617      1.01932        -0.084047      0.366219     -3.188514
      2.24001      3.03930      1.74628         0.487923      0.027013     -3.300162
      2.93654      3.00295      4.49645         0.517111      2.006959      0.496722
     11.08705      7.79215      2.95417        -1.630111      0.224552     -0.828886
     11.73775      7.57744      5.68467        -0.387512      1.232594      3.818399
      5.26426      4.56969      1.92599        -1.153048     -1.588908     -0.518307
      5.72980      4.58534      4.71390        -0.758137     -0.125893      1.739787
     13.90959      9.42733      0.71891        -0.045837     -0.440049     -3.961636
     13.49194      9.46753      3.46460         0.465401      0.500084      2.541581
      0.02514      4.56969      3.98236        -1.440716     -0.351808      1.058388
     16.38558      4.40931      1.26838        -0.996686      0.464798     -2.853205
      8.18200      9.28038      2.65599        -0.800773     -0.818798     -1.210774
      8.65316      9.43441      5.22106         0.200079     -0.018272      2.065943
     11.08705      4.56969      2.95417        -1.124359     -0.406018     -0.175351
     11.76624      4.80745      5.70501        -0.653655     -1.342460      3.886215
      2.38694      9.24991      1.77531        -0.928816      0.504256     -2.938946
      2.93654      9.35889      4.49645        -0.576927     -1.958046      0.457591
    total drift:                               -0.104073      0.017720     -0.006624

  FREE ENERGIE OF THE ION-ELECTRON SYSTEM (eV)
  free  energy   TOTEN  =      -338.44398655 eV

  energy  without entropy=     -337.34693726  energy(sigma->0) =     -337.89546191