 vasp.5.4.4.18Apr17-6-g9f103f2a35 (build Aug 13 2019 17:33:20) gamma-only

 executed on             LinuxIFC date 2020.05.12  22:26:29

 INCAR:
 POTCAR:    PAW_PBE Ni_pv 06Sep2000
 POTCAR:    PAW_PBE S 06Sep2000
 POTCAR:    PAW_PBE Ni_pv 06Sep2000
   VRHFIN =Ni:

   TITEL  = PAW_PBE Ni_pv 06Sep2000
   POMASS =   58.690; ZVAL   =   16.000    mass and valenz
   ENMAX  =  367.986; ENMIN  =  275.989 eV

 POTCAR:    PAW_PBE S 06Sep2000
   VRHFIN =S : s2p4

   TITEL  = PAW_PBE S 06Sep2000
   POMASS =   32.066; ZVAL   =    6.000    mass and valenz
   ENMAX  =  258.689; ENMIN  =  194.016 eV

 Optimization of the real space projectors (new method)

 maximal supplied QI-value         = 18.90
 optimisation between [QCUT,QGAM] = [ 10.77, 21.73] = [ 32.49,132.25] Ry
 Optimized for a Real-space Cutoff    1.38 Angstroem

   l    n(q)    QCUT    max X(q) W(low)/X(q) W(high)/X(q)  e(spline)
   1      8    10.771     2.836    0.40E-04    0.29E-04    0.12E-06
   1      8    10.771     4.023    0.10E-03    0.48E-04    0.29E-06
   2      8    10.771    73.368    0.42E-03    0.97E-04    0.44E-06
   2      8    10.771    69.010    0.42E-03    0.99E-04    0.45E-06
   0      9    10.771    54.797    0.10E-03    0.56E-04    0.74E-07
   0      9    10.771    24.266    0.89E-04    0.49E-04    0.67E-07
 Optimization of the real space projectors (new method)

 maximal supplied QI-value         = 19.84
 optimisation between [QCUT,QGAM] = [ 10.71, 21.63] = [ 32.15,130.99] Ry
 Optimized for a Real-space Cutoff    1.19 Angstroem

   l    n(q)    QCUT    max X(q) W(low)/X(q) W(high)/X(q)  e(spline)
   0      8    10.715   187.594    0.41E-03    0.53E-04    0.66E-07
   0      8    10.715   164.243    0.41E-03    0.53E-04    0.65E-07
   1      7    10.715    67.533    0.19E-03    0.59E-03    0.68E-07
   1      7    10.715    50.729    0.19E-03    0.58E-03    0.67E-07
  PAW_PBE Ni_pv 06Sep2000               :
  PAW_PBE S 06Sep2000                   :

 POSCAR: Type_036 Type_136
  positions in cartesian coordinates
 exchange correlation table for  LEXCH =        8
   RHO(1)=    0.500       N(1)  =     2000
   RHO(2)=  100.500       N(2)  =     4000

 ion  position               nearest neighbor table
   1  0.397  0.795  0.118-  49 2.04  61 2.10  42 2.25  50 2.36  62 2.36  25 2.47
   2  0.547  0.645  0.245-  43 2.25  62 2.26  50 2.26  63 2.36  51 2.36  26 2.53  14 2.53
   3  0.698  0.494  0.372-  52 2.06  44 2.25  51 2.26  63 2.26  64 2.36  15 2.53  27 2.53
   4  0.853  0.238  0.420-  64 2.02  52 2.02  40 2.08  16 2.50  15 2.53  27 2.53
   5  0.114  0.412  0.160-  53 2.12  45 2.25  68 2.26   8 2.28  54 2.36  65 2.36  28 2.53  17 2.53

   6  0.264  0.261  0.287-  46 2.16  66 2.17  65 2.26  54 2.26  47 2.29  55 2.36  18 2.53  29 2.53

[...]

  13  0.363  0.553  0.104-  62 2.05  61 2.12  53 2.17  38 2.21
  14  0.508  0.420  0.212-  54 2.25  62 2.26  38 2.26  39 2.36  63 2.36  26 2.53   2 2.53
  15  0.658  0.270  0.338-  55 2.25  63 2.26  39 2.26  40 2.29  64 2.36  35 2.40  16 2.42   4 2.53
                             3 2.53  27 2.53
  16  0.747  0.052  0.400-  56 2.06  37 2.11  40 2.11  15 2.42  31 2.43   4 2.50  30 2.52
  17  0.074  0.187  0.127-  41 2.06  60 2.25  68 2.26  42 2.36  65 2.36  21 2.53  28 2.53   5 2.53

[...]

  28  0.299  0.227  0.093-  41 2.03  53 2.17  54 2.36  42 2.36  21 2.46   5 2.53  17 2.53
  29  0.449  0.076  0.220-  70 2.25  42 2.26  54 2.26  43 2.36  55 2.36  18 2.53   6 2.53
  30  0.599  0.926  0.347-  56 2.09  71 2.25  43 2.26  55 2.26  44 2.36  31 2.37  16 2.52   7 2.53
                            19 2.53
  31  0.808  0.797  0.405-  72 2.07  37 2.12  56 2.28  30 2.37  16 2.43  44 2.44
  32  0.015  0.843  0.136-  61 2.11  48 2.26  60 2.26  45 2.36  57 2.36  23 2.53  11 2.53
  33  0.166  0.693  0.263-  46 2.17  62 2.25  57 2.26  45 2.26  58 2.36  12 2.53  24 2.53
  34  0.231  0.552  0.369-  46 2.08  59 2.11  72 2.13  58 2.22  47 2.22  35 2.44   9 2.49
  35  0.455  0.379  0.406-  64 2.06  47 2.06  59 2.14  63 2.23  15 2.40  34 2.44
  36  0.768  0.002  0.073-  69 2.02  48 2.02  60 2.06  70 2.08  10 2.41  22 2.48
  37  0.941  0.908  0.436-  16 2.11  31 2.12   9 2.17  12 2.23  72 2.58  40 2.77
  38  0.586  0.406  0.108-  10 1.99  25 2.06  13 2.21  14 2.26  26 2.26
  39  0.736  0.256  0.235-  10 2.11  11 2.25  27 2.26  15 2.26  14 2.36  26 2.36  40 2.72
  40  0.885  0.110  0.338-   4 2.08  16 2.11  27 2.12  12 2.20  15 2.29  39 2.72  37 2.77
  41  0.174  0.151  0.038-  21 2.01  28 2.03  17 2.06  42 2.75
  42  0.303  0.023  0.151-   1 2.25  29 2.26  18 2.26  17 2.36  28 2.36  41 2.75
  43  0.453  0.872  0.278-   2 2.25  30 2.26  19 2.26  29 2.36  18 2.36
  44  0.603  0.722  0.405-  20 2.20   3 2.25  30 2.36  19 2.36  31 2.44  56 2.66
  45  0.019  0.639  0.193-   8 2.14   5 2.25  24 2.26  33 2.26  23 2.36  32 2.36  46 2.53
  46  0.154  0.488  0.286-  34 2.08   6 2.16  33 2.17  24 2.21  45 2.53  47 2.77
  47  0.278  0.324  0.393-  35 2.06   7 2.15  34 2.22   6 2.29  66 2.62  55 2.74  46 2.77  59 2.79

  48  0.869  0.789  0.066-   8 2.00  36 2.02  32 2.26  23 2.26  22 2.28
  49  0.482  0.781  0.028-  25 2.03   1 2.04  22 2.07
  50  0.636  0.692  0.151-  25 2.06  22 2.15  23 2.25  26 2.26   2 2.26   1 2.36
  51  0.787  0.542  0.278-  24 2.25   3 2.26  27 2.26  26 2.36   2 2.36
  52  0.911  0.401  0.391-   4 2.02   3 2.06  27 2.08
  53  0.213  0.454  0.076-  21 2.08   5 2.12  28 2.17  13 2.17   8 2.24
  54  0.353  0.308  0.193-  14 2.25   6 2.26  29 2.26  28 2.36   5 2.36
  55  0.503  0.158  0.320-  15 2.25   7 2.26  30 2.26   6 2.36  29 2.36  47 2.74
  56  0.612  0.970  0.445-  16 2.06  30 2.09   7 2.10  31 2.28  44 2.66
  57  0.070  0.925  0.236-  18 2.25  33 2.26  12 2.26  11 2.36  32 2.36
  58  0.220  0.775  0.363-   9 2.03  34 2.22  20 2.24  19 2.25  33 2.36  12 2.36  67 2.51
  59  0.313  0.545  0.464-  20 2.10  34 2.11   9 2.13  35 2.14  67 2.74  47 2.79
  60  0.920  0.075  0.109-  36 2.06  10 2.18  17 2.25  11 2.26  32 2.26
  61  0.213  0.760  0.088-   1 2.10  32 2.11  13 2.12  62 2.63
  62  0.350  0.641  0.194-  13 2.05  33 2.25  14 2.26   2 2.26   1 2.36  61 2.63
  63  0.501  0.491  0.321-  35 2.23   3 2.26  15 2.26  20 2.27   2 2.36  14 2.36
  64  0.651  0.341  0.448-   4 2.02  35 2.06  15 2.36   3 2.36
  65  0.067  0.258  0.236-  27 2.25   6 2.26  18 2.26   5 2.36  17 2.36
  66  0.256  0.090  0.349-  19 2.08  18 2.08   7 2.17   6 2.17  47 2.62
  67  0.323  0.813  0.469-  19 2.09  20 2.12   9 2.15  58 2.51  59 2.74
  68  0.917  0.408  0.109-  21 2.07   8 2.23  26 2.25  17 2.26   5 2.26
  69  0.619  0.991  0.009-  36 2.02  22 2.02
  70  0.634  0.025  0.152-  36 2.08  29 2.25  11 2.26  23 2.26  10 2.30  22 2.43
  71  0.784  0.874  0.279-  30 2.25  24 2.26  12 2.26  23 2.36  11 2.36
  72  0.013  0.652  0.393-  31 2.07  24 2.12  34 2.13   9 2.25  12 2.55  37 2.58

  LATTYP: Found a base centered orthorhombic cell.
 ALAT       =    11.4527836704
 B/A-ratio  =     1.4485816945
 C/A-ratio  =     1.8059804630

  Lattice vectors:

 A1 = (  10.0797329849,   0.0000000000,   0.0000000000)
 A2 = (  -3.5732980427,  -9.4251025535,   0.0000000000)
 A3 = (   0.0000000000,   0.0000000000, -20.6835035552)

Analysis of symmetry for initial positions (statically):
 Subroutine PRICEL returns:
 Original cell was already a primitive cell.

 Routine SETGRP: Setting up the symmetry group for a
 base centered orthorhombic supercell.

 Subroutine GETGRP returns: Found  1 space group operations
 (whereof  1 operations were pure point group operations)
 out of a pool of  8 trial point group operations.

The static configuration has the point symmetry C_1 .

Analysis of symmetry for dynamics (positions and initial velocities):
 Subroutine PRICEL returns:
 Original cell was already a primitive cell.

 Routine SETGRP: Setting up the symmetry group for a
 base centered orthorhombic supercell.

 Subroutine GETGRP returns: Found  1 space group operations
 (whereof  1 operations were pure point group operations)
 out of a pool of  8 trial point group operations.

The dynamic configuration has the point symmetry C_1 .

 Subroutine INISYM returns: Found  1 space group operations
 (whereof  1 operations are pure point group operations),
 and found     1 'primitive' translations

 KPOINTS: gamma-point-only calculation. no periodi

Automatic generation of k-mesh.
Space group operators:
 irot       det(A)        alpha          n_x          n_y          n_z        tau_x        tau_y        tau_z
    1     1.000000     0.000000     1.000000     0.000000     0.000000     0.000000     0.000000     0.000000

 Subroutine IBZKPT returns following result:

 Found      1 irreducible k-points:

 Following reciprocal coordinates:
            Coordinates               Weight
  0.000000  0.000000  0.000000      1.000000

 Following cartesian coordinates:
            Coordinates               Weight
  0.000000  0.000000  0.000000      1.000000

 SYSTEM =  "Millerite NiS"
 POSCAR =  Type_036 Type_136

 Startparameter for this run:
   NWRITE =      2    write-flag & timer
   PREC   = normal    normal or accurate (medium, high low for compatibility)
   ISTART =      0    job   : 0-new  1-cont  2-samecut
   ICHARG =      2    charge: 1-file 2-atom 10-const
   ISPIN  =      1    spin polarized calculation?
   LNONCOLLINEAR =      F non collinear calculations
   LSORBIT =      F    spin-orbit coupling
   INIWAV =      1    electr: 0-lowe 1-rand  2-diag
   LASPH  =      F    aspherical Exc in radial PAW
   METAGGA=      F    non-selfconsistent MetaGGA calc.

 Electronic Relaxation 1
   ENCUT  =  450.0 eV  33.07 Ry    5.75 a.u.  17.43 17.43 35.78*2*pi/ulx,y,z
   ENINI  =  450.0     initial cutoff
   ENAUG  =  703.4 eV  augmentation charge cutoff
   NELM   =    100;   NELMIN=  2; NELMDL= -5     # of ELM steps
   EDIFF  = 0.1E-03   stopping-criterion for ELM
   LREAL  =      T    real-space projection
   NLSPLINE    = F    spline interpolate recip. space projectors
   LCOMPAT=      F    compatible to vasp.4.4
   GGA_COMPAT  = T    GGA compatible to vasp.4.4-vasp.4.6
   LMAXPAW     = -100 max onsite density
   LMAXMIX     =    2 max onsite mixed and CHGCAR
   VOSKOWN=      0    Vosko Wilk Nusair interpolation
   ROPT   =   -0.00050  -0.00050
 Ionic relaxation
   EDIFFG = 0.1E-02   stopping-criterion for IOM
   NSW    =      0    number of steps for IOM
   NBLOCK =      1;   KBLOCK =      1    inner block; outer block
   IBRION =     -1    ionic relax: 0-MD 1-quasi-New 2-CG
   NFREE  =      0    steps in history (QN), initial steepest desc. (CG)
   ISIF   =      2    stress and relaxation
   IWAVPR =     10    prediction:  0-non 1-charg 2-wave 3-comb
   ISYM   =      2    0-nonsym 1-usesym 2-fastsym
   LCORR  =      T    Harris-Foulkes like correction to forces

   POTIM  = 0.5000    time-step for ionic-motion
   TEIN   =    0.0    initial temperature
   TEBEG  =    0.0;   TEEND  =   0.0 temperature during run
   SMASS  =  -3.00    Nose mass-parameter (am)
   estimated Nose-frequenzy (Omega)   =  0.10E-29 period in steps =****** mass=  -0.232E-26a.u.
   SCALEE = 1.0000    scale energy and forces
   NPACO  =    256;   APACO  = 16.0  distance and # of slots for P.C.
   PSTRESS=    0.0 pullay stress

  Mass of Ions in am
   POMASS =  58.69 32.07
  Ionic Valenz
[...]
  Fock        0.00000     0.00000     0.00000     0.00000     0.00000     0.00000
  Total     107.96621   117.33560   120.98874    -7.20527    -6.73979     4.51413
  in kB      88.03173    95.67119    98.64982    -5.87492    -5.49538     3.68066

 VOLUME and BASIS-vectors are now :
  energy-cutoff  :      450.00
  volume of cell :     1964.98
      direct lattice vectors                 reciprocal lattice vectors
    10.079732985  0.000000000  0.000000000     0.099208977 -0.037612667  0.000000000
     3.573298043  9.425102554  0.000000000     0.000000000  0.106099641  0.000000000
     0.000000000  0.000000000 20.683503555     0.000000000  0.000000000  0.048347708

  length of vectors
    10.079732985 10.079732985 20.683503555     0.106099641  0.106099641  0.048347708

 FORCES acting on ions
    electron-ion (+dipol)            ewald-force                    non-local-force                 convergence-correction
   0.422E+03 -.659E+03 0.342E+04   -.424E+03 0.664E+03 -.342E+04   0.217E+01 -.423E+01 0.227E+01   -.457E-03 -.221E-01 -.230E-01
   -.354E+02 -.507E+03 -.124E+03   0.354E+02 0.508E+03 0.124E+03   0.107E+00 -.150E+01 -.587E-01   -.139E-01 0.196E-02 -.976E-01
   -.551E+03 -.531E+03 -.374E+04   0.552E+03 0.535E+03 0.374E+04   -.194E+01 -.323E+01 -.173E+01   -.134E-01 0.244E-01 -.684E-01
   -.107E+04 0.182E+03 -.537E+04   0.107E+04 -.183E+03 0.537E+04   -.328E+01 -.879E-01 -.292E+01   0.245E-01 0.233E-01 -.241E-02
   -.933E+02 -.304E+02 0.173E+04   0.930E+02 0.284E+02 -.173E+04   0.499E+00 0.648E+00 -.260E+01   0.159E-01 0.328E-02 -.124E-01
   0.295E+03 -.290E+03 -.133E+04   -.295E+03 0.291E+03 0.133E+04   0.530E+00 -.997E+00 0.585E+00   0.528E-02 -.570E-02 -.880E-01
   0.599E+03 -.330E+03 -.508E+04   -.597E+03 0.328E+03 0.508E+04   -.181E+01 0.170E+01 -.132E+01   -.350E-01 0.166E-01 -.276E-01
   0.431E+02 -.258E+03 0.456E+04   -.455E+02 0.256E+03 -.456E+04   0.237E+01 0.195E+01 0.344E+01   0.274E-02 0.284E-01 0.845E-02
   0.346E+03 -.350E+03 -.566E+04   -.347E+03 0.354E+03 0.566E+04   -.258E+00 -.392E+01 -.570E+01   0.229E-01 -.219E-01 0.222E-01
   0.115E+03 -.334E+03 0.360E+04   -.116E+03 0.333E+03 -.361E+04   0.509E+00 0.505E+00 0.421E+01   -.634E-02 -.142E-01 -.258E-01
   -.264E+03 -.198E+03 0.805E+03   0.265E+03 0.196E+03 -.801E+03   -.739E+00 0.821E+00 -.242E+01   -.146E-01 0.144E-01 -.109E+00
   -.450E+03 -.447E+03 -.220E+04   0.452E+03 0.447E+03 0.220E+04   -.110E+01 -.417E+00 0.258E+01   0.330E-01 -.266E-01 -.123E+00
   0.341E+03 0.223E+03 0.437E+04   -.344E+03 -.225E+03 -.437E+04   0.233E+01 0.699E+00 0.217E+01   0.232E-01 0.113E-01 -.849E-02
   0.480E+03 0.247E+03 0.973E+03   -.482E+03 -.246E+03 -.973E+03   0.166E+01 -.940E+00 -.784E+00   -.232E-02 -.520E-02 -.865E-01
   0.204E+03 0.147E+03 -.205E+04   -.207E+03 -.147E+03 0.205E+04   0.181E+01 0.667E+00 0.522E-01   -.388E-01 0.296E-01 -.124E+00
   -.124E+03 -.997E+02 -.450E+04   0.121E+03 0.103E+03 0.451E+04   0.251E+01 -.221E+01 -.304E+01   -.304E-01 0.949E-02 -.393E-01
   0.519E+03 0.621E+03 0.320E+04   -.522E+03 -.622E+03 -.320E+04   0.182E+01 0.296E+00 0.291E+00   -.730E-02 -.190E-01 -.243E-02
   0.483E+03 0.248E+03 -.151E+03   -.486E+03 -.249E+03 0.149E+03   0.284E+01 0.628E+00 0.110E+01   0.194E-01 0.418E-02 -.835E-01
   0.336E+03 -.331E+03 -.366E+04   -.336E+03 0.333E+03 0.366E+04   -.149E-01 -.268E+01 -.231E+01   -.101E-01 0.113E-01 -.581E-01
   -.463E+03 -.992E+02 -.437E+04   0.467E+03 0.973E+02 0.437E+04   -.361E+01 0.162E+01 -.174E+01   -.142E-01 0.636E-02 -.309E-01
   0.334E+03 -.155E+02 0.597E+04   -.337E+03 0.136E+02 -.598E+04   0.169E+01 0.287E+01 0.541E+01   0.197E-02 -.311E-02 -.274E-02
   0.310E+03 -.183E+03 0.476E+04   -.313E+03 0.185E+03 -.477E+04   0.253E+01 -.202E+01 0.577E+01   -.219E-02 0.660E-03 0.554E-02
   0.338E+03 0.285E+03 0.172E+04   -.338E+03 -.285E+03 -.172E+04   0.176E+00 0.123E+00 -.336E+01   0.567E-02 0.175E-01 -.515E-01
   0.488E+03 0.558E+03 -.132E+04   -.493E+03 -.558E+03 0.132E+04   0.360E+01 0.733E+00 -.379E+00   0.159E-01 -.220E-01 -.113E+00
   -.168E+03 0.548E+03 0.529E+04   0.166E+03 -.548E+03 -.530E+04   0.260E+01 -.551E+00 0.371E+01   -.235E-01 0.491E-02 0.369E-02
   -.550E+03 0.153E+03 0.205E+04   0.552E+03 -.152E+03 -.205E+04   -.170E+01 -.908E+00 -.175E+01   -.271E-01 -.590E-02 -.644E-01
   -.885E+03 0.132E+03 -.131E+04   0.891E+03 -.130E+03 0.131E+04   -.489E+01 -.126E+01 0.132E+01   0.170E-01 0.118E-01 -.126E+00
   -.887E+03 0.488E+03 0.441E+04   0.888E+03 -.489E+03 -.441E+04   0.114E+01 0.509E+00 0.878E+00   0.208E-01 -.105E-01 0.124E-01
   -.233E+03 0.164E+03 0.106E+04   0.234E+03 -.164E+03 -.106E+04   -.184E+00 -.570E+00 0.925E+00   -.927E-02 0.760E-02 -.692E-01
   0.172E+03 0.247E+03 -.225E+04   -.172E+03 -.248E+03 0.224E+04   -.133E+01 0.967E+00 0.196E+01   -.532E-01 0.106E-01 -.105E+00
   0.222E+03 0.789E+03 -.477E+04   -.224E+03 -.789E+03 0.477E+04   0.611E+00 -.203E+00 -.226E+01   -.776E-02 -.401E-01 -.283E-01
   -.826E+03 -.654E+02 0.340E+04   0.831E+03 0.650E+02 -.340E+04   -.478E+01 0.559E+00 0.168E+00   -.773E-02 0.883E-02 -.227E-01
   -.484E+03 -.388E+02 0.116E+02   0.488E+03 0.412E+02 -.139E+02   -.323E+01 -.161E+01 0.153E+01   0.816E-02 -.140E-01 -.952E-01
   0.520E+03 0.454E+03 -.320E+04   -.520E+03 -.457E+03 0.319E+04   0.148E+01 0.325E+01 0.366E+01   -.205E-02 -.150E-01 -.700E-01
   0.303E+03 0.343E+03 -.465E+04   -.303E+03 -.347E+03 0.465E+04   0.153E-01 0.322E+01 -.236E+01   -.350E-01 0.119E-01 -.370E-01
   -.254E+03 -.520E+03 0.535E+04   0.255E+03 0.527E+03 -.536E+04   0.489E+00 -.568E+01 0.965E+01   0.202E-02 0.181E-01 0.255E-01
   -.208E+03 -.146E+03 -.213E+04   0.210E+03 0.150E+03 0.214E+04   -.210E+01 -.262E+01 -.282E+01   0.191E-01 -.941E-02 0.180E-01
   0.938E+02 0.196E+03 0.178E+04   -.939E+02 -.199E+03 -.178E+04   -.101E+01 0.246E+01 0.343E+01   0.402E-03 -.218E-02 -.275E-02
   -.658E+02 0.703E+02 0.132E+03   0.663E+02 -.713E+02 -.130E+03   -.632E+00 0.144E+01 -.140E+01   -.974E-02 -.348E-02 -.522E-01
   -.363E+03 0.128E+03 -.796E+03   0.364E+03 -.129E+03 0.794E+03   -.564E+00 0.704E+00 0.198E+01   0.999E-02 -.264E-02 -.543E-01
   0.758E+02 0.449E+03 0.223E+04   -.765E+02 -.452E+03 -.223E+04   0.333E+00 0.107E+01 0.830E+00   0.784E-03 -.129E-01 -.184E-02
   0.551E+02 0.134E+03 0.114E+04   -.546E+02 -.136E+03 -.114E+04   -.279E+00 0.173E+01 0.244E+00   0.311E-02 -.533E-02 -.494E-02
   0.487E+02 0.851E+02 -.144E+03   -.489E+02 -.877E+02 0.143E+03   0.323E+00 0.214E+01 0.369E+00   -.641E-02 0.587E-02 -.387E-01
   -.167E+03 0.759E+02 -.175E+04   0.168E+03 -.771E+02 0.176E+04   0.849E-01 0.448E+00 -.500E+01   -.118E-01 -.227E-02 -.924E-02
   -.344E+02 0.805E+02 0.511E+03   0.351E+02 -.809E+02 -.509E+03   -.102E+01 0.104E+01 -.122E+01   0.248E-02 0.436E-02 -.187E-01
   0.125E+03 0.213E+03 -.343E+03   -.127E+03 -.215E+03 0.341E+03   0.129E+01 0.148E+01 0.139E+01   0.392E-02 -.360E-02 -.320E-01
   0.469E+03 0.404E+02 -.167E+04   -.474E+03 -.405E+02 0.167E+04   0.328E+01 -.175E+00 -.655E+00   -.591E-02 -.183E-02 -.178E-01
   -.139E+03 0.935E+02 0.216E+04   0.141E+03 -.977E+02 -.217E+04   -.125E+01 0.272E+01 0.519E+01   0.485E-04 0.101E-01 0.408E-02
   0.218E+03 -.161E+03 0.235E+04   -.221E+03 0.161E+03 -.235E+04   0.219E+01 0.400E+00 0.130E+01   -.321E-02 -.103E-01 0.634E-02
   -.646E+02 -.494E+02 0.833E+03   0.667E+02 0.496E+02 -.830E+03   -.151E+01 0.227E+00 -.928E-01   -.683E-02 -.319E-03 -.194E-01
   -.160E+03 -.818E+02 -.292E+03   0.161E+03 0.839E+02 0.291E+03   -.190E+01 -.171E+01 0.102E+00   0.112E-02 0.486E-02 -.399E-01
   -.536E+03 -.104E+03 -.173E+04   0.541E+03 0.106E+03 0.173E+04   -.132E+01 -.553E+00 -.150E+00   0.196E-01 0.145E-01 -.148E-01
   -.345E+03 -.136E+03 0.193E+04   0.347E+03 0.138E+03 -.193E+04   -.669E+00 -.904E+00 0.108E+01   0.177E-01 0.823E-02 0.436E-02
   -.997E+02 -.434E+02 0.624E+03   0.102E+03 0.450E+02 -.625E+03   -.152E+01 -.221E+01 0.644E+00   0.371E-02 -.241E-02 -.149E-01
   0.140E+02 -.601E+02 -.586E+03   -.131E+02 0.618E+02 0.585E+03   0.203E+00 -.213E+01 0.230E+00   -.166E-01 0.632E-02 -.421E-01
   0.106E+03 0.705E+02 -.235E+04   -.106E+03 -.704E+02 0.235E+04   -.677E-01 0.209E-01 -.294E+01   -.244E-01 0.362E-02 0.202E-01
   -.200E+03 -.143E+03 0.190E+03   0.201E+03 0.145E+03 -.190E+03   -.111E+01 -.229E+01 0.505E+00   0.479E-02 -.109E-02 -.385E-01
   -.722E+02 -.305E+03 -.981E+03   0.720E+02 0.309E+03 0.976E+03   0.103E+01 -.332E+01 0.116E+01   0.681E-02 -.512E-02 -.273E-01
   0.143E+03 0.200E+03 -.239E+04   -.143E+03 -.202E+03 0.240E+04   0.416E+00 0.402E+00 -.309E+01   -.574E-02 -.250E-02 0.183E-01
   -.329E+03 -.106E+03 0.167E+04   0.331E+03 0.107E+03 -.167E+04   -.939E-01 -.168E+00 0.299E+01   -.185E-01 -.400E-03 0.339E-03
   0.798E+02 -.170E+03 0.185E+04   -.817E+02 0.171E+03 -.186E+04   0.126E+01 -.485E+00 0.358E+01   0.684E-02 -.480E-02 0.475E-03
   0.135E+03 -.160E+03 0.475E+03   -.136E+03 0.162E+03 -.472E+03   0.216E+01 -.128E+01 0.200E+00   0.838E-03 -.183E-02 -.295E-01
   0.105E+03 -.927E+02 -.556E+03   -.108E+03 0.944E+02 0.553E+03   0.243E+01 -.132E+01 0.154E+01   -.700E-02 0.259E-02 -.388E-01
   -.572E+02 -.538E+02 -.234E+04   0.570E+02 0.555E+02 0.235E+04   0.506E+00 -.144E+01 -.488E+01   -.155E-01 0.156E-01 0.194E-01
   0.137E+03 -.204E+02 0.228E+02   -.140E+03 0.217E+02 -.230E+02   0.220E+01 -.153E+01 -.319E+00   0.116E-01 -.477E-02 -.269E-01
   0.367E+03 -.157E+03 -.126E+04   -.375E+03 0.159E+03 0.126E+04   0.435E+01 -.151E+01 -.146E+01   0.577E-02 0.449E-02 -.339E-01
   -.824E+02 -.289E+03 -.230E+04   0.847E+02 0.291E+03 0.230E+04   -.209E+01 -.142E+01 -.366E+01   0.131E-02 0.274E-02 0.200E-01
   0.354E+03 0.293E+02 0.147E+04   -.358E+03 -.285E+02 -.147E+04   0.263E+01 -.114E+00 0.192E+01   -.130E-01 0.224E-02 0.309E-02
   0.144E+03 -.264E+03 0.227E+04   -.145E+03 0.266E+03 -.228E+04   -.811E+00 -.770E-02 0.100E+01   0.661E-02 0.152E-02 0.290E-02
   0.321E+03 -.170E+03 0.957E+03   -.326E+03 0.172E+03 -.956E+03   0.305E+01 -.213E+01 0.127E+01   0.112E-01 0.615E-02 -.143E-01
   0.162E+03 -.250E+02 -.222E+03   -.165E+03 0.263E+02 0.221E+03   0.246E+01 -.165E+01 0.547E+00   -.259E-02 -.241E-02 -.563E-01
   0.213E+03 0.348E+03 -.172E+04   -.218E+03 -.354E+03 0.173E+04   0.232E+01 0.463E+01 -.215E+01   0.122E-01 -.197E-01 -.177E-01
   -.190E+02 0.193E+02 -.163E+02   0.117E-11 0.966E-12 -.887E-11   0.192E+02 -.193E+02 0.186E+02   -.133E+00 0.451E-01 -.225E+01

 POSITION                                       TOTAL-FORCE (eV/Angst)
      6.84285      7.49250      2.44401        -0.513420      0.659943      1.935995
      7.82056      6.07621      5.06951         0.060566      0.002772     -0.102317
      8.79827      4.65991      7.69501        -0.809054      0.941586     -0.129618
      9.45267      2.24536      8.68755         0.170461     -1.375955      0.942283
      2.61774      3.87870      3.31918         0.266452     -1.342487      2.109052
      3.59545      2.46241      5.94468         0.347534     -0.659709     -0.093806
      4.57317      1.04611      8.57018        -0.055149      0.301723     -0.117994
     12.06274      5.58956      1.95322        -0.056942     -0.160251     -0.705982
      4.14717      7.02108      9.32761        -1.356815      0.417836      1.400787
      7.89957      2.01079      2.84572        -0.197546     -0.136171     -0.650646
      8.47237      0.26490      4.19434         0.237757     -0.974062      1.166051
     13.02338      8.27371      6.81985         0.372981     -0.153697     -0.291265
      5.63845      5.21205      2.14946        -0.180907     -0.630061     -0.996334
      6.61816      3.96023      4.37584        -0.051304      0.196470     -0.435306
      7.59587      2.54394      7.00134        -0.843134      0.069482     -0.759465
      7.71879      0.49193      8.26999         0.338062      1.275262      0.406179
      1.41534      1.76273      2.62550        -0.938775     -0.798123      1.950172
      2.39305      0.34643      5.25100        -0.003278     -0.400685     -1.312524
      6.94406      8.35524      7.87651         0.647509     -0.683584     -1.136530
      6.60008      6.03050      8.40477         1.236090     -0.223347     -0.092769
      2.03654      3.41317      0.81830        -0.373509      0.965132     -1.751302
      9.36442      7.92204      1.57161        -0.149559     -0.941085      0.457491
     10.84326      7.57403      3.50067         0.095391     -0.100497      0.558455
     11.82097      6.15773      6.12617        -0.894870      0.242686     -0.925069
      8.08329      5.59344      1.47647         0.521832     -1.115581     -0.620001
      9.02296      4.33443      3.68216         0.180388     -0.150126     -0.192585
     10.00068      2.91813      6.30767         0.600393      0.806530     -2.398336
      3.82015      2.13692      1.93183         1.663696     -0.588262      1.596610
      4.79786      0.72063      4.55733         0.151006     -0.095830     -0.036153
      9.34887      8.72943      7.18283        -0.808586     -0.340175     -2.201672
     10.99675      7.51096      8.36921        -0.603404     -0.526306      0.512495
      3.16834      7.94822      2.80700         0.098893      0.180222      0.449956
      4.14605      6.53193      5.43250         0.844257      0.744312     -0.888523
      4.29884      5.20031      7.63756         0.867556     -0.130129     -0.121106
      5.94045      3.56880      8.40389        -0.103248     -0.635896      0.203495
      7.75087      0.01875      1.50022         0.908495      1.016697     -0.746147
     12.72758      8.55946      9.01394         0.270419      0.642826      2.186553
      7.35546      3.82659      2.24358        -1.124985      0.386642     -1.572283
      8.33317      2.41029      4.86908        -0.203300      0.468841      0.493883
      9.31490      1.03262      6.99805         1.268715     -0.830419     -0.112785
      2.29544      1.42021      0.79275        -0.374746     -2.215948     -3.410035
      3.13035      0.21279      3.11874         0.244469      0.008183     -0.057905
      7.68136      8.22159      5.74425         0.140224     -0.498594     -0.630900
      8.65907      6.80530      8.36975         1.532400     -0.775062      0.330515
      2.47854      6.02409      3.99391        -0.376509      0.703493     -0.044372
      3.29253      4.59781      5.91600        -0.267529      0.001508     -0.143241
      3.96129      3.05837      8.12548        -2.366520     -0.245962      1.156545
     11.58056      7.44039      1.36841         0.287137     -1.464639     -2.016370
      7.64283      7.35691      0.56974        -0.531616      0.992409     -3.693478
      8.88655      6.52099      3.12687         0.538323      0.373469      2.527357
      9.86427      5.10469      5.75238        -0.407152      0.453549     -0.502714
     10.62038      3.77938      8.09618         3.059486      0.683852      2.044412
      3.76437      4.27672      1.57799         1.328794      1.022220     -1.657999
      4.66145      2.90719      4.00204         0.365119     -0.694998     -0.166455
      5.63916      1.49089      6.62754         1.074602     -0.443886     -0.953944
      9.63621      9.13779      9.20933        -0.139182      0.150573      3.479252
      4.00964      8.71849      4.87721         0.152360     -0.478707     -0.091449
      4.98735      7.30220      7.50271         0.817771      1.376257     -3.758153
      5.10617      5.14089      9.58762         0.152873     -1.535010      3.667464
      9.53836      0.70969      2.25171         2.583247      0.797553      0.069433
      4.86057      7.16044      1.82909        -0.630020      0.795831     -2.167844
      5.82436      6.04450      4.01017         0.591938      0.670622      2.706556
      6.80207      4.62821      6.63567        -0.035647      0.351566     -1.229248
      7.77979      3.21191      9.26118         0.243866      0.231786      1.978086
      1.59925      2.43070      4.88534        -0.511288     -0.235700     -0.587427
      2.89585      0.84496      7.21039        -2.763666      0.838682      1.916336
      6.16374      7.66370      9.69228         0.259730      1.419232      3.248931
     10.70128      3.84700      2.25984        -1.385097      0.679075      0.071972
      9.78394      9.34481      0.19537        -1.514927      1.922204     -3.365401
      6.47617      0.23320      3.13500        -1.522835      0.583625      2.095233
     11.02718      8.24201      5.76051        -0.347400     -0.348582     -0.650299
      2.45722      6.14240      8.12667        -2.078875     -1.445123      1.856206
    total drift:                                0.093795      0.033854      0.034068

  FREE ENERGIE OF THE ION-ELECTRON SYSTEM (eV)
  free  energy   TOTEN  =      -344.95115183 eV

  energy  without entropy=     -343.93181412  energy(sigma->0) =     -344.44148298