 vasp.6.1.0 28Jan20 (build Mar 31 2020 17:42:31) gamma-only

 executed on             LinuxIFC date 2020.04.11  20:09:58

 INCAR:
 POTCAR:    PAW_PBE Ni_pv 06Sep2000
 POTCAR:    PAW_PBE S 06Sep2000
 POTCAR:    PAW_PBE Ni_pv 06Sep2000
   VRHFIN =Ni:

   TITEL  = PAW_PBE Ni_pv 06Sep2000
   POMASS =   58.690; ZVAL   =   16.000    mass and valenz
   ENMAX  =  367.986; ENMIN  =  275.989 eV

 POTCAR:    PAW_PBE S 06Sep2000
   VRHFIN =S : s2p4

   TITEL  = PAW_PBE S 06Sep2000
   POMASS =   32.066; ZVAL   =    6.000    mass and valenz
   ENMAX  =  258.689; ENMIN  =  194.016 eV

 Optimization of the real space projectors (new method)

 maximal supplied QI-value         = 18.90
 optimisation between [QCUT,QGAM] = [ 10.77, 21.73] = [ 32.49,132.25] Ry
 Optimized for a Real-space Cutoff    1.38 Angstroem

   l    n(q)    QCUT    max X(q) W(low)/X(q) W(high)/X(q)  e(spline)
   1      8    10.771     2.836    0.40E-04    0.29E-04    0.12E-06
   1      8    10.771     4.023    0.10E-03    0.48E-04    0.29E-06
   2      8    10.771    73.368    0.42E-03    0.97E-04    0.44E-06
   2      8    10.771    69.010    0.42E-03    0.99E-04    0.45E-06
   0      9    10.771    54.797    0.10E-03    0.56E-04    0.74E-07
   0      9    10.771    24.266    0.89E-04    0.49E-04    0.67E-07
 Optimization of the real space projectors (new method)

 maximal supplied QI-value         = 19.84
 optimisation between [QCUT,QGAM] = [ 10.71, 21.63] = [ 32.15,130.99] Ry
 Optimized for a Real-space Cutoff    1.19 Angstroem

   l    n(q)    QCUT    max X(q) W(low)/X(q) W(high)/X(q)  e(spline)
   0      8    10.715   187.594    0.41E-03    0.53E-04    0.66E-07
   0      8    10.715   164.243    0.41E-03    0.53E-04    0.65E-07
   1      7    10.715    67.533    0.19E-03    0.59E-03    0.68E-07
   1      7    10.715    50.729    0.19E-03    0.58E-03    0.67E-07
  PAW_PBE Ni_pv 06Sep2000               :
  PAW_PBE S 06Sep2000                   :

 POSCAR: Structure 15 made from -102-8.xsd file
  positions in direct lattice
 exchange correlation table for  LEXCH =        8
   RHO(1)=    0.500       N(1)  =     2000
   RHO(2)=  100.500       N(2)  =     4000

 ion  position               nearest neighbor table
   1  0.439  0.464  0.163-  30 2.25  36 2.26  45 2.26  37 2.36  46 2.36   5 2.53  22 2.53
   2  0.491  0.464  0.342-  31 2.25  37 2.26  46 2.26   6 2.53  23 2.53
   3  0.163  0.964  0.073-  27 2.25  38 2.26  39 2.36  34 2.36  11 2.53   7 2.53
   4  0.215  0.964  0.253-  28 2.25  39 2.26  34 2.26  35 2.36  12 2.53   8 2.53
   5  0.439  0.200  0.163-  34 2.25  36 2.26  40 2.26  37 2.36  41 2.36   1 2.53  22 2.53
   6  0.491  0.200  0.342-  35 2.25  37 2.26  41 2.26  42 2.36   2 2.53  23 2.53
   7  0.163  0.700  0.073-  32 2.25  38 2.26  39 2.36  30 2.36  11 2.53   3 2.53
   8  0.215  0.700  0.253-  33 2.25  39 2.26  30 2.26  31 2.36  12 2.53   4 2.53
   9  0.131  0.332  0.139-  36 2.25  27 2.26  32 2.26  28 2.36  33 2.36  18 2.53  14 2.53
  10  0.182  0.332  0.319-  37 2.25  28 2.26  33 2.26  29 2.36  15 2.53  19 2.53
  11  0.355  0.832  0.049-  51 2.25  30 2.36  34 2.36   7 2.53   3 2.53
  12  0.407  0.832  0.229-  52 2.25  30 2.26  34 2.26  31 2.36  35 2.36   8 2.53   4 2.53
  13  0.458  0.832  0.408-  31 2.26  35 2.26
  14  0.939  0.464  0.163-  43 2.25  49 2.26  32 2.26  50 2.36  33 2.36  18 2.53   9 2.53
  15  0.991  0.464  0.342-  44 2.25  50 2.26  33 2.26  19 2.53  10 2.53
  16  0.663  0.964  0.073-  40 2.25  51 2.26  52 2.36  47 2.36  24 2.53  20 2.53
  17  0.715  0.964  0.253-  41 2.25  52 2.26  47 2.26  48 2.36  25 2.53  21 2.53
  18  0.939  0.200  0.163-  47 2.25  49 2.26  27 2.26  50 2.36  28 2.36  14 2.53   9 2.53
  19  0.991  0.200  0.342-  48 2.25  50 2.26  28 2.26  29 2.36  15 2.53  10 2.53
  20  0.663  0.700  0.073-  45 2.25  51 2.26  52 2.36  43 2.36  24 2.53  16 2.53
  21  0.715  0.700  0.253-  46 2.25  52 2.26  43 2.26  44 2.36  25 2.53  17 2.53
  22  0.631  0.332  0.139-  49 2.25  40 2.26  45 2.26  41 2.36  46 2.36   5 2.53   1 2.53
  23  0.682  0.332  0.319-  50 2.25  41 2.26  46 2.26  42 2.36   2 2.53   6 2.53
  24  0.855  0.832  0.049-  38 2.25  43 2.36  47 2.36  20 2.53  16 2.53
  25  0.907  0.832  0.229-  39 2.25  43 2.26  47 2.26  44 2.36  48 2.36  21 2.53  17 2.53
  26  0.958  0.832  0.408-  44 2.26  48 2.26
  27  0.060  0.164  0.060-   3 2.25   9 2.26  18 2.26
  28  0.111  0.164  0.239-   4 2.25  10 2.26  19 2.26   9 2.36  18 2.36
  29  0.163  0.164  0.418-  10 2.36  19 2.36
  30  0.336  0.664  0.149-   1 2.25  12 2.26   8 2.26  11 2.36   7 2.36
  31  0.387  0.664  0.329-   2 2.25  13 2.26   8 2.36  12 2.36
  32  0.060  0.500  0.060-   7 2.25   9 2.26  14 2.26
  33  0.111  0.500  0.239-   8 2.25  10 2.26  15 2.26   9 2.36  14 2.36
  34  0.336  1.000  0.149-   5 2.25  12 2.26   4 2.26  11 2.36   3 2.36
  35  0.387  1.000  0.329-   6 2.25  13 2.26   4 2.36  12 2.36
  36  0.316  0.332  0.090-   9 2.25   5 2.26   1 2.26
  37  0.368  0.332  0.269-  10 2.25   6 2.26   2 2.26   1 2.36   5 2.36
  38  0.040  0.832  0.000-  24 2.25   7 2.26   3 2.26
  39  0.092  0.832  0.179-  25 2.25   8 2.26   4 2.26   3 2.36   7 2.36
  40  0.560  0.164  0.060-  16 2.25  22 2.26   5 2.26
  41  0.611  0.164  0.239-  17 2.25  23 2.26   6 2.26  22 2.36   5 2.36
  42  0.663  0.164  0.418-  23 2.36   6 2.36
  43  0.836  0.664  0.149-  14 2.25  25 2.26  21 2.26  24 2.36  20 2.36
  44  0.887  0.664  0.329-  15 2.25  26 2.26  21 2.36  25 2.36
  45  0.560  0.500  0.060-  20 2.25  22 2.26   1 2.26
  46  0.611  0.500  0.239-  21 2.25  23 2.26   2 2.26  22 2.36   1 2.36
  47  0.836  1.000  0.149-  18 2.25  25 2.26  17 2.26  24 2.36  16 2.36
  48  0.887  1.000  0.329-  19 2.25  26 2.26  17 2.36  25 2.36
  49  0.816  0.332  0.090-  22 2.25  18 2.26  14 2.26
  50  0.868  0.332  0.269-  23 2.25  19 2.26  15 2.26  14 2.36  18 2.36
  51  0.540  0.832  0.000-  11 2.25  16 2.26  20 2.26
  52  0.592  0.832  0.179-  12 2.25  17 2.26  21 2.26  20 2.36  16 2.36

  LATTYP: Found a simple orthorhombic cell.
 ALAT       =     9.5784100000
 B/A-ratio  =     1.1751911892
 C/A-ratio  =     1.7949213288

  Lattice vectors:

 A1 = (   0.0000000000,  -9.5784100000,   0.0000000000)
 A2 = ( -11.2564630382,   0.0000000000,   0.0000000000)
 A3 = (   0.0000000000,   0.0000000000, -17.1924924047)

Analysis of symmetry for initial positions (statically):
 Subroutine PRICEL returns following result:

[...]

   2 primitive cells build up your supercell.

 Routine SETGRP: Setting up the symmetry group for a
 simple orthorhombic supercell.

 Subroutine GETGRP returns: Found  1 space group operations
 (whereof  1 operations were pure point group operations)
 out of a pool of  8 trial point group operations.

The static configuration has the point symmetry C_1 .

Analysis of symmetry for dynamics (positions and initial velocities):
 Subroutine PRICEL returns following result:

  LATTYP: Found a simple orthorhombic cell.
 ALAT       =     5.6282315191
 B/A-ratio  =     1.7018507443
 C/A-ratio  =     3.0546881994

  Lattice vectors:

 A1 = (   5.6282315191,   0.0000000000,   0.0000000000)
 A2 = (   0.0000000000,   9.5784100000,   0.0000000000)
 A3 = (   0.0000000000,   0.0000000000,  17.1924924047)

   2 primitive cells build up your supercell.

 Routine SETGRP: Setting up the symmetry group for a
 simple orthorhombic supercell.

 Subroutine GETGRP returns: Found  1 space group operations
 (whereof  1 operations were pure point group operations)
 out of a pool of  8 trial point group operations.

The dynamic configuration has the point symmetry C_1 .

 Subroutine INISYM returns: Found  1 space group operations
 (whereof  1 operations are pure point group operations),
 and found     2 'primitive' translations

                                     Primitive cell

  volume of cell :     926.8388

  direct lattice vectors                    reciprocal lattice vectors
     5.628231519  0.000000000  0.000000000     0.177675704  0.000000000  0.000000000
     0.000000000  9.578410000  0.000000000     0.000000000  0.104401461  0.000000000
     0.000000000  0.000000000 17.192492405     0.000000000  0.000000000  0.058164923

  length of vectors
     5.628231519  9.578410000 17.192492405     0.177675704  0.104401461  0.058164923

  position of ions in fractional coordinates (direct lattice)
     0.878669980  0.463887997  0.162833771
     0.982373848  0.463887997  0.342246010
     0.430521928  0.963887997  0.252539890
     0.878669980  0.199681997  0.162833771
     0.982373848  0.199681997  0.342246010
     0.430521928  0.699681997  0.252539890
     0.709427456  0.831784997  0.049426756
     0.813131324  0.831784997  0.228838995
     0.916835194  0.831784997  0.408251235
     0.326818060  0.963887997  0.073127651
     0.326818060  0.699681997  0.073127651
     0.261279406  0.331784997  0.139132876
     0.364983274  0.331784997  0.318545115
     0.671126126  0.663569997  0.149232409
     0.774829994  0.663569997  0.328644649
     0.671126126  0.999999997  0.149232409
     0.774829994  0.999999997  0.328644649
     0.632073738  0.331784997  0.089706120
     0.735777606  0.331784997  0.269118359
     0.119274206  0.163569997  0.059526290
     0.222978076  0.163569997  0.238938529
     0.326681944  0.163569997  0.418350768
     0.119274206  0.499999997  0.059526290
     0.222978076  0.499999997  0.238938529
     0.080221820  0.831784997  0.000000000
     0.183925688  0.831784997  0.179412239

  ion indices of the primitive-cell ions
   primitive index   ion index
                 1           1
                 2           2
                 3           4
                 4           5
                 5           6
                 6           8
                 7          11
                 8          12
                 9          13
                10          16
                11          20
                12          22
                13          23
                14          30
                15          31
                16          34
                17          35
                18          36
                19          37
                20          40
                21          41
                22          42
                23          45
                24          46
                25          51
                26          52

 KPOINTS: gamma-point-only calculation. no periodi

Automatic generation of k-mesh.
Space group operators:
 irot       det(A)        alpha          n_x          n_y          n_z        tau_x        tau_y        tau_z
    1     1.000000     0.000000     1.000000     0.000000     0.000000     0.000000     0.000000     0.000000

 Subroutine IBZKPT returns following result:

 Found      1 irreducible k-points:

 Following reciprocal coordinates:
            Coordinates               Weight
  0.000000  0.000000  0.000000      1.000000

 Following cartesian coordinates:
            Coordinates               Weight
  0.000000  0.000000  0.000000      1.000000

 SYSTEM =  "Millerite NiS"
 POSCAR =  Structure 15 made from -102-8.xsd file

 Startparameter for this run:
   NWRITE =      2    write-flag & timer
   PREC   = normal    normal or accurate (medium, high low for compatibility)
   ISTART =      0    job   : 0-new  1-cont  2-samecut
[...]
      26 -86.6501      27 -92.0837      28 -93.1034      29 -91.3025      30 -93.0164
      31 -92.4987      32 -91.9811      33 -92.8965      34 -93.0549      35 -92.5202
      36 -92.0276      37 -92.9342      38 -91.9941      39 -92.8803      40 -92.0839
      41 -93.1025      42 -91.2955      43 -93.0166      44 -92.4995      45 -91.9809
      46 -92.8961      47 -93.0548      48 -92.5206      49 -92.0279      50 -92.9344
      51 -91.9941      52 -92.8802

 E-fermi :  -0.3227     XC(G=0):  -5.7822     alpha+bet : -5.1393

 k-point     1 :       0.0000    0.0000    0.0000
  band No.  band energies     occupation
      1     -64.4549      2.00000
      2     -64.4546      2.00000
      3     -64.4418      2.00000
      4     -64.4417      2.00000
      5     -64.4253      2.00000
      6     -64.4251      2.00000
      7     -64.4136      2.00000
      8     -64.4135      2.00000
      9     -64.3990      2.00000
     10     -64.3988      2.00000
     11     -64.3854      2.00000
     12     -64.3852      2.00000
     13     -64.3705      2.00000
     14     -64.3702      2.00000
     15     -64.3330      2.00000
     16     -64.3329      2.00000
     17     -64.3205      2.00000
     18     -64.3203      2.00000
     19     -64.2716      2.00000
     20     -64.2715      2.00000
     21     -64.2563      2.00000
     22     -64.2561      2.00000
     23     -64.2356      2.00000
     24     -64.2354      2.00000
     25     -64.2179      2.00000
     26     -64.2157      2.00000
     27     -64.1687      2.00000
     28     -64.1668      2.00000
     29     -64.1163      2.00000
     30     -64.1142      2.00000
     31     -64.1126      2.00000
     32     -64.1120      2.00000
     33     -64.1026      2.00000
     34     -64.1024      2.00000
     35     -64.0484      2.00000
     36     -64.0466      2.00000
     37     -63.9760      2.00000
     38     -63.9742      2.00000
     39     -63.9741      2.00000
     40     -63.9738      2.00000
     41     -63.9710      2.00000
     42     -63.9710      2.00000
     43     -63.9684      2.00000
     44     -63.9663      2.00000
     45     -63.9540      2.00000
     46     -63.9539      2.00000
     47     -63.9436      2.00000
     48     -63.9433      2.00000
     49     -63.9307      2.00000
     50     -63.9307      2.00000
     51     -63.9183      2.00000
     52     -63.9183      2.00000
     53     -63.9052      2.00000
     54     -63.9049      2.00000
     55     -63.8823      2.00000
     56     -63.8822      2.00000
     57     -63.8528      2.00000
     58     -63.8516      2.00000
     59     -63.7229      2.00000
     60     -63.7218      2.00000
[...]
    330       4.5584      0.00000
    331       4.7008      0.00000
    332       4.7741      0.00000
    333       4.8025      0.00000
    334       4.8887      0.00000
    335       5.0044      0.00000
    336       5.0709      0.00000
    337       5.1390      0.00000
    338       5.2027      0.00000
    339       5.2344      0.00000
    340       5.2380      0.00000
    341       5.3451      0.00000
    342       5.4003      0.00000
    343       5.4404      0.00000
    344       5.5155      0.00000

 soft charge-density along one line, spin component           1
         0         1         2         3         4         5         6         7         8         9
 total charge-density along one line

------------------------ aborting loop because EDIFF is reached ----------------------------------------

  FORCE on cell =-STRESS in cart. coord.  units (eV):
  Direction    XX          YY          ZZ          XY          YZ          ZX
  Alpha Z  1046.73971  1046.73971  1046.73971
  Ewald  126067.66715125351.12259************  -123.67982  -473.34493   945.42289
  Hartree151866.92624151027.13588************   -95.36422  -318.15022   486.79347
  E(xc)   -3625.18843 -3624.32797 -3629.25138    -0.24513    -0.54572     1.66041
  Local  ************************277806.46487   223.17394   789.33256 -1398.28669
  n-local  -492.19781  -499.04402  -503.82018    -1.85803    -4.28863     8.24885
  augment  4184.29806  4181.29765  4191.52197    -0.32797     3.14591   -18.44863
  Kinetic  7909.31815  7882.82582  7926.99047    -0.71222     7.73886   -41.45110
  Fock        0.00000     0.00000     0.00000     0.00000     0.00000     0.00000
  Total     -32.40728   -34.17134   -35.85910     0.98655     3.88782   -16.06081
  in kB     -28.01038   -29.53510   -30.99387     0.85270     3.36034   -13.88173

 VOLUME and BASIS-vectors are now :
  energy-cutoff  :      450.00
  volume of cell :     1853.68
      direct lattice vectors                 reciprocal lattice vectors
    11.256463038  0.000000000  0.000000000     0.088837852  0.000000000  0.000000000
     0.000000000  9.578410000  0.000000000     0.000000000  0.104401461  0.000000000
     0.000000000  0.000000000 17.192492405     0.000000000  0.000000000  0.058164923

  length of vectors
    11.256463038  9.578410000 17.192492405     0.088837852  0.104401461  0.058164923

 FORCES acting on ions
    electron-ion (+dipol)            ewald-force                    non-local-force                 convergence-correction
   0.280E+03 -.351E+03 0.116E+04   -.281E+03 0.351E+03 -.117E+04   0.102E+01 -.537E+00 0.465E+01   -.347E-02 0.335E+00 -.122E+00
   0.152E+03 -.502E+03 -.308E+04   -.153E+03 0.501E+03 0.307E+04   0.543E-01 0.180E+01 0.617E+01   0.249E-01 0.185E+00 0.305E-02
   0.121E+03 -.633E+03 0.281E+04   -.124E+03 0.634E+03 -.281E+04   0.238E+01 -.789E+00 0.246E+01   0.852E-01 -.252E+00 -.162E+00
   0.255E+03 -.290E+03 -.140E+04   -.254E+03 0.290E+03 0.140E+04   -.661E+00 0.577E+00 0.150E+01   0.624E-01 -.256E+00 -.171E-01
   0.281E+03 0.331E+03 0.118E+04   -.282E+03 -.331E+03 -.119E+04   0.867E+00 0.432E+00 0.466E+01   0.340E-02 0.281E-01 -.791E-01
   0.270E+03 0.382E+03 -.296E+04   -.266E+03 -.383E+03 0.296E+04   -.321E+01 0.627E+00 -.132E+01   0.101E+00 -.208E+00 0.187E+00
   0.121E+03 0.641E+03 0.280E+04   -.124E+03 -.642E+03 -.280E+04   0.248E+01 0.109E+01 0.211E+01   0.760E-01 0.673E-01 -.909E-01
   0.262E+03 0.357E+03 -.146E+04   -.262E+03 -.357E+03 0.146E+04   -.348E+00 -.672E+00 0.184E+01   0.758E-01 0.583E-01 -.606E-01
   -.476E+03 -.134E+02 0.184E+04   0.479E+03 0.132E+02 -.185E+04   -.319E+01 0.487E-02 0.486E+01   0.846E-01 0.231E+00 -.160E+00
   -.530E+03 -.170E+03 -.247E+04   0.528E+03 0.166E+03 0.247E+04   0.958E+00 0.296E+01 -.175E+01   0.152E+00 0.121E+00 -.550E-01
   -.347E+03 0.447E+01 0.330E+04   0.351E+03 -.449E+01 -.330E+04   -.265E+01 0.129E+00 -.254E+01   -.245E-01 -.119E+00 -.409E-01
   -.465E+03 0.270E+02 -.593E+03   0.467E+03 -.267E+02 0.594E+03   -.135E+01 -.110E+00 0.182E+00   0.457E-01 -.148E+00 0.106E-01
   -.162E+03 0.751E+02 -.351E+04   0.151E+03 -.751E+02 0.350E+04   0.100E+02 0.219E-02 0.129E+02   0.449E-01 -.304E-01 0.140E+00
   0.280E+03 -.351E+03 0.116E+04   -.281E+03 0.351E+03 -.117E+04   0.102E+01 -.537E+00 0.465E+01   -.380E-01 0.338E+00 -.153E+00
   0.152E+03 -.502E+03 -.308E+04   -.153E+03 0.501E+03 0.307E+04   0.543E-01 0.180E+01 0.617E+01   -.638E-01 0.225E+00 -.223E-01
   0.121E+03 -.633E+03 0.281E+04   -.124E+03 0.634E+03 -.281E+04   0.238E+01 -.789E+00 0.246E+01   0.745E-01 -.253E+00 -.143E+00
   0.255E+03 -.290E+03 -.140E+04   -.254E+03 0.290E+03 0.140E+04   -.661E+00 0.577E+00 0.150E+01   -.239E-01 -.189E+00 0.679E-01
   0.281E+03 0.331E+03 0.118E+04   -.282E+03 -.331E+03 -.119E+04   0.867E+00 0.432E+00 0.466E+01   -.468E-01 0.131E-01 -.120E+00
   0.270E+03 0.382E+03 -.296E+04   -.266E+03 -.383E+03 0.296E+04   -.321E+01 0.627E+00 -.132E+01   -.148E+00 -.189E+00 0.101E+00
   0.121E+03 0.641E+03 0.280E+04   -.124E+03 -.642E+03 -.280E+04   0.248E+01 0.109E+01 0.211E+01   0.564E-01 0.633E-01 -.843E-01
   0.262E+03 0.357E+03 -.146E+04   -.262E+03 -.357E+03 0.146E+04   -.348E+00 -.672E+00 0.184E+01   0.276E-02 0.637E-01 -.443E-01
   -.475E+03 -.134E+02 0.184E+04   0.479E+03 0.132E+02 -.185E+04   -.319E+01 0.487E-02 0.486E+01   0.587E-01 0.228E+00 -.987E-01
   -.529E+03 -.170E+03 -.247E+04   0.528E+03 0.166E+03 0.247E+04   0.958E+00 0.296E+01 -.175E+01   0.475E-01 -.123E-01 0.844E-01
   -.347E+03 0.447E+01 0.330E+04   0.351E+03 -.449E+01 -.330E+04   -.265E+01 0.129E+00 -.254E+01   -.407E-01 -.116E+00 -.454E-01
   -.465E+03 0.270E+02 -.593E+03   0.467E+03 -.267E+02 0.594E+03   -.135E+01 -.110E+00 0.182E+00   -.810E-02 -.133E+00 -.196E-01
   -.162E+03 0.752E+02 -.351E+04   0.151E+03 -.751E+02 0.350E+04   0.100E+02 0.219E-02 0.129E+02   -.599E-01 -.529E-01 0.140E+00
   0.377E+02 -.565E+02 0.136E+04   -.387E+02 0.570E+02 -.136E+04   0.162E+01 -.723E+00 0.580E+01   0.418E-01 -.403E-01 -.135E+00
   -.823E+02 0.146E+03 -.193E+03   0.839E+02 -.149E+03 0.190E+03   -.154E+01 0.271E+01 0.227E+01   0.481E-01 -.392E-01 -.125E-02
   -.123E+03 0.127E+03 -.144E+04   0.125E+03 -.129E+03 0.144E+04   -.278E+01 0.277E+01 -.391E+01   0.181E-01 -.521E-01 0.818E-01
   -.720E+02 0.199E+03 0.541E+03   0.729E+02 -.201E+03 -.542E+03   -.113E+01 0.173E+01 -.281E+00   0.243E-01 0.371E-01 -.585E-01
   0.597E+02 0.845E+02 -.103E+04   -.601E+02 -.864E+02 0.103E+04   0.801E+00 0.249E+01 0.198E+00   0.134E-01 0.142E+00 0.488E-01
   0.376E+02 0.546E+02 0.136E+04   -.386E+02 -.551E+02 -.136E+04   0.164E+01 0.660E+00 0.547E+01   -.100E-01 0.762E-01 -.394E-01
   -.872E+02 -.160E+03 -.225E+03   0.886E+02 0.162E+03 0.225E+03   -.103E+01 -.197E+01 0.151E+01   0.216E-01 0.866E-01 -.804E-01
   -.724E+02 -.194E+03 0.549E+03   0.735E+02 0.196E+03 -.550E+03   -.114E+01 -.184E+01 -.153E+00   -.190E-01 -.167E+00 -.752E-01
   0.533E+02 -.550E+02 -.101E+04   -.537E+02 0.564E+02 0.101E+04   0.332E+00 -.230E+01 -.479E-02   0.694E-01 -.138E+00 0.872E-01
   0.629E+02 -.293E+01 0.122E+04   -.629E+02 0.267E+01 -.123E+04   -.174E+00 0.211E+00 0.620E+01   -.170E-01 0.100E+00 -.869E-01
   0.179E+03 -.185E+02 -.486E+03   -.181E+03 0.184E+02 0.486E+03   0.271E+01 0.158E+00 0.498E+00   -.229E-01 0.593E-01 -.680E-02
   0.781E+02 0.112E+01 0.150E+04   -.784E+02 -.108E+01 -.150E+04   0.545E+00 -.825E-01 0.494E+01   -.239E-01 -.308E-01 -.189E-01
   0.158E+03 0.703E+01 0.173E+03   -.160E+03 -.690E+01 -.173E+03   0.263E+01 -.135E+00 0.114E+01   -.152E-01 -.597E-01 -.491E-01
   0.377E+02 -.565E+02 0.136E+04   -.387E+02 0.570E+02 -.136E+04   0.162E+01 -.723E+00 0.580E+01   0.404E-01 -.378E-01 -.126E+00
   -.823E+02 0.146E+03 -.193E+03   0.839E+02 -.149E+03 0.190E+03   -.154E+01 0.271E+01 0.227E+01   0.463E-01 -.339E-01 0.578E-01
   -.123E+03 0.127E+03 -.144E+04   0.125E+03 -.129E+03 0.144E+04   -.278E+01 0.277E+01 -.391E+01   -.370E-02 -.517E-01 0.732E-01
   -.720E+02 0.199E+03 0.541E+03   0.729E+02 -.201E+03 -.542E+03   -.113E+01 0.173E+01 -.281E+00   0.953E-02 0.393E-01 -.631E-01
   0.598E+02 0.845E+02 -.103E+04   -.601E+02 -.864E+02 0.103E+04   0.801E+00 0.249E+01 0.198E+00   -.197E-01 0.140E+00 0.446E-01
   0.376E+02 0.546E+02 0.136E+04   -.386E+02 -.551E+02 -.136E+04   0.164E+01 0.660E+00 0.547E+01   -.123E-01 0.756E-01 -.312E-01
   -.871E+02 -.160E+03 -.225E+03   0.886E+02 0.162E+03 0.225E+03   -.103E+01 -.197E+01 0.151E+01   0.979E-02 0.694E-01 -.597E-01
   -.724E+02 -.194E+03 0.549E+03   0.735E+02 0.196E+03 -.550E+03   -.114E+01 -.184E+01 -.153E+00   -.366E-01 -.165E+00 -.729E-01
   0.534E+02 -.550E+02 -.101E+04   -.537E+02 0.564E+02 0.101E+04   0.332E+00 -.230E+01 -.479E-02   -.108E-01 -.132E+00 0.852E-01
   0.629E+02 -.293E+01 0.122E+04   -.629E+02 0.267E+01 -.123E+04   -.174E+00 0.211E+00 0.620E+01   -.291E-01 0.982E-01 -.860E-01
   0.179E+03 -.185E+02 -.486E+03   -.181E+03 0.184E+02 0.486E+03   0.271E+01 0.158E+00 0.498E+00   -.846E-01 0.534E-01 -.305E-02
   0.781E+02 0.112E+01 0.150E+04   -.784E+02 -.108E+01 -.150E+04   0.545E+00 -.825E-01 0.494E+01   -.241E-01 -.322E-01 -.158E-01
   0.158E+03 0.703E+01 0.173E+03   -.160E+03 -.690E+01 -.173E+03   0.263E+01 -.135E+00 0.114E+01   -.203E-01 -.550E-01 -.345E-01
   -.180E+02 -.182E+02 -.117E+03   0.199E-12 -.666E-12 -.955E-11   0.177E+02 0.184E+02 0.119E+03   0.532E+00 -.599E-01 -.135E+01

 POSITION                                       TOTAL-FORCE (eV/Angst)
      4.94536      4.44331      2.79952        -0.260075     -0.006231     -0.260646
      5.52903      4.44331      5.88406        -0.563980      0.500512     -1.306364
      1.83941      9.23251      1.25725        -0.747610     -0.075614      0.357396
      2.42308      9.23251      4.34179         0.122204      0.280504     -0.418874
      4.94536      1.91264      2.79952        -0.264731     -0.183383     -0.306423
      5.52903      1.91264      5.88406         0.870652     -0.300310     -0.222219
      1.83941      6.70184      1.25725        -0.758035      0.173260      0.296844
      2.42308      6.70184      4.34179        -0.083667     -0.362525     -0.459589
      1.47054      3.17797      2.39204         0.603435      0.065777     -0.321263
      2.05421      3.17797      5.47658        -0.212728     -0.989559      0.139188
      3.99282      7.96718      0.84977         0.855950     -0.002832      0.950685
      4.57649      7.96718      3.93431         0.110527      0.100784      0.279357
      5.16016      7.96718      7.01886        -1.130089      0.015135     -2.029434
     10.57359      4.44331      2.79952        -0.260075     -0.006231     -0.260646
     11.15726      4.44331      5.88406        -0.563980      0.500512     -1.306364
      7.46764      9.23251      1.25725        -0.747610     -0.075614      0.357396
      8.05131      9.23251      4.34179         0.122204      0.280504     -0.418874
     10.57359      1.91264      2.79952        -0.264731     -0.183383     -0.306423
     11.15726      1.91264      5.88406         0.870652     -0.300310     -0.222219
      7.46764      6.70184      1.25725        -0.758035      0.173260      0.296844
      8.05131      6.70184      4.34179        -0.083667     -0.362525     -0.459589
      7.09877      3.17797      2.39204         0.603435      0.065777     -0.321263
      7.68244      3.17797      5.47658        -0.212728     -0.989559      0.139188
      9.62105      7.96718      0.84977         0.855950     -0.002832      0.950685
     10.20472      7.96718      3.93431         0.110527      0.100784      0.279357
     10.78839      7.96718      7.01886        -1.130089      0.015135     -2.029434
      0.67130      1.56674      1.02341         0.617178     -0.258559      0.383829
      1.25497      1.56674      4.10795         0.136756      0.181650     -0.074478
      1.83864      1.56674      7.19249        -1.021105      1.081256     -1.407775
      3.77725      6.35595      2.56568        -0.217559      0.303730     -1.149418
      4.36092      6.35595      5.65022         0.419574      0.754171      1.225864
      0.67130      4.78920      1.02341         0.612660      0.247890      0.180538
      1.25497      4.78920      4.10795         0.382802     -0.139197      0.848866
      3.77725      9.57841      2.56568        -0.127578     -0.283623     -1.041450
      4.36092      9.57841      5.65022         0.016657     -1.061864      0.879789
      3.55746      3.17797      1.54227        -0.261846      0.048676      0.756936
      4.14113      3.17797      4.62682         0.144787      0.054233      0.986025
      0.45151      7.96718      0.00000         0.122412     -0.080871      0.749764
      1.03518      7.96718      3.08454         0.633408     -0.063009      0.962851
      6.29953      1.56674      1.02341         0.617178     -0.258559      0.383829
      6.88320      1.56674      4.10795         0.136756      0.181650     -0.074478
      7.46687      1.56674      7.19249        -1.021105      1.081256     -1.407775
      9.40548      6.35595      2.56568        -0.217559      0.303730     -1.149418
      9.98915      6.35595      5.65022         0.419574      0.754171      1.225864
      6.29953      4.78920      1.02341         0.612660      0.247890      0.180538
      6.88320      4.78920      4.10795         0.382802     -0.139197      0.848866
      9.40548      9.57841      2.56568        -0.127578     -0.283623     -1.041450
      9.98915      9.57841      5.65022         0.016657     -1.061864      0.879789
      9.18569      3.17797      1.54227        -0.261846      0.048676      0.756936
      9.76936      3.17797      4.62682         0.144787      0.054233      0.986025
      6.07974      7.96718      0.00000         0.122412     -0.080871      0.749764
      6.66341      7.96718      3.08454         0.633408     -0.063009      0.962851
    total drift:                                0.296659      0.118135      0.067034

  FREE ENERGIE OF THE ION-ELECTRON SYSTEM (eV)
  free  energy   TOTEN  =      -253.37675896 eV

  energy  without entropy=     -252.47287186  energy(sigma->0) =     -252.92481541