 vasp.5.4.4.18Apr17-6-g9f103f2a35 (build Aug 13 2019 17:33:20) gamma-only

 executed on             LinuxIFC date 2020.05.11  17:59:42

 INCAR:
 POTCAR:    PAW_PBE Ni_pv 06Sep2000
 POTCAR:    PAW_PBE S 06Sep2000
 POTCAR:    PAW_PBE Ni_pv 06Sep2000
   VRHFIN =Ni:

   TITEL  = PAW_PBE Ni_pv 06Sep2000
   POMASS =   58.690; ZVAL   =   16.000    mass and valenz
   ENMAX  =  367.986; ENMIN  =  275.989 eV

 POTCAR:    PAW_PBE S 06Sep2000
   VRHFIN =S : s2p4

   TITEL  = PAW_PBE S 06Sep2000
   POMASS =   32.066; ZVAL   =    6.000    mass and valenz
   ENMAX  =  258.689; ENMIN  =  194.016 eV

 Optimization of the real space projectors (new method)

 maximal supplied QI-value         = 18.90
 optimisation between [QCUT,QGAM] = [ 10.77, 21.73] = [ 32.49,132.25] Ry
 Optimized for a Real-space Cutoff    1.38 Angstroem

   l    n(q)    QCUT    max X(q) W(low)/X(q) W(high)/X(q)  e(spline)
   1      8    10.771     2.836    0.40E-04    0.29E-04    0.12E-06
   1      8    10.771     4.023    0.10E-03    0.48E-04    0.29E-06
   2      8    10.771    73.368    0.42E-03    0.97E-04    0.44E-06
   2      8    10.771    69.010    0.42E-03    0.99E-04    0.45E-06
   0      9    10.771    54.797    0.10E-03    0.56E-04    0.74E-07
   0      9    10.771    24.266    0.89E-04    0.49E-04    0.67E-07
 Optimization of the real space projectors (new method)

 maximal supplied QI-value         = 19.84
 optimisation between [QCUT,QGAM] = [ 10.71, 21.63] = [ 32.15,130.99] Ry
 Optimized for a Real-space Cutoff    1.19 Angstroem

   l    n(q)    QCUT    max X(q) W(low)/X(q) W(high)/X(q)  e(spline)
   0      8    10.715   187.594    0.41E-03    0.53E-04    0.66E-07
   0      8    10.715   164.243    0.41E-03    0.53E-04    0.65E-07
   1      7    10.715    67.533    0.19E-03    0.59E-03    0.68E-07
   1      7    10.715    50.729    0.19E-03    0.58E-03    0.67E-07
  PAW_PBE Ni_pv 06Sep2000               :
  PAW_PBE S 06Sep2000                   :

 POSCAR: Type_036 Type_136
  positions in cartesian coordinates
 exchange correlation table for  LEXCH =        8
   RHO(1)=    0.500       N(1)  =     2000
   RHO(2)=  100.500       N(2)  =     4000

 ion  position               nearest neighbor table
   1  0.780  0.145  0.121-  49 2.09  63 2.16  50 2.20  41 2.25  64 2.36  18 2.36   2 2.41  13 2.48

   2  0.782  0.154  0.269-  42 2.01  50 2.04  64 2.07   1 2.41
   3  0.215  0.673  0.096-  43 2.03  44 2.12  51 2.15   4 2.41  26 2.50  61 2.52
   4  0.297  0.645  0.216-  52 2.14  62 2.14  44 2.25  51 2.26  61 2.26   3 2.41  27 2.53  16 2.53

[...]

  13  0.907  0.065  0.059-  49 2.05  63 2.08  38 2.09  56 2.25  14 2.41   1 2.48  35 2.51
  14  0.965  0.997  0.189-  55 2.08  38 2.10  37 2.13  56 2.16  64 2.35  13 2.41
  15  0.412  0.401  0.060-  53 2.08  61 2.08  16 2.38  26 2.52  39 2.60
  16  0.425  0.513  0.191-  62 2.18  53 2.25  39 2.26  61 2.26  40 2.36  15 2.38  17 2.45  27 2.53
                             4 2.53
  17  0.460  0.473  0.336-  54 2.01  62 2.04  40 2.07  16 2.45
  18  0.697  0.950  0.098-  59 2.01  63 2.05  41 2.09   1 2.36
  19  0.597  0.013  0.223-  42 2.09  68 2.09  59 2.25  67 2.26  41 2.26   6 2.53  30 2.53
  20  0.080  0.513  0.127-  43 2.08  57 2.10  66 2.11  65 2.22  44 2.36  21 2.46   7 2.53  31 2.53

[...]

  28  0.460  0.818  0.335-  68 2.01  52 2.04  40 2.07  27 2.44
  29  0.530  0.144  0.090-  41 2.02  67 2.03  53 2.05   5 2.48
  30  0.597  0.277  0.223-  42 2.08  54 2.09  69 2.19  53 2.26  41 2.26   6 2.53  19 2.53
  31  0.080  0.777  0.127-  43 2.06  71 2.10  56 2.21  44 2.36  55 2.36   7 2.53  20 2.53
  32  0.112  0.788  0.291-  55 2.02  44 2.04  72 2.10
  33  0.252  0.277  0.159-  45 2.07  57 2.07  61 2.25  46 2.36  58 2.36   9 2.53  22 2.53
  34  0.288  0.300  0.317-  58 2.04  46 2.04  62 2.07
  35  0.844  0.847  0.114-  64 2.06  47 2.10  63 2.10  56 2.11  13 2.51
  36  0.770  0.777  0.254-  60 2.01  48 2.13  47 2.17  64 2.25  59 2.26  12 2.53  24 2.53
  37  0.034  0.117  0.274-  10 2.05   9 2.13  14 2.13  38 2.66  72 2.72
  38  0.003  0.164  0.114-  13 2.09  14 2.10  25 2.11   9 2.35  37 2.66
  39  0.474  0.645  0.087-  11 2.00  26 2.01  27 2.26  16 2.26  15 2.60
  40  0.509  0.645  0.278-  28 2.07  17 2.07  11 2.14  12 2.25  27 2.36  16 2.36
  41  0.647  0.145  0.119-  29 2.02  18 2.09   1 2.25  30 2.26  19 2.26
  42  0.666  0.146  0.296-   2 2.01  30 2.08  19 2.09
  43  0.112  0.647  0.032-   3 2.03  31 2.06  20 2.08
  44  0.164  0.645  0.214-  32 2.04  21 2.08   3 2.12   4 2.25  31 2.36  20 2.36
  45  0.283  0.145  0.063-   5 2.04  22 2.07  33 2.07
  46  0.336  0.145  0.246-  34 2.04  23 2.04   5 2.14   6 2.25  33 2.36  22 2.36
  47  0.824  0.646  0.161-  35 2.10  36 2.17  24 2.18   7 2.18  48 2.60
  48  0.849  0.643  0.320-   8 2.06  24 2.11  36 2.13  47 2.60
  49  0.853  0.255  0.040-  13 2.05  25 2.06   1 2.09  50 2.75  63 2.76
  50  0.814  0.322  0.200-   2 2.04  25 2.14  24 2.16   1 2.20  49 2.75
  51  0.312  0.814  0.119-  26 2.04   3 2.15  22 2.25   4 2.26  27 2.26
  52  0.346  0.804  0.294-  28 2.04  23 2.07   4 2.14  27 2.15
  53  0.484  0.314  0.151-  29 2.05  15 2.08   5 2.23  16 2.25  30 2.26   6 2.26
  54  0.522  0.295  0.325-  17 2.01  30 2.09   6 2.09
  55  0.001  0.814  0.246-  32 2.02   8 2.06  14 2.08   7 2.36  31 2.36  56 2.74
  56  0.965  0.858  0.083-  35 2.11  14 2.16  31 2.21  13 2.25   7 2.33  55 2.74
  57  0.142  0.325  0.110-  33 2.07  20 2.10   9 2.12  58 2.77
  58  0.174  0.314  0.278-  10 2.02  34 2.04  21 2.13   9 2.36  33 2.36  57 2.77
  59  0.657  0.814  0.183-  18 2.01  11 2.23  19 2.25  36 2.26  12 2.26
  60  0.695  0.795  0.351-  36 2.01  12 2.04  70 2.75
  61  0.312  0.477  0.119-  26 2.04  15 2.08  33 2.25   4 2.26  16 2.26   3 2.52
  62  0.345  0.489  0.296-  17 2.04  34 2.07   4 2.14  16 2.18
  63  0.796  0.986  0.027-  18 2.05  13 2.08  35 2.10   1 2.16  49 2.76
  64  0.829  0.977  0.214-  35 2.06   2 2.07  36 2.25  14 2.35   1 2.36
  65  0.990  0.462  0.223-   8 2.08  21 2.08   7 2.19  25 2.22  20 2.22  66 2.61
  66  0.971  0.493  0.063-   7 2.08  25 2.09  20 2.11  65 2.61
  67  0.484  0.977  0.151-  29 2.03  27 2.25  19 2.26   6 2.26   5 2.44
  68  0.522  0.996  0.325-  28 2.01  19 2.09   6 2.09
  69  0.651  0.481  0.195-  12 2.09  11 2.16  30 2.19  24 2.25  70 2.72
  70  0.700  0.508  0.355-  24 2.01  12 2.04  69 2.72  60 2.75
  71  0.142  0.965  0.109-  22 2.08  31 2.10   9 2.13  72 2.78
  72  0.174  0.977  0.278-  10 2.02  23 2.04  32 2.10   9 2.36  22 2.36  37 2.72  71 2.78

  LATTYP: Found a simple orthorhombic cell.
 ALAT       =     9.5784100000
 B/A-ratio  =     1.6880763216
 C/A-ratio  =     1.7627867312

  Lattice vectors:

 A1 = (   0.0000000000,   9.5784100000,   0.0000000000)
 A2 = (   0.0000000000,   0.0000000000, -16.1690871197)
 A3 = ( -16.8846940542,   0.0000000000,   0.0000000000)

Analysis of symmetry for initial positions (statically):
 Subroutine PRICEL returns:
 Original cell was already a primitive cell.

 Routine SETGRP: Setting up the symmetry group for a
 simple orthorhombic supercell.

 Subroutine GETGRP returns: Found  1 space group operations
 (whereof  1 operations were pure point group operations)
 out of a pool of  8 trial point group operations.

The static configuration has the point symmetry C_1 .

Analysis of symmetry for dynamics (positions and initial velocities):
 Subroutine PRICEL returns:
 Original cell was already a primitive cell.

 Routine SETGRP: Setting up the symmetry group for a
 simple orthorhombic supercell.

 Subroutine GETGRP returns: Found  1 space group operations
 (whereof  1 operations were pure point group operations)
 out of a pool of  8 trial point group operations.

The dynamic configuration has the point symmetry C_1 .

 Subroutine INISYM returns: Found  1 space group operations
 (whereof  1 operations are pure point group operations),
 and found     1 'primitive' translations

 KPOINTS: gamma-point-only calculation. no periodi

Automatic generation of k-mesh.
Space group operators:
 irot       det(A)        alpha          n_x          n_y          n_z        tau_x        tau_y        tau_z
    1     1.000000     0.000000     1.000000     0.000000     0.000000     0.000000     0.000000     0.000000

 Subroutine IBZKPT returns following result:

 Found      1 irreducible k-points:

 Following reciprocal coordinates:
            Coordinates               Weight
  0.000000  0.000000  0.000000      1.000000

 Following cartesian coordinates:
            Coordinates               Weight
  0.000000  0.000000  0.000000      1.000000

 SYSTEM =  "Millerite NiS"
 POSCAR =  Type_036 Type_136

 Startparameter for this run:
   NWRITE =      2    write-flag & timer
   PREC   = normal    normal or accurate (medium, high low for compatibility)
   ISTART =      0    job   : 0-new  1-cont  2-samecut
   ICHARG =      2    charge: 1-file 2-atom 10-const
   ISPIN  =      1    spin polarized calculation?
   LNONCOLLINEAR =      F non collinear calculations
   LSORBIT =      F    spin-orbit coupling
   INIWAV =      1    electr: 0-lowe 1-rand  2-diag
   LASPH  =      F    aspherical Exc in radial PAW
   METAGGA=      F    non-selfconsistent MetaGGA calc.

 Electronic Relaxation 1
   ENCUT  =  450.0 eV  33.07 Ry    5.75 a.u.  29.20 16.57 27.97*2*pi/ulx,y,z
   ENINI  =  450.0     initial cutoff
   ENAUG  =  703.4 eV  augmentation charge cutoff
   NELM   =    100;   NELMIN=  2; NELMDL= -5     # of ELM steps
   EDIFF  = 0.1E-03   stopping-criterion for ELM
   LREAL  =      T    real-space projection
   NLSPLINE    = F    spline interpolate recip. space projectors
   LCOMPAT=      F    compatible to vasp.4.4
   GGA_COMPAT  = T    GGA compatible to vasp.4.4-vasp.4.6
   LMAXPAW     = -100 max onsite density
   LMAXMIX     =    2 max onsite mixed and CHGCAR
   VOSKOWN=      0    Vosko Wilk Nusair interpolation
   ROPT   =   -0.00050  -0.00050
 Ionic relaxation
   EDIFFG = 0.1E-02   stopping-criterion for IOM
   NSW    =      0    number of steps for IOM
   NBLOCK =      1;   KBLOCK =      1    inner block; outer block
   IBRION =     -1    ionic relax: 0-MD 1-quasi-New 2-CG
   NFREE  =      0    steps in history (QN), initial steepest desc. (CG)
   ISIF   =      2    stress and relaxation
   IWAVPR =     10    prediction:  0-non 1-charg 2-wave 3-comb
   ISYM   =      2    0-nonsym 1-usesym 2-fastsym
   LCORR  =      T    Harris-Foulkes like correction to forces

   POTIM  = 0.5000    time-step for ionic-motion
   TEIN   =    0.0    initial temperature
   TEBEG  =    0.0;   TEEND  =   0.0 temperature during run
   SMASS  =  -3.00    Nose mass-parameter (am)
   estimated Nose-frequenzy (Omega)   =  0.10E-29 period in steps =****** mass=  -0.652E-26a.u.
   SCALEE = 1.0000    scale energy and forces
   NPACO  =    256;   APACO  = 16.0  distance and # of slots for P.C.
   PSTRESS=    0.0 pullay stress

  Mass of Ions in am
   POMASS =  58.69 32.07
  Ionic Valenz
   ZVAL   =  16.00  6.00
  Atomic Wigner-Seitz radii
  virtual crystal weights
   VCA    =   1.00  1.00
   NELECT =     792.0000    total number of electrons
   NUPDOWN=      -1.0000    fix difference up-down

 DOS related values:
   EMIN   =  10.00;   EMAX   =-10.00  energy-range for DOS
   EFERMI =   0.00
[...]
  Fock        0.00000     0.00000     0.00000     0.00000     0.00000     0.00000
  Total     133.18912   126.40608   132.63504     1.67964     0.33906     1.56833
  in kB      81.60320    77.44733    81.26373     1.02909     0.20774     0.96090

 VOLUME and BASIS-vectors are now :
  energy-cutoff  :      450.00
  volume of cell :     2615.00
      direct lattice vectors                 reciprocal lattice vectors
    16.884694054  0.000000000  0.000000000     0.059225237  0.000000000  0.000000000
     0.000000000  9.578410000  0.000000000     0.000000000  0.104401461  0.000000000
     0.000000000  0.000000000 16.169087120     0.000000000  0.000000000  0.061846411

  length of vectors
    16.884694054  9.578410000 16.169087120     0.059225237  0.104401461  0.061846411

 FORCES acting on ions
    electron-ion (+dipol)            ewald-force                    non-local-force                 convergence-correction
   0.348E+03 -.812E+03 0.171E+04   -.351E+03 0.815E+03 -.171E+04   0.241E+01 -.285E+01 0.537E+00   0.205E-01 0.156E-01 -.802E-02
   -.429E+03 -.220E+03 -.267E+04   0.426E+03 0.220E+03 0.267E+04   0.390E+01 -.703E+00 0.119E+01   0.110E-01 0.548E-03 0.134E-02
   0.164E+03 -.853E+02 0.284E+04   -.164E+03 0.860E+02 -.285E+04   0.583E+00 -.105E+01 0.748E+01   -.131E-01 0.153E-01 -.930E-02
   0.539E+03 -.220E+02 -.119E+04   -.542E+03 0.222E+02 0.119E+04   0.196E+01 -.195E+00 -.536E+01   -.148E-01 0.144E-01 -.144E-01
   -.445E+02 0.418E+03 0.228E+04   0.442E+02 -.418E+03 -.229E+04   0.803E+00 0.104E+00 0.832E+01   -.655E-02 0.191E-02 -.819E-02
   0.152E+02 0.838E+02 -.179E+04   -.189E+02 -.845E+02 0.180E+04   0.287E+01 0.320E+00 -.680E+01   -.155E-01 -.126E-01 -.764E-02
   0.792E+03 0.200E+03 0.122E+04   -.795E+03 -.199E+03 -.123E+04   0.277E+01 0.661E+00 0.125E+01   0.143E-01 0.140E-01 -.353E-04
   0.495E+03 0.168E+03 -.330E+04   -.496E+03 -.169E+03 0.330E+04   0.141E+01 0.141E+01 -.703E+00   -.768E-02 0.167E-01 -.105E-01
   0.737E+03 -.126E+03 0.565E+03   -.739E+03 0.126E+03 -.568E+03   0.152E+01 -.357E+00 0.487E+01   -.792E-02 -.262E-01 0.299E-03
   0.751E+03 -.898E+02 -.378E+04   -.749E+03 0.902E+02 0.378E+04   -.105E+01 -.570E+00 -.879E+00   0.363E-03 -.221E-01 -.663E-02
   -.758E+03 0.539E+02 0.182E+04   0.762E+03 -.540E+02 -.183E+04   -.329E+01 0.524E+00 0.407E+01   -.518E-02 -.277E-02 -.324E-02
   -.125E+03 0.715E+02 -.218E+04   0.121E+03 -.708E+02 0.218E+04   0.255E+01 -.271E+00 -.650E+01   0.143E-01 0.113E-02 0.902E-02
   -.337E+03 -.205E+03 0.341E+04   0.340E+03 0.208E+03 -.342E+04   -.171E+01 -.318E+01 0.445E+01   0.346E-01 0.953E-03 0.737E-02
   0.136E+03 -.314E+03 -.703E+03   -.138E+03 0.316E+03 0.706E+03   0.130E+01 -.146E+01 -.207E+01   0.358E-01 -.953E-02 0.156E-02
   -.468E+03 0.226E+03 0.386E+04   0.466E+03 -.227E+03 -.386E+04   0.237E+01 0.935E+00 -.156E+01   -.981E-02 -.349E-02 -.110E-01
   -.478E+03 0.268E+03 0.390E+02   0.479E+03 -.271E+03 -.372E+02   -.161E+00 0.240E+01 -.179E+01   -.652E-02 -.834E-02 -.301E-01
   -.307E+03 0.120E+03 -.366E+04   0.309E+03 -.123E+03 0.366E+04   -.116E+01 0.365E+01 0.250E+01   -.632E-03 0.149E-02 -.188E-02
   0.445E+03 0.536E+03 0.272E+04   -.446E+03 -.537E+03 -.272E+04   -.673E+00 0.164E+01 0.183E+01   -.662E-02 -.688E-02 0.423E-02
   -.531E+03 0.449E+03 -.843E+03   0.533E+03 -.455E+03 0.845E+03   -.169E+01 0.499E+01 -.361E+01   -.211E-01 -.106E-01 0.115E-01
   0.129E+03 0.663E+03 0.196E+04   -.127E+03 -.667E+03 -.196E+04   -.151E+01 0.444E+01 0.285E+01   -.475E-02 0.186E-01 -.193E-01
   0.160E+03 0.384E+03 -.273E+04   -.159E+03 -.385E+03 0.273E+04   -.694E+00 0.114E+01 -.131E+01   -.748E-02 0.868E-02 -.708E-02
   0.435E+02 0.443E+03 0.132E+04   -.442E+02 -.446E+03 -.133E+04   0.152E+01 0.243E+01 0.448E+01   -.155E-01 -.104E-01 -.158E-03
   -.424E+02 0.260E+03 -.330E+04   0.432E+02 -.264E+03 0.330E+04   -.668E+00 0.427E+01 0.179E+01   -.153E-01 -.572E-02 -.397E-02
   -.357E+03 0.669E+03 -.120E+04   0.359E+03 -.675E+03 0.120E+04   -.157E+01 0.529E+01 -.234E+01   0.652E-02 0.175E-01 0.802E-02
   0.257E+03 -.204E+03 0.112E+04   -.257E+03 0.205E+03 -.112E+04   0.271E+00 -.415E+00 0.130E+01   0.181E-01 0.356E-02 -.114E-02
   -.196E+03 -.429E+03 0.395E+04   0.195E+03 0.430E+03 -.396E+04   0.685E+00 -.953E+00 0.517E+01   -.106E-01 -.726E-02 -.121E-01
   -.414E+03 -.624E+03 0.490E+03   0.414E+03 0.628E+03 -.491E+03   0.523E-01 -.354E+01 -.120E+00   -.108E-01 0.131E-01 -.550E-02
   -.275E+03 -.138E+03 -.360E+04   0.276E+03 0.141E+03 0.360E+04   -.898E+00 -.398E+01 0.225E+01   -.755E-02 0.143E-01 0.155E-02
   -.530E+03 0.860E+02 0.346E+04   0.530E+03 -.871E+02 -.347E+04   -.437E+00 0.121E+01 0.459E+01   -.305E-01 0.488E-02 -.191E-02
   -.858E+03 -.612E+03 -.598E+03   0.862E+03 0.618E+03 0.600E+03   -.409E+01 -.587E+01 -.359E+01   -.119E-01 0.543E-02 -.270E-02
   0.170E+03 -.512E+03 0.190E+04   -.170E+03 0.516E+03 -.191E+04   -.140E+01 -.304E+01 0.352E+01   0.266E-02 0.163E-01 0.282E-03
   0.951E+02 -.142E+03 -.301E+04   -.947E+02 0.143E+03 0.301E+04   0.144E-01 -.117E+01 0.858E+00   -.374E-02 0.251E-01 -.163E-01
   0.306E+03 -.394E+03 0.123E+04   -.307E+03 0.396E+03 -.123E+04   0.156E+01 -.196E+01 0.395E+01   -.368E-03 -.111E-01 -.185E-01
   0.299E+02 -.263E+03 -.334E+04   -.292E+02 0.267E+03 0.334E+04   -.612E+00 -.385E+01 0.174E+01   -.971E-02 -.208E-01 -.388E-02
   0.325E+03 0.711E+03 0.208E+04   -.328E+03 -.714E+03 -.209E+04   0.249E+01 0.184E+01 0.517E+01   0.367E-01 -.211E-01 0.117E-01
   -.280E+03 -.310E+03 -.166E+04   0.281E+03 0.315E+03 0.167E+04   -.291E+00 -.436E+01 -.447E+01   0.872E-02 -.191E-01 0.163E-01
   0.467E+03 -.118E+03 -.965E+03   -.471E+03 0.122E+03 0.970E+03   0.197E+01 -.236E+01 -.244E+01   0.688E-02 -.610E-02 -.454E-02
   -.189E+03 -.164E+03 0.794E+03   0.191E+03 0.167E+03 -.798E+03   -.606E+00 -.191E+01 0.265E+01   0.635E-02 -.423E-02 0.483E-02
   -.452E+03 -.141E+03 0.136E+04   0.455E+03 0.144E+03 -.137E+04   -.283E+01 -.257E+01 0.257E+01   -.519E-02 -.382E-02 -.459E-02
   -.246E+03 -.857E+01 -.853E+03   0.246E+03 0.859E+01 0.858E+03   0.668E+00 0.668E-01 -.384E+01   0.358E-02 0.550E-02 -.143E-02
   -.167E+03 -.287E+03 0.926E+03   0.168E+03 0.290E+03 -.930E+03   0.510E+00 -.227E+01 0.337E+01   -.916E-02 0.548E-02 0.371E-03
   -.207E+03 -.352E+02 -.124E+04   0.209E+03 0.353E+02 0.124E+04   -.947E+00 -.489E-01 -.229E+01   -.970E-02 -.357E-02 0.369E-02
   0.115E+03 0.398E+02 0.172E+04   -.115E+03 -.394E+02 -.173E+04   0.775E-01 -.502E+00 0.168E+01   0.103E-02 0.796E-02 0.524E-02
   -.812E+02 0.449E+02 -.377E+03   0.815E+02 -.452E+02 0.381E+03   0.101E+01 -.262E+00 -.275E+01   -.238E-02 0.152E-01 -.934E-02
   0.129E+03 0.834E+02 0.163E+04   -.130E+03 -.838E+02 -.164E+04   0.151E+01 0.380E+00 0.229E+01   -.194E-03 -.161E-02 -.102E-02
   -.119E+03 0.433E+02 -.569E+03   0.120E+03 -.433E+02 0.574E+03   0.410E+00 0.575E-01 -.456E+01   -.249E-02 -.106E-01 -.181E-02
   0.181E+03 0.307E+03 0.583E+03   -.182E+03 -.309E+03 -.588E+03   0.146E+01 0.161E+01 0.393E+01   0.816E-02 -.262E-02 0.629E-02
   -.667E+02 0.317E+02 -.131E+04   0.680E+02 -.316E+02 0.132E+04   -.580E+00 -.278E+00 -.376E+01   0.209E-03 0.906E-03 -.275E-02
   0.189E+03 -.413E+03 0.145E+04   -.190E+03 0.416E+03 -.146E+04   0.598E+00 -.192E+01 0.336E+01   0.852E-02 0.457E-02 -.633E-03
   0.228E+01 -.213E+03 -.131E+03   -.271E+01 0.213E+03 0.132E+03   0.593E+00 0.509E+00 -.113E+01   0.829E-02 0.127E-01 -.273E-02
   -.169E+02 -.367E+03 0.887E+03   0.172E+02 0.371E+03 -.890E+03   -.812E+00 -.198E+01 0.262E+01   -.812E-02 0.294E-02 -.357E-02
   0.191E+03 0.230E+02 -.110E+04   -.192E+03 -.230E+02 0.110E+04   -.140E-01 0.316E+00 -.183E+01   -.768E-02 0.118E-01 0.170E-02
   -.310E+03 -.193E+03 0.489E+03   0.311E+03 0.196E+03 -.489E+03   -.167E+01 -.162E+01 0.244E+00   -.949E-02 -.804E-03 -.822E-02
   -.238E+03 0.338E+02 -.139E+04   0.238E+03 -.330E+02 0.140E+04   -.451E-01 -.718E+00 -.201E+01   -.648E-03 -.608E-02 -.528E-03
   0.245E+03 -.217E+03 -.756E+03   -.246E+03 0.217E+03 0.759E+03   0.302E+00 -.410E+00 -.150E+01   0.575E-02 0.229E-02 -.808E-02
   -.675E+02 0.755E+02 0.125E+04   0.690E+02 -.756E+02 -.125E+04   -.843E+00 -.559E+00 0.441E+01   0.150E-01 -.425E-02 0.806E-02
   0.168E+03 0.252E+02 0.107E+04   -.169E+03 -.258E+02 -.108E+04   0.298E+00 0.624E+00 0.392E+01   -.111E-02 -.438E-02 -.296E-02
   0.214E+03 -.208E+03 -.828E+03   -.215E+03 0.211E+03 0.830E+03   0.433E+00 -.985E+00 -.107E+01   -.318E-02 -.143E-01 -.224E-03
   -.276E+02 0.103E+03 0.283E+03   0.278E+02 -.103E+03 -.286E+03   -.130E+01 -.125E+01 0.242E+01   -.331E-02 -.711E-02 0.108E-01
   -.748E+02 -.252E+03 -.151E+04   0.736E+02 0.255E+03 0.152E+04   0.685E+00 -.215E+01 -.174E+00   0.240E-02 -.384E-02 -.246E-03
   0.298E+03 0.190E+03 0.780E+03   -.301E+03 -.193E+03 -.781E+03   0.954E+00 0.154E+01 0.346E+00   0.152E-02 -.156E-02 -.997E-02
   0.214E+03 -.489E+02 -.115E+04   -.215E+03 0.487E+02 0.115E+04   0.302E+00 -.149E+00 -.202E+01   -.511E-02 0.122E-02 -.327E-02
   0.172E+03 0.102E+03 0.166E+04   -.174E+03 -.103E+03 -.167E+04   0.920E+00 0.305E+00 0.332E+01   0.959E-02 0.101E-03 -.831E-02
   -.735E+02 -.408E+02 -.601E+03   0.738E+02 0.428E+02 0.605E+03   -.498E-01 -.848E+00 -.127E+01   0.131E-01 -.104E-01 0.301E-02
   0.295E+03 0.406E+03 -.486E+03   -.295E+03 -.409E+03 0.490E+03   0.405E+00 0.181E+01 -.225E+01   -.732E-02 0.316E-02 -.613E-02
   0.232E+03 0.799E+02 0.145E+04   -.233E+03 -.799E+02 -.145E+04   0.862E+00 -.884E-02 0.359E+01   0.209E-02 0.423E-02 0.365E-02
   -.415E+02 0.301E+03 0.675E+03   0.415E+02 -.304E+03 -.677E+03   -.131E+01 0.162E+01 0.232E+01   -.568E-02 0.324E-02 0.825E-03
   -.211E+03 -.342E+02 -.139E+04   0.212E+03 0.334E+02 0.139E+04   -.374E+00 0.641E+00 -.280E+01   -.303E-02 -.129E-02 -.167E-02
   -.234E+03 0.178E+03 0.378E+03   0.234E+03 -.180E+03 -.382E+03   -.434E+00 0.120E+00 0.251E+01   0.252E-02 0.445E-02 0.197E-02
   -.963E+02 0.263E+03 -.150E+04   0.957E+02 -.267E+03 0.151E+04   0.105E+00 0.268E+01 -.125E+01   0.387E-02 0.521E-02 -.842E-03
   0.113E+03 -.603E+02 0.109E+04   -.114E+03 0.611E+02 -.110E+04   0.842E+00 -.621E+00 0.325E+01   -.452E-02 -.655E-02 0.430E-02
   0.174E+03 0.176E+03 -.811E+03   -.174E+03 -.179E+03 0.813E+03   0.300E+00 0.167E+01 -.896E+00   -.470E-03 0.968E-03 -.213E-03
   -.125E+02 0.120E+02 -.438E+02   -.455E-12 0.227E-12 0.909E-12   0.125E+02 -.120E+02 0.440E+02   -.301E-01 0.103E-01 -.159E+00

 POSITION                                       TOTAL-FORCE (eV/Angst)
     13.17084      1.39171      1.94975        -0.590471      0.712036      0.055430
     13.20115      1.47497      4.35661         0.627208     -0.372953      0.968929
      3.63011      6.44511      1.54603         0.894683     -0.344893     -0.235608
      5.02033      6.18092      3.49202        -0.319496     -0.002546      0.020934
      6.54442      1.54362      2.03028         0.485638     -0.293988     -0.247537
      7.93172      1.39171      4.00611        -0.782893     -0.345129     -1.010935
     16.08224      6.18092      2.46384        -0.046555      1.170336      0.124985
     16.36596      6.01760      4.88692         0.270293      0.140540      0.815345
      2.10894      1.39171      2.97793         0.050550      0.223844      1.011306
      2.28279      1.39046      5.52161         0.244366     -0.173962      1.653589
      9.60678      6.16357      2.60589         0.474342      0.324030     -0.313197
     10.84312      6.18092      4.52020        -1.042046      0.405093     -0.126046
     15.30993      0.61975      0.94900         1.158855     -0.697019     -0.776262
     16.30176      9.55350      3.05172        -0.638397      0.027258      1.205749
      6.96387      3.83764      0.97252         0.232900     -0.174918     -0.818315
      7.17375      4.91558      3.08454         0.466806      0.319658      0.020163
      7.76347      4.53208      5.43131         0.092357      0.435946      0.815614
     11.77517      9.09614      1.58844        -0.847059     -0.148001     -0.339645
     10.08514      0.12638      3.59863         0.261585     -0.682045     -1.471038
      1.35096      4.91558      2.05636         0.173943     -0.073860      0.599910
      1.68998      4.73416      4.49113         0.363474      0.108057      1.061308
      4.26235      0.12638      2.57045         0.778519     -0.589475      1.261785
      4.86900      9.49295      5.12653         0.142457     -0.097680      0.683888
     12.99653      4.91558      4.11272         0.647053     -0.264691     -1.850301
     15.59529      3.17206      2.16287        -0.001466      0.812341      1.665691
      6.04498      6.18110      0.94826        -0.422820      0.026928     -1.582178
      7.17375      7.44626      3.08454         0.335814      0.195764     -1.084118
      7.76706      7.83524      5.42078         0.174351     -0.365815      0.865495
      8.94989      1.37772      1.45918        -0.281935      0.188202     -1.931389
     10.08514      2.65705      3.59863         0.396882      0.502997     -1.284646
      1.35096      7.44626      2.05636        -0.650776      0.368233      1.505435
      1.89782      7.54465      4.69961         0.394457     -0.260710      1.025352
      4.26235      2.65705      2.57045         0.452743      0.639766      1.469922
      4.87120      2.87439      5.11982         0.149479      0.195526      0.794348
     14.24517      8.11584      1.84744        -0.323312     -1.250605     -0.172857
     12.99653      7.44626      4.11272         0.904767      0.454996     -1.643786
      0.56977      1.12403      4.42383        -2.705972      1.162508      1.684776
      0.05309      1.57098      1.84873         0.984791      0.499569     -1.383145
      8.00634      6.18092      1.40713         1.014160     -0.356308     -2.595682
      8.59001      6.18092      4.49167         0.587611      0.093239      1.346656
     10.91773      1.39171      1.92122         1.304609      1.109549     -1.342682
     11.24159      1.39890      4.78221         1.135877     -0.031137      2.804423
      1.89899      6.20153      0.51507         0.096604     -0.099386     -3.951125
      2.76722      6.18092      3.46349         1.220174     -0.585145      1.275683
      4.77679      1.39158      1.02054         0.382154     -0.007638     -3.759060
      5.67861      1.39171      3.97758         1.526801      0.046647      0.497062
     13.90885      6.18940      2.60110        -0.428164     -1.036255     -1.828393
     14.32784      6.16267      5.16898         0.701714     -0.105322      2.342839
     14.41057      2.44081      0.64042        -0.600370      1.440806     -2.809511
     13.74206      3.08755      3.23190         0.178294      0.427217      0.704155
      5.26426      7.79215      1.92599        -0.541003      1.887007     -0.408566
      5.83898      7.69973      4.75420        -1.035623      0.341202      1.931146
      8.17565      3.00295      2.44008        -0.269934      1.416185     -0.142744
      8.81663      2.82724      5.24818         0.074563      0.087929      2.704661
      0.02514      7.79215      3.98236        -0.673320     -0.300893      0.836163
     16.28882      8.21658      1.34972         0.693189     -0.717653     -2.623188
      2.39996      3.11561      1.77895        -0.377902      0.049312     -2.946011
      2.93654      3.00295      4.49645        -0.338794      1.878435      0.408831
     11.08705      7.79215      2.95417        -1.124527     -0.603545     -0.027483
     11.72807      7.61132      5.66950        -0.533787      1.306314      3.697076
      5.26426      4.56969      1.92599        -1.732602     -1.210698     -0.549490
      5.82871      4.68339      4.78656        -1.043715     -0.409086      1.735071
     13.43307      9.44490      0.44296        -1.012742     -0.921907     -3.522454
     13.99844      9.35889      3.46826         0.314532      1.091477      2.704968
     16.72280      4.42570      3.60105        -0.197624     -1.539387      1.356226
     16.40347      4.72194      1.02322        -0.334659     -0.002041     -3.193862
      8.17565      9.35889      2.44008        -1.324649     -1.382523     -0.064217
      8.81466      9.54142      5.24857         0.166526     -0.158092      2.653420
     10.98720      4.60268      3.15722        -0.005756     -1.616557     -1.586351
     11.81133      4.86338      5.73764        -0.464412     -1.124781      3.765640
      2.39335      9.24597      1.76834        -0.297079      0.196242     -2.889957
      2.93654      9.35889      4.49645         0.434737     -1.938545      0.437805
    total drift:                               -0.050138     -0.004965      0.069444

  FREE ENERGIE OF THE ION-ELECTRON SYSTEM (eV)
  free  energy   TOTEN  =      -340.26537110 eV

  energy  without entropy=     -339.06549145  energy(sigma->0) =     -339.66543127