 vasp.5.4.4.18Apr17-6-g9f103f2a35 (build Aug 13 2019 17:33:20) gamma-only

 executed on             LinuxIFC date 2020.05.12  20:55:29

 INCAR:
 POTCAR:    PAW_PBE Ni_pv 06Sep2000
 POTCAR:    PAW_PBE S 06Sep2000
 POTCAR:    PAW_PBE Ni_pv 06Sep2000
   VRHFIN =Ni:

   TITEL  = PAW_PBE Ni_pv 06Sep2000
   POMASS =   58.690; ZVAL   =   16.000    mass and valenz
   ENMAX  =  367.986; ENMIN  =  275.989 eV

 POTCAR:    PAW_PBE S 06Sep2000
   VRHFIN =S : s2p4

   TITEL  = PAW_PBE S 06Sep2000
   POMASS =   32.066; ZVAL   =    6.000    mass and valenz
   ENMAX  =  258.689; ENMIN  =  194.016 eV

 Optimization of the real space projectors (new method)

 maximal supplied QI-value         = 18.90
 optimisation between [QCUT,QGAM] = [ 10.77, 21.73] = [ 32.49,132.25] Ry
 Optimized for a Real-space Cutoff    1.38 Angstroem

   l    n(q)    QCUT    max X(q) W(low)/X(q) W(high)/X(q)  e(spline)
   1      8    10.771     2.836    0.40E-04    0.29E-04    0.12E-06
   1      8    10.771     4.023    0.10E-03    0.48E-04    0.29E-06
   2      8    10.771    73.368    0.42E-03    0.97E-04    0.44E-06
   2      8    10.771    69.010    0.42E-03    0.99E-04    0.45E-06
   0      9    10.771    54.797    0.10E-03    0.56E-04    0.74E-07
   0      9    10.771    24.266    0.89E-04    0.49E-04    0.67E-07
 Optimization of the real space projectors (new method)

 maximal supplied QI-value         = 19.84
 optimisation between [QCUT,QGAM] = [ 10.71, 21.63] = [ 32.15,130.99] Ry
 Optimized for a Real-space Cutoff    1.19 Angstroem

   l    n(q)    QCUT    max X(q) W(low)/X(q) W(high)/X(q)  e(spline)
   0      8    10.715   187.594    0.41E-03    0.53E-04    0.66E-07
   0      8    10.715   164.243    0.41E-03    0.53E-04    0.65E-07
   1      7    10.715    67.533    0.19E-03    0.59E-03    0.68E-07
   1      7    10.715    50.729    0.19E-03    0.58E-03    0.67E-07
  PAW_PBE Ni_pv 06Sep2000               :
  PAW_PBE S 06Sep2000                   :

 POSCAR: Type_036 Type_136
  positions in cartesian coordinates
 exchange correlation table for  LEXCH =        8
   RHO(1)=    0.500       N(1)  =     2000
   RHO(2)=  100.500       N(2)  =     4000

 ion  position               nearest neighbor table
   1  0.314  0.983  0.057-  41 2.03  69 2.08  49 2.14  42 2.16  61 2.24   2 2.29
   2  0.397  0.795  0.127-  61 2.08  49 2.09  42 2.25   1 2.29  50 2.36  62 2.36  27 2.41  23 2.46

   3  0.547  0.645  0.254-  43 2.25  62 2.26  50 2.26  63 2.36  51 2.36  28 2.53  14 2.53
   4  0.698  0.494  0.381-  64 2.07  44 2.21  52 2.22  51 2.26  63 2.26  15 2.53  29 2.53
   5  0.114  0.412  0.169-  53 2.11  45 2.25  68 2.26   8 2.28  65 2.36  54 2.36  30 2.53  17 2.53

[...]

  20  0.424  0.718  0.470-  59 2.02  44 2.10  67 2.14  19 2.29
  21  0.067  0.378  0.046-  41 2.00  53 2.05  68 2.06   8 2.40
  22  0.088  0.488  0.417-  46 2.01  47 2.12  72 2.15  52 2.16
  23  0.588  0.879  0.095-  49 2.11  69 2.13  70 2.16  50 2.23   2 2.46  36 2.53
  24  0.791  0.804  0.178-  50 2.25  70 2.26  48 2.26  71 2.36  45 2.36  11 2.53  33 2.53
  25  0.941  0.653  0.305-  72 2.09  51 2.25  71 2.26  45 2.26  46 2.36  34 2.53  12 2.53
  26  0.020  0.176  0.422-  40 2.03  37 2.12  52 2.12  66 2.14
  27  0.584  0.597  0.081-  50 2.06  38 2.06  49 2.08   2 2.41
  28  0.732  0.460  0.187-  68 2.25  50 2.26  38 2.26  51 2.36  39 2.36  14 2.53   3 2.53
  29  0.882  0.310  0.314-  52 2.11  65 2.25  39 2.26  51 2.26  40 2.36   4 2.53  15 2.53
  30  0.299  0.227  0.102-  69 2.11  41 2.21  53 2.24  54 2.36  42 2.36   5 2.53  17 2.53
  31  0.449  0.076  0.229-  70 2.25  42 2.26  54 2.26  55 2.36  43 2.36  18 2.53   6 2.53
  32  0.599  0.926  0.356-  56 2.08  71 2.25  55 2.26  43 2.26  44 2.36   7 2.53  19 2.53
  33  0.015  0.843  0.144-  61 2.13  48 2.26  60 2.26  45 2.36  57 2.36  24 2.53  11 2.53
  34  0.166  0.693  0.271-  62 2.25  57 2.26  45 2.26  46 2.36  58 2.36  12 2.53  25 2.53
  35  0.316  0.543  0.398-  59 2.05  47 2.16  63 2.25  58 2.26  46 2.26
  36  0.769  0.999  0.083-  48 2.00  70 2.05  60 2.06  10 2.42  23 2.53
  37  0.002  0.009  0.479-  16 2.10   9 2.11  26 2.12  40 2.55
  38  0.586  0.406  0.117-  10 1.99  27 2.06  13 2.08  14 2.26  28 2.26
  39  0.736  0.256  0.244-  10 2.10  11 2.25  29 2.26  15 2.26  14 2.36  28 2.36
  40  0.886  0.105  0.371-  16 2.02  26 2.03  12 2.25  15 2.36  29 2.36  37 2.55
  41  0.150  0.166  0.041-  21 2.00   1 2.03  17 2.09  30 2.21
  42  0.303  0.023  0.160-   1 2.16   2 2.25  31 2.26  18 2.26  17 2.36  30 2.36
  43  0.453  0.872  0.286-   3 2.25  19 2.26  32 2.26  18 2.36  31 2.36
  44  0.577  0.720  0.401-  20 2.10  19 2.14   4 2.21  32 2.36  67 2.77
  45  0.019  0.639  0.202-   8 2.10   5 2.25  25 2.26  34 2.26  24 2.36  33 2.36
  46  0.170  0.489  0.329-  22 2.01   6 2.25  35 2.26  34 2.36  25 2.36  47 2.60
  47  0.300  0.344  0.429-  22 2.12  35 2.16   7 2.22  46 2.60
  48  0.869  0.789  0.075-   8 1.98  36 2.00  33 2.26  24 2.26
  49  0.478  0.787  0.033-  27 2.08   2 2.09  23 2.11   1 2.14
  50  0.636  0.692  0.160-  27 2.06  23 2.23  24 2.25  28 2.26   3 2.26   2 2.36
  51  0.787  0.542  0.287-  25 2.25   4 2.26  29 2.26  28 2.36   3 2.36
  52  0.929  0.395  0.400-  29 2.11  26 2.12  22 2.16   4 2.22
  53  0.208  0.461  0.086-  21 2.05  13 2.09   5 2.11  30 2.24   8 2.28
  54  0.353  0.308  0.202-  14 2.25   6 2.26  31 2.26  30 2.36   5 2.36
  55  0.503  0.158  0.329-  15 2.25   7 2.26  32 2.26   6 2.36  31 2.36  56 2.66
  56  0.633  0.032  0.437-  32 2.08   7 2.08  16 2.09  55 2.66
  57  0.070  0.925  0.245-  18 2.25  34 2.26  12 2.26  11 2.36  33 2.36
  58  0.220  0.775  0.372-   9 2.03  19 2.25  35 2.26  34 2.36  12 2.36  59 2.77
  59  0.276  0.632  0.489-  20 2.02  35 2.05   9 2.07  58 2.77
  60  0.920  0.075  0.118-  36 2.06  10 2.15  17 2.25  11 2.26  33 2.26
  61  0.193  0.847  0.090-   2 2.08  33 2.13   1 2.24
  62  0.350  0.641  0.203-  13 2.04  34 2.25  14 2.26   3 2.26   2 2.36
  63  0.501  0.491  0.330-  35 2.25   4 2.26  15 2.26   3 2.36  14 2.36
  64  0.682  0.334  0.439-  15 2.05   4 2.07  16 2.07
  65  0.067  0.258  0.245-  29 2.25   6 2.26  18 2.26   5 2.36  17 2.36
  66  0.218  0.108  0.372-  26 2.14  19 2.26   7 2.26  18 2.36   6 2.36
  67  0.408  0.935  0.481-  19 2.00  20 2.14   7 2.16  44 2.77
  68  0.917  0.408  0.118-  21 2.06   8 2.18  28 2.25  17 2.26   5 2.26
  69  0.467  0.076  0.051-   1 2.08  30 2.11  23 2.13  70 2.76
  70  0.634  0.025  0.160-  36 2.05  23 2.16  31 2.25  11 2.26  24 2.26  10 2.33  69 2.76
  71  0.784  0.874  0.287-  32 2.25  25 2.26  12 2.26  24 2.36  11 2.36
  72  0.973  0.709  0.400-  25 2.09   9 2.10  12 2.14  22 2.15

  LATTYP: Found a base centered orthorhombic cell.
 ALAT       =    11.4527836704
 B/A-ratio  =     1.4485816945
 C/A-ratio  =     1.8059804630

  Lattice vectors:

 A1 = (  10.0797329849,   0.0000000000,   0.0000000000)
 A2 = (  -3.5732980427,  -9.4251025535,   0.0000000000)
 A3 = (   0.0000000000,   0.0000000000, -20.6835035552)

Analysis of symmetry for initial positions (statically):
 Subroutine PRICEL returns:
 Original cell was already a primitive cell.

 Routine SETGRP: Setting up the symmetry group for a
 base centered orthorhombic supercell.

 Subroutine GETGRP returns: Found  1 space group operations
 (whereof  1 operations were pure point group operations)
 out of a pool of  8 trial point group operations.

The static configuration has the point symmetry C_1 .

Analysis of symmetry for dynamics (positions and initial velocities):
 Subroutine PRICEL returns:
 Original cell was already a primitive cell.

 Routine SETGRP: Setting up the symmetry group for a
 base centered orthorhombic supercell.

 Subroutine GETGRP returns: Found  1 space group operations
 (whereof  1 operations were pure point group operations)
 out of a pool of  8 trial point group operations.

The dynamic configuration has the point symmetry C_1 .

 Subroutine INISYM returns: Found  1 space group operations
 (whereof  1 operations are pure point group operations),
 and found     1 'primitive' translations

 KPOINTS: gamma-point-only calculation. no periodi

Automatic generation of k-mesh.
Space group operators:
 irot       det(A)        alpha          n_x          n_y          n_z        tau_x        tau_y        tau_z
    1     1.000000     0.000000     1.000000     0.000000     0.000000     0.000000     0.000000     0.000000

 Subroutine IBZKPT returns following result:

 Found      1 irreducible k-points:

 Following reciprocal coordinates:
            Coordinates               Weight
  0.000000  0.000000  0.000000      1.000000

 Following cartesian coordinates:
            Coordinates               Weight
  0.000000  0.000000  0.000000      1.000000

 SYSTEM =  "Millerite NiS"
 POSCAR =  Type_036 Type_136

 Startparameter for this run:
   NWRITE =      2    write-flag & timer
   PREC   = normal    normal or accurate (medium, high low for compatibility)
   ISTART =      0    job   : 0-new  1-cont  2-samecut
   ICHARG =      2    charge: 1-file 2-atom 10-const
   ISPIN  =      1    spin polarized calculation?
   LNONCOLLINEAR =      F non collinear calculations
   LSORBIT =      F    spin-orbit coupling
   INIWAV =      1    electr: 0-lowe 1-rand  2-diag
   LASPH  =      F    aspherical Exc in radial PAW
   METAGGA=      F    non-selfconsistent MetaGGA calc.

 Electronic Relaxation 1
   ENCUT  =  450.0 eV  33.07 Ry    5.75 a.u.  17.43 17.43 35.78*2*pi/ulx,y,z
   ENINI  =  450.0     initial cutoff
   ENAUG  =  703.4 eV  augmentation charge cutoff
   NELM   =    100;   NELMIN=  2; NELMDL= -5     # of ELM steps
   EDIFF  = 0.1E-03   stopping-criterion for ELM
   LREAL  =      T    real-space projection
   NLSPLINE    = F    spline interpolate recip. space projectors
   LCOMPAT=      F    compatible to vasp.4.4
   GGA_COMPAT  = T    GGA compatible to vasp.4.4-vasp.4.6
   LMAXPAW     = -100 max onsite density
   LMAXMIX     =    2 max onsite mixed and CHGCAR
   VOSKOWN=      0    Vosko Wilk Nusair interpolation
   ROPT   =   -0.00050  -0.00050
 Ionic relaxation
   EDIFFG = 0.1E-02   stopping-criterion for IOM
   NSW    =      0    number of steps for IOM
   NBLOCK =      1;   KBLOCK =      1    inner block; outer block
   IBRION =     -1    ionic relax: 0-MD 1-quasi-New 2-CG
   NFREE  =      0    steps in history (QN), initial steepest desc. (CG)
   ISIF   =      2    stress and relaxation
   IWAVPR =     10    prediction:  0-non 1-charg 2-wave 3-comb
   ISYM   =      2    0-nonsym 1-usesym 2-fastsym
   LCORR  =      T    Harris-Foulkes like correction to forces

   POTIM  = 0.5000    time-step for ionic-motion
   TEIN   =    0.0    initial temperature
   TEBEG  =    0.0;   TEEND  =   0.0 temperature during run
   SMASS  =  -3.00    Nose mass-parameter (am)
   estimated Nose-frequenzy (Omega)   =  0.10E-29 period in steps =****** mass=  -0.232E-26a.u.
   SCALEE = 1.0000    scale energy and forces
   NPACO  =    256;   APACO  = 16.0  distance and # of slots for P.C.
   PSTRESS=    0.0 pullay stress

  Mass of Ions in am
   POMASS =  58.69 32.07
  Ionic Valenz
   ZVAL   =  16.00  6.00
  Atomic Wigner-Seitz radii
  virtual crystal weights
   VCA    =   1.00  1.00
   NELECT =     792.0000    total number of electrons
   NUPDOWN=      -1.0000    fix difference up-down

[...]
  Fock        0.00000     0.00000     0.00000     0.00000     0.00000     0.00000
  Total      80.33340    90.56541   107.98335    -7.17753    -0.14059    -0.55443
  in kB      65.50094    73.84374    88.04570    -5.85230    -0.11464    -0.45207

 VOLUME and BASIS-vectors are now :
  energy-cutoff  :      450.00
  volume of cell :     1964.98
      direct lattice vectors                 reciprocal lattice vectors
    10.079732985  0.000000000  0.000000000     0.099208977 -0.037612667  0.000000000
     3.573298043  9.425102554  0.000000000     0.000000000  0.106099641  0.000000000
     0.000000000  0.000000000 20.683503555     0.000000000  0.000000000  0.048347708

  length of vectors
    10.079732985 10.079732985 20.683503555     0.106099641  0.106099641  0.048347708

 FORCES acting on ions
    electron-ion (+dipol)            ewald-force                    non-local-force                 convergence-correction
   0.445E+03 0.431E+02 0.538E+04   -.447E+03 -.438E+02 -.539E+04   0.875E+00 0.339E+00 0.687E+01   -.133E-01 0.363E-01 -.133E+00
   0.520E+03 0.166E+03 0.282E+04   -.524E+03 -.170E+03 -.281E+04   0.249E+01 0.263E+01 -.169E+01   -.256E-01 0.569E-01 -.157E+00
   -.341E+02 -.410E+03 -.524E+03   0.332E+02 0.411E+03 0.524E+03   0.836E+00 -.127E+01 -.296E+00   -.700E-01 0.111E+00 0.452E-01
   -.205E+03 -.547E+03 -.387E+04   0.206E+03 0.550E+03 0.387E+04   -.262E+00 -.255E+01 -.189E+01   0.485E-01 -.155E-01 0.811E-01
   -.990E+02 -.187E+03 0.144E+04   0.995E+02 0.184E+03 -.143E+04   -.460E-01 0.109E+01 -.361E+01   0.119E-01 -.482E-01 -.199E+00
   -.377E+02 -.418E+03 -.150E+04   0.371E+02 0.419E+03 0.150E+04   0.620E+00 -.108E+01 0.102E+01   -.389E-01 0.647E-01 0.910E-02
   -.808E+02 -.530E+03 -.472E+04   0.797E+02 0.533E+03 0.472E+04   0.391E+00 -.212E+01 -.356E+01   -.757E-01 0.589E-01 0.512E-01
   0.995E+02 -.317E+03 0.427E+04   -.102E+03 0.316E+03 -.428E+04   0.274E+01 0.131E+01 0.409E+01   0.640E-01 -.142E+00 -.203E+00
   0.413E+03 -.121E+03 -.513E+04   -.413E+03 0.125E+03 0.514E+04   -.124E+01 -.288E+01 -.431E+01   0.500E-01 -.570E-01 0.128E+00
   0.666E+02 -.352E+03 0.336E+04   -.671E+02 0.352E+03 -.336E+04   -.381E-02 0.735E+00 0.473E+01   -.346E-01 -.221E+00 -.158E+00
   -.187E+03 -.178E+03 0.395E+03   0.189E+03 0.176E+03 -.390E+03   -.107E+01 0.807E+00 -.272E+01   -.165E-01 -.275E-01 -.920E-01
   0.170E+03 -.423E+03 -.241E+04   -.170E+03 0.426E+03 0.240E+04   0.575E+00 -.321E+01 0.146E+01   -.171E-02 -.216E-01 0.861E-02
   0.356E+03 0.283E+02 0.402E+04   -.358E+03 -.275E+02 -.402E+04   0.192E+01 -.571E+00 0.196E+00   -.922E-01 -.169E-02 -.146E+00
   0.431E+03 0.257E+03 0.491E+03   -.432E+03 -.256E+03 -.488E+03   0.179E+01 -.141E+01 -.201E+01   -.160E+00 -.188E-01 -.122E-01
   0.487E+03 0.210E+03 -.253E+04   -.490E+03 -.210E+03 0.253E+04   0.333E+01 -.359E+00 -.244E+00   0.378E-01 0.152E-01 -.185E-01
   0.367E+03 0.975E+02 -.525E+04   -.369E+03 -.995E+02 0.525E+04   0.169E+01 0.196E+01 -.294E+01   0.503E-01 0.274E-01 0.132E+00
   0.722E+03 0.328E+03 0.287E+04   -.725E+03 -.328E+03 -.286E+04   0.174E+01 -.206E+00 -.493E+00   0.859E-01 0.682E-01 -.190E+00
   0.418E+03 0.298E+03 -.423E+03   -.420E+03 -.298E+03 0.423E+03   0.164E+01 -.439E+00 -.183E-01   -.422E-02 0.581E-01 -.379E-01
   0.189E+03 0.326E+01 -.322E+04   -.194E+03 -.194E+01 0.322E+04   0.299E+01 -.590E-01 0.704E+00   -.185E-01 -.959E-01 0.132E+00
   -.473E+03 0.433E+03 -.535E+04   0.471E+03 -.435E+03 0.535E+04   0.360E+01 0.143E+01 -.303E+01   -.301E-01 -.171E-01 0.108E+00
   0.364E+03 -.257E+03 0.586E+04   -.365E+03 0.259E+03 -.587E+04   0.268E+00 -.118E+01 0.502E+01   0.468E-01 -.250E-01 -.635E-01
   0.497E+03 0.183E+03 -.467E+04   -.500E+03 -.186E+03 0.467E+04   0.234E+01 0.314E+01 0.218E+00   -.674E-02 -.427E-01 0.108E+00
   -.294E+03 0.132E+02 0.433E+04   0.295E+03 -.114E+02 -.434E+04   0.681E+00 -.194E+01 0.367E+01   0.323E-01 0.610E-01 -.148E+00
   0.292E+03 0.345E+03 0.149E+04   -.292E+03 -.346E+03 -.148E+04   0.148E+00 0.384E+00 -.286E+01   0.327E-01 0.821E-01 -.121E+00
   0.550E+03 0.275E+03 -.157E+04   -.553E+03 -.276E+03 0.157E+04   0.294E+01 0.403E+00 0.357E+00   0.238E-01 -.468E-01 0.211E-01
   -.428E+03 -.212E+03 -.456E+04   0.433E+03 0.213E+03 0.456E+04   -.490E+01 -.186E+00 0.493E-01   0.745E-01 0.907E-01 0.459E-01
   -.255E+03 0.621E+03 0.516E+04   0.252E+03 -.622E+03 -.516E+04   0.352E+01 -.191E+00 0.167E+00   -.476E-01 0.854E-01 -.251E+00
   -.526E+03 0.116E+03 0.179E+04   0.528E+03 -.116E+03 -.179E+04   -.175E+01 -.600E+00 -.138E+01   0.458E-01 -.812E-02 -.638E-01
   -.394E+03 0.751E+02 -.142E+04   0.397E+03 -.753E+02 0.142E+04   -.293E+01 -.278E-01 0.226E+01   0.852E-01 -.352E-01 0.601E-01
   -.809E+03 -.166E+03 0.402E+04   0.815E+03 0.167E+03 -.402E+04   -.499E+01 -.547E+00 0.961E+00   -.114E+00 0.655E-01 -.163E+00
   -.411E+03 0.996E+02 0.519E+03   0.411E+03 -.987E+02 -.519E+03   0.262E+00 -.874E+00 0.119E+00   0.146E-01 0.201E-01 -.866E-01
   -.557E+03 0.394E+03 -.271E+04   0.560E+03 -.396E+03 0.271E+04   -.314E+01 0.209E+01 0.344E+00   -.437E-01 -.382E-01 0.930E-02
   -.677E+03 0.136E+03 0.314E+04   0.680E+03 -.135E+03 -.314E+04   -.351E+01 -.142E+00 0.306E+00   -.457E-01 0.336E-01 -.134E+00
   -.439E+03 0.177E+03 -.353E+03   0.441E+03 -.175E+03 0.352E+03   -.147E+01 -.858E+00 0.113E+01   -.222E-01 -.393E-01 -.186E-01
   -.324E+03 0.455E+03 -.362E+04   0.328E+03 -.458E+03 0.362E+04   -.432E+01 0.244E+01 -.182E+01   -.187E-01 0.792E-02 0.122E+00
   -.187E+03 -.392E+03 0.537E+04   0.187E+03 0.394E+03 -.538E+04   -.105E+01 -.211E+01 0.473E+01   -.198E-02 -.164E-01 -.117E+00
   -.486E+02 0.157E+02 -.211E+04   0.500E+02 -.167E+02 0.211E+04   -.528E+00 0.590E+00 -.170E+01   0.325E-01 -.926E-02 0.599E-01
   0.311E+02 0.192E+03 0.172E+04   -.317E+02 -.194E+03 -.172E+04   0.210E+00 0.214E+01 0.334E+01   -.639E-01 -.152E-01 -.102E+00
   -.267E+02 0.791E+02 -.287E+02   0.270E+02 -.805E+02 0.305E+02   -.452E-01 0.131E+01 -.718E+00   0.117E-01 -.658E-01 0.344E-01
   0.380E+02 0.131E+03 -.975E+03   -.392E+02 -.133E+03 0.969E+03   0.689E+00 0.164E+01 0.173E+01   0.354E-01 0.291E-01 -.210E-01
   0.279E+03 0.110E+03 0.225E+04   -.283E+03 -.111E+03 -.226E+04   0.258E+01 0.224E+00 0.197E+01   0.529E-02 0.702E-01 -.415E-01
   0.835E+02 0.778E+02 0.752E+03   -.836E+02 -.774E+02 -.749E+03   -.130E+00 -.722E-02 -.390E+00   -.351E-02 0.161E-01 -.792E-01
   -.569E+01 0.127E+03 -.273E+03   0.548E+01 -.129E+03 0.271E+03   0.201E+00 0.188E+01 0.908E+00   0.971E-02 -.728E-02 0.121E-01
   -.345E+03 0.138E+03 -.146E+04   0.348E+03 -.139E+03 0.146E+04   -.525E+00 0.639E+00 -.247E+00   -.515E-01 0.761E-02 0.690E-01
   -.558E+02 0.778E+02 0.385E+03   0.572E+02 -.789E+02 -.382E+03   -.996E+00 0.119E+01 -.714E+00   0.298E-03 -.272E-01 -.425E-01
   -.184E+02 0.119E+03 -.610E+03   0.190E+02 -.121E+03 0.605E+03   0.246E+00 0.183E+01 0.171E+01   -.182E-01 -.218E-01 0.240E-01
   -.663E+02 0.126E+03 -.183E+04   0.659E+02 -.126E+03 0.183E+04   0.991E+00 -.378E-01 0.207E+00   -.284E-01 0.110E-01 0.341E-01
   -.589E+02 0.950E+02 0.215E+04   0.591E+02 -.970E+02 -.215E+04   -.587E+00 0.178E+01 0.392E+01   -.497E-02 0.293E-01 -.609E-01
   0.270E+02 0.174E+03 0.239E+04   -.265E+02 -.176E+03 -.240E+04   0.144E-01 0.667E+00 0.284E+01   -.107E-01 0.177E-01 -.622E-01
   -.135E+03 0.129E+02 0.767E+03   0.137E+03 -.134E+02 -.765E+03   -.166E+01 0.100E+01 -.972E-01   -.129E-02 0.815E-01 -.572E-01
   -.122E+03 -.132E+03 -.391E+03   0.124E+03 0.134E+03 0.391E+03   -.195E+01 -.181E+01 -.137E+00   0.403E-01 -.945E-02 0.592E-01
   -.743E+02 -.198E+03 -.165E+04   0.758E+02 0.199E+03 0.165E+04   -.820E+00 -.315E+00 -.716E-02   0.241E-01 -.114E-01 0.872E-02
   -.317E+03 -.225E+03 0.187E+04   0.320E+03 0.227E+03 -.187E+04   -.186E+01 -.125E+01 0.768E+00   -.783E-01 -.393E-01 -.691E-01
   -.118E+03 -.926E+02 0.450E+03   0.120E+03 0.933E+02 -.451E+03   -.186E+01 -.114E+01 0.112E+01   -.361E-01 0.656E-02 -.412E-01
   -.115E+03 -.113E+03 -.751E+03   0.116E+03 0.115E+03 0.750E+03   -.143E+01 -.275E+01 -.212E+00   -.178E-01 0.447E-02 0.409E-02
   -.102E+03 0.121E+03 -.189E+04   0.104E+03 -.123E+03 0.190E+04   -.306E+00 0.713E+00 -.654E+00   -.340E-01 -.146E-01 0.256E-01
   -.130E+03 -.103E+03 0.807E+02   0.132E+03 0.105E+03 -.810E+02   -.204E+01 -.211E+01 0.624E+00   -.229E-01 0.138E-01 -.265E-01
   -.118E+03 -.582E+02 -.972E+03   0.121E+03 0.606E+02 0.970E+03   -.157E+01 -.230E+01 -.198E+00   0.262E-01 -.608E-02 0.525E-01
   0.774E+02 0.249E+03 -.223E+04   -.778E+02 -.251E+03 0.223E+04   0.140E+00 0.730E+00 -.150E+01   0.502E-01 0.211E-01 0.445E-01
   -.247E+03 -.115E+03 0.159E+04   0.249E+03 0.117E+03 -.159E+04   -.599E+00 -.131E+01 0.242E+01   -.196E-01 -.161E-01 -.601E-01
   0.258E+03 0.915E+02 0.176E+04   -.260E+03 -.946E+02 -.176E+04   0.821E+00 0.179E+01 0.250E+01   0.197E-01 0.894E-02 -.639E-01
   0.159E+03 -.146E+03 0.362E+03   -.161E+03 0.148E+03 -.362E+03   0.250E+01 -.903E+00 0.172E+01   -.122E-01 0.625E-02 -.360E-01
   0.138E+03 -.440E+02 -.832E+03   -.141E+03 0.455E+02 0.832E+03   0.245E+01 -.138E+01 -.110E+01   -.144E-01 0.756E-02 0.219E-01
   0.107E+03 -.180E+03 -.207E+04   -.109E+03 0.182E+03 0.207E+04   0.106E+01 -.937E+00 -.139E+01   0.773E-02 0.363E-01 0.406E-01
   0.148E+03 -.668E+02 -.241E+02   -.150E+03 0.678E+02 0.243E+02   0.226E+01 -.113E+01 -.540E+00   0.169E-02 0.225E-01 -.120E-01
   0.974E+02 -.862E+02 -.122E+04   -.100E+03 0.878E+02 0.122E+04   0.313E+01 -.168E+01 -.553E+00   -.106E-03 0.208E-01 0.328E-01
   -.116E+03 -.128E+03 -.224E+04   0.115E+03 0.129E+03 0.225E+04   0.113E+01 -.113E+01 -.223E+01   -.286E-01 -.567E-01 0.355E-01
   0.382E+03 0.557E+01 0.139E+04   -.386E+03 -.559E+01 -.140E+04   0.251E+01 0.373E+00 0.167E+01   0.142E+00 -.327E-01 -.135E+00
   -.329E+03 -.244E+03 0.210E+04   0.332E+03 0.247E+03 -.210E+04   -.881E+00 -.163E+01 0.328E+01   -.959E-02 0.607E-02 -.565E-01
   0.181E+03 -.194E+03 0.779E+03   -.184E+03 0.196E+03 -.777E+03   0.179E+01 -.149E+01 0.330E+00   0.330E-01 -.152E-01 -.665E-01
   0.164E+03 -.416E+02 -.489E+03   -.167E+03 0.426E+02 0.490E+03   0.288E+01 -.894E+00 -.943E+00   -.158E-02 0.843E-02 -.215E-01
   0.391E+03 -.715E+01 -.167E+04   -.396E+03 0.856E+01 0.167E+04   0.258E+01 -.108E+01 -.158E+01   0.491E-02 -.344E-01 0.371E-01
   -.168E+02 0.129E+02 -.197E+02   0.000E+00 -.220E-12 0.136E-11   0.171E+02 -.129E+02 0.216E+02   -.190E+00 0.682E-01 -.191E+01

 POSITION                                       TOTAL-FORCE (eV/Angst)
      6.67670      9.26091      1.17487        -1.281933     -0.399739     -1.592307
      6.84285      7.49250      2.62550        -0.813705     -1.197085      3.077746
      7.82056      6.07621      5.25100        -0.086399     -0.336862      0.133351
      8.79827      4.65991      7.87651         0.442252      0.702255     -0.867934
      2.61774      3.87870      3.50067         0.408141     -1.186039      2.223146
      3.59545      2.46241      6.12617         0.002231     -0.413790     -0.118658
      4.57317      1.04611      8.75167        -0.739183      1.014173     -0.757659
     11.96827      5.61124      2.20460         0.210823     -0.193990     -0.742932
      3.86295      7.48604      9.36669        -0.962322      0.701626      0.669067
      7.94178      2.01803      3.02589        -0.569874      0.019422     -0.705105
      8.47237      0.26490      4.37584         0.446365     -1.201437      1.558151
     13.02338      8.27371      7.00134         0.485394      0.120398     -0.871464
      5.61097      4.95912      2.48030        -0.112763      0.227127     -1.246012
      6.61816      3.96023      4.55733         0.031878     -0.051217      0.434009
      7.59587      2.54394      7.18283        -0.222132     -0.383847     -1.354984
      8.37553      1.12897      9.45695        -0.790340     -0.025776      1.301483
      1.41534      1.76273      2.80700        -0.592725     -0.074176      1.663251
      2.39305      0.34643      5.43250         0.049799     -0.104993      0.048596
      6.94406      8.35524      8.05800        -1.310201      1.163309     -3.723950
      6.83817      6.76977      9.71216         1.081116     -0.079038      0.931142
      2.02880      3.56012      0.96115        -0.129678      0.686273     -1.480212
      2.63389      4.59872      8.63189        -0.758504     -0.038642      1.172895
      9.06982      8.28878      1.95984         1.416081     -0.149183     -0.403058
     10.84326      7.57403      3.68216         0.039253     -0.288837      0.381478
     11.82097      6.15773      6.30767        -0.118502     -0.158507     -1.263328
      0.82910      1.66231      8.73368         0.736094      0.092836      0.881099
      8.02424      5.62617      1.67103         0.129044     -0.975581     -0.883687
      9.02296      4.33443      3.86366         0.072060     -0.159539     -0.060352
     10.00068      2.91813      6.48916         0.030248     -0.248763     -1.390589
      3.82015      2.13692      2.11332         0.497878      0.501162      0.896346
      4.79786      0.72063      4.73883        -0.126746      0.020067      0.343548
      9.34887      8.72943      7.36433        -0.251922     -0.449224     -1.244400
      3.16834      7.94822      2.98849         0.179107      0.163982      0.498646
      4.14605      6.53193      5.61399         0.429496      0.199628     -0.193822
      5.12376      5.11563      8.23950         0.312326     -0.220835     -1.795263
     11.32047      9.41388      1.72404        -0.237458      0.592985     -1.591592
      0.05478      0.08298      9.91101         0.858984     -0.342887      2.207681
      7.35546      3.82659      2.42507        -0.512244      0.028697     -1.755099
      8.33317      2.41029      5.05057         0.247509     -0.114974      1.180247
      9.31088      0.99399      7.67607        -0.472072     -0.995731     -3.670458
      2.10235      1.56778      0.84281        -1.236264     -0.126287     -3.167326
      3.13035      0.21279      3.30024        -0.209977      0.442717      2.801742
      7.68136      8.22159      5.92574         0.006430      0.190563     -0.636877
      8.38514      6.78645      8.29428         2.095959     -0.929196      0.803409
      2.47854      6.02409      4.17540         0.425429      0.050501      1.401312
      3.45626      4.60779      6.80091         0.809649     -0.066628     -3.091215
      4.24931      3.24086      8.87160         0.571529     -0.646264      2.139202
     11.58056      7.44039      1.54990        -0.421371     -0.142882     -2.390324
      7.63133      7.41435      0.68673         0.515126     -1.158218     -3.633739
      8.88655      6.52099      3.30837         0.707668      0.585422      1.919369
      9.86427      5.10469      5.93387        -0.095806      0.336294     -0.340354
     10.77387      3.72434      8.27466         0.764066      0.679862      1.958931
      3.74133      4.34743      1.77364         1.320161      1.134246     -1.610169
      4.66145      2.90719      4.18354        -0.113931     -0.453323      0.372917
      5.63916      1.49089      6.80904        -0.172480      0.067668     -1.103333
      6.49831      0.30614      9.03255         0.829604     -1.175546      2.430059
      4.00964      8.71849      5.05870         0.133795      0.033904      0.289471
      4.98735      7.30220      7.68420         1.113810      0.099140     -1.984873
      5.03600      5.95694     10.11061        -0.179637     -1.012920      3.761500
      9.53836      0.70969      2.43320         1.689189      0.959192     -0.168404
      4.97260      7.97839      1.85561        -1.290496     -1.226113     -1.789493
      5.82436      6.04450      4.19167        -0.068401      1.074420      1.585373
      6.80207      4.62821      6.81717        -0.289279      0.094003     -0.721123
      8.07061      3.14465      9.08464        -1.372327      1.380488      3.226350
      1.59925      2.43070      5.06683         0.013843     -0.030706     -0.321400
      2.57697      1.01441      7.69234         0.200817     -0.068297     -0.320633
      7.45535      8.80843      9.94039        -0.198342      0.504735      3.913177
     10.70128      3.84700      2.44133        -1.771848      0.320052      0.419620
      4.97676      0.71969      1.05189         2.039187      1.277890     -2.099441
      6.47617      0.23320      3.31650        -1.045351      0.923226      2.360868
     11.02718      8.24201      5.94200         0.049589      0.153433     -0.217287
     12.33930      6.68623      8.26533        -2.837717      0.285378      2.323673
    total drift:                                0.122785      0.107365      0.018114

  FREE ENERGIE OF THE ION-ELECTRON SYSTEM (eV)
  free  energy   TOTEN  =      -349.56055989 eV

  energy  without entropy=     -348.58902949  energy(sigma->0) =     -349.07479469