 vasp.6.1.0 28Jan20 (build Mar 31 2020 17:42:31) gamma-only

 executed on             LinuxIFC date 2020.04.11  20:39:48

 INCAR:
 POTCAR:    PAW_PBE Ni_pv 06Sep2000
 POTCAR:    PAW_PBE S 06Sep2000
 POTCAR:    PAW_PBE Ni_pv 06Sep2000
   VRHFIN =Ni:

   TITEL  = PAW_PBE Ni_pv 06Sep2000
   POMASS =   58.690; ZVAL   =   16.000    mass and valenz
   ENMAX  =  367.986; ENMIN  =  275.989 eV

 POTCAR:    PAW_PBE S 06Sep2000
   VRHFIN =S : s2p4

   TITEL  = PAW_PBE S 06Sep2000
   POMASS =   32.066; ZVAL   =    6.000    mass and valenz
   ENMAX  =  258.689; ENMIN  =  194.016 eV

 Optimization of the real space projectors (new method)

 maximal supplied QI-value         = 18.90
 optimisation between [QCUT,QGAM] = [ 10.77, 21.73] = [ 32.49,132.25] Ry
 Optimized for a Real-space Cutoff    1.38 Angstroem

   l    n(q)    QCUT    max X(q) W(low)/X(q) W(high)/X(q)  e(spline)
   1      8    10.771     2.836    0.40E-04    0.29E-04    0.12E-06
   1      8    10.771     4.023    0.10E-03    0.48E-04    0.29E-06
   2      8    10.771    73.368    0.42E-03    0.97E-04    0.44E-06
   2      8    10.771    69.010    0.42E-03    0.99E-04    0.45E-06
   0      9    10.771    54.797    0.10E-03    0.56E-04    0.74E-07
   0      9    10.771    24.266    0.89E-04    0.49E-04    0.67E-07
 Optimization of the real space projectors (new method)

 maximal supplied QI-value         = 19.84
 optimisation between [QCUT,QGAM] = [ 10.71, 21.63] = [ 32.15,130.99] Ry
 Optimized for a Real-space Cutoff    1.19 Angstroem

   l    n(q)    QCUT    max X(q) W(low)/X(q) W(high)/X(q)  e(spline)
   0      8    10.715   187.594    0.41E-03    0.53E-04    0.66E-07
   0      8    10.715   164.243    0.41E-03    0.53E-04    0.65E-07
   1      7    10.715    67.533    0.19E-03    0.59E-03    0.68E-07
   1      7    10.715    50.729    0.19E-03    0.58E-03    0.67E-07
  PAW_PBE Ni_pv 06Sep2000               :
  PAW_PBE S 06Sep2000                   :

 POSCAR: Structure 42 made from -102-8.xsd file
  positions in direct lattice
 exchange correlation table for  LEXCH =        8
   RHO(1)=    0.500       N(1)  =     2000
   RHO(2)=  100.500       N(2)  =     4000

 ion  position               nearest neighbor table
   1  0.439  0.464  0.163-  30 2.25  34 2.26  44 2.26  35 2.36  45 2.36   5 2.53  22 2.53
   2  0.491  0.464  0.342-  35 2.26  45 2.26  46 2.36   6 2.53  23 2.53
   3  0.163  0.964  0.073-  27 2.25  36 2.26  37 2.36  32 2.36  11 2.53   7 2.53
   4  0.215  0.964  0.253-  28 2.25  37 2.26  32 2.26  38 2.36  33 2.36  12 2.53   8 2.53
   5  0.439  0.200  0.163-  32 2.25  34 2.26  39 2.26  35 2.36  40 2.36   1 2.53  22 2.53
   6  0.491  0.200  0.342-  33 2.25  35 2.26  40 2.26  41 2.36   2 2.53  23 2.53
   7  0.163  0.700  0.073-  36 2.26  37 2.36  30 2.36  11 2.53   3 2.53
   8  0.215  0.700  0.253-  31 2.25  37 2.26  30 2.26  38 2.36  12 2.53   4 2.53
   9  0.131  0.332  0.139-  34 2.25  27 2.26  28 2.36  31 2.36  14 2.53  18 2.53
  10  0.182  0.332  0.319-  35 2.25  28 2.26  31 2.26  29 2.36  15 2.53  19 2.53
  11  0.355  0.832  0.049-  50 2.25  30 2.36  32 2.36   7 2.53   3 2.53
  12  0.407  0.832  0.229-  51 2.25  30 2.26  32 2.26  33 2.36   4 2.53   8 2.53
  13  0.458  0.832  0.408-  52 2.25  33 2.26
  14  0.939  0.464  0.163-  42 2.25  48 2.26  49 2.36  31 2.36  18 2.53   9 2.53
  15  0.991  0.464  0.342-  43 2.25  49 2.26  31 2.26  19 2.53  10 2.53
  16  0.663  0.964  0.073-  39 2.25  50 2.26  51 2.36  47 2.36  24 2.53  20 2.53
  17  0.715  0.964  0.253-  40 2.25  51 2.26  47 2.26  52 2.36  25 2.53  21 2.53
  18  0.939  0.200  0.163-  47 2.25  48 2.26  27 2.26  49 2.36  28 2.36  14 2.53   9 2.53
  19  0.991  0.200  0.342-  49 2.26  28 2.26  29 2.36  15 2.53  10 2.53
  20  0.663  0.700  0.073-  44 2.25  50 2.26  51 2.36  42 2.36  24 2.53  16 2.53
  21  0.715  0.700  0.253-  45 2.25  51 2.26  42 2.26  52 2.36  43 2.36  25 2.53  17 2.53
  22  0.631  0.332  0.139-  48 2.25  39 2.26  44 2.26  40 2.36  45 2.36   5 2.53   1 2.53
  23  0.682  0.332  0.319-  49 2.25  40 2.26  45 2.26  41 2.36  46 2.36   6 2.53   2 2.53
  24  0.855  0.832  0.049-  36 2.25  42 2.36  47 2.36  20 2.53  16 2.53
  25  0.907  0.832  0.229-  37 2.25  42 2.26  47 2.26  43 2.36  17 2.53  21 2.53
  26  0.958  0.832  0.408-  38 2.25  43 2.26
  27  0.060  0.164  0.060-   3 2.25   9 2.26  18 2.26
  28  0.111  0.164  0.239-   4 2.25  10 2.26  19 2.26   9 2.36  18 2.36
  29  0.163  0.164  0.418-  10 2.36  19 2.36
  30  0.336  0.664  0.149-   1 2.25  12 2.26   8 2.26  11 2.36   7 2.36
  31  0.111  0.500  0.239-   8 2.25  10 2.26  15 2.26   9 2.36  14 2.36
  32  0.336  1.000  0.149-   5 2.25  12 2.26   4 2.26  11 2.36   3 2.36
  33  0.387  1.000  0.329-   6 2.25  13 2.26   4 2.36  12 2.36
  34  0.316  0.332  0.090-   9 2.25   5 2.26   1 2.26
  35  0.368  0.332  0.269-  10 2.25   6 2.26   2 2.26   1 2.36   5 2.36
  36  0.040  0.832  0.000-  24 2.25   7 2.26   3 2.26
  37  0.092  0.832  0.179-  25 2.25   8 2.26   4 2.26   3 2.36   7 2.36
  38  0.144  0.832  0.359-  26 2.25   8 2.36   4 2.36
  39  0.560  0.164  0.060-  16 2.25  22 2.26   5 2.26
  40  0.611  0.164  0.239-  17 2.25  23 2.26   6 2.26  22 2.36   5 2.36
  41  0.663  0.164  0.418-  23 2.36   6 2.36
  42  0.836  0.664  0.149-  14 2.25  25 2.26  21 2.26  24 2.36  20 2.36
  43  0.887  0.664  0.329-  15 2.25  26 2.26  21 2.36  25 2.36
  44  0.560  0.500  0.060-  20 2.25  22 2.26   1 2.26
  45  0.611  0.500  0.239-  21 2.25  23 2.26   2 2.26  22 2.36   1 2.36
  46  0.663  0.500  0.418-  23 2.36   2 2.36
  47  0.836  1.000  0.149-  18 2.25  25 2.26  17 2.26  24 2.36  16 2.36
  48  0.816  0.332  0.090-  22 2.25  18 2.26  14 2.26
  49  0.868  0.332  0.269-  23 2.25  19 2.26  15 2.26  14 2.36  18 2.36
  50  0.540  0.832  0.000-  11 2.25  16 2.26  20 2.26
  51  0.592  0.832  0.179-  12 2.25  17 2.26  21 2.26  20 2.36  16 2.36
  52  0.644  0.832  0.359-  13 2.25  17 2.36  21 2.36

  LATTYP: Found a simple orthorhombic cell.
 ALAT       =     9.5784100000
 B/A-ratio  =     1.1751911892
 C/A-ratio  =     1.7949213288

  Lattice vectors:

 A1 = (   0.0000000000,  -9.5784100000,   0.0000000000)
 A2 = ( -11.2564630382,   0.0000000000,   0.0000000000)
 A3 = (   0.0000000000,   0.0000000000, -17.1924924047)

Analysis of symmetry for initial positions (statically):
 Subroutine PRICEL returns:
 Original cell was already a primitive cell.

 Routine SETGRP: Setting up the symmetry group for a
 simple orthorhombic supercell.

 Subroutine GETGRP returns: Found  1 space group operations
 (whereof  1 operations were pure point group operations)
 out of a pool of  8 trial point group operations.

The static configuration has the point symmetry C_1 .

Analysis of symmetry for dynamics (positions and initial velocities):
 Subroutine PRICEL returns:
 Original cell was already a primitive cell.

 Routine SETGRP: Setting up the symmetry group for a
 simple orthorhombic supercell.

 Subroutine GETGRP returns: Found  1 space group operations
 (whereof  1 operations were pure point group operations)
 out of a pool of  8 trial point group operations.

The dynamic configuration has the point symmetry C_1 .

 Subroutine INISYM returns: Found  1 space group operations
 (whereof  1 operations are pure point group operations),
 and found     1 'primitive' translations

                                     Primitive cell

  volume of cell :    1853.6777

  direct lattice vectors                    reciprocal lattice vectors
    11.256463038  0.000000000  0.000000000     0.088837852  0.000000000  0.000000000
     0.000000000  9.578410000  0.000000000     0.000000000  0.104401461  0.000000000
     0.000000000  0.000000000 17.192492405     0.000000000  0.000000000  0.058164923

  length of vectors
    11.256463038  9.578410000 17.192492405     0.088837852  0.104401461  0.058164923

  position of ions in fractional coordinates (direct lattice)
     0.439334990  0.463887997  0.162833771
     0.491186924  0.463887997  0.342246010
     0.163409030  0.963887997  0.073127651
     0.215260964  0.963887997  0.252539890
     0.439334990  0.199681997  0.162833771
     0.491186924  0.199681997  0.342246010
     0.163409030  0.699681997  0.073127651
     0.215260964  0.699681997  0.252539890
     0.130639703  0.331784997  0.139132876
     0.182491637  0.331784997  0.318545115
     0.354713728  0.831784997  0.049426756
     0.406565662  0.831784997  0.228838995
     0.458417597  0.831784997  0.408251235
     0.939334990  0.463887997  0.162833771
     0.991186924  0.463887997  0.342246010
     0.663409030  0.963887997  0.073127651
     0.715260964  0.963887997  0.252539890
     0.939334990  0.199681997  0.162833771
     0.991186924  0.199681997  0.342246010
     0.663409030  0.699681997  0.073127651
     0.715260964  0.699681997  0.252539890
     0.630639703  0.331784997  0.139132876
     0.682491637  0.331784997  0.318545115
     0.854713728  0.831784997  0.049426756
     0.906565662  0.831784997  0.228838995
     0.958417597  0.831784997  0.408251235
     0.059637103  0.163569997  0.059526290
     0.111489038  0.163569997  0.238938529
     0.163340972  0.163569997  0.418350768
     0.335563063  0.663569997  0.149232409
     0.111489038  0.499999997  0.238938529
     0.335563063  0.999999997  0.149232409
     0.387414997  0.999999997  0.328644649
     0.316036869  0.331784997  0.089706120
     0.367888803  0.331784997  0.269118359
     0.040110910  0.831784997  0.000000000
     0.091962844  0.831784997  0.179412239
     0.143814778  0.831784997  0.358824478
     0.559637103  0.163569997  0.059526290
     0.611489038  0.163569997  0.238938529
     0.663340972  0.163569997  0.418350768
     0.835563063  0.663569997  0.149232409
     0.887414997  0.663569997  0.328644649
     0.559637103  0.499999997  0.059526290
     0.611489038  0.499999997  0.238938529
     0.663340972  0.499999997  0.418350768
     0.835563063  0.999999997  0.149232409
     0.816036869  0.331784997  0.089706120
     0.867888803  0.331784997  0.269118359
     0.540110910  0.831784997  0.000000000
     0.591962844  0.831784997  0.179412239
     0.643814778  0.831784997  0.358824478

  ion indices of the primitive-cell ions
   primitive index   ion index
                 1           1
                 2           2
                 3           3
                 4           4
                 5           5
                 6           6
                 7           7
                 8           8
                 9           9
                10          10
                11          11
                12          12
                13          13
                14          14
                15          15
                16          16
                17          17
                18          18
                19          19
                20          20
                21          21
                22          22
                23          23
                24          24
                25          25
                26          26
                27          27
                28          28
                29          29
                30          30
                31          31
                32          32
                33          33
                34          34
[...]
      26 -86.8237      27 -92.1236      28 -93.2850      29 -91.3585      30 -92.9893
      31 -92.9957      32 -92.9616      33 -92.5288      34 -92.1132      35 -92.8695
      36 -91.9137      37 -93.1774      38 -92.0422      39 -92.0983      40 -93.0565
      41 -91.7161      42 -93.0265      43 -92.5132      44 -92.1364      45 -93.0205
      46 -91.7121      47 -92.9655      48 -92.1523      49 -92.9837      50 -92.0696
      51 -93.1827      52 -92.2424

 E-fermi :  -0.4056     XC(G=0):  -5.8227     alpha+bet : -5.1393

 k-point     1 :       0.0000    0.0000    0.0000
  band No.  band energies     occupation
      1     -64.5031      2.00000
      2     -64.5000      2.00000
      3     -64.4803      2.00000
      4     -64.4565      2.00000
      5     -64.4518      2.00000
      6     -64.4512      2.00000
      7     -64.4238      2.00000
      8     -64.4158      2.00000
      9     -64.3896      2.00000
     10     -64.3870      2.00000
     11     -64.3804      2.00000
     12     -64.3767      2.00000
     13     -64.3756      2.00000
     14     -64.3689      2.00000
     15     -64.3645      2.00000
     16     -64.3628      2.00000
     17     -64.3114      2.00000
     18     -64.2751      2.00000
     19     -64.2581      2.00000
     20     -64.2558      2.00000
     21     -64.2084      2.00000
     22     -64.1923      2.00000
     23     -64.1781      2.00000
     24     -64.1754      2.00000
     25     -64.1734      2.00000
     26     -64.1679      2.00000
     27     -64.1541      2.00000
     28     -64.1424      2.00000
     29     -64.1198      2.00000
     30     -64.1033      2.00000
     31     -64.0896      2.00000
     32     -64.0810      2.00000
     33     -64.0734      2.00000
     34     -64.0599      2.00000
     35     -64.0529      2.00000
     36     -64.0430      2.00000
     37     -64.0416      2.00000
     38     -64.0347      2.00000
     39     -64.0235      2.00000
     40     -64.0221      2.00000
     41     -64.0218      2.00000
     42     -64.0192      2.00000
     43     -64.0172      2.00000
     44     -64.0134      2.00000
     45     -63.9842      2.00000
     46     -63.9814      2.00000
     47     -63.9711      2.00000
     48     -63.9509      2.00000
     49     -63.9506      2.00000
     50     -63.9257      2.00000
     51     -63.8641      2.00000
     52     -63.8483      2.00000
     53     -63.8420      2.00000
     54     -63.8077      2.00000
     55     -63.7807      2.00000
     56     -63.7731      2.00000
     57     -63.7672      2.00000
     58     -63.7479      2.00000
     59     -63.7350      2.00000
     60     -63.7250      2.00000
[...]
    330       4.4809      0.00000
    331       4.5895      0.00000
    332       4.6592      0.00000
    333       4.7501      0.00000
    334       4.7826      0.00000
    335       4.8658      0.00000
    336       4.9414      0.00000
    337       5.0293      0.00000
    338       5.0639      0.00000
    339       5.2058      0.00000
    340       5.2652      0.00000
    341       5.2965      0.00000
    342       5.3170      0.00000
    343       5.4213      0.00000
    344       5.4836      0.00000

 soft charge-density along one line, spin component           1
         0         1         2         3         4         5         6         7         8         9
 total charge-density along one line

------------------------ aborting loop because EDIFF is reached ----------------------------------------

  FORCE on cell =-STRESS in cart. coord.  units (eV):
  Direction    XX          YY          ZZ          XY          YZ          ZX
  Alpha Z  1046.73971  1046.73971  1046.73971
  Ewald  124350.93857121584.07812************  -150.94560    94.43142   -10.79999
  Hartree149940.49522147746.29837************   -98.11965    72.72421   -80.99321
  E(xc)   -3623.10034 -3624.41241 -3627.33287    -0.26943     0.02260     0.52093
  Local  ************************271830.28188   250.07152  -162.82849   102.00710
  n-local  -497.05909  -511.56993  -506.75266    -2.71499    -0.31138     3.90000
  augment  4175.28564  4191.63741  4182.34121     1.32999    -1.70354    -5.75369
  Kinetic  7893.08247  7898.51208  7913.68699     2.68325    -1.83895   -16.11459
  Fock        0.00000     0.00000     0.00000     0.00000     0.00000     0.00000
  Total     -38.59480   -32.80865   -42.55558     2.03509     0.49588    -7.23345
  in kB     -33.35839   -28.35729   -36.78179     1.75897     0.42860    -6.25205

 VOLUME and BASIS-vectors are now :
  energy-cutoff  :      450.00
  volume of cell :     1853.68
      direct lattice vectors                 reciprocal lattice vectors
    11.256463038  0.000000000  0.000000000     0.088837852  0.000000000  0.000000000
     0.000000000  9.578410000  0.000000000     0.000000000  0.104401461  0.000000000
     0.000000000  0.000000000 17.192492405     0.000000000  0.000000000  0.058164923

  length of vectors
    11.256463038  9.578410000 17.192492405     0.088837852  0.104401461  0.058164923

 FORCES acting on ions
    electron-ion (+dipol)            ewald-force                    non-local-force                 convergence-correction
   0.350E+03 -.380E+03 0.119E+04   -.351E+03 0.381E+03 -.120E+04   0.111E+01 -.598E+00 0.414E+01   0.430E-01 -.645E-01 -.118E+00
   0.496E+03 -.620E+03 -.286E+04   -.488E+03 0.616E+03 0.286E+04   -.642E+01 0.378E+01 0.746E+00   0.122E+00 0.834E-01 0.708E-02
   0.146E+03 -.621E+03 0.283E+04   -.150E+03 0.622E+03 -.283E+04   0.240E+01 -.162E+01 0.192E+01   0.311E-01 0.801E-01 -.958E-01
   0.225E+03 -.369E+03 -.119E+04   -.225E+03 0.369E+03 0.119E+04   0.328E+00 -.313E+00 -.186E+01   -.115E-02 0.277E-01 -.173E+00
   0.313E+03 0.305E+03 0.124E+04   -.314E+03 -.306E+03 -.125E+04   0.701E+00 0.880E+00 0.442E+01   0.557E-01 0.439E-01 -.116E+00
   0.324E+03 0.371E+03 -.288E+04   -.321E+03 -.373E+03 0.288E+04   -.288E+01 0.150E+01 -.835E-01   0.165E+00 -.820E-01 -.531E-01
   0.254E+03 0.873E+03 0.285E+04   -.254E+03 -.862E+03 -.285E+04   -.543E+00 -.968E+01 0.192E+01   0.519E-01 -.361E-01 -.894E-01
   0.689E+02 0.523E+03 -.130E+04   -.714E+02 -.521E+03 0.130E+04   0.173E+01 -.181E+01 0.440E+00   -.271E-02 -.913E-01 -.110E+00
   -.384E+03 -.193E+03 0.203E+04   0.388E+03 0.191E+03 -.203E+04   -.272E+01 0.128E+01 0.361E+01   -.289E-01 -.166E-01 -.178E+00
   -.525E+03 -.196E+03 -.238E+04   0.524E+03 0.191E+03 0.238E+04   0.583E+00 0.317E+01 -.214E+01   0.151E+00 0.747E-01 -.179E+00
   -.306E+03 0.364E+02 0.331E+04   0.310E+03 -.361E+02 -.331E+04   -.347E+01 -.263E+00 -.208E+01   0.129E+00 0.509E-02 -.957E-01
   -.406E+03 0.174E+03 -.588E+03   0.405E+03 -.172E+03 0.587E+03   0.610E+00 -.140E+01 0.586E+00   0.229E+00 -.155E-01 -.101E+00
   0.140E+03 0.206E+03 -.343E+04   -.134E+03 -.198E+03 0.342E+04   -.497E+01 -.707E+01 0.133E+02   0.158E+00 -.386E-01 0.873E-01
   0.103E+03 -.369E+03 0.142E+04   -.106E+03 0.368E+03 -.143E+04   0.206E+01 0.134E+01 0.246E+01   -.584E-01 -.925E-02 -.127E+00
   0.821E+02 -.434E+03 -.297E+04   -.833E+02 0.433E+03 0.296E+04   0.810E+00 0.157E+01 0.667E+01   -.185E+00 0.172E+00 -.587E-01
   0.982E+02 -.637E+03 0.283E+04   -.102E+03 0.637E+03 -.284E+04   0.259E+01 -.937E+00 0.190E+01   -.227E-01 -.116E-01 0.686E-01
   0.798E+01 -.443E+03 -.127E+04   -.101E+02 0.441E+03 0.127E+04   0.117E+01 0.145E+01 0.124E+01   0.988E-01 -.101E+00 -.818E-01
   0.247E+03 0.306E+03 0.122E+04   -.248E+03 -.305E+03 -.123E+04   0.923E+00 -.891E-01 0.445E+01   -.819E-01 -.540E-01 -.137E+00
   0.374E+03 0.547E+03 -.286E+04   -.365E+03 -.542E+03 0.286E+04   -.703E+01 -.460E+01 -.186E+00   -.262E+00 -.118E+00 -.124E+00
   0.956E+02 0.657E+03 0.284E+04   -.986E+02 -.657E+03 -.284E+04   0.202E+01 0.106E+01 0.193E+01   -.307E-01 0.133E-01 0.355E-01
   0.178E+03 0.397E+03 -.117E+04   -.179E+03 -.398E+03 0.118E+04   0.658E+00 0.614E+00 -.134E+01   0.795E-01 0.176E+00 -.776E-01
   -.491E+03 -.152E+02 0.191E+04   0.495E+03 0.151E+02 -.191E+04   -.277E+01 0.197E+00 0.449E+01   -.877E-01 -.123E-01 -.480E-01
   -.571E+03 0.922E+01 -.224E+04   0.573E+03 -.909E+01 0.224E+04   -.117E+01 -.992E-01 -.430E+01   0.365E-02 -.209E-01 -.119E-01
   -.401E+03 0.432E+02 0.331E+04   0.405E+03 -.434E+02 -.331E+04   -.312E+01 0.639E-01 -.217E+01   -.127E+00 0.148E-01 0.111E+00
   -.481E+03 -.113E+03 -.569E+03   0.481E+03 0.111E+03 0.567E+03   0.585E+00 0.125E+01 0.121E+01   -.264E+00 0.610E-01 -.324E-01
   0.484E+02 -.126E+03 -.343E+04   -.419E+02 0.117E+03 0.341E+04   -.552E+01 0.723E+01 0.129E+02   -.201E+00 -.577E-01 -.435E-01
   0.388E+02 -.949E+02 0.136E+04   -.402E+02 0.954E+02 -.137E+04   0.215E+01 -.341E+00 0.565E+01   -.217E-01 0.391E-01 -.116E-01
   -.568E+02 0.134E+03 -.162E+03   0.587E+02 -.135E+03 0.160E+03   -.215E+01 0.182E+01 0.262E+01   -.387E-01 -.493E-02 -.145E+00
   -.109E+03 0.104E+03 -.142E+04   0.110E+03 -.106E+03 0.142E+04   -.289E+01 0.312E+01 -.390E+01   0.326E-01 -.271E-01 0.968E-01
   -.528E+02 0.217E+03 0.545E+03   0.530E+02 -.218E+03 -.546E+03   -.521E+00 0.136E+01 0.326E+00   0.601E-01 -.413E-01 -.674E-01
   -.959E+02 -.148E+03 -.154E+03   0.968E+02 0.150E+03 0.154E+03   -.862E+00 -.175E+01 -.794E-01   -.141E-01 0.184E-01 -.114E+00
   -.624E+02 -.193E+03 0.572E+03   0.637E+02 0.195E+03 -.572E+03   -.165E+01 -.206E+01 -.236E+00   0.683E-01 0.498E-01 -.825E-01
   0.617E+02 -.564E+02 -.977E+03   -.622E+02 0.579E+02 0.977E+03   0.403E+00 -.267E+01 -.172E-01   0.913E-01 -.207E-01 0.169E-01
   0.100E+03 -.242E+02 0.123E+04   -.100E+03 0.243E+02 -.124E+04   -.664E+00 0.196E+00 0.595E+01   0.314E-01 -.749E-02 -.443E-02
   0.198E+03 -.453E+02 -.457E+03   -.201E+03 0.453E+02 0.457E+03   0.313E+01 0.340E+00 0.712E+00   0.709E-01 0.296E-02 -.117E+00
   0.746E+02 0.333E+02 0.148E+04   -.751E+02 -.334E+02 -.149E+04   0.508E+00 -.227E+00 0.500E+01   -.670E-02 0.449E-02 -.601E-01
   0.170E+03 0.208E+02 0.228E+03   -.171E+03 -.206E+02 -.227E+03   0.209E+01 -.307E+00 -.325E+00   -.118E+00 -.394E-03 -.150E-01
   -.642E+02 0.391E+02 -.122E+04   0.663E+02 -.386E+02 0.122E+04   -.238E+01 -.619E+00 -.304E+01   -.652E-02 -.303E-01 0.215E-01
   0.380E+02 -.607E+02 0.137E+04   -.387E+02 0.612E+02 -.137E+04   0.134E+01 -.857E+00 0.560E+01   -.154E-01 -.174E-01 0.340E-02
   -.956E+02 0.143E+03 -.156E+03   0.968E+02 -.145E+03 0.154E+03   -.112E+01 0.275E+01 0.123E+01   0.201E-01 -.718E-01 -.487E-01
   -.149E+03 0.146E+03 -.142E+04   0.151E+03 -.148E+03 0.142E+04   -.219E+01 0.282E+01 -.431E+01   0.698E-02 -.337E-01 0.339E-01
   -.110E+03 0.212E+03 0.586E+03   0.111E+03 -.215E+03 -.587E+03   -.114E+01 0.252E+01 -.490E+00   -.308E-01 0.479E-01 0.417E-01
   0.205E+02 0.711E+02 -.976E+03   -.209E+02 -.729E+02 0.977E+03   0.750E+00 0.285E+01 0.132E+00   -.903E-01 0.732E-01 -.775E-01
   0.418E+02 0.549E+02 0.136E+04   -.428E+02 -.554E+02 -.137E+04   0.167E+01 0.829E+00 0.554E+01   -.910E-02 0.194E-01 -.103E-01
   -.573E+02 -.154E+03 -.161E+03   0.587E+02 0.156E+03 0.160E+03   -.164E+01 -.259E+01 0.133E+01   0.904E-02 0.462E-01 -.476E-01
   -.111E+03 -.144E+03 -.142E+04   0.113E+03 0.146E+03 0.143E+04   -.292E+01 -.295E+01 -.383E+01   0.449E-02 0.365E-01 0.516E-01
   -.936E+02 -.202E+03 0.545E+03   0.944E+02 0.203E+03 -.546E+03   -.731E+00 -.167E+01 0.393E+00   -.321E-01 -.279E-01 0.663E-01
   0.215E+02 -.190E+02 0.124E+04   -.213E+02 0.186E+02 -.124E+04   0.197E+00 0.726E+00 0.581E+01   0.189E-01 -.136E-01 -.187E-01
   0.148E+03 0.173E+02 -.440E+03   -.150E+03 -.171E+02 0.441E+03   0.324E+01 -.625E+00 0.403E+00   -.627E-01 -.114E-01 -.991E-01
   0.807E+02 0.458E+01 0.150E+04   -.811E+02 -.473E+01 -.150E+04   0.508E+00 0.212E+00 0.496E+01   -.218E-03 -.333E-02 -.220E-02
   0.169E+03 0.960E+01 0.221E+03   -.171E+03 -.996E+01 -.220E+03   0.241E+01 0.308E+00 -.122E+00   0.910E-01 0.183E-01 -.123E-01
   -.626E+02 0.160E+01 -.121E+04   0.650E+02 -.203E+01 0.122E+04   -.270E+01 0.422E+00 -.351E+01   0.196E-01 0.983E-02 -.327E-01
   0.278E+02 -.492E+00 -.775E+02   0.469E-12 0.371E-12 -.500E-11   -.275E+02 0.513E+00 0.800E+02   0.412E-01 0.770E-01 -.238E+01

 POSITION                                       TOTAL-FORCE (eV/Angst)
      4.94536      4.44331      2.79952        -0.084026      0.079167     -0.257912
      5.52903      4.44331      5.88406         1.187807     -0.185867     -0.057435
      1.83941      9.23251      1.25725        -0.754049     -0.131636      0.300431
      2.42308      9.23251      4.34179        -0.026873     -0.329370      0.347456
      4.94536      1.91264      2.79952        -0.144572      0.088113     -0.318375
      5.52903      1.91264      5.88406         0.564701     -0.517638     -0.093174
      1.83941      6.70184      1.25725        -0.106589      1.205675      0.580911
      2.42308      6.70184      4.34179        -0.854762      0.117565     -0.155542
      1.47054      3.17797      2.39204         0.568295     -0.731458      0.013288
      2.05421      3.17797      5.47658        -0.022806     -1.061688     -0.056295
      3.99282      7.96718      0.84977         0.789210     -0.036590      0.981182
      4.57649      7.96718      3.93431         0.138666      0.601624     -0.378391
      5.16016      7.96718      7.01886         0.750293      0.880092     -2.158565
     10.57359      4.44331      2.79952        -0.586211     -0.167253      0.282308
     11.15726      4.44331      5.88406        -0.625744      0.393029     -1.327546
      7.46764      9.23251      1.25725        -0.912397     -0.214017      0.274943
      8.05131      9.23251      4.34179        -0.854920     -0.234137     -0.139892
     10.57359      1.91264      2.79952        -0.195196     -0.007881     -0.244518
     11.15726      1.91264      5.88406         1.380231      0.165449     -0.218272
      7.46764      6.70184      1.25725        -0.933013      0.137178      0.345252
      8.05131      6.70184      4.34179        -0.031394      0.299095      0.234514
      7.09877      3.17797      2.39204         0.449759      0.093839     -0.315313
      7.68244      3.17797      5.47658         0.017071      0.006478      0.746432
      9.62105      7.96718      0.84977         0.771990     -0.145343      1.043824
     10.20472      7.96718      3.93431         0.137727     -0.609422     -0.381042
     10.78839      7.96718      7.01886         0.783730     -0.896793     -2.138302
      0.67130      1.56674      1.02341         0.700311      0.104744      0.550400
      1.25497      1.56674      4.10795        -0.286984      0.289858      0.595624
      1.83864      1.56674      7.19249        -1.423532      1.338878     -1.419243
      3.77725      6.35595      2.56568        -0.248481      0.180653     -0.161353
      1.25497      4.78920      4.10795         0.069509     -0.024834     -0.049311
      3.77725      9.57841      2.56568        -0.284353     -0.152464     -1.055284
      4.36092      9.57841      5.65022         0.061306     -1.211262      0.878806
      3.55746      3.17797      1.54227        -0.586834      0.272884      0.623597
      4.14113      3.17797      4.62682         0.140188      0.364205      1.033472
      0.45151      7.96718      0.00000         0.045793     -0.365996      0.803511
      1.03518      7.96718      3.08454         0.258731     -0.084853      0.174125
      1.61885      7.96718      6.16909        -0.305961     -0.124524     -0.102814
      6.29953      1.56674      1.02341         0.576064     -0.339602      0.308142
      6.88320      1.56674      4.10795         0.101173      0.169848     -0.105323
      7.46687      1.56674      7.19249        -0.864555      0.887420     -1.239210
      9.40548      6.35595      2.56568         0.104757     -0.062378     -1.289627
      9.98915      6.35595      5.65022         0.315104      1.114426      0.920589
      6.29953      4.78920      1.02341         0.688935      0.297748      0.274930
      6.88320      4.78920      4.10795        -0.250680     -0.157841      0.230608
      7.46687      4.78920      7.19249        -1.398991     -0.987625     -1.131765
      9.40548      9.57841      2.56568        -0.025765     -0.251058     -0.102153
      9.18569      3.17797      1.54227         0.402282      0.314350      0.826507
      9.76936      3.17797      4.62682         0.465550     -0.389762      1.090148
      6.07974      7.96718      0.00000         0.149219      0.056404      0.802399
      6.66341      7.96718      3.08454         0.407430     -0.033722      0.203644
      7.24708      7.96718      6.16909        -0.217148     -0.003709      0.429613
    total drift:                                0.301870      0.097402      0.073846

  FREE ENERGIE OF THE ION-ELECTRON SYSTEM (eV)
  free  energy   TOTEN  =      -250.47855727 eV

  energy  without entropy=     -249.57752573  energy(sigma->0) =     -250.02804150