 vasp.5.4.4.18Apr17-6-g9f103f2a35 (build Aug 13 2019 17:33:20) gamma-only

 executed on             LinuxIFC date 2020.05.12  10:09:47

 INCAR:
 POTCAR:    PAW_PBE Ni_pv 06Sep2000
 POTCAR:    PAW_PBE S 06Sep2000
 POTCAR:    PAW_PBE Ni_pv 06Sep2000
   VRHFIN =Ni:

   TITEL  = PAW_PBE Ni_pv 06Sep2000
   POMASS =   58.690; ZVAL   =   16.000    mass and valenz
   ENMAX  =  367.986; ENMIN  =  275.989 eV

 POTCAR:    PAW_PBE S 06Sep2000
   VRHFIN =S : s2p4

   TITEL  = PAW_PBE S 06Sep2000
   POMASS =   32.066; ZVAL   =    6.000    mass and valenz
   ENMAX  =  258.689; ENMIN  =  194.016 eV

 Optimization of the real space projectors (new method)

 maximal supplied QI-value         = 18.90
 optimisation between [QCUT,QGAM] = [ 10.77, 21.73] = [ 32.49,132.25] Ry
 Optimized for a Real-space Cutoff    1.38 Angstroem

   l    n(q)    QCUT    max X(q) W(low)/X(q) W(high)/X(q)  e(spline)
   1      8    10.771     2.836    0.40E-04    0.29E-04    0.12E-06
   1      8    10.771     4.023    0.10E-03    0.48E-04    0.29E-06
   2      8    10.771    73.368    0.42E-03    0.97E-04    0.44E-06
   2      8    10.771    69.010    0.42E-03    0.99E-04    0.45E-06
   0      9    10.771    54.797    0.10E-03    0.56E-04    0.74E-07
   0      9    10.771    24.266    0.89E-04    0.49E-04    0.67E-07
 Optimization of the real space projectors (new method)

 maximal supplied QI-value         = 19.84
 optimisation between [QCUT,QGAM] = [ 10.71, 21.63] = [ 32.15,130.99] Ry
 Optimized for a Real-space Cutoff    1.19 Angstroem

   l    n(q)    QCUT    max X(q) W(low)/X(q) W(high)/X(q)  e(spline)
   0      8    10.715   187.594    0.41E-03    0.53E-04    0.66E-07
   0      8    10.715   164.243    0.41E-03    0.53E-04    0.65E-07
   1      7    10.715    67.533    0.19E-03    0.59E-03    0.68E-07
   1      7    10.715    50.729    0.19E-03    0.58E-03    0.67E-07
  PAW_PBE Ni_pv 06Sep2000               :
  PAW_PBE S 06Sep2000                   :

 POSCAR: Type_048 Type_148
  positions in cartesian coordinates
 exchange correlation table for  LEXCH =        8
   RHO(1)=    0.500       N(1)  =     2000
   RHO(2)=  100.500       N(2)  =     4000

 ion  position               nearest neighbor table
   1  0.256  0.016  0.152-  75 2.25  66 2.26  81 2.26  53 2.36  93 2.36   5 2.53   9 2.53
   2  0.256  0.016  0.481-  76 2.25  67 2.26  82 2.26  54 2.36  94 2.36  10 2.53   6 2.53
   3  0.006  0.266  0.317-  63 2.25  69 2.26  72 2.26  56 2.36  60 2.36   7 2.53  23 2.53
   4  0.050  0.268  0.637-  61 2.06  57 2.07   8 2.31  73 2.35
   5  0.256  0.016  0.066-  90 2.06  79 2.07  81 2.26  49 2.29  62 2.31  93 2.36   9 2.53   1 2.53

   6  0.256  0.016  0.394-  80 2.25  63 2.26  82 2.26  50 2.36  94 2.36   2 2.53  10 2.53
   7  0.006  0.266  0.230-  66 2.25  72 2.26  64 2.26  60 2.36  51 2.36   3 2.53  23 2.53
   8  0.006  0.266  0.558-  67 2.25  73 2.26  65 2.26   4 2.31  61 2.36  52 2.36  24 2.49
   9  0.190  0.215  0.109-  49 2.09  62 2.12  58 2.25  66 2.26  53 2.36  29 2.45   5 2.53   1 2.53

[...]

  44  0.506  0.766  0.558-  78 2.25  84 2.26  76 2.26  40 2.31  96 2.36  87 2.36  36 2.49
  45  0.690  0.798  0.161-  88 2.07  93 2.08  86 2.17  77 2.21  43 2.38
  46  0.690  0.715  0.438-  94 2.25  78 2.26  74 2.26  89 2.36  85 2.36  38 2.53  42 2.53
  47  0.940  0.965  0.273-  72 2.25  86 2.26  91 2.26  75 2.36  80 2.36  31 2.53  27 2.53
  48  0.921  0.976  0.593-  87 2.05  73 2.13  92 2.15  76 2.31  32 2.53
  49  0.452  0.168  0.064-   9 2.09  21 2.12  29 2.19   5 2.29  17 2.31  90 2.54
  50  0.468  0.167  0.382-  15 2.25  18 2.26  22 2.26   6 2.36  10 2.36
  51  0.218  0.417  0.218-  25 2.25  11 2.26  19 2.26  23 2.36   7 2.36
  52  0.218  0.417  0.547-  12 2.05  24 2.09  26 2.25  20 2.26   8 2.36  57 2.76
  53  0.468  0.167  0.164-  19 2.25  13 2.26  21 2.26   1 2.36   9 2.36
  54  0.468  0.167  0.493-  20 2.25  22 2.26  14 2.26  10 2.36   2 2.36
  55  0.078  0.380  0.019-  29 2.03  41 2.03  58 2.64
  56  0.218  0.417  0.329-  30 2.25  15 2.26  11 2.26   3 2.36  23 2.36
  57  0.202  0.415  0.641-  16 2.05   4 2.07  24 2.13  12 2.15  52 2.76
  58  0.053  0.414  0.109-  41 2.08  29 2.20   9 2.25  25 2.26  37 2.36  55 2.64
  59  0.053  0.414  0.438-  10 2.25  26 2.26  30 2.26  38 2.36  42 2.36
  60  0.303  0.164  0.273-  35 2.25  19 2.26  15 2.26   7 2.36   3 2.36
  61  0.303  0.164  0.602-  16 2.05   4 2.06  36 2.20  20 2.26   8 2.36
  62  0.952  0.168  0.064-  21 2.09   9 2.12  41 2.19  17 2.29   5 2.31  79 2.54
  63  0.968  0.167  0.382-   3 2.25   6 2.26  10 2.26  18 2.36  22 2.36
  64  0.718  0.417  0.218-  37 2.25  23 2.26   7 2.26  11 2.36  19 2.36
  65  0.718  0.417  0.547-  24 2.18  38 2.25   8 2.26  12 2.31  20 2.36
  66  0.968  0.167  0.164-   7 2.25   1 2.26   9 2.26  13 2.36  21 2.36
  67  0.968  0.167  0.493-   8 2.25  10 2.26   2 2.26  22 2.36  14 2.36
  68  0.578  0.380  0.019-  41 2.03  29 2.03  70 2.64
  69  0.718  0.417  0.329-  42 2.25   3 2.26  23 2.26  15 2.36  11 2.36
  70  0.553  0.414  0.109-  29 2.08  41 2.20  21 2.25  37 2.26  25 2.36  68 2.64
  71  0.553  0.414  0.438-  22 2.25  38 2.26  42 2.26  26 2.36  30 2.36
  72  0.803  0.164  0.273-  47 2.25   7 2.26   3 2.26  19 2.36  15 2.36
  73  0.803  0.164  0.602-  48 2.13   8 2.26   4 2.35  20 2.36  16 2.49
  74  0.468  0.667  0.382-  39 2.25  42 2.26  46 2.26  30 2.36  34 2.36
  75  0.218  0.917  0.218-  33 2.17   1 2.25  35 2.26  43 2.26  47 2.36  31 2.36
  76  0.218  0.917  0.547-  36 2.18   2 2.25  44 2.26  48 2.31  32 2.36
  77  0.468  0.667  0.164-  33 2.07  45 2.21  43 2.25  37 2.26  25 2.36
  78  0.468  0.667  0.493-  44 2.25  46 2.26  38 2.26  34 2.36  26 2.36
  79  0.023  0.965  0.024-  17 2.06   5 2.07  62 2.54  81 2.54
  80  0.218  0.917  0.329-   6 2.25  39 2.26  35 2.26  27 2.36  47 2.36
  81  0.053  0.914  0.109-  33 2.08   5 2.26   1 2.26  17 2.36  13 2.36  79 2.54
  82  0.053  0.914  0.438-  34 2.25   2 2.26   6 2.26  14 2.36  18 2.36
  83  0.303  0.664  0.273-  11 2.25  43 2.26  39 2.26  31 2.36  27 2.36
  84  0.303  0.664  0.602-  12 2.13  44 2.26  40 2.35  32 2.36  28 2.49
  85  0.968  0.667  0.382-  27 2.25  30 2.26  34 2.26  42 2.36  46 2.36
  86  0.718  0.917  0.218-  45 2.17  13 2.25  47 2.26  31 2.26  35 2.36  43 2.36
  87  0.718  0.917  0.547-  48 2.05  36 2.09  14 2.25  32 2.26  44 2.36  92 2.76
  88  0.968  0.667  0.164-  45 2.07  33 2.21  31 2.25  25 2.26  37 2.36
  89  0.968  0.667  0.493-  32 2.25  34 2.26  26 2.26  46 2.36  38 2.36
  90  0.523  0.965  0.024-   5 2.06  17 2.07  49 2.54  93 2.54
  91  0.718  0.917  0.329-  18 2.25  27 2.26  47 2.26  39 2.36  35 2.36
  92  0.702  0.915  0.641-  28 2.05  40 2.07  36 2.13  48 2.15  87 2.76
  93  0.553  0.914  0.109-  45 2.08  17 2.26  13 2.26   5 2.36   1 2.36  90 2.54
  94  0.553  0.914  0.438-  46 2.25  14 2.26  18 2.26   2 2.36   6 2.36
  95  0.803  0.664  0.273-  23 2.25  31 2.26  27 2.26  43 2.36  39 2.36
  96  0.803  0.664  0.602-  28 2.05  40 2.06  24 2.20  32 2.26  44 2.36

  LATTYP: Found a simple monoclinic cell.
 ALAT       =    13.8711386352
 B/A-ratio  =     2.1019774055
 C/A-ratio  =     1.3233367991
 COS(beta)  =    -0.9620914447

  Lattice vectors:

 A1 = (  -8.3714133957, -11.0601955134,   0.0000000000)
 A2 = (   0.0000000000,   0.0000000000, -29.1568200000)
 A3 = (  14.6499733957,  11.0601955134,   0.0000000000)

Analysis of symmetry for initial positions (statically):
 Subroutine PRICEL returns:
 Original cell was already a primitive cell.

 Routine SETGRP: Setting up the symmetry group for a
 simple monoclinic supercell.

 Subroutine GETGRP returns: Found  1 space group operations
 (whereof  1 operations were pure point group operations)
 out of a pool of  4 trial point group operations.

The static configuration has the point symmetry C_1 .

Analysis of symmetry for dynamics (positions and initial velocities):
 Subroutine PRICEL returns:
 Original cell was already a primitive cell.

 Routine SETGRP: Setting up the symmetry group for a
 simple monoclinic supercell.

 Subroutine GETGRP returns: Found  1 space group operations
 (whereof  1 operations were pure point group operations)
 out of a pool of  4 trial point group operations.

The dynamic configuration has the point symmetry C_1 .

 Subroutine INISYM returns: Found  1 space group operations
 (whereof  1 operations are pure point group operations),
 and found     1 'primitive' translations

 KPOINTS: gamma-point-only calculation. no periodi

Automatic generation of k-mesh.
Space group operators:
 irot       det(A)        alpha          n_x          n_y          n_z        tau_x        tau_y        tau_z
    1     1.000000     0.000000     1.000000     0.000000     0.000000     0.000000     0.000000     0.000000

 Subroutine IBZKPT returns following result:

 Found      1 irreducible k-points:

 Following reciprocal coordinates:
            Coordinates               Weight
  0.000000  0.000000  0.000000      1.000000

 Following cartesian coordinates:
            Coordinates               Weight
  0.000000  0.000000  0.000000      1.000000

 SYSTEM =  "Millerite NiS"
 POSCAR =  Type_048 Type_148

 Startparameter for this run:
   NWRITE =      2    write-flag & timer
   PREC   = normal    normal or accurate (medium, high low for compatibility)
   ISTART =      0    job   : 0-new  1-cont  2-samecut
   ICHARG =      2    charge: 1-file 2-atom 10-const
   ISPIN  =      1    spin polarized calculation?
   LNONCOLLINEAR =      F non collinear calculations
   LSORBIT =      F    spin-orbit coupling
   INIWAV =      1    electr: 0-lowe 1-rand  2-diag
   LASPH  =      F    aspherical Exc in radial PAW
   METAGGA=      F    non-selfconsistent MetaGGA calc.

 Electronic Relaxation 1
   ENCUT  =  450.0 eV  33.07 Ry    5.75 a.u.  10.86 19.47 50.43*2*pi/ulx,y,z
   ENINI  =  450.0     initial cutoff
   ENAUG  =  703.4 eV  augmentation charge cutoff
   NELM   =    100;   NELMIN=  2; NELMDL= -5     # of ELM steps
   EDIFF  = 0.1E-03   stopping-criterion for ELM
   LREAL  =      T    real-space projection
   NLSPLINE    = F    spline interpolate recip. space projectors
   LCOMPAT=      F    compatible to vasp.4.4
   GGA_COMPAT  = T    GGA compatible to vasp.4.4-vasp.4.6
   LMAXPAW     = -100 max onsite density
   LMAXMIX     =    2 max onsite mixed and CHGCAR
   VOSKOWN=      0    Vosko Wilk Nusair interpolation
   ROPT   =   -0.00050  -0.00050
 Ionic relaxation
   EDIFFG = 0.1E-02   stopping-criterion for IOM
   NSW    =      0    number of steps for IOM
   NBLOCK =      1;   KBLOCK =      1    inner block; outer block
   IBRION =     -1    ionic relax: 0-MD 1-quasi-New 2-CG
   NFREE  =      0    steps in history (QN), initial steepest desc. (CG)
   ISIF   =      2    stress and relaxation
   IWAVPR =     10    prediction:  0-non 1-charg 2-wave 3-comb
   ISYM   =      2    0-nonsym 1-usesym 2-fastsym
   LCORR  =      T    Harris-Foulkes like correction to forces

   POTIM  = 0.5000    time-step for ionic-motion
   TEIN   =    0.0    initial temperature
   TEBEG  =    0.0;   TEEND  =   0.0 temperature during run
   SMASS  =  -3.00    Nose mass-parameter (am)
   estimated Nose-frequenzy (Omega)   =  0.10E-29 period in steps =****** mass=  -0.901E-27a.u.
   SCALEE = 1.0000    scale energy and forces
[...]
     0.000000000  0.000000000 29.156820000     0.000000000  0.000000000  0.034297293

  length of vectors
     6.278560000 11.256463038 29.156820000     0.162098538  0.090414315  0.034297293

 FORCES acting on ions
    electron-ion (+dipol)            ewald-force                    non-local-force                 convergence-correction
   -.759E+02 0.152E+03 0.431E+04   0.760E+02 -.151E+03 -.431E+04   0.152E-01 -.543E+00 -.801E+00   0.396E-02 0.897E-01 -.164E+00
   -.238E+02 0.256E+03 -.352E+04   0.229E+02 -.257E+03 0.352E+04   0.106E+01 0.887E+00 -.197E+01   0.136E-03 -.107E+00 0.147E+01
   -.412E+02 0.213E+03 0.289E+03   0.403E+02 -.214E+03 -.289E+03   0.977E+00 0.517E+00 -.106E+01   0.145E-01 0.255E-02 0.424E+00
   0.457E+03 0.273E+03 -.738E+04   -.458E+03 -.272E+03 0.737E+04   0.469E+00 -.212E+01 0.315E+01   0.564E-01 0.644E-01 -.184E+00
   -.890E+01 0.899E+03 0.692E+04   0.920E+01 -.901E+03 -.692E+04   -.211E+00 0.279E+01 0.390E+01   0.154E-02 0.103E+00 -.626E+00
   -.403E+02 0.248E+03 -.640E+03   0.394E+02 -.248E+03 0.638E+03   0.988E+00 0.695E+00 0.946E+00   -.110E-01 0.196E-01 0.753E+00
   -.414E+02 0.108E+03 0.321E+04   0.405E+02 -.108E+03 -.321E+04   0.102E+01 0.489E+00 0.112E+01   -.702E-03 0.155E+00 0.676E-01
   0.118E+03 0.290E+03 -.450E+04   -.120E+03 -.291E+03 0.450E+04   0.191E+01 0.560E+00 -.240E+00   0.294E-01 0.584E-01 0.112E+01
   0.235E+02 -.454E+03 0.520E+04   -.236E+02 0.456E+03 -.520E+04   -.296E+00 -.275E+01 -.161E+01   -.293E-01 0.395E+00 -.502E+00
   -.383E+02 -.522E+03 -.207E+04   0.376E+02 0.523E+03 0.207E+04   0.967E+00 -.876E+00 -.266E+00   -.923E-02 -.181E-02 0.108E+01
   -.413E+02 -.509E+03 0.183E+04   0.406E+02 0.510E+03 -.183E+04   0.829E+00 -.132E+01 0.268E-01   -.197E-01 -.114E+00 0.116E+00
   -.382E+03 -.527E+03 -.604E+04   0.386E+03 0.529E+03 0.604E+04   -.286E+01 -.194E+01 -.218E+01   -.230E-01 -.637E-01 0.623E+00
   -.759E+02 0.152E+03 0.431E+04   0.760E+02 -.151E+03 -.431E+04   0.161E-01 -.543E+00 -.806E+00   0.823E-02 0.474E-01 -.962E-01
   -.543E+02 0.243E+03 -.349E+04   0.533E+02 -.244E+03 0.349E+04   0.112E+01 0.709E+00 -.154E+01   -.447E-02 -.141E+00 0.165E+01
   -.413E+02 0.213E+03 0.289E+03   0.405E+02 -.214E+03 -.289E+03   0.974E+00 0.526E+00 -.109E+01   -.371E-01 0.244E-01 0.409E+00
   -.486E+03 0.218E+03 -.739E+04   0.486E+03 -.217E+03 0.739E+04   0.116E+01 -.185E+01 0.423E+01   0.270E-01 0.590E-01 -.155E+00
   -.891E+01 0.899E+03 0.692E+04   0.921E+01 -.901E+03 -.692E+04   -.213E+00 0.279E+01 0.390E+01   0.872E-02 0.702E-01 -.612E+00
   -.423E+02 0.247E+03 -.638E+03   0.414E+02 -.248E+03 0.637E+03   0.965E+00 0.746E+00 0.908E+00   -.254E-02 -.678E-02 0.752E+00
   -.414E+02 0.108E+03 0.321E+04   0.405E+02 -.108E+03 -.321E+04   0.102E+01 0.486E+00 0.112E+01   -.553E-02 0.154E+00 0.749E-01
   -.196E+03 0.250E+03 -.450E+04   0.195E+03 -.250E+03 0.450E+04   0.469E+00 0.563E+00 -.997E-01   -.462E-01 0.226E-01 0.123E+01
   0.234E+02 -.454E+03 0.520E+04   -.236E+02 0.456E+03 -.520E+04   -.297E+00 -.275E+01 -.161E+01   0.545E-01 0.421E+00 -.492E+00
   -.438E+02 -.527E+03 -.207E+04   0.432E+02 0.527E+03 0.207E+04   0.893E+00 -.822E+00 -.363E+00   -.195E-01 0.107E+00 0.117E+01
   -.412E+02 -.509E+03 0.183E+04   0.405E+02 0.510E+03 -.183E+04   0.828E+00 -.131E+01 0.157E-01   0.293E-02 -.108E+00 0.108E+00
   0.305E+03 -.495E+03 -.597E+04   -.310E+03 0.496E+03 0.598E+04   0.304E+01 -.124E+01 -.215E+01   0.216E-01 0.342E-01 0.626E+00
   -.358E+02 -.338E+03 0.506E+04   0.341E+02 0.337E+03 -.505E+04   0.186E+01 0.114E+01 -.173E+01   -.195E-01 -.749E-01 -.316E+00
   -.543E+02 0.247E+03 -.348E+04   0.533E+02 -.248E+03 0.348E+04   0.112E+01 0.671E+00 -.160E+01   -.135E-01 0.974E-02 0.162E+01
   -.411E+02 0.310E+03 0.220E+03   0.402E+02 -.311E+03 -.220E+03   0.979E+00 0.628E+00 -.770E+00   0.666E-02 -.632E-01 0.423E+00
   -.486E+03 0.221E+03 -.740E+04   0.486E+03 -.220E+03 0.739E+04   0.116E+01 -.184E+01 0.423E+01   -.137E-01 0.133E+00 -.210E+00
   -.207E+02 -.112E+04 0.667E+04   0.191E+02 0.113E+04 -.667E+04   0.891E+00 -.306E+01 0.669E+01   -.139E-01 0.237E+00 -.735E+00
   -.422E+02 0.266E+03 -.611E+03   0.414E+02 -.267E+03 0.610E+03   0.942E+00 0.591E+00 0.692E+00   -.186E-01 -.204E+00 0.763E+00
   0.148E+02 0.559E+03 0.293E+04   -.152E+02 -.562E+03 -.292E+04   0.974E-01 0.234E+01 0.592E+00   -.182E-01 -.206E+00 -.231E+00
   -.196E+03 0.252E+03 -.450E+04   0.195E+03 -.253E+03 0.450E+04   0.462E+00 0.568E+00 -.874E-01   -.477E-01 0.880E-01 0.126E+01
   -.162E+02 0.629E+03 0.546E+04   0.144E+02 -.629E+03 -.547E+04   0.149E+01 0.906E+00 0.190E+01   -.210E-01 -.299E+00 -.239E+00
   -.439E+02 -.512E+03 -.208E+04   0.432E+02 0.512E+03 0.208E+04   0.912E+00 -.866E+00 -.392E+00   0.131E-03 0.161E+00 0.140E+01
   -.393E+02 -.579E+03 0.161E+04   0.390E+02 0.579E+03 -.161E+04   0.553E+00 -.125E+01 -.565E+00   -.174E-01 0.375E+00 0.192E+00
   0.305E+03 -.493E+03 -.598E+04   -.310E+03 0.495E+03 0.598E+04   0.304E+01 -.124E+01 -.214E+01   0.439E-01 -.162E+00 0.658E+00
   -.358E+02 -.338E+03 0.506E+04   0.341E+02 0.337E+03 -.505E+04   0.186E+01 0.114E+01 -.173E+01   0.113E-01 -.848E-01 -.340E+00
   -.238E+02 0.260E+03 -.351E+04   0.229E+02 -.261E+03 0.351E+04   0.107E+01 0.859E+00 -.204E+01   0.126E-01 -.138E-02 0.167E+01
   -.409E+02 0.310E+03 0.220E+03   0.401E+02 -.311E+03 -.220E+03   0.985E+00 0.623E+00 -.741E+00   -.331E-01 -.501E-01 0.452E+00
   0.457E+03 0.276E+03 -.738E+04   -.458E+03 -.275E+03 0.738E+04   0.466E+00 -.211E+01 0.315E+01   0.533E-01 0.145E+00 -.232E+00
   -.207E+02 -.112E+04 0.667E+04   0.191E+02 0.113E+04 -.667E+04   0.891E+00 -.307E+01 0.669E+01   0.130E-01 0.264E+00 -.745E+00
   -.403E+02 0.267E+03 -.613E+03   0.394E+02 -.267E+03 0.612E+03   0.977E+00 0.529E+00 0.725E+00   0.306E-02 -.218E+00 0.742E+00
   0.148E+02 0.559E+03 0.293E+04   -.152E+02 -.562E+03 -.292E+04   0.957E-01 0.235E+01 0.591E+00   0.284E-02 -.217E+00 -.250E+00
   0.118E+03 0.293E+03 -.450E+04   -.120E+03 -.293E+03 0.450E+04   0.191E+01 0.567E+00 -.224E+00   0.388E-01 0.121E+00 0.120E+01
   -.162E+02 0.629E+03 0.546E+04   0.144E+02 -.629E+03 -.547E+04   0.149E+01 0.909E+00 0.191E+01   0.291E-01 -.275E+00 -.244E+00
   -.383E+02 -.507E+03 -.208E+04   0.376E+02 0.507E+03 0.207E+04   0.991E+00 -.925E+00 -.297E+00   -.228E-01 0.175E+00 0.142E+01
   -.394E+02 -.579E+03 0.161E+04   0.390E+02 0.579E+03 -.161E+04   0.555E+00 -.126E+01 -.556E+00   0.289E-02 0.344E+00 0.162E+00
   -.382E+03 -.525E+03 -.604E+04   0.386E+03 0.527E+03 0.604E+04   -.287E+01 -.193E+01 -.217E+01   -.437E-01 -.224E+00 0.640E+00
   -.212E+02 0.258E+02 0.270E+04   0.219E+02 -.240E+02 -.271E+04   -.762E+00 -.159E+01 0.584E+01   -.328E-01 0.161E+00 -.274E+00
   0.397E+02 -.908E+02 -.156E+03   -.403E+02 0.919E+02 0.154E+03   0.650E+00 -.138E+01 0.289E+01   -.819E-01 -.273E-02 0.193E+00
   0.398E+02 -.135E+03 0.135E+04   -.405E+02 0.137E+03 -.135E+04   0.567E+00 -.144E+01 0.261E+01   -.307E-02 0.420E-01 -.585E-01
   0.221E+02 -.314E+02 -.152E+04   -.235E+02 0.339E+02 0.152E+04   0.146E+01 -.315E+01 -.780E-01   -.146E-01 -.239E-01 0.603E+00
   0.388E+02 -.130E+03 0.142E+04   -.397E+02 0.131E+03 -.142E+04   0.885E+00 -.188E+01 -.213E+01   -.737E-02 0.968E-01 -.471E-01
   0.380E+02 -.932E+02 -.140E+04   -.385E+02 0.941E+02 0.140E+04   0.398E+00 -.125E+01 -.303E+01   -.217E-01 0.539E-01 0.692E+00
   0.156E+01 -.346E+03 0.274E+04   -.123E+01 0.346E+03 -.274E+04   -.359E+00 0.314E+00 0.160E+01   -.347E-01 0.464E-01 -.217E+00
   0.396E+02 -.851E+02 0.367E+02   -.404E+02 0.864E+02 -.346E+02   0.656E+00 -.152E+01 -.273E+01   -.363E-02 -.655E-01 0.134E+00
   0.149E+02 -.294E+03 -.286E+04   -.152E+02 0.297E+03 0.286E+04   0.341E+00 -.103E+01 -.352E+01   0.338E-01 0.110E-01 -.107E+00
   0.103E+02 -.440E+03 0.204E+04   -.102E+02 0.441E+03 -.203E+04   0.104E+01 -.318E+00 0.297E+00   -.262E-01 0.577E-01 -.212E+00
   0.408E+02 0.168E+03 -.771E+03   -.418E+02 -.170E+03 0.771E+03   0.746E+00 0.288E+01 0.289E+00   0.109E-01 -.462E-01 0.448E+00
   0.395E+02 0.132E+03 0.640E+03   -.404E+02 -.134E+03 -.640E+03   0.728E+00 0.260E+01 -.104E+00   -.647E-02 0.557E-01 0.125E+00
[...]
   0.387E+02 0.225E+03 0.645E+03   -.396E+02 -.227E+03 -.645E+03   0.774E+00 0.270E+01 -.228E-01   -.203E-01 -.164E+00 -.542E-01
   0.271E+02 0.875E+02 -.239E+04   -.283E+02 -.895E+02 0.239E+04   0.139E+01 0.406E+01 0.566E+00   -.387E-02 0.397E-01 0.134E+00
   0.395E+02 -.757E+02 -.156E+03   -.403E+02 0.769E+02 0.153E+03   0.659E+00 -.144E+01 0.285E+01   0.133E-01 -.269E-01 0.353E+00
   0.181E+02 -.186E+03 0.114E+04   -.182E+02 0.189E+03 -.114E+04   -.207E+00 -.282E+01 0.606E+00   0.144E-01 0.170E-01 -.281E-01
   0.221E+02 -.310E+02 -.152E+04   -.235E+02 0.336E+02 0.152E+04   0.146E+01 -.315E+01 -.702E-01   -.188E-01 -.667E-01 0.654E+00
   0.584E+01 0.234E+03 0.198E+04   -.652E+01 -.235E+03 -.199E+04   0.192E+01 -.603E+00 0.227E+01   0.285E-02 -.133E+00 -.120E+00
   0.380E+02 -.908E+02 -.140E+04   -.385E+02 0.917E+02 0.140E+04   0.433E+00 -.124E+01 -.303E+01   0.148E-01 0.842E-01 0.698E+00
   -.270E+00 0.440E+03 0.275E+04   0.202E-01 -.443E+03 -.275E+04   0.390E+00 0.834E+00 0.243E+01   -.254E-01 -.263E-01 -.326E+00
   0.394E+02 -.848E+02 -.165E+00   -.403E+02 0.862E+02 0.180E+01   0.996E+00 -.179E+01 -.224E+01   -.999E-02 0.163E+00 0.227E+00
   0.149E+02 -.292E+03 -.286E+04   -.152E+02 0.295E+03 0.286E+04   0.343E+00 -.103E+01 -.351E+01   0.168E-01 -.333E-01 -.138E+00
   0.576E+02 0.484E+03 0.240E+04   -.594E+02 -.489E+03 -.241E+04   0.121E+01 0.478E+01 0.175E+01   -.872E-02 -.830E-01 -.158E+00
   0.409E+02 0.168E+03 -.777E+03   -.418E+02 -.171E+03 0.777E+03   0.755E+00 0.293E+01 0.254E+00   -.683E-01 -.779E-02 0.442E+00
   0.387E+02 0.225E+03 0.645E+03   -.396E+02 -.227E+03 -.645E+03   0.781E+00 0.272E+01 0.116E-01   0.800E-02 -.163E+00 -.585E-01
   0.510E+02 0.306E+03 -.226E+04   -.520E+02 -.309E+03 0.226E+04   0.107E+01 0.149E+01 -.147E+01   0.337E-01 0.609E-01 0.149E+00
   -.710E+02 0.862E+01 -.562E+02   0.618E-12 0.210E-11 -.341E-10   0.711E+02 -.102E+02 0.320E+02   -.624E-01 0.163E+01 0.244E+02

 POSITION                                       TOTAL-FORCE (eV/Angst)
      1.64370      0.18204      4.44331         0.136750      0.676289      0.112577
      1.64370      0.18204     14.02172         0.097444      0.153906     -0.637060
      0.59727      2.94708      9.23251         0.098392      0.171572     -0.350367
      0.87287      2.96755     18.57411        -1.401408     -0.776880      0.411290
      1.64370      0.18204      1.91264         0.095015      0.598651      2.273786
      1.64370      0.18204     11.49105         0.074175      0.185663      0.332027
      0.59727      2.94708      6.70184         0.103703      0.117792      0.436274
      0.59727      2.94708     16.28025        -0.132327      0.010698     -1.112952
      1.64370      2.37366      3.17797        -0.421189     -0.445110      2.864272
      1.64370      2.37366     12.75638         0.215799     -0.367301     -0.085040
      3.73655      5.13871      7.96718         0.107314     -0.402369      0.054726
      3.63802      5.26032     17.29368         1.211786     -0.540889      0.137489
      4.78298      0.18204      4.44331         0.135901      0.676703      0.109876
      4.78298      0.18204     14.02172         0.155821      0.018771     -0.558401
      3.73655      2.94708      9.23251         0.091042      0.174824     -0.360905
      3.49117      3.05131     18.59954         1.443386     -0.632064      0.333292
      4.78298      0.18204      1.91264         0.093243      0.597912      2.271140
      4.78298      0.18204     11.49105         0.093458      0.209573      0.318115
      3.73655      2.94708      6.70184         0.105944      0.115909      0.438607
      3.73655      2.94708     16.28025         0.219767      0.291000     -0.930553
      4.78298      2.37366      3.17797        -0.419659     -0.443928      2.863284
      4.78298      2.37366     12.75638         0.221224     -0.315582     -0.102298
      6.87583      5.13871      7.96718         0.119241     -0.401568      0.058714
      7.01400      5.24641     17.22797        -1.645337     -0.053327      0.241864
      2.69013      5.71213      4.44331         0.077191      0.279842      0.631490
      2.69013      5.71213     14.02172         0.146350      0.010652     -0.559762
      1.64370      8.47718      9.23251         0.099582      0.135197     -0.311224
      7.67688      8.58140     18.59954         1.444221     -0.632649      0.332626
      2.84755      4.02984      1.83977        -0.734585      0.371301      0.636082
      2.69013      5.71213     11.49105         0.098709      0.224523      0.304571
      1.64370      8.47718      6.70184        -0.350061     -0.416870      1.450917
      1.64370      8.47718     16.28025         0.219679      0.293380     -0.932012
      2.86384      8.82126      4.68509        -0.237637      0.037307     -0.057441
      2.69013      7.90376     12.75638         0.219633     -0.322548     -0.094278
      4.78298     10.66881      7.96718         0.205546     -0.298278      0.087539
      4.92115     10.77651     17.22797        -1.644984     -0.053243      0.242188
      5.82941      5.71213      4.44331         0.078571      0.278934      0.632232
      5.82941      5.71213     14.02172         0.089397      0.147248     -0.640808
      4.78298      8.47718      9.23251         0.107738      0.132431     -0.302278
      5.05857      8.49765     18.57411        -1.400765     -0.778277      0.409132
      5.98683      4.02984      1.83977        -0.734223      0.369003      0.636078
      5.82941      5.71213     11.49105         0.084204      0.199632      0.317838
      4.78298      8.47718      6.70184        -0.349529     -0.413991      1.449102
      4.78298      8.47718     16.28025        -0.130173      0.013061     -1.116050
      6.00312      8.82126      4.68509        -0.239742      0.037250     -0.057451
      5.82941      7.90376     12.75638         0.215907     -0.374892     -0.077404
      7.92226     10.66881      7.96718         0.194309     -0.298970      0.084891
      7.82373     10.79042     17.29368         1.210930     -0.541796      0.138214
      3.19345      1.86313      1.86464        -0.158470      0.398037     -2.437475
      3.28961      1.84282     11.14515        -0.124638     -0.288200      0.432956
      2.24318      4.60787      6.35595        -0.087703     -0.030162      0.027891
      2.24318      4.60787     15.93436         0.088533     -0.655428     -2.442516
      3.28961      1.84282      4.78920        -0.017570     -0.321824      0.258330
      3.28961      1.84282     14.36761        -0.113628     -0.294459     -0.273554
      1.28322      4.20359      0.56290        -0.063712      0.842800     -3.547128
      2.24318      4.60787      9.57841        -0.102994     -0.279388     -0.447589
      2.14027      4.59422     18.68846         0.033805      1.434945      3.055880
      1.19676      4.58218      3.17797         1.096226      0.824058      1.729732
      1.19676      4.58218     12.75638        -0.159683      0.570242      0.141035
      2.24318      1.81714      7.96718        -0.167463      0.458843     -0.059236
[...]
      2.24318     10.11228     12.75638        -0.184444      0.622420      0.019072
      3.28961      7.34723      7.96718        -0.105628      0.569179      0.028102
      3.28961      7.34723     17.54559         0.197552      2.070284      0.954481
      7.47532      7.37292     11.14515        -0.147664     -0.260294      0.419454
      6.42889     10.13797      6.35595        -0.280090      0.446917      0.630024
      6.42889     10.13797     15.93436         0.085646     -0.656893     -2.442486
      7.47532      7.37292      4.78920         1.244516     -1.578078     -0.498836
      7.47532      7.37292     14.36761        -0.105959     -0.289408     -0.280209
      5.30372     10.67040      0.69907         0.114825     -1.899365     -3.736087
      6.42889     10.13797      9.57841         0.014770     -0.238652     -0.385775
      6.32598     10.12432     18.68846         0.033829      1.433632      3.055131
      5.38246     10.11228      3.17797        -0.616955      0.004714      0.017171
      5.38246     10.11228     12.75638        -0.159885      0.576644      0.134878
      6.42889      7.34723      7.96718        -0.105820      0.574596      0.032916
      6.42889      7.34723     17.54559         0.104989     -1.378950     -0.503360
    total drift:                                0.027413      0.071357      0.130655

  FREE ENERGIE OF THE ION-ELECTRON SYSTEM (eV)
  free  energy   TOTEN  =      -475.14902676 eV

  energy  without entropy=     -473.81491103  energy(sigma->0) =     -474.48196890