 vasp.5.4.4.18Apr17-6-g9f103f2a35 (build Aug 13 2019 17:33:20) gamma-only

 executed on             LinuxIFC date 2020.05.12  13:34:22

 INCAR:
 POTCAR:    PAW_PBE Ni_pv 06Sep2000
 POTCAR:    PAW_PBE S 06Sep2000
 POTCAR:    PAW_PBE Ni_pv 06Sep2000
   VRHFIN =Ni:

   TITEL  = PAW_PBE Ni_pv 06Sep2000
   POMASS =   58.690; ZVAL   =   16.000    mass and valenz
   ENMAX  =  367.986; ENMIN  =  275.989 eV

 POTCAR:    PAW_PBE S 06Sep2000
   VRHFIN =S : s2p4

   TITEL  = PAW_PBE S 06Sep2000
   POMASS =   32.066; ZVAL   =    6.000    mass and valenz
   ENMAX  =  258.689; ENMIN  =  194.016 eV

 Optimization of the real space projectors (new method)

 maximal supplied QI-value         = 18.90
 optimisation between [QCUT,QGAM] = [ 10.77, 21.73] = [ 32.49,132.25] Ry
 Optimized for a Real-space Cutoff    1.38 Angstroem

   l    n(q)    QCUT    max X(q) W(low)/X(q) W(high)/X(q)  e(spline)
   1      8    10.771     2.836    0.40E-04    0.29E-04    0.12E-06
   1      8    10.771     4.023    0.10E-03    0.48E-04    0.29E-06
   2      8    10.771    73.368    0.42E-03    0.97E-04    0.44E-06
   2      8    10.771    69.010    0.42E-03    0.99E-04    0.45E-06
   0      9    10.771    54.797    0.10E-03    0.56E-04    0.74E-07
   0      9    10.771    24.266    0.89E-04    0.49E-04    0.67E-07
 Optimization of the real space projectors (new method)

 maximal supplied QI-value         = 19.84
 optimisation between [QCUT,QGAM] = [ 10.71, 21.63] = [ 32.15,130.99] Ry
 Optimized for a Real-space Cutoff    1.19 Angstroem

   l    n(q)    QCUT    max X(q) W(low)/X(q) W(high)/X(q)  e(spline)
   0      8    10.715   187.594    0.41E-03    0.53E-04    0.66E-07
   0      8    10.715   164.243    0.41E-03    0.53E-04    0.65E-07
   1      7    10.715    67.533    0.19E-03    0.59E-03    0.68E-07
   1      7    10.715    50.729    0.19E-03    0.58E-03    0.67E-07
  PAW_PBE Ni_pv 06Sep2000               :
  PAW_PBE S 06Sep2000                   :

 POSCAR: Type_036 Type_136
  positions in cartesian coordinates
 exchange correlation table for  LEXCH =        8
   RHO(1)=    0.500       N(1)  =     2000
   RHO(2)=  100.500       N(2)  =     4000

 ion  position               nearest neighbor table
   1  0.374  0.751  0.095-  62 2.05  50 2.10  41 2.25  63 2.36  51 2.36  14 2.40
   2  0.525  0.601  0.223-  42 2.25  51 2.26  63 2.26  64 2.36  52 2.36  15 2.53  27 2.53
   3  0.675  0.451  0.351-  43 2.25  64 2.26  52 2.26  65 2.36  53 2.36  19 2.39  28 2.53  16 2.53

   4  0.780  0.334  0.465-  53 2.04  44 2.07  65 2.07  19 2.43
   5  0.562  0.166  0.073-  46 2.08  47 2.08  67 2.21  54 2.26   6 2.36
   6  0.758  0.035  0.138-  67 2.05  54 2.06  47 2.25   5 2.36  55 2.36  68 2.36  29 2.53  20 2.53

   7  0.033  0.756  0.382-  56 2.05  66 2.09  57 2.13  49 2.24
   8  0.908  0.884  0.266-  48 2.25  55 2.26  68 2.26  56 2.36  66 2.36  30 2.53  17 2.53
   9  0.141  0.318  0.180-  69 2.06  40 2.25  58 2.26  70 2.36  59 2.36  34 2.53  21 2.53
  10  0.291  0.168  0.308-  37 2.25  59 2.26  70 2.26  60 2.36  71 2.36  35 2.53  22 2.53
  11  0.402  0.040  0.423-  71 2.02  60 2.10  38 2.14  72 2.17
  12  0.988  0.466  0.084-  58 2.03  39 2.12  61 2.18  69 2.23
  13  0.003  0.120  0.395-  37 2.07  56 2.09  38 2.13  65 2.14  25 2.39
  14  0.572  0.564  0.050-  63 2.04  39 2.05  62 2.07   1 2.40
  15  0.709  0.416  0.155-  54 2.16  39 2.26  63 2.26  40 2.36  64 2.36  27 2.53   2 2.53
  16  0.860  0.266  0.283-  55 2.25  64 2.26  40 2.26  37 2.36  65 2.36   3 2.53  28 2.53
  17  0.093  0.700  0.198-  58 2.25  41 2.26  68 2.26  42 2.36  66 2.36  30 2.53   8 2.53
  18  0.229  0.563  0.310-  42 2.03  66 2.07  59 2.16  43 2.62
  19  0.556  0.337  0.420-  60 2.07  44 2.08  43 2.13  65 2.26   3 2.39   4 2.43
  20  0.943  0.850  0.070-  45 1.98  61 2.14  67 2.22  68 2.36  41 2.36   6 2.53  29 2.53
  21  0.326  0.133  0.113-  50 2.12  46 2.13  69 2.24  70 2.36  47 2.36  34 2.53   9 2.53
  22  0.476  0.983  0.241-  51 2.25  70 2.26  47 2.26  48 2.36  71 2.36  35 2.53  10 2.53
  23  0.627  0.833  0.369-  49 2.11  72 2.13  52 2.25  71 2.26  48 2.26  24 2.36  36 2.52
  24  0.733  0.701  0.462-  53 2.05  72 2.06  49 2.08  23 2.36
  25  0.025  0.333  0.435-  37 2.04  53 2.09  38 2.09  13 2.39
  26  0.623  0.790  0.083-  51 2.04  50 2.13  67 2.14  39 2.23
  27  0.749  0.641  0.189-  68 2.25  51 2.26  39 2.26  40 2.36  52 2.36  15 2.53   2 2.53
  28  0.899  0.491  0.317-  66 2.25  52 2.26  40 2.26  53 2.36  37 2.36   3 2.53  16 2.53
  29  0.982  0.074  0.104-  45 1.97  69 2.24  54 2.28  41 2.36  55 2.36   6 2.53  20 2.53
  30  0.133  0.924  0.232-  70 2.25  55 2.26  41 2.26  56 2.36  42 2.36   8 2.53  17 2.53
  31  0.283  0.774  0.360-  57 2.01  71 2.25  56 2.26  42 2.26  43 2.36
  32  0.436  0.668  0.463-  43 2.01  72 2.10  44 2.12  57 2.17
  33  0.243  0.520  0.043-  58 2.03  62 2.06  61 2.14  46 2.17
  34  0.366  0.358  0.147-  46 2.07  63 2.25  58 2.26  47 2.36  59 2.36  21 2.53   9 2.53
  35  0.516  0.207  0.275-  64 2.25  59 2.26  47 2.26  48 2.36  60 2.36  10 2.53  22 2.53
  36  0.655  0.066  0.390-  48 2.06  60 2.12  65 2.23  49 2.28  23 2.52
  37  0.064  0.262  0.341-  25 2.04  13 2.07  10 2.25  16 2.36  28 2.36  38 2.59
  38  0.182  0.132  0.447-  25 2.09  13 2.13  11 2.14  37 2.59
  39  0.763  0.563  0.085-  14 2.05  12 2.12  26 2.23  15 2.26  27 2.26
  40  0.914  0.412  0.213-   9 2.25  16 2.26  28 2.26  27 2.36  15 2.36
  41  0.147  0.846  0.128-   1 2.25  17 2.26  30 2.26  20 2.36  29 2.36
  42  0.297  0.696  0.256-  18 2.03   2 2.25  31 2.26  30 2.36  17 2.36
  43  0.447  0.545  0.384-  32 2.01  19 2.13   3 2.25  31 2.36  44 2.60  18 2.62  57 2.70
  44  0.580  0.468  0.494-   4 2.07  19 2.08  32 2.12  43 2.60
  45  0.974  0.999  0.016-  29 1.97  20 1.98
  46  0.354  0.293  0.052-  34 2.07   5 2.08  21 2.13  33 2.17
  47  0.530  0.129  0.171-   5 2.08   6 2.25  22 2.26  35 2.26  34 2.36  21 2.36
  48  0.680  0.979  0.299-  36 2.06   8 2.25  23 2.26  35 2.36  22 2.36
  49  0.807  0.845  0.416-  24 2.08  23 2.11   7 2.24  36 2.28
  50  0.412  0.934  0.065-   1 2.10  21 2.12  26 2.13  51 2.61
  51  0.528  0.798  0.171-  26 2.04  22 2.25  27 2.26   2 2.26   1 2.36  50 2.61
  52  0.678  0.648  0.299-  23 2.25  28 2.26   3 2.26  27 2.36   2 2.36
  53  0.829  0.497  0.427-   4 2.04  24 2.05  25 2.09  28 2.36   3 2.36
  54  0.752  0.225  0.099-   6 2.06  15 2.16   5 2.26  29 2.28
  55  0.911  0.081  0.214-  16 2.25   8 2.26  30 2.26   6 2.36  29 2.36
  56  0.062  0.931  0.342-   7 2.05  13 2.09  31 2.26  30 2.36   8 2.36
  57  0.212  0.721  0.444-  31 2.01   7 2.13  32 2.17  43 2.70
  58  0.145  0.515  0.129-  33 2.03  12 2.03  17 2.25  34 2.26   9 2.26  61 2.44
  59  0.295  0.364  0.257-  18 2.16  10 2.26  35 2.26   9 2.36  34 2.36
  60  0.445  0.214  0.385-  19 2.07  11 2.10  36 2.12  35 2.36  10 2.36
  61  0.022  0.639  0.032-  33 2.14  20 2.14  12 2.18  58 2.44
  62  0.367  0.635  0.014-   1 2.05  33 2.06  14 2.07  63 2.70
  63  0.477  0.512  0.128-  14 2.04  34 2.25  15 2.26   2 2.26   1 2.36  62 2.70
  64  0.628  0.362  0.256-  35 2.25   3 2.26  16 2.26   2 2.36  15 2.36
  65  0.778  0.212  0.384-   4 2.07  13 2.14  36 2.23  19 2.26  16 2.36   3 2.36
  66  0.011  0.645  0.299-  18 2.07   7 2.09  28 2.25   8 2.36  17 2.36
  67  0.710  0.947  0.055-   6 2.05  26 2.14   5 2.21  20 2.22
  68  0.861  0.795  0.171-  27 2.25  17 2.26   8 2.26   6 2.36  20 2.36
  69  0.091  0.232  0.097-   9 2.06  12 2.23  29 2.24  21 2.24
  70  0.244  0.079  0.214-  30 2.25  22 2.26  10 2.26   9 2.36  21 2.36
  71  0.395  0.928  0.342-  11 2.02  31 2.25  23 2.26  10 2.36  22 2.36  72 2.75
  72  0.523  0.829  0.459-  24 2.06  32 2.10  23 2.13  11 2.17  71 2.75

  LATTYP: Found a base centered orthorhombic cell.
 ALAT       =    11.4527836704
 B/A-ratio  =     1.4485816945
 C/A-ratio  =     1.7908432109

  Lattice vectors:

 A1 = (  10.0797329849,   0.0000000000,   0.0000000000)
 A2 = (  -3.5732980427,  -9.4251025535,   0.0000000000)
 A3 = (   0.0000000000,   0.0000000000, -20.5101398818)

Analysis of symmetry for initial positions (statically):
 Subroutine PRICEL returns:
 Original cell was already a primitive cell.

 Routine SETGRP: Setting up the symmetry group for a
 base centered orthorhombic supercell.

 Subroutine GETGRP returns: Found  1 space group operations
 (whereof  1 operations were pure point group operations)
 out of a pool of  8 trial point group operations.

The static configuration has the point symmetry C_1 .

Analysis of symmetry for dynamics (positions and initial velocities):
 Subroutine PRICEL returns:
 Original cell was already a primitive cell.

 Routine SETGRP: Setting up the symmetry group for a
 base centered orthorhombic supercell.

 Subroutine GETGRP returns: Found  1 space group operations
 (whereof  1 operations were pure point group operations)
 out of a pool of  8 trial point group operations.

The dynamic configuration has the point symmetry C_1 .

 Subroutine INISYM returns: Found  1 space group operations
 (whereof  1 operations are pure point group operations),
 and found     1 'primitive' translations

 KPOINTS: gamma-point-only calculation. no periodi

Automatic generation of k-mesh.
Space group operators:
 irot       det(A)        alpha          n_x          n_y          n_z        tau_x        tau_y        tau_z
    1     1.000000     0.000000     1.000000     0.000000     0.000000     0.000000     0.000000     0.000000

 Subroutine IBZKPT returns following result:

 Found      1 irreducible k-points:

 Following reciprocal coordinates:
            Coordinates               Weight
  0.000000  0.000000  0.000000      1.000000

 Following cartesian coordinates:
            Coordinates               Weight
  0.000000  0.000000  0.000000      1.000000

 SYSTEM =  "Millerite NiS"
 POSCAR =  Type_036 Type_136

 Startparameter for this run:
   NWRITE =      2    write-flag & timer
   PREC   = normal    normal or accurate (medium, high low for compatibility)
   ISTART =      0    job   : 0-new  1-cont  2-samecut
   ICHARG =      2    charge: 1-file 2-atom 10-const
   ISPIN  =      1    spin polarized calculation?
   LNONCOLLINEAR =      F non collinear calculations
   LSORBIT =      F    spin-orbit coupling
   INIWAV =      1    electr: 0-lowe 1-rand  2-diag
   LASPH  =      F    aspherical Exc in radial PAW
   METAGGA=      F    non-selfconsistent MetaGGA calc.

 Electronic Relaxation 1
   ENCUT  =  450.0 eV  33.07 Ry    5.75 a.u.  17.43 17.43 35.48*2*pi/ulx,y,z
   ENINI  =  450.0     initial cutoff
   ENAUG  =  703.4 eV  augmentation charge cutoff
   NELM   =    100;   NELMIN=  2; NELMDL= -5     # of ELM steps
   EDIFF  = 0.1E-03   stopping-criterion for ELM
   LREAL  =      T    real-space projection
   NLSPLINE    = F    spline interpolate recip. space projectors
   LCOMPAT=      F    compatible to vasp.4.4
   GGA_COMPAT  = T    GGA compatible to vasp.4.4-vasp.4.6
   LMAXPAW     = -100 max onsite density
   LMAXMIX     =    2 max onsite mixed and CHGCAR
   VOSKOWN=      0    Vosko Wilk Nusair interpolation
   ROPT   =   -0.00050  -0.00050
 Ionic relaxation
   EDIFFG = 0.1E-02   stopping-criterion for IOM
   NSW    =      0    number of steps for IOM
   NBLOCK =      1;   KBLOCK =      1    inner block; outer block
[...]
  Fock        0.00000     0.00000     0.00000     0.00000     0.00000     0.00000
  Total      64.19275    66.96504    96.10247     9.32998     2.55186    -2.32997
  in kB      52.78285    55.06238    79.02079     7.67163     2.09828    -1.91583

 VOLUME and BASIS-vectors are now :
  energy-cutoff  :      450.00
  volume of cell :     1948.51
      direct lattice vectors                 reciprocal lattice vectors
    10.079732985  0.000000000  0.000000000     0.099208977 -0.037612667  0.000000000
     3.573298043  9.425102554  0.000000000     0.000000000  0.106099641  0.000000000
     0.000000000  0.000000000 20.510139882     0.000000000  0.000000000  0.048756372

  length of vectors
    10.079732985 10.079732985 20.510139882     0.106099641  0.106099641  0.048756372

 FORCES acting on ions
    electron-ion (+dipol)            ewald-force                    non-local-force                 convergence-correction
   0.471E+03 -.516E+03 0.364E+04   -.474E+03 0.520E+03 -.364E+04   0.347E+01 -.327E+01 0.332E+01   0.167E-02 0.700E-03 0.248E-01
   0.449E+03 -.171E+03 0.280E+03   -.450E+03 0.171E+03 -.280E+03   0.786E+00 -.646E+00 0.311E+00   -.235E-01 0.306E-01 0.307E-01
   0.249E+03 -.327E+03 -.228E+04   -.249E+03 0.329E+03 0.227E+04   0.648E+00 -.218E+01 0.250E+01   -.141E-01 -.198E-01 -.409E-01
   -.188E+03 0.441E+03 -.549E+04   0.190E+03 -.440E+03 0.549E+04   -.148E+01 -.240E+01 -.513E+00   -.169E-01 -.132E-01 0.242E-01
   -.155E+03 -.108E+03 0.489E+04   0.157E+03 0.111E+03 -.490E+04   -.759E+00 -.285E+01 0.615E+01   -.349E-01 -.123E-01 0.346E-01
   0.202E+02 -.346E+02 0.237E+04   -.191E+02 0.331E+02 -.236E+04   -.344E+00 0.535E+00 -.178E+01   0.282E-02 -.496E-01 0.493E-01
   0.269E+03 0.178E+03 -.401E+04   -.273E+03 -.179E+03 0.402E+04   0.270E+01 0.451E-01 -.241E+01   0.649E-01 -.126E-01 -.413E-01
   0.359E+03 -.143E+03 -.686E+03   -.360E+03 0.145E+03 0.685E+03   0.140E+01 -.152E+01 0.123E+01   0.163E-01 -.541E-02 -.432E-01
   0.402E+03 0.577E+01 0.129E+04   -.403E+03 -.590E+01 -.128E+04   0.845E+00 0.202E+00 -.135E+01   0.199E-01 0.286E-02 -.800E-02
   0.455E+03 -.316E+03 -.176E+04   -.456E+03 0.317E+03 0.176E+04   0.157E+01 -.511E+00 0.232E+01   -.988E-02 0.239E-01 -.682E-01
   0.306E+03 -.341E+03 -.477E+04   -.306E+03 0.343E+03 0.477E+04   0.141E+01 -.102E+01 -.258E+01   -.458E-01 0.104E-01 0.122E-01
   0.369E+03 0.201E+03 0.439E+04   -.373E+03 -.202E+03 -.439E+04   0.434E+01 0.526E+00 0.335E+01   0.385E-01 0.586E-02 0.106E-01
   -.105E+02 0.736E+03 -.383E+04   0.105E+02 -.741E+03 0.383E+04   -.719E+00 0.417E+01 -.281E+00   -.196E-01 0.952E-02 -.221E-01
   -.243E+03 0.478E+03 0.526E+04   0.243E+03 -.477E+03 -.526E+04   0.107E+01 -.189E+01 0.168E+01   -.194E-01 0.435E-01 -.181E-01
   -.125E+03 0.587E+03 0.249E+04   0.124E+03 -.590E+03 -.249E+04   0.306E-01 0.280E+01 0.995E-01   -.154E-01 0.345E-01 0.474E-01
   -.111E+03 0.498E+03 -.489E+03   0.111E+03 -.498E+03 0.486E+03   0.433E+00 -.207E+00 0.275E+01   -.248E-02 -.145E-02 -.288E-02
   -.159E+02 0.360E+03 0.139E+04   0.155E+02 -.360E+03 -.140E+04   0.463E+00 -.569E+00 0.223E+01   0.258E-02 0.188E-02 0.187E-01
   0.724E+02 0.602E+03 -.191E+04   -.722E+02 -.605E+03 0.191E+04   0.211E+00 0.199E+01 0.249E+01   0.121E-01 0.886E-02 -.336E-01
   0.944E+03 0.130E+03 -.434E+04   -.947E+03 -.129E+03 0.434E+04   0.232E+01 -.139E+01 -.326E+01   0.232E-01 0.639E-01 0.500E-02
   -.632E+02 0.305E+03 0.459E+04   0.629E+02 -.310E+03 -.459E+04   -.421E+00 0.318E+01 0.451E+01   -.135E-01 -.902E-02 0.201E-01
   0.461E+03 0.494E+03 0.372E+04   -.464E+03 -.497E+03 -.372E+04   0.240E+01 0.347E+01 0.209E+01   -.231E-01 0.206E-01 0.274E-01
   0.809E+02 0.458E+03 0.343E+03   -.817E+02 -.459E+03 -.344E+03   0.573E+00 0.743E+00 0.210E+00   0.207E-02 -.225E-01 -.467E-01
   -.470E+02 0.187E+03 -.259E+04   0.464E+02 -.191E+03 0.259E+04   -.275E+00 0.446E+01 0.129E+01   -.426E-01 0.134E-01 -.159E+00
   -.596E+03 0.253E+02 -.521E+04   0.599E+03 -.251E+02 0.521E+04   -.197E+01 -.464E+00 0.229E+01   -.174E-02 -.433E-01 0.146E-01
   -.101E+04 -.375E+03 -.480E+04   0.100E+04 0.375E+03 0.480E+04   0.163E+01 0.789E+00 -.676E+00   -.172E-01 -.510E-02 0.184E-01
   -.272E+03 -.248E+03 0.439E+04   0.276E+03 0.251E+03 -.440E+04   -.348E+01 -.295E+01 0.354E+01   0.116E-01 0.105E-01 0.275E-01
   -.468E+03 -.212E+03 0.125E+04   0.469E+03 0.212E+03 -.125E+04   -.627E+00 -.238E+00 -.119E+01   0.130E-01 0.539E-01 0.282E-01
   -.697E+03 -.294E+03 -.171E+04   0.697E+03 0.295E+03 0.171E+04   0.950E-01 -.121E+01 0.165E+01   -.620E-03 -.124E-01 -.642E-01
   -.545E+03 -.429E+03 0.372E+04   0.548E+03 0.433E+03 -.372E+04   -.269E+01 -.293E+01 0.241E+01   0.186E-01 -.198E-01 0.296E-01
   -.455E+03 -.308E+03 0.400E+03   0.456E+03 0.309E+03 -.400E+03   -.535E+00 -.895E+00 0.577E+00   -.175E-02 -.819E-02 -.606E-02
   -.115E+03 -.229E+03 -.279E+04   0.118E+03 0.233E+03 0.279E+04   -.165E+01 -.335E+01 0.976E+00   -.270E-01 -.406E-01 -.192E-01
   0.451E+03 -.174E+03 -.509E+04   -.447E+03 0.177E+03 0.510E+04   -.332E+01 -.241E+01 -.256E+01   -.760E-01 -.420E-01 0.703E-02
   0.390E+02 -.472E+02 0.507E+04   -.347E+02 0.506E+02 -.508E+04   -.444E+01 -.419E+01 0.561E+01   -.132E-01 -.612E-02 0.142E-01
   -.301E+03 -.298E+03 0.221E+04   0.301E+03 0.299E+03 -.221E+04   -.268E+00 -.980E+00 -.164E+01   -.317E-01 0.154E-01 0.294E-01
   -.288E+03 -.317E+03 -.648E+03   0.288E+03 0.318E+03 0.648E+03   -.309E+00 -.117E+01 0.269E+00   0.129E-01 0.312E-01 -.513E-01
   -.384E+03 0.877E+02 -.390E+04   0.385E+03 -.889E+02 0.390E+04   -.923E+00 0.142E+01 -.509E-01   0.503E-01 0.419E-01 -.570E-01
   -.253E+03 -.183E+02 -.705E+03   0.255E+03 0.196E+02 0.701E+03   -.185E+01 -.151E+00 0.172E+01   -.126E-01 0.111E-01 -.163E-01
   -.106E+03 0.856E+02 -.195E+04   0.106E+03 -.867E+02 0.195E+04   0.239E+00 0.681E+00 -.182E+01   -.160E-01 0.981E-02 0.213E-01
   -.192E+03 0.108E+03 0.172E+04   0.193E+03 -.109E+03 -.173E+04   -.236E+00 0.433E+00 0.282E+01   0.141E-01 0.294E-01 -.527E-02
   -.127E+03 0.656E+02 0.399E+03   0.129E+03 -.653E+02 -.401E+03   -.173E+01 0.263E-01 0.173E+01   0.187E-01 0.359E-02 0.161E-01
   -.153E+03 -.422E+02 0.125E+04   0.155E+03 0.410E+02 -.125E+04   -.144E+01 0.115E+01 0.948E+00   0.353E-03 0.308E-02 0.181E-01
   -.151E+03 -.135E+02 0.265E+02   0.153E+03 0.132E+02 -.281E+02   -.133E+01 0.145E+01 0.508E+00   -.986E-03 -.432E-02 -.208E-02
   0.266E+03 0.269E+02 -.110E+04   -.268E+03 -.271E+02 0.110E+04   0.744E+00 -.606E+00 0.128E+01   -.106E-01 0.572E-02 -.506E-02
   0.169E+03 -.310E+02 -.218E+04   -.169E+03 0.302E+02 0.219E+04   -.647E+00 0.127E+01 -.311E+01   -.103E-01 -.101E-01 0.206E-01
   -.156E+03 -.152E+03 0.223E+04   0.157E+03 0.153E+03 -.223E+04   -.413E+00 -.104E+00 0.112E+00   0.183E-02 -.121E-02 -.122E-01
   0.100E+03 0.566E+02 0.213E+04   -.101E+03 -.573E+02 -.213E+04   0.103E+01 0.965E+00 0.189E+01   -.197E-01 0.978E-02 0.544E-02
   -.688E+02 0.591E+02 0.632E+03   0.696E+02 -.605E+02 -.630E+03   -.121E+01 0.132E+01 -.784E+00   -.675E-02 -.128E-02 0.164E-01
   -.132E+03 0.769E+02 -.314E+03   0.134E+03 -.780E+02 0.311E+03   -.258E+01 0.677E+00 0.667E+00   0.637E-02 -.298E-02 -.381E-01
   -.336E+03 -.505E+02 -.168E+04   0.338E+03 0.513E+02 0.168E+04   -.318E+00 -.666E+00 -.146E+01   0.488E-01 0.253E-01 -.272E-01
   0.138E+03 -.165E+03 0.187E+04   -.138E+03 0.167E+03 -.188E+04   0.395E+00 -.116E+01 0.379E+01   0.170E-02 0.537E-03 0.356E-02
   0.989E+02 -.179E+03 0.571E+03   -.997E+02 0.179E+03 -.569E+03   -.164E+00 -.109E+01 0.287E+00   0.595E-02 -.340E-02 0.678E-02
   -.575E+01 -.177E+03 -.465E+03   0.582E+01 0.179E+03 0.466E+03   -.136E+00 -.254E+01 -.129E+01   -.780E-02 -.843E-02 -.337E-01
   -.272E+03 -.189E+03 -.164E+04   0.273E+03 0.192E+03 0.164E+04   0.382E+00 -.188E+01 -.197E+01   -.535E-02 -.690E-01 -.171E-01
   -.147E+03 -.178E+03 0.159E+04   0.147E+03 0.181E+03 -.159E+04   0.127E+00 -.151E+01 0.186E+01   0.553E-02 -.284E-01 0.187E-02
   -.256E+02 -.154E+03 0.292E+03   0.255E+02 0.156E+03 -.292E+03   0.177E+00 -.270E+01 0.152E+00   0.393E-02 -.110E-01 0.548E-02
   -.290E+02 -.128E+03 -.964E+03   0.294E+02 0.131E+03 0.965E+03   0.384E-01 -.194E+01 -.228E+01   0.222E-02 -.969E-02 -.221E-01
   0.259E+03 0.520E+02 -.204E+04   -.262E+03 -.512E+02 0.205E+04   0.118E+01 -.787E+00 -.183E+01   0.733E-02 -.859E-02 0.615E-02
   0.213E+02 -.143E+03 0.973E+03   -.206E+02 0.144E+03 -.969E+03   -.106E+00 -.831E+00 -.153E+00   0.769E-02 -.798E-02 0.107E-01
   0.402E+02 -.147E+03 -.213E+03   -.401E+02 0.150E+03 0.214E+03   -.266E+00 -.246E+01 -.133E+01   0.677E-02 0.174E-01 -.171E-01
   0.239E+03 -.290E+03 -.141E+04   -.240E+03 0.293E+03 0.141E+04   0.206E+00 -.263E+01 -.198E+01   0.132E-02 0.368E-01 -.162E-01
   0.123E+03 -.513E+02 0.203E+04   -.125E+03 0.532E+02 -.203E+04   0.138E+01 -.175E+01 0.396E+01   -.256E-02 -.274E-02 -.106E-01
   0.776E+02 -.111E+03 0.218E+04   -.776E+02 0.113E+03 -.218E+04   -.170E+00 -.158E+01 0.147E+01   -.328E-02 0.455E-03 -.147E-01
   0.158E+03 0.875E+02 0.104E+04   -.161E+03 -.893E+02 -.104E+04   0.212E+01 0.160E+01 0.127E+00   -.278E-01 0.108E-01 0.158E-01
   0.150E+03 0.677E+02 -.200E+01   -.153E+03 -.688E+02 0.242E+01   0.230E+01 0.113E+01 -.418E+00   -.951E-02 0.375E-02 0.154E-01
   0.267E+02 0.310E+03 -.119E+04   -.261E+02 -.312E+03 0.119E+04   -.118E+01 0.139E+01 0.405E+00   0.112E-01 0.206E-01 -.718E-02
   0.157E+03 0.135E+03 -.511E+03   -.159E+03 -.137E+03 0.512E+03   0.321E+00 0.126E+01 -.124E+01   0.100E-01 -.450E-02 -.186E-01
   0.672E+02 0.424E+02 0.203E+04   -.692E+02 -.425E+02 -.204E+04   0.147E+01 -.818E+00 0.189E+01   -.916E-03 -.207E-01 0.575E-02
   0.102E+03 0.625E+02 0.708E+03   -.103E+03 -.641E+02 -.709E+03   0.208E+01 0.143E+01 0.110E+01   -.719E-02 0.219E-02 0.593E-02
   0.170E+03 0.127E+03 0.167E+04   -.171E+03 -.128E+03 -.167E+04   0.544E-02 -.209E+00 0.867E+00   0.138E-01 -.350E-02 0.630E-02
   0.177E+03 0.767E+02 0.359E+03   -.179E+03 -.780E+02 -.360E+03   0.258E+01 0.851E+00 0.911E+00   -.753E-02 -.632E-02 -.139E-01
   0.187E+03 0.925E+02 -.762E+03   -.189E+03 -.944E+02 0.761E+03   0.230E+01 0.824E+00 -.140E+01   -.157E-01 -.238E-01 -.353E-01
   0.109E+03 -.177E+03 -.202E+04   -.109E+03 0.177E+03 0.202E+04   -.360E+00 0.411E+00 -.199E+01   -.594E-01 0.810E-02 0.130E-01
   -.685E+01 0.235E+02 -.407E+02   -.995E-12 -.202E-11 0.955E-11   0.714E+01 -.234E+02 0.410E+02   -.216E+00 0.705E-01 -.326E+00

 POSITION                                       TOTAL-FORCE (eV/Angst)
      6.45801      7.08167      1.95077        -0.374961      0.932896      2.075244
      7.43572      5.66537      4.57627         0.126108     -0.036015      0.171276
      8.41343      4.24907      7.20177         0.656074      0.640075     -0.911997
      9.05532      3.14444      9.54711         0.298023     -0.855410      0.780069
      6.26091      1.56360      1.49637         0.756186      0.167243     -0.989612
      7.76163      0.32617      2.82594         0.786211     -1.027618      2.915150
      3.03869      7.12867      7.83467        -0.864818     -0.647865      0.967509
     12.31264      8.33497      5.45144         0.308943     -0.107298     -0.002518
      2.55881      2.99577      3.70110         0.435420      0.073498      1.656031
      3.53652      1.57947      6.32660         0.207561     -0.048000     -0.313679
      4.19485      0.37631      8.67320         0.427036      0.443750      1.135299
     11.62377      4.39405      1.73254        -0.470655     -0.311907     -1.193047
      0.45742      1.12654      8.10889        -0.757792     -0.611546      0.515024
      7.78644      5.31936      1.01788         0.419903     -0.713753     -1.227658
      8.63813      3.92359      3.18892        -0.225380     -0.004845      0.503472
      9.61584      2.50729      5.81443         0.008146     -0.129970     -0.119061
      3.43531      6.59319      4.06409         0.015480      0.011878      0.281968
      4.32366      5.30349      6.35719         0.446123     -0.963184      0.772449
      6.81238      3.17434      8.61818        -0.739497     -1.015185      0.406865
     12.53733      8.00949      1.43859        -0.782448     -1.391090      1.671230
      3.76121      1.25399      2.31376        -0.631538     -0.123922      0.471992
      8.31222      9.26279      4.93926        -0.219890     -0.092085     -0.050383
      9.28993      7.84650      7.56476        -0.985401      0.937436     -2.578644
      9.89403      6.60274      9.47573         0.772477     -0.246796      1.187833
      1.44678      3.14063      8.92365         0.669414      0.688057      1.293024
      9.10103      7.44896      1.69626         0.384721     -0.341513     -1.005724
      9.84053      6.03956      3.88260        -0.205417      0.027461      0.019140
     10.81824      4.62327      6.50810         0.379213     -0.113690      0.109405
     10.16643      0.70036      2.13226         0.410914      0.985103      2.538521
      4.63771      8.70917      4.75776         0.035237      0.077004      0.043225
      5.61542      7.29287      7.38327         0.811526      0.361527     -1.978078
      6.78354      6.29371      9.48861        -0.293310      0.625490      0.785230
      4.31323      4.90351      0.89128        -0.197795     -0.781461     -0.996697
      4.96362      3.36996      3.00743         0.168458      0.208313      1.392891
      5.94133      1.95367      5.63293         0.163233     -0.032088     -0.057078
      6.84229      0.62670      8.00763         0.734703      0.225219      0.999949
      1.57981      2.47018      7.00134         0.530111      1.172473     -2.600273
      2.30224      1.24580      9.16106         0.123465     -0.487495      2.305184
      9.70412      5.30277      1.75033         0.759654     -0.005149     -0.399863
     10.68183      3.88647      4.37584        -0.160819      0.300708      0.372497
      4.50130      7.97237      2.62550         0.115777     -0.002720      0.094186
      5.47901      6.55607      5.25100         1.401546      1.098865     -1.184362
      6.45673      5.13978      7.87651        -0.479371     -0.862891     -2.618334
      7.52200      4.40781     10.13170        -0.658514      0.488196      3.289568
     13.38698      9.41495      0.32395         0.796646      0.834710     -4.345035
      4.61773      2.75719      1.06382         0.185621      0.227198     -3.313519
      5.80492      1.21687      3.50067        -0.435562     -0.149068      1.747625
     10.35593      9.22568      6.12617        -0.270425     -0.374101     -2.171575
     11.15736      7.96539      8.53043         1.688821      0.175464      1.848106
      7.49317      8.80025      1.34037        -0.317946      0.858391     -1.885244
      8.17302      7.52069      3.51693        -0.948010     -0.367374      2.541353
      9.15074      6.10439      6.14243        -0.078406     -0.101513     -0.246243
     10.12845      4.68809      8.76794         1.117795      1.072904     -0.616677
      8.38484      2.12503      2.02690         0.703878      1.643956     -1.643023
      9.47664      0.76519      4.39210         0.064489     -0.162255      0.311001
      3.94792      8.77399      7.01760         0.440808      0.927304     -1.555773
      4.70776      6.79273      9.10751        -1.343104     -0.086974      3.585732
      3.29611      4.85108      2.64176         0.669347      0.681418      3.207571
      4.27382      3.43479      5.26727        -0.100869      0.085464     -0.316119
      5.25153      2.01849      7.89277        -0.818634      0.708080     -0.463400
      2.50964      6.02272      0.65106        -0.386800      0.195705     -1.509529
      5.96761      5.98104      0.29374        -0.153903      0.140375     -3.362829
      6.64193      4.82628      2.63363        -0.354153     -0.155382      2.084240
      7.61964      3.40999      5.25914        -0.067287      0.040066      0.018932
      8.59735      1.99369      7.88464        -0.590624     -1.294577     -0.562086
      2.41682      6.07959      6.13430        -1.620254     -0.631977     -0.694217
     10.53901      8.92340      1.12189        -0.546782     -0.924354     -2.727318
     11.51884      7.49589      3.50880         0.395372     -0.178385      0.493306
      1.75061      2.18699      1.98984        -1.341890     -0.707358     -1.893671
      2.74272      0.74039      4.38397         0.180270     -0.382414      0.600704
      7.29374      8.74919      7.00947        -0.550948     -1.021225     -2.281570
      8.23571      7.81578      9.42062        -0.621499      0.434226      2.622039
    total drift:                                0.069903      0.111694      0.008623

  FREE ENERGIE OF THE ION-ELECTRON SYSTEM (eV)
  free  energy   TOTEN  =      -353.87266981 eV

  energy  without entropy=     -352.83943694  energy(sigma->0) =     -353.35605338