 vasp.5.4.4.18Apr17-6-g9f103f2a35 (build Aug 13 2019 17:33:20) gamma-only

 executed on             LinuxIFC date 2020.05.12  09:16:58

 INCAR:
 POTCAR:    PAW_PBE Ni_pv 06Sep2000
 POTCAR:    PAW_PBE S 06Sep2000
 POTCAR:    PAW_PBE Ni_pv 06Sep2000
   VRHFIN =Ni:

   TITEL  = PAW_PBE Ni_pv 06Sep2000
   POMASS =   58.690; ZVAL   =   16.000    mass and valenz
   ENMAX  =  367.986; ENMIN  =  275.989 eV

 POTCAR:    PAW_PBE S 06Sep2000
   VRHFIN =S : s2p4

   TITEL  = PAW_PBE S 06Sep2000
   POMASS =   32.066; ZVAL   =    6.000    mass and valenz
   ENMAX  =  258.689; ENMIN  =  194.016 eV

 Optimization of the real space projectors (new method)

 maximal supplied QI-value         = 18.90
 optimisation between [QCUT,QGAM] = [ 10.77, 21.73] = [ 32.49,132.25] Ry
 Optimized for a Real-space Cutoff    1.38 Angstroem

   l    n(q)    QCUT    max X(q) W(low)/X(q) W(high)/X(q)  e(spline)
   1      8    10.771     2.836    0.40E-04    0.29E-04    0.12E-06
   1      8    10.771     4.023    0.10E-03    0.48E-04    0.29E-06
   2      8    10.771    73.368    0.42E-03    0.97E-04    0.44E-06
   2      8    10.771    69.010    0.42E-03    0.99E-04    0.45E-06
   0      9    10.771    54.797    0.10E-03    0.56E-04    0.74E-07
   0      9    10.771    24.266    0.89E-04    0.49E-04    0.67E-07
 Optimization of the real space projectors (new method)

 maximal supplied QI-value         = 19.84
 optimisation between [QCUT,QGAM] = [ 10.71, 21.63] = [ 32.15,130.99] Ry
 Optimized for a Real-space Cutoff    1.19 Angstroem

   l    n(q)    QCUT    max X(q) W(low)/X(q) W(high)/X(q)  e(spline)
   0      8    10.715   187.594    0.41E-03    0.53E-04    0.66E-07
   0      8    10.715   164.243    0.41E-03    0.53E-04    0.65E-07
   1      7    10.715    67.533    0.19E-03    0.59E-03    0.68E-07
   1      7    10.715    50.729    0.19E-03    0.58E-03    0.67E-07
  PAW_PBE Ni_pv 06Sep2000               :
  PAW_PBE S 06Sep2000                   :

 POSCAR: Type_048 Type_148
  positions in cartesian coordinates
 exchange correlation table for  LEXCH =        8
   RHO(1)=    0.500       N(1)  =     2000
   RHO(2)=  100.500       N(2)  =     4000

 ion  position               nearest neighbor table
   1  0.256  0.016  0.152-  74 2.25  65 2.26  81 2.26  53 2.36  93 2.36   5 2.53   9 2.53
   2  0.256  0.016  0.481-  75 2.25  66 2.26  82 2.26  54 2.36  94 2.36  10 2.53   6 2.53
   3  0.006  0.266  0.317-  62 2.25  67 2.26  71 2.26  56 2.36  59 2.36   7 2.53  23 2.53
   4  0.976  0.270  0.638-  72 2.05  68 2.07   8 2.32  60 2.41
   5  0.256  0.016  0.066-  78 2.07  90 2.07  49 2.20  61 2.21  81 2.26  93 2.36   9 2.53   1 2.53

   6  0.256  0.016  0.394-  79 2.25  62 2.26  82 2.26  50 2.36  94 2.36   2 2.53  10 2.53
   7  0.006  0.266  0.230-  65 2.25  71 2.26  63 2.26  59 2.36  51 2.36   3 2.53  23 2.53
   8  0.006  0.266  0.558-  66 2.25  72 2.26  64 2.26   4 2.32  60 2.36  52 2.36  24 2.50
   9  0.190  0.215  0.109-  49 2.09  61 2.10  57 2.25  65 2.26  53 2.36   5 2.53   1 2.53
  10  0.190  0.215  0.438-  58 2.25  66 2.26  62 2.26  54 2.36  50 2.36   2 2.53   6 2.53
  11  0.440  0.465  0.273-  83 2.25  51 2.26  56 2.26  63 2.36  67 2.36  19 2.53  15 2.53
  12  0.459  0.474  0.591-  64 2.09  68 2.14  52 2.18  84 2.21  20 2.49
  13  0.756  0.016  0.152-  86 2.25  53 2.26  93 2.26  65 2.36  81 2.36  17 2.53  21 2.53
  14  0.756  0.016  0.481-  87 2.25  54 2.26  94 2.26  66 2.36  82 2.36  22 2.53  18 2.53
  15  0.506  0.266  0.317-  50 2.25  56 2.26  59 2.26  67 2.36  71 2.36  19 2.53  11 2.53
  16  0.544  0.263  0.637-  72 2.06  68 2.07  60 2.28  20 2.30
  17  0.756  0.016  0.066-  90 2.07  78 2.07  61 2.21  49 2.21  93 2.26  81 2.36  21 2.53  13 2.53

[...]

  44  0.506  0.766  0.558-  77 2.25  84 2.26  75 2.26  40 2.33  96 2.36  87 2.36  36 2.53
  45  0.690  0.798  0.161-  88 2.07  93 2.08  86 2.17  76 2.21  43 2.38
  46  0.690  0.715  0.438-  94 2.25  77 2.26  73 2.26  89 2.36  85 2.36  38 2.53  42 2.53
  47  0.940  0.965  0.273-  71 2.25  86 2.26  91 2.26  74 2.36  79 2.36  31 2.53  27 2.53
  48  0.940  0.965  0.602-  92 2.11  80 2.14  72 2.25  87 2.26  75 2.36  28 2.48  32 2.53
  49  0.459  0.156  0.067-   9 2.09  21 2.10   5 2.20  17 2.21  90 2.49
  50  0.468  0.167  0.382-  15 2.25  18 2.26  22 2.26   6 2.36  10 2.36
  51  0.218  0.417  0.218-  25 2.25  11 2.26  19 2.26  23 2.36   7 2.36
  52  0.218  0.417  0.547-  12 2.18  26 2.25  20 2.26  24 2.30   8 2.36
  53  0.468  0.167  0.164-  19 2.25  13 2.26  21 2.26   1 2.36   9 2.36
  54  0.468  0.167  0.493-  20 2.25  22 2.26  14 2.26  10 2.36   2 2.36
  55  0.035  0.467  0.023-  29 1.99  41 2.00  57 2.58
  56  0.218  0.417  0.329-  30 2.25  15 2.26  11 2.26   3 2.36  23 2.36
  57  0.053  0.414  0.109-  29 2.01  41 2.01   9 2.25  25 2.26  37 2.36  55 2.58
  58  0.053  0.414  0.438-  10 2.25  26 2.26  30 2.26  38 2.36  42 2.36
  59  0.303  0.164  0.273-  35 2.25  19 2.26  15 2.26   7 2.36   3 2.36
  60  0.303  0.164  0.602-  36 2.25  20 2.26  16 2.28   8 2.36   4 2.41
  61  0.959  0.157  0.067-  21 2.09   9 2.10  17 2.21   5 2.21  78 2.49
  62  0.968  0.167  0.382-   3 2.25   6 2.26  10 2.26  18 2.36  22 2.36
  63  0.718  0.417  0.218-  37 2.25  23 2.26   7 2.26  11 2.36  19 2.36
  64  0.718  0.417  0.547-  24 2.05  12 2.09  38 2.25   8 2.26  20 2.36  68 2.74
  65  0.968  0.167  0.164-   7 2.25   1 2.26   9 2.26  13 2.36  21 2.36
  66  0.968  0.167  0.493-   8 2.25  10 2.26   2 2.26  22 2.36  14 2.36
  67  0.718  0.417  0.329-  42 2.25   3 2.26  23 2.26  15 2.36  11 2.36
  68  0.706  0.407  0.640-   4 2.07  16 2.07  12 2.14  24 2.15  64 2.74
  69  0.553  0.414  0.109-  41 2.07  29 2.07  21 2.25  37 2.26  25 2.36
  70  0.553  0.414  0.438-  22 2.25  38 2.26  42 2.26  26 2.36  30 2.36
  71  0.803  0.164  0.273-  47 2.25   7 2.26   3 2.26  19 2.36  15 2.36
  72  0.803  0.164  0.602-   4 2.05  16 2.06  48 2.25   8 2.26  20 2.36
  73  0.468  0.667  0.382-  39 2.25  42 2.26  46 2.26  30 2.36  34 2.36
  74  0.218  0.917  0.218-  33 2.17   1 2.25  35 2.26  43 2.26  47 2.36  31 2.36
  75  0.218  0.917  0.547-   2 2.25  36 2.26  44 2.26  48 2.36  32 2.36
  76  0.468  0.667  0.164-  33 2.06  45 2.21  43 2.25  37 2.26  25 2.36
  77  0.468  0.667  0.493-  44 2.25  46 2.26  38 2.26  34 2.36  26 2.36
  78  0.025  0.962  0.024-   5 2.07  17 2.07  61 2.49  81 2.53
  79  0.218  0.917  0.329-   6 2.25  39 2.26  35 2.26  27 2.36  47 2.36
  80  0.218  0.891  0.642-  28 2.11  36 2.11  48 2.14  40 2.14  84 2.78
  81  0.053  0.914  0.109-  33 2.08   5 2.26   1 2.26  17 2.36  13 2.36  78 2.53
  82  0.053  0.914  0.438-  34 2.25   2 2.26   6 2.26  14 2.36  18 2.36
  83  0.303  0.664  0.273-  11 2.25  43 2.26  39 2.26  31 2.36  27 2.36
  84  0.303  0.664  0.602-  40 2.15  28 2.20  12 2.21  44 2.26  32 2.36  80 2.78
  85  0.968  0.667  0.382-  27 2.25  30 2.26  34 2.26  42 2.36  46 2.36
  86  0.718  0.917  0.218-  45 2.17  13 2.25  47 2.26  31 2.26  35 2.36  43 2.36
  87  0.718  0.917  0.547-  14 2.25  48 2.26  32 2.26  36 2.36  44 2.36
  88  0.968  0.667  0.164-  45 2.07  33 2.22  31 2.25  25 2.26  37 2.36
  89  0.968  0.667  0.493-  32 2.25  34 2.26  26 2.26  46 2.36  38 2.36
  90  0.525  0.962  0.024-  17 2.07   5 2.07  49 2.49  93 2.53
  91  0.718  0.917  0.329-  18 2.25  27 2.26  47 2.26  39 2.36  35 2.36
  92  0.718  0.891  0.642-  40 2.11  48 2.11  36 2.14  28 2.14  96 2.77
  93  0.553  0.914  0.109-  45 2.08  17 2.26  13 2.26   5 2.36   1 2.36  90 2.53
  94  0.553  0.914  0.438-  46 2.25  14 2.26  18 2.26   2 2.36   6 2.36
  95  0.803  0.664  0.273-  23 2.25  31 2.26  27 2.26  43 2.36  39 2.36
  96  0.803  0.664  0.602-  28 2.16  24 2.17  40 2.21  32 2.26  44 2.36  92 2.77

  LATTYP: Found a simple monoclinic cell.
 ALAT       =    13.8711386352
 B/A-ratio  =     2.1019774055
 C/A-ratio  =     1.3233367991
 COS(beta)  =    -0.9620914447

  Lattice vectors:

 A1 = (  -8.3714133957, -11.0601955134,   0.0000000000)
 A2 = (   0.0000000000,   0.0000000000, -29.1568200000)
 A3 = (  14.6499733957,  11.0601955134,   0.0000000000)

Analysis of symmetry for initial positions (statically):
 Subroutine PRICEL returns:
 Original cell was already a primitive cell.

 Routine SETGRP: Setting up the symmetry group for a
 simple monoclinic supercell.

 Subroutine GETGRP returns: Found  1 space group operations
 (whereof  1 operations were pure point group operations)
 out of a pool of  4 trial point group operations.

The static configuration has the point symmetry C_1 .

Analysis of symmetry for dynamics (positions and initial velocities):
 Subroutine PRICEL returns:
 Original cell was already a primitive cell.

 Routine SETGRP: Setting up the symmetry group for a
 simple monoclinic supercell.

 Subroutine GETGRP returns: Found  1 space group operations
 (whereof  1 operations were pure point group operations)
 out of a pool of  4 trial point group operations.

The dynamic configuration has the point symmetry C_1 .

 Subroutine INISYM returns: Found  1 space group operations
 (whereof  1 operations are pure point group operations),
 and found     1 'primitive' translations

 KPOINTS: gamma-point-only calculation. no periodi

Automatic generation of k-mesh.
Space group operators:
 irot       det(A)        alpha          n_x          n_y          n_z        tau_x        tau_y        tau_z
    1     1.000000     0.000000     1.000000     0.000000     0.000000     0.000000     0.000000     0.000000

 Subroutine IBZKPT returns following result:

 Found      1 irreducible k-points:

 Following reciprocal coordinates:
            Coordinates               Weight
  0.000000  0.000000  0.000000      1.000000

 Following cartesian coordinates:
            Coordinates               Weight
  0.000000  0.000000  0.000000      1.000000

 SYSTEM =  "Millerite NiS"
 POSCAR =  Type_048 Type_148

 Startparameter for this run:
   NWRITE =      2    write-flag & timer
   PREC   = normal    normal or accurate (medium, high low for compatibility)
   ISTART =      0    job   : 0-new  1-cont  2-samecut
   ICHARG =      2    charge: 1-file 2-atom 10-const
   ISPIN  =      1    spin polarized calculation?
   LNONCOLLINEAR =      F non collinear calculations
   LSORBIT =      F    spin-orbit coupling
   INIWAV =      1    electr: 0-lowe 1-rand  2-diag
   LASPH  =      F    aspherical Exc in radial PAW
   METAGGA=      F    non-selfconsistent MetaGGA calc.

 Electronic Relaxation 1
   ENCUT  =  450.0 eV  33.07 Ry    5.75 a.u.  10.86 19.47 50.43*2*pi/ulx,y,z
   ENINI  =  450.0     initial cutoff
   ENAUG  =  703.4 eV  augmentation charge cutoff
   NELM   =    100;   NELMIN=  2; NELMDL= -5     # of ELM steps
   EDIFF  = 0.1E-03   stopping-criterion for ELM
   LREAL  =      T    real-space projection
   NLSPLINE    = F    spline interpolate recip. space projectors
   LCOMPAT=      F    compatible to vasp.4.4
   GGA_COMPAT  = T    GGA compatible to vasp.4.4-vasp.4.6
   LMAXPAW     = -100 max onsite density
   LMAXMIX     =    2 max onsite mixed and CHGCAR
   VOSKOWN=      0    Vosko Wilk Nusair interpolation
   ROPT   =   -0.00050  -0.00050
 Ionic relaxation
   EDIFFG = 0.1E-02   stopping-criterion for IOM
   NSW    =      0    number of steps for IOM
   NBLOCK =      1;   KBLOCK =      1    inner block; outer block
[...]
     0.000000000  0.000000000 29.156820000     0.000000000  0.000000000  0.034297293

  length of vectors
     6.278560000 11.256463038 29.156820000     0.162098538  0.090414315  0.034297293

 FORCES acting on ions
    electron-ion (+dipol)            ewald-force                    non-local-force                 convergence-correction
   -.763E+02 0.272E+02 0.442E+04   0.762E+02 -.261E+02 -.442E+04   0.150E+00 -.342E+00 -.123E+01   0.959E-02 -.130E+00 -.491E+00
   -.425E+02 0.237E+03 -.347E+04   0.416E+02 -.238E+03 0.347E+04   0.987E+00 0.439E+00 -.940E+00   0.144E-02 0.103E+00 0.617E+00
   -.414E+02 0.221E+03 0.372E+03   0.405E+02 -.221E+03 -.371E+03   0.981E+00 0.512E+00 -.113E+01   0.887E-02 -.163E+00 0.550E+00
   -.447E+03 0.192E+03 -.737E+04   0.449E+03 -.192E+03 0.736E+04   0.235E+00 -.145E+01 0.396E+01   -.467E-01 0.527E-01 -.440E-01
   -.153E+02 0.639E+03 0.698E+04   0.157E+02 -.641E+03 -.698E+04   -.334E+00 0.274E+01 0.352E+01   0.281E-01 -.503E-01 -.315E+00
   -.414E+02 0.242E+03 -.571E+03   0.405E+02 -.242E+03 0.569E+03   0.994E+00 0.656E+00 0.125E+01   0.880E-02 0.648E-01 0.949E+00
   -.408E+02 0.133E+03 0.333E+04   0.399E+02 -.133E+03 -.333E+04   0.105E+01 0.598E+00 0.111E+01   0.579E-02 -.231E-01 -.315E+00
   -.187E+03 0.300E+03 -.440E+04   0.187E+03 -.300E+03 0.440E+04   0.536E+00 0.409E+00 0.699E-01   -.241E-01 0.748E-01 0.609E+00
   -.328E+02 -.683E+03 0.564E+04   0.324E+02 0.687E+03 -.563E+04   0.197E+00 -.398E+01 -.444E+00   -.945E-02 -.123E+00 -.355E+00
   -.426E+02 -.515E+03 -.201E+04   0.419E+02 0.516E+03 0.201E+04   0.885E+00 -.112E+01 0.610E-01   0.733E-02 -.115E+00 0.894E+00
   -.414E+02 -.485E+03 0.190E+04   0.407E+02 0.486E+03 -.190E+04   0.840E+00 -.123E+01 0.191E-01   -.476E-02 0.202E-01 -.468E-01
   0.306E+03 -.450E+03 -.593E+04   -.311E+03 0.452E+03 0.594E+04   0.386E+01 -.165E+01 -.254E+01   -.980E-02 -.208E+00 0.269E+00
   -.767E+02 0.295E+02 0.442E+04   0.766E+02 -.284E+02 -.442E+04   0.128E+00 -.461E+00 -.113E+01   0.548E-03 -.536E-01 -.475E+00
   -.401E+02 0.242E+03 -.346E+04   0.392E+02 -.242E+03 0.346E+04   0.952E+00 0.547E+00 -.833E+00   0.548E-02 0.998E-01 0.638E+00
   -.412E+02 0.221E+03 0.372E+03   0.403E+02 -.221E+03 -.372E+03   0.968E+00 0.520E+00 -.109E+01   0.682E-03 -.159E+00 0.534E+00
   0.410E+03 0.189E+03 -.735E+04   -.412E+03 -.188E+03 0.735E+04   0.106E+01 -.999E+00 0.279E+01   0.824E-01 0.101E+00 -.604E-01
   -.111E+02 0.632E+03 0.698E+04   0.117E+02 -.635E+03 -.698E+04   -.580E+00 0.266E+01 0.355E+01   -.840E-02 0.787E-02 -.219E+00
   -.412E+02 0.242E+03 -.570E+03   0.403E+02 -.243E+03 0.568E+03   0.974E+00 0.654E+00 0.125E+01   0.316E-02 0.604E-01 0.958E+00
   -.420E+02 0.132E+03 0.333E+04   0.411E+02 -.133E+03 -.333E+04   0.106E+01 0.543E+00 0.111E+01   0.120E-02 -.244E-01 -.321E+00
   0.114E+03 0.293E+03 -.439E+04   -.116E+03 -.293E+03 0.439E+04   0.206E+01 0.440E+00 -.559E-01   0.373E-01 0.127E+00 0.582E+00
   -.230E+01 -.709E+03 0.566E+04   0.167E+01 0.714E+03 -.565E+04   0.464E+00 -.398E+01 -.597E+00   -.727E-02 -.159E+00 -.283E+00
   -.397E+02 -.512E+03 -.200E+04   0.390E+02 0.513E+03 0.200E+04   0.881E+00 -.117E+01 0.193E-01   0.942E-02 -.100E+00 0.908E+00
   -.411E+02 -.485E+03 0.189E+04   0.404E+02 0.486E+03 -.189E+04   0.806E+00 -.127E+01 0.902E-01   0.111E-01 0.368E-01 -.422E-01
   -.380E+03 -.467E+03 -.599E+04   0.384E+03 0.468E+03 0.599E+04   -.269E+01 -.116E+01 -.188E+01   -.749E-02 -.255E+00 0.277E+00
   -.548E+02 -.202E+03 0.491E+04   0.530E+02 0.202E+03 -.491E+04   0.177E+01 0.542E-01 -.247E+01   -.698E-02 0.650E-01 -.187E+00
   -.254E+02 0.272E+03 -.343E+04   0.244E+02 -.273E+03 0.343E+04   0.104E+01 0.833E+00 -.200E+01   0.119E-01 -.123E-01 0.851E+00
   -.412E+02 0.303E+03 0.285E+03   0.403E+02 -.303E+03 -.285E+03   0.985E+00 0.658E+00 -.822E+00   0.106E-01 0.238E-01 0.526E+00
   -.194E+02 0.531E+03 -.734E+04   0.193E+02 -.532E+03 0.734E+04   0.307E-01 0.123E+00 0.589E+00   0.843E-02 -.942E-01 0.199E-01
   -.289E+03 -.679E+03 0.687E+04   0.288E+03 0.681E+03 -.687E+04   0.265E+01 -.118E+01 0.303E+01   -.652E-01 0.249E-01 -.802E-01
   -.404E+02 0.273E+03 -.537E+03   0.395E+02 -.273E+03 0.535E+03   0.101E+01 0.493E+00 0.815E+00   0.483E-02 0.512E-01 0.969E+00
   0.120E+02 0.531E+03 0.297E+04   -.124E+02 -.533E+03 -.297E+04   0.369E-01 0.224E+01 0.302E+00   0.145E-01 -.179E-01 -.437E+00
   -.444E+02 0.266E+03 -.427E+04   0.435E+02 -.267E+03 0.427E+04   0.101E+01 0.806E+00 0.187E+01   0.141E-01 -.540E-01 0.433E+00
   -.823E+01 0.543E+03 0.548E+04   0.614E+01 -.544E+03 -.548E+04   0.170E+01 0.297E+00 0.215E+01   -.344E-01 -.314E-01 -.480E+00
   -.397E+02 -.516E+03 -.199E+04   0.390E+02 0.517E+03 0.199E+04   0.960E+00 -.948E+00 -.137E+00   0.110E-01 0.684E-01 0.893E+00
   -.394E+02 -.601E+03 0.168E+04   0.389E+02 0.602E+03 -.168E+04   0.620E+00 -.137E+01 -.693E+00   0.101E-01 0.619E-01 0.882E-01
   -.156E+02 -.752E+03 -.595E+04   0.154E+02 0.757E+03 0.595E+04   0.273E+00 -.482E+01 -.679E+00   0.164E-02 0.832E-01 0.135E+00
   -.154E+02 -.204E+03 0.493E+04   0.133E+02 0.204E+03 -.493E+04   0.215E+01 0.876E-01 -.267E+01   -.718E-02 0.428E-01 -.245E+00
   -.531E+02 0.264E+03 -.339E+04   0.522E+02 -.265E+03 0.339E+04   0.105E+01 0.712E+00 -.130E+01   -.590E-02 -.902E-02 0.825E+00
   -.409E+02 0.303E+03 0.285E+03   0.400E+02 -.303E+03 -.285E+03   0.987E+00 0.677E+00 -.814E+00   0.475E-02 0.304E-01 0.551E+00
   -.604E+01 0.483E+03 -.735E+04   0.610E+01 -.484E+03 0.735E+04   0.728E-01 0.676E+00 0.697E+00   -.312E-02 -.827E-01 -.308E-01
   0.258E+03 -.658E+03 0.687E+04   -.258E+03 0.660E+03 -.687E+04   -.256E+01 -.182E+01 0.388E+01   0.263E-01 -.963E-02 -.156E+00
   -.421E+02 0.272E+03 -.534E+03   0.413E+02 -.273E+03 0.533E+03   0.920E+00 0.538E+00 0.808E+00   -.445E-03 0.581E-01 0.957E+00
   0.156E+02 0.533E+03 0.296E+04   -.160E+02 -.536E+03 -.296E+04   0.277E-01 0.220E+01 0.257E+00   0.627E-02 -.975E-02 -.406E+00
   -.323E+02 0.229E+03 -.426E+04   0.313E+02 -.229E+03 0.426E+04   0.115E+01 0.683E+00 0.196E+01   0.751E-03 -.453E-01 0.355E+00
   -.211E+02 0.540E+03 0.547E+04   0.188E+02 -.540E+03 -.547E+04   0.188E+01 0.419E+00 0.207E+01   0.486E-01 0.388E-01 -.496E+00
   -.424E+02 -.518E+03 -.199E+04   0.418E+02 0.518E+03 0.199E+04   0.884E+00 -.951E+00 -.287E+00   0.157E-02 0.656E-01 0.879E+00
   -.396E+02 -.600E+03 0.169E+04   0.391E+02 0.601E+03 -.168E+04   0.608E+00 -.135E+01 -.693E+00   0.326E-02 0.449E-01 0.621E-01
   -.420E+02 -.710E+03 -.594E+04   0.420E+02 0.714E+03 0.594E+04   0.232E-01 -.391E+01 -.470E+00   0.125E-01 0.568E-01 0.182E+00
   -.760E+01 -.208E+03 0.273E+04   0.746E+01 0.214E+03 -.274E+04   -.330E-01 -.433E+01 0.281E+01   0.223E-01 -.506E-01 -.932E-01
   0.399E+02 -.899E+02 -.129E+03   -.406E+02 0.910E+02 0.127E+03   0.605E+00 -.128E+01 0.280E+01   -.786E-02 -.342E-01 0.371E+00
   0.391E+02 -.110E+03 0.137E+04   -.397E+02 0.111E+03 -.138E+04   0.479E+00 -.124E+01 0.288E+01   0.132E-01 0.597E-01 -.258E+00
   0.516E+02 -.476E+02 -.163E+04   -.532E+02 0.493E+02 0.163E+04   0.146E+01 -.137E+01 0.217E+01   0.237E-01 -.290E-01 0.212E+00
   0.379E+02 -.154E+03 0.150E+04   -.391E+02 0.156E+03 -.149E+04   0.121E+01 -.167E+01 -.196E+01   0.528E-01 -.353E-01 -.201E+00
   0.447E+02 -.817E+02 -.138E+04   -.454E+02 0.830E+02 0.139E+04   0.549E+00 -.143E+01 -.265E+01   0.483E-02 -.479E-03 0.220E+00
   0.144E+01 -.250E+03 0.270E+04   -.128E+01 0.251E+03 -.270E+04   -.154E+00 -.195E+00 0.268E+00   -.296E-01 0.307E-01 -.268E+00
   0.397E+02 -.810E+02 0.645E+02   -.404E+02 0.821E+02 -.626E+02   0.585E+00 -.132E+01 -.260E+01   0.335E-03 -.257E-01 0.234E+00
   0.277E+02 -.124E+03 0.204E+04   -.285E+02 0.122E+03 -.203E+04   0.109E+01 0.222E+01 -.111E+01   -.826E-02 0.145E-01 0.959E-01
   0.380E+02 0.172E+03 -.745E+03   -.388E+02 -.174E+03 0.745E+03   0.690E+00 0.281E+01 0.322E+00   0.141E-02 -.494E-01 0.375E+00
   0.395E+02 0.131E+03 0.676E+03   -.403E+02 -.133E+03 -.676E+03   0.669E+00 0.240E+01 0.102E+00   0.565E-02 -.267E-01 0.394E-01
   0.525E+02 0.120E+03 -.230E+04   -.534E+02 -.121E+03 0.230E+04   0.993E+00 0.303E+01 0.628E+00   -.116E-01 0.109E+00 0.100E+00
[...]
   0.388E+02 0.225E+03 0.664E+03   -.397E+02 -.227E+03 -.664E+03   0.860E+00 0.274E+01 0.182E-01   -.124E-01 0.165E-01 0.146E-01
   0.700E+02 0.270E+03 -.226E+04   -.702E+02 -.273E+03 0.226E+04   -.395E-01 0.193E+01 -.266E+00   -.161E-01 -.445E-01 0.577E-01
   0.395E+02 -.764E+02 -.128E+03   -.402E+02 0.774E+02 0.126E+03   0.579E+00 -.136E+01 0.267E+01   -.791E-02 0.526E-01 0.354E+00
   0.169E+02 -.205E+03 0.117E+04   -.171E+02 0.208E+03 -.117E+04   -.921E-01 -.277E+01 0.498E+00   0.102E-01 0.269E-01 -.209E+00
   0.396E+02 -.110E+03 -.155E+04   -.408E+02 0.111E+03 0.154E+04   0.107E+01 -.131E+01 0.259E+01   -.342E-02 0.238E-02 0.132E+00
   0.453E+01 0.217E+03 0.196E+04   -.582E+01 -.217E+03 -.197E+04   0.258E+01 -.192E+01 0.229E+01   0.215E-01 -.506E-01 -.179E+00
   0.359E+02 -.864E+02 -.137E+04   -.366E+02 0.873E+02 0.137E+04   0.517E+00 -.120E+01 -.305E+01   0.659E-02 -.904E-02 0.234E+00
   0.114E+01 0.361E+03 0.273E+04   -.151E+01 -.365E+03 -.274E+04   0.422E+00 0.191E+01 0.253E+01   -.234E-01 0.242E-02 -.112E+00
   0.393E+02 -.889E+02 0.268E+02   -.403E+02 0.903E+02 -.251E+02   0.104E+01 -.172E+01 -.223E+01   -.857E-02 0.213E-01 0.251E+00
   0.146E+01 -.199E+03 -.281E+04   -.182E+01 0.202E+03 0.282E+04   0.388E+00 -.228E+01 -.421E+01   0.283E-01 -.883E-02 0.397E-02
   0.563E+02 0.424E+03 0.242E+04   -.584E+02 -.428E+03 -.242E+04   0.159E+01 0.419E+01 0.240E+01   0.115E-01 0.523E-02 -.103E+00
   0.397E+02 0.162E+03 -.754E+03   -.406E+02 -.164E+03 0.753E+03   0.759E+00 0.285E+01 0.704E-01   -.619E-03 0.237E-01 0.315E+00
   0.385E+02 0.225E+03 0.664E+03   -.394E+02 -.227E+03 -.664E+03   0.824E+00 0.272E+01 0.858E-01   -.997E-03 0.211E-01 0.160E-01
   0.105E+02 0.231E+03 -.226E+04   -.108E+02 -.234E+03 0.226E+04   0.254E+00 0.265E+01 -.476E+00   0.225E-01 -.171E-01 0.631E-01
   -.722E+02 0.201E+02 -.317E+02   -.709E-12 0.412E-11 -.114E-10   0.721E+02 -.194E+02 0.183E+02   0.191E+00 -.595E+00 0.135E+02

 POSITION                                       TOTAL-FORCE (eV/Angst)
      1.64370      0.18204      4.44331         0.074050      0.578447      0.292134
      1.64370      0.18204     14.02172         0.111576      0.109259     -0.358060
      0.59727      2.94708      9.23251         0.090815      0.137200     -0.333251
      6.69018      2.98770     18.59727         1.413723     -0.557079      0.343776
      1.64370      0.18204      1.91264         0.105919      0.395849      2.176446
      1.64370      0.18204     11.49105         0.094682      0.158933      0.348142
      0.59727      2.94708      6.70184         0.118425      0.117150      0.446804
      0.59727      2.94708     16.28025         0.115090     -0.005131     -1.229477
      1.64370      2.37366      3.17797        -0.217100      0.132708      2.544835
      1.64370      2.37366     12.75638         0.193094     -0.314592     -0.040957
      3.73655      5.13871      7.96718         0.177709     -0.346620      0.051370
      3.87607      5.23827     17.23820        -1.447498     -0.149746      0.248296
      4.78298      0.18204      4.44331         0.082638      0.526584      0.219757
      4.78298      0.18204     14.02172         0.134695      0.136817     -0.398037
      3.73655      2.94708      9.23251         0.100095      0.152659     -0.334688
      3.96298      2.90684     18.57324        -1.295328     -0.489812      0.378333
      4.78298      0.18204      1.91264         0.080424      0.353407      2.174970
      4.78298      0.18204     11.49105         0.083130      0.143701      0.350319
      3.73655      2.94708      6.70184         0.105665      0.098940      0.404222
      3.73655      2.94708     16.28025        -0.072062     -0.019696     -1.390973
      4.78298      2.37366      3.17797        -0.175083      0.034337      2.530700
      4.78298      2.37366     12.75638         0.188162     -0.360906     -0.016089
      6.87583      5.13871      7.96718         0.156318     -0.378780      0.037664
      6.78138      5.22002     17.30951         1.199114     -0.177365      0.094713
      2.69013      5.71213      4.44331        -0.068107      0.198066      0.123922
      2.69013      5.71213     14.02172         0.056853      0.106113     -0.584921
      1.64370      8.47718      9.23251         0.082405      0.125940     -0.288786
      1.69090      8.42903     18.60713        -0.070262     -0.797976     -0.270698
      2.72693      4.97001      1.92924         2.244814      0.662470      0.228276
      2.69013      5.71213     11.49105         0.088279      0.182083      0.294504
      1.64370      8.47718      6.70184        -0.334640     -0.420384      1.336088
      1.64370      8.47718     16.28025         0.088058      0.327458     -0.968194
      2.87720      8.82166      4.67925        -0.425976      0.119182      0.009506
      2.69013      7.90376     12.75638         0.210168     -0.347227     -0.061938
      4.78298     10.66881      7.96718         0.172223     -0.297212      0.107036
      4.78298     10.66881     17.54559         0.044627     -0.066848     -2.196430
      5.82941      5.71213      4.44331         0.081530      0.174408      0.075608
      5.82941      5.71213     14.02172         0.112192     -0.008824     -0.524524
      4.78298      8.47718      9.23251         0.091689      0.124239     -0.290896
      4.81646      8.42857     18.60742         0.131975     -0.673760     -0.249735
      5.93910      4.88686      1.91196        -2.293784      0.580955      0.080805
      5.82941      5.71213     11.49105         0.093852      0.204225      0.284727
      4.78298      8.47718      6.70184        -0.375138     -0.443133      1.420653
      4.78298      8.47718     16.28025         0.131473      0.383261     -0.957540
      6.00265      8.82163      4.68902        -0.332862      0.084509     -0.119831
      5.82941      7.90376     12.75638         0.208784     -0.330103     -0.065439
      7.92226     10.66881      7.96718         0.160015     -0.273981      0.098481
      7.92226     10.66881     17.54559         0.041005      0.068494     -2.235306
      3.20944      1.72883      1.95225        -0.152413      1.866365     -3.410096
      3.28961      1.84282     11.14515        -0.123388     -0.285522      0.420025
      2.24318      4.60787      6.35595        -0.176121     -0.161806      0.208116
      2.24318      4.60787     15.93436        -0.137692      0.278915      0.652238
      3.28961      1.84282      4.78920         0.049295     -0.189964      0.446258
      3.28961      1.84282     14.36761        -0.113033     -0.139537     -0.304324
      1.19720      5.16701      0.66878        -0.027403      0.537516     -2.760639
      2.24318      4.60787      9.57841        -0.113565     -0.265130     -0.423676
      1.19676      4.58218      3.17797         0.315001     -0.643395      1.584530
      1.19676      4.58218     12.75638        -0.167546      0.585898      0.021550
      2.24318      1.81714      7.96718        -0.162305      0.399671     -0.077106
      2.24318      1.81714     17.54559         0.026146      1.367647      1.358049
[...]
      2.24318     10.11228     12.75638        -0.184074      0.556839      0.014377
      3.28961      7.34723      7.96718        -0.112198      0.547023      0.123545
      3.28961      7.34723     17.54559        -0.230551     -1.184686     -0.091057
      7.47532      7.37292     11.14515        -0.139469     -0.233883      0.430859
      6.42889     10.13797      6.35595        -0.264488      0.450161      0.604965
      6.42889     10.13797     15.93436        -0.082433     -0.096741     -0.168743
      7.47532      7.37292      4.78920         1.306156     -1.550807     -0.349443
      7.47532      7.37292     14.36761        -0.159849     -0.351230     -0.393384
      5.30897     10.63927      0.70303         0.023106     -1.490267     -3.755101
      6.42889     10.13797      9.57841         0.037878     -0.229957     -0.374991
      6.37065      9.85096     18.72392         0.049282      1.445828      3.954346
      5.38246     10.11228      3.17797        -0.475356     -0.467127      0.432524
      5.38246     10.11228     12.75638        -0.147355      0.545276     -0.005372
      6.42889      7.34723      7.96718        -0.132480      0.555314      0.119429
      6.42889      7.34723     17.54559        -0.034570     -0.522896     -0.137856
    total drift:                                0.011346      0.136547      0.092146

  FREE ENERGIE OF THE ION-ELECTRON SYSTEM (eV)
  free  energy   TOTEN  =      -476.60647185 eV

  energy  without entropy=     -475.29392357  energy(sigma->0) =     -475.95019771