 vasp.5.4.4.18Apr17-6-g9f103f2a35 (build Aug 13 2019 17:33:20) gamma-only

 executed on             LinuxIFC date 2020.05.10  21:58:22

 INCAR:
 POTCAR:    PAW_PBE Ni_pv 06Sep2000
 POTCAR:    PAW_PBE S 06Sep2000
 POTCAR:    PAW_PBE Ni_pv 06Sep2000
   VRHFIN =Ni:

   TITEL  = PAW_PBE Ni_pv 06Sep2000
   POMASS =   58.690; ZVAL   =   16.000    mass and valenz
   ENMAX  =  367.986; ENMIN  =  275.989 eV

 POTCAR:    PAW_PBE S 06Sep2000
   VRHFIN =S : s2p4

   TITEL  = PAW_PBE S 06Sep2000
   POMASS =   32.066; ZVAL   =    6.000    mass and valenz
   ENMAX  =  258.689; ENMIN  =  194.016 eV

 Optimization of the real space projectors (new method)

 maximal supplied QI-value         = 18.90
 optimisation between [QCUT,QGAM] = [ 10.77, 21.73] = [ 32.49,132.25] Ry
 Optimized for a Real-space Cutoff    1.38 Angstroem

   l    n(q)    QCUT    max X(q) W(low)/X(q) W(high)/X(q)  e(spline)
   1      8    10.771     2.836    0.40E-04    0.29E-04    0.12E-06
   1      8    10.771     4.023    0.10E-03    0.48E-04    0.29E-06
   2      8    10.771    73.368    0.42E-03    0.97E-04    0.44E-06
   2      8    10.771    69.010    0.42E-03    0.99E-04    0.45E-06
   0      9    10.771    54.797    0.10E-03    0.56E-04    0.74E-07
   0      9    10.771    24.266    0.89E-04    0.49E-04    0.67E-07
 Optimization of the real space projectors (new method)

 maximal supplied QI-value         = 19.84
 optimisation between [QCUT,QGAM] = [ 10.71, 21.63] = [ 32.15,130.99] Ry
 Optimized for a Real-space Cutoff    1.19 Angstroem

   l    n(q)    QCUT    max X(q) W(low)/X(q) W(high)/X(q)  e(spline)
   0      8    10.715   187.594    0.41E-03    0.53E-04    0.66E-07
   0      8    10.715   164.243    0.41E-03    0.53E-04    0.65E-07
   1      7    10.715    67.533    0.19E-03    0.59E-03    0.68E-07
   1      7    10.715    50.729    0.19E-03    0.58E-03    0.67E-07
  PAW_PBE Ni_pv 06Sep2000               :
  PAW_PBE S 06Sep2000                   :

 POSCAR: Type_052 Type_152
  positions in cartesian coordinates
 exchange correlation table for  LEXCH =        8
   RHO(1)=    0.500       N(1)  =     2000
   RHO(2)=  100.500       N(2)  =     4000

 ion  position               nearest neighbor table
   1  0.261  0.479  0.291-  79 2.25  63 2.26  87 2.26  59 2.36  64 2.36   8 2.53  23 2.53
   2  0.355  0.385  0.419-  57 2.09  59 2.26  64 2.26  80 2.27  65 2.36  71 2.36   9 2.53  24 2.53

   3  0.442  0.297  0.533-  57 2.03  65 2.04  96 2.05  71 2.05
   4  0.167  0.073  0.162-  60 2.07  88 2.20  69 2.25  61 2.36  89 2.36  37 2.53  32 2.53
   5  0.042  0.053  0.494-  78 2.04  54 2.04  83 2.06  84 2.12
   6  0.195  0.428  0.022-  62 2.00  55 2.02  38 2.40
   7  0.274  0.333  0.128-  60 2.10  62 2.26  55 2.26  56 2.36  63 2.36  13 2.53  30 2.53
   8  0.368  0.239  0.257-  61 2.25  63 2.26  56 2.26  64 2.36  66 2.36   1 2.53  23 2.53
   9  0.462  0.145  0.385-  85 2.25  64 2.26  66 2.26  65 2.36  67 2.36   2 2.53  24 2.53
  10  0.000  0.372  0.257-  63 2.25  69 2.26 100 2.26  53 2.36  72 2.36  14 2.53  21 2.53
  11  0.094  0.278  0.385-  58 2.11  64 2.25  53 2.26  72 2.26  54 2.36  22 2.53  15 2.53
  12  0.168  0.212  0.492-  83 2.04  54 2.06  58 2.07  65 2.20
  13  0.406  0.465  0.128-  75 2.15  55 2.26  86 2.26  56 2.36  87 2.36  30 2.53   7 2.53
  14  0.761  0.479  0.291-  92 2.25  76 2.26 100 2.26  72 2.36  77 2.36  21 2.53  10 2.53
  15  0.855  0.385  0.419-  58 2.10  93 2.25  72 2.26  77 2.26  78 2.36  16 2.50  22 2.53  11 2.53

[...]

  52  0.721  0.511  0.053-  68 2.02  99 2.04  75 2.07  20 2.50  41 2.52
  53  0.073  0.167  0.306-  27 2.25  11 2.26  22 2.26  10 2.36  21 2.36
  54  0.167  0.073  0.435-   5 2.04  12 2.06  28 2.25  11 2.36  22 2.36
  55  0.385  0.355  0.050-  17 2.00   6 2.02  38 2.08  13 2.26   7 2.26
  56  0.479  0.261  0.178-  17 2.12  18 2.25   8 2.26  23 2.26   7 2.36  13 2.36
  57  0.281  0.458  0.502-   3 2.03   2 2.09  80 2.58  65 2.58  71 2.59
  58  0.018  0.389  0.462-  12 2.07  16 2.08  15 2.10  11 2.11  72 2.75
  59  0.436  0.472  0.350-  34 2.25   2 2.26  24 2.26   1 2.36  23 2.36
  60  0.260  0.157  0.111-   4 2.07  37 2.08   7 2.10  61 2.73
  61  0.342  0.066  0.221-   8 2.25  27 2.26  48 2.26   4 2.36  37 2.36  60 2.73
  62  0.080  0.491  0.093-   6 2.00  29 2.08  26 2.25   7 2.26  30 2.26
  63  0.174  0.397  0.221-  10 2.25   8 2.26   1 2.26   7 2.36  30 2.36
  64  0.268  0.303  0.350-  11 2.25   2 2.26   9 2.26   1 2.36   8 2.36
  65  0.362  0.209  0.478-   3 2.04  19 2.06  12 2.20   2 2.36   9 2.36  57 2.58
  66  0.573  0.167  0.306-  39 2.25  24 2.26   9 2.26  23 2.36   8 2.36
  67  0.667  0.073  0.435-  19 2.05  25 2.05  40 2.25  24 2.36   9 2.36
  68  0.894  0.346  0.063-  52 2.02  26 2.05  20 2.05
  69  0.979  0.261  0.178-   4 2.25  21 2.26  10 2.26  20 2.36  26 2.36
  70  0.743  0.518  0.540-  43 2.09  50 2.11  16 2.12  93 2.53
  71  0.530  0.378  0.478-   3 2.05  25 2.07  43 2.16  24 2.36   2 2.36  57 2.59
  72  0.936  0.472  0.350-  47 2.25  15 2.26  11 2.26  14 2.36  10 2.36  58 2.75
  73  0.744  0.164  0.103-  44 2.07  18 2.11  20 2.17  51 2.24  17 2.28
  74  0.842  0.066  0.221-  21 2.25  39 2.26  35 2.26  18 2.36  51 2.36
  75  0.571  0.502  0.102-  52 2.07  42 2.11  13 2.15  41 2.26  20 2.30
  76  0.674  0.397  0.221-  23 2.25  21 2.26  14 2.26  20 2.36  42 2.36
  77  0.768  0.303  0.350-  24 2.25  15 2.26  22 2.26  14 2.36  21 2.36
  78  0.862  0.209  0.478-   5 2.04  16 2.07  25 2.14  15 2.36  22 2.36
  79  0.073  0.667  0.306-   1 2.25  36 2.26  47 2.26  35 2.36  46 2.36  80 2.54
  80  0.164  0.576  0.407-  36 2.10  47 2.11   2 2.27  79 2.54  57 2.58
  81  0.353  0.874  0.055-  32 2.05  41 2.09  31 2.17  37 2.19
  82  0.479  0.761  0.178-  41 2.11  42 2.25  33 2.26  48 2.26  32 2.36  37 2.36
  83  0.070  0.169  0.558-  12 2.04  16 2.06   5 2.06
  84  0.018  0.891  0.460-  36 2.08  40 2.09   5 2.12  98 2.70
  85  0.436  0.972  0.350-   9 2.25  28 2.26  49 2.26  27 2.36  48 2.36
  86  0.248  0.660  0.093-  38 2.00  29 2.05  31 2.10  32 2.25  30 2.26  13 2.26
  87  0.342  0.566  0.221-  33 2.25   1 2.26  23 2.26  30 2.36  13 2.36
  88  0.087  0.976  0.101-  32 2.09  31 2.13  51 2.17   4 2.20
  89  0.174  0.897  0.221-  35 2.25  33 2.26  27 2.26  32 2.36   4 2.36
  90  0.268  0.803  0.350-  36 2.25  28 2.26  34 2.26  27 2.36  33 2.36
  91  0.400  0.712  0.468-  34 2.04  43 2.09  28 2.10
  92  0.573  0.667  0.306-  14 2.25  49 2.26  34 2.26  48 2.36  33 2.36
  93  0.667  0.573  0.435-  43 2.02  50 2.03  15 2.25  49 2.36  34 2.36  70 2.53
  94  0.899  0.840  0.061-  44 2.04  29 2.07  45 2.11  51 2.12
  95  0.979  0.761  0.178-  30 2.25  46 2.26  35 2.26  45 2.36  51 2.36
  96  0.601  0.129  0.562-   3 2.05  25 2.05  19 2.05
  97  0.529  0.875  0.465-  49 2.09  50 2.12  19 2.14  28 2.19
  98  0.936  0.972  0.350-  22 2.25  40 2.26  36 2.26  39 2.36  35 2.36  84 2.70
  99  0.748  0.660  0.093-  52 2.04  45 2.25  42 2.26  26 2.26  41 2.32
 100  0.842  0.566  0.221-  46 2.25  14 2.26  10 2.26  42 2.36  26 2.36
 101  0.580  0.991  0.093-  44 2.06  17 2.15  37 2.25  45 2.26  18 2.26
 102  0.674  0.897  0.221-  48 2.25  46 2.26  39 2.26  45 2.36  18 2.36
 103  0.768  0.803  0.350-  49 2.25  40 2.26  47 2.26  39 2.36  46 2.36 104 2.72
 104  0.852  0.723  0.461-  40 2.08  47 2.08  50 2.09 103 2.72

  LATTYP: Found a base centered orthorhombic cell.
 ALAT       =    11.8257374459
 B/A-ratio  =     1.6199260857
 C/A-ratio  =     1.9350716598

  Lattice vectors:

 A1 = (  11.2564630382,   0.0000000000,   0.0000000000)
 A2 = (  -5.0445621212, -10.0628203371,   0.0000000000)
 A3 = (   0.0000000000,   0.0000000000, -22.8836493875)

Analysis of symmetry for initial positions (statically):
 Subroutine PRICEL returns:
 Original cell was already a primitive cell.

 Routine SETGRP: Setting up the symmetry group for a
 base centered orthorhombic supercell.

 Subroutine GETGRP returns: Found  1 space group operations
 (whereof  1 operations were pure point group operations)
 out of a pool of  8 trial point group operations.

The static configuration has the point symmetry C_1 .

Analysis of symmetry for dynamics (positions and initial velocities):
 Subroutine PRICEL returns:
 Original cell was already a primitive cell.

 Routine SETGRP: Setting up the symmetry group for a
 base centered orthorhombic supercell.

 Subroutine GETGRP returns: Found  1 space group operations
 (whereof  1 operations were pure point group operations)
 out of a pool of  8 trial point group operations.

The dynamic configuration has the point symmetry C_1 .

 Subroutine INISYM returns: Found  1 space group operations
 (whereof  1 operations are pure point group operations),
 and found     1 'primitive' translations

 KPOINTS: gamma-point-only calculation. no periodi

Automatic generation of k-mesh.
Space group operators:
 irot       det(A)        alpha          n_x          n_y          n_z        tau_x        tau_y        tau_z
    1     1.000000     0.000001     1.000000     0.000000     0.000000     0.000000     0.000000     0.000000

 Subroutine IBZKPT returns following result:

 Found      1 irreducible k-points:

 Following reciprocal coordinates:
            Coordinates               Weight
  0.000000  0.000000  0.000000      1.000000

 Following cartesian coordinates:
            Coordinates               Weight
  0.000000  0.000000  0.000000      1.000000

 SYSTEM =  "Millerite NiS"
 POSCAR =  Type_052 Type_152

 Startparameter for this run:
   NWRITE =      2    write-flag & timer
   PREC   = normal    normal or accurate (medium, high low for compatibility)
   ISTART =      0    job   : 0-new  1-cont  2-samecut
   ICHARG =      2    charge: 1-file 2-atom 10-const
   ISPIN  =      1    spin polarized calculation?
   LNONCOLLINEAR =      F non collinear calculations
   LSORBIT =      F    spin-orbit coupling
   INIWAV =      1    electr: 0-lowe 1-rand  2-diag
   LASPH  =      F    aspherical Exc in radial PAW
   METAGGA=      F    non-selfconsistent MetaGGA calc.

 Electronic Relaxation 1
   ENCUT  =  450.0 eV  33.07 Ry    5.75 a.u.  19.47 19.47 39.58*2*pi/ulx,y,z
   ENINI  =  450.0     initial cutoff
   ENAUG  =  703.4 eV  augmentation charge cutoff
   NELM   =    100;   NELMIN=  2; NELMDL= -5     # of ELM steps
   EDIFF  = 0.1E-03   stopping-criterion for ELM
   LREAL  =      T    real-space projection
   NLSPLINE    = F    spline interpolate recip. space projectors
   LCOMPAT=      F    compatible to vasp.4.4
   GGA_COMPAT  = T    GGA compatible to vasp.4.4-vasp.4.6
   LMAXPAW     = -100 max onsite density
   LMAXMIX     =    2 max onsite mixed and CHGCAR
   VOSKOWN=      0    Vosko Wilk Nusair interpolation
   ROPT   =   -0.00050  -0.00050
 Ionic relaxation
   EDIFFG = 0.1E-02   stopping-criterion for IOM
   NSW    =      0    number of steps for IOM
   NBLOCK =      1;   KBLOCK =      1    inner block; outer block
   IBRION =     -1    ionic relax: 0-MD 1-quasi-New 2-CG
   NFREE  =      0    steps in history (QN), initial steepest desc. (CG)
   ISIF   =      2    stress and relaxation
   IWAVPR =     10    prediction:  0-non 1-charg 2-wave 3-comb
   ISYM   =      2    0-nonsym 1-usesym 2-fastsym
   LCORR  =      T    Harris-Foulkes like correction to forces

   POTIM  = 0.5000    time-step for ionic-motion
[...]
     0.000000000  0.000000000 22.883649388     0.000000000  0.000000000  0.043699324

  length of vectors
    11.256463038 11.256463038 22.883649388     0.099375718  0.099375718  0.043699324

 FORCES acting on ions
    electron-ion (+dipol)            ewald-force                    non-local-force                 convergence-correction
   0.284E+03 -.441E+03 -.706E+03   -.284E+03 0.441E+03 0.705E+03   0.340E+00 -.631E+00 0.130E+01   0.982E-01 -.674E-01 -.256E+00
   0.407E+03 -.768E+03 -.356E+04   -.407E+03 0.768E+03 0.355E+04   -.454E-01 -.647E-01 0.284E+01   -.668E-01 0.113E-01 0.144E+00
   0.410E+03 -.600E+03 -.600E+04   -.410E+03 0.600E+03 0.601E+04   0.356E+00 0.437E+00 -.623E+01   0.777E-01 -.160E+00 0.327E+00
   0.351E+03 -.602E+03 0.287E+04   -.353E+03 0.605E+03 -.287E+04   0.206E+01 -.256E+01 0.208E+01   0.721E-01 -.110E+00 0.561E-01
   0.137E+03 0.113E+04 -.539E+04   -.139E+03 -.114E+04 0.539E+04   0.198E+01 0.340E+01 -.199E+01   0.921E-01 0.124E+00 0.319E+00
   0.865E+03 0.737E+03 0.612E+04   -.863E+03 -.732E+03 -.612E+04   -.240E+01 -.544E+01 -.210E+01   0.181E+00 0.188E+00 -.695E-01
   0.663E+03 0.630E+03 0.349E+04   -.667E+03 -.631E+03 -.349E+04   0.331E+01 0.169E+01 -.142E+01   0.107E+00 0.260E-01 -.156E+00
   0.324E+03 0.458E+03 0.409E+03   -.326E+03 -.459E+03 -.409E+03   0.142E+01 0.500E+00 0.496E-01   0.187E-01 0.530E-01 -.147E+00
   0.313E+03 0.445E+03 -.240E+04   -.313E+03 -.446E+03 0.240E+04   0.890E+00 0.618E+00 0.247E+01   -.141E+00 -.139E-01 0.482E-02
   -.518E+03 0.141E+02 0.522E+03   0.519E+03 -.136E+02 -.523E+03   -.892E+00 -.459E+00 0.125E+01   0.710E-01 -.442E-01 -.129E+00
   -.592E+03 -.777E+02 -.235E+04   0.594E+03 0.771E+02 0.234E+04   -.184E+01 0.201E+00 0.205E+01   0.793E-01 -.903E-01 0.105E+00
   -.661E+03 0.673E+02 -.528E+04   0.667E+03 -.679E+02 0.528E+04   -.372E+01 0.599E+00 -.189E+01   -.844E-01 -.261E-01 0.315E+00
   -.598E+03 0.302E+02 0.334E+04   0.599E+03 -.295E+02 -.333E+04   -.605E+00 -.916E+00 -.180E+01   -.464E-01 0.489E-01 -.194E+00
   0.198E+03 -.396E+03 -.600E+03   -.199E+03 0.397E+03 0.600E+03   0.667E+00 -.123E+01 0.339E+00   -.279E-01 0.219E-01 -.204E+00
   0.215E+03 -.530E+03 -.331E+04   -.218E+03 0.532E+03 0.331E+04   0.172E+01 -.127E+01 0.565E+00   0.299E-01 -.192E-01 0.338E+00
   -.689E+02 -.440E+03 -.591E+04   0.659E+02 0.444E+03 0.592E+04   0.292E+01 -.258E+01 -.420E+01   0.359E-01 -.103E+00 0.236E+00
   0.136E+03 -.739E+01 0.510E+04   -.135E+03 0.492E+01 -.511E+04   -.115E+00 0.238E+01 0.543E+01   -.761E-01 0.972E-01 -.181E+00
   0.104E+03 -.168E+03 0.212E+04   -.104E+03 0.166E+03 -.211E+04   0.395E+00 0.882E+00 -.362E+01   -.141E+00 0.902E-01 -.112E+00
   0.263E+03 0.847E+03 -.526E+04   -.266E+03 -.853E+03 0.526E+04   0.177E+01 0.483E+01 -.200E+01   0.145E-01 0.123E+00 0.417E+00
   0.589E+02 0.787E+03 0.377E+04   -.604E+02 -.790E+03 -.377E+04   0.586E+00 0.241E+01 0.462E+00   -.102E+00 0.666E-02 -.537E-01
   0.175E+03 0.485E+03 0.537E+03   -.175E+03 -.486E+03 -.538E+03   0.726E+00 0.649E+00 0.103E+01   0.209E-01 -.370E-01 -.156E+00
   0.240E+03 0.584E+03 -.238E+04   -.242E+03 -.584E+03 0.238E+04   0.109E+01 0.389E-01 0.252E+01   0.106E+00 -.701E-01 0.101E+00
   -.515E+03 -.294E+02 0.364E+03   0.516E+03 0.306E+02 -.364E+03   -.125E+01 -.120E+01 0.218E-01   -.165E+00 0.580E-01 -.190E+00
   -.473E+03 -.730E+02 -.238E+04   0.474E+03 0.734E+02 0.238E+04   -.115E+01 -.639E+00 0.281E+01   -.797E-02 0.453E-01 0.415E-01
   -.610E+03 0.319E+03 -.523E+04   0.617E+03 -.320E+03 0.523E+04   -.454E+01 0.117E+01 -.222E+01   -.433E-01 0.284E-01 0.444E+00
   -.688E+03 0.192E+03 0.371E+04   0.692E+03 -.191E+03 -.371E+04   -.296E+01 -.366E+00 0.110E+01   0.829E-01 0.657E-01 -.699E-01
   0.287E+03 -.394E+03 -.637E+03   -.287E+03 0.395E+03 0.638E+03   0.734E+00 -.811E+00 0.197E-01   0.826E-01 -.151E+00 -.252E+00
   0.476E+03 -.279E+03 -.397E+04   -.477E+03 0.282E+03 0.397E+04   0.221E+01 -.242E+01 -.156E+01   -.118E+00 0.187E+00 0.399E-01
   0.750E+03 -.397E+03 0.533E+04   -.752E+03 0.398E+03 -.534E+04   0.241E+01 -.132E+01 0.322E+01   0.183E+00 -.984E-01 -.157E+00
   0.367E+03 -.300E+03 0.212E+04   -.368E+03 0.300E+03 -.211E+04   0.701E+00 0.664E-01 -.220E+01   0.526E-01 0.766E-01 -.177E+00
   0.573E+02 -.789E+03 0.612E+04   -.578E+02 0.789E+03 -.612E+04   0.192E-01 -.453E+00 -.860E+00   0.263E-01 -.182E+00 -.549E-01
   0.182E+03 -.495E+02 0.327E+04   -.183E+03 0.484E+02 -.326E+04   0.141E+01 0.317E+00 -.161E+01   0.514E-01 -.128E+00 -.129E+00
   0.284E+03 0.395E+03 0.307E+03   -.286E+03 -.396E+03 -.307E+03   0.162E+01 0.575E+00 0.110E+00   0.388E-01 0.239E+00 -.172E+00
   0.460E+03 0.329E+03 -.265E+04   -.462E+03 -.332E+03 0.264E+04   0.278E+01 0.169E+01 0.146E+01   -.893E-01 0.148E-01 -.698E-01
   -.530E+03 -.328E+02 0.368E+03   0.530E+03 0.335E+02 -.369E+03   -.814E+00 -.635E+00 0.168E+01   0.869E-01 -.479E-01 -.155E+00
   -.536E+03 0.148E+03 -.310E+04   0.542E+03 -.147E+03 0.311E+04   -.491E+01 -.639E+00 -.266E+01   0.921E-01 0.429E-01 -.978E-01
   -.393E+03 -.369E+03 0.392E+04   0.395E+03 0.372E+03 -.392E+04   -.136E+01 -.263E+01 0.215E+01   -.131E-01 -.125E+00 -.300E-01
   -.702E+03 0.225E+02 0.621E+04   0.696E+03 -.219E+02 -.621E+04   0.594E+01 -.408E+00 -.635E+00   -.142E+00 0.449E-01 -.797E-02
   0.200E+03 -.341E+03 -.657E+03   -.201E+03 0.342E+03 0.657E+03   0.794E+00 -.117E+01 0.531E+00   0.185E-01 -.650E-01 -.227E+00
   0.287E+02 -.811E+02 -.403E+04   -.308E+02 0.841E+02 0.403E+04   0.122E+01 -.185E+01 -.526E+01   -.175E-01 0.669E-01 0.149E+00
   -.219E+03 -.277E+03 0.515E+04   0.218E+03 0.278E+03 -.516E+04   0.109E+01 -.132E+01 0.677E+01   -.110E+00 0.596E-01 -.124E+00
   -.186E+02 -.208E+03 0.214E+04   0.205E+02 0.208E+03 -.214E+04   -.108E+01 -.331E+00 -.331E+01   -.155E+00 0.182E+00 -.121E+00
   0.562E+03 -.241E+03 -.552E+04   -.565E+03 0.238E+03 0.552E+04   0.186E+01 0.309E+01 -.224E+01   0.220E-01 -.873E-01 0.360E+00
   -.670E+02 -.808E+02 0.636E+04   0.681E+02 0.810E+02 -.637E+04   -.985E+00 0.210E+00 0.462E+01   -.885E-01 0.418E-01 -.169E+00
   0.395E+03 0.597E+03 0.365E+04   -.398E+03 -.599E+03 -.365E+04   0.157E+01 0.143E+01 -.112E+00   -.406E-01 -.730E-01 -.809E-01
   0.224E+03 0.466E+03 0.385E+03   -.225E+03 -.466E+03 -.387E+03   0.919E+00 0.339E+00 0.188E+01   0.630E-01 0.607E-01 -.185E+00
   0.157E+02 0.415E+03 -.301E+04   -.191E+02 -.419E+03 0.301E+04   0.249E+01 0.355E+01 -.219E+01   -.736E-02 -.461E-01 -.314E-01
   -.499E+03 -.497E+02 0.398E+03   0.501E+03 0.507E+02 -.397E+03   -.142E+01 -.915E+00 -.548E-01   -.309E+00 0.547E-01 -.166E+00
   -.451E+03 -.239E+02 -.250E+04   0.454E+03 0.243E+02 0.250E+04   -.248E+01 -.724E+00 0.284E+01   -.720E-02 0.686E-01 -.617E-01
   -.488E+03 -.333E+03 -.551E+04   0.494E+03 0.336E+03 0.551E+04   -.482E+01 -.203E+01 -.163E+01   -.267E-01 -.641E-01 0.354E+00
   -.762E+03 -.277E+03 0.362E+04   0.768E+03 0.277E+03 -.362E+04   -.493E+01 -.297E+00 0.650E+00   0.687E-01 -.114E+00 -.739E-01
   -.131E+03 0.146E+03 0.632E+04   0.132E+03 -.149E+03 -.632E+04   -.164E+01 0.309E+01 0.563E+01   -.133E+00 0.173E+00 -.120E+00
   -.770E+02 0.133E+03 -.162E+03   0.782E+02 -.135E+03 0.161E+03   -.128E+01 0.206E+01 0.140E+01   0.871E-01 -.110E+00 -.112E+00
   -.133E+03 0.305E+03 -.134E+04   0.134E+03 -.307E+03 0.133E+04   0.396E-01 0.857E+00 -.748E+00   0.151E-01 0.148E-01 0.120E+00
   -.126E+03 0.326E+03 0.224E+04   0.127E+03 -.329E+03 -.224E+04   -.761E+00 0.239E+01 0.244E+01   -.587E-02 0.501E-01 -.711E-01
   -.395E+02 0.882E+02 0.768E+03   0.404E+02 -.892E+02 -.766E+03   -.111E+01 0.144E+01 -.609E+00   -.199E-01 0.219E-01 0.209E-02
   0.271E+03 -.543E+03 -.207E+04   -.274E+03 0.547E+03 0.208E+04   0.121E+01 -.105E+01 -.244E+01   0.331E-01 -.801E-01 0.123E+00
   -.350E+03 -.487E+03 -.176E+04   0.353E+03 0.493E+03 0.176E+04   -.164E+01 -.375E+01 -.238E+00   -.219E-01 -.706E-01 0.169E+00
   -.453E+02 -.203E+03 -.688E+03   0.460E+02 0.206E+03 0.688E+03   -.186E+00 -.274E+01 0.792E-01   -.648E-01 0.156E-01 -.135E+00
   0.151E+03 -.949E+02 0.183E+04   -.152E+03 0.967E+02 -.183E+04   0.752E+00 -.563E+00 0.341E+01   0.201E-01 -.194E-01 -.355E-01
[...]
   0.400E+03 -.120E+03 -.207E+04   -.405E+03 0.121E+03 0.207E+04   0.234E+01 0.163E+00 -.115E+01   0.435E-02 -.199E-01 0.147E+00
   -.682E+02 0.110E+03 -.213E+03   0.695E+02 -.112E+03 0.212E+03   -.114E+01 0.176E+01 0.164E+01   -.552E-01 0.592E-01 -.179E+00
   -.603E+02 0.682E+02 -.126E+04   0.620E+02 -.707E+02 0.125E+04   -.111E+01 0.120E+01 0.200E+01   -.134E-02 -.422E-01 0.153E+00
   0.110E+02 0.851E+02 0.225E+04   -.113E+02 -.866E+02 -.225E+04   0.961E+00 0.593E+00 0.156E+01   0.522E-01 -.880E-01 -.625E-01
   -.389E+02 0.999E+02 0.879E+03   0.398E+02 -.101E+03 -.881E+03   -.943E+00 0.115E+01 0.274E+01   0.356E-01 -.166E-01 -.115E-01
   -.103E+03 0.296E+03 -.244E+04   0.104E+03 -.297E+03 0.244E+04   0.160E+00 -.318E+00 -.347E+00   -.242E-01 0.607E-01 0.419E-01
   0.684E+02 -.888E+02 -.194E+04   -.682E+02 0.909E+02 0.194E+04   -.268E+00 -.663E+00 -.950E+00   0.556E-02 0.381E-01 0.144E+00
   -.834E+02 -.936E+02 -.682E+03   0.847E+02 0.967E+02 0.682E+03   -.149E+01 -.278E+01 -.661E+00   0.126E-01 -.238E-01 -.101E+00
   -.238E+03 -.219E+03 0.187E+04   0.241E+03 0.221E+03 -.188E+04   -.213E+01 -.392E+00 0.326E+01   -.442E-01 0.501E-01 -.490E-01
   -.958E+02 -.135E+03 0.470E+03   0.968E+02 0.137E+03 -.470E+03   -.942E+00 -.249E+01 0.618E+00   0.137E-01 0.297E-01 -.240E-01
   0.346E+03 0.139E+03 0.190E+04   -.349E+03 -.141E+03 -.190E+04   0.146E+01 0.105E+01 0.278E+01   -.309E-01 0.286E-01 -.483E-01
   0.165E+03 0.109E+02 0.456E+03   -.168E+03 -.105E+02 -.456E+03   0.284E+01 -.377E+00 0.543E+00   -.554E-01 -.153E-01 -.637E-02
   0.125E+03 0.118E+02 -.683E+03   -.129E+03 -.118E+02 0.683E+03   0.357E+01 0.341E+00 -.398E+00   0.120E-01 0.230E-01 -.937E-01
   -.184E+03 0.829E+02 -.201E+04   0.186E+03 -.843E+02 0.201E+04   -.125E+01 0.616E+00 -.159E+01   -.299E-01 -.120E-01 0.121E+00
   -.991E+01 0.130E+02 -.273E+02   0.216E-11 0.240E-11 0.136E-11   0.999E+01 -.132E+02 0.284E+02   -.248E+00 0.299E+00 -.111E+01

 POSITION                                       TOTAL-FORCE (eV/Angst)
      5.35228      4.81788      6.64784         0.111343     -0.246493     -0.115706
      5.93595      3.87238      9.58390         0.265476     -0.179313     -0.725206
      6.47672      2.98468     12.19087         0.110522      0.330789      2.114213
      2.24633      0.73197      3.71178        -0.483347      0.020102      1.312494
      0.74652      0.53773     11.31512        -0.773867     -2.106428      0.341460
      4.35020      4.30553      0.50464        -0.424769     -0.251315     -1.189488
      4.76861      3.35453      2.93606         0.083643      0.185644      0.925248
      5.35228      2.40903      5.87212        -0.178178     -0.064501      0.078785
      5.93595      1.46353      8.80817         0.167830      0.003287     -0.234626
      1.87746      3.73836      5.87212         0.023538     -0.040950      0.005630
      2.46113      2.79286      8.80817         0.170406     -0.480565     -1.024251
      2.95928      2.13695     11.26971         2.178688     -0.012331      0.426406
      6.92203      4.68386      2.93606        -0.030665     -0.205873      0.612767
     10.98051      4.81788      6.64784         0.093827     -0.213678      0.014674
     11.56418      3.87238      9.58390        -0.862888     -0.032462     -1.384018
     11.99206      3.38449     11.99882        -0.085673      1.210831      1.121927
      6.96133      2.01053      2.06313         0.399338     -0.000911     -0.846272
      7.87456      0.73197      3.71178         0.071677     -0.889019      2.488700
      6.36131      0.49045     11.30297        -1.088813     -1.653195     -0.226725
     10.39684      3.35453      2.93606        -1.007977     -0.671194      1.659289
     10.98051      2.40903      5.87212         0.047890      0.119666      0.024599
     11.56418      1.46353      8.80817         0.091022      0.200555     -0.303170
      7.50570      3.73836      5.87212         0.179082      0.037835      0.064954
      8.08937      2.79286      8.80817         0.002506     -0.175117     -0.162635
      8.67099      1.94957     11.39019         2.303259      0.224922      0.046877
     12.55026      4.68386      2.93606         1.218344      0.555824      1.606724
      7.87456      9.84929      6.64784         0.109450     -0.214773     -0.114859
      8.45823      8.90379      9.58390         0.168225      0.720631     -0.716782
      4.21345      6.70383      1.38338        -0.119083      0.323550     -1.586472
      4.76861      5.76338      3.71178        -0.149616     -0.122408      0.459734
      6.30106      8.31074      0.86919        -0.517676     -0.383971     -1.469438
      7.29089      8.38594      2.93606         0.255459     -0.894165      3.651833
      7.87456      7.44044      5.87212        -0.116618     -0.012159      0.073975
      8.45823      6.49494      8.80817         0.384082     -0.573192     -1.695981
      4.39975      8.76977      5.87212        -0.222387     -0.000609      0.064705
      4.98341      7.82427      8.80817         0.598946      0.665632     -1.605693
      9.44431      9.71527      2.93606         0.690939     -0.386252      0.790023
      6.42391      5.51976      0.49221         0.283914      0.253029     -0.867820
     13.50279      9.84929      6.64784         0.133529     -0.246773      0.013896
     14.08646      8.90379      9.58390        -0.835310      1.279442     -1.491652
      9.50587      7.22261      2.03344         0.628002     -0.395900     -0.925782
     10.39684      5.76338      3.71178         0.649009      0.092244      2.027063
      9.09990      5.50048     11.46944        -0.823400     -0.214178      0.895233
      8.31357      0.15405      1.21671         0.031116      0.471452     -2.007558
     12.91912      8.38594      2.93606        -0.581083     -0.760119      1.240664
     13.50279      7.44044      5.87212         0.139461      0.122962      0.012025
     14.08646      6.49494      8.80817        -0.897606     -0.209730     -1.437982
     10.02798      8.76977      5.87212        -0.002284      0.136226     -0.019299
     10.61165      7.82427      8.80817        -0.085274     -0.266085     -1.435614
     11.29225      7.00550     11.27610         0.353372      0.548497      0.910937
     15.07254      9.71527      2.93606         0.868771     -0.016112      1.586360
     10.69277      5.14642      1.22390        -0.800453      0.407591     -1.896704
      1.66190      1.67871      7.01153         0.012427     -0.095696     -0.110470
      2.24556      0.73321      9.94759         1.101289     -1.379889     -2.249257
      6.12279      3.56972      1.13942         0.419523      0.005471     -2.148322
      6.70646      2.62422      4.07548        -0.173169      0.400031      1.316212
      5.47633      4.60963     11.48580        -1.863494      2.996579      1.626791
      2.16033      3.91149     10.57687         1.539057      2.401774      0.387935
      7.29013      4.74605      7.99931         0.441518     -0.212106     -0.283379
      3.72166      1.57715      2.53453        -0.378006      1.137263     -2.095012
[...]
      7.07033      8.08475      7.99931        -0.050837      0.299813     -0.176827
      8.09556      7.16639     10.69927        -2.997270      0.296673      2.479602
      9.81241      6.71012      7.01153         0.132915     -0.224120     -0.120321
     10.39608      5.76462      9.94759         0.559690     -1.353477     -3.454562
     14.35794      8.45195      1.39244         0.662316     -0.977008     -2.423926
     14.85697      7.65563      4.07548        -0.044414     -0.086928      0.838015
      7.41139      1.29617     12.86930         0.680589     -1.798175      4.279612
     10.37223      8.80261     10.64339        -0.035625      1.410446      2.147991
     15.44064      9.77746      7.99931        -0.137556      0.293634     -0.597534
     11.75102      6.63706      2.12720         0.887563      1.716987      0.073983
     12.33469      5.69156      5.06325         0.100112      0.145363     -0.006809
     11.53122      9.97575      2.12720        -1.848606     -0.811521     -0.075883
     12.11489      9.03025      5.06325        -0.187922     -0.034803     -0.048923
     12.69856      8.08475      7.99931        -0.058465      0.301663     -0.590049
     13.23196      7.27158     10.54284         0.512859     -0.765779      2.723707
    total drift:                               -0.168443      0.025110     -0.060772

  FREE ENERGIE OF THE ION-ELECTRON SYSTEM (eV)
  free  energy   TOTEN  =      -511.38734224 eV

  energy  without entropy=     -509.97167602  energy(sigma->0) =     -510.67950913