 vasp.5.4.4.18Apr17-6-g9f103f2a35 (build Aug 13 2019 17:33:20) gamma-only

 executed on             LinuxIFC date 2020.05.12  02:09:16

 INCAR:
 POTCAR:    PAW_PBE Ni_pv 06Sep2000
 POTCAR:    PAW_PBE S 06Sep2000
 POTCAR:    PAW_PBE Ni_pv 06Sep2000
   VRHFIN =Ni:

   TITEL  = PAW_PBE Ni_pv 06Sep2000
   POMASS =   58.690; ZVAL   =   16.000    mass and valenz
   ENMAX  =  367.986; ENMIN  =  275.989 eV

 POTCAR:    PAW_PBE S 06Sep2000
   VRHFIN =S : s2p4

   TITEL  = PAW_PBE S 06Sep2000
   POMASS =   32.066; ZVAL   =    6.000    mass and valenz
   ENMAX  =  258.689; ENMIN  =  194.016 eV

 Optimization of the real space projectors (new method)

 maximal supplied QI-value         = 18.90
 optimisation between [QCUT,QGAM] = [ 10.77, 21.73] = [ 32.49,132.25] Ry
 Optimized for a Real-space Cutoff    1.38 Angstroem

   l    n(q)    QCUT    max X(q) W(low)/X(q) W(high)/X(q)  e(spline)
   1      8    10.771     2.836    0.40E-04    0.29E-04    0.12E-06
   1      8    10.771     4.023    0.10E-03    0.48E-04    0.29E-06
   2      8    10.771    73.368    0.42E-03    0.97E-04    0.44E-06
   2      8    10.771    69.010    0.42E-03    0.99E-04    0.45E-06
   0      9    10.771    54.797    0.10E-03    0.56E-04    0.74E-07
   0      9    10.771    24.266    0.89E-04    0.49E-04    0.67E-07
 Optimization of the real space projectors (new method)

 maximal supplied QI-value         = 19.84
 optimisation between [QCUT,QGAM] = [ 10.71, 21.63] = [ 32.15,130.99] Ry
 Optimized for a Real-space Cutoff    1.19 Angstroem

   l    n(q)    QCUT    max X(q) W(low)/X(q) W(high)/X(q)  e(spline)
   0      8    10.715   187.594    0.41E-03    0.53E-04    0.66E-07
   0      8    10.715   164.243    0.41E-03    0.53E-04    0.65E-07
   1      7    10.715    67.533    0.19E-03    0.59E-03    0.68E-07
   1      7    10.715    50.729    0.19E-03    0.58E-03    0.67E-07
  PAW_PBE Ni_pv 06Sep2000               :
  PAW_PBE S 06Sep2000                   :

 POSCAR: Type_037 Type_137
  positions in cartesian coordinates
 exchange correlation table for  LEXCH =        8
   RHO(1)=    0.500       N(1)  =     2000
   RHO(2)=  100.500       N(2)  =     4000

 ion  position               nearest neighbor table
   1  0.780  0.145  0.123-  51 2.06  65 2.07  66 2.25  42 2.25  52 2.41  13 2.51
   2  0.216  0.654  0.099-  44 2.03  45 2.11  53 2.26  63 2.38   3 2.39  28 2.47
   3  0.297  0.645  0.216-  64 2.11  54 2.12  45 2.25  53 2.26  63 2.26   2 2.39  29 2.53  16 2.53

   4  0.391  0.144  0.129-  47 2.04  48 2.08  69 2.28  55 2.29   5 2.37  18 2.44
   5  0.470  0.145  0.247-  70 2.08  56 2.10  55 2.26  69 2.26   4 2.37  48 2.40  32 2.53  19 2.53

   6  0.952  0.645  0.154-  68 2.07  58 2.07  49 2.25  57 2.36  67 2.36  33 2.53  20 2.53
   7  0.975  0.645  0.318-  46 2.05  67 2.06  57 2.06  50 2.10
   8  0.171  0.148  0.047-  47 2.00  73 2.05  59 2.05   9 2.43
   9  0.125  0.145  0.185-  60 2.13  59 2.14  73 2.16  39 2.25  10 2.35  74 2.36   8 2.43  35 2.53
                            22 2.53
  10  0.062  0.082  0.305-  38 2.03  60 2.08  74 2.20   9 2.35  39 2.43  14 2.44
  11  0.570  0.633  0.161-  40 2.00  71 2.12  41 2.19  61 2.29  12 2.30
  12  0.642  0.645  0.278-  62 2.03  72 2.03  41 2.25  61 2.26  71 2.26  11 2.30  37 2.53  25 2.53

  13  0.903  0.000  0.118-  65 2.05  58 2.09  66 2.13  39 2.31  14 2.43   1 2.51
  14  0.932  0.002  0.261-  38 2.05  66 2.13  39 2.14  57 2.18  13 2.43  10 2.44
  15  0.452  0.439  0.057-  55 2.08  40 2.09  16 2.40  31 2.53  28 2.54  63 2.63
  16  0.425  0.513  0.192-  64 2.10  55 2.25  40 2.26  63 2.26  41 2.36  15 2.40  17 2.47   3 2.53
                            29 2.53
  17  0.459  0.478  0.334-  56 2.01  64 2.02  41 2.05  16 2.47
  18  0.531  0.143  0.091-  42 2.02  69 2.05  55 2.09   4 2.44  31 2.47
  19  0.597  0.013  0.222-  43 2.03  70 2.08  61 2.25  69 2.26  42 2.26  32 2.53   5 2.53
  20  0.080  0.513  0.130-  44 2.06  68 2.09  59 2.11  67 2.36  45 2.36   6 2.53  33 2.53
  21  0.112  0.498  0.292-  67 2.04  46 2.05  45 2.11  60 2.14
  22  0.252  0.013  0.161-  73 2.14  47 2.15  48 2.22  53 2.25  74 2.36  23 2.42   9 2.53  35 2.53

[...]

  38  0.956  0.130  0.357-  10 2.03  27 2.04  14 2.05
  39  0.991  0.145  0.183-  27 2.06  14 2.14  26 2.21   9 2.25  13 2.31  10 2.43
  40  0.474  0.645  0.091-  11 2.00  28 2.02  15 2.09  16 2.26  29 2.26
  41  0.509  0.645  0.276-  17 2.05  30 2.07  11 2.19  12 2.25  29 2.36  16 2.36
  42  0.647  0.145  0.122-  18 2.02   1 2.25  19 2.26  32 2.26  31 2.43  43 2.77
  43  0.667  0.145  0.287-  19 2.03  32 2.03  42 2.77  70 2.79
  44  0.112  0.645  0.038-   2 2.03  33 2.06  20 2.06
  45  0.164  0.645  0.214-  34 2.10  21 2.11   2 2.11   3 2.25  33 2.36  20 2.36
  46  0.080  0.639  0.379-  21 2.05   7 2.05  34 2.05
  47  0.289  0.146  0.064-   8 2.00   4 2.04  35 2.14  22 2.15
  48  0.328  0.151  0.236-  23 2.06   4 2.08  35 2.16  22 2.22   5 2.40
  49  0.819  0.645  0.153-  36 2.20   6 2.25  25 2.26  37 2.26  24 2.39  50 2.72
  50  0.851  0.646  0.313-   7 2.10  37 2.11  25 2.11  49 2.72
  51  0.818  0.291  0.041-  24 2.02  26 2.06   1 2.06
  52  0.826  0.317  0.218-  26 2.09  24 2.11  25 2.19  27 2.25   1 2.41
  53  0.312  0.814  0.122-  28 2.04  22 2.25   3 2.26  29 2.26   2 2.26
  54  0.352  0.787  0.297-  23 2.03  30 2.05   3 2.12  29 2.15
  55  0.484  0.314  0.153-  15 2.08  18 2.09  31 2.18  16 2.25   5 2.26  32 2.26   4 2.29
  56  0.520  0.298  0.321-  17 2.01   5 2.10  32 2.10
  57  0.001  0.814  0.246-  34 2.06   7 2.06  14 2.18  33 2.36   6 2.36  58 2.76
  58  0.967  0.822  0.084-   6 2.07  13 2.09  33 2.10  57 2.76
  59  0.142  0.324  0.111-   8 2.05  35 2.10  20 2.11   9 2.14
  60  0.117  0.275  0.289-  10 2.08   9 2.13  21 2.14
  61  0.657  0.814  0.184-  36 2.24  19 2.25  37 2.26  12 2.26  11 2.29
  62  0.695  0.793  0.347-  37 2.02  12 2.03  72 2.78
  63  0.312  0.477  0.122-  28 2.04  35 2.25   3 2.26  16 2.26   2 2.38  15 2.63
  64  0.348  0.491  0.290-  17 2.02  16 2.10   3 2.11
  65  0.810  0.995  0.039-  36 2.02  13 2.05   1 2.07
  66  0.817  0.978  0.210-  36 2.09  14 2.13  13 2.13  37 2.20   1 2.25
  67  0.001  0.477  0.246-  21 2.04   7 2.06  27 2.15  20 2.36   6 2.36  68 2.75
  68  0.967  0.469  0.084-   6 2.07  20 2.09  26 2.10  67 2.75
  69  0.484  0.977  0.153-  18 2.05  29 2.25   5 2.26  19 2.26   4 2.28
  70  0.526  0.007  0.324-  30 2.00  19 2.08   5 2.08  43 2.79
  71  0.657  0.477  0.184-  31 2.10  11 2.12  24 2.20  32 2.25  25 2.26  12 2.26
  72  0.697  0.503  0.349-  25 2.02  12 2.03  62 2.78
  73  0.140  0.969  0.106-   8 2.05  33 2.13  22 2.14   9 2.16
  74  0.174  0.977  0.276-  23 2.08  34 2.13  10 2.20   9 2.36  22 2.36

  LATTYP: Found a simple orthorhombic cell.
 ALAT       =     9.5784100000
 B/A-ratio  =     1.7387693453
 C/A-ratio  =     1.7627867312

  Lattice vectors:

 A1 = (   0.0000000000,   9.5784100000,   0.0000000000)
 A2 = (   0.0000000000,   0.0000000000, -16.6546456851)
 A3 = ( -16.8846940542,   0.0000000000,   0.0000000000)

Analysis of symmetry for initial positions (statically):
 Subroutine PRICEL returns:
 Original cell was already a primitive cell.

 Routine SETGRP: Setting up the symmetry group for a
 simple orthorhombic supercell.

 Subroutine GETGRP returns: Found  1 space group operations
 (whereof  1 operations were pure point group operations)
 out of a pool of  8 trial point group operations.

The static configuration has the point symmetry C_1 .

Analysis of symmetry for dynamics (positions and initial velocities):
 Subroutine PRICEL returns:
 Original cell was already a primitive cell.

 Routine SETGRP: Setting up the symmetry group for a
 simple orthorhombic supercell.

 Subroutine GETGRP returns: Found  1 space group operations
 (whereof  1 operations were pure point group operations)
 out of a pool of  8 trial point group operations.

The dynamic configuration has the point symmetry C_1 .

 Subroutine INISYM returns: Found  1 space group operations
 (whereof  1 operations are pure point group operations),
 and found     1 'primitive' translations

 KPOINTS: gamma-point-only calculation. no periodi

Automatic generation of k-mesh.
Space group operators:
 irot       det(A)        alpha          n_x          n_y          n_z        tau_x        tau_y        tau_z
    1     1.000000     0.000000     1.000000     0.000000     0.000000     0.000000     0.000000     0.000000

 Subroutine IBZKPT returns following result:

 Found      1 irreducible k-points:

 Following reciprocal coordinates:
            Coordinates               Weight
  0.000000  0.000000  0.000000      1.000000

 Following cartesian coordinates:
            Coordinates               Weight
  0.000000  0.000000  0.000000      1.000000

 SYSTEM =  "Millerite NiS"
 POSCAR =  Type_037 Type_137

 Startparameter for this run:
   NWRITE =      2    write-flag & timer
   PREC   = normal    normal or accurate (medium, high low for compatibility)
   ISTART =      0    job   : 0-new  1-cont  2-samecut
   ICHARG =      2    charge: 1-file 2-atom 10-const
   ISPIN  =      1    spin polarized calculation?
   LNONCOLLINEAR =      F non collinear calculations
   LSORBIT =      F    spin-orbit coupling
   INIWAV =      1    electr: 0-lowe 1-rand  2-diag
   LASPH  =      F    aspherical Exc in radial PAW
   METAGGA=      F    non-selfconsistent MetaGGA calc.

 Electronic Relaxation 1
   ENCUT  =  450.0 eV  33.07 Ry    5.75 a.u.  29.20 16.57 28.81*2*pi/ulx,y,z
   ENINI  =  450.0     initial cutoff
   ENAUG  =  703.4 eV  augmentation charge cutoff
   NELM   =    100;   NELMIN=  2; NELMDL= -5     # of ELM steps
   EDIFF  = 0.1E-03   stopping-criterion for ELM
   LREAL  =      T    real-space projection
   NLSPLINE    = F    spline interpolate recip. space projectors
   LCOMPAT=      F    compatible to vasp.4.4
   GGA_COMPAT  = T    GGA compatible to vasp.4.4-vasp.4.6
   LMAXPAW     = -100 max onsite density
   LMAXMIX     =    2 max onsite mixed and CHGCAR
   VOSKOWN=      0    Vosko Wilk Nusair interpolation
   ROPT   =   -0.00050  -0.00050
 Ionic relaxation
   EDIFFG = 0.1E-02   stopping-criterion for IOM
   NSW    =      0    number of steps for IOM
   NBLOCK =      1;   KBLOCK =      1    inner block; outer block
   IBRION =     -1    ionic relax: 0-MD 1-quasi-New 2-CG
   NFREE  =      0    steps in history (QN), initial steepest desc. (CG)
   ISIF   =      2    stress and relaxation
   IWAVPR =     10    prediction:  0-non 1-charg 2-wave 3-comb
   ISYM   =      2    0-nonsym 1-usesym 2-fastsym
   LCORR  =      T    Harris-Foulkes like correction to forces

   POTIM  = 0.5000    time-step for ionic-motion
   TEIN   =    0.0    initial temperature
   TEBEG  =    0.0;   TEEND  =   0.0 temperature during run
   SMASS  =  -3.00    Nose mass-parameter (am)
   estimated Nose-frequenzy (Omega)   =  0.10E-29 period in steps =****** mass=  -0.652E-26a.u.
   SCALEE = 1.0000    scale energy and forces
   NPACO  =    256;   APACO  = 16.0  distance and # of slots for P.C.
   PSTRESS=    0.0 pullay stress

  Mass of Ions in am
   POMASS =  58.69 32.07
  Ionic Valenz
   ZVAL   =  16.00  6.00
  Atomic Wigner-Seitz radii
  virtual crystal weights
   VCA    =   1.00  1.00
   NELECT =     814.0000    total number of electrons
[...]
     0.000000000  9.578410000  0.000000000     0.000000000  0.104401461  0.000000000
     0.000000000  0.000000000 16.654645685     0.000000000  0.000000000  0.060043307

  length of vectors
    16.884694054  9.578410000 16.654645685     0.059225237  0.104401461  0.060043307

 FORCES acting on ions
    electron-ion (+dipol)            ewald-force                    non-local-force                 convergence-correction
   0.550E+03 0.109E+03 0.161E+04   -.553E+03 -.108E+03 -.161E+04   0.291E+01 -.233E+00 0.234E+01   0.238E-02 -.186E-01 0.707E-03
   0.151E+03 0.774E+01 0.279E+04   -.151E+03 -.755E+01 -.279E+04   0.118E+01 -.229E+00 0.772E+01   0.218E-01 0.390E-02 -.171E-03
   0.522E+03 0.155E+03 -.135E+04   -.524E+03 -.155E+03 0.135E+04   0.194E+01 0.152E+00 -.434E+01   0.972E-02 0.185E-02 -.126E-01
   0.969E+02 0.226E+03 0.209E+04   -.947E+02 -.227E+03 -.210E+04   -.153E+01 0.150E+01 0.353E+01   -.104E-01 0.789E-03 -.418E-03
   0.359E+03 0.498E+02 -.210E+04   -.363E+03 -.514E+02 0.211E+04   0.256E+01 0.126E+01 -.646E+01   -.758E-02 0.824E-02 -.484E-03
   0.721E+03 0.313E+02 0.131E+04   -.726E+03 -.312E+02 -.131E+04   0.503E+01 -.493E-01 0.413E+01   0.180E-02 0.653E-02 -.277E-02
   0.657E+03 0.554E+02 -.331E+04   -.662E+03 -.556E+02 0.332E+04   0.338E+01 0.153E+00 -.415E+01   0.914E-02 -.578E-02 -.255E-02
   0.460E+03 -.270E+02 0.410E+04   -.464E+03 0.270E+02 -.410E+04   0.295E+01 0.722E-01 0.403E+01   0.694E-02 -.561E-02 0.307E-02
   0.370E+03 -.177E+03 0.150E+03   -.371E+03 0.178E+03 -.150E+03   0.579E+00 -.933E+00 0.512E+00   0.142E-01 -.251E-03 -.113E-01
   -.218E+03 0.167E+02 -.326E+04   0.218E+03 -.176E+02 0.327E+04   0.319E+00 0.213E+00 -.573E+01   0.684E-02 0.417E-02 -.929E-02
   -.556E+03 -.546E+03 0.152E+04   0.560E+03 0.547E+03 -.152E+04   -.281E+01 -.112E+01 0.320E+01   -.203E-01 0.496E-02 -.566E-02
   0.493E+02 -.118E+03 -.245E+04   -.525E+02 0.119E+03 0.246E+04   0.235E+01 -.138E+00 -.705E+01   -.104E-01 0.256E-02 -.157E-03
   -.310E+03 0.133E+03 0.239E+04   0.316E+03 -.136E+03 -.239E+04   -.451E+01 0.339E+01 0.393E+01   -.962E-03 -.189E-02 0.236E-02
   0.647E+03 0.282E+03 -.211E+04   -.649E+03 -.285E+03 0.212E+04   0.202E+01 0.261E+01 -.365E+01   -.620E-02 -.323E-02 -.733E-02
   -.347E+02 0.225E+03 0.396E+04   0.385E+02 -.224E+03 -.396E+04   -.403E+01 -.182E+01 -.862E+00   -.180E-01 0.115E-01 -.237E-03
   0.357E+02 0.414E+03 -.300E+03   -.368E+02 -.417E+03 0.302E+03   0.135E+01 0.290E+01 -.238E+01   -.980E-02 0.553E-02 -.147E-01
   0.605E+02 0.275E+03 -.389E+04   -.607E+02 -.278E+03 0.389E+04   0.574E+00 0.328E+01 0.238E+01   -.514E-02 -.243E-02 -.225E-02
   -.323E+03 0.744E+03 0.343E+04   0.322E+03 -.746E+03 -.344E+04   0.388E-01 0.160E+01 0.532E+01   -.126E-01 0.372E-02 0.299E-02
   -.694E+03 0.564E+03 -.794E+03   0.698E+03 -.570E+03 0.795E+03   -.343E+01 0.513E+01 -.282E+01   -.492E-02 0.183E-02 -.145E-02
   0.948E+02 0.592E+03 0.190E+04   -.964E+02 -.595E+03 -.191E+04   0.168E+01 0.270E+01 0.472E+01   0.123E-01 -.155E-02 0.539E-02
   -.572E+03 0.567E+03 -.277E+04   0.575E+03 -.571E+03 0.278E+04   -.165E+01 0.216E+01 -.438E+01   0.142E-01 -.787E-02 -.656E-04
   -.122E+03 0.445E+03 0.903E+03   0.123E+03 -.449E+03 -.904E+03   0.160E+00 0.391E+01 0.535E+00   0.300E-02 -.199E-02 -.431E-02
   -.122E+01 -.226E+03 -.328E+04   0.182E+01 0.223E+03 0.328E+04   -.100E+01 0.305E+01 0.158E+01   0.446E-02 0.223E-03 -.118E-01
   0.116E+03 -.390E+03 0.233E+04   -.117E+03 0.391E+03 -.234E+04   0.609E+00 -.445E+00 0.627E+01   -.794E-03 -.258E-02 -.194E-02
   -.303E+03 0.449E+03 -.185E+04   0.306E+03 -.452E+03 0.185E+04   -.255E+01 0.309E+01 -.597E+01   -.499E-02 0.494E-02 0.833E-02
   -.317E+03 -.164E+03 0.215E+04   0.322E+03 0.167E+03 -.216E+04   -.426E+01 -.317E+01 0.484E+01   0.128E-01 -.123E-01 -.351E-02
   0.447E+03 -.383E+03 -.236E+04   -.449E+03 0.386E+03 0.237E+04   0.110E+01 -.162E+01 -.508E+01   0.816E-02 -.210E-02 -.470E-02
   -.319E+01 -.396E+03 0.391E+04   0.131E+01 0.397E+03 -.391E+04   0.154E+01 -.594E+00 0.490E+01   0.675E-02 -.280E-02 0.684E-02
   -.333E+03 -.663E+03 0.342E+03   0.333E+03 0.667E+03 -.343E+03   0.695E+00 -.440E+01 -.505E+00   -.133E-01 -.560E-02 -.144E-01
   -.209E+03 -.214E+03 -.368E+04   0.211E+03 0.217E+03 0.368E+04   -.207E+01 -.408E+01 0.238E+01   -.126E-01 -.582E-02 -.102E-01
   -.748E+03 -.280E+03 0.323E+04   0.746E+03 0.279E+03 -.323E+04   0.240E+01 0.380E+00 0.227E+01   -.247E-01 -.110E-03 0.430E-02
   -.732E+03 -.123E+03 -.139E+04   0.737E+03 0.127E+03 0.140E+04   -.436E+01 -.342E+01 -.553E+01   -.145E-01 0.290E-02 0.734E-02
   0.160E+03 -.531E+03 0.195E+04   -.161E+03 0.535E+03 -.195E+04   0.122E+01 -.291E+01 0.464E+01   0.115E-01 0.744E-02 -.644E-02
   -.368E+03 -.272E+03 -.283E+04   0.372E+03 0.277E+03 0.284E+04   -.285E+01 -.327E+01 -.432E+01   0.118E-01 -.836E-02 -.638E-02
   -.744E+02 -.655E+03 0.330E+03   0.744E+02 0.659E+03 -.329E+03   0.888E+00 -.263E+01 -.188E+00   0.320E-02 -.365E-02 -.242E-02
   0.468E+03 0.321E+03 0.253E+04   -.470E+03 -.323E+03 -.253E+04   0.981E+00 0.111E+01 0.659E+01   -.686E-03 0.475E-02 -.770E-03
   -.191E+03 -.509E+03 -.181E+04   0.194E+03 0.511E+03 0.181E+04   -.208E+01 -.275E+01 -.581E+01   -.797E-03 0.134E-01 -.940E-02
   0.281E+03 -.470E+02 -.171E+04   -.282E+03 0.471E+02 0.171E+04   0.172E+00 -.897E-01 -.735E+00   -.945E-04 -.202E-02 -.859E-03
   -.868E+02 -.141E+02 0.376E+03   0.881E+02 0.147E+02 -.381E+03   -.596E+00 -.159E+01 0.173E+01   0.299E-02 -.208E-02 -.336E-02
   -.335E+03 -.368E+03 0.129E+04   0.338E+03 0.371E+03 -.130E+04   -.169E+01 -.211E+01 0.229E+01   -.111E-01 -.266E-02 0.114E-03
   -.173E+03 -.383E+02 -.938E+03   0.173E+03 0.382E+02 0.944E+03   0.121E+01 0.224E+00 -.415E+01   -.606E-02 -.218E-02 -.309E-02
   -.306E+03 0.219E+03 0.876E+03   0.308E+03 -.221E+03 -.878E+03   -.476E+00 0.277E+01 0.174E+01   0.256E-03 -.118E-02 0.214E-02
   -.432E+03 0.273E+02 -.121E+04   0.436E+03 -.274E+02 0.121E+04   -.133E+01 0.507E-01 -.109E+01   -.306E-02 0.293E-02 -.147E-02
   0.126E+03 0.159E+02 0.174E+04   -.126E+03 -.158E+02 -.175E+04   0.413E+00 -.139E+00 0.195E+01   0.519E-02 0.280E-02 -.199E-02
   -.136E+03 0.618E+02 -.344E+03   0.137E+03 -.622E+02 0.347E+03   0.201E+00 0.328E+00 -.254E+01   0.591E-02 -.434E-02 0.556E-03
   -.113E+03 0.481E+02 -.177E+04   0.114E+03 -.480E+02 0.177E+04   0.198E+00 0.878E-01 -.117E+01   0.483E-02 -.677E-02 -.185E-02
   -.188E+03 0.265E+02 0.153E+04   0.190E+03 -.270E+02 -.154E+04   -.309E+00 0.395E+00 0.319E+01   -.337E-02 -.132E-02 0.106E-02
   -.450E+01 -.234E+03 -.822E+03   0.395E+01 0.237E+03 0.827E+03   0.136E+01 -.135E+01 -.304E+01   -.121E-02 -.236E-02 -.108E-02
   -.171E+02 0.260E+02 0.687E+03   0.185E+02 -.263E+02 -.691E+03   -.974E+00 -.184E+00 0.258E+01   0.113E-02 0.963E-02 -.143E-02
   -.141E+02 0.696E+01 -.128E+04   0.158E+02 -.675E+01 0.128E+04   -.904E+00 -.246E+00 -.265E+01   -.683E-05 0.316E-02 -.211E-03
   0.153E+02 -.793E+02 0.169E+04   -.151E+02 0.803E+02 -.170E+04   -.452E+00 -.814E-01 0.217E+01   0.368E-02 -.655E-02 -.375E-02
   0.133E+03 0.117E+03 -.606E+03   -.134E+03 -.119E+03 0.611E+03   0.446E+00 0.180E+01 -.261E+01   0.249E-02 -.621E-02 0.232E-02
   0.737E+01 -.326E+03 0.860E+03   -.721E+01 0.329E+03 -.862E+03   -.114E+01 -.155E+01 0.214E+01   0.409E-02 -.313E-02 0.427E-04
   0.191E+03 0.499E+02 -.126E+04   -.192E+03 -.484E+02 0.127E+04   0.594E-01 -.672E+00 -.279E+01   -.116E-02 0.572E-03 -.660E-02
   0.961E+02 -.256E+02 0.280E+03   -.975E+02 0.276E+02 -.278E+03   0.399E+00 -.122E+01 -.247E+01   -.598E-02 0.519E-02 -.363E-03
   -.116E+03 0.676E+02 -.148E+04   0.116E+03 -.664E+02 0.148E+04   0.113E+00 -.102E+01 -.233E+01   -.187E-02 0.178E-02 -.353E-02
   0.187E+03 -.145E+03 -.468E+03   -.189E+03 0.147E+03 0.468E+03   0.511E+00 -.522E+00 -.571E+00   -.179E-02 0.298E-02 -.375E-02
   0.126E+03 -.572E+02 0.133E+04   -.128E+03 0.569E+02 -.134E+04   0.111E+01 0.108E+01 0.409E+01   0.479E-03 0.185E-02 -.562E-03
   0.179E+03 -.194E+03 0.916E+03   -.179E+03 0.195E+03 -.918E+03   -.132E+01 -.326E+00 0.105E+01   0.518E-02 -.671E-02 -.118E-02
   -.211E+03 -.137E+03 -.111E+04   0.214E+03 0.138E+03 0.111E+04   -.784E+00 -.313E+00 0.457E-01   0.452E-02 0.600E-02 -.274E-02
   0.430E+02 -.149E+03 0.356E+03   -.450E+02 0.152E+03 -.358E+03   0.113E+01 -.192E+01 0.167E+01   0.828E-03 0.426E-03 -.271E-02
   -.211E+02 -.303E+03 -.156E+04   0.202E+02 0.306E+03 0.157E+04   0.394E+00 -.233E+01 -.906E+00   -.119E-02 0.134E-02 -.510E-03
   0.205E+03 0.303E+03 0.728E+03   -.207E+03 -.306E+03 -.729E+03   0.764E+00 0.155E+01 0.486E+00   0.556E-02 0.443E-02 -.297E-02
   0.379E+03 0.265E+03 -.123E+04   -.382E+03 -.269E+03 0.123E+04   0.112E+01 0.203E+01 -.180E+01   0.644E-03 0.436E-03 -.305E-02
   0.115E+03 0.902E+02 0.168E+04   -.115E+03 -.913E+02 -.169E+04   -.594E+00 0.348E+00 0.227E+01   -.991E-03 -.256E-02 0.315E-02
   0.212E+03 -.119E+03 -.500E+03   -.214E+03 0.121E+03 0.505E+03   0.132E+01 -.212E+01 -.264E+01   0.133E-03 -.195E-02 -.257E-02
   0.177E+03 0.180E+03 -.484E+03   -.180E+03 -.182E+03 0.483E+03   0.159E+01 0.114E+01 -.373E+00   0.813E-02 -.818E-03 0.178E-02
   0.131E+03 0.664E+02 0.133E+04   -.133E+03 -.661E+02 -.134E+04   0.866E+00 -.103E+01 0.394E+01   0.854E-03 -.122E-02 -.125E-02
   -.729E+02 0.322E+03 0.626E+03   0.729E+02 -.326E+03 -.628E+03   -.122E+01 0.165E+01 0.190E+01   -.804E-02 -.577E-02 0.547E-03
   -.177E+03 -.654E+02 -.148E+04   0.177E+03 0.640E+02 0.148E+04   0.151E+00 0.118E+01 -.225E+01   -.302E-02 0.269E-02 -.355E-03
   -.166E+03 -.138E+02 0.120E+03   0.165E+03 0.118E+02 -.120E+03   0.102E+01 0.101E+01 -.113E+00   -.970E-02 -.271E-03 0.428E-02
   -.340E+02 0.284E+03 -.160E+04   0.330E+02 -.287E+03 0.160E+04   0.501E+00 0.247E+01 -.557E+00   -.485E-02 -.877E-03 0.177E-02
   0.196E+03 0.171E+03 0.102E+04   -.196E+03 -.172E+03 -.102E+04   -.883E+00 0.317E+00 0.138E+01   0.595E-02 0.444E-02 -.188E-02
   -.533E+02 -.262E+02 -.977E+03   0.539E+02 0.241E+02 0.979E+03   -.384E+00 0.195E+01 -.118E+01   0.867E-02 0.315E-02 -.520E-02
   -.324E+01 -.644E+01 -.522E+01   0.227E-11 -.180E-11 -.250E-11   0.332E+01 0.642E+01 0.526E+01   -.971E-02 -.104E-01 -.147E+00

 POSITION                                       TOTAL-FORCE (eV/Angst)
     13.17084      1.39171      2.05636        -0.130058      0.188543      1.346576
      3.64286      6.26395      1.65239         1.118656     -0.036212     -0.368561
      5.02033      6.18092      3.59863        -0.390317      0.101387     -0.175520
      6.60982      1.38174      2.14081         0.647665     -0.055260     -0.786956
      7.93172      1.39171      4.11272        -1.224911     -0.258282     -0.715253
     16.08224      6.18092      2.57045        -0.492458      0.050032      1.887676
     16.46432      6.17890      5.29257        -1.529378     -0.029996      0.418428
      2.89096      1.42080      0.78795        -0.861812      0.116131     -1.981312
      2.10894      1.39171      3.08454        -0.645939      0.011670      0.296749
      1.04242      0.78757      5.08586         0.760899     -0.659100      0.516659
      9.63149      6.06485      2.67685         0.553731      0.464847     -0.434036
     10.84312      6.18092      4.62682        -0.840550      0.276525     -1.171845
     15.25511      0.00361      1.96518         1.273725      0.786889      0.088802
     15.73053      0.02269      4.35191        -0.153832     -0.725321     -0.285852
      7.63065      4.20946      0.94342        -0.261328     -0.458991     -0.673004
      7.17375      4.91558      3.19116         0.171639      0.088906     -0.303164
      7.75305      4.57505      5.56810         0.412998      0.099589      0.767736
      8.96716      1.36863      1.51910        -0.424271      0.110463     -1.847567
     10.08514      0.12638      3.70525        -0.051790     -1.012716     -2.057097
      1.35096      4.91558      2.16298         0.098732     -0.417579      1.503881
      1.89586      4.77188      4.87045         1.099359     -1.518998     -0.023667
      4.26235      0.12638      2.67707         0.296845     -0.706613      0.160412
      4.99008      9.32835      4.95253        -0.395156      0.098750      1.221175
     12.95741      4.01780      2.03512        -0.661804      1.313573     -0.124903
     12.99653      4.91558      4.21934         1.056310      0.169773     -1.357847
     15.32456      2.77596      2.07071         0.916672     -0.567080     -0.042099
     15.99904      2.66925      4.49255        -1.259032      1.196674     -0.450548
      6.03685      6.18150      1.04779        -0.327217      0.027338     -1.743421
      7.17375      7.44626      3.19116         0.362229      0.143298     -1.074772
      7.87518      7.92062      5.47190        -0.008407     -0.423072      0.833605
     10.01542      3.59979      1.54151         0.189480      0.257460     -0.938788
     10.08514      2.65705      3.70525         0.095003      0.395293     -0.470167
      1.35096      7.44626      2.16298        -0.143600      0.573349      1.535179
      1.89347      7.53045      4.91557         1.072787      1.233348      0.135255
      4.26235      2.65705      2.67707         0.831389      0.813812      0.569173
     13.01654      8.14712      1.98232        -0.725931     -1.066257     -0.189080
     12.99653      7.44626      4.21934         0.566902     -0.130156     -1.354372
     16.14141      1.24259      5.94824        -1.169250     -0.039183      4.175668
     16.74052      1.39171      3.05601         0.636514     -1.014479     -2.437453
      8.00634      6.18092      1.51374         1.256006      0.828575     -2.931500
      8.59001      6.18092      4.59828         1.267654      0.158148      1.066929
     10.91773      1.39171      2.02783         1.600303      0.504052     -0.917835
     11.26251      1.38755      4.77310         2.842921     -0.052379      2.791382
      1.88742      6.18229      0.63231         0.182680     -0.075657     -3.875167
      2.76722      6.18092      3.57010         1.343369     -0.124441      0.077994
      1.35740      6.12354      6.30995         0.669481      0.087588      4.370692
      4.87601      1.39817      1.06054         1.694278     -0.095958     -3.095205
      5.54279      1.44623      3.92684         0.805856      1.009564      2.401465
     13.82913      6.18092      2.54192         0.416866     -0.404576     -1.488836
     14.36536      6.18307      5.21261         0.832541     -0.032124      2.613028
     13.81257      2.78631      0.67595        -0.170772      0.837362     -3.773772
     13.95504      3.04111      3.62362        -0.729065     -0.785707      2.436172
      5.26426      7.79215      2.03261        -0.977094      1.428528     -0.173859
      5.93633      7.53595      4.94684        -1.150428      0.746710      1.820976
      8.17565      3.00295      2.54670        -1.019691      0.810521     -0.608319
      8.78173      2.85793      5.34501         0.220176      0.202564      2.699089
      0.02514      7.79215      4.08897        -1.249507      1.418631     -0.855216
     16.32308      7.87260      1.39686        -0.411430      0.743929     -2.570149
      2.39157      3.10577      1.84255        -0.718431      0.871472     -1.051966
      1.96909      2.63289      4.80824         1.669557      0.872882      1.477858
     11.08705      7.79215      3.06079        -0.859197      0.569155     -0.915605
     11.73095      7.59157      5.78086        -0.487275      1.290323      3.820688
      5.26426      4.56969      2.03261        -0.912482     -1.457396     -0.528236
      5.87660      4.69881      4.82475        -1.874167     -1.818722      1.954364
     13.67603      9.52659      0.65588        -0.464242     -0.786265     -3.925779
     13.79340      9.36413      3.49986        -0.495061      0.576480      2.440760
      0.02514      4.56969      4.08897        -1.270643     -0.892217     -0.929606
     16.33285      4.49104      1.39940        -0.439855     -0.738401     -2.738780
      8.17565      9.35889      2.54670        -1.204763     -1.495269     -0.132083
      8.88876      0.06676      5.40137         0.327528     -0.178930      2.804609
     11.08705      4.56969      3.06079        -0.088621     -1.021428     -0.355261
     11.76139      4.81356      5.80889        -0.450483     -1.278648      3.889070
      2.37000      9.27836      1.76956        -0.851092     -0.981045     -1.429810
      2.93654      9.35889      4.60306         0.230586     -0.135678      1.182217
    total drift:                                0.066799     -0.029616     -0.107586

  FREE ENERGIE OF THE ION-ELECTRON SYSTEM (eV)
  free  energy   TOTEN  =      -351.56976446 eV

  energy  without entropy=     -350.44990769  energy(sigma->0) =     -351.00983607