 vasp.5.4.4.18Apr17-6-g9f103f2a35 (build Aug 13 2019 17:33:20) gamma-only

 executed on             LinuxIFC date 2020.05.12  01:29:31

 INCAR:
 POTCAR:    PAW_PBE Ni_pv 06Sep2000
 POTCAR:    PAW_PBE S 06Sep2000
 POTCAR:    PAW_PBE Ni_pv 06Sep2000
   VRHFIN =Ni:

   TITEL  = PAW_PBE Ni_pv 06Sep2000
   POMASS =   58.690; ZVAL   =   16.000    mass and valenz
   ENMAX  =  367.986; ENMIN  =  275.989 eV

 POTCAR:    PAW_PBE S 06Sep2000
   VRHFIN =S : s2p4

   TITEL  = PAW_PBE S 06Sep2000
   POMASS =   32.066; ZVAL   =    6.000    mass and valenz
   ENMAX  =  258.689; ENMIN  =  194.016 eV

 Optimization of the real space projectors (new method)

 maximal supplied QI-value         = 18.90
 optimisation between [QCUT,QGAM] = [ 10.77, 21.73] = [ 32.49,132.25] Ry
 Optimized for a Real-space Cutoff    1.38 Angstroem

   l    n(q)    QCUT    max X(q) W(low)/X(q) W(high)/X(q)  e(spline)
   1      8    10.771     2.836    0.40E-04    0.29E-04    0.12E-06
   1      8    10.771     4.023    0.10E-03    0.48E-04    0.29E-06
   2      8    10.771    73.368    0.42E-03    0.97E-04    0.44E-06
   2      8    10.771    69.010    0.42E-03    0.99E-04    0.45E-06
   0      9    10.771    54.797    0.10E-03    0.56E-04    0.74E-07
   0      9    10.771    24.266    0.89E-04    0.49E-04    0.67E-07
 Optimization of the real space projectors (new method)

 maximal supplied QI-value         = 19.84
 optimisation between [QCUT,QGAM] = [ 10.71, 21.63] = [ 32.15,130.99] Ry
 Optimized for a Real-space Cutoff    1.19 Angstroem

   l    n(q)    QCUT    max X(q) W(low)/X(q) W(high)/X(q)  e(spline)
   0      8    10.715   187.594    0.41E-03    0.53E-04    0.66E-07
   0      8    10.715   164.243    0.41E-03    0.53E-04    0.65E-07
   1      7    10.715    67.533    0.19E-03    0.59E-03    0.68E-07
   1      7    10.715    50.729    0.19E-03    0.58E-03    0.67E-07
  PAW_PBE Ni_pv 06Sep2000               :
  PAW_PBE S 06Sep2000                   :

 POSCAR: Type_037 Type_137
  positions in cartesian coordinates
 exchange correlation table for  LEXCH =        8
   RHO(1)=    0.500       N(1)  =     2000
   RHO(2)=  100.500       N(2)  =     4000

 ion  position               nearest neighbor table
   1  0.780  0.145  0.123-  51 2.08  65 2.11  42 2.25  52 2.36  66 2.36  18 2.37  13 2.40
   2  0.798  0.147  0.282-  52 2.02  66 2.05  43 2.05
   3  0.215  0.669  0.099-  44 2.02  45 2.12  53 2.17   4 2.40  63 2.48  27 2.49
   4  0.297  0.645  0.216-  64 2.13  54 2.14  45 2.25  53 2.26  63 2.26   3 2.40  28 2.53  16 2.53

   5  0.390  0.164  0.130-  47 2.04  48 2.13  55 2.17   6 2.38  69 2.43  30 2.46
   6  0.470  0.145  0.247-  70 2.10  56 2.10  48 2.25  55 2.26  69 2.26   5 2.38  31 2.53  19 2.53

   7  0.952  0.645  0.154-  68 2.07  49 2.14  58 2.15  57 2.16  67 2.24  32 2.53  20 2.53
   8  0.172  0.144  0.046-  47 2.01  73 2.05  59 2.05   9 2.44
   9  0.125  0.145  0.185-  59 2.14  73 2.16  39 2.25  10 2.36  60 2.36  74 2.36   8 2.44  34 2.53
                            22 2.53
  10  0.109  0.145  0.326-  38 2.02  74 2.12  60 2.12   9 2.36
  11  0.569  0.643  0.163-  40 2.00  41 2.14  71 2.15  61 2.23  12 2.28
  12  0.642  0.645  0.278-  62 2.03  72 2.04  71 2.10  41 2.25  61 2.26  11 2.28  37 2.53  24 2.53

  13  0.908  0.040  0.110-  51 2.09  39 2.11  58 2.19  65 2.21  66 2.28  36 2.37   1 2.40
  14  0.946  0.998  0.263-  38 2.07  39 2.08  66 2.14  57 2.14
  15  0.415  0.406  0.064-  55 2.08  63 2.10  16 2.36  27 2.49  40 2.54
  16  0.425  0.513  0.192-  64 2.17  55 2.25  40 2.26  63 2.26  15 2.36  41 2.36  17 2.44   4 2.53
                            28 2.53
  17  0.465  0.466  0.330-  56 2.00  64 2.05  41 2.07  16 2.44
  18  0.698  0.950  0.101-  61 2.02  65 2.06  42 2.09   1 2.37
  19  0.597  0.013  0.222-  70 2.07  43 2.11  61 2.25  69 2.26  42 2.26  31 2.53   6 2.53
  20  0.080  0.513  0.130-  44 2.08  68 2.09  59 2.13  67 2.26  45 2.36   7 2.53  32 2.53
  21  0.102  0.495  0.281-  46 2.00  67 2.09  45 2.10  60 2.13
  22  0.252  0.013  0.161-  73 2.13  47 2.14  53 2.25  48 2.36  74 2.36   9 2.53  34 2.53
  23  0.291  0.981  0.308-  74 2.04  48 2.04  54 2.04
  24  0.770  0.513  0.253-  72 2.03  50 2.03  49 2.07  71 2.25  52 2.25  12 2.53  37 2.53
  25  0.933  0.338  0.139-  51 2.04  68 2.07  67 2.13  52 2.17  39 2.22  26 2.41
  26  0.939  0.263  0.277-  38 2.06  39 2.11  52 2.18  67 2.25  25 2.41
  27  0.358  0.646  0.063-  40 2.02  53 2.04  63 2.05  15 2.49   3 2.49
  28  0.425  0.777  0.192-  54 2.14  69 2.25  40 2.26  53 2.26  41 2.36  29 2.43   4 2.53  16 2.53

  29  0.464  0.824  0.330-  70 2.00  54 2.05  41 2.07  28 2.43
  30  0.531  0.144  0.094-  42 2.01  69 2.03  55 2.06   5 2.46
  31  0.597  0.277  0.222-  56 2.07  43 2.10  71 2.19  55 2.26  42 2.26  19 2.53   6 2.53
  32  0.080  0.777  0.130-  44 2.05  73 2.12  57 2.22  58 2.27  45 2.36   7 2.53  20 2.53
  33  0.109  0.790  0.289-  46 2.00  57 2.06  45 2.08  74 2.11
  34  0.252  0.277  0.161-  59 2.15  47 2.16  63 2.25  48 2.36  60 2.36   9 2.53  22 2.53
  35  0.291  0.312  0.307-  64 2.04  48 2.04  60 2.05
  36  0.837  0.828  0.119-  49 2.04  65 2.07  58 2.12  66 2.15  13 2.37
  37  0.770  0.777  0.253-  50 2.03  62 2.03  49 2.22  66 2.25  61 2.26  12 2.53  24 2.53
  38  0.993  0.122  0.353-  10 2.02  26 2.06  14 2.07
  39  0.991  0.145  0.183-  14 2.08  26 2.11  13 2.11  25 2.22   9 2.25
  40  0.474  0.645  0.091-  11 2.00  27 2.02  16 2.26  28 2.26  15 2.54
  41  0.509  0.645  0.276-  29 2.07  17 2.07  11 2.14  12 2.25  28 2.36  16 2.36
  42  0.647  0.145  0.122-  30 2.01  18 2.09   1 2.25  19 2.26  31 2.26  43 2.75
  43  0.676  0.146  0.284-   2 2.05  31 2.10  19 2.11  42 2.75
  44  0.113  0.648  0.038-   3 2.02  32 2.05  20 2.08
  45  0.164  0.645  0.214-  33 2.08  21 2.10   3 2.12   4 2.25  32 2.36  20 2.36
  46  0.089  0.637  0.368-  21 2.00  33 2.00
  47  0.289  0.143  0.063-   8 2.01   5 2.04  22 2.14  34 2.16
  48  0.336  0.145  0.245-  23 2.04  35 2.04   5 2.13   6 2.25  34 2.36  22 2.36
  49  0.826  0.632  0.167-  36 2.04  24 2.07   7 2.14  37 2.22  50 2.68
  50  0.829  0.646  0.328-  37 2.03  24 2.03  72 2.68  49 2.68  62 2.76
  51  0.872  0.225  0.055-  25 2.04   1 2.08  13 2.09  65 2.61
  52  0.829  0.314  0.215-   2 2.02  25 2.17  26 2.18  24 2.25   1 2.36
  53  0.312  0.814  0.122-  27 2.04   3 2.17  22 2.25   4 2.26  28 2.26
  54  0.349  0.797  0.294-  23 2.04  29 2.05   4 2.14  28 2.14
  55  0.484  0.314  0.153-  30 2.06  15 2.08   5 2.17  16 2.25   6 2.26  31 2.26
  56  0.526  0.288  0.324-  17 2.00  31 2.07   6 2.10  70 2.73
  57  1.000  0.801  0.234-  33 2.06  14 2.14   7 2.16  32 2.22  58 2.62
  58  0.957  0.834  0.084-  36 2.12   7 2.15  13 2.19  32 2.27  57 2.62
  59  0.140  0.321  0.107-   8 2.05  20 2.13   9 2.14  34 2.15
  60  0.174  0.314  0.276-  35 2.05  10 2.12  21 2.13   9 2.36  34 2.36
  61  0.657  0.814  0.184-  18 2.02  11 2.23  19 2.25  37 2.26  12 2.26  62 2.75
  62  0.691  0.800  0.345-  37 2.03  12 2.03  61 2.75  50 2.76
  63  0.312  0.477  0.122-  27 2.05  15 2.10  34 2.25   4 2.26  16 2.26   3 2.48
  64  0.349  0.498  0.297-  35 2.04  17 2.05   4 2.13  16 2.17
  65  0.802  0.984  0.040-  18 2.06  36 2.07   1 2.11  13 2.21  51 2.61
  66  0.829  0.977  0.215-   2 2.05  14 2.14  36 2.15  37 2.25  13 2.28   1 2.36
  67  0.991  0.461  0.227-  21 2.09  25 2.13   7 2.24  26 2.25  20 2.26  68 2.72
  68  0.974  0.498  0.066-   7 2.07  25 2.07  20 2.09  67 2.72
  69  0.484  0.977  0.153-  30 2.03  28 2.25   6 2.26  19 2.26   5 2.43
  70  0.526  0.003  0.324-  29 2.00  19 2.07   6 2.10  56 2.73
  71  0.651  0.481  0.195-  12 2.10  11 2.15  31 2.19  24 2.25  72 2.67
  72  0.695  0.499  0.348-  24 2.03  12 2.04  71 2.67  50 2.68
  73  0.141  0.967  0.107-   8 2.05  32 2.12  22 2.13   9 2.16
  74  0.174  0.977  0.276-  23 2.04  33 2.11  10 2.12   9 2.36  22 2.36

  LATTYP: Found a simple orthorhombic cell.
 ALAT       =     9.5784100000
 B/A-ratio  =     1.7387693453
 C/A-ratio  =     1.7627867312

  Lattice vectors:

 A1 = (   0.0000000000,   9.5784100000,   0.0000000000)
 A2 = (   0.0000000000,   0.0000000000, -16.6546456851)
 A3 = ( -16.8846940542,   0.0000000000,   0.0000000000)

Analysis of symmetry for initial positions (statically):
 Subroutine PRICEL returns:
 Original cell was already a primitive cell.

 Routine SETGRP: Setting up the symmetry group for a
 simple orthorhombic supercell.

 Subroutine GETGRP returns: Found  1 space group operations
 (whereof  1 operations were pure point group operations)
 out of a pool of  8 trial point group operations.

The static configuration has the point symmetry C_1 .

Analysis of symmetry for dynamics (positions and initial velocities):
 Subroutine PRICEL returns:
 Original cell was already a primitive cell.

 Routine SETGRP: Setting up the symmetry group for a
 simple orthorhombic supercell.

 Subroutine GETGRP returns: Found  1 space group operations
 (whereof  1 operations were pure point group operations)
 out of a pool of  8 trial point group operations.

The dynamic configuration has the point symmetry C_1 .

 Subroutine INISYM returns: Found  1 space group operations
 (whereof  1 operations are pure point group operations),
 and found     1 'primitive' translations

 KPOINTS: gamma-point-only calculation. no periodi

Automatic generation of k-mesh.
Space group operators:
 irot       det(A)        alpha          n_x          n_y          n_z        tau_x        tau_y        tau_z
    1     1.000000     0.000000     1.000000     0.000000     0.000000     0.000000     0.000000     0.000000

 Subroutine IBZKPT returns following result:

 Found      1 irreducible k-points:

 Following reciprocal coordinates:
            Coordinates               Weight
  0.000000  0.000000  0.000000      1.000000

 Following cartesian coordinates:
            Coordinates               Weight
  0.000000  0.000000  0.000000      1.000000

 SYSTEM =  "Millerite NiS"
 POSCAR =  Type_037 Type_137

 Startparameter for this run:
   NWRITE =      2    write-flag & timer
   PREC   = normal    normal or accurate (medium, high low for compatibility)
   ISTART =      0    job   : 0-new  1-cont  2-samecut
   ICHARG =      2    charge: 1-file 2-atom 10-const
   ISPIN  =      1    spin polarized calculation?
   LNONCOLLINEAR =      F non collinear calculations
   LSORBIT =      F    spin-orbit coupling
   INIWAV =      1    electr: 0-lowe 1-rand  2-diag
   LASPH  =      F    aspherical Exc in radial PAW
   METAGGA=      F    non-selfconsistent MetaGGA calc.

 Electronic Relaxation 1
   ENCUT  =  450.0 eV  33.07 Ry    5.75 a.u.  29.20 16.57 28.81*2*pi/ulx,y,z
   ENINI  =  450.0     initial cutoff
   ENAUG  =  703.4 eV  augmentation charge cutoff
   NELM   =    100;   NELMIN=  2; NELMDL= -5     # of ELM steps
   EDIFF  = 0.1E-03   stopping-criterion for ELM
   LREAL  =      T    real-space projection
   NLSPLINE    = F    spline interpolate recip. space projectors
   LCOMPAT=      F    compatible to vasp.4.4
   GGA_COMPAT  = T    GGA compatible to vasp.4.4-vasp.4.6
   LMAXPAW     = -100 max onsite density
   LMAXMIX     =    2 max onsite mixed and CHGCAR
   VOSKOWN=      0    Vosko Wilk Nusair interpolation
   ROPT   =   -0.00050  -0.00050
 Ionic relaxation
   EDIFFG = 0.1E-02   stopping-criterion for IOM
[...]
     0.000000000  9.578410000  0.000000000     0.000000000  0.104401461  0.000000000
     0.000000000  0.000000000 16.654645685     0.000000000  0.000000000  0.060043307

  length of vectors
    16.884694054  9.578410000 16.654645685     0.059225237  0.104401461  0.060043307

 FORCES acting on ions
    electron-ion (+dipol)            ewald-force                    non-local-force                 convergence-correction
   0.560E+03 -.937E+03 0.204E+04   -.562E+03 0.943E+03 -.205E+04   0.170E+01 -.418E+01 0.256E+01   0.873E-02 -.589E-02 0.565E-02
   0.381E+03 -.139E+03 -.285E+04   -.384E+03 0.141E+03 0.285E+04   0.294E+01 -.244E+01 0.658E+00   -.371E-02 -.950E-02 -.755E-02
   0.164E+03 -.740E+02 0.286E+04   -.163E+03 0.745E+02 -.287E+04   0.298E+00 -.808E+00 0.715E+01   -.101E-01 0.603E-02 0.599E-02
   0.479E+03 -.447E+02 -.123E+04   -.481E+03 0.451E+02 0.123E+04   0.210E+01 -.344E+00 -.428E+01   0.814E-02 0.430E-02 0.216E-01
   -.194E+03 0.396E+03 0.222E+04   0.195E+03 -.396E+03 -.223E+04   -.163E+01 -.367E+00 0.495E+01   -.158E-01 -.869E-02 0.192E-01
   -.162E+02 0.936E+02 -.186E+04   0.129E+02 -.945E+02 0.187E+04   0.274E+01 0.490E+00 -.659E+01   -.314E-02 -.715E-02 0.326E-01
   0.767E+03 0.164E+03 0.896E+03   -.770E+03 -.166E+03 -.895E+03   0.305E+01 0.189E+01 0.246E+00   0.347E-02 0.124E-01 -.944E-03
   0.503E+03 0.269E+02 0.422E+04   -.507E+03 -.266E+02 -.423E+04   0.339E+01 -.294E+00 0.378E+01   -.136E-01 -.254E-02 0.853E-02
   0.784E+03 0.158E+02 0.268E+03   -.788E+03 -.160E+02 -.266E+03   0.316E+01 0.796E-01 -.106E+01   -.328E-02 -.892E-02 0.411E-02
   0.203E+03 -.364E+02 -.366E+04   -.206E+03 0.348E+02 0.366E+04   0.465E+01 0.185E+01 0.113E+00   0.139E-01 -.111E-01 -.849E-02
   -.776E+03 0.516E+02 0.187E+04   0.779E+03 -.520E+02 -.187E+04   -.330E+01 0.772E+00 0.381E+01   -.515E-02 0.708E-02 0.197E-01
   -.924E+02 0.758E+02 -.220E+04   0.891E+02 -.751E+02 0.220E+04   0.233E+01 -.541E+00 -.685E+01   -.839E-02 0.613E-02 0.969E-02
   -.429E+03 -.673E+02 0.260E+04   0.437E+03 0.675E+02 -.260E+04   -.650E+01 -.105E+01 0.363E+01   0.327E-02 -.376E-02 0.752E-02
   0.169E+03 0.588E+03 -.223E+04   -.167E+03 -.593E+03 0.223E+04   -.267E+01 0.413E+01 -.328E+01   0.789E-02 -.587E-02 -.684E-02
   -.613E+03 0.210E+03 0.394E+04   0.612E+03 -.210E+03 -.394E+04   0.195E+01 -.233E-01 -.177E+01   -.158E-02 0.106E-01 0.407E-02
   -.528E+03 0.241E+03 0.130E+02   0.529E+03 -.243E+03 -.112E+02   -.505E-01 0.253E+01 -.173E+01   0.841E-04 0.112E-01 0.305E-01
   -.342E+03 0.111E+03 -.371E+04   0.344E+03 -.115E+03 0.371E+04   -.256E+01 0.433E+01 0.214E+01   -.660E-02 0.219E-02 0.261E-02
   0.479E+03 0.492E+03 0.290E+04   -.478E+03 -.494E+03 -.291E+04   -.163E+01 0.144E+01 0.203E+01   0.106E-01 0.136E-02 0.105E-01
   -.513E+03 0.433E+03 -.820E+03   0.515E+03 -.439E+03 0.823E+03   -.112E+01 0.524E+01 -.427E+01   0.194E-02 -.114E-01 0.194E-01
   0.196E+03 0.442E+03 0.191E+04   -.195E+03 -.445E+03 -.191E+04   -.110E+01 0.278E+01 0.239E+01   0.393E-03 -.345E-02 -.498E-02
   0.279E+03 0.132E+03 -.270E+04   -.278E+03 -.136E+03 0.270E+04   -.114E+01 0.251E+01 -.553E+01   0.131E-01 0.200E-02 -.361E-02
   -.188E+03 0.634E+03 0.103E+04   0.188E+03 -.637E+03 -.103E+04   0.993E+00 0.347E+01 0.107E+01   -.145E-01 -.546E-02 0.213E-01
   -.491E+02 0.176E+03 -.338E+04   0.492E+02 -.179E+03 0.338E+04   0.557E-01 0.372E+01 0.218E+01   -.255E-02 0.183E-02 0.329E-02
   -.283E+03 0.558E+03 -.114E+04   0.284E+03 -.566E+03 0.114E+04   -.161E+01 0.627E+01 -.135E+01   -.126E-01 -.318E-02 -.177E-02
   0.429E+03 -.350E+03 0.190E+04   -.430E+03 0.352E+03 -.191E+04   0.128E+01 -.110E+01 0.701E+01   0.360E-02 -.107E-01 -.541E-02
   0.289E+03 -.617E+03 -.266E+04   -.289E+03 0.617E+03 0.266E+04   -.241E-01 0.108E+01 -.530E+01   0.297E-02 -.153E-01 -.670E-02
   -.274E+03 -.450E+03 0.403E+04   0.273E+03 0.451E+03 -.403E+04   0.891E+00 -.752E+00 0.522E+01   0.239E-02 0.106E-01 0.101E-01
   -.464E+03 -.609E+03 0.476E+03   0.465E+03 0.613E+03 -.477E+03   0.689E-01 -.384E+01 0.460E-02   0.369E-02 0.401E-02 0.235E-01
   -.297E+03 -.129E+03 -.365E+04   0.300E+03 0.133E+03 0.365E+04   -.221E+01 -.459E+01 0.203E+01   -.896E-03 0.352E-04 -.188E-02
   -.603E+03 0.889E+02 0.354E+04   0.602E+03 -.897E+02 -.355E+04   -.137E+00 0.109E+01 0.493E+01   0.145E-01 -.747E-02 0.938E-02
   -.863E+03 -.601E+03 -.574E+03   0.867E+03 0.608E+03 0.577E+03   -.346E+01 -.613E+01 -.430E+01   0.482E-02 0.337E-02 0.174E-01
   0.337E+03 -.496E+03 0.188E+04   -.337E+03 0.500E+03 -.188E+04   -.380E+00 -.344E+01 0.286E+01   -.367E-02 0.149E-01 0.129E-01
   0.213E+03 -.123E+03 -.284E+04   -.211E+03 0.126E+03 0.285E+04   -.866E+00 -.237E+01 -.489E+01   0.508E-02 0.204E-01 -.512E-02
   0.508E+02 -.552E+03 0.964E+03   -.518E+02 0.556E+03 -.965E+03   0.139E+01 -.280E+01 0.827E+00   -.146E-01 -.386E-03 0.269E-01
   0.100E+02 -.161E+03 -.341E+04   -.977E+01 0.165E+03 0.341E+04   -.492E-01 -.404E+01 0.218E+01   0.284E-02 -.327E-02 0.103E-01
   0.341E+03 0.798E+03 0.233E+04   -.344E+03 -.801E+03 -.234E+04   0.201E+01 0.195E+01 0.416E+01   0.714E-02 0.117E-01 0.428E-02
   -.237E+03 -.162E+03 -.164E+04   0.239E+03 0.167E+03 0.164E+04   -.924E+00 -.386E+01 -.363E+01   -.888E-02 0.143E-01 -.336E-02
   0.157E+03 0.504E+02 -.164E+04   -.157E+03 -.512E+02 0.164E+04   -.645E+00 0.538E+00 -.170E+01   0.316E-02 -.553E-02 -.295E-02
   -.118E+03 -.996E+01 0.286E+03   0.121E+03 0.977E+01 -.289E+03   -.589E+00 0.115E+00 0.157E+01   0.349E-02 -.544E-02 -.159E-02
   -.477E+03 -.152E+03 0.138E+04   0.481E+03 0.155E+03 -.139E+04   -.295E+01 -.269E+01 0.246E+01   -.500E-03 0.490E-02 0.684E-02
   -.232E+03 -.104E+02 -.883E+03   0.232E+03 0.104E+02 0.888E+03   0.856E+00 0.693E-01 -.406E+01   -.405E-02 0.471E-02 0.505E-02
   -.180E+03 -.292E+03 0.963E+03   0.181E+03 0.295E+03 -.968E+03   0.709E+00 -.186E+01 0.342E+01   0.736E-02 -.978E-03 0.469E-02
   -.139E+03 -.552E+02 -.110E+04   0.141E+03 0.552E+02 0.110E+04   -.340E+00 0.187E+00 -.267E+01   -.745E-03 -.208E-02 0.161E-02
   0.143E+03 0.203E+02 0.175E+04   -.143E+03 -.198E+02 -.176E+04   -.156E+00 -.704E+00 0.191E+01   -.369E-02 0.949E-03 -.459E-03
   -.515E+02 0.224E+02 -.378E+03   0.541E+02 -.231E+02 0.380E+03   -.984E+00 0.210E+00 -.174E+01   -.203E-02 0.855E-02 0.607E-02
   0.172E+03 0.165E+02 -.165E+04   -.173E+03 -.168E+02 0.166E+04   -.872E-01 0.269E+00 -.694E+00   0.366E-02 0.101E-01 -.250E-02
   -.204E+03 0.947E+02 0.160E+04   0.206E+03 -.952E+02 -.161E+04   -.117E+00 0.546E+00 0.280E+01   -.946E-02 -.258E-02 -.118E-02
   -.133E+03 0.511E+02 -.660E+03   0.134E+03 -.509E+02 0.665E+03   0.429E+00 -.190E+00 -.456E+01   -.786E-02 0.224E-02 0.155E-01
   0.143E+03 0.303E+03 0.528E+03   -.144E+03 -.306E+03 -.533E+03   0.123E+01 0.207E+01 0.331E+01   -.840E-04 0.391E-02 -.118E-02
   -.326E+03 0.346E+02 -.140E+04   0.331E+03 -.344E+02 0.141E+04   -.289E+01 -.350E+00 -.107E+01   -.231E-02 0.294E-02 -.170E-02
   0.114E+03 -.301E+03 0.157E+04   -.114E+03 0.304E+03 -.158E+04   -.593E+00 -.150E+01 0.366E+01   0.151E-02 -.327E-02 0.344E-02
   0.253E+03 -.308E+03 -.122E+03   -.255E+03 0.310E+03 0.122E+03   0.527E+00 0.811E-01 0.215E+00   -.109E-02 -.318E-02 -.264E-02
   -.511E+02 -.334E+03 0.883E+03   0.513E+02 0.337E+03 -.886E+03   -.836E+00 -.144E+01 0.267E+01   0.198E-02 0.397E-02 0.678E-02
   0.161E+03 0.392E+02 -.118E+04   -.163E+03 -.383E+02 0.119E+04   0.545E-01 -.342E+00 -.231E+01   0.481E-02 0.347E-02 0.247E-02
   -.341E+03 -.197E+03 0.498E+03   0.343E+03 0.199E+03 -.498E+03   -.152E+01 -.123E+01 0.387E+00   0.358E-02 0.624E-02 0.113E-01
   -.238E+03 0.433E+02 -.145E+04   0.238E+03 -.424E+02 0.145E+04   -.679E+00 -.776E+00 -.187E+01   -.205E-02 0.165E-02 0.402E-02
   0.265E+03 0.473E+02 -.625E+03   -.266E+03 -.473E+02 0.628E+03   0.249E+00 0.963E+00 -.168E+01   0.596E-02 0.635E-02 0.204E-02
   -.265E+02 0.208E+01 0.130E+04   0.275E+02 -.119E+01 -.131E+04   -.504E-01 -.318E+00 0.546E+01   -.283E-03 0.404E-02 0.318E-02
   0.235E+03 -.205E+03 0.103E+04   -.236E+03 0.206E+03 -.103E+04   0.419E+00 -.327E+00 0.630E+00   -.276E-02 -.508E-02 0.240E-02
   0.104E+03 -.170E+03 -.927E+03   -.105E+03 0.172E+03 0.929E+03   0.841E-01 -.140E+01 -.121E+01   0.107E-01 -.659E-02 0.195E-02
   -.800E+01 0.107E+03 0.309E+03   0.818E+01 -.106E+03 -.311E+03   -.137E+01 -.136E+01 0.164E+01   0.240E-03 0.848E-03 0.594E-02
   -.355E+02 -.235E+03 -.153E+04   0.338E+02 0.239E+03 0.153E+04   0.147E+01 -.153E+01 -.828E+00   -.471E-02 0.202E-02 -.123E-02
   0.246E+03 0.162E+03 0.783E+03   -.249E+03 -.165E+03 -.784E+03   0.955E+00 0.137E+01 0.423E+00   -.393E-02 -.425E-03 0.753E-02
   0.175E+03 -.726E+02 -.124E+04   -.177E+03 0.718E+02 0.125E+04   0.642E-01 0.288E+00 -.262E+01   -.104E-02 -.690E-02 0.507E-02
   0.869E+02 0.535E+02 0.174E+04   -.878E+02 -.544E+02 -.175E+04   0.489E+00 0.386E+00 0.385E+01   0.427E-02 0.387E-03 0.393E-02
   0.127E+03 0.114E+03 -.417E+03   -.129E+03 -.114E+03 0.419E+03   0.992E+00 -.136E+01 -.124E+01   0.255E-02 -.573E-03 -.177E-02
   0.255E+03 -.819E+02 -.580E+03   -.256E+03 0.835E+02 0.584E+03   0.118E+01 -.100E+01 -.245E+01   -.115E-02 -.793E-03 -.354E-02
   0.286E+03 0.459E+02 0.153E+04   -.288E+03 -.462E+02 -.154E+04   0.132E+01 -.424E+00 0.374E+01   0.813E-03 -.127E-02 0.108E-03
   -.648E+02 0.305E+03 0.685E+03   0.649E+02 -.308E+03 -.687E+03   -.134E+01 0.147E+01 0.242E+01   -.604E-03 -.114E-01 0.970E-02
   -.210E+03 -.430E+02 -.144E+04   0.210E+03 0.421E+02 0.145E+04   -.722E+00 0.845E+00 -.238E+01   -.233E-02 -.596E-02 0.312E-02
   -.232E+03 0.179E+03 0.413E+03   0.232E+03 -.181E+03 -.417E+03   -.250E+00 -.533E-01 0.227E+01   -.355E-04 0.299E-03 0.468E-02
   -.560E+02 0.253E+03 -.151E+04   0.551E+02 -.257E+03 0.151E+04   0.870E+00 0.234E+01 -.152E+01   -.539E-02 -.928E-04 0.263E-03
   0.231E+03 0.186E+03 0.102E+04   -.233E+03 -.187E+03 -.102E+04   0.218E+00 0.127E+00 0.767E+00   -.366E-02 0.319E-02 0.546E-02
   0.976E+02 0.160E+03 -.904E+03   -.985E+02 -.162E+03 0.905E+03   0.241E+00 0.214E+01 -.925E+00   -.154E-02 -.327E-02 0.522E-03
   0.269E+00 0.210E+01 -.196E+02   0.149E-11 0.142E-11 0.103E-10   -.153E+00 -.217E+01 0.192E+02   -.176E-01 0.258E-01 0.387E+00

 POSITION                                       TOTAL-FORCE (eV/Angst)
     13.17084      1.39171      2.05636        -0.760454      1.347937      1.204992
     13.46946      1.40601      4.69864         0.002606     -0.356146      0.917116
      3.63814      6.40831      1.65276         0.965715     -0.285106     -0.378926
      5.02033      6.18092      3.59863        -0.291279     -0.000398      0.057451
      6.58397      1.57240      2.16070         0.152007     -0.393782     -0.409845
      7.93172      1.39171      4.11272        -0.568805     -0.395264     -0.675258
     16.08224      6.18092      2.57045        -0.008147      0.274335      1.568046
      2.89655      1.38152      0.77182        -0.968425     -0.034429     -1.855867
      2.10894      1.39171      3.08454        -0.816411     -0.125679      0.346472
      1.83827      1.38783      5.43236         1.036550      0.326180      0.845146
      9.60689      6.16052      2.71160         0.404336      0.374168     -0.561909
     10.84312      6.18092      4.62682        -0.966272      0.258149      0.135605
     15.33502      0.38781      1.83652         1.000473     -0.919640     -0.220629
     15.97309      9.55808      4.37273        -1.136809     -0.694024     -0.001852
      7.00574      3.89239      1.07032         0.231059     -0.176970     -0.726978
      7.17375      4.91558      3.19116         0.543462      0.375886      0.099709
      7.84537      4.46640      5.49683        -0.129802      0.576465      0.778706
     11.77839      9.09481      1.68382        -0.683897     -0.184480     -0.500249
     10.08514      0.12638      3.70525         0.702197     -0.568308     -1.669780
      1.35096      4.91558      2.16298         0.458575     -0.127400      0.633836
      1.71633      4.74567      4.68225         0.322812     -1.261789      0.167066
      4.26235      0.12638      2.67707         0.756060     -0.526505      0.816337
      4.90694      9.39990      5.13760         0.171470     -0.064683      0.555280
     12.99653      4.91558      4.21934         0.007221     -1.805032     -1.727783
     15.75167      3.23694      2.31276         0.739665      0.511606      0.238849
     15.85957      2.51460      4.60636        -0.680968      0.587281      0.405116
      6.04614      6.18845      1.04479        -0.375204      0.054598     -1.541804
      7.17375      7.44626      3.19116         0.442174      0.184756     -1.142043
      7.84134      7.89554      5.48871        -0.059331     -0.564469      0.822991
      8.95903      1.37545      1.56275        -0.313817      0.255779     -1.788410
     10.08514      2.65705      3.70525         0.810302      0.400818     -1.484628
      1.35096      7.44626      2.16298        -0.867152      0.585775      1.035080
      1.83836      7.56576      4.80630         0.537522      0.954936      0.554853
      4.26235      2.65705      2.67707         0.399973      0.578304      0.598002
      4.92064      2.98678      5.11130         0.202872      0.128700      0.838908
     14.12688      7.93010      1.97738        -0.675959     -1.133904     -0.206807
     12.99653      7.44626      4.21934         0.154669      0.959060     -2.159065
     16.76036      1.16836      5.87645        -0.090352     -0.295215      3.152407
     16.74052      1.39171      3.05601         2.486106     -0.086147     -1.221458
      8.00634      6.18092      1.51374         1.027886     -0.425847     -2.675059
      8.59001      6.18092      4.59828         0.890881      0.087604      1.339106
     10.91773      1.39171      2.02783         1.709351      1.086692     -1.654021
     11.41524      1.40169      4.73126         0.945661      0.108979      2.821220
      1.90801      6.20489      0.62551         0.086686     -0.242522     -3.744341
      2.76722      6.18092      3.57010         1.553681     -0.441576      0.103071
      1.50839      6.10342      6.13412        -0.499220     -0.006131      3.127015
      4.88572      1.37231      1.05306         1.612999      0.030168     -2.964632
      5.67861      1.39171      4.08419         0.925574      0.010863      0.960482
     13.95232      6.05774      2.77667        -0.256478     -0.819576     -1.608034
     13.99171      6.18409      5.45832         1.878801     -0.152597      3.190644
     14.73173      2.15685      0.90778        -0.067458      1.095820     -3.172591
     13.99844      3.00295      3.57488        -1.460896      1.579711      0.116042
      5.26426      7.79215      2.03261        -0.665731      2.012025     -0.285266
      5.89852      7.62999      4.89878        -1.121519      0.530707      1.875808
      8.17565      3.00295      2.54670        -0.071401      1.487589     -0.152407
      8.88887      2.75915      5.39165         0.039355      0.135989      2.836335
     16.87677      7.67589      3.90393        -0.743324      0.985875      1.249050
     16.16699      7.98381      1.40084         0.970866      0.581984     -2.741006
      2.35644      3.07452      1.78410        -0.503124      0.706743     -1.287915
      2.93654      3.00295      4.60306        -0.591221     -0.065692      0.521826
     11.08705      7.79215      3.06079        -1.195563     -0.544228     -0.201929
     11.67333      7.66263      5.74697        -0.236337      1.903435      3.411784
      5.26426      4.56969      2.03261        -1.705135     -1.274815     -0.508254
      5.89836      4.77221      4.93957        -1.188408     -0.592475      1.691626
     13.54266      9.42124      0.66884        -0.426789     -0.526725     -3.732693
     13.99844      9.35889      3.57488        -0.265141     -0.723392      1.620745
     16.73952      4.41675      3.78130        -0.275858      0.521066      1.927194
     16.43919      4.76779      1.09932        -0.824092     -0.697182     -3.551870
      8.17565      9.35889      2.54670        -1.251853     -1.408553      0.016697
      8.88167      0.02422      5.38912         0.200013     -0.095144      2.736409
     10.99006      4.60245      3.24905         0.089352     -1.566007     -1.716043
     11.73468      4.77908      5.80399         0.010004     -1.595538      3.416646
      2.37319      9.26336      1.78674        -1.002645     -0.559531     -1.229073
      2.93654      9.35889      4.60306        -0.723661      0.136920      0.764757
    total drift:                                0.098302     -0.043437     -0.088895

  FREE ENERGIE OF THE ION-ELECTRON SYSTEM (eV)
  free  energy   TOTEN  =      -351.30784855 eV

  energy  without entropy=     -350.20301498  energy(sigma->0) =     -350.75543176