 vasp.6.1.0 28Jan20 (build Mar 31 2020 17:42:31) gamma-only

 executed on             LinuxIFC date 2020.04.13  03:04:15

 INCAR:
 POTCAR:    PAW_PBE Ni_pv 06Sep2000
 POTCAR:    PAW_PBE S 06Sep2000
 POTCAR:    PAW_PBE Ni_pv 06Sep2000
   VRHFIN =Ni:

   TITEL  = PAW_PBE Ni_pv 06Sep2000
   POMASS =   58.690; ZVAL   =   16.000    mass and valenz
   ENMAX  =  367.986; ENMIN  =  275.989 eV

 POTCAR:    PAW_PBE S 06Sep2000
   VRHFIN =S : s2p4

   TITEL  = PAW_PBE S 06Sep2000
   POMASS =   32.066; ZVAL   =    6.000    mass and valenz
   ENMAX  =  258.689; ENMIN  =  194.016 eV

 Optimization of the real space projectors (new method)

 maximal supplied QI-value         = 18.90
 optimisation between [QCUT,QGAM] = [ 10.77, 21.73] = [ 32.49,132.25] Ry
 Optimized for a Real-space Cutoff    1.38 Angstroem

   l    n(q)    QCUT    max X(q) W(low)/X(q) W(high)/X(q)  e(spline)
   1      8    10.771     2.836    0.40E-04    0.29E-04    0.12E-06
   1      8    10.771     4.023    0.10E-03    0.48E-04    0.29E-06
   2      8    10.771    73.368    0.42E-03    0.97E-04    0.44E-06
   2      8    10.771    69.010    0.42E-03    0.99E-04    0.45E-06
   0      9    10.771    54.797    0.10E-03    0.56E-04    0.74E-07
   0      9    10.771    24.266    0.89E-04    0.49E-04    0.67E-07
 Optimization of the real space projectors (new method)

 maximal supplied QI-value         = 19.84
 optimisation between [QCUT,QGAM] = [ 10.71, 21.63] = [ 32.15,130.99] Ry
 Optimized for a Real-space Cutoff    1.19 Angstroem

   l    n(q)    QCUT    max X(q) W(low)/X(q) W(high)/X(q)  e(spline)
   0      8    10.715   187.594    0.41E-03    0.53E-04    0.66E-07
   0      8    10.715   164.243    0.41E-03    0.53E-04    0.65E-07
   1      7    10.715    67.533    0.19E-03    0.59E-03    0.68E-07
   1      7    10.715    50.729    0.19E-03    0.58E-03    0.67E-07
  PAW_PBE Ni_pv 06Sep2000               :
  PAW_PBE S 06Sep2000                   :

 POSCAR: Structure 2 made from 012-2.xsd file
  positions in direct lattice
 exchange correlation table for  LEXCH =        8
   RHO(1)=    0.500       N(1)  =     2000
   RHO(2)=  100.500       N(2)  =     4000

 ion  position               nearest neighbor table
   1  0.081  0.431  0.023-  50 2.25  41 2.36  52 2.36   6 2.53  11 2.53
   2  0.081  0.379  0.197-  33 2.25  41 2.26  52 2.26  36 2.36  42 2.36   7 2.53  12 2.53
   3  0.081  0.327  0.371-  34 2.25  36 2.26  42 2.26  13 2.53
   4  0.581  0.155  0.110-  31 2.25  38 2.26  45 2.26  39 2.36  58 2.36  14 2.53  23 2.53
   5  0.581  0.103  0.284-  32 2.25  39 2.26  58 2.26  40 2.36  59 2.36  15 2.53  24 2.53
   6  0.213  0.240  0.000-  41 2.36  31 2.36   1 2.53  11 2.53
   7  0.213  0.188  0.174-  37 2.25  41 2.26  31 2.26  42 2.36  32 2.36  12 2.53   2 2.53
   8  0.713  0.464  0.087-  38 2.25  60 2.26  50 2.26  43 2.36  33 2.36  29 2.53  19 2.53
   9  0.713  0.412  0.261-  39 2.25  43 2.26  33 2.26  44 2.36  34 2.36  30 2.53  20 2.53
  10  0.713  0.360  0.435-  40 2.25  44 2.26  34 2.26
  11  0.345  0.431  0.023-  60 2.25  31 2.36  52 2.36   6 2.53   1 2.53
  12  0.345  0.379  0.197-  43 2.25  31 2.26  52 2.26  36 2.36  32 2.36   7 2.53   2 2.53
  13  0.345  0.327  0.371-  44 2.25  36 2.26  32 2.26   3 2.53
  14  0.845  0.155  0.110-  41 2.25  38 2.26  35 2.26  39 2.36  48 2.36   4 2.53  23 2.53
  15  0.845  0.103  0.284-  42 2.25  39 2.26  48 2.26  40 2.36  49 2.36   5 2.53  24 2.53
  16  0.081  0.931  0.023-  35 2.25  56 2.36  37 2.36  26 2.53
  17  0.081  0.879  0.197-  48 2.25  56 2.26  37 2.26  51 2.36  57 2.36  21 2.53  27 2.53
  18  0.081  0.827  0.371-  49 2.25  51 2.26  57 2.26  22 2.53  28 2.53
  19  0.581  0.655  0.110-  46 2.25  53 2.26  60 2.26  54 2.36  43 2.36  29 2.53   8 2.53
  20  0.581  0.603  0.284-  47 2.25  54 2.26  43 2.26  55 2.36  44 2.36  30 2.53   9 2.53
  21  0.213  0.688  0.174-  52 2.25  56 2.26  46 2.26  57 2.36  47 2.36  27 2.53  17 2.53
  22  0.213  0.636  0.348-  36 2.25  57 2.26  47 2.26  28 2.53  18 2.53
  23  0.713  0.964  0.087-  53 2.25  45 2.26  35 2.26  58 2.36  48 2.36  14 2.53   4 2.53
  24  0.713  0.912  0.261-  54 2.25  58 2.26  48 2.26  59 2.36  49 2.36  15 2.53   5 2.53
  25  0.713  0.860  0.435-  55 2.25  59 2.26  49 2.26
  26  0.345  0.931  0.023-  45 2.25  46 2.36  37 2.36  16 2.53
  27  0.345  0.879  0.197-  58 2.25  46 2.26  37 2.26  51 2.36  47 2.36  21 2.53  17 2.53
  28  0.345  0.827  0.371-  59 2.25  51 2.26  47 2.26  22 2.53  18 2.53
  29  0.845  0.655  0.110-  56 2.25  53 2.26  50 2.26  54 2.36  33 2.36  19 2.53   8 2.53
  30  0.845  0.603  0.284-  57 2.25  54 2.26  33 2.26  55 2.36  34 2.36  20 2.53   9 2.53
  31  0.381  0.259  0.097-   4 2.25   7 2.26  12 2.26  11 2.36   6 2.36
  32  0.381  0.207  0.271-   5 2.25  13 2.26   7 2.36  12 2.36
  33  0.881  0.483  0.184-   2 2.25   9 2.26  30 2.26   8 2.36  29 2.36
  34  0.881  0.431  0.358-   3 2.25  10 2.26   9 2.36  30 2.36
  35  0.881  0.035  0.010-  16 2.25  14 2.26  23 2.26
  36  0.213  0.451  0.300-  22 2.25  13 2.26   3 2.26   2 2.36  12 2.36
  37  0.213  0.003  0.126-   7 2.25  17 2.26  27 2.26  26 2.36  16 2.36
  38  0.713  0.279  0.039-   8 2.25   4 2.26  14 2.26
  39  0.713  0.227  0.213-   9 2.25   5 2.26  15 2.26  14 2.36   4 2.36
  40  0.713  0.175  0.387-  10 2.25   5 2.36  15 2.36
  41  0.045  0.259  0.097-  14 2.25   7 2.26   2 2.26   1 2.36   6 2.36
  42  0.045  0.207  0.271-  15 2.25   3 2.26   7 2.36   2 2.36
  43  0.545  0.483  0.184-  12 2.25   9 2.26  20 2.26   8 2.36  19 2.36
  44  0.545  0.431  0.358-  13 2.25  10 2.26   9 2.36  20 2.36
  45  0.545  0.035  0.010-  26 2.25   4 2.26  23 2.26
  46  0.381  0.759  0.097-  19 2.25  21 2.26  27 2.26  26 2.36
  47  0.381  0.707  0.271-  20 2.25  22 2.26  28 2.26  21 2.36  27 2.36
  48  0.881  0.983  0.184-  17 2.25  24 2.26  15 2.26  23 2.36  14 2.36
  49  0.881  0.931  0.358-  18 2.25  25 2.26  24 2.36  15 2.36
  50  0.881  0.535  0.010-   1 2.25  29 2.26   8 2.26
  51  0.213  0.951  0.300-  18 2.26  28 2.26  27 2.36  17 2.36
  52  0.213  0.503  0.126-  21 2.25  12 2.26   2 2.26   1 2.36  11 2.36
  53  0.713  0.779  0.039-  23 2.25  19 2.26  29 2.26
  54  0.713  0.727  0.213-  24 2.25  20 2.26  30 2.26  29 2.36  19 2.36
  55  0.713  0.675  0.387-  25 2.25  20 2.36  30 2.36
  56  0.045  0.759  0.097-  29 2.25  21 2.26  17 2.26  16 2.36
  57  0.045  0.707  0.271-  30 2.25  22 2.26  18 2.26  21 2.36  17 2.36
  58  0.545  0.983  0.184-  27 2.25  24 2.26   5 2.26  23 2.36   4 2.36
  59  0.545  0.931  0.358-  28 2.25  25 2.26  24 2.36   5 2.36
  60  0.545  0.535  0.010-  11 2.25  19 2.26   8 2.26

  LATTYP: Found a simple orthorhombic cell.
 ALAT       =     9.5784100000
 B/A-ratio  =     1.1751911892
 C/A-ratio  =     1.8490917490

  Lattice vectors:

 A1 = (   9.5784100000,   0.0000000000,   0.0000000000)
 A2 = (   0.0000000000,  11.2564630382,   0.0000000000)
 A3 = (   0.0000000000,   0.0000000000,  17.7113588997)

Analysis of symmetry for initial positions (statically):
 Subroutine PRICEL returns:
 Original cell was already a primitive cell.

 Routine SETGRP: Setting up the symmetry group for a
 simple orthorhombic supercell.

 Subroutine GETGRP returns: Found  2 space group operations
 (whereof  1 operations were pure point group operations)
 out of a pool of  8 trial point group operations.

The static configuration has the point symmetry C_1 .
 The point group associated with its full space group is C_1h.

Analysis of symmetry for dynamics (positions and initial velocities):
 Subroutine PRICEL returns:
 Original cell was already a primitive cell.

 Routine SETGRP: Setting up the symmetry group for a
 simple orthorhombic supercell.

 Subroutine GETGRP returns: Found  2 space group operations
 (whereof  1 operations were pure point group operations)
 out of a pool of  8 trial point group operations.

The dynamic configuration has the point symmetry C_1 .
 The point group associated with its full space group is C_1h.

 Subroutine INISYM returns: Found  2 space group operations
 (whereof  1 operations are pure point group operations),
 and found     1 'primitive' translations

                                     Primitive cell

  volume of cell :    1909.6213

  direct lattice vectors                    reciprocal lattice vectors
     9.578410000  0.000000000  0.000000000     0.104401461  0.000000000  0.000000000
     0.000000000 11.256463038  0.000000000     0.000000000  0.088837852  0.000000000
     0.000000000  0.000000000 17.711358900     0.000000000  0.000000000  0.056460942

  length of vectors
     9.578410000 11.256463038 17.711358900     0.104401461  0.088837852  0.056460942

  position of ions in fractional coordinates (direct lattice)
     0.080767181  0.431197054  0.023006561
     0.080767181  0.379345120  0.197162795
     0.080767181  0.327493186  0.371319028
     0.580767181  0.155271095  0.110084678
     0.580767181  0.103419160  0.284240912
     0.212870181  0.239892356  0.000000000
     0.212870181  0.188040422  0.174156234
     0.712870181  0.463966382  0.087078117
     0.712870181  0.412114447  0.261234351
     0.712870181  0.360262513  0.435390584
     0.344973181  0.431197054  0.023006561
     0.344973181  0.379345120  0.197162795
     0.344973181  0.327493186  0.371319028
     0.844973181  0.155271095  0.110084678
     0.844973181  0.103419160  0.284240912
     0.080767181  0.931197054  0.023006561
     0.080767181  0.879345120  0.197162795
     0.080767181  0.827493186  0.371319028
     0.580767181  0.655271095  0.110084678
     0.580767181  0.603419160  0.284240912
     0.212870181  0.688040422  0.174156234
     0.212870181  0.636188488  0.348312467
     0.712870181  0.963966382  0.087078117
     0.712870181  0.912114447  0.261234351
     0.712870181  0.860262513  0.435390584
     0.344973181  0.931197054  0.023006561
     0.344973181  0.879345120  0.197162795
     0.344973181  0.827493186  0.371319028
     0.844973181  0.655271095  0.110084678
     0.844973181  0.603419160  0.284240912
     0.381085181  0.259043021  0.096881778
     0.381085181  0.207191087  0.271038011
     0.881085181  0.483117047  0.183959894
     0.881085181  0.431265113  0.358116128
     0.881085181  0.034968996  0.009803661
     0.212870181  0.450791306  0.300333702
     0.212870181  0.002643256  0.126177468
     0.712870181  0.278569215  0.039099352
     0.712870181  0.226717281  0.213255585
     0.712870181  0.174865347  0.387411819
     0.044655181  0.259043021  0.096881778
     0.044655181  0.207191087  0.271038011
     0.544655181  0.483117047  0.183959894
     0.544655181  0.431265113  0.358116128
     0.544655181  0.034968996  0.009803661
     0.381085181  0.759043021  0.096881778
     0.381085181  0.707191087  0.271038011
     0.881085181  0.983117047  0.183959894
     0.881085181  0.931265113  0.358116128
     0.881085181  0.534968996  0.009803661
     0.212870181  0.950791306  0.300333702
     0.212870181  0.502643256  0.126177468
     0.712870181  0.778569215  0.039099352
     0.712870181  0.726717281  0.213255585
     0.712870181  0.674865347  0.387411819
     0.044655181  0.759043021  0.096881778
     0.044655181  0.707191087  0.271038011
     0.544655181  0.983117047  0.183959894
     0.544655181  0.931265113  0.358116128
[...]
     32     -63.4736      2.00000
     33     -63.4708      2.00000
     34     -63.4668      2.00000
     35     -63.4648      2.00000
     36     -63.4641      2.00000
     37     -63.4452      2.00000
     38     -63.4267      2.00000
     39     -63.4260      2.00000
     40     -63.4062      2.00000
     41     -63.3961      2.00000
     42     -63.3930      2.00000
     43     -63.3865      2.00000
     44     -63.3810      2.00000
     45     -63.3654      2.00000
     46     -63.3611      2.00000
     47     -63.3402      2.00000
     48     -63.3319      2.00000
     49     -63.3262      2.00000
     50     -63.3185      2.00000
     51     -63.3107      2.00000
     52     -63.3019      2.00000
     53     -63.3011      2.00000
     54     -63.2735      2.00000
     55     -63.1154      2.00000
     56     -63.0765      2.00000
     57     -62.9801      2.00000
     58     -62.9097      2.00000
     59     -62.8832      2.00000
     60     -62.8746      2.00000
[...]
    386       5.8235      0.00000
    387       5.8260      0.00000
    388       5.9211      0.00000
    389       5.9347      0.00000
    390       6.0121      0.00000
    391       6.0476      0.00000
    392       6.1136      0.00000
    393       6.2060      0.00000
    394       6.2387      0.00000
    395       6.2627      0.00000
    396       6.3233      0.00000
    397       6.3751      0.00000
    398       6.4000      0.00000
    399       6.5585      0.00000
    400       6.6307      0.00000

 soft charge-density along one line, spin component           1
         0         1         2         3         4         5         6         7         8         9
 total charge-density along one line

------------------------ aborting loop because EDIFF is reached ----------------------------------------

  FORCE on cell =-STRESS in cart. coord.  units (eV):
  Direction    XX          YY          ZZ          XY          YZ          ZX
  Alpha Z  1352.76224  1352.76224  1352.76224
  Ewald  146004.44118142610.63468************    -0.00000   -39.30592     0.00000
  Hartree176073.00810173338.48842************    -0.00069    23.75296    -0.00094
  E(xc)   -4184.65974 -4186.02049 -4189.49018     0.00002    -0.29004     0.00001
  Local  ************************319011.61841     0.00033     7.69943     0.00132
  n-local  -571.37076  -575.77936  -574.19441     0.02629    -0.79040     0.06125
  augment  4830.46350  4827.37708  4829.58948    -0.00428     3.44817    -0.00334
  Kinetic  9122.20707  9145.03170  9138.43708    -0.00090     9.68268     0.00074
  Fock        0.00000     0.00000     0.00000     0.00000     0.00000     0.00000
  Total     -27.20546   -22.05569   -41.69753     0.00000     4.19689     0.00000
  in kB     -22.82545   -18.50478   -34.98433     0.00000     3.52120     0.00000

 VOLUME and BASIS-vectors are now :
  energy-cutoff  :      450.00
  volume of cell :     1909.62
      direct lattice vectors                 reciprocal lattice vectors
     9.578410000  0.000000000  0.000000000     0.104401461  0.000000000  0.000000000
     0.000000000 11.256463038  0.000000000     0.000000000  0.088837852  0.000000000
     0.000000000  0.000000000 17.711358900     0.000000000  0.000000000  0.056460942

  length of vectors
     9.578410000 11.256463038 17.711358900     0.104401461  0.088837852  0.056460942

 FORCES acting on ions
    electron-ion (+dipol)            ewald-force                    non-local-force                 convergence-correction
   0.412E+03 -.434E+03 0.353E+04   -.415E+03 0.434E+03 -.352E+04   0.207E+01 -.173E+00 -.194E+01   0.271E+00 -.131E+00 -.199E+00
   0.404E+03 -.169E+03 -.987E+02   -.405E+03 0.169E+03 0.983E+02   0.138E+01 0.549E+00 0.434E+00   0.813E-01 0.457E-01 -.127E+00
   0.111E+03 0.314E+03 -.353E+04   -.110E+03 -.313E+03 0.352E+04   -.158E+01 -.488E+00 0.841E+01   0.109E+00 0.752E-01 0.735E-01
   0.394E+03 -.237E+03 0.198E+04   -.394E+03 0.238E+03 -.198E+04   0.339E+00 -.992E+00 0.438E+01   -.135E+00 0.162E+00 -.133E+00
   0.600E+03 -.216E+03 -.204E+04   -.601E+03 0.218E+03 0.204E+04   0.130E+01 -.147E+01 -.199E+01   -.706E-01 0.146E+00 0.339E-01
   0.605E-02 0.535E+03 0.386E+04   0.458E-10 -.524E+03 -.385E+04   -.149E-18 -.100E+02 -.803E+01   -.977E-05 0.216E+00 -.150E+00
   0.386E-02 0.608E+03 0.302E+03   -.232E-11 -.610E+03 -.301E+03   -.123E-18 0.164E+01 -.688E+00   0.242E-05 0.731E-01 -.198E+00
   0.452E-02 0.427E+03 0.262E+04   -.181E-10 -.431E+03 -.262E+04   -.152E-18 0.335E+01 0.463E+01   -.376E-05 -.170E+00 -.175E+00
   0.469E-02 0.504E+03 -.124E+04   -.191E-10 -.505E+03 0.124E+04   0.399E-18 0.123E+01 -.128E+00   -.108E-04 -.134E+00 -.761E-01
   0.419E-02 0.599E+02 -.390E+04   -.889E-11 -.615E+02 0.388E+04   0.132E-18 0.135E+01 0.125E+02   -.122E-04 -.657E-01 0.107E+00
   -.412E+03 -.434E+03 0.353E+04   0.415E+03 0.434E+03 -.352E+04   -.207E+01 -.173E+00 -.194E+01   -.271E+00 -.131E+00 -.199E+00
   -.404E+03 -.169E+03 -.987E+02   0.405E+03 0.169E+03 0.983E+02   -.138E+01 0.549E+00 0.434E+00   -.813E-01 0.457E-01 -.127E+00
   -.111E+03 0.314E+03 -.353E+04   0.110E+03 -.313E+03 0.352E+04   0.158E+01 -.488E+00 0.841E+01   -.109E+00 0.752E-01 0.735E-01
   -.394E+03 -.237E+03 0.198E+04   0.394E+03 0.238E+03 -.198E+04   -.339E+00 -.992E+00 0.438E+01   0.135E+00 0.162E+00 -.133E+00
   -.600E+03 -.216E+03 -.204E+04   0.601E+03 0.218E+03 0.204E+04   -.130E+01 -.147E+01 -.199E+01   0.706E-01 0.146E+00 0.339E-01
   0.218E+03 0.200E+03 0.358E+04   -.221E+03 -.198E+03 -.357E+04   0.284E+01 -.206E+01 -.467E+01   0.257E+00 0.472E-01 -.200E+00
   0.373E+03 -.293E+03 0.210E+02   -.373E+03 0.293E+03 -.220E+02   0.735E+00 -.160E+00 0.119E+01   0.119E+00 -.198E-01 -.101E+00
   0.302E+03 -.344E+03 -.357E+04   -.299E+03 0.344E+03 0.356E+04   -.352E+01 0.130E+00 0.582E+01   0.211E+00 -.131E+00 0.477E-01
   0.458E+03 -.323E+03 0.210E+04   -.459E+03 0.325E+03 -.210E+04   0.138E+01 -.161E+01 0.410E+01   -.143E+00 -.180E+00 -.173E+00
   0.463E+03 -.208E+03 -.195E+04   -.464E+03 0.210E+03 0.195E+04   0.508E+00 -.108E+01 -.195E+01   -.220E+00 -.130E+00 -.272E-01
   0.386E-02 0.431E+03 0.880E+03   -.221E-11 -.432E+03 -.883E+03   0.237E-19 0.714E+00 0.306E+01   0.334E-05 -.915E-01 -.496E-01
   0.514E-02 0.505E+03 -.319E+04   0.310E-12 -.501E+03 0.318E+04   0.116E-19 -.410E+01 0.407E+01   0.523E-05 -.105E+00 0.481E-02
   0.456E-02 0.511E+03 0.261E+04   -.184E-10 -.515E+03 -.261E+04   0.126E-18 0.350E+01 0.478E+01   -.534E-05 0.308E-01 -.146E+00
   0.470E-02 0.419E+03 -.123E+04   -.193E-10 -.420E+03 0.123E+04   0.185E-18 0.129E+01 -.142E+00   -.124E-04 0.765E-01 -.895E-01
   0.414E-02 -.562E+02 -.390E+04   -.891E-11 0.544E+02 0.388E+04   -.900E-19 0.137E+01 0.125E+02   -.123E-04 0.657E-01 0.147E+00
   -.218E+03 0.200E+03 0.358E+04   0.221E+03 -.198E+03 -.357E+04   -.284E+01 -.206E+01 -.467E+01   -.257E+00 0.472E-01 -.200E+00
   -.373E+03 -.293E+03 0.210E+02   0.373E+03 0.293E+03 -.220E+02   -.735E+00 -.160E+00 0.119E+01   -.119E+00 -.198E-01 -.101E+00
   -.302E+03 -.344E+03 -.357E+04   0.299E+03 0.344E+03 0.356E+04   0.352E+01 0.130E+00 0.582E+01   -.211E+00 -.131E+00 0.477E-01
   -.458E+03 -.323E+03 0.210E+04   0.459E+03 0.325E+03 -.210E+04   -.138E+01 -.161E+01 0.410E+01   0.143E+00 -.180E+00 -.173E+00
   -.463E+03 -.208E+03 -.195E+04   0.464E+03 0.210E+03 0.195E+04   -.508E+00 -.108E+01 -.195E+01   0.220E+00 -.130E+00 -.272E-01
   -.171E+03 0.894E+02 0.860E+03   0.173E+03 -.907E+02 -.861E+03   -.232E+01 0.133E+01 -.994E+00   -.937E-01 0.646E-01 -.150E+00
   0.310E+02 0.183E+03 -.674E+03   -.309E+02 -.185E+03 0.675E+03   -.261E+00 0.187E+01 -.114E+00   -.310E-01 0.338E-01 0.175E-01
   -.149E+03 0.658E+02 0.202E+03   0.152E+03 -.671E+02 -.203E+03   -.256E+01 0.145E+01 0.988E+00   0.300E-01 -.590E-01 -.759E-01
   -.142E+03 -.237E+02 -.121E+04   0.144E+03 0.239E+02 0.121E+04   -.215E+01 -.453E+00 -.733E+00   0.689E-01 -.394E-01 0.347E-01
   -.638E+01 -.574E+01 0.155E+04   0.632E+01 0.630E+01 -.155E+04   0.800E+00 -.118E+01 0.506E+01   0.106E+00 0.112E-01 -.105E+00
   0.189E-04 -.111E+03 -.801E+03   -.338E-11 0.113E+03 0.801E+03   0.183E-18 -.284E+01 0.157E+01   0.240E-05 0.505E-01 0.625E-01
   -.170E-04 -.132E+03 0.588E+03   -.762E-12 0.133E+03 -.587E+03   -.870E-19 -.192E+01 -.159E+01   0.121E-05 0.163E-02 -.130E+00
   0.286E-04 -.624E+02 0.144E+04   0.310E-11 0.624E+02 -.144E+04   0.260E-19 -.228E-01 0.635E+01   0.977E-06 0.876E-01 -.681E-01
   0.257E-04 -.150E+03 -.924E+02   0.275E-12 0.153E+03 0.928E+02   -.922E-19 -.295E+01 -.444E+00   -.283E-05 0.465E-01 -.726E-02
   0.769E-04 0.725E+02 -.141E+04   -.648E-12 -.744E+02 0.142E+04   0.483E-19 0.210E+01 -.278E+01   -.473E-05 0.356E-01 0.392E-01
   0.171E+03 0.894E+02 0.860E+03   -.173E+03 -.907E+02 -.861E+03   0.232E+01 0.133E+01 -.994E+00   0.937E-01 0.646E-01 -.150E+00
   -.310E+02 0.183E+03 -.674E+03   0.309E+02 -.185E+03 0.675E+03   0.261E+00 0.187E+01 -.114E+00   0.310E-01 0.338E-01 0.175E-01
   0.149E+03 0.658E+02 0.202E+03   -.152E+03 -.671E+02 -.203E+03   0.256E+01 0.145E+01 0.988E+00   -.300E-01 -.590E-01 -.759E-01
   0.142E+03 -.237E+02 -.121E+04   -.144E+03 0.239E+02 0.121E+04   0.215E+01 -.453E+00 -.733E+00   -.689E-01 -.394E-01 0.347E-01
   0.638E+01 -.574E+01 0.155E+04   -.632E+01 0.630E+01 -.155E+04   -.800E+00 -.118E+01 0.506E+01   -.106E+00 0.112E-01 -.105E+00
   -.325E+02 0.940E+02 0.104E+04   0.324E+02 -.953E+02 -.105E+04   0.223E+00 0.172E+01 0.194E+01   -.885E-01 0.140E-01 -.867E-01
   -.129E+03 0.664E+02 -.502E+03   0.132E+03 -.678E+02 0.501E+03   -.246E+01 0.106E+01 0.200E+01   -.128E+00 -.488E-01 0.342E-01
   -.165E+03 0.671E+02 0.185E+03   0.168E+03 -.685E+02 -.185E+03   -.258E+01 0.142E+01 0.840E+00   0.673E-01 0.184E-01 -.281E-01
   -.165E+03 -.101E+03 -.121E+04   0.167E+03 0.102E+03 0.121E+04   -.207E+01 -.499E+00 -.878E+00   0.113E+00 0.599E-01 -.182E-01
   -.267E+02 -.851E+02 0.156E+04   0.269E+02 0.861E+02 -.156E+04   0.663E+00 -.151E+01 0.533E+01   0.752E-01 -.938E-01 -.724E-01
   -.192E-04 -.412E+03 -.872E+03   -.337E-11 0.419E+03 0.873E+03   0.268E-18 -.713E+01 -.525E+00   0.339E-05 -.273E-02 0.115E-01
   -.197E-04 -.237E+03 0.638E+03   -.700E-12 0.239E+03 -.639E+03   -.141E-18 -.172E+01 -.305E-01   0.931E-06 -.429E-01 -.143E+00
   0.760E-04 -.583E+02 0.145E+04   0.311E-11 0.583E+02 -.146E+04   0.223E-19 0.176E-01 0.636E+01   -.157E-05 -.766E-02 -.116E+00
   0.195E-04 -.173E+03 -.588E+02   0.280E-12 0.176E+03 0.593E+02   -.431E-19 -.301E+01 -.535E+00   -.254E-05 -.165E-02 -.299E-01
   0.319E-04 0.567E+02 -.142E+04   -.685E-12 -.585E+02 0.142E+04   -.151E-18 0.201E+01 -.288E+01   -.259E-05 -.111E+00 0.381E-01
   0.325E+02 0.940E+02 0.104E+04   -.324E+02 -.953E+02 -.105E+04   -.223E+00 0.172E+01 0.194E+01   0.885E-01 0.140E-01 -.867E-01
   0.129E+03 0.664E+02 -.502E+03   -.132E+03 -.678E+02 0.501E+03   0.246E+01 0.106E+01 0.200E+01   0.128E+00 -.488E-01 0.342E-01
   0.165E+03 0.671E+02 0.185E+03   -.168E+03 -.685E+02 -.185E+03   0.258E+01 0.142E+01 0.840E+00   -.673E-01 0.184E-01 -.281E-01
   0.165E+03 -.101E+03 -.121E+04   -.167E+03 0.102E+03 0.121E+04   0.207E+01 -.499E+00 -.878E+00   -.113E+00 0.599E-01 -.182E-01
   0.267E+02 -.851E+02 0.156E+04   -.269E+02 0.861E+02 -.156E+04   -.663E+00 -.151E+01 0.533E+01   -.752E-01 -.938E-01 -.724E-01
   0.545E-01 0.198E+02 -.891E+02   0.101E-11 -.156E-11 0.296E-11   -.555E-15 -.194E+02 0.925E+02   -.313E-04 -.357E+00 -.348E+01

 POSITION                                       TOTAL-FORCE (eV/Angst)
      0.77362      4.85375      0.40748        -0.449805     -0.014543      0.984611
      0.77362      4.27008      3.49202        -0.137030      0.005741     -0.055045
      0.77362      3.68641      6.57656        -0.181302      0.606841     -1.908365
      5.56283      1.74780      1.94975         0.171996      0.184047     -0.377292
      5.56283      1.16413      5.03429         0.078512      0.176703      0.351247
      2.03896      2.70034      0.00000        -0.000000      0.546265      1.888809
      2.03896      2.11667      3.08454        -0.000000     -0.161604      0.191554
      6.82816      5.22262      1.54227        -0.000000     -0.253108     -0.290441
      6.82816      4.63895      4.62682        -0.000000      0.010619      0.282142
      6.82816      4.05528      7.71136        -0.000000     -0.349902     -2.359650
      3.30429      4.85375      0.40748         0.449805     -0.014543      0.984611
      3.30429      4.27008      3.49202         0.137030      0.005741     -0.055045
      3.30429      3.68641      6.57656         0.181302      0.606841     -1.908365
      8.09350      1.74780      1.94975        -0.171996      0.184047     -0.377292
      8.09350      1.16413      5.03429        -0.078512      0.176703      0.351247
      0.77362     10.48199      0.40748        -0.296663      0.436721      1.397113
      0.77362      9.89832      3.49202        -0.030175     -0.085865      0.141524
      0.77362      9.31465      6.57656        -0.173702      0.501859     -1.624114
      5.56283      7.37603      1.94975         0.120577      0.300998     -0.380951
      5.56283      6.79237      5.03429         0.156375      0.109258      0.375560
      2.03896      7.74490      3.08454        -0.000000     -0.188350     -0.227252
      2.03896      7.16123      6.16909        -0.000000      0.201149     -1.487048
      6.82816     10.85085      1.54227        -0.000000     -0.271563     -0.174003
      6.82816     10.26718      4.62682        -0.000000      0.045756      0.261613
      6.82816      9.68351      7.71136        -0.000000     -0.378441     -2.342028
      3.30429     10.48199      0.40748         0.296663      0.436721      1.397113
      3.30429      9.89832      3.49202         0.030175     -0.085865      0.141524
      3.30429      9.31465      6.57656         0.173702      0.501859     -1.624114
      8.09350      7.37603      1.94975        -0.120577      0.300998     -0.380951
      8.09350      6.79237      5.03429        -0.156375      0.109258      0.375560
      3.65019      2.91591      1.71591        -0.384599      0.026324     -1.159118
      3.65019      2.33224      4.80045        -0.263571      0.162451      0.697187
      8.43940      5.43819      3.25818        -0.034146      0.096509      0.134044
      8.43940      4.85452      6.34272        -0.234360     -0.321104      0.882698
      8.43940      0.39363      0.17364         0.849021     -0.618541      0.014984
      2.03896      5.07432      5.31932        -0.000000     -0.232628      1.475111
      2.03896      0.02975      2.23477        -0.000000     -0.268043     -1.093059
      6.82816      3.13570      0.69250        -0.000000      0.041301      0.858517
      6.82816      2.55203      3.77705        -0.000000     -0.215412     -0.095069
      6.82816      1.96837      6.86159        -0.000000      0.210753      0.112666
      0.42773      2.91591      1.71591         0.384599      0.026324     -1.159118
      0.42773      2.33224      4.80045         0.263571      0.162451      0.697187
      5.21693      5.43819      3.25818         0.034146      0.096509      0.134044
      5.21693      4.85452      6.34272         0.234360     -0.321104      0.882698
      5.21693      0.39363      0.17364        -0.849021     -0.618541      0.014984
      3.65019      8.54414      1.71591         0.043181      0.402580     -0.380704
      3.65019      7.96047      4.80045        -0.187850     -0.370660      0.960688
      8.43940     11.06642      3.25818         0.036214      0.066350      0.153409
      8.43940     10.48275      6.34272        -0.217504     -0.204125      0.807946
      8.43940      6.02186      0.17364         0.921323     -0.583190      0.157094
      2.03896     10.70255      5.31932        -0.000000     -0.416207      0.518686
      2.03896      5.65799      2.23477        -0.000000     -0.032782     -0.732278
      6.82816      8.76394      0.69250        -0.000000      0.039058      0.831809
      6.82816      8.18027      3.77705        -0.000000     -0.229046     -0.099361
      6.82816      7.59660      6.86159        -0.000000      0.145478      0.134251
      0.42773      8.54414      1.71591        -0.043181      0.402580     -0.380704
      0.42773      7.96047      4.80045         0.187850     -0.370660      0.960688
      5.21693     11.06642      3.25818        -0.036214      0.066350      0.153409
      5.21693     10.48275      6.34272         0.217504     -0.204125      0.807946
      5.21693      6.02186      0.17364        -0.921323     -0.583190      0.157094
    total drift:                                0.054475     -0.032151     -0.069720

  FREE ENERGIE OF THE ION-ELECTRON SYSTEM (eV)
  free  energy   TOTEN  =      -293.17491734 eV

  energy  without entropy=     -292.22600308  energy(sigma->0) =     -292.70046021