 vasp.5.4.4.18Apr17-6-g9f103f2a35 (build Aug 13 2019 17:33:20) gamma-only

 executed on             LinuxIFC date 2020.05.12  12:16:05

 INCAR:
 POTCAR:    PAW_PBE Ni_pv 06Sep2000
 POTCAR:    PAW_PBE S 06Sep2000
 POTCAR:    PAW_PBE Ni_pv 06Sep2000
   VRHFIN =Ni:

   TITEL  = PAW_PBE Ni_pv 06Sep2000
   POMASS =   58.690; ZVAL   =   16.000    mass and valenz
   ENMAX  =  367.986; ENMIN  =  275.989 eV

 POTCAR:    PAW_PBE S 06Sep2000
   VRHFIN =S : s2p4

   TITEL  = PAW_PBE S 06Sep2000
   POMASS =   32.066; ZVAL   =    6.000    mass and valenz
   ENMAX  =  258.689; ENMIN  =  194.016 eV

 Optimization of the real space projectors (new method)

 maximal supplied QI-value         = 18.90
 optimisation between [QCUT,QGAM] = [ 10.77, 21.73] = [ 32.49,132.25] Ry
 Optimized for a Real-space Cutoff    1.38 Angstroem

   l    n(q)    QCUT    max X(q) W(low)/X(q) W(high)/X(q)  e(spline)
   1      8    10.771     2.836    0.40E-04    0.29E-04    0.12E-06
   1      8    10.771     4.023    0.10E-03    0.48E-04    0.29E-06
   2      8    10.771    73.368    0.42E-03    0.97E-04    0.44E-06
   2      8    10.771    69.010    0.42E-03    0.99E-04    0.45E-06
   0      9    10.771    54.797    0.10E-03    0.56E-04    0.74E-07
   0      9    10.771    24.266    0.89E-04    0.49E-04    0.67E-07
 Optimization of the real space projectors (new method)

 maximal supplied QI-value         = 19.84
 optimisation between [QCUT,QGAM] = [ 10.71, 21.63] = [ 32.15,130.99] Ry
 Optimized for a Real-space Cutoff    1.19 Angstroem

   l    n(q)    QCUT    max X(q) W(low)/X(q) W(high)/X(q)  e(spline)
   0      8    10.715   187.594    0.41E-03    0.53E-04    0.66E-07
   0      8    10.715   164.243    0.41E-03    0.53E-04    0.65E-07
   1      7    10.715    67.533    0.19E-03    0.59E-03    0.68E-07
   1      7    10.715    50.729    0.19E-03    0.58E-03    0.67E-07
  PAW_PBE Ni_pv 06Sep2000               :
  PAW_PBE S 06Sep2000                   :

 POSCAR: Type_036 Type_136
  positions in cartesian coordinates
 exchange correlation table for  LEXCH =        8
   RHO(1)=    0.500       N(1)  =     2000
   RHO(2)=  100.500       N(2)  =     4000

 ion  position               nearest neighbor table
   1  0.374  0.751  0.095-  60 2.03  48 2.09  41 2.25  14 2.36  61 2.36  49 2.36  33 2.44
   2  0.525  0.601  0.223-  42 2.25  61 2.26  49 2.26  62 2.36  50 2.36  15 2.53  27 2.53
   3  0.675  0.451  0.351-  43 2.25  50 2.26  62 2.26  63 2.36  51 2.36   4 2.47  28 2.53  16 2.53

   4  0.740  0.353  0.462-  64 2.05  51 2.08  63 2.08  44 2.10   3 2.47
   5  0.841  0.076  0.030-  52 2.01  67 2.04  20 2.43   6 2.45
   6  0.758  0.035  0.137-  67 2.09  52 2.16  45 2.25  53 2.36  68 2.36  20 2.42   5 2.45
   7  0.058  0.734  0.394-  55 2.07  66 2.21  65 2.26  54 2.26  47 2.51  18 2.53  31 2.53
   8  0.908  0.884  0.266-  46 2.25  53 2.26  68 2.26  54 2.36  65 2.36  30 2.53  17 2.53
   9  0.141  0.318  0.180-  69 2.04  40 2.25  56 2.26  57 2.36  70 2.36
  10  0.291  0.168  0.308-  37 2.25  70 2.26  57 2.26  58 2.36  71 2.36  22 2.53  35 2.53
  11  0.419  0.033  0.423-  71 2.03  58 2.09  38 2.11  72 2.16
  12  0.937  0.621  0.105-  56 2.05  59 2.07  39 2.07  68 2.13  20 2.42  27 2.51
  13  0.010  0.116  0.411-  64 2.05  38 2.12  54 2.25  37 2.26  63 2.26  25 2.48
  14  0.571  0.570  0.049-  39 2.04  61 2.06  60 2.07   1 2.36
  15  0.709  0.416  0.155-  52 2.15  39 2.26  61 2.26  40 2.36  62 2.36   2 2.53  27 2.53
  16  0.860  0.266  0.283-  53 2.25  62 2.26  40 2.26  37 2.36  63 2.36   3 2.53  28 2.53
  17  0.093  0.700  0.198-  56 2.25  41 2.26  68 2.26  65 2.36  42 2.36  30 2.53   8 2.53
  18  0.243  0.549  0.326-  66 2.11  57 2.25  65 2.26  42 2.26  43 2.36   7 2.53  31 2.53
  19  0.370  0.418  0.436-  43 2.02  44 2.10  66 2.11  58 2.19
  20  0.953  0.851  0.085-  59 2.09  41 2.12  67 2.15  68 2.15  12 2.42   6 2.42   5 2.43  33 2.50

[...]

  36  0.659  0.068  0.389-  46 2.04  58 2.14  63 2.19  47 2.19
  37  0.064  0.262  0.341-  25 2.05  10 2.25  13 2.26  16 2.36  28 2.36  38 2.57
  38  0.202  0.136  0.443-  11 2.11  13 2.12  25 2.17  37 2.57  64 2.66
  39  0.763  0.563  0.085-  14 2.04  12 2.07  26 2.17  15 2.26  27 2.26
  40  0.914  0.412  0.213-   9 2.25  16 2.26  28 2.26  27 2.36  15 2.36
  41  0.147  0.846  0.128-  20 2.12  33 2.16  29 2.22   1 2.25  17 2.26  30 2.26
  42  0.297  0.696  0.256-   2 2.25  31 2.26  18 2.26  17 2.36  30 2.36
  43  0.447  0.545  0.384-  32 2.02  19 2.02   3 2.25  31 2.36  18 2.36  44 2.55  55 2.78
  44  0.531  0.439  0.496-  32 2.09   4 2.10  19 2.10  43 2.55
  45  0.530  0.129  0.170-  21 2.16  34 2.21   6 2.25  35 2.26  22 2.26
  46  0.680  0.979  0.298-  36 2.04   8 2.25  23 2.26  35 2.36  22 2.36
  47  0.799  0.855  0.418-  24 2.07  23 2.10  36 2.19   7 2.51
  48  0.437  0.916  0.061-   1 2.09  21 2.09  26 2.12  49 2.57
  49  0.528  0.798  0.171-  26 2.08  22 2.25  27 2.26   2 2.26   1 2.36  48 2.57
  50  0.678  0.648  0.299-  23 2.25   3 2.26  28 2.26  27 2.36   2 2.36
  51  0.829  0.497  0.427-  24 2.05   4 2.08  25 2.14  28 2.36   3 2.36  64 2.79
  52  0.797  0.220  0.103-   5 2.01  15 2.15   6 2.16  29 2.17  53 2.71
  53  0.911  0.081  0.214-  29 2.08  16 2.25   8 2.26  30 2.26   6 2.36  52 2.71
  54  0.062  0.931  0.342-  13 2.25  31 2.26   7 2.26  30 2.36   8 2.36
  55  0.224  0.740  0.452-  31 2.04   7 2.07  32 2.10  43 2.78
  56  0.145  0.515  0.128-  12 2.05  33 2.06  17 2.25   9 2.26
  57  0.295  0.364  0.257-  34 2.16  18 2.25  35 2.26  10 2.26   9 2.36
  58  0.445  0.214  0.385-  11 2.09  36 2.14  19 2.19  10 2.36  35 2.36
  59  0.004  0.684  0.018-  33 2.06  12 2.07  20 2.09
  60  0.367  0.642  0.013-   1 2.03  14 2.07  33 2.09  61 2.74
  61  0.477  0.512  0.128-  34 2.02  14 2.06   2 2.26  15 2.26   1 2.36  60 2.74
  62  0.628  0.362  0.256-  34 2.20  35 2.25  16 2.26   3 2.26   2 2.36  15 2.36
  63  0.778  0.212  0.384-   4 2.08  36 2.19  13 2.26   3 2.36  16 2.36
  64  0.942  0.239  0.493-  13 2.05   4 2.05  25 2.09  38 2.66  51 2.79
  65  0.011  0.645  0.299-  28 2.25   7 2.26  18 2.26  17 2.36   8 2.36
  66  0.152  0.504  0.412-  18 2.11  19 2.11   7 2.21  25 2.30
  67  0.740  0.938  0.049-   5 2.04   6 2.09  20 2.15  26 2.17
  68  0.861  0.795  0.171-  12 2.13  20 2.15  27 2.25   8 2.26  17 2.26   6 2.36
  69  0.143  0.189  0.103-   9 2.04  21 2.11  29 2.12  70 2.57
  70  0.244  0.079  0.213-  21 2.05  30 2.25  22 2.26  10 2.26   9 2.36  69 2.57
  71  0.395  0.928  0.341-  11 2.03  31 2.25  23 2.26  10 2.36  22 2.36  72 2.78
  72  0.525  0.820  0.459-  24 2.05  32 2.13  23 2.14  11 2.16  71 2.78

  LATTYP: Found a base centered orthorhombic cell.
 ALAT       =    11.4527836704
 B/A-ratio  =     1.4485816945
 C/A-ratio  =     1.7901333131

  Lattice vectors:

 A1 = (  10.0797329849,   0.0000000000,   0.0000000000)
 A2 = (  -3.5732980427,  -9.4251025535,   0.0000000000)
 A3 = (   0.0000000000,   0.0000000000, -20.5020095760)

Analysis of symmetry for initial positions (statically):
 Subroutine PRICEL returns:
 Original cell was already a primitive cell.

 Routine SETGRP: Setting up the symmetry group for a
 base centered orthorhombic supercell.

 Subroutine GETGRP returns: Found  1 space group operations
 (whereof  1 operations were pure point group operations)
 out of a pool of  8 trial point group operations.

The static configuration has the point symmetry C_1 .

Analysis of symmetry for dynamics (positions and initial velocities):
 Subroutine PRICEL returns:
 Original cell was already a primitive cell.

 Routine SETGRP: Setting up the symmetry group for a
 base centered orthorhombic supercell.

 Subroutine GETGRP returns: Found  1 space group operations
 (whereof  1 operations were pure point group operations)
 out of a pool of  8 trial point group operations.

The dynamic configuration has the point symmetry C_1 .

 Subroutine INISYM returns: Found  1 space group operations
 (whereof  1 operations are pure point group operations),
 and found     1 'primitive' translations

 KPOINTS: gamma-point-only calculation. no periodi

Automatic generation of k-mesh.
Space group operators:
 irot       det(A)        alpha          n_x          n_y          n_z        tau_x        tau_y        tau_z
    1     1.000000     0.000001     1.000000     0.000000     0.000000     0.000000     0.000000     0.000000

 Subroutine IBZKPT returns following result:

 Found      1 irreducible k-points:

 Following reciprocal coordinates:
            Coordinates               Weight
  0.000000  0.000000  0.000000      1.000000

 Following cartesian coordinates:
            Coordinates               Weight
  0.000000  0.000000  0.000000      1.000000

 SYSTEM =  "Millerite NiS"
 POSCAR =  Type_036 Type_136

 Startparameter for this run:
   NWRITE =      2    write-flag & timer
   PREC   = normal    normal or accurate (medium, high low for compatibility)
   ISTART =      0    job   : 0-new  1-cont  2-samecut
   ICHARG =      2    charge: 1-file 2-atom 10-const
   ISPIN  =      1    spin polarized calculation?
   LNONCOLLINEAR =      F non collinear calculations
   LSORBIT =      F    spin-orbit coupling
   INIWAV =      1    electr: 0-lowe 1-rand  2-diag
   LASPH  =      F    aspherical Exc in radial PAW
   METAGGA=      F    non-selfconsistent MetaGGA calc.

 Electronic Relaxation 1
   ENCUT  =  450.0 eV  33.07 Ry    5.75 a.u.  17.43 17.43 35.46*2*pi/ulx,y,z
   ENINI  =  450.0     initial cutoff
   ENAUG  =  703.4 eV  augmentation charge cutoff
   NELM   =    100;   NELMIN=  2; NELMDL= -5     # of ELM steps
   EDIFF  = 0.1E-03   stopping-criterion for ELM
   LREAL  =      T    real-space projection
   NLSPLINE    = F    spline interpolate recip. space projectors
   LCOMPAT=      F    compatible to vasp.4.4
   GGA_COMPAT  = T    GGA compatible to vasp.4.4-vasp.4.6
   LMAXPAW     = -100 max onsite density
   LMAXMIX     =    2 max onsite mixed and CHGCAR
   VOSKOWN=      0    Vosko Wilk Nusair interpolation
   ROPT   =   -0.00050  -0.00050
 Ionic relaxation
   EDIFFG = 0.1E-02   stopping-criterion for IOM
   NSW    =      0    number of steps for IOM
   NBLOCK =      1;   KBLOCK =      1    inner block; outer block
   IBRION =     -1    ionic relax: 0-MD 1-quasi-New 2-CG
   NFREE  =      0    steps in history (QN), initial steepest desc. (CG)
   ISIF   =      2    stress and relaxation
   IWAVPR =     10    prediction:  0-non 1-charg 2-wave 3-comb
   ISYM   =      2    0-nonsym 1-usesym 2-fastsym
   LCORR  =      T    Harris-Foulkes like correction to forces

   POTIM  = 0.5000    time-step for ionic-motion
   TEIN   =    0.0    initial temperature
   TEBEG  =    0.0;   TEEND  =   0.0 temperature during run
   SMASS  =  -3.00    Nose mass-parameter (am)
   estimated Nose-frequenzy (Omega)   =  0.10E-29 period in steps =****** mass=  -0.232E-26a.u.
   SCALEE = 1.0000    scale energy and forces
   NPACO  =    256;   APACO  = 16.0  distance and # of slots for P.C.
   PSTRESS=    0.0 pullay stress

  Mass of Ions in am
   POMASS =  58.69 32.07
  Ionic Valenz
   ZVAL   =  16.00  6.00
  Atomic Wigner-Seitz radii
  virtual crystal weights
   VCA    =   1.00  1.00
   NELECT =     792.0000    total number of electrons
   NUPDOWN=      -1.0000    fix difference up-down

 DOS related values:
[...]
  Fock        0.00000     0.00000     0.00000     0.00000     0.00000     0.00000
  Total      81.77994    75.11550   104.80092    -0.60311    -1.93679     0.17135
  in kB      67.27068    61.78864    86.20732    -0.49611    -1.59317     0.14095

 VOLUME and BASIS-vectors are now :
  energy-cutoff  :      450.00
  volume of cell :     1947.74
      direct lattice vectors                 reciprocal lattice vectors
    10.079732985  0.000000000  0.000000000     0.099208977 -0.037612667  0.000000000
     3.573298043  9.425102554  0.000000000     0.000000000  0.106099641  0.000000000
     0.000000000  0.000000000 20.502009576     0.000000000  0.000000000  0.048775706

  length of vectors
    10.079732985 10.079732985 20.502009576     0.106099641  0.106099641  0.048775706

 FORCES acting on ions
    electron-ion (+dipol)            ewald-force                    non-local-force                 convergence-correction
   0.128E+03 -.447E+03 0.384E+04   -.129E+03 0.452E+03 -.384E+04   0.526E+00 -.419E+01 0.306E+01   -.363E-01 -.494E-01 -.361E+00
   0.384E+03 -.223E+03 0.514E+03   -.384E+03 0.225E+03 -.513E+03   0.367E+00 -.160E+01 -.347E+00   -.222E-01 -.535E-01 -.359E+00
   0.360E+03 -.101E+03 -.228E+04   -.361E+03 0.102E+03 0.228E+04   0.893E+00 -.126E+01 0.312E+00   0.130E-01 0.122E-01 0.115E+00
   0.222E+03 0.338E+03 -.511E+04   -.227E+03 -.338E+03 0.511E+04   0.427E+01 -.847E-01 -.385E+01   0.505E-02 0.661E-01 0.261E+00
   -.482E+02 -.802E+03 0.574E+04   0.489E+02 0.803E+03 -.574E+04   -.340E+00 -.506E+00 -.405E+01   -.532E-01 0.583E-01 -.304E+00
   0.672E+03 -.617E+03 0.264E+04   -.676E+03 0.620E+03 -.263E+04   0.410E+01 -.284E+01 0.217E-01   0.271E+00 0.118E+00 -.100E+01
   0.552E+03 -.325E+03 -.396E+04   -.555E+03 0.326E+03 0.396E+04   0.174E+01 -.726E+00 -.124E+01   -.113E+00 0.242E-01 0.105E+00
   0.367E+03 -.196E+03 -.748E+03   -.367E+03 0.197E+03 0.749E+03   0.518E+00 -.108E+01 0.255E-01   -.398E-01 0.331E-01 -.270E+00
   0.522E+01 -.136E+03 0.225E+04   -.711E+01 0.140E+03 -.225E+04   0.282E+01 -.301E+01 0.901E+00   -.215E-01 0.134E-01 -.393E+00
   0.490E+03 -.203E+03 -.141E+04   -.490E+03 0.204E+03 0.141E+04   0.626E+00 -.149E+01 0.169E+01   -.138E-01 0.178E-01 -.124E+00
   0.235E+03 -.219E+03 -.468E+04   -.234E+03 0.221E+03 0.469E+04   -.129E+01 -.116E+01 -.295E+01   0.596E-01 -.765E-01 0.186E+00
   0.852E+02 0.104E+04 0.404E+04   -.851E+02 -.105E+04 -.404E+04   -.121E+01 0.501E+01 0.388E+01   -.358E-02 0.149E+00 -.393E+00
   0.145E+03 0.784E+03 -.387E+04   -.147E+03 -.791E+03 0.387E+04   0.142E+01 0.515E+01 0.694E+00   -.903E-01 0.150E-02 0.141E+00
   -.702E+02 0.724E+03 0.539E+04   0.689E+02 -.723E+03 -.539E+04   0.163E+01 -.162E+01 0.179E+01   0.256E-01 -.933E-01 -.249E+00
   -.165E+03 0.684E+03 0.294E+04   0.167E+03 -.684E+03 -.294E+04   -.140E+01 0.606E+00 -.363E-01   -.489E-01 -.210E+00 -.537E+00
   -.110E+03 0.533E+03 -.417E+03   0.111E+03 -.534E+03 0.415E+03   -.554E+00 0.484E+00 0.144E+01   -.498E-01 -.416E-01 -.245E+00
   -.189E+03 0.638E+03 0.118E+04   0.190E+03 -.640E+03 -.117E+04   -.356E+00 0.175E+01 -.219E+01   -.209E-01 0.435E-01 -.423E+00
   0.107E+03 0.386E+03 -.142E+04   -.108E+03 -.389E+03 0.142E+04   0.502E+00 0.230E+01 0.305E+01   -.573E-02 0.894E-02 -.129E+00
   0.363E+03 0.458E+03 -.461E+04   -.366E+03 -.463E+03 0.461E+04   0.154E+01 0.427E+01 -.663E+00   0.762E-01 0.271E-02 0.183E+00
   -.169E+03 -.951E+02 0.451E+04   0.171E+03 0.992E+02 -.452E+04   -.117E+01 -.390E+01 0.547E+01   -.159E+00 0.572E+00 -.632E+00
   -.617E+02 -.460E+03 0.394E+04   0.634E+02 0.458E+03 -.394E+04   -.142E+01 0.256E+01 0.728E+01   0.518E-01 0.542E-02 -.429E+00
   0.652E+01 0.372E+03 0.527E+03   -.611E+01 -.373E+03 -.526E+03   -.221E+00 0.820E+00 -.474E+00   0.527E-01 -.340E-01 -.328E+00
   -.879E+02 0.194E+03 -.246E+04   0.873E+02 -.198E+03 0.245E+04   -.400E+00 0.429E+01 0.154E+01   0.809E-01 -.131E+00 0.201E+00
   -.526E+03 -.123E+02 -.518E+04   0.528E+03 0.125E+02 0.517E+04   -.162E+01 -.598E+00 0.177E+01   0.746E-02 -.538E-01 0.278E+00
   -.583E+03 -.260E+03 -.454E+04   0.588E+03 0.266E+03 0.455E+04   -.247E+01 -.376E+01 -.286E+01   -.105E+00 0.757E-01 0.213E+00
   0.644E+02 -.451E+03 0.453E+04   -.644E+02 0.454E+03 -.453E+04   -.197E+00 -.258E+01 0.429E+01   0.193E+00 0.115E+00 -.396E+00
   -.247E+03 -.260E+02 0.126E+04   0.246E+03 0.248E+02 -.125E+04   0.789E+00 0.777E+00 -.291E+01   0.191E-01 0.345E-01 -.401E+00
   -.535E+03 -.237E+03 -.143E+04   0.535E+03 0.238E+03 0.143E+04   -.166E+00 -.135E+01 0.204E+01   -.120E-01 0.744E-01 -.632E-01
   -.682E+03 -.685E+03 0.355E+04   0.686E+03 0.688E+03 -.355E+04   -.400E+01 -.319E+01 0.361E+01   -.475E+00 0.416E-01 -.798E+00
   -.513E+03 -.322E+03 0.348E+03   0.513E+03 0.322E+03 -.347E+03   -.123E+00 -.644E+00 -.107E+01   -.721E-01 0.156E-01 -.375E+00
   -.243E+03 -.460E+03 -.253E+04   0.244E+03 0.463E+03 0.252E+04   -.978E+00 -.303E+01 0.890E+00   0.968E-02 -.155E-01 0.495E-02
   0.550E+02 -.339E+03 -.514E+04   -.507E+02 0.342E+03 0.514E+04   -.447E+01 -.191E+01 -.321E+01   0.172E+00 -.916E-02 0.247E+00
   -.245E+03 0.784E+03 0.483E+04   0.249E+03 -.788E+03 -.484E+04   -.236E+01 0.434E+01 0.762E+01   -.291E-01 0.113E+00 -.307E+00
   0.389E+03 0.611E+00 0.245E+04   -.393E+03 -.258E+01 -.245E+04   0.348E+01 0.187E+01 0.870E+00   0.752E-01 -.281E-02 -.446E+00
   -.313E+03 -.698E+02 -.554E+03   0.313E+03 0.682E+02 0.556E+03   0.116E+00 0.153E+00 -.268E+00   0.845E-01 0.722E-01 -.314E+00
   -.498E+03 -.138E+03 -.377E+04   0.500E+03 0.140E+03 0.377E+04   -.144E+01 -.140E+01 -.155E+01   0.606E-01 -.434E-01 0.121E+00
   -.124E+03 0.804E+02 -.603E+03   0.125E+03 -.797E+02 0.598E+03   -.166E+01 -.680E+00 0.195E+01   -.141E-01 0.147E-02 -.187E-01
   -.866E+02 0.108E+03 -.185E+04   0.875E+02 -.109E+03 0.186E+04   -.327E+00 0.389E+00 -.153E+01   -.387E-02 -.120E-01 0.803E-01
   -.157E+03 0.372E+03 0.186E+04   0.158E+03 -.374E+03 -.186E+04   -.820E+00 0.164E+01 0.387E+01   -.239E-01 -.108E-01 -.138E+00
   -.174E+03 0.116E+03 0.561E+03   0.175E+03 -.117E+03 -.562E+03   -.132E+01 0.468E+00 0.134E+01   -.170E-01 -.558E-02 -.150E+00
   -.299E+03 -.135E+03 0.124E+04   0.302E+03 0.138E+03 -.124E+04   -.768E+00 -.118E+01 0.974E+00   -.639E-01 0.342E-01 -.203E+00
   -.108E+03 0.170E+02 0.911E+02   0.110E+03 -.179E+02 -.928E+02   -.174E+01 0.957E+00 0.170E+01   0.422E-02 -.171E-01 -.106E+00
   -.689E+02 0.384E+02 -.970E+03   0.709E+02 -.385E+02 0.965E+03   -.790E+00 0.218E+00 0.166E+01   0.383E-01 0.921E-02 0.281E-01
   0.773E+02 0.184E+03 -.213E+04   -.769E+02 -.186E+03 0.214E+04   -.578E+00 0.108E+01 -.181E+01   0.826E-01 -.483E-02 0.944E-01
   -.413E+02 -.786E+02 0.112E+04   0.423E+02 0.781E+02 -.112E+04   0.314E-01 0.356E+00 0.211E+01   0.795E-01 0.245E-01 -.202E+00
   -.141E+03 0.588E+02 -.263E+03   0.143E+03 -.598E+02 0.261E+03   -.181E+01 0.462E+00 0.350E+00   0.357E-01 -.153E-01 -.595E-01
   -.365E+03 -.841E+02 -.164E+04   0.368E+03 0.844E+02 0.165E+04   -.268E+00 -.526E+00 -.115E+01   -.363E-01 -.680E-01 0.100E+00
   0.444E+02 -.349E+03 0.203E+04   -.453E+02 0.352E+03 -.204E+04   0.999E+00 -.162E+01 0.396E+01   0.315E-01 -.398E-02 -.114E+00
   0.112E+03 -.180E+03 0.672E+03   -.114E+03 0.181E+03 -.669E+03   0.729E+00 -.139E+01 0.165E+00   0.191E-01 -.179E-01 -.165E+00
   -.433E+01 -.169E+03 -.416E+03   0.411E+01 0.171E+03 0.417E+03   0.254E-01 -.239E+01 -.148E+01   0.954E-02 0.108E-01 -.376E-01
   -.177E+03 -.136E+03 -.161E+04   0.177E+03 0.140E+03 0.161E+04   0.486E+00 -.325E+01 -.207E+01   -.491E-01 0.760E-01 0.132E+00
   0.116E+02 -.354E+03 0.154E+04   -.116E+02 0.357E+03 -.154E+04   0.385E+00 -.101E+01 0.166E+01   -.277E-01 -.238E+00 -.395E+00
   0.380E+02 -.219E+03 0.257E+03   -.388E+02 0.220E+03 -.256E+03   0.965E-01 -.177E+01 0.922E+00   -.354E-01 0.247E-02 -.220E+00
   0.350E+02 -.174E+03 -.919E+03   -.353E+02 0.176E+03 0.919E+03   0.161E+00 -.282E+01 -.162E+00   -.287E-01 0.230E-02 -.108E-01
   0.190E+03 -.206E+03 -.207E+04   -.192E+03 0.209E+03 0.208E+04   0.577E+00 -.845E+00 -.168E+01   -.651E-02 0.382E-02 0.888E-01
   -.132E+03 0.493E+03 0.127E+04   0.134E+03 -.496E+03 -.127E+04   -.102E+01 0.416E+00 0.293E+01   0.183E-01 0.207E-01 -.151E+00
   0.157E+03 -.135E+03 0.632E+02   -.158E+03 0.138E+03 -.627E+02   0.195E+00 -.269E+01 -.112E+00   0.288E-01 0.267E-01 -.121E+00
   0.165E+01 -.156E+03 -.132E+04   -.971E+00 0.159E+03 0.132E+04   -.310E+00 -.169E+01 -.133E+01   0.230E-01 -.107E-01 0.336E-01
   0.853E+02 0.251E+03 0.235E+04   -.867E+02 -.252E+03 -.235E+04   0.117E+01 0.166E+00 0.241E+01   -.330E-02 0.104E+00 -.551E-01
   0.954E+02 0.160E+03 0.225E+04   -.955E+02 -.159E+03 -.225E+04   -.534E+00 -.121E+01 0.122E+01   0.223E-02 -.326E-02 -.433E-01
   0.284E+03 0.212E+03 0.135E+04   -.289E+03 -.214E+03 -.135E+04   0.467E+01 0.221E+01 0.194E+00   0.661E-02 -.388E-01 -.145E+00
   0.275E+02 0.986E+02 -.181E+02   -.272E+02 -.999E+02 0.202E+02   0.134E+00 0.106E+01 -.135E+01   -.201E-01 -.110E-01 -.141E+00
   0.873E+02 0.251E+03 -.116E+04   -.899E+02 -.254E+03 0.116E+04   0.213E+01 0.118E+01 -.960E-01   -.257E-02 0.182E-01 0.704E-01
   -.319E+02 0.211E+03 -.224E+04   0.321E+02 -.212E+03 0.224E+04   -.645E-01 0.890E+00 -.284E+01   -.640E-01 0.367E-01 0.954E-01
   0.134E+03 0.755E+02 -.404E+03   -.136E+03 -.764E+02 0.403E+03   0.214E+01 0.109E+01 0.738E-01   -.118E-01 0.152E-01 -.427E-01
   0.187E+03 0.472E+02 -.162E+04   -.188E+03 -.484E+02 0.162E+04   -.266E-01 0.335E+00 -.148E+00   -.325E-01 0.302E-01 0.449E-01
   0.386E+03 -.133E+03 0.209E+04   -.388E+03 0.133E+03 -.209E+04   0.601E+00 -.620E+00 0.130E+01   0.264E+00 0.222E+00 -.164E+00
   0.183E+03 -.609E+02 0.568E+03   -.185E+03 0.628E+02 -.566E+03   0.187E+01 -.122E+01 0.585E+00   0.308E-02 0.598E-01 -.207E+00
   -.368E+02 -.186E+03 0.183E+04   0.355E+02 0.189E+03 -.183E+04   0.847E+00 -.256E+01 0.267E+01   -.795E-01 -.207E-01 -.163E+00
   0.162E+03 -.370E+02 0.410E+03   -.164E+03 0.358E+02 -.407E+03   0.150E+01 0.111E+01 0.458E+00   -.249E-01 -.126E-02 -.141E+00
   0.188E+03 0.840E+02 -.705E+03   -.191E+03 -.860E+02 0.704E+03   0.258E+01 0.113E+01 -.121E+01   0.724E-02 -.197E-01 0.245E-02
   0.108E+03 -.162E+03 -.199E+04   -.109E+03 0.161E+03 0.199E+04   -.995E-01 0.278E+00 -.167E+01   0.821E-01 -.705E-01 0.971E-01
   -.828E+01 0.186E+02 -.288E+02   0.853E-13 -.162E-11 0.114E-11   0.833E+01 -.195E+02 0.384E+02   0.765E-01 0.983E+00 -.955E+01

 POSITION                                       TOTAL-FORCE (eV/Angst)
      6.45801      7.08167      1.94264        -0.011959      1.022587      2.126721
      7.43572      5.66537      4.56814        -0.057022      0.035001      0.049744
      8.41343      4.24907      7.19364        -0.142793      0.181150     -0.481422
      8.71863      3.33057      9.46726        -0.993230      0.219968      0.946106
      8.75426      0.72047      0.61339         0.284417      0.540279     -1.290257
      7.76163      0.32617      2.81780        -0.539339      0.460823      2.070452
      3.21062      6.91868      8.06881        -1.272703      0.319355     -0.762762
     12.31264      8.33497      5.44331         0.112229     -0.098900      0.366966
      2.55881      2.99577      3.69297         0.903142      0.631957      1.192461
      3.53652      1.57947      6.31847         0.507214     -0.173091     -0.140871
      4.34401      0.30863      8.66568         0.175485      0.323161      1.094825
     11.66085      5.85594      2.14897        -1.130195     -0.704074      0.046724
      0.51382      1.09100      8.43180        -0.948683     -1.194462     -1.931064
      7.79551      5.37651      1.01295         0.392839     -0.709232     -1.086926
      8.63813      3.92359      3.18079         0.222639      0.136056      0.076892
      9.61584      2.50729      5.80630         0.047274     -0.166631     -0.106202
      3.43531      6.59319      4.05596         0.288317     -0.300773      0.631454
      4.41302      5.17689      6.68146         0.094855      0.061057     -1.307330
      5.22347      3.94259      8.93344        -0.647847     -1.035134      0.530575
     12.65031      8.02312      1.74759         0.456688      0.741899     -1.363565
      3.86810      0.73582      2.66306         0.344660      1.058396     -0.564752
      8.31222      9.26279      4.93113         0.240739     -0.122281      0.181717
      9.28993      7.84650      7.55663        -0.972213      0.720799     -2.402433
      9.93853      6.60346      9.46817         0.634058     -0.473056      1.117412
      1.63464      3.25612      8.88536         1.896066      1.821171      0.698821
      9.34599      7.44459      1.79318        -0.062257     -0.102199     -0.710696
      9.84053      6.03956      3.87447        -0.303972     -0.383688      0.711271
     10.81824      4.62327      6.49997         0.076328     -0.085247     -0.133105
      0.35552      0.68856      2.54370         0.073531     -0.161494     -1.024504
      4.63771      8.70917      4.74963        -0.012428     -0.268388      0.255661
      5.61542      7.29287      7.37514         0.427874     -0.036178     -1.650073
      6.80901      6.14673      9.58605        -0.006706      1.056957      0.941695
      4.24696      6.20295      1.40597         0.941809      0.004916     -0.483767
      5.92216      3.39551      3.85932        -0.408955     -0.106588     -0.624001
      5.94133      1.95367      5.62480        -0.011999     -1.352175      1.329561
      6.88461      0.63783      7.98052         0.734672      0.633374      1.089797
      1.57981      2.47018      6.99321        -0.564362     -0.005992     -2.742769
      2.52147      1.28131      9.07384         0.647587     -0.865856      2.165943
      9.70412      5.30277      1.74220         0.459622     -1.148634     -1.019911
     10.68183      3.88647      4.36771         0.060213     -0.044665      0.100684
      4.50130      7.97237      2.61737         1.559753      0.976772      0.434394
      5.47901      6.55607      5.24287         0.146791      0.050337     -0.023711
      6.45673      5.13978      7.86838         1.278109      0.090140     -3.519301
      6.91707      4.14011     10.16738        -0.063169     -1.085099      2.224623
      5.80492      1.21687      3.49254         1.042483     -0.185580     -0.755109
     10.35593      9.22568      6.11804        -0.189053     -0.556344     -2.309435
     11.10832      8.05631      8.57744         2.465510     -0.267483      1.551470
      7.67715      8.63537      1.24742         0.140879      1.303140     -2.169987
      8.17302      7.52069      3.50880        -0.627928     -0.089560      2.207110
      9.15074      6.10439      6.13430        -0.189745     -0.118974     -0.377609
     10.12845      4.68809      8.75980         0.445397      1.186535     -0.500659
      8.82129      2.07155      2.10613         0.362675      1.432370     -0.896091
      9.47664      0.76519      4.38397        -0.779668     -0.194029      2.089033
      3.94792      8.77399      7.00947        -0.162232     -0.045037     -0.008848
      4.90202      6.97508      9.26312        -0.693002      1.694638      3.248042
      3.29611      4.85108      2.63363         0.593455     -2.559609      1.809031
      4.27382      3.43479      5.25914        -0.830542      0.201658      0.288759
      5.25153      2.01849      7.88464         0.386149      1.277894     -0.006340
      2.48153      6.45066      0.37913        -0.270609     -0.220552     -3.146174
      5.98983      6.04653      0.26063        -0.567822     -0.559279     -3.613729
      6.64193      4.82628      2.62550        -0.351082      0.316866      0.469865
      7.61964      3.40999      5.25100         0.412448     -0.220615      0.590945
      8.59735      1.99369      7.87651        -0.488335     -1.266573     -0.892463
     10.34633      2.25256     10.09843         0.067124     -0.449335      3.654393
      2.41682      6.07959      6.12617        -0.312806      0.149685     -0.332473
      3.33264      4.74769      8.44370        -1.132799     -0.828103      2.008573
     10.80956      8.84092      1.00905        -1.230962      0.037083     -2.267776
     11.51884      7.49589      3.50067        -0.388716      0.760662      2.528812
      2.11940      1.78404      2.11675        -0.520263     -0.326717     -2.621077
      2.74272      0.74039      4.37584        -0.811997     -0.147962      2.416432
      7.29374      8.74919      7.00134        -0.629335     -0.934694     -2.333209
      8.22501      7.72694      9.41142        -0.596303      0.147592      2.353440
    total drift:                                0.121742      0.081723      0.106047

  FREE ENERGIE OF THE ION-ELECTRON SYSTEM (eV)
  free  energy   TOTEN  =      -352.15929533 eV

  energy  without entropy=     -351.23303766  energy(sigma->0) =     -351.69616649