 vasp.5.4.4.18Apr17-6-g9f103f2a35 (build Aug 13 2019 17:33:20) gamma-only

 executed on             LinuxIFC date 2020.05.12  10:27:18

 INCAR:
 POTCAR:    PAW_PBE Ni_pv 06Sep2000
 POTCAR:    PAW_PBE S 06Sep2000
 POTCAR:    PAW_PBE Ni_pv 06Sep2000
   VRHFIN =Ni:

   TITEL  = PAW_PBE Ni_pv 06Sep2000
   POMASS =   58.690; ZVAL   =   16.000    mass and valenz
   ENMAX  =  367.986; ENMIN  =  275.989 eV

 POTCAR:    PAW_PBE S 06Sep2000
   VRHFIN =S : s2p4

   TITEL  = PAW_PBE S 06Sep2000
   POMASS =   32.066; ZVAL   =    6.000    mass and valenz
   ENMAX  =  258.689; ENMIN  =  194.016 eV

 Optimization of the real space projectors (new method)

 maximal supplied QI-value         = 18.90
 optimisation between [QCUT,QGAM] = [ 10.77, 21.73] = [ 32.49,132.25] Ry
 Optimized for a Real-space Cutoff    1.38 Angstroem

   l    n(q)    QCUT    max X(q) W(low)/X(q) W(high)/X(q)  e(spline)
   1      8    10.771     2.836    0.40E-04    0.29E-04    0.12E-06
   1      8    10.771     4.023    0.10E-03    0.48E-04    0.29E-06
   2      8    10.771    73.368    0.42E-03    0.97E-04    0.44E-06
   2      8    10.771    69.010    0.42E-03    0.99E-04    0.45E-06
   0      9    10.771    54.797    0.10E-03    0.56E-04    0.74E-07
   0      9    10.771    24.266    0.89E-04    0.49E-04    0.67E-07
 Optimization of the real space projectors (new method)

 maximal supplied QI-value         = 19.84
 optimisation between [QCUT,QGAM] = [ 10.71, 21.63] = [ 32.15,130.99] Ry
 Optimized for a Real-space Cutoff    1.19 Angstroem

   l    n(q)    QCUT    max X(q) W(low)/X(q) W(high)/X(q)  e(spline)
   0      8    10.715   187.594    0.41E-03    0.53E-04    0.66E-07
   0      8    10.715   164.243    0.41E-03    0.53E-04    0.65E-07
   1      7    10.715    67.533    0.19E-03    0.59E-03    0.68E-07
   1      7    10.715    50.729    0.19E-03    0.58E-03    0.67E-07
  PAW_PBE Ni_pv 06Sep2000               :
  PAW_PBE S 06Sep2000                   :

 POSCAR: Type_048 Type_148
  positions in cartesian coordinates
 exchange correlation table for  LEXCH =        8
   RHO(1)=    0.500       N(1)  =     2000
   RHO(2)=  100.500       N(2)  =     4000

 ion  position               nearest neighbor table
   1  0.256  0.016  0.152-  75 2.25  65 2.26  81 2.26  53 2.36  93 2.36   5 2.53   9 2.53
   2  0.256  0.016  0.481-  76 2.25  66 2.26  82 2.26  54 2.36  94 2.36  36 2.38  10 2.53   6 2.53

   3  0.006  0.266  0.317-  62 2.25  68 2.26  72 2.26  55 2.36  59 2.36   7 2.53  23 2.53
   4  0.011  0.268  0.638-  56 2.17  73 2.19  69 2.23  60 2.25   8 2.33  24 2.42
   5  0.256  0.016  0.066-  91 2.07  79 2.07  49 2.20  61 2.20  81 2.26  93 2.36   9 2.53   1 2.53

[...]

  25  0.256  0.516  0.152-  51 2.25  89 2.26  57 2.26  29 2.33  77 2.36  70 2.36  33 2.49
  26  0.256  0.516  0.481-  52 2.25  90 2.26  58 2.26  78 2.36  71 2.36  34 2.53  30 2.53
  27  0.006  0.766  0.317-  86 2.25  92 2.26  95 2.26  80 2.36  83 2.36  31 2.53  47 2.53
  28  0.090  0.605  0.642-  84 2.00  96 2.16  56 2.23  24 2.31
  29  0.259  0.515  0.073-  67 2.01  85 2.13  57 2.16  70 2.25  25 2.33
  30  0.256  0.516  0.394-  55 2.25  86 2.26  58 2.26  74 2.36  71 2.36  26 2.53  34 2.53
  31  0.006  0.766  0.230-  89 2.25  95 2.26  87 2.26  83 2.36  75 2.36  27 2.53  47 2.53
  32  0.006  0.766  0.558-  90 2.25  96 2.26  88 2.26  84 2.36  76 2.36
  33  0.176  0.722  0.118-  89 2.06  85 2.13  81 2.17  77 2.28  25 2.49
  34  0.190  0.715  0.438-  82 2.25  90 2.26  86 2.26  78 2.36  74 2.36  26 2.53  30 2.53
  35  0.440  0.965  0.273-  59 2.25  75 2.26  80 2.26  87 2.36  92 2.36  43 2.53  39 2.53
  36  0.441  0.047  0.550-  88 2.06  60 2.08  54 2.17  76 2.21   2 2.38
  37  0.756  0.516  0.152-  63 2.25  77 2.26  70 2.26  41 2.33  89 2.36  57 2.36  45 2.49
  38  0.756  0.516  0.481-  64 2.25  78 2.26  71 2.26  90 2.36  58 2.36  46 2.53  42 2.53
  39  0.506  0.766  0.317-  74 2.25  80 2.26  83 2.26  92 2.36  95 2.36  43 2.53  35 2.53
  40  0.590  0.605  0.642-  96 2.00  84 2.16  69 2.23  12 2.31
  41  0.773  0.513  0.072-  67 2.01  85 2.12  57 2.17  70 2.20  37 2.33
  42  0.756  0.516  0.394-  68 2.25  74 2.26  71 2.26  86 2.36  58 2.36  38 2.53  46 2.53
  43  0.506  0.766  0.230-  77 2.25  83 2.26  75 2.26  95 2.36  87 2.36  39 2.53  35 2.53
  44  0.506  0.766  0.558-  78 2.25  84 2.26  76 2.26  96 2.36  88 2.36
  45  0.711  0.723  0.119-  89 2.09  85 2.16  77 2.19  93 2.22  37 2.49
  46  0.690  0.715  0.438-  94 2.25  78 2.26  74 2.26  90 2.36  86 2.36  38 2.53  42 2.53
  47  0.940  0.965  0.273-  72 2.25  87 2.26  92 2.26  75 2.36  80 2.36  31 2.53  27 2.53
  48  0.941  0.047  0.550-  76 2.06  73 2.08  66 2.17  88 2.21  14 2.38
  49  0.460  0.156  0.068-   9 2.08  21 2.09   5 2.20  17 2.20  91 2.48
  50  0.468  0.167  0.382-  15 2.25  18 2.26  22 2.26   6 2.36  10 2.36
  51  0.218  0.417  0.218-  25 2.25  11 2.26  19 2.26  23 2.36   7 2.36
  52  0.218  0.417  0.547-  26 2.25  12 2.26  20 2.26  24 2.36   8 2.36
  53  0.468  0.167  0.164-  19 2.25  13 2.26  21 2.26   1 2.36   9 2.36
  54  0.468  0.167  0.493-  36 2.17  20 2.25  22 2.26  14 2.26  10 2.36   2 2.36
  55  0.218  0.417  0.329-  30 2.25  15 2.26  11 2.26   3 2.36  23 2.36
  56  0.208  0.406  0.647-  24 2.14  12 2.16   4 2.17  28 2.23  16 2.23
  57  0.053  0.414  0.109-  29 2.16  41 2.17   9 2.25  25 2.26  37 2.36
  58  0.053  0.414  0.438-  10 2.25  26 2.26  30 2.26  38 2.36  42 2.36
  59  0.303  0.164  0.273-  35 2.25  19 2.26  15 2.26   7 2.36   3 2.36
  60  0.303  0.164  0.602-  36 2.08  16 2.19   4 2.25  20 2.26   8 2.36
  61  0.959  0.156  0.068-  21 2.08   9 2.09  17 2.20   5 2.20  79 2.48
  62  0.968  0.167  0.382-   3 2.25   6 2.26  10 2.26  18 2.36  22 2.36
  63  0.718  0.417  0.218-  37 2.25  23 2.26   7 2.26  11 2.36  19 2.36
  64  0.718  0.417  0.547-  38 2.25  24 2.26   8 2.26  12 2.36  20 2.36
  65  0.968  0.167  0.164-   7 2.25   1 2.26   9 2.26  13 2.36  21 2.36
  66  0.968  0.167  0.493-  48 2.17   8 2.25  10 2.26   2 2.26  22 2.36  14 2.36
  67  0.503  0.555  0.034-  41 2.01  29 2.01  70 2.67
  68  0.718  0.417  0.329-  42 2.25   3 2.26  23 2.26  15 2.36  11 2.36
  69  0.708  0.406  0.647-  12 2.14  24 2.16  16 2.17  40 2.23   4 2.23
  70  0.553  0.414  0.109-  41 2.20  29 2.25  21 2.25  37 2.26  25 2.36  67 2.67
  71  0.553  0.414  0.438-  22 2.25  38 2.26  42 2.26  26 2.36  30 2.36
  72  0.803  0.164  0.273-  47 2.25   7 2.26   3 2.26  19 2.36  15 2.36
  73  0.803  0.164  0.602-  48 2.08   4 2.19  16 2.25   8 2.26  20 2.36
  74  0.468  0.667  0.382-  39 2.25  42 2.26  46 2.26  30 2.36  34 2.36
  75  0.218  0.917  0.218-   1 2.25  35 2.26  43 2.26  47 2.36  31 2.36
  76  0.218  0.917  0.547-  48 2.06  36 2.21   2 2.25  44 2.26  32 2.36
  77  0.468  0.667  0.164-  45 2.19  43 2.25  37 2.26  33 2.28  25 2.36
  78  0.468  0.667  0.493-  44 2.25  46 2.26  38 2.26  34 2.36  26 2.36
  79  0.024  0.964  0.024-  17 2.07   5 2.07  61 2.48  81 2.55
  80  0.218  0.917  0.329-   6 2.25  39 2.26  35 2.26  27 2.36  47 2.36
  81  0.053  0.914  0.109-  33 2.17   5 2.26   1 2.26  17 2.36  13 2.36  79 2.55
  82  0.053  0.914  0.438-  34 2.25   2 2.26   6 2.26  14 2.36  18 2.36
  83  0.303  0.664  0.273-  11 2.25  43 2.26  39 2.26  31 2.36  27 2.36
  84  0.303  0.664  0.602-  28 2.00  40 2.16  12 2.25  44 2.26  32 2.36
  85  0.967  0.648  0.072-  41 2.12  29 2.13  33 2.13  45 2.16  89 2.69
  86  0.968  0.667  0.382-  27 2.25  30 2.26  34 2.26  42 2.36  46 2.36
  87  0.718  0.917  0.218-  13 2.25  47 2.26  31 2.26  35 2.36  43 2.36
  88  0.718  0.917  0.547-  36 2.06  48 2.21  14 2.25  32 2.26  44 2.36
  89  0.968  0.667  0.164-  33 2.06  45 2.09  31 2.25  25 2.26  37 2.36  85 2.69
  90  0.968  0.667  0.493-  32 2.25  34 2.26  26 2.26  46 2.36  38 2.36
  91  0.524  0.964  0.024-   5 2.07  17 2.07  49 2.48  93 2.55
  92  0.718  0.917  0.329-  18 2.25  27 2.26  47 2.26  39 2.36  35 2.36
  93  0.553  0.914  0.109-  45 2.22  17 2.26  13 2.26   5 2.36   1 2.36  91 2.55
  94  0.553  0.914  0.438-  46 2.25  14 2.26  18 2.26   2 2.36   6 2.36
  95  0.803  0.664  0.273-  23 2.25  31 2.26  27 2.26  43 2.36  39 2.36
  96  0.803  0.664  0.602-  40 2.00  28 2.16  24 2.25  32 2.26  44 2.36

  LATTYP: Found a simple monoclinic cell.
 ALAT       =    13.8711386352
 B/A-ratio  =     2.1019774055
 C/A-ratio  =     1.3233367991
 COS(beta)  =    -0.9620914447

  Lattice vectors:

 A1 = (  -8.3714133957, -11.0601955134,   0.0000000000)
 A2 = (   0.0000000000,   0.0000000000, -29.1568200000)
 A3 = (  14.6499733957,  11.0601955134,   0.0000000000)

Analysis of symmetry for initial positions (statically):
 Subroutine PRICEL returns:
 Original cell was already a primitive cell.

 Routine SETGRP: Setting up the symmetry group for a
 simple monoclinic supercell.

 Subroutine GETGRP returns: Found  1 space group operations
 (whereof  1 operations were pure point group operations)
 out of a pool of  4 trial point group operations.

The static configuration has the point symmetry C_1 .

Analysis of symmetry for dynamics (positions and initial velocities):
 Subroutine PRICEL returns:
 Original cell was already a primitive cell.

 Routine SETGRP: Setting up the symmetry group for a
 simple monoclinic supercell.

 Subroutine GETGRP returns: Found  1 space group operations
 (whereof  1 operations were pure point group operations)
 out of a pool of  4 trial point group operations.

The dynamic configuration has the point symmetry C_1 .

 Subroutine INISYM returns: Found  1 space group operations
 (whereof  1 operations are pure point group operations),
 and found     1 'primitive' translations

 KPOINTS: gamma-point-only calculation. no periodi

Automatic generation of k-mesh.
Space group operators:
 irot       det(A)        alpha          n_x          n_y          n_z        tau_x        tau_y        tau_z
    1     1.000000     0.000000     1.000000     0.000000     0.000000     0.000000     0.000000     0.000000

 Subroutine IBZKPT returns following result:

 Found      1 irreducible k-points:

 Following reciprocal coordinates:
            Coordinates               Weight
  0.000000  0.000000  0.000000      1.000000

 Following cartesian coordinates:
            Coordinates               Weight
  0.000000  0.000000  0.000000      1.000000

 SYSTEM =  "Millerite NiS"
 POSCAR =  Type_048 Type_148

 Startparameter for this run:
   NWRITE =      2    write-flag & timer
   PREC   = normal    normal or accurate (medium, high low for compatibility)
   ISTART =      0    job   : 0-new  1-cont  2-samecut
   ICHARG =      2    charge: 1-file 2-atom 10-const
   ISPIN  =      1    spin polarized calculation?
   LNONCOLLINEAR =      F non collinear calculations
   LSORBIT =      F    spin-orbit coupling
   INIWAV =      1    electr: 0-lowe 1-rand  2-diag
   LASPH  =      F    aspherical Exc in radial PAW
   METAGGA=      F    non-selfconsistent MetaGGA calc.

 Electronic Relaxation 1
   ENCUT  =  450.0 eV  33.07 Ry    5.75 a.u.  10.86 19.47 50.43*2*pi/ulx,y,z
   ENINI  =  450.0     initial cutoff
   ENAUG  =  703.4 eV  augmentation charge cutoff
   NELM   =    100;   NELMIN=  2; NELMDL= -5     # of ELM steps
   EDIFF  = 0.1E-03   stopping-criterion for ELM
   LREAL  =      T    real-space projection
[...]
     0.000000000  0.000000000 29.156820000     0.000000000  0.000000000  0.034297293

  length of vectors
     6.278560000 11.256463038 29.156820000     0.162098538  0.090414315  0.034297293

 FORCES acting on ions
    electron-ion (+dipol)            ewald-force                    non-local-force                 convergence-correction
   -.495E+02 0.258E+03 0.411E+04   0.482E+02 -.259E+03 -.410E+04   0.131E+01 0.132E+01 -.217E+01   -.296E-01 0.206E-01 -.470E+00
   0.147E+02 0.564E+03 -.324E+04   -.151E+02 -.566E+03 0.323E+04   0.671E-01 0.224E+01 -.310E+00   -.680E-02 0.289E-03 0.400E+00
   -.413E+02 0.247E+03 0.338E+03   0.404E+02 -.247E+03 -.337E+03   0.966E+00 0.723E+00 -.118E+01   -.403E-02 -.560E-01 -.741E+00
   -.830E+01 0.105E+04 -.747E+04   0.825E+01 -.105E+04 0.746E+04   0.999E-01 -.614E+00 0.267E+01   -.457E-02 0.242E+00 0.555E+00
   -.207E+02 0.326E+03 0.687E+04   0.212E+02 -.329E+03 -.687E+04   -.385E+00 0.271E+01 0.365E+01   -.197E-01 -.111E-01 0.266E+00
   -.411E+02 0.310E+03 -.528E+03   0.402E+02 -.311E+03 0.529E+03   0.102E+01 0.682E+00 0.697E+00   -.312E-03 -.193E-01 -.517E+00
   -.411E+02 0.248E+03 0.323E+04   0.402E+02 -.249E+03 -.323E+04   0.992E+00 0.826E+00 0.109E+01   0.301E-02 -.184E+00 -.919E+00
   -.722E+02 0.169E+03 -.455E+04   0.724E+02 -.168E+03 0.455E+04   0.102E+00 -.121E+01 0.544E+00   -.260E-02 0.242E+00 0.732E+00
   -.294E+02 -.701E+03 0.568E+04   0.291E+02 0.705E+03 -.567E+04   0.132E+00 -.419E+01 -.471E+00   -.193E-01 -.229E+00 -.401E-01
   -.394E+02 -.577E+03 -.191E+04   0.390E+02 0.578E+03 0.191E+04   0.510E+00 -.127E+01 0.636E+00   -.171E-01 0.246E+00 -.133E-01
   -.421E+02 -.513E+03 0.177E+04   0.414E+02 0.514E+03 -.177E+04   0.910E+00 -.123E+01 -.145E-01   0.240E-02 0.271E-01 -.821E+00
   0.440E+02 -.494E+03 -.558E+04   -.446E+02 0.496E+03 0.558E+04   -.340E+00 -.261E+01 0.142E+01   0.288E-01 0.179E+00 0.823E+00
   -.356E+02 0.229E+03 0.410E+04   0.345E+02 -.230E+03 -.410E+04   0.114E+01 0.103E+01 -.248E+01   0.109E-01 -.508E-01 -.448E+00
   0.147E+02 0.564E+03 -.324E+04   -.151E+02 -.566E+03 0.323E+04   0.675E-01 0.224E+01 -.311E+00   0.126E-01 -.124E-01 0.423E+00
   -.413E+02 0.246E+03 0.338E+03   0.404E+02 -.247E+03 -.337E+03   0.101E+01 0.731E+00 -.117E+01   0.279E-02 -.616E-01 -.740E+00
   -.832E+01 0.105E+04 -.747E+04   0.825E+01 -.105E+04 0.746E+04   0.101E+00 -.613E+00 0.267E+01   0.672E-02 0.244E+00 0.571E+00
   -.385E+01 0.299E+03 0.688E+04   0.439E+01 -.301E+03 -.688E+04   -.450E+00 0.267E+01 0.377E+01   0.104E-01 -.761E-01 0.149E+00
   -.410E+02 0.310E+03 -.529E+03   0.401E+02 -.311E+03 0.529E+03   0.101E+01 0.707E+00 0.714E+00   -.973E-02 -.305E-01 -.548E+00
   -.417E+02 0.246E+03 0.323E+04   0.407E+02 -.247E+03 -.323E+04   0.102E+01 0.742E+00 0.115E+01   -.140E-01 -.174E+00 -.899E+00
   -.722E+02 0.169E+03 -.455E+04   0.724E+02 -.168E+03 0.455E+04   0.101E+00 -.121E+01 0.548E+00   0.115E-01 0.252E+00 0.746E+00
   -.237E+02 -.708E+03 0.567E+04   0.234E+02 0.713E+03 -.567E+04   0.528E-01 -.365E+01 -.619E+00   0.187E-01 -.173E+00 -.969E-01
   -.394E+02 -.577E+03 -.191E+04   0.390E+02 0.578E+03 0.191E+04   0.505E+00 -.128E+01 0.642E+00   0.209E-02 0.296E+00 -.214E-01
   -.403E+02 -.511E+03 0.177E+04   0.395E+02 0.512E+03 -.177E+04   0.905E+00 -.122E+01 -.266E-01   -.936E-02 0.179E-01 -.818E+00
   0.441E+02 -.494E+03 -.558E+04   -.446E+02 0.496E+03 0.558E+04   -.341E+00 -.261E+01 0.142E+01   0.428E-02 0.174E+00 0.805E+00
   -.106E+03 0.305E+03 0.414E+04   0.105E+03 -.306E+03 -.414E+04   0.136E+01 0.660E+00 -.121E+01   -.188E-01 0.154E+00 -.540E+00
   -.414E+02 0.102E+03 -.351E+04   0.406E+02 -.102E+03 0.351E+04   0.984E+00 0.450E+00 -.125E+01   -.149E-02 -.126E+00 0.450E+00
   -.419E+02 0.268E+03 0.297E+03   0.411E+02 -.268E+03 -.296E+03   0.928E+00 0.548E+00 -.886E+00   -.440E-02 -.144E-01 -.778E+00
   -.302E+02 -.117E+04 -.720E+04   0.287E+02 0.117E+04 0.720E+04   0.940E+00 0.409E-02 0.484E+00   -.339E-01 -.270E-01 0.650E+00
   -.333E+02 0.244E+03 0.712E+04   0.366E+02 -.241E+03 -.713E+04   -.357E+01 -.386E+01 0.431E+01   -.275E-01 0.127E+00 0.452E-01
   -.414E+02 0.213E+03 -.596E+03   0.405E+02 -.214E+03 0.596E+03   0.970E+00 0.484E+00 0.111E+01   -.592E-02 -.841E-01 -.394E+00
   -.498E+02 0.257E+03 0.316E+04   0.489E+02 -.258E+03 -.316E+04   0.101E+01 0.572E+00 0.121E+01   0.159E-01 0.960E-01 -.943E+00
   -.348E+02 -.338E+03 -.539E+04   0.330E+02 0.338E+03 0.539E+04   0.197E+01 0.614E+00 0.236E+01   0.233E-02 -.257E+00 0.881E+00
   -.304E+03 -.467E+03 0.573E+04   0.307E+03 0.470E+03 -.573E+04   -.187E+01 -.301E+01 -.218E+00   0.277E-02 0.124E+00 -.229E+00
   -.412E+02 -.511E+03 -.214E+04   0.406E+02 0.512E+03 0.214E+04   0.793E+00 -.127E+01 -.181E+00   -.700E-02 -.643E-01 -.486E-01
   -.401E+02 -.518E+03 0.176E+04   0.392E+02 0.518E+03 -.176E+04   0.106E+01 -.115E+01 -.298E-01   -.216E-01 0.517E-01 -.989E+00
   -.146E+02 0.640E+03 -.578E+04   0.131E+02 -.640E+03 0.579E+04   0.878E+00 0.659E+00 -.218E+01   -.155E-01 0.119E+00 0.725E+00
   0.398E+02 0.302E+03 0.415E+04   -.410E+02 -.303E+03 -.415E+04   0.113E+01 0.561E+00 -.132E+01   0.127E-01 0.123E+00 -.546E+00
   -.415E+02 0.102E+03 -.351E+04   0.406E+02 -.102E+03 0.351E+04   0.990E+00 0.451E+00 -.125E+01   0.704E-02 -.886E-01 0.399E+00
   -.407E+02 0.268E+03 0.299E+03   0.397E+02 -.268E+03 -.298E+03   0.101E+01 0.456E+00 -.949E+00   -.660E-03 -.156E-01 -.769E+00
   -.302E+02 -.117E+04 -.720E+04   0.287E+02 0.117E+04 0.720E+04   0.941E+00 0.849E-02 0.479E+00   -.276E-01 -.375E-01 0.666E+00
   0.546E+01 0.242E+03 0.712E+04   -.838E+01 -.239E+03 -.712E+04   0.331E+01 -.422E+01 0.345E+01   0.285E-01 0.104E+00 0.241E-01
   -.412E+02 0.213E+03 -.596E+03   0.403E+02 -.214E+03 0.596E+03   0.974E+00 0.464E+00 0.108E+01   -.603E-02 -.430E-01 -.354E+00
   -.288E+02 0.263E+03 0.319E+04   0.278E+02 -.263E+03 -.319E+04   0.113E+01 0.701E+00 0.182E+01   -.200E-01 0.106E+00 -.935E+00
   -.348E+02 -.338E+03 -.539E+04   0.330E+02 0.338E+03 0.539E+04   0.198E+01 0.614E+00 0.237E+01   0.630E-03 -.267E+00 0.871E+00
   0.234E+03 -.460E+03 0.569E+04   -.238E+03 0.463E+03 -.569E+04   0.308E+01 -.261E+01 0.121E+01   0.142E-01 0.693E-01 -.255E+00
   -.411E+02 -.511E+03 -.214E+04   0.405E+02 0.512E+03 0.214E+04   0.791E+00 -.127E+01 -.164E+00   -.111E-01 -.114E+00 -.587E-01
   -.423E+02 -.519E+03 0.176E+04   0.415E+02 0.520E+03 -.176E+04   0.956E+00 -.109E+01 0.171E+00   0.146E-01 0.544E-01 -.979E+00
   -.146E+02 0.640E+03 -.578E+04   0.131E+02 -.640E+03 0.579E+04   0.876E+00 0.657E+00 -.218E+01   0.414E-01 0.117E+00 0.746E+00
   0.110E+01 -.268E+03 0.272E+04   -.141E+01 0.275E+03 -.272E+04   0.188E+00 -.438E+01 0.322E+01   -.471E-01 -.366E-01 0.499E-01
   0.395E+02 -.852E+02 -.114E+03   -.404E+02 0.864E+02 0.113E+03   0.916E+00 -.158E+01 0.228E+01   -.155E-01 0.789E-01 -.239E+00
   0.377E+02 -.781E+02 0.129E+04   -.382E+02 0.791E+02 -.129E+04   0.491E+00 -.124E+01 0.257E+01   -.667E-02 0.370E-02 -.352E+00
   0.389E+02 -.136E+03 -.153E+04   -.393E+02 0.137E+03 0.153E+04   0.520E+00 -.160E+01 0.150E+01   -.663E-02 0.214E-01 0.318E+00
   0.392E+02 -.101E+03 0.146E+04   -.405E+02 0.103E+03 -.146E+04   0.134E+01 -.157E+01 -.161E+01   -.627E-01 -.112E+00 -.237E+00
   0.184E+02 -.183E+03 -.126E+04   -.184E+02 0.186E+03 0.126E+04   -.222E+00 -.269E+01 -.952E+00   -.178E-01 0.969E-01 0.211E+00
   0.395E+02 -.894E+02 0.423E+02   -.403E+02 0.905E+02 -.398E+02   0.683E+00 -.130E+01 -.265E+01   -.109E-01 -.149E-01 -.239E+00
   -.245E+02 0.344E+02 -.286E+04   0.246E+02 -.344E+02 0.287E+04   0.574E-01 -.417E-02 -.315E+01   -.285E-02 0.118E+00 0.166E+00
   0.291E+02 0.223E+03 0.215E+04   -.296E+02 -.224E+03 -.216E+04   0.710E+00 0.110E+01 0.112E+01   -.450E-02 -.638E-02 -.709E-01
   0.395E+02 0.131E+03 -.754E+03   -.404E+02 -.133E+03 0.754E+03   0.721E+00 0.240E+01 0.471E-01   -.266E-01 0.829E-02 0.160E-01
   0.395E+02 0.164E+03 0.667E+03   -.404E+02 -.166E+03 -.667E+03   0.751E+00 0.280E+01 0.171E+00   -.773E-02 -.422E-01 -.339E+00
   0.564E+02 0.504E+03 -.257E+04   -.573E+02 -.508E+03 0.257E+04   0.171E+00 0.477E+01 -.125E+01   -.328E-02 0.864E-01 0.271E+00
[...]
   0.383E+02 0.170E+03 0.656E+03   -.391E+02 -.173E+03 -.655E+03   0.655E+00 0.277E+01 -.142E+00   -.186E-02 0.260E-01 -.318E+00
   -.188E+01 -.465E+03 -.220E+04   0.118E+01 0.465E+03 0.221E+04   0.210E+01 0.562E+00 -.168E+01   -.783E-02 -.127E+00 0.403E+00
   0.879E+01 -.185E+03 0.277E+04   -.918E+01 0.189E+03 -.278E+04   0.236E+00 -.193E+01 0.461E+01   0.667E-02 0.478E-01 0.567E-01
   0.397E+02 -.851E+02 -.153E+03   -.404E+02 0.862E+02 0.151E+03   0.535E+00 -.136E+01 0.271E+01   -.349E-01 -.157E-01 -.207E+00
   0.423E+02 -.944E+02 0.127E+04   -.432E+02 0.954E+02 -.128E+04   0.733E+00 -.134E+01 0.250E+01   -.445E-02 0.491E-01 -.371E+00
   0.495E+01 0.239E+03 -.210E+04   -.604E+01 -.239E+03 0.211E+04   0.236E+01 -.142E+01 -.238E+01   0.102E-01 -.288E-01 0.290E+00
   0.275E+02 -.212E+02 0.141E+04   -.285E+02 0.239E+02 -.141E+04   0.112E+01 -.327E+01 0.158E+00   0.161E-01 0.445E-01 -.301E+00
   0.398E+02 -.138E+03 -.146E+04   -.405E+02 0.139E+03 0.147E+04   0.518E+00 -.158E+01 -.327E+01   -.296E-01 -.628E-01 0.207E+00
   0.476E+01 0.222E+03 0.278E+04   -.513E+01 -.225E+03 -.278E+04   0.376E+00 0.174E+01 0.348E+01   -.882E-03 -.510E-02 0.697E-01
   0.397E+02 -.766E+02 0.391E+02   -.405E+02 0.780E+02 -.365E+02   0.729E+00 -.152E+01 -.273E+01   -.923E-02 -.181E-01 -.337E+00
   0.670E+02 0.240E+03 0.213E+04   -.680E+02 -.242E+03 -.213E+04   0.109E+01 0.740E+00 0.130E+01   -.241E-01 0.165E-01 -.570E-02
   0.386E+02 0.226E+03 -.762E+03   -.396E+02 -.228E+03 0.762E+03   0.929E+00 0.269E+01 0.112E-01   -.220E-01 -.750E-01 -.727E-02
   0.407E+02 0.171E+03 0.653E+03   -.416E+02 -.173E+03 -.653E+03   0.742E+00 0.278E+01 -.254E+00   -.576E-02 0.198E-01 -.315E+00
   -.188E+01 -.465E+03 -.220E+04   0.118E+01 0.465E+03 0.221E+04   0.209E+01 0.559E+00 -.168E+01   0.205E-02 -.129E+00 0.401E+00
   -.681E+02 0.221E+02 -.196E+02   0.650E-12 0.284E-11 -.150E-10   0.682E+02 -.231E+02 0.256E+02   -.139E+00 0.115E+01 -.594E+01

 POSITION                                       TOTAL-FORCE (eV/Angst)
      1.64370      0.18204      4.44331        -0.030790     -0.022183      0.413082
      1.64370      0.18204     14.02172        -0.327671     -0.451559     -1.352125
      0.59727      2.94708      9.23251         0.077086      0.165006     -0.372847
      0.62958      2.96517     18.61420         0.040607     -0.098912     -0.048105
      1.64370      0.18204      1.91264         0.115713      0.119273      2.371579
      1.64370      0.18204     11.49105         0.121582      0.123127      0.215578
      0.59727      2.94708      6.70184         0.090424      0.150708      0.413318
      0.59727      2.94708     16.28025         0.311348      0.642033     -0.821498
      1.64370      2.37366      3.17797        -0.132056      0.334033      2.399586
      1.64370      2.37366     12.75638         0.143017     -0.250780     -0.108421
      3.73655      5.13871      7.96718         0.158318     -0.399995      0.025362
      3.73655      5.13871     17.54559        -0.868932     -0.878139     -2.772081
      4.78298      0.18204      4.44331         0.018754     -0.002420      0.448771
      4.78298      0.18204     14.02172        -0.326115     -0.451585     -1.351244
      3.73655      2.94708      9.23251         0.088831      0.158200     -0.357971
      3.76886      2.96517     18.61420         0.039684     -0.097758     -0.048315
      4.78298      0.18204      1.91264         0.104395      0.052596      2.425785
      4.78298      0.18204     11.49105         0.122109      0.127988      0.215490
      3.73655      2.94708      6.70184         0.097533      0.138916      0.413696
      3.73655      2.94708     16.28025         0.311303      0.641878     -0.819897
      4.78298      2.37366      3.17797        -0.162103      0.256153      2.448228
      4.78298      2.37366     12.75638         0.142727     -0.253508     -0.111300
      6.87583      5.13871      7.96718         0.162308     -0.394627      0.015852
      6.87583      5.13871     17.54559        -0.869614     -0.878903     -2.772539
      2.69013      5.71213      4.44331         0.030693     -0.094462      1.348951
      2.69013      5.71213     14.02172         0.130482      0.075471     -0.428753
      1.64370      8.47718      9.23251         0.089235      0.200077     -0.355273
      1.82746      6.68691     18.73305        -0.633803      0.499619      1.047729
      2.70221      5.70012      2.11417        -0.325078     -1.328061      0.569425
      2.69013      5.71213     11.49105         0.069679      0.134608      0.331972
      1.64370      8.47718      6.70184         0.095735      0.068387      0.559610
      1.64370      8.47718     16.28025         0.096523      0.055087     -0.274464
      2.61603      7.98480      3.42810         1.332236     -0.003153     -0.030378
      2.69013      7.90376     12.75638         0.197467     -0.377953     -0.069413
      4.78298     10.66881      7.96718         0.178113     -0.408275      0.031568
      2.86517      0.52336     16.03801        -0.602700     -0.198571      0.278950
      5.82941      5.71213      4.44331        -0.026753     -0.178308      1.238464
      5.82941      5.71213     14.02172         0.127906      0.077020     -0.426762
      4.78298      8.47718      9.23251         0.087224      0.189308     -0.381850
      4.96674      6.68691     18.73305        -0.633516      0.500117      1.045961
      5.92647      5.67649      2.11352         0.416867     -1.346975      0.562398
      5.82941      5.71213     11.49105         0.077384      0.139781      0.325612
      4.78298      8.47718      6.70184         0.098721      0.135156      0.607885
      4.78298      8.47718     16.28025         0.096900      0.053667     -0.274571
      5.97822      7.99780      3.47559        -1.358048      0.174262     -0.190667
      5.82941      7.90376     12.75638         0.202256     -0.377395     -0.069615
      7.92226     10.66881      7.96718         0.177364     -0.382396      0.057721
      6.00445      0.52336     16.03801        -0.603466     -0.198482      0.277695
      3.21073      1.72057      1.97430        -0.166293      2.004574     -3.451511
      3.28961      1.84282     11.14515        -0.017427     -0.284993      0.404223
      2.24318      4.60787      6.35595        -0.099984     -0.197749      0.312121
      2.24318      4.60787     15.93436         0.037266     -0.339809     -0.061746
      3.28961      1.84282      4.78920         0.018950     -0.054777      0.606822
      3.28961      1.84282     14.36761        -0.203442      0.488225     -0.623367
      2.24318      4.60787      9.57841        -0.073179     -0.246575     -0.422945
      2.15726      4.48888     18.86150         0.164570      0.104839      3.206898
      1.19676      4.58218      3.17797         0.196309     -0.218718      0.708130
      1.19676      4.58218     12.75638        -0.162316      0.392902      0.043902
      2.24318      1.81714      7.96718        -0.140067      0.529450     -0.045108
      2.24318      1.81714     17.54559        -0.641893      0.461296      1.347667
[...]
      2.24318     10.11228     12.75638        -0.103919      0.555148     -0.080699
      3.28961      7.34723      7.96718        -0.222699      0.573162     -0.019893
      3.28961      7.34723     17.54559         1.392534      0.977500     -0.151812
      7.43044      7.16603      2.10916        -0.151251      1.920284     -3.772785
      7.47532      7.37292     11.14515        -0.181323     -0.263997      0.441939
      6.42889     10.13797      6.35595        -0.087294     -0.314965      0.292865
      6.42889     10.13797     15.93436         1.283859     -1.216124      0.327213
      7.47532      7.37292      4.78920         0.117162     -0.574400      2.326644
      7.47532      7.37292     14.36761        -0.221167     -0.151026     -0.269695
      5.30393     10.65718      0.69221         0.010978     -1.651336     -3.807000
      6.42889     10.13797      9.57841        -0.108941     -0.229689     -0.380641
      5.38246     10.11228      3.17797         0.085091     -1.059156      1.136043
      5.38246     10.11228     12.75638        -0.104521      0.550916     -0.079750
      6.42889      7.34723      7.96718        -0.128169      0.552615     -0.080975
      6.42889      7.34723     17.54559         1.394478      0.976562     -0.151640
    total drift:                               -0.016909      0.165763      0.052892

  FREE ENERGIE OF THE ION-ELECTRON SYSTEM (eV)
  free  energy   TOTEN  =      -476.89870839 eV

  energy  without entropy=     -475.46756439  energy(sigma->0) =     -476.18313639