 vasp.5.4.4.18Apr17-6-g9f103f2a35 (build Aug 13 2019 17:33:20) gamma-only

 executed on             LinuxIFC date 2020.05.12  20:41:12

 INCAR:
 POTCAR:    PAW_PBE Ni_pv 06Sep2000
 POTCAR:    PAW_PBE S 06Sep2000
 POTCAR:    PAW_PBE Ni_pv 06Sep2000
   VRHFIN =Ni:

   TITEL  = PAW_PBE Ni_pv 06Sep2000
   POMASS =   58.690; ZVAL   =   16.000    mass and valenz
   ENMAX  =  367.986; ENMIN  =  275.989 eV

 POTCAR:    PAW_PBE S 06Sep2000
   VRHFIN =S : s2p4

   TITEL  = PAW_PBE S 06Sep2000
   POMASS =   32.066; ZVAL   =    6.000    mass and valenz
   ENMAX  =  258.689; ENMIN  =  194.016 eV

 Optimization of the real space projectors (new method)

 maximal supplied QI-value         = 18.90
 optimisation between [QCUT,QGAM] = [ 10.77, 21.73] = [ 32.49,132.25] Ry
 Optimized for a Real-space Cutoff    1.38 Angstroem

   l    n(q)    QCUT    max X(q) W(low)/X(q) W(high)/X(q)  e(spline)
   1      8    10.771     2.836    0.40E-04    0.29E-04    0.12E-06
   1      8    10.771     4.023    0.10E-03    0.48E-04    0.29E-06
   2      8    10.771    73.368    0.42E-03    0.97E-04    0.44E-06
   2      8    10.771    69.010    0.42E-03    0.99E-04    0.45E-06
   0      9    10.771    54.797    0.10E-03    0.56E-04    0.74E-07
   0      9    10.771    24.266    0.89E-04    0.49E-04    0.67E-07
 Optimization of the real space projectors (new method)

 maximal supplied QI-value         = 19.84
 optimisation between [QCUT,QGAM] = [ 10.71, 21.63] = [ 32.15,130.99] Ry
 Optimized for a Real-space Cutoff    1.19 Angstroem

   l    n(q)    QCUT    max X(q) W(low)/X(q) W(high)/X(q)  e(spline)
   0      8    10.715   187.594    0.41E-03    0.53E-04    0.66E-07
   0      8    10.715   164.243    0.41E-03    0.53E-04    0.65E-07
   1      7    10.715    67.533    0.19E-03    0.59E-03    0.68E-07
   1      7    10.715    50.729    0.19E-03    0.58E-03    0.67E-07
  PAW_PBE Ni_pv 06Sep2000               :
  PAW_PBE S 06Sep2000                   :

 POSCAR: Type_036 Type_136
  positions in cartesian coordinates
 exchange correlation table for  LEXCH =        8
   RHO(1)=    0.500       N(1)  =     2000
   RHO(2)=  100.500       N(2)  =     4000

 ion  position               nearest neighbor table
   1  0.192  0.952  0.088-  49 2.05  61 2.08  41 2.10  42 2.12  18 2.45   2 2.51  60 2.66
   2  0.405  0.771  0.139-  49 2.01  62 2.06  50 2.23  61 2.24  42 2.42   1 2.51
   3  0.547  0.645  0.254-  50 2.06  43 2.25  62 2.26  63 2.36  51 2.36  27 2.53  15 2.53
   4  0.698  0.494  0.381-  64 2.17  44 2.25  51 2.26  63 2.26  52 2.36  16 2.53  28 2.53
   5  0.827  0.344  0.485-  52 2.00  64 2.00  17 2.46  26 2.48
   6  0.114  0.412  0.169-  53 2.12  45 2.25  68 2.26   9 2.34  65 2.36  54 2.36  29 2.53  18 2.53

   7  0.264  0.261  0.296-  46 2.25  65 2.26  54 2.26  55 2.36  66 2.36  19 2.53  30 2.53
   8  0.414  0.111  0.423-  56 2.09  67 2.14  55 2.26  66 2.26  47 2.30  31 2.53  20 2.53
   9  0.977  0.601  0.104-  48 2.07  45 2.13  53 2.24  68 2.25   6 2.34
  10  0.098  0.784  0.451-  58 2.04  59 2.07  72 2.09  37 2.13
  11  0.546  0.226  0.148-  69 2.02  54 2.14  38 2.14  70 2.15  15 2.39  36 2.52
  12  0.831  0.028  0.212-  70 2.11  39 2.25  60 2.26  57 2.36  71 2.36  24 2.53  33 2.53
  13  0.981  0.878  0.338-  40 2.25  57 2.26  71 2.26  58 2.36  72 2.36  34 2.53  25 2.53
  14  0.354  0.517  0.123-  62 2.06  53 2.09  38 2.13  61 2.26  15 2.51  54 2.66
  15  0.508  0.420  0.220-  38 2.07  54 2.25  62 2.26  39 2.36  63 2.36  11 2.39  14 2.51  27 2.53
                             3 2.53
  16  0.658  0.270  0.347-  64 2.06  55 2.25  63 2.26  39 2.26  40 2.36   4 2.53  28 2.53
  17  0.789  0.123  0.458-  40 2.03  37 2.11  56 2.12  64 2.17   5 2.46
  18  0.074  0.187  0.136-  41 2.11  60 2.25  68 2.26  42 2.36  65 2.36   1 2.45  22 2.52   6 2.53
                            29 2.53
  19  0.224  0.037  0.263-  57 2.25  42 2.26  65 2.26  66 2.36  43 2.36   7 2.53  30 2.53
  20  0.375  0.886  0.390-  67 2.02  58 2.25  66 2.26  43 2.26  21 2.32  44 2.36  31 2.53   8 2.53

  21  0.433  0.722  0.473-  59 2.03  67 2.11  44 2.11  20 2.32
  22  0.064  0.360  0.046-  68 2.03  53 2.04  41 2.04  18 2.52
  23  0.084  0.509  0.419-  46 2.03  47 2.15  72 2.16  52 2.21  35 2.51
  24  0.791  0.804  0.178-  48 2.10  70 2.10  50 2.33  71 2.36  45 2.36  12 2.53  33 2.53
  25  0.941  0.653  0.305-  51 2.25  71 2.26  45 2.26  46 2.36  72 2.36  34 2.53  13 2.53
  26  0.025  0.165  0.426-  40 2.05  37 2.12  66 2.13  52 2.14   5 2.48
  27  0.732  0.460  0.187-  38 2.13  50 2.14  68 2.25  51 2.36  39 2.36  15 2.53   3 2.53
  28  0.882  0.310  0.314-  65 2.25  39 2.26  51 2.26  40 2.36  52 2.36   4 2.53  16 2.53
  29  0.299  0.227  0.102-  41 2.12  69 2.18  53 2.21  54 2.36  42 2.36   6 2.53  18 2.53
  30  0.449  0.076  0.229-  70 2.06  42 2.26  54 2.26  55 2.36  43 2.36  19 2.53   7 2.53
  31  0.599  0.926  0.356-  56 2.16  71 2.25  55 2.26  43 2.26  44 2.36  32 2.43   8 2.53  20 2.53

  32  0.734  0.817  0.452-  56 2.04  44 2.05  72 2.05  31 2.43
  33  0.015  0.843  0.144-  48 2.11  61 2.14  60 2.26  45 2.36  57 2.36  24 2.53  12 2.53
  34  0.166  0.693  0.271-  62 2.25  57 2.26  45 2.26  46 2.36  58 2.36  13 2.53  25 2.53
  35  0.316  0.543  0.398-  59 2.06  47 2.14  63 2.25  58 2.26  46 2.26  23 2.51
  36  0.740  0.024  0.095-  70 2.06  48 2.08  60 2.10  69 2.23  11 2.52
  37  0.001  0.999  0.481-  17 2.11  26 2.12  10 2.13  40 2.60
  38  0.580  0.419  0.126-  15 2.07  27 2.13  14 2.13  11 2.14
  39  0.736  0.256  0.244-  12 2.25  28 2.26  16 2.26  15 2.36  27 2.36
  40  0.886  0.105  0.371-  17 2.03  26 2.05  13 2.25  16 2.36  28 2.36  37 2.60
  41  0.171  0.146  0.044-  22 2.04   1 2.10  18 2.11  29 2.12
  42  0.303  0.023  0.160-   1 2.12  30 2.26  19 2.26  18 2.36  29 2.36   2 2.42  49 2.78
  43  0.453  0.872  0.286-   3 2.25  20 2.26  31 2.26  19 2.36  30 2.36
  44  0.603  0.722  0.413-  32 2.05  21 2.11   4 2.25  31 2.36  20 2.36  67 2.78
  45  0.019  0.639  0.202-   9 2.13   6 2.25  25 2.26  34 2.26  24 2.36  33 2.36
  46  0.170  0.489  0.329-  23 2.03   7 2.25  35 2.26  34 2.36  25 2.36  47 2.57
  47  0.292  0.351  0.430-  35 2.14  23 2.15   8 2.30  46 2.57
  48  0.862  0.811  0.083-   9 2.07  36 2.08  24 2.10  33 2.11
  49  0.391  0.854  0.050-   2 2.01   1 2.05  61 2.63  42 2.78
  50  0.633  0.682  0.168-   3 2.06  27 2.14   2 2.23  24 2.33
  51  0.787  0.542  0.287-  25 2.25   4 2.26  28 2.26  27 2.36   3 2.36
  52  0.937  0.391  0.414-   5 2.00  26 2.14  23 2.21   4 2.36  28 2.36
  53  0.197  0.456  0.081-  22 2.04  14 2.09   6 2.12  29 2.21   9 2.24
  54  0.353  0.308  0.202-  11 2.14  15 2.25   7 2.26  30 2.26  29 2.36   6 2.36  14 2.66
  55  0.503  0.158  0.329-  16 2.25   8 2.26  31 2.26   7 2.36  30 2.36  56 2.76
  56  0.633  0.031  0.442-  32 2.04   8 2.09  17 2.12  31 2.16  55 2.76
  57  0.070  0.925  0.245-  19 2.25  34 2.26  13 2.26  12 2.36  33 2.36
  58  0.220  0.775  0.372-  10 2.04  20 2.25  35 2.26  34 2.36  13 2.36  59 2.75
  59  0.282  0.636  0.488-  21 2.03  35 2.06  10 2.07  58 2.75
  60  0.920  0.075  0.118-  36 2.10  18 2.25  12 2.26  33 2.26   1 2.66
  61  0.214  0.739  0.097-   1 2.08  33 2.14   2 2.24  14 2.26  62 2.59  49 2.63
  62  0.350  0.641  0.203-  14 2.06   2 2.06  34 2.25  15 2.26   3 2.26  61 2.59
  63  0.501  0.491  0.330-  35 2.25   4 2.26  16 2.26   3 2.36  15 2.36
  64  0.652  0.340  0.441-   5 2.00  16 2.06  17 2.17   4 2.17
  65  0.067  0.258  0.245-  28 2.25   7 2.26  19 2.26   6 2.36  18 2.36
  66  0.218  0.108  0.372-  26 2.13  20 2.26   8 2.26  19 2.36   7 2.36
  67  0.402  0.940  0.481-  20 2.02  21 2.11   8 2.14  44 2.78
  68  0.917  0.408  0.118-  22 2.03   9 2.25  27 2.25  18 2.26   6 2.26
  69  0.515  0.134  0.066-  11 2.02  29 2.18  36 2.23  70 2.76
  70  0.639  0.010  0.180-  30 2.06  36 2.06  24 2.10  12 2.11  11 2.15  71 2.74  69 2.76
  71  0.784  0.874  0.287-  31 2.25  25 2.26  13 2.26  24 2.36  12 2.36  70 2.74
  72  0.934  0.724  0.414-  32 2.05  10 2.09  23 2.16  13 2.36  25 2.36

  LATTYP: Found a base centered orthorhombic cell.
 ALAT       =    11.4527836704
 B/A-ratio  =     1.4485816945
 C/A-ratio  =     1.8059804630

  Lattice vectors:

 A1 = (  10.0797329849,   0.0000000000,   0.0000000000)
 A2 = (  -3.5732980427,  -9.4251025535,   0.0000000000)
 A3 = (   0.0000000000,   0.0000000000, -20.6835035552)

Analysis of symmetry for initial positions (statically):
 Subroutine PRICEL returns:
 Original cell was already a primitive cell.

 Routine SETGRP: Setting up the symmetry group for a
 base centered orthorhombic supercell.

 Subroutine GETGRP returns: Found  1 space group operations
 (whereof  1 operations were pure point group operations)
 out of a pool of  8 trial point group operations.

The static configuration has the point symmetry C_1 .

Analysis of symmetry for dynamics (positions and initial velocities):
 Subroutine PRICEL returns:
 Original cell was already a primitive cell.

 Routine SETGRP: Setting up the symmetry group for a
 base centered orthorhombic supercell.

 Subroutine GETGRP returns: Found  1 space group operations
 (whereof  1 operations were pure point group operations)
 out of a pool of  8 trial point group operations.

The dynamic configuration has the point symmetry C_1 .

 Subroutine INISYM returns: Found  1 space group operations
 (whereof  1 operations are pure point group operations),
 and found     1 'primitive' translations

 KPOINTS: gamma-point-only calculation. no periodi

Automatic generation of k-mesh.
Space group operators:
 irot       det(A)        alpha          n_x          n_y          n_z        tau_x        tau_y        tau_z
    1     1.000000     0.000000     1.000000     0.000000     0.000000     0.000000     0.000000     0.000000

 Subroutine IBZKPT returns following result:

 Found      1 irreducible k-points:

 Following reciprocal coordinates:
            Coordinates               Weight
  0.000000  0.000000  0.000000      1.000000

 Following cartesian coordinates:
            Coordinates               Weight
  0.000000  0.000000  0.000000      1.000000

 SYSTEM =  "Millerite NiS"
 POSCAR =  Type_036 Type_136

 Startparameter for this run:
   NWRITE =      2    write-flag & timer
   PREC   = normal    normal or accurate (medium, high low for compatibility)
   ISTART =      0    job   : 0-new  1-cont  2-samecut
   ICHARG =      2    charge: 1-file 2-atom 10-const
   ISPIN  =      1    spin polarized calculation?
   LNONCOLLINEAR =      F non collinear calculations
   LSORBIT =      F    spin-orbit coupling
   INIWAV =      1    electr: 0-lowe 1-rand  2-diag
   LASPH  =      F    aspherical Exc in radial PAW
   METAGGA=      F    non-selfconsistent MetaGGA calc.

 Electronic Relaxation 1
   ENCUT  =  450.0 eV  33.07 Ry    5.75 a.u.  17.43 17.43 35.78*2*pi/ulx,y,z
   ENINI  =  450.0     initial cutoff
   ENAUG  =  703.4 eV  augmentation charge cutoff
   NELM   =    100;   NELMIN=  2; NELMDL= -5     # of ELM steps
   EDIFF  = 0.1E-03   stopping-criterion for ELM
   LREAL  =      T    real-space projection
   NLSPLINE    = F    spline interpolate recip. space projectors
   LCOMPAT=      F    compatible to vasp.4.4
   GGA_COMPAT  = T    GGA compatible to vasp.4.4-vasp.4.6
   LMAXPAW     = -100 max onsite density
[...]
  Fock        0.00000     0.00000     0.00000     0.00000     0.00000     0.00000
  Total      82.10202    83.58883   109.67418    -0.39671    -0.69492    -2.21738
  in kB      66.94301    68.15530    89.42434    -0.32346    -0.56661    -1.80797

 VOLUME and BASIS-vectors are now :
  energy-cutoff  :      450.00
  volume of cell :     1964.98
      direct lattice vectors                 reciprocal lattice vectors
    10.079732985  0.000000000  0.000000000     0.099208977 -0.037612667  0.000000000
     3.573298043  9.425102554  0.000000000     0.000000000  0.106099641  0.000000000
     0.000000000  0.000000000 20.683503555     0.000000000  0.000000000  0.048347708

  length of vectors
    10.079732985 10.079732985 20.683503555     0.106099641  0.106099641  0.048347708

 FORCES acting on ions
    electron-ion (+dipol)            ewald-force                    non-local-force                 convergence-correction
   0.178E+03 0.244E+03 0.490E+04   -.181E+03 -.243E+03 -.491E+04   0.101E+01 -.687E+00 0.398E+01   -.993E-02 -.148E-01 -.528E-01
   -.595E+03 0.106E+03 0.357E+04   0.602E+03 -.106E+03 -.358E+04   -.640E+01 0.563E+00 0.134E+01   0.587E-01 0.343E-01 0.357E-01
   -.108E+03 -.405E+03 0.165E+03   0.108E+03 0.406E+03 -.162E+03   -.233E+00 -.182E+01 -.103E+01   0.343E-01 -.174E-01 0.211E+00
   -.229E+02 -.568E+03 -.305E+04   0.235E+02 0.571E+03 0.305E+04   -.264E+00 -.270E+01 0.109E+00   -.204E-01 -.772E-01 0.283E+00
   -.188E+03 -.518E+03 -.565E+04   0.188E+03 0.515E+03 0.565E+04   0.499E+00 0.332E+01 0.601E+01   -.684E-01 0.134E+00 0.187E+00
   0.125E+03 -.247E+03 0.185E+04   -.126E+03 0.246E+03 -.185E+04   0.118E+01 0.349E+00 -.295E+01   -.398E-01 0.118E-01 0.122E+00
   0.258E+02 -.415E+03 -.113E+04   -.269E+02 0.416E+03 0.113E+04   0.108E+01 -.990E+00 -.134E+00   0.418E-01 0.199E-01 0.141E+00
   0.741E+02 -.709E+03 -.443E+04   -.755E+02 0.712E+03 0.443E+04   0.731E+00 -.155E+01 -.232E+01   0.365E-01 -.336E-01 0.846E-01
   0.515E+03 -.366E+03 0.469E+04   -.518E+03 0.365E+03 -.469E+04   0.290E+01 0.561E+00 0.350E+01   -.334E-01 0.182E-01 0.405E-01
   0.974E+02 -.879E+02 -.495E+04   -.981E+02 0.917E+02 0.495E+04   0.383E-01 -.354E+01 -.364E+01   0.955E-01 -.830E-02 0.165E+00
   -.441E+03 -.733E+01 0.353E+04   0.445E+03 0.108E+02 -.354E+04   -.347E+01 -.334E+01 0.499E+01   0.229E-01 -.241E-01 0.135E+00
   -.184E+03 -.472E+03 0.113E+04   0.187E+03 0.475E+03 -.113E+04   -.225E+01 -.299E+01 -.155E+01   -.181E-01 -.114E-01 0.137E+00
   0.376E+01 -.413E+03 -.185E+04   -.407E+01 0.414E+03 0.185E+04   0.382E+00 -.156E+01 0.143E+01   -.360E-01 0.605E-01 0.549E-01
   -.248E+03 -.197E+03 0.439E+04   0.249E+03 0.196E+03 -.440E+04   -.906E+00 0.157E+01 0.366E+01   -.839E-02 0.982E-02 0.587E-01
   0.620E+02 0.828E+01 0.900E+03   -.617E+02 -.724E+01 -.895E+03   -.418E+00 -.601E+00 -.299E+01   0.548E-01 -.275E-01 0.265E+00
   0.514E+03 0.199E+03 -.192E+04   -.516E+03 -.200E+03 0.192E+04   0.209E+01 0.599E+00 0.184E+01   0.126E-01 0.718E-01 0.190E+00
   0.464E+03 0.259E+03 -.497E+04   -.466E+03 -.261E+03 0.498E+04   0.132E+01 0.189E+01 -.334E+01   0.319E-01 0.284E+00 0.154E+00
   0.837E+03 0.106E+03 0.311E+04   -.840E+03 -.105E+03 -.311E+04   0.239E+01 -.115E+01 -.183E+01   -.233E-01 0.409E-01 0.655E-01
   0.390E+03 0.313E+03 0.308E+02   -.391E+03 -.313E+03 -.314E+02   0.127E+01 0.107E+00 0.357E+00   0.241E-01 0.123E-01 0.145E+00
   0.367E+03 0.431E+02 -.283E+04   -.370E+03 -.431E+02 0.282E+04   0.227E+01 0.591E+00 0.822E+00   0.948E-01 -.102E+00 0.183E+00
   -.148E+03 0.405E+03 -.525E+04   0.144E+03 -.406E+03 0.526E+04   0.509E+01 0.765E+00 -.172E+01   0.943E-01 -.710E-01 0.996E-01
   0.596E+03 -.290E+03 0.592E+04   -.599E+03 0.290E+03 -.592E+04   0.296E+01 0.401E+00 0.362E+01   -.216E-01 0.238E-01 -.759E-01
   0.292E+03 0.353E+03 -.430E+04   -.296E+03 -.355E+03 0.430E+04   0.282E+01 0.160E+01 0.861E-01   -.712E-01 -.984E-01 0.135E+00
   0.774E+03 0.388E+03 0.239E+04   -.777E+03 -.393E+03 -.239E+04   0.271E+01 0.349E+01 -.325E+00   -.218E-02 -.924E-02 0.111E+00
   0.480E+03 0.340E+03 -.936E+03   -.482E+03 -.341E+03 0.936E+03   0.132E+01 0.366E+00 0.713E-01   -.990E-01 -.423E-01 0.562E-01
   -.754E+03 0.936E+02 -.406E+04   0.759E+03 -.949E+02 0.407E+04   -.441E+01 0.130E+01 -.126E+01   -.116E+00 0.198E+00 0.202E+00
   -.410E+03 0.729E+02 0.270E+04   0.411E+03 -.728E+02 -.270E+04   -.929E+00 -.301E+00 0.144E+01   0.569E-02 0.812E-02 0.125E+00
   -.442E+03 0.818E+02 -.796E+03   0.443E+03 -.812E+02 0.793E+03   -.370E+00 -.695E+00 0.266E+01   -.691E-01 0.530E-01 0.181E+00
   -.584E+03 0.340E+03 0.456E+04   0.586E+03 -.343E+03 -.456E+04   -.119E+01 0.247E+01 0.380E+01   -.420E-01 -.550E-02 0.135E-01
   -.240E+03 0.419E+03 0.103E+04   0.238E+03 -.420E+03 -.103E+04   0.149E+01 0.856E+00 -.244E+01   0.504E-01 -.149E-01 0.177E+00
   -.279E+03 0.143E+03 -.183E+04   0.280E+03 -.144E+03 0.182E+04   -.178E+01 0.109E+01 0.248E+01   -.688E-01 -.103E-01 0.120E+00
   -.174E+03 0.340E+03 -.500E+04   0.175E+03 -.342E+03 0.500E+04   -.259E+00 0.113E+01 0.201E+01   -.155E+00 -.597E-01 0.127E+00
   -.319E+03 0.323E+02 0.344E+04   0.323E+03 -.315E+02 -.344E+04   -.291E+01 -.545E+00 0.114E+01   -.706E-01 -.495E-02 0.633E-01
   -.453E+03 0.166E+03 0.531E+02   0.454E+03 -.165E+03 -.534E+02   -.588E+00 -.857E+00 0.268E+00   0.360E-01 -.426E-01 0.915E-01
   -.358E+03 0.433E+03 -.332E+04   0.362E+03 -.435E+03 0.332E+04   -.425E+01 0.270E+01 -.144E+01   0.174E+00 -.399E-01 0.133E+00
   0.796E+02 -.152E+03 0.527E+04   -.811E+02 0.156E+03 -.528E+04   0.391E+00 -.292E+01 0.727E+01   0.277E-01 -.578E-01 0.249E-01
   -.117E+03 0.921E+02 -.209E+04   0.118E+03 -.933E+02 0.209E+04   -.221E+00 0.789E+00 -.176E+01   -.573E-03 0.416E-01 0.841E-01
   -.308E+03 -.575E+02 0.190E+04   0.310E+03 0.573E+02 -.191E+04   -.155E+01 -.299E+00 0.281E+01   0.563E-01 -.818E-02 0.162E-01
   -.699E+02 0.888E+02 0.353E+03   0.698E+02 -.903E+02 -.354E+03   0.505E+00 0.135E+01 0.965E+00   -.311E-02 0.696E-03 0.717E-01
   0.477E+01 0.138E+03 -.749E+03   -.566E+01 -.140E+03 0.744E+03   0.516E+00 0.172E+01 0.151E+01   -.303E-01 0.650E-01 0.356E-01
   0.370E+02 0.204E+03 0.231E+04   -.366E+02 -.204E+03 -.232E+04   -.460E+00 -.248E+00 0.289E+01   -.192E-02 0.656E-02 -.561E-01
   -.145E+03 0.190E+03 0.105E+04   0.148E+03 -.191E+03 -.105E+04   -.223E+01 0.113E+01 0.111E+01   0.135E-01 0.719E-02 0.229E-01
   0.419E+01 0.141E+03 -.399E+02   -.437E+01 -.144E+03 0.388E+02   -.328E-01 0.215E+01 0.102E+01   0.278E-01 -.136E-01 0.852E-01
   -.677E+02 0.200E+03 -.134E+04   0.691E+02 -.202E+03 0.134E+04   -.132E+01 0.484E+00 -.141E+01   -.466E-01 -.142E-01 0.766E-01
   0.262E+02 0.774E+02 0.566E+03   -.249E+02 -.785E+02 -.564E+03   -.108E+01 0.109E+01 -.821E+00   -.233E-01 0.157E-02 0.198E-01
   -.178E+02 0.146E+03 -.459E+03   0.181E+02 -.147E+03 0.454E+03   0.396E-01 0.147E+01 0.132E+01   0.192E-01 -.261E-01 0.267E-01
   -.450E+02 0.160E+03 -.175E+04   0.447E+02 -.161E+03 0.175E+04   0.712E+00 -.129E+00 -.391E+00   0.346E-01 -.174E-01 0.492E-01
   0.205E+03 0.479E+02 0.219E+04   -.206E+03 -.492E+02 -.220E+04   0.594E+00 0.391E+00 0.258E+01   0.396E-02 -.213E-01 -.464E-02
   -.339E+03 0.150E+03 0.219E+04   0.343E+03 -.151E+03 -.219E+04   -.202E+01 0.586E+00 0.941E+00   0.168E-01 -.512E-02 -.639E-01
   -.121E+03 -.106E+03 0.131E+04   0.122E+03 0.107E+03 -.131E+04   -.578E+00 0.879E+00 0.483E+00   0.316E-01 0.811E-02 0.375E-01
   -.105E+03 -.113E+03 -.115E+03   0.108E+03 0.114E+03 0.115E+03   -.185E+01 -.184E+01 0.745E-01   -.207E-01 -.807E-02 0.654E-01
   -.249E+03 -.181E+03 -.138E+04   0.250E+03 0.183E+03 0.138E+04   -.343E-01 -.204E+00 -.138E+01   -.117E+00 -.387E-02 0.134E+00
   -.271E+03 -.232E+03 0.204E+04   0.274E+03 0.235E+03 -.204E+04   -.205E+01 -.158E+01 0.955E+00   -.554E-01 -.105E-01 -.304E-01
   0.205E+02 -.129E+03 0.496E+03   -.215E+02 0.131E+03 -.495E+03   0.353E-01 -.179E+01 -.802E-02   -.151E-01 -.189E-02 0.748E-01
   -.920E+02 -.132E+03 -.589E+03   0.932E+02 0.135E+03 0.588E+03   -.143E+01 -.237E+01 -.909E-01   0.177E-01 0.711E-03 0.590E-01
   -.182E+02 -.172E+03 -.181E+04   0.196E+02 0.171E+03 0.181E+04   -.371E+00 0.417E+00 -.873E+00   -.303E-01 0.263E-02 0.316E-01
   -.116E+03 -.122E+03 0.236E+03   0.118E+03 0.125E+03 -.237E+03   -.189E+01 -.206E+01 0.128E+01   -.195E-01 0.977E-02 0.145E-01
   -.150E+03 -.621E+02 -.851E+03   0.152E+03 0.644E+02 0.849E+03   -.117E+01 -.220E+01 0.593E-01   0.821E-01 -.163E-01 0.499E-01
   0.464E+02 0.228E+03 -.220E+04   -.462E+02 -.229E+03 0.221E+04   -.183E+00 0.705E+00 -.207E+01   0.975E-01 -.138E-01 0.564E-01
   0.112E+01 -.264E+03 0.166E+04   -.144E+01 0.267E+03 -.166E+04   0.195E+01 -.316E+01 0.243E+01   0.719E-02 -.540E-02 0.188E-01
   0.169E+02 0.154E+03 0.187E+04   -.213E+02 -.156E+03 -.188E+04   0.390E+01 0.147E+01 0.421E+01   -.324E-01 0.333E-01 -.219E-01
   0.665E+02 -.118E+03 0.528E+03   -.687E+02 0.120E+03 -.526E+03   0.159E+01 -.198E+01 0.152E+01   0.134E-01 0.819E-02 0.938E-01
   0.150E+03 -.666E+02 -.642E+03   -.152E+03 0.681E+02 0.643E+03   0.212E+01 -.908E+00 -.193E+01   0.217E-01 -.115E-01 0.731E-01
   0.420E+03 -.154E+03 -.183E+04   -.426E+03 0.156E+03 0.183E+04   0.317E+01 -.179E+01 -.127E+01   0.933E-01 0.440E-01 0.945E-01
   0.184E+03 -.762E+02 0.152E+03   -.186E+03 0.776E+02 -.152E+03   0.254E+01 -.137E+01 -.482E+00   -.131E-01 0.267E-01 0.454E-01
   0.902E+02 -.928E+02 -.107E+04   -.929E+02 0.946E+02 0.107E+04   0.275E+01 -.190E+01 -.915E+00   0.336E-01 -.880E-02 0.502E-01
   0.232E+02 -.193E+03 -.223E+04   -.242E+02 0.195E+03 0.224E+04   0.466E-02 -.446E+00 -.162E+01   0.641E-02 -.599E-01 0.268E-01
   0.526E+03 -.950E+02 0.150E+04   -.531E+03 0.957E+02 -.150E+04   0.255E+01 0.914E-01 0.266E+01   0.324E-02 0.964E-02 0.842E-02
   -.504E+02 0.144E+03 0.220E+04   0.494E+02 -.144E+03 -.221E+04   0.697E+00 -.814E+00 0.320E+01   -.131E-01 -.818E-02 -.501E-01
   0.202E+03 0.142E+03 0.861E+03   -.204E+03 -.143E+03 -.858E+03   0.148E+01 0.176E+01 -.229E+01   0.103E-01 -.343E-01 0.700E-01
   0.159E+03 -.415E+02 -.202E+03   -.161E+03 0.419E+02 0.203E+03   0.278E+01 -.874E+00 -.879E+00   -.421E-01 0.137E-01 0.195E-01
   0.161E+03 0.792E+02 -.150E+04   -.164E+03 -.786E+02 0.150E+04   0.164E+01 -.862E+00 -.250E+01   -.659E-01 -.101E-01 0.599E-01
   -.143E+02 0.108E+02 -.429E+02   -.128E-11 0.134E-11 0.591E-11   0.145E+02 -.109E+02 0.372E+02   -.179E-01 0.187E+00 0.553E+01

 POSITION                                       TOTAL-FORCE (eV/Angst)
      5.34032      8.97219      1.82149        -2.128793      0.538513     -0.220252
      6.84052      7.26413      2.87512         0.493766     -0.012821      0.315435
      7.82056      6.07621      5.25100        -0.331966     -0.293940      1.513385
      8.79827      4.65991      7.87651         0.345364      0.383603     -0.266246
      9.56588      3.24455     10.02850         0.341842      0.085534      1.417892
      2.61774      3.87870      3.50067        -0.079194     -0.908530      1.939179
      3.59545      2.46241      6.12617        -0.068584     -0.381902      0.067801
      4.57317      1.04611      8.75167        -0.654691      1.089934     -0.697057
     11.99282      5.66534      2.15773        -0.337603     -0.137467     -0.962008
      3.78651      7.38887      9.33642        -0.604249      0.291341      0.631585
      6.30682      2.12786      3.05999         0.456483      0.105214      0.328010
      8.47237      0.26490      4.37584         0.908886     -0.012864      0.964141
     13.02338      8.27371      7.00134         0.036698     -0.376794     -0.339319
      5.41855      4.86809      2.55257         0.383788      0.535298     -0.781084
      6.61816      3.96023      4.55733        -0.013774      0.406393      2.135271
      7.59587      2.54394      7.18283         0.229413     -0.407556     -1.464081
      8.38839      1.15544      9.47969        -0.728749      0.360989      1.086644
      1.41534      1.76273      2.80700        -0.858924      0.080520      1.712366
      2.39305      0.34643      5.43250         0.113817     -0.009210     -0.057899
      6.94406      8.35524      8.05800        -0.708597      0.473631     -2.935261
      6.94381      6.80827      9.78380         0.947330     -0.345535      0.794536
      1.93037      3.39397      0.95673        -0.610083      0.502428     -1.562660
      2.66546      4.79970      8.65776        -1.070168     -0.437662      1.358929
     10.84326      7.57403      3.68216        -0.688129     -1.301096      1.105608
     11.82097      6.15773      6.30767        -0.158331      0.018661     -0.053807
      0.84093      1.55960      8.80411         0.809797      0.202141      0.630017
      9.02296      4.33443      3.86366         0.487512     -0.248734      0.574930
     10.00068      2.91813      6.48916         0.162886     -0.026048     -0.151032
      3.82015      2.13692      2.11332         0.988842     -0.764579      0.709923
      4.79786      0.72063      4.73883        -0.614010     -0.090730      1.292177
      9.34887      8.72943      7.36433        -0.285016      0.325338     -1.483775
     10.31861      7.70276      9.34650         0.406017     -0.790987      1.085439
      3.16834      7.94822      2.98849         0.729773      0.270939      0.959298
      4.14605      6.53193      5.61399         0.206739      0.166344      0.023103
      5.12376      5.11563      8.23950         0.126965      0.153271     -1.770122
      7.54544      0.23082      1.95725        -1.064213      0.730265     -0.972935
      3.57697      9.41463      9.94825         0.624572     -0.345779      1.948258
      7.34158      3.94750      2.61529         0.579017     -0.512733     -3.157066
      8.33317      2.41029      5.05057         0.343213     -0.123021     -0.016675
      9.31088      0.99399      7.67607        -0.411733     -0.664632     -3.476545
      2.24618      1.37884      0.90762         0.004727     -0.220683     -3.557533
      3.13035      0.21279      3.30024         0.722684      0.482828      2.136533
      7.68136      8.22159      5.92574        -0.191534     -0.063028      0.043032
      8.65907      6.80530      8.55124         0.036142     -1.634697     -0.192953
      2.47854      6.02409      4.17540         0.172689      0.010515      1.458040
      3.45626      4.60779      6.80091         0.342372      0.323281     -2.802256
      4.19514      3.30794      8.89553         0.468076     -0.812110      2.089282
     11.58524      7.64530      1.72360        -0.828759     -0.865034     -3.447968
      6.99158      8.05362      1.03519         2.142129     -0.185224     -3.415674
      8.81920      6.43250      3.48187         1.050716      1.388608     -1.347886
      9.86427      5.10469      5.93387         0.450382     -0.231289      0.329814
     10.84198      3.68840      8.55937         1.383427      1.159270     -0.372820
      3.61209      4.29456      1.67338         1.200300      0.713325     -2.095215
      4.66145      2.90719      4.18354        -1.019853      0.418305      1.083154
      5.63916      1.49089      6.80904        -0.178611      0.167081     -0.713590
      6.48535      0.28804      9.14610         0.955387      0.052032      1.867724
      4.00964      8.71849      5.05870         0.254406      0.111729      0.441859
      4.98735      7.30220      7.68420         0.855916      0.068799     -1.906948
      5.11373      5.99303     10.10003         0.106458     -0.718187      3.527771
      9.53836      0.70969      2.43320         1.641217      0.504137     -0.175605
      4.79910      6.96893      2.00445        -0.533395     -0.990256     -1.642335
      5.82436      6.04450      4.19167        -0.622494     -0.061039      3.638015
      6.80207      4.62821      6.81717        -0.126845      0.531788     -0.652280
      7.78240      3.20578      9.12518        -2.285702      0.857600      2.334074
      1.59925      2.43070      5.06683         0.098258      0.140769     -0.093615
      2.57697      1.01441      7.69234         0.094280     -0.178786     -0.616083
      7.40902      8.86026      9.95404        -0.904855      0.921296      3.613349
     10.70128      3.84700      2.44133        -2.024065      0.766481      0.650010
      5.66494      1.26057      1.35646        -0.242158     -0.688968     -3.296796
      6.47637      0.09136      3.71828        -0.946732      0.131480      0.703462
     11.02718      8.24201      5.94200         0.413068     -0.414516      0.467290
     12.00489      6.82571      8.56750        -0.793544     -0.213248     -0.279955
    total drift:                                0.118530      0.077568     -0.089793

  FREE ENERGIE OF THE ION-ELECTRON SYSTEM (eV)
  free  energy   TOTEN  =      -350.64902954 eV

  energy  without entropy=     -349.60933985  energy(sigma->0) =     -350.12918469