 vasp.5.4.4.18Apr17-6-g9f103f2a35 (build Aug 13 2019 17:33:20) gamma-only

 executed on             LinuxIFC date 2020.05.11  14:37:00

 INCAR:
 POTCAR:    PAW_PBE Ni_pv 06Sep2000
 POTCAR:    PAW_PBE S 06Sep2000
 POTCAR:    PAW_PBE Ni_pv 06Sep2000
   VRHFIN =Ni:

   TITEL  = PAW_PBE Ni_pv 06Sep2000
   POMASS =   58.690; ZVAL   =   16.000    mass and valenz
   ENMAX  =  367.986; ENMIN  =  275.989 eV

 POTCAR:    PAW_PBE S 06Sep2000
   VRHFIN =S : s2p4

   TITEL  = PAW_PBE S 06Sep2000
   POMASS =   32.066; ZVAL   =    6.000    mass and valenz
   ENMAX  =  258.689; ENMIN  =  194.016 eV

 Optimization of the real space projectors (new method)

 maximal supplied QI-value         = 18.90
 optimisation between [QCUT,QGAM] = [ 10.77, 21.73] = [ 32.49,132.25] Ry
 Optimized for a Real-space Cutoff    1.38 Angstroem

   l    n(q)    QCUT    max X(q) W(low)/X(q) W(high)/X(q)  e(spline)
   1      8    10.771     2.836    0.40E-04    0.29E-04    0.12E-06
   1      8    10.771     4.023    0.10E-03    0.48E-04    0.29E-06
   2      8    10.771    73.368    0.42E-03    0.97E-04    0.44E-06
   2      8    10.771    69.010    0.42E-03    0.99E-04    0.45E-06
   0      9    10.771    54.797    0.10E-03    0.56E-04    0.74E-07
   0      9    10.771    24.266    0.89E-04    0.49E-04    0.67E-07
 Optimization of the real space projectors (new method)

 maximal supplied QI-value         = 19.84
 optimisation between [QCUT,QGAM] = [ 10.71, 21.63] = [ 32.15,130.99] Ry
 Optimized for a Real-space Cutoff    1.19 Angstroem

   l    n(q)    QCUT    max X(q) W(low)/X(q) W(high)/X(q)  e(spline)
   0      8    10.715   187.594    0.41E-03    0.53E-04    0.66E-07
   0      8    10.715   164.243    0.41E-03    0.53E-04    0.65E-07
   1      7    10.715    67.533    0.19E-03    0.59E-03    0.68E-07
   1      7    10.715    50.729    0.19E-03    0.58E-03    0.67E-07
  PAW_PBE Ni_pv 06Sep2000               :
  PAW_PBE S 06Sep2000                   :

 POSCAR: Type_048 Type_148
  positions in cartesian coordinates
 exchange correlation table for  LEXCH =        8
   RHO(1)=    0.500       N(1)  =     2000
   RHO(2)=  100.500       N(2)  =     4000

 ion  position               nearest neighbor table
   1  0.261  0.479  0.295-  73 2.25  58 2.26  80 2.26  59 2.36  54 2.36   7 2.53  20 2.53
   2  0.355  0.385  0.426-  65 2.06  60 2.09  74 2.23  54 2.26  59 2.26   8 2.53  21 2.53
   3  0.167  0.073  0.165-  55 2.07  81 2.07  64 2.25  56 2.36  82 2.36  33 2.53  28 2.53
   4  0.026  0.064  0.496-  72 2.01  50 2.03  77 2.06  19 2.51
   5  0.212  0.525  0.058-  51 2.02  79 2.07  57 2.07  27 2.47  34 2.52
   6  0.274  0.333  0.130-  55 2.08  57 2.10  51 2.25  52 2.36  58 2.36  12 2.53  27 2.53
   7  0.368  0.239  0.261-  56 2.25  58 2.26  52 2.26  59 2.36  61 2.36   1 2.53  20 2.53
   8  0.462  0.145  0.391-  60 2.08  62 2.13  78 2.25  59 2.26  61 2.26   2 2.53  21 2.53
   9  0.000  0.372  0.261-  58 2.25  64 2.26  92 2.26  49 2.36  66 2.36  18 2.53  13 2.53
  10  0.094  0.278  0.391-  53 2.07  59 2.25  49 2.26  66 2.26  50 2.36  11 2.52  14 2.53  19 2.53

  11  0.181  0.210  0.495-  53 2.01  50 2.02  60 2.03  10 2.52
  12  0.406  0.465  0.130-  51 2.07  79 2.12  69 2.13  34 2.28  52 2.36  80 2.36  27 2.53   6 2.53

[...]

  46  0.734  0.736  0.472-  96 2.02  89 2.14  45 2.32  86 2.38  26 2.49
  47  0.906  0.965  0.130-  81 2.08  67 2.10  87 2.25  88 2.36  68 2.36  15 2.53  41 2.53
  48  0.812  0.555  0.030-  91 2.02  63 2.03  16 2.43  22 2.51
  49  0.073  0.167  0.311-  24 2.25  10 2.26  19 2.26   9 2.36  18 2.36
  50  0.167  0.073  0.442-  11 2.02   4 2.03  25 2.25  10 2.36  19 2.36
  51  0.392  0.364  0.056-   5 2.02  12 2.07  34 2.12   6 2.25
  52  0.479  0.261  0.181-  15 2.25   7 2.26  20 2.26  12 2.36   6 2.36
  53  0.018  0.374  0.471-  11 2.01  14 2.06  10 2.07
  54  0.436  0.472  0.355-  30 2.25   2 2.26  21 2.26   1 2.36  20 2.36
  55  0.261  0.158  0.113-   3 2.07  33 2.08   6 2.08  56 2.71
  56  0.342  0.066  0.225-   7 2.25  24 2.26  44 2.26   3 2.36  33 2.36  55 2.71
  57  0.083  0.481  0.108-   5 2.07   6 2.10  27 2.11  22 2.13
  58  0.174  0.397  0.225-   9 2.25   1 2.26   7 2.26   6 2.36  27 2.36
  59  0.268  0.303  0.355-  10 2.25   8 2.26   2 2.26   7 2.36   1 2.36  60 2.68
  60  0.347  0.222  0.467-  11 2.03   8 2.08   2 2.09  59 2.68  65 2.73
  61  0.573  0.167  0.311-  35 2.25  21 2.26   8 2.26  20 2.36   7 2.36  62 2.62
  62  0.665  0.073  0.417-   8 2.13  21 2.15  36 2.24  61 2.62
  63  0.875  0.364  0.058-  48 2.03  16 2.03  17 2.10  22 2.10
  64  0.979  0.261  0.181-   3 2.25  18 2.26   9 2.26  22 2.36  17 2.36
  65  0.524  0.325  0.476-  39 2.00  21 2.05   2 2.06  60 2.73
  66  0.936  0.472  0.355-  43 2.25  14 2.26  10 2.26  13 2.36   9 2.36
  67  0.759  0.156  0.108-  23 2.07  47 2.10  15 2.11  17 2.13
  68  0.842  0.066  0.225-  18 2.25  35 2.26  31 2.26  15 2.36  47 2.36
  69  0.577  0.490  0.105-  16 2.02  38 2.13  12 2.13  34 2.16  17 2.20
  70  0.674  0.397  0.225-  20 2.25  13 2.26  18 2.26  17 2.36  38 2.36
  71  0.768  0.303  0.355-  21 2.25  19 2.26  14 2.26  18 2.36  13 2.36  72 2.77
  72  0.859  0.222  0.470-   4 2.01  14 2.06  19 2.08  71 2.77
  73  0.073  0.667  0.311-   1 2.25  32 2.26  43 2.26  31 2.36  42 2.36  74 2.60
  74  0.168  0.573  0.416-  32 2.14  43 2.16   2 2.23  73 2.60
  75  0.342  0.898  0.062-  28 2.00  33 2.00
  76  0.479  0.761  0.181-  38 2.25  29 2.26  44 2.26  33 2.36  28 2.36
  77  0.025  0.890  0.470-  37 2.00   4 2.06  32 2.11  36 2.18  96 2.76  90 2.76
  78  0.436  0.972  0.355-   8 2.25  25 2.26  45 2.26  24 2.36  44 2.36  89 2.79
  79  0.275  0.654  0.096-   5 2.07  12 2.12  28 2.16  34 2.17  27 2.39
  80  0.342  0.566  0.225-  29 2.25   1 2.26  20 2.26  27 2.36  12 2.36
  81  0.082  0.979  0.113-   3 2.07  28 2.08  47 2.08  82 2.71
  82  0.174  0.897  0.225-  31 2.25  24 2.26  29 2.26  28 2.36   3 2.36  81 2.71
  83  0.268  0.803  0.355-  32 2.25  30 2.26  25 2.26  29 2.36  24 2.36
  84  0.362  0.699  0.471-  26 2.03  30 2.06  39 2.16  25 2.29
  85  0.573  0.667  0.311-  13 2.25  45 2.26  30 2.26  44 2.36  29 2.36
  86  0.667  0.573  0.442-  26 2.06  39 2.17  14 2.25  45 2.36  30 2.36  46 2.38
  87  0.876  0.848  0.056-  23 2.02  41 2.07  40 2.12  47 2.25
  88  0.979  0.761  0.181-  27 2.25  42 2.26  31 2.26  47 2.36  41 2.36
  89  0.533  0.886  0.470-  26 2.03  45 2.08  46 2.14  25 2.24  78 2.79
  90  0.936  0.972  0.355-  19 2.25  36 2.26  32 2.26  35 2.36  31 2.36  77 2.76
  91  0.750  0.663  0.105-  48 2.02  38 2.13  41 2.13  40 2.16  22 2.20
  92  0.842  0.566  0.225-  42 2.25  13 2.26   9 2.26  38 2.36  22 2.36
  93  0.586  0.965  0.096-  23 2.07  41 2.12  33 2.16  40 2.17  15 2.39
  94  0.674  0.897  0.225-  44 2.25  35 2.26  42 2.26  41 2.36  15 2.36
  95  0.768  0.803  0.355-  45 2.25  43 2.26  36 2.26  42 2.36  35 2.36
  96  0.923  0.709  0.479-  37 2.00  46 2.02  43 2.09  36 2.15  77 2.76

  LATTYP: Found a base centered orthorhombic cell.
 ALAT       =    11.8257374459
 B/A-ratio  =     1.6199260857
 C/A-ratio  =     1.9043172636

  Lattice vectors:

 A1 = (  11.2564630382,   0.0000000000,   0.0000000000)
 A2 = (  -5.0445621212, -10.0628203371,   0.0000000000)
 A3 = (   0.0000000000,   0.0000000000, -22.5199559732)

Analysis of symmetry for initial positions (statically):
 Subroutine PRICEL returns:
 Original cell was already a primitive cell.

 Routine SETGRP: Setting up the symmetry group for a
 base centered orthorhombic supercell.

 Subroutine GETGRP returns: Found  1 space group operations
 (whereof  1 operations were pure point group operations)
 out of a pool of  8 trial point group operations.

The static configuration has the point symmetry C_1 .

Analysis of symmetry for dynamics (positions and initial velocities):
 Subroutine PRICEL returns:
 Original cell was already a primitive cell.

 Routine SETGRP: Setting up the symmetry group for a
 base centered orthorhombic supercell.

 Subroutine GETGRP returns: Found  1 space group operations
 (whereof  1 operations were pure point group operations)
 out of a pool of  8 trial point group operations.

The dynamic configuration has the point symmetry C_1 .

 Subroutine INISYM returns: Found  1 space group operations
 (whereof  1 operations are pure point group operations),
 and found     1 'primitive' translations

 KPOINTS: gamma-point-only calculation. no periodi

Automatic generation of k-mesh.
Space group operators:
 irot       det(A)        alpha          n_x          n_y          n_z        tau_x        tau_y        tau_z
    1     1.000000     0.000000     1.000000     0.000000     0.000000     0.000000     0.000000     0.000000

 Subroutine IBZKPT returns following result:

 Found      1 irreducible k-points:

 Following reciprocal coordinates:
            Coordinates               Weight
  0.000000  0.000000  0.000000      1.000000

 Following cartesian coordinates:
            Coordinates               Weight
  0.000000  0.000000  0.000000      1.000000

 SYSTEM =  "Millerite NiS"
 POSCAR =  Type_048 Type_148

 Startparameter for this run:
   NWRITE =      2    write-flag & timer
   PREC   = normal    normal or accurate (medium, high low for compatibility)
   ISTART =      0    job   : 0-new  1-cont  2-samecut
   ICHARG =      2    charge: 1-file 2-atom 10-const
   ISPIN  =      1    spin polarized calculation?
   LNONCOLLINEAR =      F non collinear calculations
   LSORBIT =      F    spin-orbit coupling
   INIWAV =      1    electr: 0-lowe 1-rand  2-diag
   LASPH  =      F    aspherical Exc in radial PAW
   METAGGA=      F    non-selfconsistent MetaGGA calc.

 Electronic Relaxation 1
   ENCUT  =  450.0 eV  33.07 Ry    5.75 a.u.  19.47 19.47 38.95*2*pi/ulx,y,z
   ENINI  =  450.0     initial cutoff
   ENAUG  =  703.4 eV  augmentation charge cutoff
   NELM   =    100;   NELMIN=  2; NELMDL= -5     # of ELM steps
   EDIFF  = 0.1E-03   stopping-criterion for ELM
   LREAL  =      T    real-space projection
   NLSPLINE    = F    spline interpolate recip. space projectors
   LCOMPAT=      F    compatible to vasp.4.4
   GGA_COMPAT  = T    GGA compatible to vasp.4.4-vasp.4.6
   LMAXPAW     = -100 max onsite density
   LMAXMIX     =    2 max onsite mixed and CHGCAR
   VOSKOWN=      0    Vosko Wilk Nusair interpolation
   ROPT   =   -0.00050  -0.00050
 Ionic relaxation
   EDIFFG = 0.1E-02   stopping-criterion for IOM
   NSW    =      0    number of steps for IOM
   NBLOCK =      1;   KBLOCK =      1    inner block; outer block
   IBRION =     -1    ionic relax: 0-MD 1-quasi-New 2-CG
   NFREE  =      0    steps in history (QN), initial steepest desc. (CG)
   ISIF   =      2    stress and relaxation
   IWAVPR =     10    prediction:  0-non 1-charg 2-wave 3-comb
   ISYM   =      2    0-nonsym 1-usesym 2-fastsym
   LCORR  =      T    Harris-Foulkes like correction to forces

   POTIM  = 0.5000    time-step for ionic-motion
   TEIN   =    0.0    initial temperature
   TEBEG  =    0.0;   TEEND  =   0.0 temperature during run
   SMASS  =  -3.00    Nose mass-parameter (am)
   estimated Nose-frequenzy (Omega)   =  0.10E-29 period in steps =****** mass=  -0.290E-26a.u.
   SCALEE = 1.0000    scale energy and forces
   NPACO  =    256;   APACO  = 16.0  distance and # of slots for P.C.
[...]
     0.000000000  0.000000000 22.519955973     0.000000000  0.000000000  0.044405060

  length of vectors
    11.256463038 11.256463038 22.519955973     0.099375718  0.099375718  0.044405060

 FORCES acting on ions
    electron-ion (+dipol)            ewald-force                    non-local-force                 convergence-correction
   0.271E+03 -.365E+03 -.793E+03   -.271E+03 0.366E+03 0.791E+03   0.433E+00 -.728E+00 0.133E+01   0.454E-01 -.405E-01 -.932E-01
   0.415E+03 -.410E+03 -.442E+04   -.417E+03 0.413E+03 0.442E+04   0.803E+00 -.269E+01 -.274E+01   0.574E+00 0.237E+00 0.177E+00
   0.276E+03 -.452E+03 0.298E+04   -.279E+03 0.457E+03 -.298E+04   0.241E+01 -.396E+01 0.220E+01   0.123E+00 -.245E-01 -.393E+00
   0.371E+02 0.136E+03 -.575E+04   -.377E+02 -.135E+03 0.575E+04   0.101E+01 -.198E+01 0.489E+00   -.319E+00 -.373E+00 0.237E+00
   0.712E+03 -.333E+03 0.587E+04   -.716E+03 0.333E+03 -.587E+04   0.273E+01 0.517E+00 0.480E+01   0.360E+00 -.124E-01 -.136E+00
   0.426E+03 0.862E+03 0.378E+04   -.427E+03 -.867E+03 -.378E+04   0.152E+01 0.406E+01 0.242E+00   0.156E-01 0.466E-01 -.312E+00
   0.282E+03 0.477E+03 0.379E+03   -.282E+03 -.477E+03 -.380E+03   0.639E+00 0.403E+00 0.160E+01   0.190E-01 0.514E-01 -.261E+00
   0.154E+03 0.423E+03 -.320E+04   -.157E+03 -.429E+03 0.320E+04   0.167E+01 0.521E+01 -.181E+01   0.160E+00 0.244E+00 -.250E-01
   -.546E+03 0.543E+02 0.397E+03   0.547E+03 -.539E+02 -.397E+03   -.794E+00 -.520E+00 0.127E+01   0.682E-01 0.138E+00 -.398E+00
   -.547E+03 -.111E+03 -.277E+04   0.549E+03 0.111E+03 0.277E+04   -.207E+01 -.861E+00 0.194E+01   0.147E+00 0.119E+00 -.408E+00
   -.447E+03 -.906E+02 -.581E+04   0.447E+03 0.917E+02 0.581E+04   0.118E+01 -.154E+01 0.825E+00   0.295E+00 -.741E-02 0.188E+00
   -.415E+03 0.190E+03 0.309E+04   0.418E+03 -.192E+03 -.308E+04   -.181E+01 0.164E+01 -.323E+01   -.766E-01 0.128E+00 -.672E+00
   0.212E+03 -.336E+03 -.743E+03   -.213E+03 0.336E+03 0.743E+03   0.760E+00 -.121E+01 0.490E+00   -.850E-01 0.895E-01 -.183E+00
   0.218E+03 -.402E+03 -.424E+04   -.218E+03 0.403E+03 0.424E+04   0.643E+00 -.986E+00 -.347E+01   -.558E+00 0.241E+00 -.236E-01
   0.382E+03 -.547E+03 0.237E+04   -.384E+03 0.549E+03 -.237E+04   0.187E+01 -.234E+01 -.112E+01   -.105E+00 0.470E-02 -.401E+00
   0.198E+03 0.438E+03 0.586E+04   -.197E+03 -.433E+03 -.586E+04   -.103E+01 -.543E+01 -.860E-01   -.651E+00 0.274E-01 0.597E-01
   0.430E+02 0.800E+03 0.345E+04   -.438E+02 -.802E+03 -.345E+04   0.483E+00 0.211E+01 -.203E+00   0.204E-01 0.138E-01 0.949E-01
   0.194E+03 0.500E+03 0.404E+03   -.195E+03 -.500E+03 -.405E+03   0.816E+00 0.470E+00 0.117E+01   -.203E-01 0.123E+00 -.314E+00
   0.282E+03 0.376E+03 -.272E+04   -.283E+03 -.378E+03 0.271E+04   0.171E+01 0.188E+01 0.163E+01   -.228E+00 -.526E-01 -.209E+00
   -.474E+03 0.293E+02 0.329E+03   0.475E+03 -.289E+02 -.331E+03   -.938E+00 -.363E+00 0.168E+01   0.217E-01 -.346E-02 -.120E+00
   -.460E+03 0.194E+03 -.311E+04   0.465E+03 -.195E+03 0.311E+04   -.439E+01 -.196E+00 -.358E+00   -.106E+00 0.460E+00 0.321E+00
   -.735E+03 0.322E+03 0.345E+04   0.738E+03 -.322E+03 -.345E+04   -.210E+01 0.497E+00 -.207E+00   0.165E+00 -.102E-01 0.219E+00
   -.202E+02 -.787E+03 0.587E+04   0.218E+02 0.791E+03 -.587E+04   -.165E+01 -.221E+01 0.480E+01   -.265E+00 -.362E+00 -.219E+00
   0.260E+03 -.438E+03 -.683E+03   -.260E+03 0.438E+03 0.683E+03   0.731E+00 -.123E+01 -.275E+00   -.647E-01 0.188E+00 -.173E+00
   0.423E+03 -.665E+03 -.410E+04   -.425E+03 0.668E+03 0.409E+04   0.159E+01 -.227E+01 0.147E+00   0.201E-01 -.656E+00 0.356E+00
   0.976E+02 -.673E+02 -.623E+04   -.967E+02 0.689E+02 0.624E+04   0.278E+00 -.918E+00 -.523E+01   -.986E+00 -.688E+00 0.241E+00
   0.314E+03 -.579E+03 0.237E+04   -.315E+03 0.583E+03 -.237E+04   0.124E+01 -.272E+01 -.110E+01   -.117E-01 -.874E-01 -.425E+00
   0.289E+03 0.144E+03 0.396E+04   -.290E+03 -.147E+03 -.397E+04   0.745E+00 0.179E+01 0.384E+01   0.543E-01 -.795E-02 -.458E+00
   0.285E+03 0.381E+03 0.426E+03   -.286E+03 -.381E+03 -.427E+03   0.504E+00 0.722E+00 0.122E+01   -.830E-01 -.146E+00 -.213E+00
   0.424E+03 0.332E+03 -.249E+04   -.426E+03 -.333E+03 0.249E+04   0.181E+01 0.211E+01 0.316E+01   -.660E-01 -.518E+00 0.950E+00
   -.565E+03 -.329E+02 0.410E+03   0.565E+03 0.334E+02 -.412E+03   -.658E+00 -.377E+00 0.153E+01   0.489E-01 -.126E+00 -.284E+00
   -.576E+03 0.151E+03 -.306E+04   0.581E+03 -.152E+03 0.306E+04   -.461E+01 0.103E+01 -.520E+00   0.122E+00 -.199E+00 0.157E+00
   -.258E+03 -.196E+03 0.396E+04   0.261E+03 0.195E+03 -.396E+04   -.192E+01 0.885E-01 0.382E+01   0.197E-01 0.983E-02 -.435E+00
   -.122E+03 -.440E+03 0.595E+04   0.125E+03 0.438E+03 -.595E+04   -.255E+01 0.234E+01 0.170E+01   -.341E+00 0.174E+00 -.119E+00
   0.225E+03 -.434E+03 -.747E+03   -.225E+03 0.435E+03 0.746E+03   0.440E+00 -.858E+00 0.122E+01   -.110E-01 0.262E-01 -.211E+00
   0.245E+03 -.618E+03 -.385E+04   -.249E+03 0.622E+03 0.385E+04   0.242E+01 -.272E+01 -.604E+00   0.392E+00 0.103E+00 0.227E+00
   0.234E+02 -.115E+03 -.603E+04   -.201E+02 0.112E+03 0.602E+04   -.363E+01 0.252E+01 0.757E+01   0.200E+00 0.456E-01 0.504E+00
   0.301E+03 -.483E+03 0.239E+04   -.302E+03 0.486E+03 -.239E+04   0.140E+01 -.232E+01 -.116E+01   0.875E-01 -.366E-01 -.214E+00
   0.210E+03 0.600E+03 -.547E+04   -.211E+03 -.603E+03 0.547E+04   0.202E+01 0.289E+01 -.288E+01   -.359E-01 0.325E+00 0.289E+00
   0.449E+03 -.885E+02 0.595E+04   -.448E+03 0.842E+02 -.595E+04   -.966E+00 0.337E+01 0.170E+01   -.733E-01 0.411E+00 -.146E+00
   0.184E+02 0.457E+03 0.309E+04   -.169E+02 -.460E+03 -.308E+04   -.637E+00 0.237E+01 -.320E+01   -.184E+00 -.468E-02 -.687E+00
   0.190E+03 0.453E+03 0.358E+03   -.190E+03 -.453E+03 -.359E+03   0.714E+00 0.713E+00 0.173E+01   0.173E-01 -.232E+00 -.324E+00
   0.324E+02 0.663E+03 -.301E+04   -.348E+02 -.667E+03 0.301E+04   0.182E+01 0.372E+01 0.165E+01   0.352E+00 -.786E-01 -.216E+00
   -.458E+03 -.903E+02 0.431E+03   0.459E+03 0.905E+02 -.432E+03   -.890E+00 -.162E+00 0.119E+01   0.125E+00 0.709E-01 -.340E+00
   -.411E+03 -.176E+03 -.245E+04   0.414E+03 0.177E+03 0.244E+04   -.251E+01 -.391E+00 0.310E+01   -.648E+00 -.204E+00 -.541E-01
   -.330E+03 0.155E+03 -.537E+04   0.331E+03 -.156E+03 0.537E+04   -.141E+01 0.197E+00 -.324E+01   -.441E+00 -.614E-01 0.323E+00
   -.962E+03 0.419E+01 0.379E+04   0.967E+03 -.531E+01 -.379E+04   -.430E+01 0.441E+00 0.208E+00   -.141E-01 -.792E-01 -.335E+00
   -.480E+03 0.204E+02 0.586E+04   0.475E+03 -.186E+02 -.586E+04   0.530E+01 -.149E+01 -.123E+00   0.224E+00 0.537E+00 0.170E+00
   -.826E+02 0.121E+03 -.230E+03   0.838E+02 -.123E+03 0.229E+03   -.116E+01 0.193E+01 0.109E+01   0.339E-01 -.346E-02 -.128E+00
   -.141E+03 0.191E+03 -.151E+04   0.142E+03 -.192E+03 0.151E+04   -.158E+00 0.994E-01 -.970E+00   0.356E-01 -.179E+00 -.989E-01
   0.431E+02 0.562E+03 0.219E+04   -.424E+02 -.567E+03 -.220E+04   -.510E+00 0.272E+01 0.117E+01   0.344E-01 0.146E+00 -.836E-01
   -.409E+02 0.168E+03 0.983E+03   0.418E+02 -.170E+03 -.985E+03   -.736E+00 0.155E+01 0.165E+01   -.327E-01 0.133E-01 -.131E+00
   -.113E+03 -.352E+03 -.213E+04   0.115E+03 0.357E+03 0.213E+04   -.144E+01 -.184E+01 -.707E+00   -.191E-01 0.164E+00 0.452E-01
   -.153E+02 -.118E+03 -.733E+03   0.159E+02 0.121E+03 0.732E+03   -.294E+00 -.220E+01 -.161E+00   0.826E-01 -.253E-02 0.190E+00
   0.755E+02 -.967E+02 0.185E+04   -.773E+02 0.989E+02 -.185E+04   0.175E+01 -.942E+00 0.327E+01   0.346E-01 -.332E-01 -.696E-01
   -.494E+02 -.160E+03 0.504E+03   0.511E+02 0.162E+03 -.504E+03   -.140E+01 -.257E+01 0.609E+00   -.148E-01 0.749E-01 -.204E+00
   0.251E+03 0.518E+02 0.168E+04   -.253E+03 -.518E+02 -.169E+04   0.247E+00 0.279E+00 0.582E+00   0.476E-01 -.103E-01 -.234E-01
   0.181E+03 0.294E+02 0.458E+03   -.183E+03 -.292E+02 -.458E+03   0.257E+01 -.284E+00 0.108E+01   -.967E-02 0.318E-02 -.163E+00
   0.156E+03 -.119E+02 -.776E+03   -.159E+03 0.121E+02 0.776E+03   0.311E+01 -.344E+00 -.953E+00   0.115E+00 0.162E-01 -.357E-01
   -.868E+02 0.572E+02 -.209E+04   0.863E+02 -.593E+02 0.209E+04   0.221E+00 0.124E+01 -.139E+01   0.266E+00 0.625E-01 -.287E-01
[...]
   0.205E+03 -.149E+02 -.751E+03   -.207E+03 0.148E+02 0.750E+03   0.295E+01 0.446E+00 -.405E+00   -.281E-01 -.992E-01 0.128E+00
   0.548E+03 -.551E+02 -.210E+04   -.554E+03 0.554E+02 0.210E+04   0.310E+01 0.933E-01 -.447E+00   0.288E+00 -.305E+00 0.154E+00
   -.663E+02 0.116E+03 -.214E+03   0.674E+02 -.118E+03 0.213E+03   -.939E+00 0.170E+01 0.153E+01   0.122E-01 -.145E+00 0.463E-01
   -.215E+03 0.299E+03 -.159E+04   0.218E+03 -.302E+03 0.159E+04   -.591E+00 0.236E+01 0.113E+01   -.588E+00 -.645E-01 0.203E+00
   -.521E+03 0.213E+03 0.220E+04   0.526E+03 -.216E+03 -.220E+04   -.221E+01 0.167E+01 0.120E+01   -.160E+00 -.279E-01 -.116E+00
   -.133E+03 0.114E+03 0.987E+03   0.134E+03 -.116E+03 -.988E+03   -.101E+01 0.139E+01 0.161E+01   -.273E-02 -.512E-01 -.134E+00
   -.125E+03 -.549E+03 -.207E+04   0.127E+03 0.555E+03 0.207E+04   -.155E+01 -.286E+01 -.491E+00   -.313E+00 -.573E-01 0.167E+00
   -.728E+02 -.159E+03 -.732E+03   0.740E+02 0.162E+03 0.732E+03   -.108E+01 -.280E+01 -.830E+00   0.302E-01 -.418E-01 0.876E-02
   0.712E+02 -.119E+03 0.142E+04   -.729E+02 0.119E+03 -.142E+04   0.142E+01 -.338E+00 -.136E+01   0.179E-01 0.201E+00 -.847E-02
   -.901E+02 -.131E+03 0.437E+03   0.911E+02 0.134E+03 -.437E+03   -.867E+00 -.248E+01 0.105E+01   0.130E-01 -.241E-01 -.146E+00
   0.416E+03 -.239E+03 0.170E+04   -.419E+03 0.241E+03 -.170E+04   0.112E+01 -.731E+00 0.123E+01   -.170E-01 -.116E+00 -.205E+00
   0.183E+03 -.266E+02 0.440E+03   -.186E+03 0.267E+02 -.440E+03   0.288E+01 0.359E-01 0.614E+00   0.127E-01 -.227E-01 -.198E+00
   0.132E+03 -.278E+02 -.687E+03   -.134E+03 0.282E+02 0.686E+03   0.214E+01 -.816E+00 0.625E+00   0.491E-01 -.439E-01 -.130E+00
   -.146E+03 0.413E+03 -.211E+04   0.144E+03 -.417E+03 0.212E+04   0.443E+00 0.231E+01 -.174E+01   0.401E+00 0.628E-01 0.179E+00
   -.485E+01 0.488E+01 -.387E+02   -.995E-12 -.102E-11 0.909E-11   0.621E+01 -.481E+01 0.450E+02   -.166E+01 -.666E-01 -.619E+01

 POSITION                                       TOTAL-FORCE (eV/Angst)
      5.35228      4.81788      6.64784         0.132579     -0.360698     -0.278400
      5.93595      3.87238      9.58390        -0.866403      1.054279     -1.588751
      2.24633      0.73197      3.71178        -0.335385      0.540487      2.302655
      0.62007      0.64771     11.16560         0.136582     -0.944728      1.270740
      5.03629      5.28370      1.30185        -1.069360      0.984043     -1.529927
      4.76861      3.35453      2.93606         0.461207     -0.805922      1.393317
      5.35228      2.40903      5.87212         0.084129      0.251687      0.155808
      5.93595      1.46353      8.80817        -0.296759     -0.114206     -1.989708
      1.87746      3.73836      5.87212         0.032578      0.047534      0.045039
      2.46113      2.79286      8.80817        -0.021157     -0.325126     -1.756822
      3.09696      2.11043     11.14888         0.530076     -0.458746      1.303293
      6.92203      4.68386      2.93606         0.452973     -0.983694      4.279676
     10.98051      4.81788      6.64784         0.084637     -0.204872     -0.022132
     11.56418      3.87238      9.58390        -0.466276      0.841253     -1.171210
      7.87456      0.73197      3.71178        -0.645753      0.263082      1.367099
      9.86918      4.30804      0.67530        -0.886466      0.218615     -1.275664
     10.39684      3.35453      2.93606        -0.253419     -0.397033      1.766963
     10.98051      2.40903      5.87212        -0.056568      0.013481      0.042578
     11.56418      1.46353      8.80817         0.270919     -0.147550     -1.761249
      7.50570      3.73836      5.87212        -0.157622     -0.020964      0.011850
      8.08937      2.79286      8.80817         0.460601     -0.007451     -1.950030
     12.55026      4.68386      2.93606         0.471581      0.056088      1.762880
      8.18342      0.27771      1.30185        -0.382669      1.371313     -1.525644
      7.87456      9.84929      6.64784         0.164339     -0.269515     -0.150986
      8.45823      8.90379      9.58390        -0.542638      0.460554     -0.337090
      9.54732      7.20413     11.15559         0.191453     -0.085532      1.672059
      4.76861      5.76338      3.71178         0.060853      0.703229      1.372380
      7.29089      8.38594      2.93606        -0.396891     -1.222623      2.533856
      7.87456      7.44044      5.87212        -0.049289      0.107716     -0.021823
      8.45823      6.49494      8.80817         0.266495      0.450044     -3.036297
      4.39975      8.76977      5.87212        -0.252828     -0.006151      0.164686
      4.98341      7.82427      8.80817         0.181111      0.074584     -1.609373
      9.44431      9.71527      2.93606         1.265070     -0.199271      2.525468
      7.51113      5.30153      0.81837         0.789433      0.403151     -1.296371
     13.50279      9.84929      6.64784         0.230514     -0.292977     -0.283348
     14.08646      8.90379      9.58390        -0.691584      0.946867     -1.825021
     14.57475      8.67872     11.92122        -0.039307      0.457402      1.465968
     10.39684      5.76338      3.71178        -0.309501      0.488874      1.326424
      8.45490      5.04702     10.61453         0.471724      0.367963      0.787038
     12.10295      8.13611      0.81837        -0.723680     -0.507884     -1.291535
     12.91912      8.38594      2.93606         0.691741     -0.842573      4.304696
     13.50279      7.44044      5.87212         0.061378      0.100819     -0.004896
     14.08646      6.49494      8.80817        -0.254598     -0.239552     -1.685922
     10.02798      8.76977      5.87212        -0.073676      0.082703      0.010622
     10.61165      7.82427      8.80817        -0.391771     -0.241306     -2.782940
     11.97347      7.40177     10.63528        -0.369953     -0.391945      0.653723
     15.07254      9.71527      2.93606         0.508578     -0.751027      1.404337
     11.93433      5.58289      0.67530         0.190648      0.900443     -1.293180
      1.66190      1.67871      7.01153         0.141696     -0.241599     -0.083359
      2.24556      0.73321      9.94759         0.827358     -1.598367     -0.847009
      6.24635      3.66114      1.26482         0.288834     -2.892086     -2.900005
      6.70646      2.62422      4.07548         0.079029     -0.282943      0.061714
      2.09207      3.76124     10.60305         0.572942      2.482276      2.371169
      7.29013      4.74605      7.99931         0.430621      0.084405     -0.514515
      3.72912      1.58817      2.55342        -0.046908      1.246783     -2.430985
      4.18418      0.66015      5.06325         0.358120     -0.024702      0.544876
      3.36311      4.83928      2.43870        -1.364625      0.331742     -1.327816
      3.96438      3.99884      5.06325         0.120097     -0.109945      0.682006
      4.54805      3.05334      7.99931        -0.187649     -0.112389     -1.064250
      5.02195      2.23050     10.50665         0.023701     -0.765610      2.899121
[...]
      6.48666      9.03025      5.06325        -0.120251     -0.358175      0.544408
      7.07033      8.08475      7.99931         0.066854      0.251999     -0.596092
      7.60385      7.03702     10.60420        -2.479913      0.070177      2.238386
      9.81241      6.71012      7.01153         0.150559     -0.255658      0.049590
     10.39608      5.76462      9.94759         1.430228     -1.177385      0.256665
     14.13620      8.53164      1.26482         2.458574     -1.554461     -2.907513
     14.85697      7.65563      4.07548         0.231147     -0.180840      0.070296
     10.46593      8.91667     10.57320         0.890026      2.447139      2.171260
     15.44064      9.77746      7.99931         0.206903      0.141130     -0.903422
     11.78349      6.67061      2.36794        -0.161420      0.713323     -0.693202
     12.33469      5.69156      5.06325         0.137726     -0.051932      0.446291
     11.46070      9.70917      2.16365        -1.801128      1.383652     -0.548809
     12.11489      9.03025      5.06325        -0.120133      0.050667      0.128504
     12.69856      8.08475      7.99931        -0.194614     -0.434121     -0.337767
     13.96485      7.13678     10.79639        -0.545929     -2.204097      2.564377
    total drift:                               -0.297245     -0.001633      0.162907

  FREE ENERGIE OF THE ION-ELECTRON SYSTEM (eV)
  free  energy   TOTEN  =      -467.41085802 eV

  energy  without entropy=     -466.06940659  energy(sigma->0) =     -466.74013230