 vasp.6.1.0 28Jan20 (build Mar 31 2020 17:42:31) gamma-only

 executed on             LinuxIFC date 2020.04.12  12:41:57

 INCAR:
 POTCAR:    PAW_PBE Ni_pv 06Sep2000
 POTCAR:    PAW_PBE S 06Sep2000
 POTCAR:    PAW_PBE Ni_pv 06Sep2000
   VRHFIN =Ni:

   TITEL  = PAW_PBE Ni_pv 06Sep2000
   POMASS =   58.690; ZVAL   =   16.000    mass and valenz
   ENMAX  =  367.986; ENMIN  =  275.989 eV

 POTCAR:    PAW_PBE S 06Sep2000
   VRHFIN =S : s2p4

   TITEL  = PAW_PBE S 06Sep2000
   POMASS =   32.066; ZVAL   =    6.000    mass and valenz
   ENMAX  =  258.689; ENMIN  =  194.016 eV

 Optimization of the real space projectors (new method)

 maximal supplied QI-value         = 18.90
 optimisation between [QCUT,QGAM] = [ 10.77, 21.73] = [ 32.49,132.25] Ry
 Optimized for a Real-space Cutoff    1.38 Angstroem

   l    n(q)    QCUT    max X(q) W(low)/X(q) W(high)/X(q)  e(spline)
   1      8    10.771     2.836    0.40E-04    0.29E-04    0.12E-06
   1      8    10.771     4.023    0.10E-03    0.48E-04    0.29E-06
   2      8    10.771    73.368    0.42E-03    0.97E-04    0.44E-06
   2      8    10.771    69.010    0.42E-03    0.99E-04    0.45E-06
   0      9    10.771    54.797    0.10E-03    0.56E-04    0.74E-07
   0      9    10.771    24.266    0.89E-04    0.49E-04    0.67E-07
 Optimization of the real space projectors (new method)

 maximal supplied QI-value         = 19.84
 optimisation between [QCUT,QGAM] = [ 10.71, 21.63] = [ 32.15,130.99] Ry
 Optimized for a Real-space Cutoff    1.19 Angstroem

   l    n(q)    QCUT    max X(q) W(low)/X(q) W(high)/X(q)  e(spline)
   0      8    10.715   187.594    0.41E-03    0.53E-04    0.66E-07
   0      8    10.715   164.243    0.41E-03    0.53E-04    0.65E-07
   1      7    10.715    67.533    0.19E-03    0.59E-03    0.68E-07
   1      7    10.715    50.729    0.19E-03    0.58E-03    0.67E-07
  PAW_PBE Ni_pv 06Sep2000               :
  PAW_PBE S 06Sep2000                   :

 POSCAR: Structure 46 made from -112-7.xsd file
  positions in direct lattice
 exchange correlation table for  LEXCH =        8
   RHO(1)=    0.500       N(1)  =     2000
   RHO(2)=  100.500       N(2)  =     4000

 ion  position               nearest neighbor table
   1  0.780  0.145  0.123-  42 2.25  65 2.26  51 2.26  66 2.36  52 2.36  27 2.53  14 2.53
   2  0.815  0.145  0.309-  43 2.25  66 2.26  52 2.26  28 2.53  15 2.53
   3  0.263  0.645  0.031-  44 2.25  63 2.36  53 2.36  29 2.53  16 2.53
   4  0.297  0.645  0.216-  45 2.25  63 2.26  53 2.26  64 2.36  54 2.36  30 2.53  17 2.53
   5  0.435  0.145  0.062-  47 2.25  69 2.36  55 2.36  31 2.53  19 2.53
   6  0.470  0.145  0.247-  48 2.25  69 2.26  55 2.26  70 2.36  56 2.36  32 2.53  20 2.53
   7  0.952  0.645  0.154-  49 2.25  68 2.26  58 2.26  67 2.36  57 2.36  33 2.53  21 2.53
   8  0.987  0.645  0.340-  50 2.25  67 2.26  57 2.26  34 2.53  22 2.53
   9  0.090  0.145  0.000-  73 2.36  59 2.36
  10  0.125  0.145  0.185-  39 2.25  73 2.26  59 2.26  74 2.36  60 2.36  35 2.53  23 2.53
  11  0.159  0.145  0.370-  38 2.25  74 2.26  60 2.26  24 2.53
  12  0.608  0.645  0.093-  40 2.25  71 2.36  61 2.36  36 2.53  25 2.53
  13  0.642  0.645  0.278-  41 2.25  71 2.26  61 2.26  72 2.36  62 2.36  37 2.53  26 2.53
  14  0.908  0.013  0.099-  58 2.25  65 2.26  66 2.36  39 2.36   1 2.53  27 2.53
  15  0.942  0.013  0.284-  57 2.25  66 2.26  39 2.26  38 2.36   2 2.53  28 2.53
  16  0.390  0.513  0.006-  40 2.36  63 2.36  29 2.53   3 2.53
  17  0.425  0.513  0.192-  55 2.25  40 2.26  63 2.26  41 2.36  64 2.36   4 2.53  30 2.53
  18  0.459  0.513  0.377-  56 2.25  41 2.26  64 2.26
  19  0.563  0.013  0.037-  42 2.36  69 2.36   5 2.53  31 2.53
  20  0.597  0.013  0.222-  61 2.25  69 2.26  42 2.26  43 2.36  70 2.36  32 2.53   6 2.53
  21  0.080  0.513  0.130-  59 2.25  44 2.26  68 2.26  67 2.36  45 2.36   7 2.53  33 2.53
  22  0.115  0.513  0.315-  60 2.25  67 2.26  45 2.26  46 2.36   8 2.53  34 2.53
  23  0.252  0.013  0.161-  53 2.25  47 2.26  73 2.26  48 2.36  74 2.36  10 2.53  35 2.53
  24  0.287  0.013  0.346-  54 2.25  48 2.26  74 2.26  11 2.53
  25  0.735  0.513  0.068-  51 2.25  71 2.36  49 2.36  12 2.53  36 2.53
  26  0.770  0.513  0.253-  52 2.25  71 2.26  49 2.26  72 2.36  50 2.36  13 2.53  37 2.53
  27  0.908  0.277  0.099-  68 2.25  51 2.26  52 2.36  39 2.36   1 2.53  14 2.53
  28  0.942  0.277  0.284-  67 2.25  52 2.26  39 2.26  38 2.36   2 2.53  15 2.53
  29  0.390  0.777  0.006-  40 2.36  53 2.36  16 2.53   3 2.53
  30  0.425  0.777  0.192-  69 2.25  40 2.26  53 2.26  41 2.36  54 2.36   4 2.53  17 2.53
  31  0.563  0.277  0.037-  42 2.36  55 2.36   5 2.53  19 2.53
  32  0.597  0.277  0.222-  71 2.25  55 2.26  42 2.26  43 2.36  56 2.36  20 2.53   6 2.53
  33  0.080  0.777  0.130-  73 2.25  44 2.26  58 2.26  57 2.36  45 2.36   7 2.53  21 2.53
  34  0.115  0.777  0.315-  74 2.25  57 2.26  45 2.26  46 2.36   8 2.53  22 2.53
  35  0.252  0.277  0.161-  63 2.25  47 2.26  59 2.26  48 2.36  60 2.36  10 2.53  23 2.53
  36  0.735  0.777  0.068-  65 2.25  61 2.36  49 2.36  12 2.53  25 2.53
  37  0.770  0.777  0.253-  66 2.25  61 2.26  49 2.26  62 2.36  50 2.36  13 2.53  26 2.53
  38  0.026  0.145  0.369-  11 2.25  15 2.36  28 2.36
  39  0.991  0.145  0.183-  10 2.25  15 2.26  28 2.26  27 2.36  14 2.36
  40  0.474  0.645  0.091-  12 2.25  17 2.26  30 2.26  29 2.36  16 2.36
  41  0.509  0.645  0.276-  13 2.25  18 2.26  17 2.36  30 2.36
  42  0.647  0.145  0.122-   1 2.25  20 2.26  32 2.26  31 2.36  19 2.36
  43  0.681  0.145  0.307-   2 2.25  20 2.36  32 2.36
  44  0.129  0.645  0.029-   3 2.25  21 2.26  33 2.26
  45  0.164  0.645  0.214-   4 2.25  22 2.26  34 2.26  33 2.36  21 2.36
  46  0.198  0.645  0.400-  22 2.36  34 2.36
  47  0.302  0.145  0.060-   5 2.25  23 2.26  35 2.26
  48  0.336  0.145  0.245-   6 2.25  24 2.26  23 2.36  35 2.36
  49  0.819  0.645  0.153-   7 2.25  26 2.26  37 2.26  36 2.36  25 2.36
  50  0.854  0.645  0.338-   8 2.25  26 2.36  37 2.36
  51  0.794  0.314  0.029-  25 2.25  27 2.26   1 2.26
  52  0.829  0.314  0.215-  26 2.25  28 2.26   2 2.26  27 2.36   1 2.36
  53  0.312  0.814  0.122-  23 2.25   4 2.26  30 2.26   3 2.36  29 2.36
  54  0.346  0.814  0.307-  24 2.25   4 2.36  30 2.36
  55  0.484  0.314  0.153-  17 2.25   6 2.26  32 2.26  31 2.36   5 2.36
  56  0.519  0.314  0.338-  18 2.25   6 2.36  32 2.36
  57  0.001  0.814  0.246-  15 2.25  34 2.26   8 2.26  33 2.36   7 2.36
  58  0.967  0.814  0.060-  14 2.25   7 2.26  33 2.26
  59  0.139  0.314  0.091-  21 2.25  10 2.26  35 2.26   9 2.36
  60  0.174  0.314  0.276-  22 2.25  11 2.26  10 2.36  35 2.36
  61  0.657  0.814  0.184-  20 2.25  37 2.26  13 2.26  36 2.36  12 2.36
  62  0.691  0.814  0.369-  37 2.36  13 2.36
  63  0.312  0.477  0.122-  35 2.25   4 2.26  17 2.26   3 2.36  16 2.36
  64  0.346  0.477  0.307-  18 2.26   4 2.36  17 2.36
  65  0.794  0.977  0.029-  36 2.25  14 2.26   1 2.26
  66  0.829  0.977  0.215-  37 2.25  15 2.26   2 2.26  14 2.36   1 2.36
  67  0.001  0.477  0.246-  28 2.25  22 2.26   8 2.26  21 2.36   7 2.36
  68  0.967  0.477  0.060-  27 2.25   7 2.26  21 2.26
  69  0.484  0.977  0.153-  30 2.25   6 2.26  20 2.26  19 2.36   5 2.36
  70  0.519  0.977  0.338-   6 2.36  20 2.36
  71  0.657  0.477  0.184-  32 2.25  26 2.26  13 2.26  25 2.36  12 2.36
  72  0.691  0.477  0.369-  26 2.36  13 2.36
  73  0.139  0.977  0.091-  33 2.25  10 2.26  23 2.26   9 2.36
  74  0.174  0.977  0.276-  34 2.25  11 2.26  24 2.26  10 2.36  23 2.36

  LATTYP: Found a simple orthorhombic cell.
 ALAT       =     9.5784100000
 B/A-ratio  =     1.7387693453
 C/A-ratio  =     1.7627867312

  Lattice vectors:

 A1 = (   0.0000000000,   9.5784100000,   0.0000000000)
 A2 = (   0.0000000000,   0.0000000000, -16.6546456851)
 A3 = ( -16.8846940542,   0.0000000000,   0.0000000000)

Analysis of symmetry for initial positions (statically):
 Subroutine PRICEL returns:
 Original cell was already a primitive cell.

 Routine SETGRP: Setting up the symmetry group for a
 simple orthorhombic supercell.

 Subroutine GETGRP returns: Found  1 space group operations
 (whereof  1 operations were pure point group operations)
 out of a pool of  8 trial point group operations.

The static configuration has the point symmetry C_1 .

Analysis of symmetry for dynamics (positions and initial velocities):
 Subroutine PRICEL returns:
 Original cell was already a primitive cell.

 Routine SETGRP: Setting up the symmetry group for a
 simple orthorhombic supercell.

 Subroutine GETGRP returns: Found  1 space group operations
 (whereof  1 operations were pure point group operations)
 out of a pool of  8 trial point group operations.

The dynamic configuration has the point symmetry C_1 .

 Subroutine INISYM returns: Found  1 space group operations
 (whereof  1 operations are pure point group operations),
 and found     1 'primitive' translations

                                     Primitive cell

  volume of cell :    2693.5312

  direct lattice vectors                    reciprocal lattice vectors
    16.884694054  0.000000000  0.000000000     0.059225237  0.000000000  0.000000000
     0.000000000  9.578410000  0.000000000     0.000000000  0.104401461  0.000000000
     0.000000000  0.000000000 16.654645685     0.000000000  0.000000000  0.060043307

  length of vectors
    16.884694054  9.578410000 16.654645685     0.059225237  0.104401461  0.060043307

  position of ions in fractional coordinates (direct lattice)
     0.780046305  0.145296957  0.123470797
     0.814614262  0.145296957  0.308676992
     0.262762326  0.645296957  0.030867699
     0.297330284  0.645296957  0.216073894
     0.435190319  0.145296957  0.061735398
     0.469758276  0.145296957  0.246941594
     0.952474298  0.645296957  0.154338496
     0.987042255  0.645296957  0.339544691
     0.090334334  0.145296957  0.000000000
     0.124902291  0.145296957  0.185206195
     0.159470248  0.145296957  0.370412390
     0.607618312  0.645296957  0.092603098
     0.642186269  0.645296957  0.277809293
     0.907582774  0.013193957  0.099004503
     0.942150731  0.013193957  0.284210698
     0.390298796  0.513193957  0.006401405
     0.424866753  0.513193957  0.191607600
     0.459434710  0.513193957  0.376813796
     0.562726788  0.013193957  0.037269104
     0.597294746  0.013193957  0.222475300
     0.080010767  0.513193957  0.129872202
     0.114578724  0.513193957  0.315078397
     0.252438760  0.013193957  0.160739901
     0.287006717  0.013193957  0.345946096
     0.735154781  0.513193957  0.068136804
     0.769722738  0.513193957  0.253342999
     0.907582774  0.277399957  0.099004503
     0.942150731  0.277399957  0.284210698
     0.390298796  0.777399957  0.006401405
     0.424866753  0.777399957  0.191607600
     0.562726788  0.277399957  0.037269104
     0.597294746  0.277399957  0.222475300
     0.080010767  0.777399957  0.129872202
     0.114578724  0.777399957  0.315078397
     0.252438760  0.277399957  0.160739901
     0.735154781  0.777399957  0.068136804
     0.769722738  0.777399957  0.253342999
     0.026029161  0.145296957  0.368699233
     0.991461204  0.145296957  0.183493038
     0.474177225  0.645296957  0.090889940
     0.508745182  0.645296957  0.276096136
     0.646605218  0.145296957  0.121757639
[...]
     0.000000000  9.578410000  0.000000000     0.000000000  0.104401461  0.000000000
     0.000000000  0.000000000 16.654645685     0.000000000  0.000000000  0.060043307

  length of vectors
    16.884694054  9.578410000 16.654645685     0.059225237  0.104401461  0.060043307

 FORCES acting on ions
    electron-ion (+dipol)            ewald-force                    non-local-force                 convergence-correction
   0.461E+03 0.302E+01 0.138E+04   -.463E+03 -.301E+01 -.139E+04   0.143E+01 -.197E-02 0.431E+01   0.449E-01 0.224E-02 0.205E-01
   0.563E+03 0.513E+01 -.293E+04   -.564E+03 -.505E+01 0.292E+04   0.305E+00 -.543E-01 0.683E+01   0.253E-01 -.567E-02 -.110E-01
   0.682E+03 0.907E+01 0.297E+04   -.684E+03 -.878E+01 -.296E+04   0.202E+01 -.252E+00 -.144E+01   -.456E-01 -.167E-02 0.375E-02
   0.362E+03 0.547E+02 -.102E+04   -.362E+03 -.543E+02 0.102E+04   0.752E+00 -.140E+00 -.314E+01   -.200E-01 0.129E-02 0.245E-01
   0.532E+03 -.764E+00 0.253E+04   -.534E+03 0.701E+00 -.253E+04   0.236E+01 0.546E-01 -.104E+01   -.915E-02 0.192E-01 0.524E-02
   0.439E+03 0.348E+02 -.177E+04   -.441E+03 -.360E+02 0.177E+04   0.140E+01 0.112E+01 -.423E+01   0.711E-02 0.624E-04 0.214E-01
   0.566E+03 0.448E+01 0.940E+03   -.568E+03 -.447E+01 -.943E+03   0.163E+01 0.423E-03 0.373E+01   0.180E-02 -.471E-03 0.309E-02
   0.589E+03 0.136E+02 -.321E+04   -.590E+03 -.136E+02 0.320E+04   0.124E+00 -.523E-01 0.720E+01   -.256E-02 0.920E-02 -.131E-01
   0.136E+03 -.413E+01 0.339E+04   -.128E+03 0.453E+01 -.337E+04   -.720E+01 -.359E+00 -.127E+02   -.192E-01 0.122E-02 0.382E-02
   0.399E+03 -.463E+02 0.941E+02   -.401E+03 0.473E+02 -.951E+02   0.167E+01 -.815E+00 0.104E+01   -.342E-01 -.511E-02 -.370E-02
   -.531E+01 -.248E+03 -.337E+04   0.295E+01 0.248E+03 0.336E+04   0.154E+01 -.111E+00 0.878E+01   -.171E-01 -.848E-02 -.621E-03
   0.322E+03 -.106E+02 0.211E+04   -.319E+03 0.106E+02 -.211E+04   -.264E+01 0.649E-01 -.794E+00   0.162E-01 -.318E-02 0.107E-01
   0.492E+03 -.637E+02 -.224E+04   -.493E+03 0.636E+02 0.224E+04   0.878E+00 0.308E-01 -.459E+01   0.213E-01 0.209E-01 0.123E-01
   -.257E+03 0.376E+03 0.220E+04   0.257E+03 -.380E+03 -.221E+04   0.752E-01 0.307E+01 0.218E+01   0.718E-02 0.233E-01 0.180E-01
   -.201E+02 0.433E+03 -.220E+04   0.220E+02 -.431E+03 0.220E+04   -.129E+01 -.219E+01 -.389E+00   -.131E-01 0.219E-01 -.511E-02
   -.206E+03 0.625E+03 0.331E+04   0.202E+03 -.615E+03 -.330E+04   0.419E+01 -.961E+01 -.633E+01   -.966E-02 -.137E-01 0.224E-03
   -.252E+03 0.452E+03 -.348E+03   0.252E+03 -.453E+03 0.350E+03   -.172E+00 0.141E+01 -.180E+01   -.466E-02 -.358E-02 0.214E-01
   -.304E+02 -.464E+02 -.339E+04   0.278E+02 0.435E+02 0.338E+04   0.245E+01 0.221E+01 0.132E+02   -.683E-02 -.674E-03 0.193E-02
   -.368E+03 0.511E+03 0.306E+04   0.363E+03 -.502E+03 -.305E+04   0.514E+01 -.894E+01 -.600E+01   0.163E-01 0.172E-01 0.117E-01
   -.271E+03 0.422E+03 -.113E+04   0.271E+03 -.423E+03 0.113E+04   -.137E-01 0.141E+01 -.349E+01   0.287E-01 -.219E-02 0.328E-01
   -.140E+03 0.445E+03 0.153E+04   0.140E+03 -.447E+03 -.154E+04   0.227E+00 0.157E+01 0.456E+01   -.203E-01 -.737E-02 -.260E-03
   -.313E+03 0.527E+03 -.262E+04   0.316E+03 -.524E+03 0.262E+04   -.229E+01 -.202E+01 -.155E+01   0.280E-02 0.106E-01 0.421E-02
   -.249E+03 0.314E+03 0.729E+03   0.251E+03 -.314E+03 -.732E+03   -.156E+01 0.128E-01 0.278E+01   -.303E-01 -.538E-02 0.957E-02
   -.594E+03 0.373E+02 -.311E+04   0.592E+03 -.371E+02 0.310E+04   0.173E+01 -.647E+00 0.893E+01   -.242E-01 -.517E-02 0.855E-02
   -.256E+03 0.311E+03 0.274E+04   0.257E+03 -.313E+03 -.274E+04   -.632E+00 0.119E+01 -.187E+01   0.184E-01 -.562E-02 0.131E-01
   -.227E+03 0.447E+03 -.159E+04   0.227E+03 -.448E+03 0.160E+04   0.889E-01 0.107E+01 -.361E+01   0.320E-01 -.700E-02 0.497E-02
   -.262E+03 -.378E+03 0.220E+04   0.262E+03 0.382E+03 -.220E+04   0.105E+00 -.309E+01 0.223E+01   0.911E-02 -.166E-01 0.161E-01
   -.370E+02 -.443E+03 -.220E+04   0.389E+02 0.440E+03 0.220E+04   -.123E+01 0.219E+01 -.437E+00   -.160E-01 -.263E-01 -.994E-02
   -.212E+03 -.622E+03 0.331E+04   0.208E+03 0.612E+03 -.331E+04   0.405E+01 0.953E+01 -.640E+01   -.168E-01 0.297E-02 0.197E-03
   -.342E+03 -.469E+03 -.472E+03   0.342E+03 0.471E+03 0.474E+03   0.105E-01 -.174E+01 -.177E+01   -.629E-02 -.149E-02 0.278E-01
   -.367E+03 -.504E+03 0.306E+04   0.362E+03 0.495E+03 -.306E+04   0.509E+01 0.898E+01 -.608E+01   0.144E-01 0.199E-01 0.218E-02
   -.306E+03 -.355E+03 -.108E+04   0.307E+03 0.356E+03 0.108E+04   -.928E+00 -.115E+01 -.212E+01   0.192E-01 -.548E-02 0.120E-01
   -.124E+03 -.424E+03 0.155E+04   0.124E+03 0.425E+03 -.156E+04   0.237E+00 -.150E+01 0.460E+01   -.167E-01 0.952E-02 0.696E-02
   -.218E+03 -.418E+03 -.260E+04   0.221E+03 0.414E+03 0.261E+04   -.210E+01 0.285E+01 -.166E+01   0.286E-02 0.775E-02 0.704E-02
   -.265E+03 -.389E+03 0.565E+03   0.266E+03 0.389E+03 -.567E+03   -.105E+01 -.385E+00 0.157E+01   -.265E-01 0.541E-03 0.567E-02
   -.252E+03 -.315E+03 0.274E+04   0.253E+03 0.317E+03 -.273E+04   -.566E+00 -.123E+01 -.188E+01   0.228E-01 0.918E-02 0.163E-01
   -.209E+03 -.459E+03 -.160E+04   0.209E+03 0.461E+03 0.160E+04   0.642E-01 -.111E+01 -.361E+01   0.173E-01 0.180E-01 0.202E-01
   0.615E+02 -.105E+02 -.132E+04   -.619E+02 0.106E+02 0.133E+04   -.627E+00 -.542E-01 -.373E+01   -.587E-02 -.187E-02 -.814E-02
   -.126E+03 -.371E+01 0.162E+03   0.129E+03 0.370E+01 -.162E+03   -.295E+01 -.148E-01 -.190E+00   -.114E-01 0.108E-02 0.150E-02
   -.227E+03 -.384E+01 0.767E+03   0.230E+03 0.381E+01 -.767E+03   -.259E+01 0.151E+00 -.216E+01   0.986E-02 -.344E-02 0.109E-01
   -.804E+02 -.127E+03 -.805E+03   0.807E+02 0.129E+03 0.807E+03   -.672E+00 -.183E+01 -.119E+01   0.192E-02 0.362E-02 0.113E-02
   -.190E+03 0.376E+01 0.576E+03   0.192E+03 -.377E+01 -.576E+03   -.243E+01 0.280E-01 -.622E+00   0.164E-01 0.600E-02 0.945E-02
   0.989E+01 0.116E+02 -.113E+04   -.103E+02 -.115E+02 0.113E+04   0.565E+00 -.120E+00 -.454E+01   0.162E-01 -.551E-02 0.128E-02
   0.943E+02 0.268E+01 0.135E+04   -.955E+02 -.266E+01 -.136E+04   0.247E+01 -.302E-01 0.521E+01   -.793E-02 0.111E-03 0.319E-02
   -.173E+03 0.202E+02 -.122E+03   0.176E+03 -.202E+02 0.120E+03   -.263E+01 0.154E-01 0.217E+01   -.679E-02 0.441E-02 0.530E-02
   -.243E+03 0.378E+02 -.137E+04   0.245E+03 -.378E+02 0.137E+04   -.472E+01 0.112E-02 -.361E+01   -.329E-02 0.428E-02 0.224E-03
   0.522E+02 -.567E+01 0.117E+04   -.535E+02 0.566E+01 -.118E+04   0.263E+01 0.647E-01 0.467E+01   -.113E-01 0.732E-05 -.140E-03
   -.126E+03 -.117E+03 -.560E+03   0.126E+03 0.118E+03 0.562E+03   -.856E+00 -.174E+01 -.101E+01   -.537E-02 -.146E-02 0.699E-02
   -.168E+03 -.740E+00 0.414E+03   0.169E+03 0.778E+00 -.415E+03   -.222E+01 -.440E-01 -.151E+00   0.939E-02 0.200E-02 0.625E-02
   0.420E+02 -.774E+00 -.124E+04   -.418E+02 0.718E+00 0.124E+04   -.166E+00 0.529E-01 -.412E+01   -.176E-02 0.284E-02 -.343E-02
   0.240E+02 -.399E+02 0.134E+04   -.247E+02 0.399E+02 -.135E+04   0.765E+00 0.559E+00 0.502E+01   0.143E-01 -.874E-02 0.941E-02
   0.112E+03 -.144E+03 -.218E+03   -.113E+03 0.145E+03 0.218E+03   0.151E+01 -.161E+01 0.569E+00   0.108E-01 -.128E-01 0.368E-02
   0.115E+03 -.192E+03 0.515E+03   -.116E+03 0.193E+03 -.515E+03   0.119E+01 -.174E+01 -.128E+01   -.118E-01 0.130E-02 0.104E-01
   -.121E+03 0.250E+00 -.108E+04   0.122E+03 -.105E+01 0.109E+04   -.998E+00 0.777E+00 -.362E+01   -.735E-02 -.290E-03 0.483E-02
   0.824E+02 -.129E+03 0.242E+03   -.837E+02 0.130E+03 -.241E+03   0.130E+01 -.204E+01 -.182E+01   0.414E-02 0.171E-02 0.336E-02
   -.488E+02 0.670E+02 -.124E+04   0.501E+02 -.676E+02 0.124E+04   -.151E+01 0.587E+00 -.383E+01   0.357E-02 -.529E-02 0.103E-02
   0.134E+03 -.148E+03 -.401E+03   -.136E+03 0.150E+03 0.401E+03   0.136E+01 -.227E+01 0.891E+00   -.107E-02 0.814E-02 -.725E-03
   0.841E+02 -.484E+00 0.124E+04   -.852E+02 -.245E+00 -.124E+04   0.103E+01 0.130E+01 0.549E+01   0.907E-03 0.500E-02 0.630E-02
   0.185E+02 -.105E+03 0.935E+03   -.182E+02 0.107E+03 -.937E+03   -.997E+00 -.194E+01 0.144E+01   -.151E-01 -.621E-02 -.677E-02
   -.124E+03 -.124E+03 -.723E+03   0.124E+03 0.125E+03 0.724E+03   -.850E+00 -.183E+01 -.646E+00   -.716E-02 -.230E-02 0.449E-02
   0.891E+02 -.152E+03 0.235E+02   -.905E+02 0.154E+03 -.228E+02   0.153E+01 -.238E+01 -.135E+01   0.941E-02 0.144E-02 0.714E-02
   0.610E+02 -.163E+03 -.138E+04   -.615E+02 0.165E+03 0.139E+04   0.748E+00 -.319E+01 -.468E+01   0.628E-02 0.619E-02 0.952E-03
   0.126E+03 0.206E+03 0.497E+03   -.128E+03 -.207E+03 -.497E+03   0.143E+01 0.179E+01 -.994E+00   -.897E-02 -.462E-03 0.826E-02
   0.146E+03 0.174E+03 -.104E+04   -.149E+03 -.178E+03 0.105E+04   0.383E+01 0.425E+01 -.143E+01   -.851E-02 0.166E-02 0.185E-02
   0.250E+02 0.402E+02 0.134E+04   -.257E+02 -.403E+02 -.135E+04   0.707E+00 -.557E+00 0.501E+01   0.114E-01 0.527E-02 0.970E-02
   0.116E+03 0.145E+03 -.218E+03   -.117E+03 -.146E+03 0.219E+03   0.147E+01 0.148E+01 0.504E+00   0.728E-02 0.112E-01 0.735E-02
   0.124E+03 0.154E+03 -.404E+03   -.125E+03 -.156E+03 0.404E+03   0.130E+01 0.232E+01 0.984E+00   -.656E-02 -.772E-02 -.470E-02
   0.822E+02 0.157E+01 0.124E+04   -.833E+02 -.805E+00 -.124E+04   0.108E+01 -.135E+01 0.545E+01   -.494E-03 -.826E-02 0.649E-02
   0.713E+02 0.141E+03 0.224E+03   -.726E+02 -.143E+03 -.223E+03   0.137E+01 0.225E+01 -.145E+01   -.825E-03 -.926E-03 0.148E-01
   0.124E+02 0.118E+03 -.130E+04   -.131E+02 -.120E+03 0.130E+04   0.932E+00 0.310E+01 -.448E+01   0.628E-02 -.737E-03 0.442E-02
   0.777E+02 0.146E+03 0.363E+02   -.790E+02 -.148E+03 -.355E+02   0.137E+01 0.229E+01 -.142E+01   0.533E-02 -.154E-02 0.231E-02
   0.266E+02 0.152E+03 -.138E+04   -.271E+02 -.154E+03 0.138E+04   0.842E+00 0.332E+01 -.460E+01   0.779E-02 0.268E-03 -.102E-04
   0.245E+02 0.100E+03 0.947E+03   -.243E+02 -.102E+03 -.949E+03   -.838E+00 0.197E+01 0.175E+01   -.135E-01 0.563E-02 -.464E-02
   0.337E+02 0.108E+03 -.625E+03   -.348E+02 -.110E+03 0.625E+03   0.142E+01 0.234E+01 0.140E+01   -.882E-02 -.374E-02 0.624E-02
   -.218E+02 -.743E+01 0.170E+02   -.104E-11 0.639E-12 0.398E-11   0.217E+02 0.727E+01 -.174E+02   -.341E-01 0.704E-01 0.433E+00

 POSITION                                       TOTAL-FORCE (eV/Angst)
     13.17084      1.39171      2.05636         0.384697      0.004598     -0.375944
     13.75451      1.39171      5.14091        -1.013101      0.019663     -1.519923
      4.43666      6.18092      0.51409        -0.308571      0.043275      1.139142
      5.02033      6.18092      3.59863         0.301252      0.224716      0.329254
      7.34806      1.39171      1.02818        -0.330948      0.012579      0.841564
      7.93172      1.39171      4.11272        -0.119226     -0.109337      0.370449
     16.08224      6.18092      2.57045        -0.098358      0.011873     -0.047084
     16.66591      6.18092      5.65500        -1.138699      0.012594     -1.514279
      1.52527      1.39171      0.00000         0.786994      0.044786      2.213577
      2.10894      1.39171      3.08454        -0.113046      0.179117      0.076020
      2.69261      1.39171      6.16909        -0.829350      0.074833     -1.812068
     10.25945      6.18092      1.54227         0.096555      0.003254      0.845578
     10.84312      6.18092      4.62682        -0.038309     -0.006895      0.619597
     15.32426      0.12638      1.64888        -0.097435     -0.715057      0.325334
     15.90793      0.12638      4.73343         0.608724      0.471435     -0.477804
      6.59008      4.91558      0.10661        -0.008555      0.639522      1.704546
      7.17375      4.91558      3.19116        -0.069624     -0.112147      0.154866
      7.75741      4.91558      6.27570        -0.183108     -0.718231     -2.417233
      9.50147      0.12638      0.62070        -0.259704      0.506149      1.640193
     10.08514      0.12638      3.70525         0.003689      0.131839      0.370043
      1.35096      4.91558      2.16298         0.068360     -0.219219     -0.334166
      1.93463      4.91558      5.24752         0.978314      0.575843     -0.157354
      4.26235      0.12638      2.67707         0.418663      0.131986     -0.267539
      4.84602      0.12638      5.76161         0.000631     -0.372039     -2.053401
     12.41286      4.91558      1.13479         0.243284     -0.385696      0.907908
     12.99653      4.91558      4.21934         0.254066     -0.084598      0.368214
     15.32426      2.65705      1.64888        -0.132556      0.698023      0.316133
     15.90793      2.65705      4.73343         0.589289     -0.441415     -0.462085
      6.59008      7.44626      0.10661         0.010748     -0.656993      1.719451
      7.17375      7.44626      3.19116        -0.192827      0.204541      0.272265
      9.50147      2.65705      0.62070        -0.264722     -0.522426      1.631957
     10.08514      2.65705      3.70525         0.105787     -0.048404      0.152223
      1.35096      7.44626      2.16298         0.048097      0.189792     -0.329834
      1.93463      7.44626      5.24752         0.895611     -0.688830     -0.120468
      4.26235      2.65705      2.67707         0.284752     -0.072689     -0.102519
     12.41286      7.44626      1.13479         0.234683      0.373550      0.916437
     12.99653      7.44626      4.21934         0.208095      0.077983      0.383469
      0.43949      1.39171      6.14056        -1.065765      0.005282     -0.032657
     16.74052      1.39171      3.05601        -0.363302     -0.024432     -1.004705
      8.00634      6.18092      1.51374         0.353955      0.116655     -1.568871
      8.59001      6.18092      4.59828        -0.384501     -0.325620      0.918639
     10.91773      1.39171      2.02783        -0.491131      0.027823     -0.908379
     11.50140      1.39171      5.11237         0.127639     -0.035427      0.370944
      2.18355      6.18092      0.48556         1.263404     -0.005000      0.242083
      2.76722      6.18092      3.57010        -0.121853      0.001466      0.064775
      3.35089      6.18092      6.65465        -1.974291      0.013449     -1.350456
      5.09494      1.39171      0.99965         1.277870      0.052481     -0.074474
      5.67861      1.39171      4.08419        -0.280622     -0.356647      0.957169
     13.82913      6.18092      2.54192        -0.581812     -0.002066     -0.737448
     14.41279      6.18092      5.62646         0.003478      0.000626      0.100951
     13.41477      3.00295      0.49033         0.037438      0.616801      0.360068
     13.99844      3.00295      3.57488         0.183054     -0.451108      1.196305
      5.26426      7.79215      2.03261        -0.010636     -0.212003     -1.075226
      5.84793      7.79215      5.11715        -0.012282     -0.021438      0.182641
      8.17565      3.00295      2.54670         0.071048     -0.273365     -0.957058
      8.75932      3.00295      5.63124        -0.211213     -0.014766      0.092157
      0.02514      7.79215      4.08897        -0.009049     -0.214175      1.002784
     16.32617      7.79215      1.00443        -0.031161      0.576804      0.411736
      2.35287      3.00295      1.51852        -0.665601     -0.579375     -0.628037
      2.93654      3.00295      4.60306        -0.040589     -0.562165      0.715425
     11.08705      7.79215      3.06079         0.077226     -0.453879     -0.657928
     11.67072      7.79215      6.14533         0.212311     -0.904786     -1.335298
      5.26426      4.56969      2.03261        -0.046158      0.153529     -0.865525
      5.84793      4.56969      5.11715         0.838243      0.523058     -0.128826
     13.41477      9.35889      0.49033        -0.000645     -0.627406      0.372883
     13.99844      9.35889      3.57488         0.176863      0.426083      1.222447
      0.02514      4.56969      4.08897         0.029283      0.224941      1.008858
     16.32617      4.56969      1.00443        -0.011826     -0.588189      0.378696
      8.17565      9.35889      2.54670         0.045843      0.262326     -0.817822
      8.75932      9.35889      5.63124         0.250332      0.813943     -1.350155
     11.08705      4.56969      3.06079         0.061516      0.462872     -0.629196
     11.67072      4.56969      6.14533         0.272837      0.932710     -1.307571
      2.35287      9.35889      1.51852        -0.639477      0.582561     -0.445694
      2.93654      9.35889      4.60306         0.335420      0.380464      0.970247
    total drift:                               -0.142287     -0.096142     -0.019081

  FREE ENERGIE OF THE ION-ELECTRON SYSTEM (eV)
  free  energy   TOTEN  =      -351.71280281 eV

  energy  without entropy=     -350.28438654  energy(sigma->0) =     -350.99859467