 vasp.5.4.4.18Apr17-6-g9f103f2a35 (build Aug 13 2019 17:33:20) gamma-only

 executed on             LinuxIFC date 2020.05.12  05:43:41

 INCAR:
 POTCAR:    PAW_PBE Ni_pv 06Sep2000
 POTCAR:    PAW_PBE S 06Sep2000
 POTCAR:    PAW_PBE Ni_pv 06Sep2000
   VRHFIN =Ni:

   TITEL  = PAW_PBE Ni_pv 06Sep2000
   POMASS =   58.690; ZVAL   =   16.000    mass and valenz
   ENMAX  =  367.986; ENMIN  =  275.989 eV

 POTCAR:    PAW_PBE S 06Sep2000
   VRHFIN =S : s2p4

   TITEL  = PAW_PBE S 06Sep2000
   POMASS =   32.066; ZVAL   =    6.000    mass and valenz
   ENMAX  =  258.689; ENMIN  =  194.016 eV

 Optimization of the real space projectors (new method)

 maximal supplied QI-value         = 18.90
 optimisation between [QCUT,QGAM] = [ 10.77, 21.73] = [ 32.49,132.25] Ry
 Optimized for a Real-space Cutoff    1.38 Angstroem

   l    n(q)    QCUT    max X(q) W(low)/X(q) W(high)/X(q)  e(spline)
   1      8    10.771     2.836    0.40E-04    0.29E-04    0.12E-06
   1      8    10.771     4.023    0.10E-03    0.48E-04    0.29E-06
   2      8    10.771    73.368    0.42E-03    0.97E-04    0.44E-06
   2      8    10.771    69.010    0.42E-03    0.99E-04    0.45E-06
   0      9    10.771    54.797    0.10E-03    0.56E-04    0.74E-07
   0      9    10.771    24.266    0.89E-04    0.49E-04    0.67E-07
 Optimization of the real space projectors (new method)

 maximal supplied QI-value         = 19.84
 optimisation between [QCUT,QGAM] = [ 10.71, 21.63] = [ 32.15,130.99] Ry
 Optimized for a Real-space Cutoff    1.19 Angstroem

   l    n(q)    QCUT    max X(q) W(low)/X(q) W(high)/X(q)  e(spline)
   0      8    10.715   187.594    0.41E-03    0.53E-04    0.66E-07
   0      8    10.715   164.243    0.41E-03    0.53E-04    0.65E-07
   1      7    10.715    67.533    0.19E-03    0.59E-03    0.68E-07
   1      7    10.715    50.729    0.19E-03    0.58E-03    0.67E-07
  PAW_PBE Ni_pv 06Sep2000               :
  PAW_PBE S 06Sep2000                   :

 POSCAR: Type_038 Type_138
  positions in cartesian coordinates
 exchange correlation table for  LEXCH =        8
   RHO(1)=    0.500       N(1)  =     2000
   RHO(2)=  100.500       N(2)  =     4000

 ion  position               nearest neighbor table
   1  0.780  0.145  0.128-  66 2.07  51 2.07  43 2.25  52 2.36  67 2.36
   2  0.798  0.145  0.289-  67 2.03  52 2.03  44 2.07
   3  0.218  0.655  0.102-  45 2.04  46 2.14  64 2.22  53 2.23   4 2.38  28 2.53
   4  0.297  0.645  0.222-  64 2.14  54 2.14  65 2.14  46 2.25  53 2.26   3 2.38  29 2.53  16 2.53

   5  0.397  0.145  0.135-  47 2.02  48 2.16  70 2.22  55 2.22   6 2.30
   6  0.470  0.145  0.254-  56 2.08  71 2.09  48 2.25  55 2.26  70 2.26   5 2.30  32 2.53  19 2.53

   7  0.952  0.645  0.159-  69 2.08  58 2.08  49 2.25  57 2.36  68 2.36  33 2.53  20 2.53
   8  0.969  0.645  0.320-  68 2.03  57 2.03  50 2.06
   9  0.177  0.145  0.050-  47 2.02  59 2.05  75 2.05  10 2.45
  10  0.125  0.145  0.191-  59 2.14  75 2.15  40 2.25  60 2.36  76 2.36  11 2.43   9 2.45  35 2.53
                            22 2.53
  11  0.118  0.145  0.340-  39 2.04  76 2.07  60 2.07  10 2.43
  12  0.608  0.645  0.096-  61 2.07  72 2.07  41 2.12  62 2.36  73 2.36
  13  0.642  0.645  0.285-  63 2.02  74 2.02  42 2.25  62 2.26  73 2.26  38 2.53  25 2.53
  14  0.909  0.006  0.124-  67 2.09  66 2.09  58 2.10  40 2.20
  15  0.942  0.013  0.277-  39 2.07  40 2.08  67 2.14  57 2.19  27 2.54
  16  0.425  0.513  0.197-  41 2.14  65 2.15  55 2.25  42 2.36  64 2.37  17 2.46  28 2.50  29 2.53
                             4 2.53
  17  0.461  0.475  0.342-  56 2.02  65 2.04  42 2.05  16 2.46
  18  0.602  0.933  0.094-  61 2.01  62 2.14  43 2.23  70 2.28  19 2.33
  19  0.597  0.013  0.229-  71 2.08  44 2.10  62 2.25  70 2.26  43 2.26  18 2.33   6 2.53  32 2.53

[...]

  33  0.080  0.777  0.134-  45 2.06  58 2.09  75 2.13  46 2.36  57 2.36   7 2.53  20 2.53
  34  0.112  0.787  0.298-  57 2.03  46 2.05  76 2.11
  35  0.252  0.277  0.166-  47 2.14  59 2.14  64 2.20  48 2.36  60 2.36  10 2.53  22 2.53
  36  0.289  0.303  0.320-  48 2.04  60 2.04  65 2.06
  37  0.743  0.795  0.099-  61 2.07  62 2.08  66 2.10  49 2.15
  38  0.770  0.777  0.260-  63 2.02  50 2.10  67 2.25  62 2.26  49 2.26  13 2.53  25 2.53
  39  0.999  0.145  0.358-  11 2.04  15 2.07  27 2.07  40 2.76
  40  0.991  0.145  0.189-  15 2.08  27 2.08  14 2.20  26 2.20  10 2.25  39 2.76
  41  0.483  0.645  0.110-  28 2.06  12 2.12  16 2.14  29 2.14
  42  0.509  0.645  0.284-  17 2.05  30 2.05  13 2.25  29 2.36  16 2.36
  43  0.647  0.145  0.126-  18 2.23  31 2.23   1 2.25  32 2.26  19 2.26  44 2.76
  44  0.676  0.145  0.292-   2 2.07  19 2.10  32 2.10  43 2.76
  45  0.113  0.645  0.041-   3 2.04  20 2.06  33 2.06
  46  0.164  0.645  0.220-  34 2.05  21 2.05   3 2.14   4 2.25  33 2.36  20 2.36
  47  0.295  0.145  0.070-   9 2.02   5 2.02  35 2.14  22 2.14
  48  0.336  0.145  0.252-  23 2.04  36 2.04   5 2.16   6 2.25  35 2.36  22 2.36
  49  0.819  0.645  0.157-  37 2.15  24 2.15   7 2.25  38 2.26  25 2.26  50 2.76
  50  0.847  0.645  0.324-   8 2.06  25 2.10  38 2.10  49 2.76
  51  0.805  0.319  0.057-   1 2.07  26 2.09  24 2.10  52 2.70
  52  0.829  0.314  0.221-   2 2.03  26 2.09  27 2.14  25 2.25   1 2.36  51 2.70
  53  0.312  0.814  0.126-  28 2.05   3 2.23  22 2.25   4 2.26  29 2.26
  54  0.346  0.804  0.300-  30 2.04  23 2.06   4 2.14  29 2.15
  55  0.484  0.314  0.158-   5 2.22  16 2.25   6 2.26  32 2.26  31 2.28
  56  0.522  0.295  0.329-  17 2.02  32 2.08   6 2.08
  57  0.001  0.814  0.252-  34 2.03   8 2.03  15 2.19   7 2.36  33 2.36  58 2.74
  58  0.967  0.824  0.088-   7 2.08  33 2.09  14 2.10  57 2.74
  59  0.140  0.320  0.111-   9 2.05  10 2.14  20 2.14  35 2.14
  60  0.174  0.314  0.284-  36 2.04  11 2.07  21 2.11  10 2.36  35 2.36
  61  0.650  0.795  0.016-  18 2.01  37 2.07  12 2.07
  62  0.657  0.814  0.189-  37 2.08  18 2.14  19 2.25  38 2.26  13 2.26  12 2.36
  63  0.695  0.790  0.357-  38 2.02  13 2.02  74 2.77
  64  0.301  0.483  0.132-  28 2.06   4 2.14  35 2.20   3 2.22  16 2.37
  65  0.347  0.489  0.301-  17 2.04  36 2.06   4 2.14  16 2.15
  66  0.805  0.971  0.057-   1 2.07  14 2.09  37 2.10  67 2.70
  67  0.829  0.977  0.221-   2 2.03  14 2.09  15 2.14  38 2.25   1 2.36  66 2.70
  68  0.001  0.477  0.252-  21 2.03   8 2.03  27 2.19   7 2.36  20 2.36  69 2.74
  69  0.967  0.467  0.088-   7 2.08  20 2.09  26 2.10  68 2.74
  70  0.484  0.977  0.158-   5 2.22  29 2.25  19 2.26   6 2.26  18 2.28
  71  0.521  0.993  0.328-  30 2.02  19 2.08   6 2.09
  72  0.650  0.496  0.016-  31 2.01  24 2.07  12 2.07
  73  0.657  0.477  0.189-  24 2.08  31 2.14  32 2.25  25 2.26  13 2.26  12 2.36
  74  0.695  0.500  0.357-  25 2.02  13 2.02  63 2.77
  75  0.140  0.969  0.111-   9 2.05  22 2.13  33 2.13  10 2.15
  76  0.174  0.977  0.284-  23 2.04  11 2.07  34 2.11  10 2.36  22 2.36

  LATTYP: Found a simple orthorhombic cell.
 ALAT       =     9.5784100000
 B/A-ratio  =     1.7016870630
 C/A-ratio  =     1.7627867312

  Lattice vectors:

 A1 = (   0.0000000000,   9.5784100000,   0.0000000000)
 A2 = (   0.0000000000,   0.0000000000, -16.2994563815)
 A3 = ( -16.8846940542,   0.0000000000,   0.0000000000)

Analysis of symmetry for initial positions (statically):
 Subroutine PRICEL returns:
 Original cell was already a primitive cell.

 Routine SETGRP: Setting up the symmetry group for a
 simple orthorhombic supercell.

 Subroutine GETGRP returns: Found  1 space group operations
 (whereof  1 operations were pure point group operations)
 out of a pool of  8 trial point group operations.

The static configuration has the point symmetry C_1 .

Analysis of symmetry for dynamics (positions and initial velocities):
 Subroutine PRICEL returns:
 Original cell was already a primitive cell.

 Routine SETGRP: Setting up the symmetry group for a
 simple orthorhombic supercell.

 Subroutine GETGRP returns: Found  1 space group operations
 (whereof  1 operations were pure point group operations)
 out of a pool of  8 trial point group operations.

The dynamic configuration has the point symmetry C_1 .

 Subroutine INISYM returns: Found  1 space group operations
 (whereof  1 operations are pure point group operations),
 and found     1 'primitive' translations

 KPOINTS: gamma-point-only calculation. no periodi

Automatic generation of k-mesh.
Space group operators:
 irot       det(A)        alpha          n_x          n_y          n_z        tau_x        tau_y        tau_z
    1     1.000000     0.000000     1.000000     0.000000     0.000000     0.000000     0.000000     0.000000

 Subroutine IBZKPT returns following result:

 Found      1 irreducible k-points:

 Following reciprocal coordinates:
            Coordinates               Weight
  0.000000  0.000000  0.000000      1.000000

 Following cartesian coordinates:
            Coordinates               Weight
  0.000000  0.000000  0.000000      1.000000

 SYSTEM =  "Millerite NiS"
 POSCAR =  Type_038 Type_138

 Startparameter for this run:
   NWRITE =      2    write-flag & timer
   PREC   = normal    normal or accurate (medium, high low for compatibility)
   ISTART =      0    job   : 0-new  1-cont  2-samecut
   ICHARG =      2    charge: 1-file 2-atom 10-const
   ISPIN  =      1    spin polarized calculation?
   LNONCOLLINEAR =      F non collinear calculations
   LSORBIT =      F    spin-orbit coupling
   INIWAV =      1    electr: 0-lowe 1-rand  2-diag
   LASPH  =      F    aspherical Exc in radial PAW
   METAGGA=      F    non-selfconsistent MetaGGA calc.

 Electronic Relaxation 1
   ENCUT  =  450.0 eV  33.07 Ry    5.75 a.u.  29.20 16.57 28.19*2*pi/ulx,y,z
   ENINI  =  450.0     initial cutoff
   ENAUG  =  703.4 eV  augmentation charge cutoff
   NELM   =    100;   NELMIN=  2; NELMDL= -5     # of ELM steps
   EDIFF  = 0.1E-03   stopping-criterion for ELM
   LREAL  =      T    real-space projection
   NLSPLINE    = F    spline interpolate recip. space projectors
   LCOMPAT=      F    compatible to vasp.4.4
   GGA_COMPAT  = T    GGA compatible to vasp.4.4-vasp.4.6
   LMAXPAW     = -100 max onsite density
   LMAXMIX     =    2 max onsite mixed and CHGCAR
   VOSKOWN=      0    Vosko Wilk Nusair interpolation
   ROPT   =   -0.00050  -0.00050
 Ionic relaxation
   EDIFFG = 0.1E-02   stopping-criterion for IOM
   NSW    =      0    number of steps for IOM
   NBLOCK =      1;   KBLOCK =      1    inner block; outer block
   IBRION =     -1    ionic relax: 0-MD 1-quasi-New 2-CG
   NFREE  =      0    steps in history (QN), initial steepest desc. (CG)
   ISIF   =      2    stress and relaxation
   IWAVPR =     10    prediction:  0-non 1-charg 2-wave 3-comb
   ISYM   =      2    0-nonsym 1-usesym 2-fastsym
   LCORR  =      T    Harris-Foulkes like correction to forces

   POTIM  = 0.5000    time-step for ionic-motion
   TEIN   =    0.0    initial temperature
   TEBEG  =    0.0;   TEEND  =   0.0 temperature during run
   SMASS  =  -3.00    Nose mass-parameter (am)
   estimated Nose-frequenzy (Omega)   =  0.10E-29 period in steps =****** mass=  -0.652E-26a.u.
   SCALEE = 1.0000    scale energy and forces
   NPACO  =    256;   APACO  = 16.0  distance and # of slots for P.C.
   PSTRESS=    0.0 pullay stress

  Mass of Ions in am
   POMASS =  58.69 32.07
  Ionic Valenz
[...]

  length of vectors
    16.884694054  9.578410000 16.299456382     0.059225237  0.104401461  0.061351739

 FORCES acting on ions
    electron-ion (+dipol)            ewald-force                    non-local-force                 convergence-correction
   0.395E+03 -.694E+00 0.196E+04   -.400E+03 0.701E+00 -.196E+04   0.454E+01 -.652E-02 0.612E+01   0.182E-01 -.797E-03 -.598E-02
   0.336E+03 -.805E-01 -.296E+04   -.338E+03 0.725E-01 0.296E+04   0.240E+01 0.106E-01 0.127E+01   0.950E-02 0.187E-03 -.104E-01
   0.605E+02 -.354E+02 0.297E+04   -.612E+02 0.355E+02 -.298E+04   0.138E+01 -.105E+00 0.864E+01   -.373E-01 0.800E-03 -.223E-02
   0.428E+03 -.104E+02 -.117E+04   -.430E+03 0.111E+02 0.118E+04   0.146E+01 -.370E+00 -.536E+01   -.175E-01 -.209E-02 0.149E-01
   -.310E+03 -.654E+01 0.247E+04   0.314E+03 0.664E+01 -.248E+04   -.299E+01 -.672E-01 0.449E+01   0.172E-02 0.699E-03 0.159E-02
   0.128E+03 0.549E+00 -.166E+04   -.130E+03 -.444E+00 0.166E+04   0.214E+01 -.135E+00 -.545E+01   -.691E-02 0.159E-02 -.442E-02
   0.559E+03 0.172E+01 0.128E+04   -.564E+03 -.171E+01 -.129E+04   0.436E+01 -.136E-01 0.413E+01   0.940E-02 0.710E-03 -.336E-02
   0.307E+03 0.463E+00 -.338E+04   -.308E+03 -.451E+00 0.338E+04   0.140E+01 -.943E-02 0.437E+00   -.238E-02 -.510E-03 -.173E-01
   0.346E+03 -.819E+01 0.419E+04   -.351E+03 0.822E+01 -.419E+04   0.349E+01 -.174E-01 0.412E+01   -.181E-01 -.671E-04 0.282E-02
   0.720E+03 -.231E+01 0.339E+03   -.725E+03 0.227E+01 -.338E+03   0.378E+01 0.111E-01 -.325E+00   -.669E-02 0.104E-02 -.326E-01
   0.167E+03 -.272E+01 -.363E+04   -.171E+03 0.276E+01 0.363E+04   0.568E+01 -.410E-01 0.109E+01   -.356E-02 0.262E-02 -.117E-01
   0.546E+03 -.147E+01 0.248E+04   -.550E+03 0.138E+01 -.248E+04   0.413E+01 0.833E-01 0.420E+01   0.196E-01 0.878E-03 -.407E-02
   0.425E+03 -.212E+01 -.240E+04   -.431E+03 0.212E+01 0.240E+04   0.385E+01 0.271E-02 -.516E+01   0.155E-01 -.124E-02 0.112E-01
   -.397E+03 0.245E+03 0.240E+04   0.401E+03 -.247E+03 -.240E+04   -.358E+01 0.322E+01 0.444E+01   0.527E-02 0.109E-02 -.604E-02
   0.505E+02 0.471E+03 -.234E+04   -.496E+02 -.474E+03 0.234E+04   -.171E+01 0.266E+01 -.339E+01   0.195E-03 -.968E-02 -.176E-01
   -.310E+03 0.564E+03 0.364E+03   0.313E+03 -.569E+03 -.365E+03   -.220E+01 0.417E+01 0.116E+01   0.253E-02 -.109E-01 0.133E-01
   -.192E+03 0.141E+03 -.365E+04   0.194E+03 -.143E+03 0.365E+04   -.172E+01 0.226E+01 0.270E+01   -.191E-03 -.132E-02 0.881E-02
   0.446E+03 -.396E+03 0.300E+04   -.448E+03 0.398E+03 -.301E+04   0.808E+00 -.127E+01 0.685E+01   0.115E-01 0.434E-02 -.674E-02
   -.283E+03 0.195E+03 -.111E+04   0.286E+03 -.198E+03 0.111E+04   -.195E+01 0.290E+01 -.438E+01   0.837E-02 -.170E-02 -.645E-02
   0.713E+02 0.550E+03 0.196E+04   -.722E+02 -.554E+03 -.197E+04   0.110E+01 0.277E+01 0.468E+01   -.249E-01 0.742E-02 0.295E-02
   -.150E+03 0.153E+03 -.290E+04   0.150E+03 -.155E+03 0.290E+04   0.589E+00 0.235E+01 -.691E+00   -.144E-01 0.715E-02 -.971E-02
   -.252E+03 0.598E+03 0.109E+04   0.252E+03 -.602E+03 -.109E+04   0.849E+00 0.316E+01 0.167E+01   -.285E-01 0.206E-01 -.158E-01
   -.114E+03 0.211E+03 -.334E+04   0.115E+03 -.215E+03 0.334E+04   -.423E+00 0.371E+01 0.218E+01   -.589E-02 0.535E-02 0.417E-02
   -.565E+03 0.154E+03 0.266E+04   0.571E+03 -.156E+03 -.266E+04   -.542E+01 0.343E+01 0.562E+01   0.153E-01 -.443E-02 -.210E-02
   -.371E+03 0.519E+03 -.185E+04   0.374E+03 -.523E+03 0.185E+04   -.198E+01 0.412E+01 -.505E+01   0.137E-01 0.330E-02 0.676E-02
   -.398E+03 -.246E+03 0.240E+04   0.402E+03 0.249E+03 -.240E+04   -.362E+01 -.321E+01 0.444E+01   0.543E-02 -.185E-02 -.546E-02
   0.497E+02 -.471E+03 -.234E+04   -.489E+02 0.475E+03 0.234E+04   -.165E+01 -.271E+01 -.342E+01   0.576E-03 0.102E-01 -.168E-01
   -.229E+03 0.528E+02 0.388E+04   0.231E+03 -.534E+02 -.389E+04   -.211E+01 0.300E+00 0.393E+01   -.921E-02 0.376E-03 0.539E-02
   -.324E+03 -.550E+03 0.363E+03   0.326E+03 0.555E+03 -.365E+03   -.213E+01 -.401E+01 0.120E+01   0.455E-02 0.927E-02 0.108E-01
   -.187E+03 -.140E+03 -.366E+04   0.188E+03 0.141E+03 0.366E+04   -.162E+01 -.187E+01 0.283E+01   0.257E-02 -.107E-02 0.876E-02
   0.445E+03 0.396E+03 0.300E+04   -.447E+03 -.398E+03 -.301E+04   0.864E+00 0.125E+01 0.684E+01   0.111E-01 -.465E-02 -.555E-02
   -.285E+03 -.193E+03 -.111E+04   0.287E+03 0.196E+03 0.111E+04   -.186E+01 -.296E+01 -.436E+01   0.824E-02 0.256E-02 -.498E-02
   0.108E+03 -.546E+03 0.196E+04   -.109E+03 0.550E+03 -.196E+04   0.128E+01 -.284E+01 0.458E+01   -.258E-01 -.687E-02 0.141E-02
   -.148E+03 -.151E+03 -.290E+04   0.148E+03 0.153E+03 0.290E+04   0.242E+00 -.210E+01 -.464E+00   -.167E-01 -.101E-01 -.105E-01
   -.249E+03 -.598E+03 0.110E+04   0.249E+03 0.602E+03 -.110E+04   0.645E+00 -.281E+01 0.149E+01   -.269E-01 -.192E-01 -.109E-01
   -.110E+03 -.213E+03 -.332E+04   0.111E+03 0.217E+03 0.332E+04   -.586E+00 -.393E+01 0.217E+01   -.528E-02 0.350E-03 0.555E-02
   -.565E+03 -.153E+03 0.266E+04   0.571E+03 0.155E+03 -.266E+04   -.544E+01 -.340E+01 0.566E+01   0.151E-01 0.573E-02 -.305E-02
   -.370E+03 -.519E+03 -.185E+04   0.373E+03 0.523E+03 0.185E+04   -.201E+01 -.413E+01 -.505E+01   0.143E-01 -.389E-02 0.553E-02
   0.100E+03 -.270E+00 -.158E+04   -.996E+02 0.248E+00 0.158E+04   -.641E+00 0.881E-02 -.141E+01   -.294E-02 0.256E-03 -.252E-02
   -.204E+03 -.319E+00 0.324E+03   0.206E+03 0.407E+00 -.328E+03   -.734E+00 -.899E-01 0.814E+00   -.688E-03 -.560E-04 -.795E-02
   -.142E+03 -.311E+01 0.108E+04   0.143E+03 0.343E+01 -.108E+04   0.397E-01 -.276E+00 0.105E+01   0.849E-02 0.375E-03 0.941E-03
   -.227E+03 -.243E+01 -.760E+03   0.229E+03 0.245E+01 0.762E+03   -.502E+00 0.233E-01 -.103E+01   0.300E-02 -.339E-03 0.451E-02
   -.334E+02 -.268E+00 0.883E+03   0.346E+02 0.296E+00 -.888E+03   -.616E+00 -.173E-01 0.314E+01   0.606E-02 -.254E-03 -.385E-02
   -.893E+02 0.525E+00 -.117E+04   0.907E+02 -.511E+00 0.117E+04   -.272E+00 -.104E-02 -.271E+01   0.515E-02 0.292E-03 -.444E-03
   0.866E+02 0.133E+02 0.174E+04   -.870E+02 -.133E+02 -.174E+04   0.537E+00 0.654E-02 0.168E+01   -.959E-02 0.357E-03 0.279E-02
   -.117E+03 0.842E+01 -.307E+03   0.117E+03 -.851E+01 0.312E+03   0.180E+01 0.194E+00 -.354E+01   -.131E-01 -.652E-03 0.191E-02
   -.276E+03 -.455E+01 0.156E+04   0.278E+03 0.457E+01 -.156E+04   -.761E+00 0.117E-02 0.208E+01   -.149E-01 0.442E-04 -.415E-02
   -.161E+03 0.694E+00 -.552E+03   0.161E+03 -.658E+00 0.557E+03   0.107E+01 -.367E-02 -.443E+01   -.948E-03 0.299E-02 -.546E-03
   -.270E+03 0.344E+00 0.502E+03   0.272E+03 -.353E+00 -.505E+03   -.542E+00 -.502E-02 0.188E+01   0.109E-01 0.249E-03 -.495E-03
   -.674E+02 0.260E-01 -.134E+04   0.691E+02 -.274E-01 0.134E+04   -.907E+00 -.226E-02 -.286E+01   0.500E-02 -.242E-03 -.981E-03
   -.470E+02 -.364E+02 0.150E+04   0.467E+02 0.364E+02 -.150E+04   0.579E+00 0.587E+00 0.309E+01   0.627E-02 -.352E-02 0.265E-02
   0.112E+03 -.193E+03 -.308E+03   -.114E+03 0.195E+03 0.310E+03   0.858E+00 -.123E+01 -.692E+00   0.518E-02 -.201E-03 -.593E-02
   -.847E+00 -.317E+03 0.917E+03   0.107E+01 0.320E+03 -.921E+03   -.109E+01 -.163E+01 0.294E+01   -.668E-02 0.648E-02 0.396E-03
   0.179E+03 0.225E+02 -.110E+04   -.180E+03 -.224E+02 0.111E+04   0.869E-01 0.202E+00 -.221E+01   -.129E-02 -.677E-03 0.352E-02
   0.778E+02 -.587E+02 0.669E+03   -.801E+02 0.608E+02 -.672E+03   0.156E+01 -.130E+01 0.199E+01   0.102E-02 -.415E-02 -.703E-03
   -.146E+03 0.492E+02 -.141E+04   0.146E+03 -.480E+02 0.141E+04   -.527E-01 -.897E+00 -.207E+01   -.865E-03 0.129E-02 0.152E-02
   0.144E+03 -.176E+03 -.509E+03   -.144E+03 0.178E+03 0.511E+03   -.451E+00 -.574E+00 -.141E+01   -.301E-03 -.551E-02 -.594E-02
   0.850E+02 -.749E+02 0.130E+04   -.867E+02 0.745E+02 -.131E+04   0.103E+01 0.107E+01 0.386E+01   0.118E-02 -.204E-02 0.353E-02
   0.199E+03 -.194E+03 0.103E+04   -.200E+03 0.194E+03 -.104E+04   -.209E+00 0.682E-01 0.128E+01   -.515E-02 -.977E-02 -.605E-02
   0.771E+02 -.177E+03 -.835E+03   -.777E+02 0.178E+03 0.837E+03   -.121E+00 -.951E+00 -.949E+00   -.321E-02 0.421E-02 -.347E-02
[...]
   0.777E+01 -.258E+03 -.160E+04   -.889E+01 0.262E+03 0.160E+04   0.595E+00 -.223E+01 -.549E+00   0.321E-02 -.202E-02 0.195E-02
   0.257E+02 0.309E+03 0.848E+03   -.262E+02 -.312E+03 -.851E+03   0.225E+00 0.806E+00 0.174E+01   -.787E-02 -.623E-02 0.169E-02
   0.178E+03 -.280E+02 -.112E+04   -.179E+03 0.277E+02 0.113E+04   -.710E-01 -.655E-01 -.237E+01   -.306E-02 -.296E-02 0.466E-02
   -.471E+02 0.361E+02 0.150E+04   0.467E+02 -.361E+02 -.150E+04   0.581E+00 -.590E+00 0.305E+01   0.615E-02 0.304E-02 0.284E-02
   0.112E+03 0.193E+03 -.308E+03   -.114E+03 -.195E+03 0.310E+03   0.892E+00 0.119E+01 -.713E+00   0.534E-02 0.316E-03 -.648E-02
   0.142E+03 0.176E+03 -.508E+03   -.143E+03 -.178E+03 0.510E+03   -.416E+00 0.629E+00 -.142E+01   0.218E-03 0.533E-02 -.530E-02
   0.837E+02 0.754E+02 0.130E+04   -.853E+02 -.751E+02 -.131E+04   0.953E+00 -.107E+01 0.389E+01   0.100E-02 0.224E-02 0.345E-02
   0.737E+02 0.594E+02 0.669E+03   -.758E+02 -.613E+02 -.672E+03   0.160E+01 0.116E+01 0.201E+01   0.130E-02 0.391E-02 -.138E-02
   -.146E+03 -.454E+02 -.140E+04   0.146E+03 0.443E+02 0.140E+04   -.197E-02 0.868E+00 -.213E+01   -.361E-03 -.653E-03 0.163E-02
   0.377E+02 0.796E+02 0.175E+04   -.374E+02 -.811E+02 -.176E+04   -.425E+00 0.568E+00 0.262E+01   0.305E-02 -.133E-02 -.630E-03
   0.735E+02 0.827E+02 -.903E+02   -.745E+02 -.830E+02 0.935E+02   -.330E+00 -.114E-01 -.126E+01   0.360E-02 -.462E-03 -.132E-03
   0.688E+01 0.257E+03 -.160E+04   -.799E+01 -.261E+03 0.160E+04   0.616E+00 0.224E+01 -.520E+00   0.316E-02 0.165E-02 0.177E-02
   0.201E+03 0.184E+03 0.103E+04   -.201E+03 -.185E+03 -.104E+04   -.359E+00 -.136E+00 0.133E+01   -.553E-02 0.945E-02 -.642E-02
   0.766E+02 0.178E+03 -.834E+03   -.772E+02 -.179E+03 0.835E+03   -.137E+00 0.991E+00 -.945E+00   -.612E-02 -.325E-02 -.485E-02
   -.561E+01 0.534E+00 -.603E+02   0.109E-11 0.199E-12 -.580E-11   0.565E+01 -.612E+00 0.604E+02   -.538E-01 0.632E-02 -.140E+00

 POSITION                                       TOTAL-FORCE (eV/Angst)
     13.17084      1.39171      2.08012        -0.175823      0.000369      1.812586
     13.47165      1.39170      4.71862        -0.011923      0.003798      1.198868
      3.67275      6.27501      1.66152         0.682870      0.053065     -0.213904
      5.02033      6.18092      3.62239        -0.417917      0.302010      0.589035
      6.70003      1.39052      2.19920         0.533513      0.035902     -0.409491
      7.93172      1.39171      4.13648         0.024185     -0.027986     -0.810228
     16.08224      6.18092      2.59421        -0.553997     -0.004275      1.808555
     16.35855      6.18087      5.21613         0.270699      0.002964      0.696615
      2.99323      1.38981      0.82196        -0.822592      0.014833     -1.919893
      2.10894      1.39171      3.10830        -1.044877     -0.028722      0.726533
      1.99970      1.39147      5.53744         0.897638      0.000135      1.073869
     10.25945      6.18092      1.56603         0.421866     -0.004876      0.828920
     10.84312      6.18092      4.65057        -2.122384      0.011810     -2.029528
     15.33978      0.06184      2.02591         0.747136      0.524836     -0.673930
     15.90921      0.12299      4.50954        -0.794888     -0.651492      0.387682
      7.17375      4.91558      3.21491         0.420678     -0.809330     -0.444638
      7.79208      4.55259      5.57024         0.222477      0.236178      1.157372
     10.16436      8.93589      1.53245        -0.965606      0.788982     -0.011686
     10.08514      0.12638      3.72900         0.085983      0.061086     -0.838982
      1.35096      4.91558      2.18673         0.138036     -0.651945      1.488471
      1.89389      4.82067      4.85515         0.506735      0.152004      0.851682
      4.26235      0.12638      2.70082         0.837310     -0.614784      1.015779
      4.87289      9.48640      5.24450         0.270594     -0.102915      0.788754
     12.54404      4.74369      1.60922         0.641039      0.879157     -0.077024
     12.99653      4.91558      4.24309         1.077368     -0.414492     -2.421032
     15.33991      2.72197      2.02597         0.724003     -0.511922     -0.666991
     15.90928      2.66058      4.50949        -0.791362      0.641908      0.390756
      6.16663      6.13197      1.27356         0.090225     -0.278115     -1.908634
      7.17375      7.44626      3.21491         0.607054      0.796334     -0.324995
      7.76751      7.79670      5.57384         0.231624     -0.215526      1.142253
     10.15895      3.42541      1.53337        -0.952975     -0.783578     -0.011076
     10.08514      2.65705      3.72900         0.113836     -0.096571     -0.861846
      1.35096      7.44626      2.18673         0.118828      0.624276      1.379715
      1.89467      7.54149      4.85384         0.461249     -0.169030      0.884102
      4.26235      2.65705      2.70082         0.666404      0.643032      0.964986
      4.88430      2.90005      5.22321         0.233105      0.054216      0.840787
     12.54515      7.61868      1.60980         0.629817     -0.875635     -0.081447
     12.99653      7.44626      4.24309         1.064540      0.418943     -2.418618
     16.87089      1.39178      5.83701        -0.037280     -0.012048      2.805990
     16.74052      1.39171      3.07977         1.634027     -0.000759     -2.465529
      8.15484      6.17616      1.79218         0.715736      0.041840     -1.466386
      8.59001      6.18092      4.62204         1.457301      0.050802      0.754393
     10.91773      1.39171      2.05159         0.650573      0.010949     -1.962984
     11.40672      1.39077      4.76533         1.176779      0.014599      2.820673
      1.90228      6.18021      0.66217         0.106881     -0.047297     -3.963691
      2.76722      6.18092      3.59386         1.232764      0.108750      0.790675
      4.98523      1.39267      1.13417         1.436182      0.020574     -3.096615
      5.67861      1.39171      4.10795         1.237905      0.036567      0.311362
     13.82913      6.18092      2.56568         1.352525     -0.012382     -0.927541
     14.30385      6.18088      5.28512         0.802713     -0.002902      2.593911
     13.59634      3.05827      0.92977         0.241549      0.520258     -2.846193
     13.99844      3.00295      3.59863        -0.819642      1.502112      1.629670
      5.26426      7.79215      2.05636        -0.873634      1.434605     -0.739026
      5.84520      7.70085      4.88743        -1.102344      0.317199      1.734155
      8.17565      3.00295      2.57045        -0.683895      0.757709     -1.009548
      8.81357      2.82715      5.36410         0.140379      0.216352      2.970085
      0.02514      7.79215      4.11272        -0.909679      1.622245      0.514678
     16.33374      7.88885      1.43802        -0.604500      0.759870     -2.880697
      2.35737      3.06922      1.80885        -0.958211      0.716813     -1.434289
      2.93654      3.00295      4.62682        -0.811055      0.571869      0.656530
     10.98281      7.61062      0.25602        -0.138865      0.819729     -3.924194
     11.08705      7.79215      3.08454        -1.247226      0.342606      1.964140
     11.73984      7.56786      5.81356        -0.516607      1.427804      3.599465
      5.07868      4.62443      2.15335        -0.251474     -1.511207     -1.171171
      5.86547      4.68784      4.90840        -1.116914     -0.394682      1.678668
     13.59649      9.30418      0.92919         0.241955     -0.518137     -2.855312
     13.99844      9.35889      3.59863        -0.805607     -1.506930      1.622425
      0.02514      4.56969      4.11272        -0.938109     -1.629407      0.536160
     16.33510      4.47298      1.43839        -0.609318     -0.790225     -2.868366
      8.17565      9.35889      2.57045        -0.583302     -0.753537     -1.048034
      8.80069      9.51503      5.35345         0.191737     -0.203117      2.954257
     10.98015      4.74851      0.25702        -0.148525     -0.851633     -3.935937
     11.08705      4.56969      3.08454        -1.273239     -0.335693      1.964057
     11.73954      4.79359      5.81344        -0.483122     -1.425104      3.606699
      2.37144      9.28236      1.80796        -0.951646     -0.673140     -1.410523
      2.93654      9.35889      4.62682        -0.819277     -0.629698      0.594669
    total drift:                               -0.018050     -0.071396     -0.023136

  FREE ENERGIE OF THE ION-ELECTRON SYSTEM (eV)
  free  energy   TOTEN  =      -364.77526558 eV

  energy  without entropy=     -363.66725456  energy(sigma->0) =     -364.22126007