 vasp.5.4.4.18Apr17-6-g9f103f2a35 (build Aug 13 2019 17:33:20) gamma-only

 executed on             LinuxIFC date 2020.05.11  14:04:21

 INCAR:
 POTCAR:    PAW_PBE Ni_pv 06Sep2000
 POTCAR:    PAW_PBE S 06Sep2000
 POTCAR:    PAW_PBE Ni_pv 06Sep2000
   VRHFIN =Ni:

   TITEL  = PAW_PBE Ni_pv 06Sep2000
   POMASS =   58.690; ZVAL   =   16.000    mass and valenz
   ENMAX  =  367.986; ENMIN  =  275.989 eV

 POTCAR:    PAW_PBE S 06Sep2000
   VRHFIN =S : s2p4

   TITEL  = PAW_PBE S 06Sep2000
   POMASS =   32.066; ZVAL   =    6.000    mass and valenz
   ENMAX  =  258.689; ENMIN  =  194.016 eV

 Optimization of the real space projectors (new method)

 maximal supplied QI-value         = 18.90
 optimisation between [QCUT,QGAM] = [ 10.77, 21.73] = [ 32.49,132.25] Ry
 Optimized for a Real-space Cutoff    1.38 Angstroem

   l    n(q)    QCUT    max X(q) W(low)/X(q) W(high)/X(q)  e(spline)
   1      8    10.771     2.836    0.40E-04    0.29E-04    0.12E-06
   1      8    10.771     4.023    0.10E-03    0.48E-04    0.29E-06
   2      8    10.771    73.368    0.42E-03    0.97E-04    0.44E-06
   2      8    10.771    69.010    0.42E-03    0.99E-04    0.45E-06
   0      9    10.771    54.797    0.10E-03    0.56E-04    0.74E-07
   0      9    10.771    24.266    0.89E-04    0.49E-04    0.67E-07
 Optimization of the real space projectors (new method)

 maximal supplied QI-value         = 19.84
 optimisation between [QCUT,QGAM] = [ 10.71, 21.63] = [ 32.15,130.99] Ry
 Optimized for a Real-space Cutoff    1.19 Angstroem

   l    n(q)    QCUT    max X(q) W(low)/X(q) W(high)/X(q)  e(spline)
   0      8    10.715   187.594    0.41E-03    0.53E-04    0.66E-07
   0      8    10.715   164.243    0.41E-03    0.53E-04    0.65E-07
   1      7    10.715    67.533    0.19E-03    0.59E-03    0.68E-07
   1      7    10.715    50.729    0.19E-03    0.58E-03    0.67E-07
  PAW_PBE Ni_pv 06Sep2000               :
  PAW_PBE S 06Sep2000                   :

 POSCAR: Type_048 Type_148
  positions in cartesian coordinates
 exchange correlation table for  LEXCH =        8
   RHO(1)=    0.500       N(1)  =     2000
   RHO(2)=  100.500       N(2)  =     4000

 ion  position               nearest neighbor table
   1  0.261  0.479  0.295-  73 2.25  58 2.26  80 2.26  59 2.36  54 2.36   7 2.53  22 2.53
   2  0.355  0.385  0.426-  65 2.06  60 2.09  74 2.22  54 2.26  59 2.26   8 2.53  23 2.53
   3  0.167  0.073  0.165-  55 2.11  81 2.22  64 2.25  56 2.36  82 2.36  13 2.47  37 2.53  32 2.53

   4  0.025  0.066  0.495-  50 2.02  72 2.03  77 2.04  21 2.49
   5  0.226  0.519  0.053-  51 2.02  57 2.03  79 2.07  29 2.52  12 2.53
   6  0.274  0.333  0.130-  51 2.05  55 2.13  57 2.26  52 2.36  58 2.36  12 2.53  30 2.53
   7  0.368  0.239  0.261-  56 2.25  58 2.26  52 2.26  59 2.36  61 2.36   1 2.53  22 2.53
   8  0.462  0.145  0.391-  60 2.14  78 2.25  59 2.26  61 2.26  62 2.36  17 2.52   2 2.53  23 2.53

[...]

  33  0.368  0.739  0.261-  80 2.25  82 2.26  76 2.26  83 2.36  85 2.36  26 2.53  45 2.53
  34  0.462  0.645  0.391-  84 2.05  54 2.25  83 2.26  85 2.26  28 2.49  27 2.53  46 2.53
  35  0.000  0.872  0.261-  82 2.25  88 2.26  68 2.26  73 2.36  90 2.36  43 2.53  38 2.53
  36  0.094  0.778  0.391-  77 2.08  74 2.13  83 2.25  73 2.26  90 2.26  39 2.53  44 2.53
  37  0.406  0.965  0.130-  93 2.10  55 2.12  75 2.26  76 2.36  56 2.36   3 2.53  32 2.53
  38  0.761  0.979  0.295-  61 2.25  94 2.26  68 2.26  95 2.36  90 2.36  43 2.53  35 2.53
  39  0.855  0.885  0.426-  96 2.08  77 2.12  62 2.25  90 2.26  95 2.26  44 2.53  36 2.53
  40  0.532  0.703  0.091-  75 1.99  76 2.13  69 2.19  91 2.24  41 2.28  18 2.46
  41  0.667  0.573  0.165-  91 2.11  76 2.25  69 2.26  40 2.28  92 2.36  70 2.36  25 2.53  19 2.53

  42  0.774  0.833  0.130-  87 2.05  93 2.09  91 2.19  88 2.36  94 2.36  48 2.53  16 2.53
  43  0.868  0.739  0.261-  92 2.25  94 2.26  88 2.26  95 2.36  73 2.36  38 2.53  35 2.53
  44  0.962  0.645  0.391-  96 2.05  74 2.18  66 2.25  95 2.26  73 2.26  39 2.53  36 2.53
  45  0.500  0.872  0.261-  94 2.25  76 2.26  56 2.26  85 2.36  78 2.36  33 2.53  26 2.53
  46  0.594  0.778  0.391-  86 2.15  95 2.25  85 2.26  78 2.26  47 2.33  89 2.36  28 2.52  27 2.53
                            34 2.53
  47  0.736  0.759  0.470-  96 2.01  89 2.12  86 2.14  46 2.33
  48  0.906  0.965  0.130-  87 2.06  67 2.10  81 2.14  88 2.36  68 2.36  16 2.53  42 2.53
  49  0.073  0.167  0.311-  26 2.25  10 2.26  21 2.26   9 2.36  20 2.36
  50  0.167  0.073  0.442-  11 2.02   4 2.02  27 2.25  10 2.36  21 2.36
  51  0.393  0.347  0.064-   5 2.02  12 2.05   6 2.05
  52  0.479  0.261  0.181-  16 2.25   7 2.26  22 2.26  12 2.36   6 2.36
  53  0.020  0.369  0.472-  11 2.02  15 2.07  10 2.07
  54  0.436  0.472  0.355-  34 2.25   2 2.26  23 2.26   1 2.36  22 2.36
  55  0.258  0.157  0.108-  13 2.07   3 2.11  37 2.12   6 2.13
  56  0.342  0.066  0.225-   7 2.25  26 2.26  45 2.26   3 2.36  37 2.36
  57  0.080  0.491  0.094-   5 2.03  25 2.25   6 2.26  30 2.26  29 2.47
  58  0.174  0.397  0.225-   9 2.25   1 2.26   7 2.26   6 2.36  30 2.36
  59  0.268  0.303  0.355-  10 2.25   8 2.26   2 2.26   7 2.36   1 2.36
  60  0.359  0.223  0.473-  17 2.04  11 2.05   2 2.09   8 2.14
  61  0.573  0.167  0.311-  38 2.25  23 2.26   8 2.26  22 2.36   7 2.36
  62  0.667  0.073  0.442-  17 2.02  24 2.02  39 2.25  23 2.36   8 2.36
  63  0.899  0.341  0.065-  18 2.01  25 2.06  19 2.06  64 2.78
  64  0.979  0.261  0.181-   3 2.25  20 2.26   9 2.26  25 2.36  19 2.36  63 2.78
  65  0.518  0.374  0.471-  24 2.02   2 2.06  23 2.07
  66  0.936  0.472  0.355-  44 2.25  15 2.26  10 2.26  14 2.36   9 2.36
  67  0.759  0.158  0.113-  16 2.06  19 2.09  48 2.10  68 2.73
  68  0.842  0.066  0.225-  20 2.25  38 2.26  35 2.26  16 2.36  48 2.36  67 2.73
  69  0.580  0.491  0.094-  18 2.05  40 2.19  12 2.25  19 2.26  41 2.26
  70  0.674  0.397  0.225-  22 2.25  14 2.26  20 2.26  19 2.36  41 2.36
  71  0.768  0.303  0.355-  23 2.25  21 2.26  15 2.26  20 2.36  14 2.36
  72  0.853  0.225  0.472-   4 2.03  24 2.06  15 2.09  21 2.15
  73  0.073  0.667  0.311-   1 2.25  36 2.26  44 2.26  35 2.36  43 2.36  74 2.60
  74  0.170  0.573  0.415-  36 2.13  44 2.18   2 2.22  73 2.60
  75  0.385  0.855  0.051-  40 1.99  13 2.04  37 2.26  32 2.26  31 2.53
  76  0.479  0.761  0.181-  40 2.13  41 2.25  33 2.26  45 2.26  37 2.36  32 2.36
  77  0.020  0.897  0.466-   4 2.04  36 2.08  39 2.12  90 2.66  96 2.70
  78  0.436  0.972  0.355-   8 2.25  27 2.26  46 2.26  26 2.36  45 2.36
  79  0.247  0.665  0.101-   5 2.07  31 2.12  32 2.15  30 2.19  29 2.20  12 2.26
  80  0.342  0.566  0.225-  33 2.25   1 2.26  22 2.26  30 2.36  12 2.36
  81  0.081  0.980  0.102-  13 2.07  31 2.09  48 2.14  32 2.15   3 2.22
  82  0.174  0.897  0.225-  35 2.25  26 2.26  33 2.26  32 2.36   3 2.36
  83  0.268  0.803  0.355-  36 2.25  34 2.26  27 2.26  33 2.36  26 2.36  84 2.74
  84  0.358  0.722  0.468-  28 2.02  34 2.05  27 2.06  83 2.74
  85  0.573  0.667  0.311-  14 2.25  46 2.26  34 2.26  45 2.36  33 2.36
  86  0.713  0.593  0.436-  28 2.05  47 2.14  46 2.15  15 2.18
  87  0.860  0.879  0.059-  29 2.05  42 2.05  48 2.06
  88  0.979  0.761  0.181-  29 2.13  30 2.25  43 2.26  35 2.26  48 2.36  42 2.36
  89  0.530  0.878  0.486-  28 2.03  17 2.05  47 2.12  46 2.36  27 2.36
  90  0.936  0.972  0.355-  21 2.25  39 2.26  36 2.26  38 2.36  35 2.36  77 2.66
  91  0.744  0.662  0.103-  18 2.08  41 2.11  42 2.19  25 2.23  40 2.24
  92  0.842  0.566  0.225-  43 2.25  14 2.26   9 2.26  41 2.36  25 2.36
  93  0.583  0.980  0.112-  16 2.07  42 2.09  37 2.10  94 2.74
  94  0.674  0.897  0.225-  45 2.25  38 2.26  43 2.26  42 2.36  16 2.36  93 2.74
  95  0.768  0.803  0.355-  46 2.25  44 2.26  39 2.26  43 2.36  38 2.36
  96  0.929  0.713  0.477-  47 2.01  44 2.05  39 2.08  77 2.70

  LATTYP: Found a base centered orthorhombic cell.
 ALAT       =    11.8257374459
 B/A-ratio  =     1.6199260857
 C/A-ratio  =     1.9043172636

  Lattice vectors:

 A1 = (  11.2564630382,   0.0000000000,   0.0000000000)
 A2 = (  -5.0445621212, -10.0628203371,   0.0000000000)
 A3 = (   0.0000000000,   0.0000000000, -22.5199559732)

Analysis of symmetry for initial positions (statically):
 Subroutine PRICEL returns:
 Original cell was already a primitive cell.

 Routine SETGRP: Setting up the symmetry group for a
 base centered orthorhombic supercell.

 Subroutine GETGRP returns: Found  1 space group operations
 (whereof  1 operations were pure point group operations)
 out of a pool of  8 trial point group operations.

The static configuration has the point symmetry C_1 .

Analysis of symmetry for dynamics (positions and initial velocities):
 Subroutine PRICEL returns:
 Original cell was already a primitive cell.

 Routine SETGRP: Setting up the symmetry group for a
 base centered orthorhombic supercell.

 Subroutine GETGRP returns: Found  1 space group operations
 (whereof  1 operations were pure point group operations)
 out of a pool of  8 trial point group operations.

The dynamic configuration has the point symmetry C_1 .

 Subroutine INISYM returns: Found  1 space group operations
 (whereof  1 operations are pure point group operations),
 and found     1 'primitive' translations

 KPOINTS: gamma-point-only calculation. no periodi

Automatic generation of k-mesh.
Space group operators:
 irot       det(A)        alpha          n_x          n_y          n_z        tau_x        tau_y        tau_z
    1     1.000000     0.000000     1.000000     0.000000     0.000000     0.000000     0.000000     0.000000

 Subroutine IBZKPT returns following result:

 Found      1 irreducible k-points:

 Following reciprocal coordinates:
            Coordinates               Weight
  0.000000  0.000000  0.000000      1.000000

 Following cartesian coordinates:
            Coordinates               Weight
  0.000000  0.000000  0.000000      1.000000

 SYSTEM =  "Millerite NiS"
 POSCAR =  Type_048 Type_148

 Startparameter for this run:
   NWRITE =      2    write-flag & timer
   PREC   = normal    normal or accurate (medium, high low for compatibility)
   ISTART =      0    job   : 0-new  1-cont  2-samecut
   ICHARG =      2    charge: 1-file 2-atom 10-const
   ISPIN  =      1    spin polarized calculation?
   LNONCOLLINEAR =      F non collinear calculations
   LSORBIT =      F    spin-orbit coupling
   INIWAV =      1    electr: 0-lowe 1-rand  2-diag
   LASPH  =      F    aspherical Exc in radial PAW
   METAGGA=      F    non-selfconsistent MetaGGA calc.

 Electronic Relaxation 1
   ENCUT  =  450.0 eV  33.07 Ry    5.75 a.u.  19.47 19.47 38.95*2*pi/ulx,y,z
   ENINI  =  450.0     initial cutoff
   ENAUG  =  703.4 eV  augmentation charge cutoff
   NELM   =    100;   NELMIN=  2; NELMDL= -5     # of ELM steps
   EDIFF  = 0.1E-03   stopping-criterion for ELM
   LREAL  =      T    real-space projection
   NLSPLINE    = F    spline interpolate recip. space projectors
   LCOMPAT=      F    compatible to vasp.4.4
   GGA_COMPAT  = T    GGA compatible to vasp.4.4-vasp.4.6
   LMAXPAW     = -100 max onsite density
   LMAXMIX     =    2 max onsite mixed and CHGCAR
   VOSKOWN=      0    Vosko Wilk Nusair interpolation
   ROPT   =   -0.00050  -0.00050
 Ionic relaxation
   EDIFFG = 0.1E-02   stopping-criterion for IOM
[...]
     0.000000000  0.000000000 22.519955973     0.000000000  0.000000000  0.044405060

  length of vectors
    11.256463038 11.256463038 22.519955973     0.099375718  0.099375718  0.044405060

 FORCES acting on ions
    electron-ion (+dipol)            ewald-force                    non-local-force                 convergence-correction
   0.234E+03 -.362E+03 -.868E+03   -.235E+03 0.362E+03 0.868E+03   0.643E+00 -.588E+00 0.120E+01   0.730E-01 -.906E-01 -.324E+00
   0.327E+03 -.828E+03 -.442E+04   -.328E+03 0.830E+03 0.443E+04   0.318E+00 -.157E+01 -.318E+01   0.719E-01 -.155E+00 0.295E+00
   0.309E+03 -.745E+03 0.241E+04   -.310E+03 0.748E+03 -.241E+04   0.962E+00 -.252E+01 -.162E+01   -.537E-01 -.392E-02 -.423E+00
   0.162E+02 0.405E+03 -.589E+04   -.166E+02 -.404E+03 0.589E+04   0.630E+00 -.888E+00 0.150E+01   -.499E-01 0.984E-01 0.411E+00
   0.952E+02 0.433E+03 0.629E+04   -.944E+02 -.437E+03 -.630E+04   -.967E+00 0.397E+01 0.595E+01   0.833E-01 0.275E+00 -.103E+00
   0.269E+03 0.819E+03 0.384E+04   -.271E+03 -.822E+03 -.384E+04   0.137E+01 0.197E+01 0.578E+00   0.893E-01 0.220E+00 -.229E+00
   0.213E+03 0.436E+03 0.433E+03   -.214E+03 -.436E+03 -.433E+03   0.102E+01 0.571E+00 0.824E+00   0.793E-01 0.130E+00 -.221E+00
   0.242E+03 0.250E+03 -.268E+04   -.244E+03 -.253E+03 0.268E+04   0.184E+01 0.258E+01 0.173E+01   0.518E-01 -.175E-01 0.335E+00
   -.521E+03 0.129E+02 0.376E+03   0.522E+03 -.124E+02 -.377E+03   -.102E+01 -.537E+00 0.951E+00   0.347E-01 0.356E-01 -.276E+00
   -.498E+03 -.190E+03 -.280E+04   0.501E+03 0.191E+03 0.280E+04   -.273E+01 -.732E+00 0.128E+01   0.993E-01 -.114E+00 0.188E+00
   -.195E+03 -.206E+03 -.583E+04   0.196E+03 0.206E+03 0.583E+04   -.598E+00 -.714E+00 0.200E+01   0.239E-01 -.166E+00 0.392E+00
   -.759E+03 0.438E+03 0.373E+04   0.763E+03 -.439E+03 -.373E+04   -.286E+01 0.936E+00 0.243E+00   -.201E-01 0.199E+00 -.276E+00
   -.784E+02 -.102E+04 0.608E+04   0.782E+02 0.102E+04 -.608E+04   -.856E-01 -.346E+01 0.407E+01   -.107E+00 -.291E+00 -.420E+00
   0.253E+03 -.328E+03 -.797E+03   -.254E+03 0.329E+03 0.797E+03   0.780E+00 -.118E+01 0.127E+00   -.222E-01 -.651E-01 -.282E+00
   0.272E+03 -.543E+03 -.430E+04   -.273E+03 0.545E+03 0.431E+04   0.735E+00 -.783E+00 -.312E+01   -.115E+00 -.169E+00 0.315E+00
   0.312E+03 -.573E+03 0.302E+04   -.314E+03 0.576E+03 -.302E+04   0.213E+01 -.321E+01 0.206E+01   0.271E-01 0.483E-01 -.270E+00
   0.472E+02 0.281E+02 -.586E+04   -.475E+02 -.274E+02 0.586E+04   0.350E+00 -.121E+01 0.109E+01   0.930E-01 0.157E+00 0.362E+00
   -.889E+02 0.171E+03 0.635E+04   0.910E+02 -.173E+03 -.636E+04   -.201E+01 0.262E+01 0.559E+01   -.199E+00 0.307E+00 -.567E-01
   0.411E+03 0.825E+03 0.387E+04   -.414E+03 -.829E+03 -.387E+04   0.250E+01 0.383E+01 0.633E+00   -.898E-01 0.115E+00 -.191E+00
   0.264E+03 0.443E+03 0.419E+03   -.265E+03 -.443E+03 -.420E+03   0.841E+00 0.337E+00 0.945E+00   -.247E-01 0.333E-01 -.215E+00
   0.208E+03 0.385E+03 -.272E+04   -.209E+03 -.386E+03 0.272E+04   0.119E+01 0.160E+01 0.224E+01   -.869E-01 -.127E+00 0.343E+00
   -.510E+03 0.469E+02 0.384E+03   0.511E+03 -.463E+02 -.385E+03   -.105E+01 -.687E+00 0.116E+01   -.635E-01 0.167E-01 -.289E+00
   -.459E+03 -.220E+03 -.277E+04   0.461E+03 0.220E+03 0.277E+04   -.247E+01 -.543E+00 0.147E+01   0.276E-01 -.110E+00 0.329E+00
   -.226E+03 -.187E+03 -.585E+04   0.226E+03 0.188E+03 0.585E+04   0.261E+00 -.794E+00 0.158E+01   -.249E-01 -.109E+00 0.361E+00
   -.747E+03 0.180E+03 0.377E+04   0.751E+03 -.180E+03 -.377E+04   -.241E+01 -.132E+00 0.880E+00   0.561E-01 0.150E+00 -.208E+00
   0.266E+03 -.432E+03 -.803E+03   -.267E+03 0.433E+03 0.802E+03   0.624E+00 -.114E+01 0.213E+00   -.859E-01 0.327E-01 -.861E-01
   0.537E+03 -.425E+03 -.416E+04   -.539E+03 0.429E+03 0.416E+04   0.173E+01 -.280E+01 -.906E+00   -.277E-01 0.167E+00 0.361E+00
   0.344E+03 0.685E+03 -.607E+04   -.347E+03 -.689E+03 0.608E+04   0.414E+01 0.231E+01 -.305E+01   -.729E-01 0.883E-01 0.387E+00
   0.592E+03 -.272E+02 0.508E+04   -.594E+03 0.279E+02 -.508E+04   0.158E+01 -.149E+01 0.756E+01   0.297E+00 -.182E-01 -.361E+00
   0.284E+03 -.615E+01 0.210E+04   -.286E+03 0.488E+01 -.210E+04   0.138E+01 0.898E+00 -.364E+01   0.861E-01 0.879E-01 -.450E+00
   0.268E+03 -.607E+02 0.632E+04   -.269E+03 0.616E+02 -.632E+04   0.108E+01 -.116E+01 -.213E+01   -.201E-01 -.868E-01 -.164E+00
   0.819E+02 0.344E+03 0.318E+04   -.811E+02 -.345E+03 -.318E+04   0.441E+00 0.638E+00 -.232E+01   -.916E-01 -.221E+00 -.738E+00
   0.264E+03 0.480E+03 0.197E+03   -.266E+03 -.481E+03 -.197E+03   0.133E+01 0.564E+00 0.334E+00   -.107E+00 -.195E+00 -.340E+00
   0.464E+03 0.715E+03 -.299E+04   -.465E+03 -.718E+03 0.299E+04   0.154E+01 0.251E+01 0.114E+01   -.705E-01 -.368E-01 0.131E+00
   -.482E+03 -.727E+02 0.251E+03   0.483E+03 0.736E+02 -.251E+03   -.122E+01 -.702E+00 0.160E+00   0.277E-02 -.828E-01 -.290E+00
   -.587E+03 0.223E+03 -.331E+04   0.593E+03 -.223E+03 0.331E+04   -.576E+01 0.746E+00 -.176E+01   0.407E-01 0.107E+00 0.693E-01
   -.932E+03 -.414E+03 0.379E+04   0.938E+03 0.415E+03 -.379E+04   -.458E+01 -.176E+01 0.847E-01   -.164E-01 -.197E+00 -.503E+00
   0.224E+03 -.448E+03 -.694E+03   -.225E+03 0.449E+03 0.694E+03   0.810E+00 -.121E+01 0.177E+00   0.910E-01 0.768E-02 -.131E+00
   -.116E+03 -.324E+03 -.419E+04   0.113E+03 0.328E+03 0.419E+04   0.219E+01 -.326E+01 -.254E+01   0.232E-01 0.286E+00 0.252E+00
   -.960E+02 -.170E+03 0.517E+04   0.964E+02 0.168E+03 -.517E+04   -.743E-01 0.152E+01 0.470E+01   -.995E-01 -.304E-01 -.312E+00
   0.110E+03 -.762E+02 0.214E+04   -.110E+03 0.745E+02 -.213E+04   0.503E+00 0.569E+00 -.341E+01   -.170E+00 0.171E+00 -.509E+00
   0.459E+03 0.941E+02 0.401E+04   -.462E+03 -.955E+02 -.401E+04   0.270E+01 0.510E+00 0.323E+01   0.915E-01 -.145E+00 -.365E+00
   0.246E+03 0.449E+03 0.322E+03   -.247E+03 -.450E+03 -.322E+03   0.127E+01 0.495E+00 0.255E+00   0.131E+00 -.471E-01 -.306E+00
   -.487E+02 0.671E+03 -.318E+04   0.466E+02 -.676E+03 0.317E+04   0.229E+01 0.382E+01 -.206E+00   0.502E-01 0.133E-01 -.193E-01
   -.543E+03 -.848E+02 0.347E+03   0.544E+03 0.862E+02 -.346E+03   -.107E+01 -.124E+01 -.353E+00   0.167E-01 -.571E-01 -.300E+00
   -.263E+03 -.135E+02 -.249E+04   0.263E+03 0.155E+02 0.249E+04   -.339E+00 -.141E+01 0.339E+01   -.500E-01 0.114E+00 0.184E+00
   -.424E+03 0.300E+03 -.553E+04   0.427E+03 -.302E+03 0.554E+04   -.294E+01 0.156E+01 -.290E+01   -.649E-01 0.191E+00 0.386E+00
   -.135E+03 -.650E+03 0.388E+04   0.136E+03 0.654E+03 -.388E+04   -.811E+00 -.276E+01 0.268E+01   0.158E+00 -.213E+00 -.376E+00
   -.724E+02 0.106E+03 -.250E+03   0.739E+02 -.108E+03 0.249E+03   -.135E+01 0.188E+01 0.966E+00   -.188E-01 0.279E-01 -.670E-01
   -.857E+02 0.215E+03 -.154E+04   0.868E+02 -.217E+03 0.154E+04   0.654E-01 0.142E+00 -.116E+01   -.296E-01 -.472E-02 0.214E+00
   -.258E+03 0.508E+03 0.229E+04   0.260E+03 -.512E+03 -.229E+04   -.628E+00 0.130E+01 0.758E+00   0.603E-02 0.109E+00 -.668E-01
   -.108E+03 0.181E+03 0.108E+04   0.108E+03 -.182E+03 -.108E+04   -.282E+00 0.138E+01 0.179E+01   -.128E-01 0.983E-01 -.447E-01
   -.944E+02 -.395E+03 -.217E+04   0.966E+02 0.399E+03 0.217E+04   -.151E+01 -.178E+01 -.795E+00   0.411E-01 -.927E-01 0.185E+00
   -.595E+02 -.174E+03 -.827E+03   0.607E+02 0.177E+03 0.827E+03   -.826E+00 -.253E+01 -.219E+00   -.288E-03 -.394E-01 -.502E-01
   -.154E+03 -.325E+03 0.178E+04   0.154E+03 0.327E+03 -.178E+04   0.516E-01 -.911E-01 0.837E+00   -.195E-01 -.289E-01 -.162E+00
   -.102E+03 -.197E+03 0.470E+03   0.102E+03 0.199E+03 -.470E+03   -.793E+00 -.218E+01 0.458E+00   0.410E-01 0.878E-01 -.992E-01
   0.356E+03 0.170E+03 0.188E+04   -.359E+03 -.171E+03 -.189E+04   0.141E+01 0.117E+01 0.314E+01   0.732E-01 0.851E-01 -.924E-01
   0.174E+03 0.347E+02 0.460E+03   -.177E+03 -.346E+02 -.460E+03   0.265E+01 -.273E+00 0.806E+00   0.241E-01 0.990E-02 -.940E-01
   0.166E+03 -.567E+02 -.767E+03   -.168E+03 0.567E+02 0.768E+03   0.253E+01 -.180E+00 -.130E+01   0.327E-01 -.198E-01 -.336E-01
   0.984E+02 -.227E+03 -.208E+04   -.100E+03 0.227E+03 0.208E+04   0.783E+00 -.118E+00 -.114E+01   0.373E-01 -.984E-01 0.180E+00
[...]
   0.209E+03 0.306E+02 -.818E+03   -.212E+03 -.303E+02 0.817E+03   0.286E+01 0.144E+00 0.412E+00   -.314E-01 0.480E-02 0.101E-01
   0.515E+03 0.157E+03 -.217E+04   -.519E+03 -.158E+03 0.217E+04   0.162E+01 0.126E+00 -.634E+00   0.104E-01 0.381E-01 0.139E+00
   -.524E+02 0.151E+03 -.270E+03   0.536E+02 -.153E+03 0.268E+03   -.126E+01 0.182E+01 0.158E+01   -.232E-01 -.571E-01 -.933E-01
   -.696E+02 0.356E+03 -.160E+04   0.705E+02 -.357E+03 0.160E+04   -.841E+00 0.302E-01 0.799E+00   -.476E-01 -.131E-01 0.116E+00
   0.239E+03 -.228E+03 0.246E+04   -.240E+03 0.229E+03 -.246E+04   0.130E+01 -.126E+01 0.184E+01   0.940E-01 -.601E-01 -.876E-01
   0.306E+02 0.691E+02 0.769E+03   -.302E+02 -.706E+02 -.767E+03   -.566E+00 0.122E+01 -.191E+00   0.601E-01 -.284E-01 -.140E+00
   0.103E+03 -.148E+03 -.220E+04   -.103E+03 0.152E+03 0.220E+04   -.304E+00 -.218E+01 -.287E+01   -.881E-02 0.134E+00 0.162E+00
   -.839E+02 -.128E+03 -.751E+03   0.852E+02 0.131E+03 0.751E+03   -.147E+01 -.294E+01 -.583E+00   -.731E-03 0.570E-02 0.511E-02
   -.265E+03 -.262E+03 0.181E+04   0.267E+03 0.265E+03 -.181E+04   -.132E+01 -.105E+01 0.966E+00   -.106E+00 0.111E-01 -.105E+00
   -.881E+02 -.123E+03 0.445E+03   0.890E+02 0.126E+03 -.445E+03   -.868E+00 -.271E+01 0.684E+00   0.248E-01 -.114E-01 -.119E+00
   0.327E+02 -.201E+03 0.190E+04   -.337E+02 0.204E+03 -.190E+04   -.113E+00 -.157E+01 0.408E+01   -.395E-01 -.370E-01 -.145E+00
   0.154E+03 -.488E+02 0.490E+03   -.157E+03 0.489E+02 -.490E+03   0.273E+01 -.254E+00 0.470E+00   0.380E-01 -.317E-01 -.104E+00
   0.107E+03 0.252E+01 -.674E+03   -.109E+03 -.279E+01 0.673E+03   0.220E+01 0.530E+00 0.832E+00   0.388E-01 0.278E-01 -.255E-01
   -.287E+03 0.277E+03 -.234E+04   0.287E+03 -.280E+03 0.235E+04   0.493E+00 0.196E+01 -.222E+01   0.337E-01 0.343E-01 0.140E+00
   -.725E+01 0.166E+02 -.446E+02   0.114E-11 0.853E-12 -.227E-11   0.703E+01 -.169E+02 0.501E+02   0.649E-01 0.293E+00 -.520E+01

 POSITION                                       TOTAL-FORCE (eV/Angst)
      5.35228      4.81788      6.64784         0.130554     -0.349881     -0.024237
      5.93595      3.87238      9.58390        -0.652739      0.609491     -1.309257
      2.24633      0.73197      3.71178        -0.435605      0.455070      1.771567
      0.61343      0.66502     11.14247         0.222214     -0.525083      1.366989
      5.16617      5.22073      1.19651        -0.049616      0.912350     -1.930006
      4.76861      3.35453      2.93606        -1.003682     -0.445036      1.761491
      5.35228      2.40903      5.87212        -0.019297      0.038556      0.034942
      5.93595      1.46353      8.80817         0.168834     -0.096578     -1.412605
      1.87746      3.73836      5.87212        -0.034021     -0.002276     -0.050089
      2.46113      2.79286      8.80817         0.074378     -0.316607     -1.959093
      3.17752      2.08776     11.11502         0.461337     -0.312739      1.300826
      6.92203      4.68386      2.93606         1.313429      0.199496      1.578819
      2.56055      0.28039      1.30006        -0.438841      0.857974     -1.526830
     10.98051      4.81788      6.64784         0.078133     -0.287496     -0.087932
     11.56418      3.87238      9.58390        -0.586241      0.496593     -1.201795
      7.87456      0.73197      3.71178        -0.444376      0.443783      2.107110
      6.26024      0.59762     11.15438         0.189631     -0.279493      1.446826
     10.83218      5.15739      1.20937        -0.088008      0.780688     -1.953635
     10.39684      3.35453      2.93606        -0.676822     -0.582847      1.969943
     10.98051      2.40903      5.87212         0.139840      0.126900      0.088568
     11.56418      1.46353      8.80817        -0.054553      0.194726     -1.431198
      7.50570      3.73836      5.87212        -0.077840     -0.081260     -0.044985
      8.08937      2.79286      8.80817         0.030202     -0.285331     -1.881802
      8.74559      2.10986     11.14064         0.496465     -0.189296      1.238062
     12.55026      4.68386      2.93606         1.418555      0.268407      1.675984
      7.87456      9.84929      6.64784         0.064060     -0.152940     -0.014645
      8.45823      8.90379      9.58390         0.126542      1.382428     -1.285637
      9.62525      6.95075     10.95836         0.301256     -1.317393      1.410374
      4.04429      7.32370      2.02311         0.140278     -0.828974     -0.975451
      4.76861      5.76338      3.71178        -0.422737     -0.288027      1.358223
      6.13806      8.32050      0.92235        -0.175240     -0.324389     -1.124854
      7.29089      8.38594      2.93606         1.100424     -0.611483      2.432105
      7.87456      7.44044      5.87212        -0.091336     -0.096034      0.063668
      8.45823      6.49494      8.80817         0.038372     -0.384974     -1.778144
      4.39975      8.76977      5.87212        -0.121503      0.111062     -0.065804
      4.98341      7.82427      8.80817         0.356330      0.296260     -2.035295
      9.44431      9.71527      2.93606         0.781730     -0.643587      1.209679
     13.50279      9.84929      6.64784         0.140071     -0.235757     -0.193396
     14.08646      8.90379      9.58390        -0.649485      1.285977     -1.463909
      9.53749      7.07023      2.04782         0.263936     -0.279330     -0.716386
     10.39684      5.76338      3.71178        -0.046148     -0.896170      2.532106
     12.91912      8.38594      2.93606        -0.475475     -0.938300      1.786835
     13.50279      7.44044      5.87212        -0.108180      0.059678     -0.129039
     14.08646      6.49494      8.80817         0.256626     -0.563290     -1.977599
     10.02798      8.76977      5.87212         0.037915      0.168669      0.046691
     10.61165      7.82427      8.80817        -0.265149      0.697604     -2.300383
     12.10931      7.63580     10.57912        -0.627371     -0.049433      0.815113
     15.07254      9.71527      2.93606         0.688755      0.300433      1.708770
      1.66190      1.67871      7.01153         0.116418     -0.183906     -0.136450
      2.24556      0.73321      9.94759         1.173269     -1.432428     -0.778286
      6.17345      3.48883      1.44968         1.399159     -2.133182     -3.342979
      6.70646      2.62422      4.07548         0.090250      0.126547      0.412518
      2.08671      3.71036     10.62137         0.762999      2.300309      2.326004
      7.29013      4.74605      7.99931         0.426646      0.167986     -0.532105
      3.69655      1.58272      2.43272         0.484988      1.736158     -1.227152
      4.18418      0.66015      5.06325         0.021995     -0.204236      0.841791
      3.38071      4.94434      2.12720        -1.803538      0.196051      0.161577
      3.96438      3.99884      5.06325        -0.041183     -0.091730      0.110033
      4.54805      3.05334      7.99931        -0.174849     -0.169905     -0.783546
      5.17088      2.24758     10.64657        -1.064011     -0.141573      2.128149
[...]
      6.48666      9.03025      5.06325         0.045217     -0.058168      0.447300
      7.07033      8.08475      7.99931         0.110150      0.424906     -0.690758
      7.67282      7.26084     10.54519        -2.402075     -0.697179      2.656822
      9.81241      6.71012      7.01153        -0.034601     -0.199277     -0.002740
     11.01625      5.96637      9.81395         0.017019     -1.348826      0.809627
     14.11581      8.84622      1.33521        -0.247390     -0.010997     -3.861362
     14.85697      7.65563      4.07548        -0.147094     -0.252650      1.259633
     10.39608      8.83196     10.93537        -0.615821      1.362747      1.065322
     15.44064      9.77746      7.99931        -0.099628      0.219784     -0.864350
     11.71784      6.66355      2.32923         1.277279      1.302032     -1.152297
     12.33469      5.69156      5.06325         0.116500     -0.006894      0.203706
     11.50286      9.86488      2.52674        -1.071901      0.789015     -2.230384
     12.11489      9.03025      5.06325        -0.198832     -0.248548      0.649653
     12.69856      8.08475      7.99931        -0.219957      0.289283     -0.282539
     14.05801      7.17546     10.73660         0.818455     -1.184732      3.501598
    total drift:                               -0.159500      0.026533      0.345074

  FREE ENERGIE OF THE ION-ELECTRON SYSTEM (eV)
  free  energy   TOTEN  =      -471.84628622 eV

  energy  without entropy=     -470.58922009  energy(sigma->0) =     -471.21775315