 vasp.5.4.4.18Apr17-6-g9f103f2a35 (build Aug 13 2019 17:33:20) gamma-only

 executed on             LinuxIFC date 2020.05.12  19:58:43

 INCAR:
 POTCAR:    PAW_PBE Ni_pv 06Sep2000
 POTCAR:    PAW_PBE S 06Sep2000
 POTCAR:    PAW_PBE Ni_pv 06Sep2000
   VRHFIN =Ni:

   TITEL  = PAW_PBE Ni_pv 06Sep2000
   POMASS =   58.690; ZVAL   =   16.000    mass and valenz
   ENMAX  =  367.986; ENMIN  =  275.989 eV

 POTCAR:    PAW_PBE S 06Sep2000
   VRHFIN =S : s2p4

   TITEL  = PAW_PBE S 06Sep2000
   POMASS =   32.066; ZVAL   =    6.000    mass and valenz
   ENMAX  =  258.689; ENMIN  =  194.016 eV

 Optimization of the real space projectors (new method)

 maximal supplied QI-value         = 18.90
 optimisation between [QCUT,QGAM] = [ 10.77, 21.73] = [ 32.49,132.25] Ry
 Optimized for a Real-space Cutoff    1.38 Angstroem

   l    n(q)    QCUT    max X(q) W(low)/X(q) W(high)/X(q)  e(spline)
   1      8    10.771     2.836    0.40E-04    0.29E-04    0.12E-06
   1      8    10.771     4.023    0.10E-03    0.48E-04    0.29E-06
   2      8    10.771    73.368    0.42E-03    0.97E-04    0.44E-06
   2      8    10.771    69.010    0.42E-03    0.99E-04    0.45E-06
   0      9    10.771    54.797    0.10E-03    0.56E-04    0.74E-07
   0      9    10.771    24.266    0.89E-04    0.49E-04    0.67E-07
 Optimization of the real space projectors (new method)

 maximal supplied QI-value         = 19.84
 optimisation between [QCUT,QGAM] = [ 10.71, 21.63] = [ 32.15,130.99] Ry
 Optimized for a Real-space Cutoff    1.19 Angstroem

   l    n(q)    QCUT    max X(q) W(low)/X(q) W(high)/X(q)  e(spline)
   0      8    10.715   187.594    0.41E-03    0.53E-04    0.66E-07
   0      8    10.715   164.243    0.41E-03    0.53E-04    0.65E-07
   1      7    10.715    67.533    0.19E-03    0.59E-03    0.68E-07
   1      7    10.715    50.729    0.19E-03    0.58E-03    0.67E-07
  PAW_PBE Ni_pv 06Sep2000               :
  PAW_PBE S 06Sep2000                   :

 POSCAR: Type_036 Type_136
  positions in cartesian coordinates
 exchange correlation table for  LEXCH =        8
   RHO(1)=    0.500       N(1)  =     2000
   RHO(2)=  100.500       N(2)  =     4000

 ion  position               nearest neighbor table
   1  0.328  0.998  0.056-  41 2.06  69 2.06  49 2.11  42 2.16   2 2.41  29 2.41
   2  0.397  0.795  0.127-  49 2.08  61 2.12  42 2.25  50 2.36  62 2.36  26 2.38   1 2.41  22 2.45

   3  0.547  0.645  0.254-  43 2.25  62 2.26  50 2.26  63 2.36  51 2.36  27 2.53  14 2.53
   4  0.698  0.494  0.381-  64 2.17  44 2.25  51 2.26  63 2.26  52 2.36  15 2.53  28 2.53
   5  0.827  0.344  0.485-  52 2.00  64 2.00  16 2.46  25 2.49
   6  0.114  0.412  0.169-  53 2.06  68 2.08  45 2.25   9 2.27  65 2.36  54 2.36  29 2.53  17 2.53

[...]

  32  0.734  0.817  0.452-  56 2.04  44 2.05  72 2.06  31 2.44
  33  0.015  0.843  0.144-  60 2.11  61 2.13  48 2.26  45 2.36  57 2.36  23 2.53  11 2.53
  34  0.166  0.693  0.271-  62 2.25  57 2.26  45 2.26  46 2.36  58 2.36  12 2.53  24 2.53
  35  0.316  0.543  0.398-  59 2.06  47 2.13  63 2.25  58 2.26  46 2.26  21 2.52
  36  0.775  0.999  0.097-  48 2.04  60 2.08  70 2.09  11 2.47  22 2.54
  37  0.003  0.994  0.479-  16 2.12  25 2.12  10 2.13  40 2.59
  38  0.575  0.426  0.127-  26 2.04  14 2.06  27 2.14  13 2.15
  39  0.736  0.256  0.244-  11 2.25  28 2.26  15 2.26  14 2.36  27 2.36
  40  0.886  0.105  0.371-  16 2.03  25 2.04  12 2.25  15 2.36  28 2.36  37 2.59
  41  0.155  0.181  0.045-  17 2.04  29 2.05   1 2.06
  42  0.303  0.023  0.160-   1 2.16   2 2.25  30 2.26  18 2.26  17 2.36  29 2.36
  43  0.453  0.872  0.286-   3 2.25  19 2.26  31 2.26  18 2.36  30 2.36
  44  0.603  0.722  0.413-  32 2.05  20 2.08   4 2.25  31 2.36  19 2.36
  45  0.019  0.639  0.202-   9 2.13   6 2.25  24 2.26  34 2.26  23 2.36  33 2.36
  46  0.170  0.489  0.329-  21 2.03   7 2.25  35 2.26  34 2.36  24 2.36  47 2.58
  47  0.291  0.353  0.431-  35 2.13  21 2.15   8 2.31  46 2.58
  48  0.869  0.789  0.075-   9 2.00  36 2.04  33 2.26  23 2.26
  49  0.483  0.798  0.036-   2 2.08  26 2.09   1 2.11  22 2.12
  50  0.636  0.692  0.160-  26 2.06  22 2.25  23 2.25  27 2.26   3 2.26   2 2.36
  51  0.787  0.542  0.287-  24 2.25   4 2.26  28 2.26  27 2.36   3 2.36
  52  0.937  0.391  0.414-   5 2.00  25 2.15  21 2.20   4 2.36  28 2.36
  53  0.203  0.456  0.086-   6 2.06  13 2.13   9 2.18  29 2.19
  54  0.353  0.308  0.202-  14 2.25   7 2.26  30 2.26  29 2.36   6 2.36
  55  0.503  0.158  0.329-  15 2.25   8 2.26  31 2.26   7 2.36  30 2.36  56 2.76
  56  0.633  0.030  0.442-  32 2.04   8 2.10  16 2.12  31 2.15  55 2.76
  57  0.070  0.925  0.245-  18 2.25  34 2.26  12 2.26  11 2.36  33 2.36
  58  0.220  0.775  0.372-  10 2.04  19 2.25  35 2.26  34 2.36  12 2.36  59 2.74
  59  0.291  0.638  0.488-  20 2.03  35 2.06  10 2.07  58 2.74
  60  0.937  0.065  0.129-  36 2.08  33 2.11  11 2.12  17 2.15
  61  0.213  0.759  0.095-   2 2.12  13 2.12  33 2.13  62 2.67
  62  0.350  0.641  0.203-  13 2.05  34 2.25  14 2.26   3 2.26   2 2.36  61 2.67
  63  0.501  0.491  0.330-  35 2.25   4 2.26  15 2.26   3 2.36  14 2.36
  64  0.652  0.339  0.441-   5 2.00  15 2.06  16 2.17   4 2.17
  65  0.067  0.258  0.245-  28 2.25   7 2.26  18 2.26   6 2.36  17 2.36
  66  0.218  0.108  0.372-  25 2.13  19 2.26   8 2.26  18 2.36   7 2.36
  67  0.398  0.946  0.481-  19 2.03  20 2.07   8 2.10
  68  0.924  0.410  0.130-   6 2.08  27 2.16   9 2.21  17 2.22
  69  0.481  0.090  0.056-   1 2.06  29 2.10  22 2.11
  70  0.638  0.015  0.175-  36 2.09  30 2.10  11 2.13  23 2.14  22 2.15
  71  0.784  0.874  0.287-  31 2.25  24 2.26  12 2.26  23 2.36  11 2.36
  72  0.934  0.724  0.414-  32 2.06  10 2.09  21 2.16  12 2.36  24 2.36

  LATTYP: Found a base centered orthorhombic cell.
 ALAT       =    11.4527836704
 B/A-ratio  =     1.4485816945
 C/A-ratio  =     1.8059804630

  Lattice vectors:

 A1 = (  10.0797329849,   0.0000000000,   0.0000000000)
 A2 = (  -3.5732980427,  -9.4251025535,   0.0000000000)
 A3 = (   0.0000000000,   0.0000000000, -20.6835035552)

Analysis of symmetry for initial positions (statically):
 Subroutine PRICEL returns:
 Original cell was already a primitive cell.

 Routine SETGRP: Setting up the symmetry group for a
 base centered orthorhombic supercell.

 Subroutine GETGRP returns: Found  1 space group operations
 (whereof  1 operations were pure point group operations)
 out of a pool of  8 trial point group operations.

The static configuration has the point symmetry C_1 .

Analysis of symmetry for dynamics (positions and initial velocities):
 Subroutine PRICEL returns:
 Original cell was already a primitive cell.

 Routine SETGRP: Setting up the symmetry group for a
 base centered orthorhombic supercell.

 Subroutine GETGRP returns: Found  1 space group operations
 (whereof  1 operations were pure point group operations)
 out of a pool of  8 trial point group operations.

The dynamic configuration has the point symmetry C_1 .

 Subroutine INISYM returns: Found  1 space group operations
 (whereof  1 operations are pure point group operations),
 and found     1 'primitive' translations

 KPOINTS: gamma-point-only calculation. no periodi

Automatic generation of k-mesh.
Space group operators:
 irot       det(A)        alpha          n_x          n_y          n_z        tau_x        tau_y        tau_z
    1     1.000000     0.000000     1.000000     0.000000     0.000000     0.000000     0.000000     0.000000

 Subroutine IBZKPT returns following result:

 Found      1 irreducible k-points:

 Following reciprocal coordinates:
            Coordinates               Weight
  0.000000  0.000000  0.000000      1.000000

 Following cartesian coordinates:
            Coordinates               Weight
  0.000000  0.000000  0.000000      1.000000

 SYSTEM =  "Millerite NiS"
 POSCAR =  Type_036 Type_136

 Startparameter for this run:
   NWRITE =      2    write-flag & timer
   PREC   = normal    normal or accurate (medium, high low for compatibility)
   ISTART =      0    job   : 0-new  1-cont  2-samecut
   ICHARG =      2    charge: 1-file 2-atom 10-const
   ISPIN  =      1    spin polarized calculation?
   LNONCOLLINEAR =      F non collinear calculations
   LSORBIT =      F    spin-orbit coupling
   INIWAV =      1    electr: 0-lowe 1-rand  2-diag
   LASPH  =      F    aspherical Exc in radial PAW
   METAGGA=      F    non-selfconsistent MetaGGA calc.

 Electronic Relaxation 1
   ENCUT  =  450.0 eV  33.07 Ry    5.75 a.u.  17.43 17.43 35.78*2*pi/ulx,y,z
   ENINI  =  450.0     initial cutoff
   ENAUG  =  703.4 eV  augmentation charge cutoff
   NELM   =    100;   NELMIN=  2; NELMDL= -5     # of ELM steps
   EDIFF  = 0.1E-03   stopping-criterion for ELM
   LREAL  =      T    real-space projection
   NLSPLINE    = F    spline interpolate recip. space projectors
   LCOMPAT=      F    compatible to vasp.4.4
   GGA_COMPAT  = T    GGA compatible to vasp.4.4-vasp.4.6
   LMAXPAW     = -100 max onsite density
   LMAXMIX     =    2 max onsite mixed and CHGCAR
   VOSKOWN=      0    Vosko Wilk Nusair interpolation
   ROPT   =   -0.00050  -0.00050
 Ionic relaxation
   EDIFFG = 0.1E-02   stopping-criterion for IOM
   NSW    =      0    number of steps for IOM
   NBLOCK =      1;   KBLOCK =      1    inner block; outer block
   IBRION =     -1    ionic relax: 0-MD 1-quasi-New 2-CG
   NFREE  =      0    steps in history (QN), initial steepest desc. (CG)
   ISIF   =      2    stress and relaxation
   IWAVPR =     10    prediction:  0-non 1-charg 2-wave 3-comb
   ISYM   =      2    0-nonsym 1-usesym 2-fastsym
   LCORR  =      T    Harris-Foulkes like correction to forces

   POTIM  = 0.5000    time-step for ionic-motion
   TEIN   =    0.0    initial temperature
   TEBEG  =    0.0;   TEEND  =   0.0 temperature during run
   SMASS  =  -3.00    Nose mass-parameter (am)
   estimated Nose-frequenzy (Omega)   =  0.10E-29 period in steps =****** mass=  -0.232E-26a.u.
   SCALEE = 1.0000    scale energy and forces
   NPACO  =    256;   APACO  = 16.0  distance and # of slots for P.C.
   PSTRESS=    0.0 pullay stress

  Mass of Ions in am
   POMASS =  58.69 32.07
  Ionic Valenz
   ZVAL   =  16.00  6.00
  Atomic Wigner-Seitz radii
  virtual crystal weights
   VCA    =   1.00  1.00
   NELECT =     792.0000    total number of electrons
   NUPDOWN=      -1.0000    fix difference up-down

 DOS related values:
   EMIN   =  10.00;   EMAX   =-10.00  energy-range for DOS
   EFERMI =   0.00
   ISMEAR =     0;   SIGMA  =   0.20  broadening in eV -4-tet -1-fermi 0-gaus

 Electronic relaxation 2 (details)
   IALGO  =     38    algorithm
   LDIAG  =      T    sub-space diagonalisation (order eigenvalues)
   LSUBROT=      F    optimize rotation matrix (better conditioning)
   TURBO    =      0    0=normal 1=particle mesh
   IRESTART =      0    0=no restart 2=restart with 2 vectors
   NREBOOT  =      0    no. of reboots
   NMIN     =      0    reboot dimension
   EREF     =   0.00    reference energy to select bands
   IMIX   =      4    mixing-type and parameters
     AMIX     =   0.40;   BMIX     =  1.00
     AMIX_MAG =   1.60;   BMIX_MAG =  1.00
     AMIN     =   0.10
     WC   =   100.;   INIMIX=   1;  MIXPRE=   1;  MAXMIX= -45

 Intra band minimization:
   WEIMIN = 0.0000     energy-eigenvalue tresh-hold
[...]
  Fock        0.00000     0.00000     0.00000     0.00000     0.00000     0.00000
  Total      82.63244    78.01814   105.25035    -0.35363    -2.07253    -0.10519
  in kB      67.37549    63.61316    85.81731    -0.28834    -1.68987    -0.08577

 VOLUME and BASIS-vectors are now :
  energy-cutoff  :      450.00
  volume of cell :     1964.98
      direct lattice vectors                 reciprocal lattice vectors
    10.079732985  0.000000000  0.000000000     0.099208977 -0.037612667  0.000000000
     3.573298043  9.425102554  0.000000000     0.000000000  0.106099641  0.000000000
     0.000000000  0.000000000 20.683503555     0.000000000  0.000000000  0.048347708

  length of vectors
    10.079732985 10.079732985 20.683503555     0.106099641  0.106099641  0.048347708

 FORCES acting on ions
    electron-ion (+dipol)            ewald-force                    non-local-force                 convergence-correction
   0.546E+03 -.541E+02 0.546E+04   -.550E+03 0.551E+02 -.547E+04   0.312E+01 -.182E+01 0.710E+01   0.962E-01 0.826E-01 0.296E-01
   0.539E+03 0.657E+01 0.313E+04   -.543E+03 -.595E+01 -.313E+04   0.266E+01 -.922E+00 0.248E+00   0.764E-01 0.977E-01 -.116E-02
   0.715E+01 -.295E+03 -.230E+02   -.799E+01 0.296E+03 0.238E+02   0.741E+00 -.152E+01 -.591E+00   0.952E-01 0.100E+00 -.905E-01
   0.325E+01 -.529E+03 -.303E+04   -.275E+01 0.532E+03 0.303E+04   -.188E+00 -.263E+01 0.479E+00   0.268E-01 0.673E-01 0.315E-01
   -.185E+03 -.506E+03 -.561E+04   0.185E+03 0.502E+03 0.561E+04   0.677E+00 0.355E+01 0.619E+01   -.613E-01 0.167E+00 0.178E+00
   0.268E+01 -.596E+02 0.214E+04   -.139E+01 0.572E+02 -.214E+04   -.329E+00 0.902E+00 -.167E+01   -.211E-01 -.373E-01 -.101E+00
   -.396E+02 -.449E+03 -.101E+04   0.392E+02 0.450E+03 0.101E+04   0.429E+00 -.120E+01 0.708E+00   -.706E-02 -.581E-01 -.228E+00
   0.608E+02 -.749E+03 -.437E+04   -.620E+02 0.752E+03 0.437E+04   0.698E+00 -.158E+01 -.239E+01   0.494E-01 -.114E+00 -.121E-01
   0.198E+03 0.150E+03 0.482E+04   -.200E+03 -.152E+03 -.483E+04   0.212E+01 0.154E+01 0.501E+01   -.978E-02 0.278E-01 -.150E-01
   0.928E+02 -.801E+02 -.493E+04   -.934E+02 0.837E+02 0.493E+04   -.410E-01 -.338E+01 -.353E+01   0.183E-01 0.102E-02 0.322E-01
   -.132E+03 -.761E+03 0.111E+04   0.134E+03 0.765E+03 -.110E+04   -.166E+01 -.309E+01 -.176E+01   -.108E-01 -.670E-01 -.298E-01
   -.185E+02 -.434E+03 -.184E+04   0.183E+02 0.435E+03 0.183E+04   0.343E+00 -.155E+01 0.156E+01   -.100E+00 0.150E-01 -.257E+00
   0.283E+03 0.434E+03 0.431E+04   -.287E+03 -.436E+03 -.432E+04   0.394E+01 0.257E+01 0.359E+01   -.138E+00 -.828E-02 -.969E-01
   0.314E+03 0.540E+03 0.116E+04   -.315E+03 -.541E+03 -.116E+04   0.893E+00 0.109E+01 -.171E+01   -.602E-01 -.909E-01 -.110E+00
   0.550E+03 0.208E+03 -.182E+04   -.552E+03 -.209E+03 0.181E+04   0.201E+01 0.528E+00 0.233E+01   -.415E-01 -.311E-01 -.989E-01
   0.458E+03 0.252E+03 -.493E+04   -.460E+03 -.254E+03 0.494E+04   0.138E+01 0.179E+01 -.357E+01   -.134E+00 0.695E-01 0.609E-01
   0.844E+03 0.426E+02 0.347E+04   -.847E+03 -.418E+02 -.347E+04   0.284E+01 -.887E+00 0.248E+01   0.269E-01 0.352E-01 -.230E-01
   0.456E+03 0.230E+03 0.605E+02   -.457E+03 -.230E+03 -.596E+02   0.155E+01 0.301E-01 -.569E+00   0.388E-01 0.519E-01 -.185E+00
   0.402E+03 0.587E+02 -.281E+04   -.405E+03 -.592E+02 0.281E+04   0.238E+01 0.830E+00 0.663E+00   0.147E+00 0.148E-01 -.156E-01
   -.108E+03 0.411E+03 -.527E+04   0.103E+03 -.413E+03 0.527E+04   0.563E+01 0.157E+01 -.896E+00   0.176E+00 0.187E-01 0.162E+00
   0.271E+03 0.371E+03 -.425E+04   -.275E+03 -.373E+03 0.425E+04   0.250E+01 0.136E+01 -.554E-01   -.957E-01 -.377E-01 -.433E-01
   -.376E+03 -.857E+02 0.431E+04   0.377E+03 0.875E+02 -.431E+04   -.205E+00 -.213E+01 0.316E+01   0.402E-01 0.659E-02 0.359E-01
   0.239E+03 0.420E+03 0.194E+04   -.240E+03 -.422E+03 -.194E+04   0.715E+00 0.129E+01 -.185E+01   -.456E-01 -.286E-01 -.443E-01
   0.416E+03 0.374E+03 -.956E+03   -.418E+03 -.374E+03 0.956E+03   0.150E+01 0.196E+00 0.865E-01   -.885E-01 0.341E-01 -.235E+00
   -.749E+03 0.921E+02 -.403E+04   0.754E+03 -.931E+02 0.403E+04   -.441E+01 0.117E+01 -.121E+01   0.302E-01 0.720E-01 -.415E-01
   -.398E+03 0.872E+03 0.528E+04   0.394E+03 -.873E+03 -.528E+04   0.393E+01 -.388E+00 -.102E+01   0.956E-01 0.471E-01 -.932E-01
   -.416E+03 0.543E+03 0.241E+04   0.420E+03 -.545E+03 -.240E+04   -.379E+01 0.254E+01 -.294E+00   0.167E+00 -.204E-01 -.108E+00
   -.426E+03 0.125E+03 -.749E+03   0.426E+03 -.125E+03 0.746E+03   -.323E+00 -.671E+00 0.290E+01   0.468E-01 0.209E-01 -.221E+00
   -.579E+03 -.496E+03 0.431E+04   0.584E+03 0.501E+03 -.431E+04   -.409E+01 -.290E+01 0.271E+01   -.115E-01 0.335E-01 0.941E-02
   -.431E+03 -.794E+02 0.996E+03   0.431E+03 0.803E+02 -.995E+03   -.153E+00 -.728E+00 -.411E+00   0.174E-01 -.295E-01 -.145E+00
   -.291E+03 0.836E+02 -.183E+04   0.293E+03 -.845E+02 0.183E+04   -.186E+01 0.123E+01 0.264E+01   0.480E-02 -.233E-01 -.933E-01
   -.198E+03 0.328E+03 -.498E+04   0.200E+03 -.330E+03 0.497E+04   -.585E+00 0.110E+01 0.209E+01   -.148E+00 -.175E-01 0.871E-01
   -.652E+03 -.260E+02 0.348E+04   0.657E+03 0.248E+02 -.348E+04   -.487E+01 0.452E+00 0.231E+01   -.169E-01 -.450E-01 -.157E-01
   -.468E+03 0.211E+03 0.834E+02   0.469E+03 -.210E+03 -.835E+02   -.867E+00 -.786E+00 0.199E+00   -.696E-01 0.120E-01 -.213E+00
   -.374E+03 0.444E+03 -.328E+04   0.378E+03 -.447E+03 0.328E+04   -.448E+01 0.270E+01 -.162E+01   0.951E-01 -.413E-01 -.498E-01
   -.220E+03 -.992E+03 0.512E+04   0.222E+03 0.997E+03 -.513E+04   -.199E+01 -.338E+01 0.339E+01   -.100E+00 -.243E-01 -.690E-01
   -.114E+03 0.909E+02 -.206E+04   0.115E+03 -.918E+02 0.206E+04   -.493E+00 0.662E+00 -.201E+01   0.553E-02 -.690E-02 0.888E-01
   -.432E+02 0.495E+03 0.165E+04   0.436E+02 -.500E+03 -.166E+04   -.619E+00 0.297E+01 0.185E+01   0.915E-02 -.276E-01 -.492E-01
   0.177E+02 0.114E+03 0.434E+03   -.183E+02 -.115E+03 -.436E+03   0.559E+00 0.118E+01 0.168E+01   0.203E-01 -.444E-01 -.554E-01
   0.851E+01 0.131E+03 -.729E+03   -.949E+01 -.133E+03 0.724E+03   0.623E+00 0.157E+01 0.170E+01   -.304E-01 -.284E-02 -.992E-01
   0.356E+03 -.189E+03 0.225E+04   -.359E+03 0.191E+03 -.225E+04   0.700E+00 -.118E+01 0.162E+01   -.818E-02 0.503E-01 0.300E-03
   0.143E+03 0.387E+02 0.901E+03   -.144E+03 -.393E+02 -.898E+03   -.353E+00 0.476E+00 -.779E+00   0.177E-01 0.397E-01 0.551E-02
   0.304E+02 0.120E+03 -.918E+02   -.307E+02 -.122E+03 0.909E+02   0.208E+00 0.211E+01 0.784E+00   0.302E-01 0.581E-01 -.360E-01
   -.618E+02 0.210E+03 -.132E+04   0.629E+02 -.212E+03 0.132E+04   -.107E+01 0.255E+00 -.130E+01   0.261E-01 0.366E-01 0.279E-01
   -.323E+02 0.120E+03 0.566E+03   0.334E+02 -.120E+03 -.564E+03   -.819E+00 0.122E+01 -.102E+01   -.330E-01 0.853E-02 -.610E-01
   -.340E+02 0.162E+03 -.434E+03   0.341E+02 -.163E+03 0.430E+03   0.312E+00 0.146E+01 0.165E+01   -.124E-01 -.261E-01 -.105E+00
   -.499E+02 0.165E+03 -.173E+04   0.499E+02 -.166E+03 0.173E+04   0.579E+00 -.204E+00 -.599E+00   0.274E-01 -.449E-01 0.125E-01
   -.254E+02 0.838E+02 0.222E+04   0.253E+02 -.852E+02 -.222E+04   -.364E+00 0.164E+01 0.393E+01   -.114E-01 -.594E-01 -.130E-01
   -.161E+02 0.158E+03 0.238E+04   0.161E+02 -.160E+03 -.238E+04   0.502E+00 0.513E+00 0.195E+01   0.578E-01 0.103E-01 -.251E-01
   -.156E+03 0.776E+02 0.923E+03   0.158E+03 -.779E+02 -.921E+03   -.159E+01 0.870E+00 -.318E+00   0.734E-01 0.714E-01 -.482E-01
   -.111E+03 -.752E+02 -.142E+03   0.114E+03 0.770E+02 0.143E+03   -.210E+01 -.171E+01 0.223E+00   0.432E-01 0.155E-01 -.506E-01
   -.249E+03 -.172E+03 -.137E+04   0.250E+03 0.173E+03 0.137E+04   -.252E+00 -.375E+00 -.135E+01   -.404E-01 0.416E-01 0.591E-02
   -.106E+03 -.469E+02 0.202E+04   0.107E+03 0.482E+02 -.203E+04   0.250E+00 -.101E+01 0.203E+01   -.333E-01 -.255E-01 -.142E-01
   -.167E+03 -.981E+02 0.650E+03   0.169E+03 0.997E+02 -.651E+03   -.195E+01 -.199E+01 0.160E+01   -.532E-01 -.429E-01 -.500E-01
   -.102E+03 -.163E+03 -.540E+03   0.103E+03 0.166E+03 0.540E+03   -.161E+01 -.224E+01 -.333E+00   -.154E-01 -.418E-01 -.594E-01
   -.222E+02 -.183E+03 -.179E+04   0.236E+02 0.182E+03 0.179E+04   -.478E+00 0.472E+00 -.651E+00   -.583E-01 -.610E-01 0.567E-02
   -.128E+03 -.140E+03 0.261E+03   0.130E+03 0.142E+03 -.261E+03   -.120E+01 -.184E+01 0.127E+01   -.924E-02 0.205E-01 -.814E-01
   -.152E+03 -.606E+02 -.846E+03   0.155E+03 0.630E+02 0.844E+03   -.158E+01 -.239E+01 -.412E+00   0.509E-01 0.148E-01 -.672E-01
   0.338E+02 0.228E+03 -.216E+04   -.334E+02 -.230E+03 0.217E+04   -.175E+00 0.705E+00 -.185E+01   0.743E-01 -.240E-01 0.999E-01
   -.111E+03 -.330E+03 0.156E+04   0.111E+03 0.333E+03 -.156E+04   0.757E+00 -.100E+01 0.839E+00   0.585E-01 0.848E-02 0.110E-01
   0.180E+03 -.708E+02 0.185E+04   -.182E+03 0.712E+02 -.185E+04   0.103E+01 0.255E+00 0.323E+01   -.457E-01 0.127E-01 -.157E-01
   0.137E+03 -.782E+02 0.478E+03   -.139E+03 0.801E+02 -.476E+03   0.217E+01 -.977E+00 0.123E+01   -.449E-01 0.255E-01 -.469E-01
   0.168E+03 -.387E+02 -.623E+03   -.170E+03 0.398E+02 0.625E+03   0.229E+01 -.704E+00 -.178E+01   0.456E-02 -.924E-02 -.819E-02
   0.425E+03 -.150E+03 -.181E+04   -.431E+03 0.153E+03 0.181E+04   0.309E+01 -.177E+01 -.126E+01   -.451E-02 0.460E-01 0.444E-01
   0.170E+03 -.700E+02 0.191E+03   -.172E+03 0.709E+02 -.190E+03   0.251E+01 -.106E+01 -.259E+00   0.218E-01 -.675E-02 -.784E-01
   0.909E+02 -.103E+03 -.105E+04   -.938E+02 0.104E+03 0.105E+04   0.298E+01 -.153E+01 -.723E+00   0.572E-01 -.187E-01 -.775E-01
   0.406E+02 -.213E+03 -.221E+04   -.421E+02 0.215E+03 0.221E+04   0.391E+00 -.379E+00 -.153E+01   0.436E-01 -.276E-01 0.526E-01
   0.294E+03 0.877E+02 0.155E+04   -.298E+03 -.873E+02 -.155E+04   0.104E+01 -.297E+00 0.198E+01   0.373E-01 -.860E-02 -.173E-01
   -.405E+03 -.326E+03 0.205E+04   0.408E+03 0.329E+03 -.206E+04   -.897E+00 -.186E+01 0.314E+01   0.141E-01 -.129E-02 0.108E-01
   0.580E+02 -.357E+03 0.784E+03   -.595E+02 0.361E+03 -.783E+03   0.525E+00 -.234E+01 -.769E+00   -.538E-01 -.425E-01 0.957E-03
   0.134E+03 -.769E+02 -.230E+03   -.137E+03 0.777E+02 0.231E+03   0.272E+01 -.106E+01 -.577E+00   -.327E-01 0.107E-02 -.796E-01
   0.155E+03 0.734E+02 -.149E+04   -.158E+03 -.729E+02 0.149E+04   0.157E+01 -.855E+00 -.267E+01   -.110E+00 0.206E-01 -.178E-01
   -.195E+02 0.134E+02 -.345E+02   0.341E-12 -.171E-12 -.682E-11   0.195E+02 -.136E+02 0.372E+02   0.164E+00 0.260E+00 -.280E+01

 POSITION                                       TOTAL-FORCE (eV/Angst)
      6.87252      9.40647      1.16076        -0.991015     -0.766183     -1.095121
      6.84285      7.49250      2.62550        -1.553263     -0.210188      2.514950
      7.82056      6.07621      5.25100        -0.009267     -0.153023      0.156523
      8.79827      4.65991      7.87651         0.334546      0.408005     -0.188123
      9.56684      3.24203     10.02875         0.399683      0.098463      1.433441
      2.61774      3.87870      3.50067         0.936702     -1.482141      3.226372
      3.59545      2.46241      6.12617        -0.040498     -0.366318     -0.174408
      4.57317      1.04611      8.75167        -0.462214      1.345007     -0.819585
     12.04825      5.58945      2.15626        -0.527551     -0.377563     -0.896757
      3.79769      7.33289      9.34118        -0.642806      0.166563      0.645122
      8.47237      0.26490      4.37584         0.723100      0.187761      2.054019
     13.02338      8.27371      7.00134         0.057690     -0.388882     -0.302249
      5.52829      5.18066      2.35937         0.089044     -0.126486     -1.161465
      6.61816      3.96023      4.55733        -0.300989      0.184097      1.469426
      7.59587      2.54394      7.18283         0.223319     -0.410977     -1.566839
      8.39710      1.14573      9.48279        -0.693485      0.250897      1.066506
      1.41534      1.76273      2.80700        -0.445076     -0.068231      1.906134
      2.39305      0.34643      5.43250        -0.069779     -0.087400      0.099244
      6.94406      8.35524      8.05800        -0.721454      0.349077     -2.700181
      7.04711      6.87371      9.87151         0.922132     -0.423189      0.940289
      2.65755      4.79918      8.65412        -1.075839     -0.396734      1.317223
      9.04768      8.41866      2.11634         1.226519     -0.277213     -0.467879
     10.84326      7.57403      3.68216         0.189148     -1.255557      0.867225
     11.82097      6.15773      6.30767        -0.129316      0.080000      0.008218
      0.83980      1.55380      8.80518         0.789745      0.217166      0.679260
      8.01834      5.66581      1.65076         0.204322     -0.747094     -1.201875
      9.02296      4.33443      3.86366         0.428234      0.054171      0.650030
     10.00068      2.91813      6.48916         0.080747     -0.013755     -0.177077
      3.82015      2.13692      2.11332         0.953927      1.367911      1.742937
      4.79786      0.72063      4.73883        -0.580805      0.166641      0.883824
      9.34887      8.72943      7.36433        -0.300754      0.336321     -1.490099
     10.31631      7.70032      9.35050         0.360488     -0.774151      1.049548
      3.16834      7.94822      2.98849         0.675996     -0.836964      0.739601
      4.14605      6.53193      5.61399         0.259204      0.117976     -0.050377
      5.12376      5.11563      8.23950        -0.082608      0.176299     -1.864966
     11.37844      9.41609      2.01049        -0.652684      1.092297     -1.206061
      3.58022      9.37271      9.91376         0.637028     -0.207312      1.934985
      7.31370      4.01211      2.62100        -0.212343     -2.664586     -2.562555
      8.33317      2.41029      5.05057         0.020754     -0.197018      0.004909
      9.31088      0.99399      7.67607        -0.393611     -0.737342     -3.410311
      2.20430      1.70570      0.92429        -1.662925      0.592930     -3.656901
      3.13035      0.21279      3.30024        -0.806202     -0.056378      1.751722
      7.68136      8.22159      5.92574        -0.049131     -0.250305     -0.144156
      8.65907      6.80530      8.55124         0.092695     -1.520689     -0.291915
      2.47854      6.02409      4.17540         0.272089      0.409886      1.357035
      3.45626      4.60779      6.80091         0.460317      0.292423     -2.734825
      4.19398      3.32324      8.90794         0.534074     -0.858872      2.148408
     11.58056      7.44039      1.54990        -0.533264      0.161759     -2.405219
      7.71825      7.51862      0.73610         0.488850     -0.851317     -3.777382
      8.88655      6.52099      3.30837         0.702985      0.604014      1.793505
      9.86427      5.10469      5.93387         0.167966      0.090523      0.266447
     10.84198      3.68840      8.55937         1.314885      0.997578     -0.432183
      3.67857      4.29680      1.77930         1.206554      0.258668     -2.669887
      4.66145      2.90719      4.18354         0.092113     -0.428285      0.319339
      5.63916      1.49089      6.80904        -0.272135      0.119648     -0.836237
      6.49173      0.28595      9.14215         0.898898      0.044264      1.898000
      4.00964      8.71849      5.05870         0.323389     -0.251906      0.819417
      4.98735      7.30220      7.68420         0.959589      0.118256     -1.986036
      5.21775      6.01732     10.08838         0.293396     -0.632503      3.389226
      9.67985      0.61065      2.66768         0.575938      1.668096     -1.576496
      4.85488      7.15424      1.96512        -0.953175      0.684735     -1.896289
      5.82436      6.04450      4.19167         0.457656      0.899510      2.905372
      6.80207      4.62821      6.81717        -0.045206      0.456711     -0.583604
      7.78512      3.19808      9.12522        -2.315631      0.945874      2.377544
      1.59925      2.43070      5.06683         0.192534     -0.155309      0.263306
      2.57697      1.01441      7.69234         0.147581     -0.065427     -0.549584
      7.39546      8.91685      9.95605        -1.043699      0.885173      3.491893
     10.78267      3.86303      2.69552        -2.053988      0.066809     -1.518540
      5.17202      0.84625      1.15745         2.510283      1.365995     -2.004258
      6.48724      0.14358      3.62716        -1.009272      1.307804      0.242616
     11.02718      8.24201      5.94200         0.273132     -0.255608      0.232782
     12.00489      6.82571      8.56750        -0.847266     -0.274399     -0.246959
    total drift:                                0.142913      0.076738     -0.060842

  FREE ENERGIE OF THE ION-ELECTRON SYSTEM (eV)
  free  energy   TOTEN  =      -352.19119523 eV

  energy  without entropy=     -351.19895174  energy(sigma->0) =     -351.69507348