 vasp.5.4.4.18Apr17-6-g9f103f2a35 (build Aug 13 2019 17:33:20) gamma-only

 executed on             LinuxIFC date 2020.05.12  14:33:07

 INCAR:
 POTCAR:    PAW_PBE Ni_pv 06Sep2000
 POTCAR:    PAW_PBE S 06Sep2000
 POTCAR:    PAW_PBE Ni_pv 06Sep2000
   VRHFIN =Ni:

   TITEL  = PAW_PBE Ni_pv 06Sep2000
   POMASS =   58.690; ZVAL   =   16.000    mass and valenz
   ENMAX  =  367.986; ENMIN  =  275.989 eV

 POTCAR:    PAW_PBE S 06Sep2000
   VRHFIN =S : s2p4

   TITEL  = PAW_PBE S 06Sep2000
   POMASS =   32.066; ZVAL   =    6.000    mass and valenz
   ENMAX  =  258.689; ENMIN  =  194.016 eV

 Optimization of the real space projectors (new method)

 maximal supplied QI-value         = 18.90
 optimisation between [QCUT,QGAM] = [ 10.77, 21.73] = [ 32.49,132.25] Ry
 Optimized for a Real-space Cutoff    1.38 Angstroem

   l    n(q)    QCUT    max X(q) W(low)/X(q) W(high)/X(q)  e(spline)
   1      8    10.771     2.836    0.40E-04    0.29E-04    0.12E-06
   1      8    10.771     4.023    0.10E-03    0.48E-04    0.29E-06
   2      8    10.771    73.368    0.42E-03    0.97E-04    0.44E-06
   2      8    10.771    69.010    0.42E-03    0.99E-04    0.45E-06
   0      9    10.771    54.797    0.10E-03    0.56E-04    0.74E-07
   0      9    10.771    24.266    0.89E-04    0.49E-04    0.67E-07
 Optimization of the real space projectors (new method)

 maximal supplied QI-value         = 19.84
 optimisation between [QCUT,QGAM] = [ 10.71, 21.63] = [ 32.15,130.99] Ry
 Optimized for a Real-space Cutoff    1.19 Angstroem

   l    n(q)    QCUT    max X(q) W(low)/X(q) W(high)/X(q)  e(spline)
   0      8    10.715   187.594    0.41E-03    0.53E-04    0.66E-07
   0      8    10.715   164.243    0.41E-03    0.53E-04    0.65E-07
   1      7    10.715    67.533    0.19E-03    0.59E-03    0.68E-07
   1      7    10.715    50.729    0.19E-03    0.58E-03    0.67E-07
  PAW_PBE Ni_pv 06Sep2000               :
  PAW_PBE S 06Sep2000                   :

 POSCAR: Type_036 Type_136
  positions in cartesian coordinates
 exchange correlation table for  LEXCH =        8
   RHO(1)=    0.500       N(1)  =     2000
   RHO(2)=  100.500       N(2)  =     4000

 ion  position               nearest neighbor table
   1  0.374  0.751  0.095-  62 2.05  50 2.07  41 2.25  14 2.28  63 2.36  51 2.36  33 2.47
   2  0.525  0.601  0.223-  42 2.25  51 2.26  63 2.26  64 2.36  52 2.36  15 2.53  27 2.53
   3  0.675  0.451  0.351-  43 2.25  64 2.26  52 2.26  65 2.36  53 2.36   4 2.48  28 2.53  16 2.53

   4  0.742  0.351  0.462-  66 2.04  65 2.06  53 2.09  44 2.10   3 2.48
   5  0.573  0.211  0.080-  46 2.05  54 2.13  47 2.14  69 2.17   6 2.39  34 2.49
   6  0.758  0.035  0.138-  69 2.08  54 2.11  47 2.25  55 2.36  70 2.36   5 2.39  29 2.43  20 2.53

[...]

  11  0.414  0.040  0.421-  72 2.03  60 2.03  38 2.08
  12  0.939  0.622  0.104-  58 2.03  61 2.08  39 2.10  70 2.15  20 2.41  26 2.50
  13  0.010  0.116  0.412-  66 2.05  38 2.12  56 2.25  65 2.26  37 2.26  25 2.49
  14  0.568  0.586  0.049-  39 2.04  62 2.09  63 2.13  50 2.20   1 2.28
  15  0.709  0.416  0.155-  54 2.10  39 2.26  63 2.26  40 2.36  64 2.36  27 2.53   2 2.53
  16  0.860  0.266  0.283-  55 2.25  64 2.26  40 2.26  37 2.36  65 2.36   3 2.53  28 2.53
  17  0.093  0.700  0.198-  58 2.25  41 2.26  70 2.26  42 2.36  67 2.36  30 2.53   8 2.53
  18  0.243  0.549  0.326-  68 2.15  59 2.25  67 2.26  42 2.26  43 2.36   7 2.53  31 2.53
  19  0.366  0.410  0.432-  43 2.07  60 2.09  44 2.11  68 2.11  32 2.41
  20  0.943  0.850  0.070-  45 2.01  61 2.04  70 2.36  41 2.36  12 2.41  33 2.48  29 2.50   6 2.53
                            69 2.60
  21  0.481  0.006  0.098-  47 2.11  46 2.13  69 2.14  50 2.20  26 2.42  51 2.49
  22  0.476  0.983  0.241-  51 2.25  71 2.26  47 2.26  48 2.36  72 2.36  35 2.53  10 2.53
  23  0.608  0.844  0.351-  72 2.02  48 2.05  49 2.06  52 2.13  24 2.39
  24  0.836  0.689  0.386-  49 2.08  53 2.13  28 2.34  23 2.39  67 2.43   7 2.44  52 2.52
  25  0.038  0.347  0.435-  37 2.07  66 2.09  53 2.12  38 2.18  68 2.30  13 2.49
  26  0.690  0.793  0.095-  50 2.11  69 2.15  39 2.18  51 2.25  70 2.33  27 2.41  21 2.42  12 2.50

[...]

  29  0.987  0.056  0.120-  45 2.01  55 2.06  41 2.17  54 2.26   6 2.43  20 2.50
  30  0.133  0.924  0.232-  71 2.25  55 2.26  41 2.26  56 2.36  42 2.36   8 2.53  17 2.53
  31  0.283  0.774  0.360-  57 2.06  72 2.25  56 2.26  42 2.26  43 2.36   7 2.53  18 2.53
  32  0.399  0.619  0.476-  57 2.03  43 2.03  44 2.05  19 2.41
  33  0.182  0.661  0.069-  58 2.05  61 2.07  62 2.08  41 2.14   1 2.47  20 2.48
  34  0.366  0.358  0.147-  46 2.06  63 2.25  58 2.26  47 2.36  59 2.36   5 2.49
  35  0.516  0.207  0.275-  64 2.25  59 2.26  47 2.26  48 2.36  60 2.36  10 2.53  22 2.53
  36  0.654  0.073  0.389-  48 2.06  49 2.08  60 2.08  65 2.18
  37  0.064  0.262  0.341-  25 2.07   9 2.21  10 2.25  13 2.26  16 2.36  28 2.36  38 2.60
  38  0.201  0.137  0.445-  11 2.08  13 2.12  25 2.18  37 2.60  66 2.63
  39  0.763  0.563  0.085-  14 2.04  12 2.10  26 2.18  15 2.26  27 2.26
  40  0.914  0.412  0.213-   9 2.02  16 2.26  28 2.26  27 2.36  15 2.36
  41  0.147  0.846  0.128-  33 2.14  29 2.17   1 2.25  17 2.26  30 2.26  20 2.36
  42  0.297  0.696  0.256-   2 2.25  31 2.26  18 2.26  30 2.36  17 2.36
  43  0.447  0.545  0.384-  32 2.03  19 2.07   3 2.25  31 2.36  18 2.36  44 2.61
  44  0.531  0.414  0.494-  32 2.05   4 2.10  19 2.11  43 2.61
  45  0.974  0.013  0.025-  29 2.01  20 2.01
  46  0.367  0.221  0.072-   5 2.05  34 2.06  21 2.13  47 2.57
  47  0.530  0.129  0.171-  21 2.11   5 2.14   6 2.25  22 2.26  35 2.26  34 2.36  46 2.57
  48  0.680  0.979  0.299-  23 2.05  36 2.06   8 2.25  35 2.36  22 2.36
  49  0.712  0.874  0.433-  23 2.06  24 2.08  36 2.08
  50  0.509  0.817  0.038-   1 2.07  26 2.11  14 2.20  21 2.20  51 2.75  62 2.77
  51  0.528  0.798  0.171-  26 2.25  22 2.25  27 2.26   2 2.26   1 2.36  21 2.49  50 2.75
  52  0.678  0.648  0.299-  23 2.13  28 2.26   3 2.26  27 2.36   2 2.36  24 2.52
  53  0.829  0.497  0.427-   4 2.09  25 2.12  24 2.13  28 2.36   3 2.36
  54  0.773  0.226  0.103-  15 2.10   6 2.11   5 2.13  29 2.26
  55  0.911  0.081  0.214-  29 2.06  16 2.25   8 2.26  30 2.26   6 2.36
  56  0.062  0.931  0.342-  13 2.25  31 2.26   7 2.26  30 2.36   8 2.36
  57  0.209  0.767  0.453-  32 2.03   7 2.05  31 2.06
  58  0.145  0.515  0.129-  12 2.03  33 2.05  17 2.25  34 2.26
  59  0.295  0.364  0.257-   9 2.21  18 2.25  10 2.26  35 2.26  34 2.36
  60  0.445  0.214  0.385-  11 2.03  36 2.08  19 2.09  35 2.36  10 2.36
  61  0.007  0.670  0.014-  20 2.04  33 2.07  12 2.08
  62  0.361  0.637  0.014-   1 2.05  33 2.08  14 2.09  63 2.72  50 2.77
  63  0.477  0.512  0.128-  14 2.13  34 2.25  15 2.26   2 2.26   1 2.36  62 2.72
  64  0.628  0.362  0.256-  35 2.25   3 2.26  16 2.26   2 2.36  15 2.36
  65  0.778  0.212  0.384-   4 2.06  36 2.18  13 2.26  16 2.36   3 2.36
  66  0.942  0.238  0.494-   4 2.04  13 2.05  25 2.09  38 2.63
  67  0.011  0.645  0.299-  28 2.25   7 2.26  18 2.26   8 2.36  17 2.36  24 2.43
  68  0.147  0.507  0.413-  19 2.11  18 2.15   7 2.17  25 2.30
  69  0.675  0.992  0.051-   6 2.08  21 2.14  26 2.15   5 2.17  20 2.60
  70  0.861  0.795  0.171-  12 2.15  27 2.25  17 2.26   8 2.26  26 2.33   6 2.36  20 2.36
  71  0.244  0.079  0.214-   9 2.16  30 2.25  22 2.26  10 2.26
  72  0.395  0.928  0.342-  23 2.02  11 2.03  31 2.25  10 2.36  22 2.36

  LATTYP: Found a base centered orthorhombic cell.
 ALAT       =    11.4527836704
 B/A-ratio  =     1.4485816945
 C/A-ratio  =     1.7908432109

  Lattice vectors:

 A1 = (  10.0797329849,   0.0000000000,   0.0000000000)
 A2 = (  -3.5732980427,  -9.4251025535,   0.0000000000)
 A3 = (   0.0000000000,   0.0000000000, -20.5101398818)

Analysis of symmetry for initial positions (statically):
 Subroutine PRICEL returns:
 Original cell was already a primitive cell.

 Routine SETGRP: Setting up the symmetry group for a
 base centered orthorhombic supercell.

 Subroutine GETGRP returns: Found  1 space group operations
 (whereof  1 operations were pure point group operations)
 out of a pool of  8 trial point group operations.

The static configuration has the point symmetry C_1 .

Analysis of symmetry for dynamics (positions and initial velocities):
 Subroutine PRICEL returns:
 Original cell was already a primitive cell.

 Routine SETGRP: Setting up the symmetry group for a
 base centered orthorhombic supercell.

 Subroutine GETGRP returns: Found  1 space group operations
 (whereof  1 operations were pure point group operations)
 out of a pool of  8 trial point group operations.

The dynamic configuration has the point symmetry C_1 .

 Subroutine INISYM returns: Found  1 space group operations
 (whereof  1 operations are pure point group operations),
 and found     1 'primitive' translations

 KPOINTS: gamma-point-only calculation. no periodi

Automatic generation of k-mesh.
Space group operators:
 irot       det(A)        alpha          n_x          n_y          n_z        tau_x        tau_y        tau_z
    1     1.000000     0.000000     1.000000     0.000000     0.000000     0.000000     0.000000     0.000000

 Subroutine IBZKPT returns following result:

 Found      1 irreducible k-points:

 Following reciprocal coordinates:
            Coordinates               Weight
  0.000000  0.000000  0.000000      1.000000

 Following cartesian coordinates:
            Coordinates               Weight
  0.000000  0.000000  0.000000      1.000000

 SYSTEM =  "Millerite NiS"
 POSCAR =  Type_036 Type_136

 Startparameter for this run:
   NWRITE =      2    write-flag & timer
   PREC   = normal    normal or accurate (medium, high low for compatibility)
   ISTART =      0    job   : 0-new  1-cont  2-samecut
   ICHARG =      2    charge: 1-file 2-atom 10-const
   ISPIN  =      1    spin polarized calculation?
   LNONCOLLINEAR =      F non collinear calculations
   LSORBIT =      F    spin-orbit coupling
   INIWAV =      1    electr: 0-lowe 1-rand  2-diag
   LASPH  =      F    aspherical Exc in radial PAW
   METAGGA=      F    non-selfconsistent MetaGGA calc.

 Electronic Relaxation 1
   ENCUT  =  450.0 eV  33.07 Ry    5.75 a.u.  17.43 17.43 35.48*2*pi/ulx,y,z
   ENINI  =  450.0     initial cutoff
   ENAUG  =  703.4 eV  augmentation charge cutoff
   NELM   =    100;   NELMIN=  2; NELMDL= -5     # of ELM steps
   EDIFF  = 0.1E-03   stopping-criterion for ELM
   LREAL  =      T    real-space projection
   NLSPLINE    = F    spline interpolate recip. space projectors
   LCOMPAT=      F    compatible to vasp.4.4
   GGA_COMPAT  = T    GGA compatible to vasp.4.4-vasp.4.6
   LMAXPAW     = -100 max onsite density
   LMAXMIX     =    2 max onsite mixed and CHGCAR
   VOSKOWN=      0    Vosko Wilk Nusair interpolation
   ROPT   =   -0.00050  -0.00050
 Ionic relaxation
   EDIFFG = 0.1E-02   stopping-criterion for IOM
   NSW    =      0    number of steps for IOM
   NBLOCK =      1;   KBLOCK =      1    inner block; outer block
   IBRION =     -1    ionic relax: 0-MD 1-quasi-New 2-CG
   NFREE  =      0    steps in history (QN), initial steepest desc. (CG)
   ISIF   =      2    stress and relaxation
   IWAVPR =     10    prediction:  0-non 1-charg 2-wave 3-comb
   ISYM   =      2    0-nonsym 1-usesym 2-fastsym
[...]
  Fock        0.00000     0.00000     0.00000     0.00000     0.00000     0.00000
  Total      94.12827    95.99208   107.97012    -2.54800    -0.46457     6.85288
  in kB      77.39750    78.93003    88.77904    -2.09511    -0.38200     5.63482

 VOLUME and BASIS-vectors are now :
  energy-cutoff  :      450.00
  volume of cell :     1948.51
      direct lattice vectors                 reciprocal lattice vectors
    10.079732985  0.000000000  0.000000000     0.099208977 -0.037612667  0.000000000
     3.573298043  9.425102554  0.000000000     0.000000000  0.106099641  0.000000000
     0.000000000  0.000000000 20.510139882     0.000000000  0.000000000  0.048756372

  length of vectors
    10.079732985 10.079732985 20.510139882     0.106099641  0.106099641  0.048756372

 FORCES acting on ions
    electron-ion (+dipol)            ewald-force                    non-local-force                 convergence-correction
   0.294E+03 -.668E+03 0.365E+04   -.296E+03 0.673E+03 -.364E+04   0.914E+00 -.394E+01 -.268E+00   0.205E+00 0.735E-01 -.177E-02
   0.530E+03 -.705E+02 0.404E+03   -.532E+03 0.703E+02 -.403E+03   0.159E+01 0.661E-01 -.359E+00   0.140E+00 -.692E-02 -.150E+00
   0.511E+03 -.206E+03 -.252E+04   -.512E+03 0.207E+03 0.252E+04   0.119E+01 -.805E+00 0.485E+00   0.674E-02 -.294E-01 -.217E+00
   0.239E+03 0.821E+02 -.522E+04   -.244E+03 -.824E+02 0.522E+04   0.421E+01 0.942E+00 -.406E+01   -.499E-01 0.478E-02 0.821E-01
   -.296E+02 -.662E+03 0.489E+04   0.309E+02 0.666E+03 -.490E+04   -.443E+00 -.367E+01 0.489E+01   0.277E-02 -.286E-01 0.308E-01
   -.687E+02 -.375E+03 0.249E+04   0.705E+02 0.374E+03 -.249E+04   -.121E+01 -.427E+00 -.744E+00   -.661E-01 0.795E-01 0.474E-01
   0.309E+03 -.491E+03 -.416E+04   -.311E+03 0.491E+03 0.417E+04   0.187E+01 -.675E+00 -.208E+01   0.502E-01 0.267E-01 0.383E-01
   0.231E+03 -.295E+03 -.779E+03   -.231E+03 0.296E+03 0.780E+03   0.408E-02 -.148E+01 -.120E+01   -.129E+00 0.286E+00 0.339E-01
   0.127E+02 -.186E+02 0.128E+04   -.106E+02 0.186E+02 -.129E+04   -.161E+01 0.232E+00 0.379E+01   -.348E-01 -.159E+00 -.340E-01
   0.254E+03 0.381E+02 -.156E+04   -.253E+03 -.391E+02 0.156E+04   -.390E+00 0.218E+00 0.132E+01   0.638E-01 -.729E-01 -.170E+00
   0.166E+03 0.264E+03 -.496E+04   -.168E+03 -.263E+03 0.496E+04   0.224E+01 -.213E+01 0.127E+01   -.102E-01 0.388E-02 -.749E-01
   -.223E+02 0.129E+04 0.396E+04   0.210E+02 -.129E+04 -.396E+04   0.682E+00 0.427E+01 0.417E+01   -.343E+00 -.108E+00 -.157E+00
   0.172E+03 0.830E+03 -.401E+04   -.175E+03 -.836E+03 0.401E+04   0.136E+01 0.541E+01 -.841E+00   -.118E-02 -.597E-01 -.107E+00
   -.184E+03 0.722E+03 0.535E+04   0.184E+03 -.725E+03 -.535E+04   -.393E+00 0.201E+01 0.639E+00   0.331E-01 0.635E-01 0.651E-01
   -.247E+03 0.659E+03 0.277E+04   0.246E+03 -.661E+03 -.277E+04   0.190E+00 0.254E+01 0.596E+00   0.489E-02 0.570E-01 0.429E-01
   0.105E+03 0.575E+03 -.469E+03   -.107E+03 -.575E+03 0.468E+03   0.172E+01 -.148E+00 0.140E+01   -.216E-01 -.224E-01 -.216E+00
   -.250E+03 0.566E+03 0.118E+04   0.253E+03 -.568E+03 -.118E+04   -.185E+01 0.132E+01 -.112E+01   0.412E-01 0.927E-01 0.902E-02
   -.997E+02 0.348E+03 -.145E+04   0.999E+02 -.350E+03 0.145E+04   -.547E-01 0.197E+01 0.216E+01   0.764E-01 -.112E+00 -.235E-01
   0.258E+03 0.487E+03 -.454E+04   -.261E+03 -.490E+03 0.454E+04   0.250E+01 0.298E+01 -.307E+00   -.188E-02 -.683E-01 -.327E-01
   -.167E+03 -.298E+03 0.495E+04   0.166E+03 0.300E+03 -.496E+04   -.150E+00 -.143E+01 0.653E+01   -.918E-01 0.151E+00 -.163E+00
   0.108E+04 -.460E+03 0.406E+04   -.109E+04 0.462E+03 -.407E+04   0.413E+01 -.271E+01 0.438E+01   -.355E-01 -.108E+00 0.321E-01
   0.294E+03 0.235E+03 0.537E+03   -.296E+03 -.236E+03 -.538E+03   0.187E+01 0.885E+00 0.539E+00   -.150E-01 0.352E-01 -.873E-01
   0.278E+03 0.294E+03 -.274E+04   -.280E+03 -.298E+03 0.274E+04   0.993E+00 0.368E+01 -.455E+00   -.556E-01 0.754E-01 -.155E+00
   -.335E+02 -.302E+03 -.401E+04   0.351E+02 0.305E+03 0.401E+04   -.106E+01 -.232E+01 -.366E+01   -.867E-01 0.692E-02 -.303E-01
   -.501E+03 -.227E+03 -.479E+04   0.505E+03 0.232E+03 0.479E+04   -.219E+01 -.416E+01 -.414E+01   0.337E-01 0.281E-01 -.360E-01
   0.113E+03 -.145E+02 0.427E+04   -.113E+03 0.149E+02 -.427E+04   0.348E+00 -.338E+00 0.318E+01   -.183E+00 -.118E-01 0.259E-01
   -.193E+03 0.174E+03 0.118E+04   0.192E+03 -.175E+03 -.118E+04   0.139E+01 0.118E+01 -.277E+01   -.244E+00 -.242E-01 -.902E-01
   -.320E+03 -.385E+02 -.143E+04   0.320E+03 0.384E+02 0.143E+04   0.551E+00 -.526E+00 0.130E+01   -.753E-01 -.598E-01 -.188E+00
   -.108E+04 -.991E+03 0.364E+04   0.108E+04 0.992E+03 -.364E+04   -.400E+00 -.855E+00 0.277E+01   0.724E-01 0.152E+00 0.113E-01
   -.601E+03 -.391E+03 0.465E+03   0.604E+03 0.393E+03 -.464E+03   -.264E+01 -.194E+01 -.111E+01   0.197E+00 0.310E+00 0.412E-03
   -.477E+03 -.427E+03 -.274E+04   0.479E+03 0.429E+03 0.274E+04   -.104E+01 -.211E+01 0.544E+00   0.847E-01 0.967E-01 -.700E-01
   -.336E+03 -.606E+03 -.535E+04   0.333E+03 0.605E+03 0.536E+04   0.320E+01 0.137E+01 -.233E+00   0.711E-02 0.107E+00 0.143E+00
   -.243E+03 0.570E+03 0.474E+04   0.245E+03 -.575E+03 -.474E+04   -.773E+00 0.511E+01 0.502E+01   0.179E+00 -.341E-01 -.276E+00
   0.507E+03 -.137E+03 0.277E+04   -.510E+03 0.139E+03 -.277E+04   0.219E+01 -.145E+01 0.106E+01   0.788E-01 -.133E+00 0.282E-01
   -.353E+03 -.368E+03 -.466E+03   0.354E+03 0.370E+03 0.467E+03   -.529E+00 -.171E+01 -.164E+00   -.298E-01 -.680E-01 -.110E+00
   -.502E+03 -.363E+02 -.396E+04   0.507E+03 0.382E+02 0.397E+04   -.410E+01 -.966E+00 -.263E+01   -.536E-01 0.118E-01 -.129E+00
   -.715E+02 0.135E+03 -.790E+03   0.721E+02 -.135E+03 0.790E+03   -.945E+00 0.601E+00 -.171E+01   0.197E-01 -.230E-01 -.122E+00
   -.100E+03 0.163E+03 -.193E+04   0.101E+03 -.164E+03 0.193E+04   -.455E+00 -.308E-01 -.112E+01   0.628E-01 -.467E-01 0.125E-01
   -.164E+03 0.461E+03 0.184E+04   0.166E+03 -.466E+03 -.184E+04   -.104E+01 0.264E+01 0.404E+01   -.295E-01 0.307E-02 0.328E-01
   -.135E+03 0.108E+03 0.725E+03   0.137E+03 -.109E+03 -.729E+03   -.376E+01 0.163E+01 0.271E+01   -.726E-01 -.306E-01 -.263E-01
   -.307E+03 -.222E+03 0.121E+04   0.309E+03 0.223E+03 -.121E+04   -.945E+00 -.503E+00 0.502E+00   0.125E+00 0.139E+00 -.464E-01
   -.134E+03 0.225E+02 0.629E+02   0.136E+03 -.232E+02 -.641E+02   -.154E+01 0.573E+00 0.120E+01   0.153E+00 0.287E-01 0.459E-02
   -.195E+03 -.470E+02 -.104E+04   0.197E+03 0.482E+02 0.104E+04   -.125E+01 -.397E+00 0.189E+01   0.118E-01 0.118E-01 -.479E-01
   -.225E+02 0.176E+03 -.212E+04   0.230E+02 -.178E+03 0.212E+04   -.150E+00 0.439E+00 -.133E+01   0.183E-01 -.138E-01 0.730E-01
   -.270E+03 -.350E+03 0.223E+04   0.272E+03 0.351E+03 -.223E+04   -.385E+00 -.230E+00 0.944E+00   0.272E-01 0.582E-01 -.407E-01
   0.539E+03 -.128E+03 0.192E+04   -.544E+03 0.129E+03 -.193E+04   0.188E+01 -.162E+01 0.252E+01   -.313E-01 -.365E-01 -.111E-01
   0.848E+02 -.129E+03 0.658E+03   -.831E+02 0.128E+03 -.654E+03   -.989E+00 0.169E+01 -.953E+00   -.263E-01 -.262E-01 0.426E-01
   -.188E+03 -.182E+02 -.331E+03   0.191E+03 0.179E+02 0.328E+03   -.106E+01 0.814E+00 -.280E+00   -.345E-01 0.403E-01 -.622E-01
   -.995E+02 0.314E+00 -.212E+04   0.101E+03 -.109E+01 0.213E+04   -.371E+00 0.231E+00 -.262E+01   -.154E-01 0.169E-01 0.324E-01
   0.117E+03 -.233E+03 0.220E+04   -.117E+03 0.237E+03 -.221E+04   -.380E+00 -.180E+01 0.472E+01   0.956E-02 0.136E-01 0.185E-01
   0.219E+03 -.141E+03 0.631E+03   -.221E+03 0.142E+03 -.629E+03   0.165E+01 -.248E+00 -.494E+00   0.123E-01 -.104E-01 -.173E-01
   0.127E+03 -.109E+03 -.462E+03   -.128E+03 0.112E+03 0.462E+03   0.121E+01 -.282E+01 -.240E+00   -.225E-01 0.950E-02 -.101E+00
   0.152E+02 -.259E+03 -.187E+04   -.155E+02 0.263E+03 0.188E+04   0.403E+00 -.235E+01 -.379E+01   -.184E-01 0.337E-01 0.872E-02
   -.313E+03 -.220E+03 0.163E+04   0.314E+03 0.224E+03 -.164E+04   0.451E+00 -.279E+01 0.219E+01   0.381E-01 0.378E-01 0.269E-01
   -.420E+02 -.232E+03 0.275E+03   0.416E+02 0.235E+03 -.275E+03   -.149E+00 -.275E+01 0.201E+01   0.197E-01 0.531E-01 -.523E-02
   0.159E+02 -.178E+03 -.955E+03   -.161E+02 0.180E+03 0.955E+03   -.383E+00 -.245E+01 -.471E+00   0.231E-01 0.280E-01 -.694E-01
   0.825E+02 -.310E+03 -.208E+04   -.824E+02 0.313E+03 0.209E+04   -.404E+00 -.728E+00 -.935E+00   0.167E-01 0.296E-01 0.508E-01
   0.559E+02 0.531E+03 0.118E+04   -.567E+02 -.534E+03 -.118E+04   0.216E+01 0.576E+00 0.139E+01   -.236E-01 -.145E+00 -.835E-01
   -.265E+02 -.154E+03 0.104E+03   0.271E+02 0.157E+03 -.104E+03   -.749E-01 -.270E+01 -.373E+00   0.282E-01 -.100E+00 -.882E-02
   -.260E+02 -.126E+03 -.135E+04   0.263E+02 0.129E+03 0.135E+04   -.602E+00 -.147E+01 -.188E+01   -.652E-02 -.413E-01 -.774E-01
   0.772E+02 0.305E+03 0.235E+04   -.784E+02 -.306E+03 -.236E+04   0.587E+00 0.870E-01 0.250E+01   -.446E-01 -.354E-01 -.105E+00
   0.115E+03 0.141E+03 0.225E+04   -.116E+03 -.142E+03 -.225E+04   -.101E+00 -.293E+00 0.183E+01   0.381E-01 0.109E-01 -.449E-01
   0.204E+03 0.162E+03 0.116E+04   -.208E+03 -.163E+03 -.116E+04   0.338E+01 -.172E+00 0.993E+00   0.807E-01 0.428E-02 0.301E-01
   0.156E+03 0.757E+02 0.177E+02   -.158E+03 -.766E+02 -.177E+02   0.193E+01 0.102E+01 0.236E+00   0.117E-01 -.149E-01 -.806E-01
   0.102E+03 0.249E+03 -.121E+04   -.105E+03 -.251E+03 0.121E+04   0.195E+01 0.127E+01 -.440E+00   -.334E-01 -.999E-02 -.671E-01
   -.134E+02 0.197E+03 -.227E+04   0.135E+02 -.198E+03 0.227E+04   0.807E-01 0.900E+00 -.276E+01   -.248E-01 -.680E-02 0.103E+00
   0.241E+02 0.643E+02 -.339E+03   -.253E+02 -.659E+02 0.337E+03   0.786E+00 0.214E+01 0.197E+01   -.719E-01 -.278E-01 0.511E-01
   0.143E+03 0.464E+02 -.170E+04   -.143E+03 -.475E+02 0.170E+04   0.205E+00 0.142E+00 0.672E-01   0.285E-02 0.111E-03 -.202E-02
   -.171E+02 -.105E+03 0.225E+04   0.192E+02 0.104E+03 -.225E+04   -.100E+01 0.372E+00 0.450E+01   -.482E-01 -.287E-01 -.133E-01
   0.400E+02 -.511E+02 0.542E+03   -.403E+02 0.523E+02 -.539E+03   0.272E+00 -.743E+00 -.191E+01   -.184E+00 0.591E-01 -.212E-01
   0.999E+02 0.232E+01 0.731E+03   -.101E+03 -.258E+01 -.735E+03   0.828E+00 -.731E+00 0.406E+01   0.148E-01 -.147E-01 -.674E-04
   0.244E+03 0.129E+03 -.847E+03   -.246E+03 -.131E+03 0.847E+03   -.867E-01 0.114E+01 -.131E+01   0.803E-02 0.338E-01 -.688E-01
   -.156E+02 0.768E+01 -.350E+02   0.125E-11 0.199E-11 -.216E-11   0.160E+02 -.813E+01 0.376E+02   -.218E+00 0.554E+00 -.256E+01

 POSITION                                       TOTAL-FORCE (eV/Angst)
      6.45801      7.08167      1.95077        -0.889961      1.569000      2.311220
      7.43572      5.66537      4.57627        -0.043484     -0.120563      0.061696
      8.41343      4.24907      7.20177        -0.063267      0.033453     -0.269012
      8.72760      3.30563      9.47292        -1.363291      0.620499      0.688436
      6.52513      1.98695      1.63916         0.864443      0.986616     -1.374630
      7.76163      0.32617      2.82594         0.489656     -1.101105      2.290711
      3.21062      6.91868      8.07694        -0.440645     -0.240748     -0.761388
     12.31264      8.33497      5.45144         0.100460      0.174044      0.345041
      2.19966      2.76345      4.90192         0.502961      0.120869     -0.299187
      3.53652      1.57947      6.32660         1.000835     -0.849280      0.636508
      4.31523      0.37771      8.63815         0.383612     -0.407743      1.260699
     11.68921      5.86002      2.12720        -1.047838     -0.382206     -0.258075
      0.51382      1.09100      8.43993        -0.938441     -1.384241     -1.923897
      7.82104      5.52338      0.99747         0.167656     -0.882359     -1.283908
      8.63813      3.92359      3.18892        -0.093477      0.303547      1.011672
      9.61584      2.50729      5.81443        -0.150562     -0.040664     -0.161794
      3.43531      6.59319      4.06409         0.344018     -0.135744      0.432541
      4.41302      5.17689      6.68959         0.223061     -0.067826     -1.007917
      5.15746      3.86601      8.86039        -0.458025     -0.373100      0.677573
     12.53733      8.00949      1.43859        -1.204027      0.688528      0.544925
      4.87097      0.05953      2.00951        -1.640701     -0.903981      0.098445
      8.31222      9.26279      4.93926        -0.414199     -0.089039     -0.059377
      9.14571      7.95883      7.19652        -0.599469     -1.037024     -0.108365
     10.89069      6.48948      7.91772         0.520130      0.629735      0.109606
      1.61822      3.27073      8.91379         1.824972      1.563622      0.491801
      9.78664      7.47335      1.94768         0.256143      0.077192      0.413963
      9.84053      6.03956      3.88260        -0.118111     -0.382104      1.134946
     10.81824      4.62327      6.50810        -0.089414     -0.681840     -0.699096
     10.15469      0.53246      2.45629         0.594109      0.778173     -0.064379
      4.63771      8.70917      4.75776         0.225440     -0.166085      0.063605
      5.61542      7.29287      7.38327         0.783358      0.243174     -1.624748
      6.23018      5.83016      9.76785         0.188411      0.412857      1.284650
      4.19520      6.23332      1.42442         1.233702      0.187315     -0.682793
      4.96362      3.36996      3.00743        -0.266537      0.587950      1.277379
      5.94133      1.95367      5.63293         0.294159      0.224007      0.235598
      6.85524      0.68961      7.98341         0.640516      0.943545      0.563124
      1.57981      2.47018      7.00134        -0.422111     -0.031132     -2.275539
      2.51064      1.28971      9.12588         0.937296     -1.074831      2.431514
      9.70412      5.30277      1.75033         0.942330     -2.263789     -0.667135
     10.68183      3.88647      4.37584        -1.168365      0.956060     -0.827875
      4.50130      7.97237      2.62550         1.033335      0.574627      0.967138
      5.47901      6.55607      5.25100         0.200847     -0.136429     -0.021677
      6.45673      5.13978      7.87651         1.136080      0.739413     -2.745275
      6.83241      3.90583     10.14124         0.347930     -1.103895      2.183293
      9.86624      0.12500      0.51072         0.897020      1.418250     -3.387634
      4.48474      2.08507      1.46971        -2.655979      0.178262     -2.465647
      5.80492      1.21687      3.50067         0.601680      0.542348      2.720803
     10.35593      9.22568      6.12617         1.277327      0.533466     -2.992801
     10.29851      8.23606      8.87770         0.900976     -0.529459      2.691084
      8.04942      7.69907      0.78046        -0.302940      1.355042     -3.374033
      8.17302      7.52069      3.51693        -0.572550      0.549252      1.850087
      9.15074      6.10439      6.14243        -0.308188     -0.384585     -0.701019
     10.12845      4.68809      8.76794         0.095784      1.715902      0.027271
      8.59662      2.12631      2.11181         1.721623      1.384409     -1.464602
      9.47664      0.76519      4.39210        -0.535343     -0.073944      2.149795
      3.94792      8.77399      7.01760        -0.501003     -0.216499     -0.022909
      4.84259      7.22454      9.28711        -0.287479      2.041181      3.038490
      3.29611      4.85108      2.64176         1.302991     -2.586069      1.965325
      4.27382      3.43479      5.26727         0.494216      0.294384     -0.150452
      5.25153      2.01849      7.89277        -0.315284      1.560539     -0.647550
      2.46972      6.31914      0.29175        -0.613791     -0.526654     -3.019220
      5.91829      6.00487      0.28954        -1.028735     -0.651049     -3.311499
      6.64193      4.82628      2.63363        -0.311553     -1.106662      1.383301
      7.61964      3.40999      5.25914        -0.116511      0.090532      0.175680
      8.59735      1.99369      7.88464        -0.385531     -1.420773     -0.716891
     10.34618      2.23848     10.12180         0.220297     -0.629534      3.642353
      2.41682      6.07959      6.13430        -0.506053      0.506244      0.154010
      3.29129      4.78302      8.47802        -0.732850     -0.947083      1.576060
     10.34371      9.34552      1.03920         1.031826     -0.478624     -3.165561
     11.51884      7.49589      3.50880        -0.160391      0.572983      1.189342
      2.74272      0.74039      4.38397        -0.448529     -1.008276     -0.262885
      7.29374      8.74919      7.00947        -2.584567     -0.742080     -1.280915
    total drift:                                0.139035      0.106383      0.032419

  FREE ENERGIE OF THE ION-ELECTRON SYSTEM (eV)
  free  energy   TOTEN  =      -349.82848710 eV

  energy  without entropy=     -348.81517052  energy(sigma->0) =     -349.32182881