 vasp.5.4.4.18Apr17-6-g9f103f2a35 (build Aug 13 2019 17:33:20) gamma-only

 executed on             LinuxIFC date 2020.05.12  17:20:12

 INCAR:
 POTCAR:    PAW_PBE Ni_pv 06Sep2000
 POTCAR:    PAW_PBE S 06Sep2000
 POTCAR:    PAW_PBE Ni_pv 06Sep2000
   VRHFIN =Ni:

   TITEL  = PAW_PBE Ni_pv 06Sep2000
   POMASS =   58.690; ZVAL   =   16.000    mass and valenz
   ENMAX  =  367.986; ENMIN  =  275.989 eV

 POTCAR:    PAW_PBE S 06Sep2000
   VRHFIN =S : s2p4

   TITEL  = PAW_PBE S 06Sep2000
   POMASS =   32.066; ZVAL   =    6.000    mass and valenz
   ENMAX  =  258.689; ENMIN  =  194.016 eV

 Optimization of the real space projectors (new method)

 maximal supplied QI-value         = 18.90
 optimisation between [QCUT,QGAM] = [ 10.77, 21.73] = [ 32.49,132.25] Ry
 Optimized for a Real-space Cutoff    1.38 Angstroem

   l    n(q)    QCUT    max X(q) W(low)/X(q) W(high)/X(q)  e(spline)
   1      8    10.771     2.836    0.40E-04    0.29E-04    0.12E-06
   1      8    10.771     4.023    0.10E-03    0.48E-04    0.29E-06
   2      8    10.771    73.368    0.42E-03    0.97E-04    0.44E-06
   2      8    10.771    69.010    0.42E-03    0.99E-04    0.45E-06
   0      9    10.771    54.797    0.10E-03    0.56E-04    0.74E-07
   0      9    10.771    24.266    0.89E-04    0.49E-04    0.67E-07
 Optimization of the real space projectors (new method)

 maximal supplied QI-value         = 19.84
 optimisation between [QCUT,QGAM] = [ 10.71, 21.63] = [ 32.15,130.99] Ry
 Optimized for a Real-space Cutoff    1.19 Angstroem

   l    n(q)    QCUT    max X(q) W(low)/X(q) W(high)/X(q)  e(spline)
   0      8    10.715   187.594    0.41E-03    0.53E-04    0.66E-07
   0      8    10.715   164.243    0.41E-03    0.53E-04    0.65E-07
   1      7    10.715    67.533    0.19E-03    0.59E-03    0.68E-07
   1      7    10.715    50.729    0.19E-03    0.58E-03    0.67E-07
  PAW_PBE Ni_pv 06Sep2000               :
  PAW_PBE S 06Sep2000                   :

 POSCAR: Type_036 Type_136
  positions in cartesian coordinates
 exchange correlation table for  LEXCH =        8
   RHO(1)=    0.500       N(1)  =     2000
   RHO(2)=  100.500       N(2)  =     4000

 ion  position               nearest neighbor table
   1  0.311  0.982  0.057-  41 2.03  69 2.08  49 2.13  42 2.17  61 2.22   2 2.30
   2  0.397  0.795  0.128-  61 2.08  49 2.09  42 2.25   1 2.30  50 2.36  62 2.36  27 2.42  23 2.44

   3  0.547  0.645  0.256-  43 2.25  62 2.26  50 2.26  51 2.36  63 2.36  15 2.53  28 2.53
   4  0.698  0.494  0.384-  64 2.15  44 2.25  51 2.26  63 2.26  52 2.36  16 2.53  29 2.53
   5  0.824  0.344  0.487-  52 1.99  64 2.00  17 2.44  26 2.48
   6  0.114  0.412  0.171-  53 2.11  45 2.25  68 2.26   9 2.29  54 2.36  65 2.36  30 2.53  18 2.53

[...]

  16  0.658  0.270  0.350-  64 2.07  55 2.25  63 2.26  39 2.26  40 2.36   4 2.53  29 2.53
  17  0.777  0.129  0.460-  40 2.04  56 2.09  37 2.11  64 2.15   5 2.44
  18  0.074  0.187  0.137-  41 2.09  60 2.25  68 2.26  42 2.36  65 2.36  30 2.53   6 2.53
  19  0.224  0.037  0.265-  57 2.25  65 2.26  42 2.26  66 2.36  43 2.36   7 2.53  31 2.53
  20  0.375  0.886  0.393-  67 1.99  44 2.15  58 2.25  66 2.26  43 2.26  32 2.53   8 2.53
  21  0.069  0.377  0.047-  41 1.99  53 2.05  68 2.06   9 2.40
  22  0.093  0.506  0.425-  46 2.05  59 2.07  72 2.16  47 2.18  52 2.26  35 2.46
  23  0.585  0.882  0.096-  49 2.11  69 2.13  70 2.15  50 2.25   2 2.44
  24  0.791  0.804  0.180-  50 2.25  48 2.26  70 2.26  71 2.36  45 2.36  33 2.53  12 2.53
  25  0.941  0.653  0.308-  72 2.07  51 2.25  45 2.26  71 2.26  46 2.36  34 2.53  13 2.53
  26  0.024  0.166  0.430-  40 2.04  37 2.10  66 2.14  52 2.14   5 2.48
  27  0.586  0.597  0.081-  50 2.05  38 2.07  49 2.08   2 2.42
  28  0.732  0.460  0.188-  68 2.25  50 2.26  38 2.26  39 2.36  51 2.36  15 2.53   3 2.53
  29  0.882  0.310  0.317-  65 2.25  39 2.26  51 2.26  40 2.36  52 2.36   4 2.53  16 2.53
  30  0.299  0.227  0.103-  69 2.10  41 2.23  53 2.24  54 2.36  42 2.36   6 2.53  18 2.53
  31  0.449  0.076  0.231-  70 2.25  54 2.26  42 2.26  43 2.36  55 2.36   7 2.53  19 2.53
  32  0.599  0.926  0.359-  56 2.08  44 2.14  71 2.25  55 2.26  43 2.26   8 2.53  20 2.53
  33  0.015  0.843  0.146-  61 2.13  48 2.26  60 2.26  45 2.36  57 2.36  24 2.53  12 2.53
  34  0.166  0.693  0.274-  62 2.25  57 2.26  45 2.26  58 2.36  46 2.36  25 2.53  13 2.53
  35  0.316  0.543  0.402-  59 2.04  47 2.15  63 2.25  58 2.26  46 2.26  22 2.46
  36  0.769  0.999  0.084-  48 2.00  60 2.05  70 2.05  11 2.42
  37  0.987  0.012  0.489-  26 2.10  17 2.11  10 2.11  40 2.59
  38  0.586  0.406  0.118-  11 1.99  27 2.07  14 2.08  28 2.26  15 2.26
  39  0.736  0.256  0.246-  11 2.10  12 2.25  29 2.26  16 2.26  15 2.36  28 2.36
  40  0.886  0.105  0.374-  17 2.04  26 2.04  13 2.25  16 2.36  29 2.36  37 2.59
  41  0.148  0.166  0.041-  21 1.99   1 2.03  18 2.09  30 2.23
  42  0.303  0.023  0.161-   1 2.17   2 2.25  19 2.26  31 2.26  30 2.36  18 2.36
  43  0.453  0.872  0.289-   3 2.25  32 2.26  20 2.26  31 2.36  19 2.36  44 2.63
  44  0.585  0.730  0.392-  32 2.14  20 2.15   4 2.25  43 2.63
  45  0.019  0.639  0.204-   9 2.10   6 2.25  25 2.26  34 2.26  33 2.36  24 2.36
  46  0.170  0.489  0.332-  22 2.05   7 2.25  35 2.26  25 2.36  34 2.36  47 2.58
  47  0.304  0.342  0.430-  35 2.15  22 2.18   8 2.20  46 2.58  59 2.71
  48  0.869  0.789  0.076-   9 1.98  36 2.00  33 2.26  24 2.26
  49  0.478  0.787  0.034-  27 2.08   2 2.09  23 2.11   1 2.13
  50  0.636  0.692  0.161-  27 2.05  23 2.25  24 2.25  28 2.26   3 2.26   2 2.36
  51  0.787  0.542  0.289-  25 2.25  29 2.26   4 2.26   3 2.36  28 2.36
  52  0.937  0.391  0.417-   5 1.99  26 2.14  22 2.26   4 2.36  29 2.36
  53  0.208  0.462  0.087-  21 2.05  14 2.10   6 2.11  30 2.24   9 2.30
  54  0.353  0.308  0.204-  15 2.25   7 2.26  31 2.26  30 2.36   6 2.36
  55  0.503  0.158  0.332-  16 2.25   8 2.26  32 2.26  31 2.36   7 2.36  56 2.71
  56  0.633  0.027  0.443-  32 2.08  17 2.09   8 2.09  55 2.71
  57  0.070  0.925  0.247-  19 2.25  34 2.26  13 2.26  12 2.36  33 2.36
  58  0.220  0.775  0.375-  10 2.06  20 2.25  35 2.26  34 2.36  13 2.36
  59  0.196  0.604  0.484-  35 2.04  10 2.04  22 2.07  47 2.71
  60  0.920  0.075  0.119-  36 2.05  11 2.15  18 2.25  33 2.26  12 2.26
  61  0.193  0.846  0.090-   2 2.08  33 2.13   1 2.22
  62  0.350  0.641  0.204-  14 2.03  34 2.25   3 2.26  15 2.26   2 2.36
  63  0.501  0.491  0.333-  35 2.25   4 2.26  16 2.26  15 2.36   3 2.36
  64  0.644  0.347  0.445-   5 2.00  16 2.07   4 2.15  17 2.15
  65  0.067  0.258  0.247-  29 2.25   7 2.26  19 2.26  18 2.36   6 2.36
  66  0.218  0.108  0.375-  26 2.14   8 2.26  20 2.26  19 2.36   7 2.36
  67  0.394  0.956  0.482-  20 1.99   8 2.00
  68  0.917  0.408  0.119-  21 2.06   9 2.17  28 2.25  18 2.26   6 2.26
  69  0.462  0.077  0.050-   1 2.08  30 2.10  23 2.13
  70  0.634  0.025  0.162-  36 2.05  23 2.15  31 2.25  24 2.26  12 2.26  11 2.33
  71  0.784  0.874  0.290-  32 2.25  25 2.26  13 2.26  12 2.36  24 2.36
  72  0.953  0.718  0.402-  25 2.07  10 2.08  13 2.13  22 2.16

  LATTYP: Found a base centered orthorhombic cell.
 ALAT       =    11.4527836704
 B/A-ratio  =     1.4485816945
 C/A-ratio  =     1.7901333131

  Lattice vectors:

 A1 = (  10.0797329849,   0.0000000000,   0.0000000000)
 A2 = (  -3.5732980427,  -9.4251025535,   0.0000000000)
 A3 = (   0.0000000000,   0.0000000000, -20.5020095760)

Analysis of symmetry for initial positions (statically):
 Subroutine PRICEL returns:
 Original cell was already a primitive cell.

 Routine SETGRP: Setting up the symmetry group for a
 base centered orthorhombic supercell.

 Subroutine GETGRP returns: Found  1 space group operations
 (whereof  1 operations were pure point group operations)
 out of a pool of  8 trial point group operations.

The static configuration has the point symmetry C_1 .

Analysis of symmetry for dynamics (positions and initial velocities):
 Subroutine PRICEL returns:
 Original cell was already a primitive cell.

 Routine SETGRP: Setting up the symmetry group for a
 base centered orthorhombic supercell.

 Subroutine GETGRP returns: Found  1 space group operations
 (whereof  1 operations were pure point group operations)
 out of a pool of  8 trial point group operations.

The dynamic configuration has the point symmetry C_1 .

 Subroutine INISYM returns: Found  1 space group operations
 (whereof  1 operations are pure point group operations),
 and found     1 'primitive' translations

 KPOINTS: gamma-point-only calculation. no periodi

Automatic generation of k-mesh.
Space group operators:
 irot       det(A)        alpha          n_x          n_y          n_z        tau_x        tau_y        tau_z
    1     1.000000     0.000001     1.000000     0.000000     0.000000     0.000000     0.000000     0.000000

 Subroutine IBZKPT returns following result:

 Found      1 irreducible k-points:

 Following reciprocal coordinates:
            Coordinates               Weight
  0.000000  0.000000  0.000000      1.000000

 Following cartesian coordinates:
            Coordinates               Weight
  0.000000  0.000000  0.000000      1.000000

 SYSTEM =  "Millerite NiS"
 POSCAR =  Type_036 Type_136

 Startparameter for this run:
   NWRITE =      2    write-flag & timer
   PREC   = normal    normal or accurate (medium, high low for compatibility)
   ISTART =      0    job   : 0-new  1-cont  2-samecut
   ICHARG =      2    charge: 1-file 2-atom 10-const
   ISPIN  =      1    spin polarized calculation?
   LNONCOLLINEAR =      F non collinear calculations
   LSORBIT =      F    spin-orbit coupling
   INIWAV =      1    electr: 0-lowe 1-rand  2-diag
   LASPH  =      F    aspherical Exc in radial PAW
   METAGGA=      F    non-selfconsistent MetaGGA calc.

 Electronic Relaxation 1
   ENCUT  =  450.0 eV  33.07 Ry    5.75 a.u.  17.43 17.43 35.46*2*pi/ulx,y,z
   ENINI  =  450.0     initial cutoff
   ENAUG  =  703.4 eV  augmentation charge cutoff
   NELM   =    100;   NELMIN=  2; NELMDL= -5     # of ELM steps
   EDIFF  = 0.1E-03   stopping-criterion for ELM
   LREAL  =      T    real-space projection
   NLSPLINE    = F    spline interpolate recip. space projectors
   LCOMPAT=      F    compatible to vasp.4.4
   GGA_COMPAT  = T    GGA compatible to vasp.4.4-vasp.4.6
   LMAXPAW     = -100 max onsite density
   LMAXMIX     =    2 max onsite mixed and CHGCAR
   VOSKOWN=      0    Vosko Wilk Nusair interpolation
   ROPT   =   -0.00050  -0.00050
 Ionic relaxation
   EDIFFG = 0.1E-02   stopping-criterion for IOM
   NSW    =      0    number of steps for IOM
   NBLOCK =      1;   KBLOCK =      1    inner block; outer block
   IBRION =     -1    ionic relax: 0-MD 1-quasi-New 2-CG
   NFREE  =      0    steps in history (QN), initial steepest desc. (CG)
   ISIF   =      2    stress and relaxation
   IWAVPR =     10    prediction:  0-non 1-charg 2-wave 3-comb
   ISYM   =      2    0-nonsym 1-usesym 2-fastsym
   LCORR  =      T    Harris-Foulkes like correction to forces

   POTIM  = 0.5000    time-step for ionic-motion
   TEIN   =    0.0    initial temperature
   TEBEG  =    0.0;   TEEND  =   0.0 temperature during run
   SMASS  =  -3.00    Nose mass-parameter (am)
[...]
  Fock        0.00000     0.00000     0.00000     0.00000     0.00000     0.00000
  Total      83.23085    94.69286   106.77183    -5.11443    -1.34910    -1.94386
  in kB      68.46417    77.89261    87.82855    -4.20703    -1.10974    -1.59898

 VOLUME and BASIS-vectors are now :
  energy-cutoff  :      450.00
  volume of cell :     1947.74
      direct lattice vectors                 reciprocal lattice vectors
    10.079732985  0.000000000  0.000000000     0.099208977 -0.037612667  0.000000000
     3.573298043  9.425102554  0.000000000     0.000000000  0.106099641  0.000000000
     0.000000000  0.000000000 20.502009576     0.000000000  0.000000000  0.048775706

  length of vectors
    10.079732985 10.079732985 20.502009576     0.106099641  0.106099641  0.048775706

 FORCES acting on ions
    electron-ion (+dipol)            ewald-force                    non-local-force                 convergence-correction
   0.454E+03 0.448E+02 0.534E+04   -.456E+03 -.454E+02 -.534E+04   0.115E+01 0.237E+00 0.679E+01   -.506E-01 0.566E-02 -.328E-01
   0.514E+03 0.164E+03 0.276E+04   -.517E+03 -.168E+03 -.276E+04   0.228E+01 0.254E+01 -.179E+01   -.977E-01 0.743E-01 -.520E-01
   0.159E+02 -.439E+03 -.584E+03   -.169E+02 0.439E+03 0.584E+03   0.103E+01 -.118E+01 0.973E-01   -.116E+00 0.176E+00 0.125E+00
   0.254E+02 -.917E+03 -.363E+04   -.244E+02 0.919E+03 0.363E+04   -.719E+00 -.169E+01 0.354E+00   -.583E-01 0.649E-01 0.468E-01
   -.118E+03 -.705E+03 -.564E+04   0.118E+03 0.703E+03 0.563E+04   0.349E+00 0.218E+01 0.554E+01   -.520E-01 0.117E+00 0.608E-01
   -.116E+03 -.191E+03 0.141E+04   0.117E+03 0.189E+03 -.141E+04   -.165E+00 0.110E+01 -.371E+01   0.411E-01 0.918E-02 -.153E+00
   -.379E+02 -.414E+03 -.149E+04   0.372E+02 0.415E+03 0.149E+04   0.564E+00 -.130E+01 0.982E+00   0.349E-01 0.144E-01 -.322E-01
   -.284E+02 -.388E+03 -.466E+04   0.282E+02 0.392E+03 0.466E+04   -.852E-01 -.120E+01 -.567E+01   0.632E-01 0.696E-02 0.107E-01
   0.100E+03 -.313E+03 0.423E+04   -.103E+03 0.312E+03 -.424E+04   0.273E+01 0.131E+01 0.422E+01   0.877E-01 0.258E-01 -.916E-01
   -.767E+02 -.625E+02 -.510E+04   0.775E+02 0.673E+02 0.510E+04   -.109E+01 -.356E+01 -.546E+01   0.293E-01 -.106E+00 0.911E-02
   0.755E+02 -.348E+03 0.334E+04   -.760E+02 0.347E+03 -.334E+04   -.576E-01 0.991E+00 0.491E+01   -.433E-01 -.198E+00 -.114E+00
   -.185E+03 -.170E+03 0.407E+03   0.187E+03 0.168E+03 -.402E+03   -.115E+01 0.941E+00 -.279E+01   -.124E-01 -.457E-01 -.935E-01
   0.806E+02 -.389E+03 -.230E+04   -.806E+02 0.392E+03 0.230E+04   0.378E+00 -.320E+01 0.119E+01   -.451E-01 0.655E-02 -.266E+00
   0.379E+03 0.477E+02 0.400E+04   -.381E+03 -.471E+02 -.400E+04   0.197E+01 -.402E+00 0.222E+00   -.941E-01 0.737E-01 -.802E-01
   0.455E+03 0.228E+03 0.482E+03   -.457E+03 -.227E+03 -.480E+03   0.187E+01 -.118E+01 -.170E+01   -.175E+00 0.564E-01 0.436E-01
   0.577E+03 0.179E+03 -.232E+04   -.579E+03 -.180E+03 0.232E+04   0.239E+01 0.242E+00 0.144E+01   -.496E-01 0.708E-01 0.456E-01
   0.614E+03 0.473E+03 -.502E+04   -.617E+03 -.475E+03 0.503E+04   0.220E+01 0.168E+01 -.399E+01   -.113E+00 0.144E+00 0.615E-01
   0.715E+03 0.331E+03 0.283E+04   -.717E+03 -.331E+03 -.283E+04   0.177E+01 -.201E+00 -.483E+00   0.805E-01 -.817E-01 -.118E+00
   0.395E+03 0.342E+03 -.454E+03   -.397E+03 -.342E+03 0.454E+03   0.151E+01 -.330E+00 0.609E-01   0.123E-01 -.891E-01 -.133E+00
   0.251E+03 0.527E+03 -.370E+04   -.255E+03 -.530E+03 0.370E+04   0.218E+01 0.277E+01 -.330E+01   0.143E+00 -.787E-01 -.904E-01
   0.351E+03 -.268E+03 0.581E+04   -.351E+03 0.270E+03 -.582E+04   0.238E+00 -.124E+01 0.490E+01   0.561E-01 -.396E-01 -.187E-02
   0.461E+03 0.241E+03 -.451E+04   -.467E+03 -.243E+03 0.451E+04   0.395E+01 0.155E+01 -.271E+01   0.179E-01 -.126E+00 0.983E-02
   -.307E+03 0.435E+00 0.428E+04   0.308E+03 0.167E+01 -.428E+04   0.628E+00 -.229E+01 0.362E+01   -.526E-01 0.453E-01 -.590E-01
   0.303E+03 0.342E+03 0.148E+04   -.304E+03 -.342E+03 -.148E+04   0.289E+00 0.258E+00 -.264E+01   0.445E-01 0.380E-01 -.626E-01
   0.521E+03 0.301E+03 -.151E+04   -.524E+03 -.302E+03 0.151E+04   0.239E+01 0.731E+00 0.549E+00   -.815E-02 -.180E-01 -.843E-01
   -.757E+03 0.170E+03 -.426E+04   0.762E+03 -.171E+03 0.426E+04   -.437E+01 0.943E+00 -.104E+01   0.123E-01 0.151E+00 0.301E-01
   -.268E+03 0.613E+03 0.512E+04   0.265E+03 -.614E+03 -.512E+04   0.331E+01 -.365E+00 -.157E+00   -.111E+00 0.126E+00 -.174E+00
   -.516E+03 0.104E+03 0.177E+04   0.518E+03 -.103E+03 -.177E+04   -.171E+01 -.565E+00 -.141E+01   0.322E-02 0.452E-01 -.227E-01
   -.470E+03 0.478E+02 -.131E+04   0.472E+03 -.471E+02 0.131E+04   -.172E+01 -.677E+00 0.198E+01   -.264E-01 0.371E-01 0.569E-01
   -.817E+03 -.165E+03 0.398E+04   0.823E+03 0.166E+03 -.398E+04   -.523E+01 -.471E+00 0.103E+01   -.643E-01 -.402E-01 -.846E-01
   -.393E+03 0.112E+03 0.502E+03   0.393E+03 -.111E+03 -.502E+03   0.363E+00 -.931E+00 0.264E+00   0.728E-02 -.805E-01 -.789E-01
   -.415E+03 0.419E+03 -.274E+04   0.420E+03 -.421E+03 0.274E+04   -.435E+01 0.306E+01 -.796E+00   -.658E-01 -.521E-01 -.253E-01
   -.680E+03 0.144E+03 0.311E+04   0.684E+03 -.143E+03 -.311E+04   -.358E+01 -.240E+00 0.373E+00   0.287E-01 -.191E-01 -.777E-01
   -.505E+03 0.178E+03 -.393E+03   0.507E+03 -.176E+03 0.392E+03   -.142E+01 -.880E+00 0.780E+00   0.823E-01 -.379E-01 -.121E+00
   -.711E+03 0.900E+02 -.379E+04   0.717E+03 -.899E+02 0.379E+04   -.468E+01 0.319E+00 0.367E+00   0.111E+00 -.121E+00 -.559E-01
   -.173E+03 -.385E+03 0.533E+04   0.173E+03 0.387E+03 -.534E+04   -.892E+00 -.211E+01 0.474E+01   0.365E-01 -.223E-01 -.507E-01
   -.849E+02 0.164E+03 -.212E+04   0.861E+02 -.166E+03 0.212E+04   -.650E+00 0.116E+01 -.187E+01   -.185E-01 0.968E-01 0.925E-01
   0.380E+02 0.191E+03 0.170E+04   -.385E+02 -.193E+03 -.171E+04   0.133E+00 0.225E+01 0.344E+01   -.832E-01 -.154E-01 -.851E-01
   -.220E+02 0.755E+02 -.133E+02   0.222E+02 -.770E+02 0.149E+02   0.852E-01 0.149E+01 -.448E+00   -.276E-01 -.694E-01 0.233E-01
   0.211E+02 0.181E+03 -.897E+03   -.222E+02 -.184E+03 0.892E+03   0.815E+00 0.170E+01 0.163E+01   -.344E-01 0.436E-01 -.322E-01
   0.280E+03 0.108E+03 0.223E+04   -.284E+03 -.108E+03 -.224E+04   0.262E+01 0.379E-01 0.217E+01   0.106E-01 -.227E-01 -.748E-02
   0.819E+02 0.797E+02 0.739E+03   -.817E+02 -.791E+02 -.736E+03   -.314E+00 -.164E+00 -.107E+00   -.218E-01 -.121E-01 -.635E-01
   0.185E+02 0.141E+03 -.309E+03   -.191E+02 -.142E+03 0.307E+03   0.363E+00 0.171E+01 0.657E+00   0.660E-02 -.328E-01 -.333E-02
   -.822E+02 0.151E+03 -.153E+04   0.828E+02 -.152E+03 0.153E+04   0.260E+00 -.132E+00 0.339E-01   -.944E-02 -.156E-01 -.189E-01
   -.634E+02 0.789E+02 0.381E+03   0.649E+02 -.799E+02 -.378E+03   -.101E+01 0.112E+01 -.816E+00   0.281E-01 0.774E-02 -.479E-01
   -.252E+02 0.124E+03 -.602E+03   0.249E+02 -.125E+03 0.598E+03   0.658E+00 0.146E+01 0.121E+01   0.353E-01 0.210E-01 -.527E-02
   -.772E+02 0.111E+03 -.176E+04   0.767E+02 -.111E+03 0.177E+04   0.107E+01 -.294E+00 0.199E+00   0.271E-01 0.128E-01 0.166E-01
   -.556E+02 0.936E+02 0.213E+04   0.557E+02 -.954E+02 -.214E+04   -.586E+00 0.174E+01 0.393E+01   0.215E-01 -.404E-02 -.264E-01
   0.220E+02 0.176E+03 0.237E+04   -.214E+02 -.178E+03 -.238E+04   0.447E-01 0.577E+00 0.273E+01   -.436E-01 0.256E-01 -.381E-01
   -.132E+03 0.697E+01 0.757E+03   0.134E+03 -.734E+01 -.755E+03   -.161E+01 0.990E+00 -.331E+00   -.247E-01 0.960E-01 -.117E-01
   -.116E+03 -.141E+03 -.378E+03   0.117E+03 0.143E+03 0.378E+03   -.121E+01 -.249E+01 0.751E-01   -.141E-01 0.440E-01 0.765E-01
   -.235E+03 -.263E+03 -.148E+04   0.238E+03 0.265E+03 0.148E+04   -.712E+00 -.567E+00 -.855E+00   -.387E-01 0.324E-01 0.320E-01
   -.318E+03 -.226E+03 0.184E+04   0.322E+03 0.228E+03 -.184E+04   -.178E+01 -.124E+01 0.925E+00   -.939E-02 0.416E-02 -.248E-01
   -.119E+03 -.981E+02 0.447E+03   0.121E+03 0.989E+02 -.447E+03   -.205E+01 -.124E+01 0.981E+00   -.978E-02 0.609E-02 -.555E-01
   -.907E+02 -.102E+03 -.733E+03   0.922E+02 0.104E+03 0.733E+03   -.166E+01 -.183E+01 -.947E+00   0.190E-01 -.154E-01 0.116E-01
   -.349E+02 0.193E+03 -.189E+04   0.366E+02 -.196E+03 0.190E+04   -.823E+00 0.123E+01 -.706E+00   -.374E-01 0.173E-02 -.115E-02
   -.144E+03 -.927E+02 0.768E+02   0.147E+03 0.946E+02 -.767E+02   -.213E+01 -.188E+01 0.180E+00   0.175E-01 -.209E-01 -.570E-01
   -.258E+03 -.174E+02 -.110E+04   0.261E+03 0.196E+02 0.110E+04   -.130E+01 -.228E+01 -.389E+00   0.106E+00 -.564E-01 -.113E+00
   -.138E+03 0.760E+02 -.225E+04   0.139E+03 -.766E+02 0.225E+04   -.892E+00 0.621E+00 -.243E+01   0.426E-01 -.136E+00 0.548E-01
   -.246E+03 -.114E+03 0.158E+04   0.249E+03 0.116E+03 -.158E+04   -.656E+00 -.117E+01 0.228E+01   0.170E-01 -.211E-01 -.338E-01
   0.261E+03 0.953E+02 0.174E+04   -.263E+03 -.983E+02 -.175E+04   0.734E+00 0.168E+01 0.255E+01   0.324E-01 0.951E-02 -.227E-01
   0.159E+03 -.146E+03 0.337E+03   -.162E+03 0.148E+03 -.338E+03   0.249E+01 -.828E+00 0.180E+01   -.160E-01 0.372E-01 -.150E-01
   0.162E+03 -.120E+03 -.857E+03   -.165E+03 0.121E+03 0.857E+03   0.267E+01 -.124E+01 -.896E+00   0.509E-02 0.300E-01 0.274E-01
   0.438E+03 -.251E+03 -.190E+04   -.443E+03 0.253E+03 0.191E+04   0.293E+01 -.173E+01 -.128E+01   0.130E-01 0.421E-01 0.137E-01
   0.139E+03 -.648E+02 -.229E+02   -.141E+03 0.660E+02 0.232E+02   0.219E+01 -.103E+01 -.324E+00   0.481E-02 -.194E-01 -.577E-01
   0.706E+02 -.377E+02 -.120E+04   -.734E+02 0.391E+02 0.120E+04   0.276E+01 -.155E+01 -.878E+00   0.363E-01 -.146E-01 -.585E-02
   0.137E+02 0.174E+03 -.223E+04   -.148E+02 -.175E+03 0.223E+04   0.775E+00 -.141E+00 -.340E+00   0.351E-01 -.680E-02 0.131E-01
   0.381E+03 0.766E+01 0.139E+04   -.385E+03 -.758E+01 -.139E+04   0.251E+01 0.213E+00 0.159E+01   0.107E+00 -.267E-01 -.848E-01
   -.334E+03 -.238E+03 0.209E+04   0.337E+03 0.241E+03 -.209E+04   -.840E+00 -.162E+01 0.317E+01   -.367E-01 0.115E-01 -.355E-01
   0.182E+03 -.194E+03 0.773E+03   -.185E+03 0.196E+03 -.771E+03   0.188E+01 -.144E+01 0.503E+00   0.132E-01 -.534E-02 -.240E-01
   0.175E+03 -.394E+02 -.473E+03   -.177E+03 0.407E+02 0.473E+03   0.308E+01 -.890E+00 -.772E+00   -.399E-01 0.921E-02 -.321E-01
   0.407E+03 -.156E+02 -.163E+04   -.414E+03 0.178E+02 0.164E+04   0.459E+01 -.198E+01 -.875E+00   -.962E-01 -.659E-01 -.411E-01
   -.163E+02 0.109E+02 -.203E+02   0.222E-11 -.101E-11 -.341E-11   0.168E+02 -.109E+02 0.226E+02   -.328E+00 0.102E+00 -.224E+01

 POSITION                                       TOTAL-FORCE (eV/Angst)
      6.64737      9.25296      1.16527        -1.283602     -0.341047     -1.560414
      6.84285      7.49250      2.62550        -0.950656     -1.193697      3.132957
      7.82056      6.07621      5.25100        -0.107059     -0.352755      0.231486
      8.79827      4.65991      7.87651         0.214788      0.560685     -0.299633
      9.53111      3.23968      9.99287         0.363092      0.086544      1.574333
      2.61774      3.87870      3.50067         0.506413     -1.143473      2.197969
      3.59545      2.46241      6.12617        -0.040418     -0.450604     -0.241195
      4.57317      1.04611      8.75167        -0.259723      2.199013     -1.703741
     11.95130      5.61096      2.21011         0.253002     -0.230337     -0.662910
      3.71076      7.58099      9.27478        -0.234204      1.154530      0.872219
      7.94298      2.02267      3.02448        -0.571808     -0.048314     -0.634852
      8.47237      0.26490      4.37584         0.459170     -1.138950      1.549551
     13.02338      8.27371      7.00134         0.320590      0.312246     -0.991741
      5.63363      4.99325      2.46099        -0.211355      0.263825     -1.327789
      6.61816      3.96023      4.55733        -0.021317     -0.080966      0.360717
      7.59587      2.54394      7.18283        -0.023099     -0.447431     -1.269653
      8.29091      1.21426      9.42456        -0.792295      0.122174      0.798924
      1.41534      1.76273      2.80700        -0.572149     -0.082202      1.614143
      2.39305      0.34643      5.43250         0.097567     -0.016964     -0.069256
      6.94406      8.35524      8.05800        -1.445802     -0.516029     -2.321802
      2.04406      3.55753      0.97366        -0.134039      0.767735     -1.489376
      2.73885      4.76465      8.71427        -2.273887     -0.816350      0.834566
      9.04745      8.31387      1.96471         1.492011     -0.144801     -0.461300
     10.84326      7.57403      3.68216         0.040046     -0.325924      0.347143
     11.82097      6.15773      6.30767        -0.397802     -0.469171     -1.469783
      0.83650      1.56162      8.80628         0.906879      0.400026      0.404641
      8.04093      5.62437      1.66642         0.080872     -0.962295     -0.914700
      9.02296      4.33443      3.86366         0.146485     -0.191589     -0.026476
     10.00068      2.91813      6.48916         0.235304      0.004103     -0.177279
      3.82015      2.13692      2.11332         0.379500      0.657020      0.978052
      4.79786      0.72063      4.73883        -0.239283      0.080474      0.374632
      9.34887      8.72943      7.36433         0.165743      0.217551     -1.969087
      3.16834      7.94822      2.98849         0.181537      0.144926      0.481795
      4.14605      6.53193      5.61399         0.464272      0.113355     -0.154648
      5.12376      5.11563      8.23950         1.598294      0.209497     -1.758872
     11.32417      9.41461      1.72580        -0.326695      0.550847     -1.600578
      9.98822      0.11490     10.01613         0.551455     -0.551591      2.272343
      7.35546      3.82659      2.42507        -0.484160      0.137584     -1.757159
      8.33317      2.41029      5.05057         0.268095     -0.098415      1.225967
      9.31088      0.99399      7.67607        -0.282100     -0.616783     -3.461027
      2.08790      1.56900      0.83397        -1.198169     -0.170713     -3.051213
      3.13035      0.21279      3.30024        -0.161748      0.398483      2.750159
      7.68136      8.22159      5.92574        -0.241847      0.456747     -0.830770
      8.50777      6.88145      8.03315         0.830333     -1.088614      1.719197
      2.47854      6.02409      4.17540         0.527484      0.056764      1.492519
      3.45626      4.60779      6.80091         0.357006     -0.076115     -2.821618
      4.28372      3.22358      8.82034         0.550599     -0.929578      1.692848
     11.58056      7.44039      1.54990        -0.437396     -0.077039     -2.422994
      7.62624      7.41637      0.69148         0.607272     -1.224294     -3.638326
      8.88655      6.52099      3.30837         0.718143      0.715746      1.858171
      9.86427      5.10469      5.93387         0.354172     -0.103504     -0.083780
     10.84198      3.68840      8.55937         1.547981      1.241832     -0.495458
      3.75239      4.35482      1.78472         1.341841      1.137172     -1.551390
      4.66145      2.90719      4.18354        -0.114839     -0.434920      0.250296
      5.63916      1.49089      6.80904        -0.107053      0.037231     -1.001684
      6.47531      0.25051      9.07378         0.840901     -1.320988      2.815343
      4.00964      8.71849      5.05870         0.111524      0.036564      0.227199
      4.98735      7.30220      7.68420         1.520106     -0.122714     -1.029642
      4.13346      5.69242      9.93123         0.659230     -0.152893      3.930044
      9.53836      0.70969      2.43320         1.706131      0.957139     -0.249206
      4.96933      7.97015      1.84837        -1.354761     -1.315069     -1.706501
      5.82436      6.04450      4.19167         0.014435      1.076912      1.669017
      6.80207      4.62821      6.81717        -0.146178      0.090718     -0.913989
      7.73301      3.26903      9.11529        -2.249639      1.125203      2.496920
      1.59925      2.43070      5.06683        -0.156119      0.104174     -0.092606
      2.57697      1.01441      7.69234        -0.032856     -0.130971     -0.383935
      7.39123      9.00787      9.88579        -0.256193     -1.037013      4.401765
     10.70128      3.84700      2.44133        -1.780757      0.268310      0.392983
      4.93803      0.72939      1.02864         2.174011      1.113361     -2.123858
      6.47617      0.23320      3.31650        -1.026046      0.950186      2.328720
     11.02718      8.24201      5.94200         0.198808      0.417007     -0.483550
     12.17001      6.77189      8.25080        -2.870035      0.238427      1.927169
    total drift:                                0.127388      0.043582      0.016293

  FREE ENERGIE OF THE ION-ELECTRON SYSTEM (eV)
  free  energy   TOTEN  =      -349.61224618 eV

  energy  without entropy=     -348.67197424  energy(sigma->0) =     -349.14211021