 vasp.5.4.4.18Apr17-6-g9f103f2a35 (build Aug 13 2019 17:33:20) gamma-only

 executed on             LinuxIFC date 2020.05.12  17:15:05

 INCAR:
 POTCAR:    PAW_PBE Ni_pv 06Sep2000
 POTCAR:    PAW_PBE S 06Sep2000
 POTCAR:    PAW_PBE Ni_pv 06Sep2000
   VRHFIN =Ni:

   TITEL  = PAW_PBE Ni_pv 06Sep2000
   POMASS =   58.690; ZVAL   =   16.000    mass and valenz
   ENMAX  =  367.986; ENMIN  =  275.989 eV

 POTCAR:    PAW_PBE S 06Sep2000
   VRHFIN =S : s2p4

   TITEL  = PAW_PBE S 06Sep2000
   POMASS =   32.066; ZVAL   =    6.000    mass and valenz
   ENMAX  =  258.689; ENMIN  =  194.016 eV

 Optimization of the real space projectors (new method)

 maximal supplied QI-value         = 18.90
 optimisation between [QCUT,QGAM] = [ 10.77, 21.73] = [ 32.49,132.25] Ry
 Optimized for a Real-space Cutoff    1.38 Angstroem

   l    n(q)    QCUT    max X(q) W(low)/X(q) W(high)/X(q)  e(spline)
   1      8    10.771     2.836    0.40E-04    0.29E-04    0.12E-06
   1      8    10.771     4.023    0.10E-03    0.48E-04    0.29E-06
   2      8    10.771    73.368    0.42E-03    0.97E-04    0.44E-06
   2      8    10.771    69.010    0.42E-03    0.99E-04    0.45E-06
   0      9    10.771    54.797    0.10E-03    0.56E-04    0.74E-07
   0      9    10.771    24.266    0.89E-04    0.49E-04    0.67E-07
 Optimization of the real space projectors (new method)

 maximal supplied QI-value         = 19.84
 optimisation between [QCUT,QGAM] = [ 10.71, 21.63] = [ 32.15,130.99] Ry
 Optimized for a Real-space Cutoff    1.19 Angstroem

   l    n(q)    QCUT    max X(q) W(low)/X(q) W(high)/X(q)  e(spline)
   0      8    10.715   187.594    0.41E-03    0.53E-04    0.66E-07
   0      8    10.715   164.243    0.41E-03    0.53E-04    0.65E-07
   1      7    10.715    67.533    0.19E-03    0.59E-03    0.68E-07
   1      7    10.715    50.729    0.19E-03    0.58E-03    0.67E-07
  PAW_PBE Ni_pv 06Sep2000               :
  PAW_PBE S 06Sep2000                   :

 POSCAR: Type_036 Type_136
  positions in cartesian coordinates
 exchange correlation table for  LEXCH =        8
   RHO(1)=    0.500       N(1)  =     2000
   RHO(2)=  100.500       N(2)  =     4000

 ion  position               nearest neighbor table
   1  0.300  0.988  0.058-  41 2.06  69 2.07  42 2.15  61 2.16  49 2.20   2 2.34
   2  0.397  0.795  0.128-  49 2.05  61 2.09  42 2.25   1 2.34  50 2.36  62 2.36  26 2.40  22 2.43

   3  0.547  0.645  0.256-  43 2.25  62 2.26  50 2.26  51 2.36  63 2.36  15 2.53  27 2.53
   4  0.698  0.494  0.384-  64 2.16  44 2.25  51 2.26  63 2.26  52 2.36  16 2.53  28 2.53
   5  0.825  0.342  0.488-  64 2.00  52 2.00  17 2.45  25 2.47
   6  0.114  0.412  0.171-  53 2.06  68 2.11  45 2.25   9 2.28  54 2.36  65 2.36  29 2.53  18 2.53

[...]

  32  0.728  0.799  0.451-  44 2.05  56 2.06  72 2.06  31 2.39
  33  0.015  0.843  0.146-  61 2.11  48 2.26  60 2.26  45 2.36  57 2.36  23 2.53  12 2.53
  34  0.166  0.693  0.274-  62 2.25  57 2.26  45 2.26  58 2.36  46 2.36  24 2.53  13 2.53
  35  0.316  0.543  0.402-  59 2.04  47 2.15  63 2.25  58 2.26  46 2.26  21 2.46
  36  0.770  0.998  0.084-  48 1.99  60 2.05  70 2.05  11 2.43
  37  0.989  0.014  0.490-  25 2.10  17 2.10  10 2.11  40 2.62
  38  0.586  0.406  0.118-  11 1.98  26 2.06  27 2.26  15 2.26  14 2.36
  39  0.736  0.256  0.246-  11 2.10  12 2.25  28 2.26  16 2.26  15 2.36  27 2.36
  40  0.886  0.105  0.374-  17 2.04  25 2.05  13 2.25  16 2.36  28 2.36  37 2.62
  41  0.148  0.186  0.045-  18 2.03   1 2.06  29 2.08
  42  0.303  0.023  0.161-   1 2.15   2 2.25  19 2.26  30 2.26  29 2.36  18 2.36  61 2.77
  43  0.453  0.872  0.289-   3 2.25  31 2.26  20 2.26  30 2.36  19 2.36  44 2.79
  44  0.591  0.730  0.400-  32 2.05  31 2.18  20 2.20   4 2.25  43 2.79
  45  0.019  0.639  0.204-   9 2.14   6 2.25  24 2.26  34 2.26  33 2.36  23 2.36
  46  0.170  0.489  0.332-  21 2.06   7 2.25  35 2.26  24 2.36  34 2.36  47 2.57
  47  0.302  0.343  0.430-  35 2.15  21 2.20   8 2.21  46 2.57  59 2.72
  48  0.869  0.789  0.076-  36 1.99   9 2.00  33 2.26  23 2.26
  49  0.473  0.789  0.035-   2 2.05  26 2.09  22 2.10   1 2.20
  50  0.636  0.692  0.161-  26 2.04  23 2.25  22 2.26  27 2.26   3 2.26   2 2.36
  51  0.787  0.542  0.289-  24 2.25  28 2.26   4 2.26   3 2.36  27 2.36
  52  0.937  0.391  0.417-   5 2.00  25 2.14  21 2.28   4 2.36  28 2.36
  53  0.182  0.450  0.080-  14 2.06   6 2.06   9 2.18  29 2.19
  54  0.353  0.308  0.204-  14 2.14  15 2.25   7 2.26  30 2.26  29 2.36   6 2.36
  55  0.503  0.158  0.332-  16 2.25   8 2.26  31 2.26  30 2.36   7 2.36
  56  0.636  0.016  0.448-  32 2.06  17 2.12  31 2.13   8 2.14
  57  0.070  0.925  0.247-  19 2.25  34 2.26  13 2.26  12 2.36  33 2.36
  58  0.220  0.775  0.375-  10 2.07  20 2.25  35 2.26  34 2.36  13 2.36
  59  0.197  0.606  0.484-  35 2.04  10 2.05  21 2.07  47 2.72
  60  0.920  0.075  0.119-  36 2.05  11 2.14  18 2.25  33 2.26  12 2.26
  61  0.191  0.851  0.091-   2 2.09  33 2.11   1 2.16  42 2.77
  62  0.350  0.641  0.204-  14 2.19  34 2.25   3 2.26  15 2.26   2 2.36
  63  0.501  0.491  0.333-  35 2.25   4 2.26  16 2.26  15 2.36   3 2.36
  64  0.646  0.344  0.445-   5 2.00  16 2.06  17 2.16   4 2.16
  65  0.067  0.258  0.247-  28 2.25   7 2.26  19 2.26  18 2.36   6 2.36
  66  0.218  0.108  0.375-  25 2.13   8 2.26  20 2.26  19 2.36   7 2.36
  67  0.391  0.957  0.483-  20 2.00   8 2.01
  68  0.923  0.404  0.132-   6 2.11  27 2.14   9 2.15  18 2.19
  69  0.457  0.075  0.048-   1 2.07  29 2.10  22 2.12
  70  0.634  0.025  0.162-  36 2.05  22 2.15  30 2.25  23 2.26  12 2.26  11 2.35
  71  0.784  0.874  0.290-  31 2.25  24 2.26  13 2.26  12 2.36  23 2.36
  72  0.934  0.724  0.418-  32 2.06  10 2.08  21 2.17  13 2.36  24 2.36

  LATTYP: Found a base centered orthorhombic cell.
 ALAT       =    11.4527836704
 B/A-ratio  =     1.4485816945
 C/A-ratio  =     1.7901333131

  Lattice vectors:

 A1 = (  10.0797329849,   0.0000000000,   0.0000000000)
 A2 = (  -3.5732980427,  -9.4251025535,   0.0000000000)
 A3 = (   0.0000000000,   0.0000000000, -20.5020095760)

Analysis of symmetry for initial positions (statically):
 Subroutine PRICEL returns:
 Original cell was already a primitive cell.

 Routine SETGRP: Setting up the symmetry group for a
 base centered orthorhombic supercell.

 Subroutine GETGRP returns: Found  1 space group operations
 (whereof  1 operations were pure point group operations)
 out of a pool of  8 trial point group operations.

The static configuration has the point symmetry C_1 .

Analysis of symmetry for dynamics (positions and initial velocities):
 Subroutine PRICEL returns:
 Original cell was already a primitive cell.

 Routine SETGRP: Setting up the symmetry group for a
 base centered orthorhombic supercell.

 Subroutine GETGRP returns: Found  1 space group operations
 (whereof  1 operations were pure point group operations)
 out of a pool of  8 trial point group operations.

The dynamic configuration has the point symmetry C_1 .

 Subroutine INISYM returns: Found  1 space group operations
 (whereof  1 operations are pure point group operations),
 and found     1 'primitive' translations

 KPOINTS: gamma-point-only calculation. no periodi

Automatic generation of k-mesh.
Space group operators:
 irot       det(A)        alpha          n_x          n_y          n_z        tau_x        tau_y        tau_z
    1     1.000000     0.000001     1.000000     0.000000     0.000000     0.000000     0.000000     0.000000

 Subroutine IBZKPT returns following result:

 Found      1 irreducible k-points:

 Following reciprocal coordinates:
            Coordinates               Weight
  0.000000  0.000000  0.000000      1.000000

 Following cartesian coordinates:
            Coordinates               Weight
  0.000000  0.000000  0.000000      1.000000

 SYSTEM =  "Millerite NiS"
 POSCAR =  Type_036 Type_136

 Startparameter for this run:
   NWRITE =      2    write-flag & timer
   PREC   = normal    normal or accurate (medium, high low for compatibility)
   ISTART =      0    job   : 0-new  1-cont  2-samecut
   ICHARG =      2    charge: 1-file 2-atom 10-const
   ISPIN  =      1    spin polarized calculation?
   LNONCOLLINEAR =      F non collinear calculations
   LSORBIT =      F    spin-orbit coupling
   INIWAV =      1    electr: 0-lowe 1-rand  2-diag
   LASPH  =      F    aspherical Exc in radial PAW
   METAGGA=      F    non-selfconsistent MetaGGA calc.

 Electronic Relaxation 1
   ENCUT  =  450.0 eV  33.07 Ry    5.75 a.u.  17.43 17.43 35.46*2*pi/ulx,y,z
   ENINI  =  450.0     initial cutoff
   ENAUG  =  703.4 eV  augmentation charge cutoff
   NELM   =    100;   NELMIN=  2; NELMDL= -5     # of ELM steps
   EDIFF  = 0.1E-03   stopping-criterion for ELM
   LREAL  =      T    real-space projection
   NLSPLINE    = F    spline interpolate recip. space projectors
   LCOMPAT=      F    compatible to vasp.4.4
   GGA_COMPAT  = T    GGA compatible to vasp.4.4-vasp.4.6
   LMAXPAW     = -100 max onsite density
   LMAXMIX     =    2 max onsite mixed and CHGCAR
   VOSKOWN=      0    Vosko Wilk Nusair interpolation
   ROPT   =   -0.00050  -0.00050
 Ionic relaxation
   EDIFFG = 0.1E-02   stopping-criterion for IOM
   NSW    =      0    number of steps for IOM
   NBLOCK =      1;   KBLOCK =      1    inner block; outer block
   IBRION =     -1    ionic relax: 0-MD 1-quasi-New 2-CG
   NFREE  =      0    steps in history (QN), initial steepest desc. (CG)
   ISIF   =      2    stress and relaxation
   IWAVPR =     10    prediction:  0-non 1-charg 2-wave 3-comb
   ISYM   =      2    0-nonsym 1-usesym 2-fastsym
   LCORR  =      T    Harris-Foulkes like correction to forces

   POTIM  = 0.5000    time-step for ionic-motion
   TEIN   =    0.0    initial temperature
   TEBEG  =    0.0;   TEEND  =   0.0 temperature during run
   SMASS  =  -3.00    Nose mass-parameter (am)
   estimated Nose-frequenzy (Omega)   =  0.10E-29 period in steps =****** mass=  -0.232E-26a.u.
   SCALEE = 1.0000    scale energy and forces
   NPACO  =    256;   APACO  = 16.0  distance and # of slots for P.C.
   PSTRESS=    0.0 pullay stress

  Mass of Ions in am
   POMASS =  58.69 32.07
  Ionic Valenz
   ZVAL   =  16.00  6.00
  Atomic Wigner-Seitz radii
  virtual crystal weights
   VCA    =   1.00  1.00
   NELECT =     792.0000    total number of electrons
   NUPDOWN=      -1.0000    fix difference up-down

 DOS related values:
   EMIN   =  10.00;   EMAX   =-10.00  energy-range for DOS
   EFERMI =   0.00
   ISMEAR =     0;   SIGMA  =   0.20  broadening in eV -4-tet -1-fermi 0-gaus

 Electronic relaxation 2 (details)
   IALGO  =     38    algorithm
   LDIAG  =      T    sub-space diagonalisation (order eigenvalues)
   LSUBROT=      F    optimize rotation matrix (better conditioning)
   TURBO    =      0    0=normal 1=particle mesh
   IRESTART =      0    0=no restart 2=restart with 2 vectors
   NREBOOT  =      0    no. of reboots
   NMIN     =      0    reboot dimension
   EREF     =   0.00    reference energy to select bands
   IMIX   =      4    mixing-type and parameters
     AMIX     =   0.40;   BMIX     =  1.00
     AMIX_MAG =   1.60;   BMIX_MAG =  1.00
     AMIN     =   0.10
     WC   =   100.;   INIMIX=   1;  MIXPRE=   1;  MAXMIX= -45

 Intra band minimization:
[...]
  Fock        0.00000     0.00000     0.00000     0.00000     0.00000     0.00000
  Total      82.02397    89.84951   101.69117    -4.64034    -2.82514     0.00521
  in kB      67.47142    73.90856    83.64930    -3.81706    -2.32391     0.00429

 VOLUME and BASIS-vectors are now :
  energy-cutoff  :      450.00
  volume of cell :     1947.74
      direct lattice vectors                 reciprocal lattice vectors
    10.079732985  0.000000000  0.000000000     0.099208977 -0.037612667  0.000000000
     3.573298043  9.425102554  0.000000000     0.000000000  0.106099641  0.000000000
     0.000000000  0.000000000 20.502009576     0.000000000  0.000000000  0.048775706

  length of vectors
    10.079732985 10.079732985 20.502009576     0.106099641  0.106099641  0.048775706

 FORCES acting on ions
    electron-ion (+dipol)            ewald-force                    non-local-force                 convergence-correction
   0.534E+03 0.512E+01 0.541E+04   -.539E+03 -.409E+01 -.542E+04   0.339E+01 -.180E+01 0.805E+01   -.177E-02 -.216E-02 -.492E-02
   0.603E+03 0.333E+03 0.299E+04   -.607E+03 -.338E+03 -.299E+04   0.277E+01 0.322E+01 -.189E+01   0.102E-01 -.211E-01 0.133E-01
   0.675E+02 -.413E+03 -.259E+03   -.686E+02 0.414E+03 0.259E+03   0.884E+00 -.147E+01 -.295E+00   0.143E-01 -.213E-01 -.197E-01
   0.133E+03 -.714E+03 -.339E+04   -.133E+03 0.716E+03 0.339E+04   -.516E+00 -.154E+01 0.647E+00   0.128E-01 0.325E-02 -.535E-02
   -.113E+03 -.614E+03 -.565E+04   0.113E+03 0.612E+03 0.565E+04   0.518E+00 0.210E+01 0.554E+01   -.796E-02 0.338E-02 -.175E-01
   0.866E+02 -.148E+03 0.198E+04   -.865E+02 0.146E+03 -.198E+04   0.569E+00 0.744E+00 -.258E+01   -.867E-02 0.157E-01 0.953E-02
   -.551E+01 -.419E+03 -.129E+04   0.444E+01 0.420E+03 0.129E+04   0.102E+01 -.909E+00 0.108E+00   -.376E-02 0.489E-02 -.165E-01
   0.751E+02 -.583E+03 -.454E+04   -.756E+02 0.586E+03 0.454E+04   0.676E+00 -.116E+01 -.402E+01   0.148E-02 0.309E-02 -.139E-01
   0.122E+03 0.742E+02 0.470E+04   -.124E+03 -.757E+02 -.470E+04   0.296E+01 0.111E+01 0.422E+01   -.146E-01 0.807E-02 0.168E-01
   -.317E+03 -.499E+02 -.501E+04   0.318E+03 0.548E+02 0.501E+04   -.529E+00 -.388E+01 -.434E+01   -.235E-03 0.584E-02 -.296E-02
   0.883E+01 -.385E+03 0.359E+04   -.931E+01 0.384E+03 -.360E+04   0.105E+00 0.619E+00 0.503E+01   0.358E-02 0.123E-03 0.906E-02
   -.218E+03 -.190E+03 0.676E+03   0.220E+03 0.188E+03 -.671E+03   -.112E+01 0.874E+00 -.291E+01   -.112E-01 -.513E-02 -.180E-01
   -.637E+02 -.372E+03 -.201E+04   0.632E+02 0.374E+03 0.201E+04   0.570E+00 -.171E+01 0.133E+01   -.556E-02 0.505E-02 -.234E-01
   -.620E+02 -.342E+03 0.385E+04   0.616E+02 0.346E+03 -.385E+04   0.141E+01 -.429E+01 0.266E+01   0.145E-01 0.404E-02 0.160E-01
   0.309E+03 0.158E+03 0.712E+03   -.309E+03 -.156E+03 -.709E+03   0.477E+00 -.163E+01 -.194E+01   0.177E-01 0.680E-02 -.186E-01
   0.576E+03 0.140E+03 -.214E+04   -.579E+03 -.141E+03 0.214E+04   0.255E+01 0.448E+00 0.129E+01   0.119E-01 0.947E-02 -.194E-01
   0.521E+03 0.260E+03 -.498E+04   -.524E+03 -.262E+03 0.498E+04   0.198E+01 0.234E+01 -.359E+01   0.586E-02 0.145E-01 0.579E-02
   0.667E+03 0.807E+02 0.330E+04   -.670E+03 -.796E+02 -.330E+04   0.270E+01 -.108E+01 0.167E+01   -.228E-01 0.141E-01 0.162E-01
   0.418E+03 0.329E+03 -.199E+03   -.420E+03 -.329E+03 0.199E+03   0.129E+01 -.189E+00 -.992E-01   -.787E-02 0.308E-02 -.208E-03
   0.441E+03 0.485E+03 -.348E+04   -.445E+03 -.488E+03 0.348E+04   0.222E+01 0.189E+01 -.276E+01   0.325E-02 -.834E-02 -.208E-01
   0.324E+03 0.384E+03 -.437E+04   -.330E+03 -.387E+03 0.437E+04   0.389E+01 0.114E+01 -.209E+01   -.981E-02 -.774E-02 -.137E-01
   -.285E+03 0.313E+02 0.442E+04   0.286E+03 -.288E+02 -.443E+04   0.747E+00 -.265E+01 0.362E+01   0.318E-01 -.620E-02 0.166E-01
   0.285E+03 0.392E+03 0.177E+04   -.285E+03 -.392E+03 -.177E+04   -.583E-01 0.251E+00 -.265E+01   0.126E-02 0.397E-02 -.102E-02
   0.397E+03 0.366E+03 -.119E+04   -.399E+03 -.366E+03 0.119E+04   0.126E+01 -.308E+00 0.325E+00   -.162E-01 -.109E-02 -.266E-01
   -.792E+03 0.146E+03 -.415E+04   0.797E+03 -.147E+03 0.416E+04   -.419E+01 0.117E+01 -.972E+00   -.125E-01 0.182E-01 -.516E-02
   -.104E+03 0.683E+03 0.519E+04   0.101E+03 -.684E+03 -.519E+04   0.281E+01 -.279E+00 0.324E+00   0.157E-01 -.184E-01 0.296E-01
   -.504E+03 0.923E+02 0.210E+04   0.507E+03 -.927E+02 -.210E+04   -.371E+01 0.249E+00 -.616E+00   -.410E-02 0.342E-02 0.490E-02
   -.484E+03 0.755E+02 -.107E+04   0.486E+03 -.748E+02 0.107E+04   -.160E+01 -.661E+00 0.190E+01   0.851E-03 0.146E-01 -.262E-01
   -.502E+03 -.310E+03 0.436E+04   0.507E+03 0.311E+03 -.436E+04   -.403E+01 -.536E-01 0.299E+01   0.687E-02 0.143E-01 0.715E-02
   -.356E+03 0.108E+03 0.761E+03   0.355E+03 -.109E+03 -.760E+03   0.449E-01 0.480E+00 -.374E+00   0.148E-01 -.198E-02 0.320E-02
   -.191E+03 0.107E+03 -.211E+04   0.194E+03 -.107E+03 0.210E+04   -.309E+01 0.982E+00 0.216E+01   0.885E-02 -.174E-01 -.156E-01
   0.611E+02 0.433E+03 -.507E+04   -.616E+02 -.434E+03 0.507E+04   0.867E+00 0.415E+00 0.117E+01   -.579E-02 -.474E-02 -.164E-01
   -.703E+03 0.221E+03 0.334E+04   0.706E+03 -.221E+03 -.334E+04   -.304E+01 -.107E+00 0.412E+00   -.308E-01 0.464E-02 0.120E-01
   -.524E+03 0.166E+03 -.143E+03   0.526E+03 -.166E+03 0.143E+03   -.157E+01 -.468E+00 0.570E+00   0.619E-02 -.511E-02 -.215E-01
   -.704E+03 0.126E+03 -.367E+04   0.710E+03 -.127E+03 0.366E+04   -.454E+01 0.548E+00 0.469E+00   0.139E-01 -.181E-02 -.221E-01
   -.190E+03 -.377E+03 0.545E+04   0.190E+03 0.380E+03 -.545E+04   -.562E+00 -.193E+01 0.486E+01   0.404E-02 -.408E-02 0.269E-01
   -.149E+03 0.128E+03 -.214E+04   0.150E+03 -.130E+03 0.214E+04   -.611E+00 0.115E+01 -.182E+01   -.410E-02 0.336E-02 0.793E-03
   0.732E+02 0.872E+02 0.181E+04   -.740E+02 -.892E+02 -.181E+04   -.922E+00 0.284E+01 0.358E+01   0.458E-02 0.643E-03 0.122E-01
   -.314E+02 0.686E+02 0.842E+02   0.317E+02 -.703E+02 -.824E+02   -.435E-01 0.142E+01 -.425E+00   0.285E-02 0.520E-02 -.158E-01
   -.752E+01 0.146E+03 -.821E+03   0.648E+01 -.149E+03 0.816E+03   0.706E+00 0.148E+01 0.156E+01   0.308E-03 0.169E-02 -.519E-02
   0.296E+03 -.216E+03 0.227E+04   -.299E+03 0.218E+03 -.228E+04   0.133E+01 -.155E+01 0.188E+01   -.521E-02 0.621E-03 -.296E-02
   0.941E+02 0.706E+02 0.828E+03   -.933E+02 -.706E+02 -.825E+03   -.846E+00 0.319E+00 -.504E-01   -.725E-03 -.162E-02 0.559E-02
   0.510E+02 0.141E+03 -.192E+03   -.514E+02 -.142E+03 0.191E+03   0.123E+00 0.208E+01 0.281E+00   0.171E-02 -.502E-02 -.643E-02
   0.175E+03 0.238E+03 -.139E+04   -.176E+03 -.240E+03 0.140E+04   0.551E+00 0.140E+00 -.777E+00   0.589E-02 -.509E-02 -.357E-02
   -.591E+02 0.883E+02 0.518E+03   0.609E+02 -.892E+02 -.516E+03   -.144E+01 0.132E+01 -.820E+00   -.561E-02 0.335E-02 -.606E-02
   -.325E+02 0.135E+03 -.533E+03   0.320E+02 -.136E+03 0.529E+03   0.629E+00 0.128E+01 0.128E+01   0.157E-02 -.218E-02 -.131E-01
   -.697E+02 0.108E+03 -.173E+04   0.692E+02 -.108E+03 0.174E+04   0.938E+00 -.146E+00 0.223E+00   0.166E-02 -.208E-02 -.471E-02
   -.738E+02 0.155E+03 0.217E+04   0.739E+02 -.157E+03 -.218E+04   -.516E+00 0.132E+01 0.391E+01   -.354E-02 0.420E-02 0.106E-01
   0.535E+02 0.194E+03 0.236E+04   -.528E+02 -.196E+03 -.237E+04   -.163E+00 0.408E+00 0.273E+01   0.326E-02 -.292E-02 -.153E-03
   -.118E+03 0.284E+02 0.863E+03   0.120E+03 -.285E+02 -.861E+03   -.191E+01 0.840E+00 -.383E+00   0.784E-02 -.967E-02 0.698E-02
   -.112E+03 -.109E+03 -.249E+03   0.113E+03 0.111E+03 0.249E+03   -.152E+01 -.226E+01 0.229E+00   -.651E-02 -.199E-02 -.127E-01
   -.254E+03 -.203E+03 -.143E+04   0.256E+03 0.205E+03 0.143E+04   -.659E+00 -.510E+00 -.909E+00   -.130E-01 -.145E-03 -.525E-03
   -.691E+02 -.172E+03 0.217E+04   0.709E+02 0.174E+03 -.218E+04   -.722E+00 -.107E+01 0.241E+01   0.248E-02 0.871E-02 0.556E-02
   -.784E+02 -.147E+02 0.474E+03   0.801E+02 0.135E+02 -.473E+03   -.166E+01 0.575E+00 -.479E+00   0.776E-02 0.851E-02 -.308E-03
   -.802E+02 -.137E+03 -.651E+03   0.818E+02 0.140E+03 0.651E+03   -.149E+01 -.203E+01 -.640E+00   -.177E-02 -.560E-03 -.105E-01
   0.551E+01 -.115E+03 -.189E+04   -.348E+01 0.114E+03 0.190E+04   -.109E+01 0.501E+00 -.638E+00   0.532E-02 -.637E-02 0.308E-03
   -.155E+03 -.930E+02 0.176E+03   0.157E+03 0.948E+02 -.176E+03   -.193E+01 -.183E+01 0.382E+00   -.466E-02 0.162E-02 -.544E-02
   -.258E+03 -.105E+02 -.103E+04   0.260E+03 0.124E+02 0.103E+04   -.115E+01 -.200E+01 -.587E+00   0.204E-02 0.328E-03 -.782E-02
   -.179E+03 0.102E+03 -.224E+04   0.180E+03 -.103E+03 0.225E+04   -.670E+00 0.713E+00 -.253E+01   0.281E-02 0.212E-02 0.445E-02
   -.276E+03 -.141E+03 0.166E+04   0.278E+03 0.144E+03 -.166E+04   -.605E+00 -.148E+01 0.215E+01   -.138E-01 -.648E-03 0.518E-02
   0.250E+03 0.146E+03 0.177E+04   -.251E+03 -.149E+03 -.178E+04   0.386E+00 0.201E+01 0.240E+01   -.529E-02 -.272E-02 0.157E-02
   0.124E+03 -.159E+03 0.534E+03   -.126E+03 0.161E+03 -.535E+03   0.240E+01 -.168E+01 0.117E+01   0.163E-02 -.894E-02 -.674E-03
   0.174E+03 -.113E+03 -.780E+03   -.177E+03 0.115E+03 0.780E+03   0.271E+01 -.118E+01 -.105E+01   0.404E-02 0.493E-02 -.127E-01
   0.451E+03 -.242E+03 -.188E+04   -.456E+03 0.244E+03 0.188E+04   0.278E+01 -.148E+01 -.132E+01   0.119E-01 0.356E-02 0.561E-02
   0.139E+03 -.642E+02 0.857E+02   -.142E+03 0.657E+02 -.854E+02   0.240E+01 -.173E+01 -.472E-01   -.530E-02 0.304E-02 -.192E-02
   0.797E+02 -.527E+02 -.114E+04   -.825E+02 0.539E+02 0.114E+04   0.299E+01 -.132E+01 -.973E+00   -.167E-02 0.125E-02 -.946E-02
   0.114E+03 0.112E+03 -.224E+04   -.115E+03 -.114E+03 0.225E+04   -.210E-01 0.380E+00 -.556E-01   0.158E-02 -.365E-02 0.142E-02
   0.215E+03 0.379E+02 0.151E+04   -.219E+03 -.375E+02 -.151E+04   0.179E+01 -.152E+00 0.207E+01   -.115E-01 0.730E-02 0.818E-02
   -.302E+03 -.247E+03 0.213E+04   0.305E+03 0.249E+03 -.214E+04   -.754E+00 -.119E+01 0.326E+01   0.806E-02 -.317E-02 -.216E-02
   0.179E+03 -.193E+03 0.862E+03   -.182E+03 0.196E+03 -.860E+03   0.190E+01 -.134E+01 0.489E+00   0.147E-01 -.501E-02 0.720E-03
   0.148E+03 -.511E+02 -.311E+03   -.151E+03 0.523E+02 0.312E+03   0.301E+01 -.938E+00 -.928E+00   -.142E-02 -.167E-04 -.150E-01
   0.154E+03 0.815E+02 -.155E+04   -.158E+03 -.799E+02 0.155E+04   0.289E+01 -.161E+01 -.227E+01   -.101E-01 0.559E-02 -.263E-02
   -.159E+02 0.143E+02 -.312E+02   0.117E-11 -.117E-11 -.109E-10   0.160E+02 -.143E+02 0.315E+02   0.340E-01 0.383E-01 -.213E+00

 POSITION                                       TOTAL-FORCE (eV/Angst)
      6.55371      9.31195      1.18463        -1.568810     -0.767962     -1.749507
      6.84285      7.49250      2.62550        -1.128621     -1.025873      3.205509
      7.82056      6.07621      5.25100        -0.183416     -0.372617      0.064260
      8.79827      4.65991      7.87651         0.250577      0.464291     -0.257810
      9.53592      3.22017      9.99540         0.451168      0.081509      1.526184
      2.61774      3.87870      3.50067         0.649334     -1.251269      2.769353
      3.59545      2.46241      6.12617        -0.052379     -0.275650     -0.082874
      4.57317      1.04611      8.75167         0.123790      1.719139     -1.288949
     11.88223      5.56960      2.20131         0.022390     -0.379061     -0.645222
      3.71264      7.60562      9.28134         0.035207      1.045578      0.950614
      7.95842      2.03247      3.01698        -0.379680     -0.182723     -0.703125
      8.47237      0.26490      4.37584         0.427409     -1.096855      1.527380
     13.02338      8.27371      7.00134        -0.008570     -0.063979     -0.441720
      5.12743      4.48485      2.81428         0.996250      0.091324     -0.617350
      6.61816      3.96023      4.55733         0.520348     -0.182357      0.759489
      7.59587      2.54394      7.18283        -0.126055     -0.586901     -1.251771
      8.30578      1.18028      9.43663        -0.846002      0.291858      0.817524
      1.41534      1.76273      2.80700        -0.418107      0.101810      1.947377
      2.39305      0.34643      5.43250        -0.010019     -0.033653     -0.075378
      6.94406      8.35524      8.05800        -1.182601     -0.674016     -2.244752
      2.73347      4.81413      8.71430        -2.456979     -1.017452      0.925490
      9.02272      8.33183      1.96596         1.646720     -0.136684     -0.391896
     10.84326      7.57403      3.68216         0.088164     -0.355277      0.377907
     11.82097      6.15773      6.30767        -0.248198     -0.117566     -0.140483
      0.84396      1.56234      8.79856         0.835438      0.468969      0.460706
      8.03170      5.62780      1.68101         0.075988     -0.982580     -0.829168
      9.02296      4.33443      3.86366         0.015056     -0.134474      0.277502
     10.00068      2.91813      6.48916         0.181251      0.007943     -0.169002
      3.82015      2.13692      2.11332         0.672438      1.467962      1.244926
      4.79786      0.72063      4.73883        -0.081049     -0.013600      0.293360
      9.34887      8.72943      7.36433        -0.170696      0.714160     -2.480782
     10.19814      7.53196      9.24831         0.432183     -0.870020      1.146474
      3.16834      7.94822      2.98849         0.113529      0.078523      0.574175
      4.14605      6.53193      5.61399         0.429718      0.141813     -0.000380
      5.12376      5.11563      8.23950         1.563772      0.181788     -1.805943
     11.32800      9.40891      1.73061        -0.341470      0.627998     -1.559344
     10.02400      0.13611     10.04408         0.485217     -0.602604      2.126657
      7.35546      3.82659      2.42507        -1.749511      0.902224     -1.701802
      8.33317      2.41029      5.05057         0.244869     -0.196577      1.291518
      9.31088      0.99399      7.67607        -0.329208     -0.773072     -3.422860
      2.16165      1.75565      0.91516        -1.168045      0.737017     -3.299227
      3.13035      0.21279      3.30024        -0.107883      0.387756      2.919661
      7.68136      8.22159      5.92574        -0.239418      0.268595     -0.698078
      8.56691      6.87808      8.20144        -0.242060     -1.468856      1.340726
      2.47854      6.02409      4.17540         0.359650      0.449832      1.247562
      3.45626      4.60779      6.80091         0.062177      0.394451     -2.679444
      4.26558      3.23257      8.81848         0.497894     -0.857302      1.642148
     11.58056      7.44039      1.54990        -0.397000     -0.530644     -2.378445
      7.59019      7.43261      0.71390         0.517501     -1.232681     -3.846841
      8.88655      6.52099      3.30837         0.610583      0.749393      1.727494
      9.86427      5.10469      5.93387         0.226181      0.059721      0.173546
     10.84198      3.68840      8.55937         1.556508      1.255551     -0.568960
      3.44529      4.24168      1.64638         1.033714      1.223112     -2.844875
      4.66145      2.90719      4.18354         0.093037     -0.701003      0.495894
      5.63916      1.49089      6.80904         0.067189      0.009793     -0.808877
      6.46507      0.15509      9.18993         0.950859      0.150188      2.172494
      4.00964      8.71849      5.05870        -0.034306     -0.057634      0.362093
      4.98735      7.30220      7.68420         1.282331     -0.101259     -0.990893
      4.15131      5.70917      9.93081         0.619572     -0.131701      3.729482
      9.53836      0.70969      2.43320         1.621978      0.917836     -0.192320
      4.96145      8.01794      1.87283        -1.332220     -1.325029     -1.747016
      5.82436      6.04450      4.19167        -0.248311      0.603939      0.478062
      6.80207      4.62821      6.81717         0.047902      0.260597     -0.822744
      7.74191      3.24181      9.11909        -2.335252      1.107509      2.435553
      1.59925      2.43070      5.06683        -0.055077     -0.143569      0.324777
      2.57697      1.01441      7.69234         0.098445     -0.103871     -0.545960
      7.36315      9.02067      9.89547        -0.788590     -0.681810      4.151579
     10.74436      3.81225      2.70240        -1.831242      0.190683     -1.367109
      4.87541      0.70309      0.99292         2.164594      1.158356     -2.148979
      6.47617      0.23320      3.31650        -1.097983      0.988905      2.221056
     11.02718      8.24201      5.94200         0.354248      0.190776     -0.427184
     12.00489      6.82571      8.56750        -1.266420     -0.062720     -0.481460
    total drift:                                0.094528      0.045821      0.104442

  FREE ENERGIE OF THE ION-ELECTRON SYSTEM (eV)
  free  energy   TOTEN  =      -351.20961191 eV

  energy  without entropy=     -350.25765448  energy(sigma->0) =     -350.73363320