 vasp.5.4.4.18Apr17-6-g9f103f2a35 (build Aug 13 2019 17:33:20) gamma-only

 executed on             LinuxIFC date 2020.05.11  20:45:58

 INCAR:
 POTCAR:    PAW_PBE Ni_pv 06Sep2000
 POTCAR:    PAW_PBE S 06Sep2000
 POTCAR:    PAW_PBE Ni_pv 06Sep2000
   VRHFIN =Ni:

   TITEL  = PAW_PBE Ni_pv 06Sep2000
   POMASS =   58.690; ZVAL   =   16.000    mass and valenz
   ENMAX  =  367.986; ENMIN  =  275.989 eV

 POTCAR:    PAW_PBE S 06Sep2000
   VRHFIN =S : s2p4

   TITEL  = PAW_PBE S 06Sep2000
   POMASS =   32.066; ZVAL   =    6.000    mass and valenz
   ENMAX  =  258.689; ENMIN  =  194.016 eV

 Optimization of the real space projectors (new method)

 maximal supplied QI-value         = 18.90
 optimisation between [QCUT,QGAM] = [ 10.77, 21.73] = [ 32.49,132.25] Ry
 Optimized for a Real-space Cutoff    1.38 Angstroem

   l    n(q)    QCUT    max X(q) W(low)/X(q) W(high)/X(q)  e(spline)
   1      8    10.771     2.836    0.40E-04    0.29E-04    0.12E-06
   1      8    10.771     4.023    0.10E-03    0.48E-04    0.29E-06
   2      8    10.771    73.368    0.42E-03    0.97E-04    0.44E-06
   2      8    10.771    69.010    0.42E-03    0.99E-04    0.45E-06
   0      9    10.771    54.797    0.10E-03    0.56E-04    0.74E-07
   0      9    10.771    24.266    0.89E-04    0.49E-04    0.67E-07
 Optimization of the real space projectors (new method)

 maximal supplied QI-value         = 19.84
 optimisation between [QCUT,QGAM] = [ 10.71, 21.63] = [ 32.15,130.99] Ry
 Optimized for a Real-space Cutoff    1.19 Angstroem

   l    n(q)    QCUT    max X(q) W(low)/X(q) W(high)/X(q)  e(spline)
   0      8    10.715   187.594    0.41E-03    0.53E-04    0.66E-07
   0      8    10.715   164.243    0.41E-03    0.53E-04    0.65E-07
   1      7    10.715    67.533    0.19E-03    0.59E-03    0.68E-07
   1      7    10.715    50.729    0.19E-03    0.58E-03    0.67E-07
  PAW_PBE Ni_pv 06Sep2000               :
  PAW_PBE S 06Sep2000                   :

 POSCAR: Type_036 Type_136
  positions in cartesian coordinates
 exchange correlation table for  LEXCH =        8
   RHO(1)=    0.500       N(1)  =     2000
   RHO(2)=  100.500       N(2)  =     4000

 ion  position               nearest neighbor table
   1  0.780  0.145  0.121-  63 2.07  49 2.07  41 2.25  50 2.36  64 2.36
   2  0.797  0.145  0.285-  50 2.04  64 2.04  42 2.05
   3  0.224  0.645  0.095-  43 2.01  44 2.18  61 2.22  51 2.22   4 2.32
   4  0.297  0.645  0.216-  52 2.13  62 2.13  44 2.25  51 2.26  61 2.26   3 2.32  27 2.53  14 2.53

   5  0.396  0.145  0.125-  45 2.03  46 2.20  67 2.24  53 2.24   6 2.35
   6  0.470  0.145  0.248-  54 2.09  68 2.09  46 2.25  53 2.26  67 2.26   5 2.35  30 2.53  17 2.53

[...]

   9  0.102  0.145  0.326-  37 2.01  72 2.16  58 2.16   8 2.32
  10  0.642  0.645  0.280-  60 2.01  70 2.01  40 2.25  59 2.30  69 2.30  36 2.53  23 2.53
  11  0.922  0.934  0.131-  56 2.04  63 2.10  64 2.11  55 2.17  12 2.47  38 2.48
  12  0.946  0.016  0.274-  37 2.05  38 2.08  55 2.15  64 2.23  11 2.47  25 2.48
  13  0.402  0.518  0.042-  61 2.02  39 2.02  26 2.43  14 2.44
  14  0.425  0.513  0.191-  39 2.14  62 2.15  53 2.25  61 2.26  40 2.36  13 2.44  15 2.46  27 2.53
                             4 2.53
  15  0.464  0.472  0.335-  54 2.01  62 2.05  40 2.05  14 2.46
  16  0.566  0.019  0.065-  67 1.99  41 2.02  29 2.42
  17  0.597  0.013  0.223-  68 2.07  42 2.10  59 2.21  67 2.26  41 2.26   6 2.53  30 2.53
  18  0.080  0.513  0.127-  43 2.08  66 2.09  57 2.11  65 2.22  44 2.36  19 2.43   7 2.53  31 2.53

[...]

  24  0.922  0.356  0.131-  66 2.04  49 2.10  50 2.11  65 2.17  25 2.47  38 2.48
  25  0.946  0.275  0.274-  37 2.05  38 2.08  65 2.15  50 2.23  24 2.47  12 2.48
  26  0.402  0.772  0.042-  51 2.02  39 2.02  13 2.43  27 2.44
  27  0.425  0.777  0.191-  39 2.14  52 2.15  67 2.25  51 2.26  40 2.36  26 2.44  28 2.46  14 2.53
                             4 2.53
  28  0.464  0.818  0.335-  68 2.01  52 2.05  40 2.05  27 2.46
  29  0.566  0.272  0.065-  53 1.99  41 2.02  16 2.42
  30  0.597  0.277  0.223-  54 2.07  42 2.10  69 2.21  53 2.26  41 2.26   6 2.53  17 2.53
  31  0.080  0.777  0.127-  43 2.08  56 2.09  71 2.11  55 2.22  44 2.36  32 2.43   7 2.53  18 2.53

[...]

  37  0.989  0.145  0.365-   9 2.01  12 2.05  25 2.05
  38  0.991  0.145  0.182-  12 2.08  25 2.08   8 2.25  24 2.48  11 2.48
  39  0.480  0.645  0.101-  13 2.02  26 2.02  14 2.14  27 2.14
  40  0.509  0.645  0.278-  28 2.05  15 2.05  10 2.25  27 2.36  14 2.36
  41  0.647  0.145  0.119-  29 2.02  16 2.02   1 2.25  30 2.26  17 2.26  42 2.76
  42  0.675  0.145  0.287-   2 2.05  17 2.10  30 2.10  41 2.76
  43  0.120  0.645  0.034-   3 2.01  31 2.08  18 2.08
  44  0.164  0.645  0.214-  32 2.08  19 2.08   3 2.18   4 2.25  31 2.36  18 2.36
  45  0.289  0.145  0.066-   5 2.03  20 2.06  33 2.06
  46  0.336  0.145  0.246-  21 2.04  34 2.04   5 2.20   6 2.25  33 2.36  20 2.36
  47  0.819  0.645  0.151-  35 2.25  22 2.25   7 2.25  36 2.26  23 2.26
  48  0.836  0.645  0.324-  23 2.03  36 2.03
  49  0.834  0.295  0.047-  22 2.02   1 2.07  24 2.10  50 2.71
  50  0.829  0.314  0.214-   2 2.04  24 2.11  22 2.14  25 2.23  23 2.25   1 2.36  49 2.71
  51  0.312  0.814  0.119-  26 2.02   3 2.22  20 2.25   4 2.26  27 2.26
  52  0.349  0.794  0.297-  21 2.04  28 2.05   4 2.13  27 2.15
  53  0.484  0.314  0.151-  29 1.99   5 2.24  14 2.25  30 2.26   6 2.26
  54  0.524  0.292  0.325-  15 2.01  30 2.07   6 2.09
  55  0.991  0.824  0.224-  32 2.07  12 2.15   7 2.17  11 2.17  31 2.22  56 2.73
  56  0.976  0.790  0.057-  11 2.04  31 2.09   7 2.11  55 2.73  66 2.77
  57  0.140  0.322  0.110-   8 2.09  33 2.09  18 2.11  58 2.77
  58  0.174  0.314  0.278-  34 2.05  19 2.05   9 2.16   8 2.36  33 2.36  57 2.77
  59  0.666  0.825  0.189-  36 2.09  35 2.17  17 2.21  10 2.30  60 2.70
  60  0.694  0.789  0.352-  10 2.01  36 2.04  59 2.70  70 2.76
  61  0.312  0.477  0.119-  13 2.02   3 2.22  33 2.25   4 2.26  14 2.26
  62  0.349  0.496  0.297-  34 2.04  15 2.05   4 2.13  14 2.15
  63  0.834  0.996  0.047-  35 2.02   1 2.07  11 2.10  64 2.71
  64  0.829  0.977  0.214-   2 2.04  11 2.11  35 2.14  12 2.23  36 2.25   1 2.36  63 2.71
  65  0.991  0.467  0.224-  19 2.07  25 2.15   7 2.17  24 2.17  18 2.22  66 2.73
  66  0.976  0.501  0.057-  24 2.04  18 2.09   7 2.11  65 2.73  56 2.77
  67  0.484  0.977  0.151-  16 1.99   5 2.24  27 2.25  17 2.26   6 2.26
  68  0.524  0.999  0.325-  28 2.01  17 2.07   6 2.09
  69  0.666  0.466  0.189-  23 2.09  22 2.17  30 2.21  10 2.30  70 2.70
  70  0.694  0.501  0.352-  10 2.01  23 2.04  69 2.70  60 2.76
  71  0.140  0.968  0.110-   8 2.09  20 2.09  31 2.11  72 2.77
  72  0.174  0.977  0.278-  21 2.05  32 2.05   9 2.16   8 2.36  20 2.36  71 2.77

  LATTYP: Found a simple orthorhombic cell.
 ALAT       =     9.5784100000
 B/A-ratio  =     1.6880763216
 C/A-ratio  =     1.7627867312

  Lattice vectors:

 A1 = (   0.0000000000,   9.5784100000,   0.0000000000)
 A2 = (   0.0000000000,   0.0000000000, -16.1690871197)
 A3 = ( -16.8846940542,   0.0000000000,   0.0000000000)

Analysis of symmetry for initial positions (statically):
 Subroutine PRICEL returns:
 Original cell was already a primitive cell.

 Routine SETGRP: Setting up the symmetry group for a
 simple orthorhombic supercell.

 Subroutine GETGRP returns: Found  2 space group operations
 (whereof  1 operations were pure point group operations)
 out of a pool of  8 trial point group operations.

The static configuration has the point symmetry C_1 .
 The point group associated with its full space group is C_1h.

Analysis of symmetry for dynamics (positions and initial velocities):
 Subroutine PRICEL returns:
 Original cell was already a primitive cell.

 Routine SETGRP: Setting up the symmetry group for a
 simple orthorhombic supercell.

 Subroutine GETGRP returns: Found  2 space group operations
 (whereof  1 operations were pure point group operations)
 out of a pool of  8 trial point group operations.

The dynamic configuration has the point symmetry C_1 .
 The point group associated with its full space group is C_1h.

 Subroutine INISYM returns: Found  2 space group operations
 (whereof  1 operations are pure point group operations),
 and found     1 'primitive' translations

 KPOINTS: gamma-point-only calculation. no periodi

Automatic generation of k-mesh.
Space group operators:
 irot       det(A)        alpha          n_x          n_y          n_z        tau_x        tau_y        tau_z
    1     1.000000     0.000000     1.000000     0.000000     0.000000     0.000000     0.000000     0.000000
    2    -1.000000   180.000000     0.000000     1.000000     0.000000    -0.000000     0.290594     0.000000

 Subroutine IBZKPT returns following result:

 Found      1 irreducible k-points:

 Following reciprocal coordinates:
            Coordinates               Weight
  0.000000  0.000000  0.000000      1.000000

 Following cartesian coordinates:
            Coordinates               Weight
  0.000000  0.000000  0.000000      1.000000

 SYSTEM =  "Millerite NiS"
 POSCAR =  Type_036 Type_136

 Startparameter for this run:
   NWRITE =      2    write-flag & timer
   PREC   = normal    normal or accurate (medium, high low for compatibility)
   ISTART =      0    job   : 0-new  1-cont  2-samecut
   ICHARG =      2    charge: 1-file 2-atom 10-const
   ISPIN  =      1    spin polarized calculation?
   LNONCOLLINEAR =      F non collinear calculations
   LSORBIT =      F    spin-orbit coupling
   INIWAV =      1    electr: 0-lowe 1-rand  2-diag
   LASPH  =      F    aspherical Exc in radial PAW
   METAGGA=      F    non-selfconsistent MetaGGA calc.

 Electronic Relaxation 1
   ENCUT  =  450.0 eV  33.07 Ry    5.75 a.u.  29.20 16.57 27.97*2*pi/ulx,y,z
   ENINI  =  450.0     initial cutoff
   ENAUG  =  703.4 eV  augmentation charge cutoff
   NELM   =    100;   NELMIN=  2; NELMDL= -5     # of ELM steps
   EDIFF  = 0.1E-03   stopping-criterion for ELM
   LREAL  =      T    real-space projection
   NLSPLINE    = F    spline interpolate recip. space projectors
   LCOMPAT=      F    compatible to vasp.4.4
   GGA_COMPAT  = T    GGA compatible to vasp.4.4-vasp.4.6
   LMAXPAW     = -100 max onsite density
   LMAXMIX     =    2 max onsite mixed and CHGCAR
   VOSKOWN=      0    Vosko Wilk Nusair interpolation
   ROPT   =   -0.00050  -0.00050
 Ionic relaxation
   EDIFFG = 0.1E-02   stopping-criterion for IOM
   NSW    =      0    number of steps for IOM
   NBLOCK =      1;   KBLOCK =      1    inner block; outer block
   IBRION =     -1    ionic relax: 0-MD 1-quasi-New 2-CG
   NFREE  =      0    steps in history (QN), initial steepest desc. (CG)
   ISIF   =      2    stress and relaxation
   IWAVPR =     10    prediction:  0-non 1-charg 2-wave 3-comb
   ISYM   =      2    0-nonsym 1-usesym 2-fastsym
   LCORR  =      T    Harris-Foulkes like correction to forces

   POTIM  = 0.5000    time-step for ionic-motion
   TEIN   =    0.0    initial temperature
   TEBEG  =    0.0;   TEEND  =   0.0 temperature during run
   SMASS  =  -3.00    Nose mass-parameter (am)
   estimated Nose-frequenzy (Omega)   =  0.10E-29 period in steps =****** mass=  -0.652E-26a.u.
   SCALEE = 1.0000    scale energy and forces
   NPACO  =    256;   APACO  = 16.0  distance and # of slots for P.C.
[...]
  Fock        0.00000     0.00000     0.00000     0.00000     0.00000     0.00000
  Total     120.75380   116.04948   139.88530     0.00000     0.00000    -3.33423
  in kB      73.98425    71.10198    85.70586     0.00000     0.00000    -2.04284

 VOLUME and BASIS-vectors are now :
  energy-cutoff  :      450.00
  volume of cell :     2615.00
      direct lattice vectors                 reciprocal lattice vectors
    16.884694054  0.000000000  0.000000000     0.059225237  0.000000000  0.000000000
     0.000000000  9.578410000  0.000000000     0.000000000  0.104401461  0.000000000
     0.000000000  0.000000000 16.169087120     0.000000000  0.000000000  0.061846411

  length of vectors
    16.884694054  9.578410000 16.169087120     0.059225237  0.104401461  0.061846411

 FORCES acting on ions
    electron-ion (+dipol)            ewald-force                    non-local-force                 convergence-correction
   0.246E+03 -.940E-03 0.207E+04   -.249E+03 -.480E-07 -.208E+04   0.263E+01 0.000E+00 0.635E+01   0.519E-01 0.355E-05 -.891E-01
   0.268E+03 -.783E-03 -.280E+04   -.273E+03 -.348E-07 0.280E+04   0.511E+01 0.000E+00 0.798E+00   0.282E+00 0.391E-05 0.427E-01
   0.112E+03 -.724E-03 0.285E+04   -.111E+03 -.142E-07 -.286E+04   0.101E-02 0.000E+00 0.680E+01   -.379E-01 -.338E-06 -.104E+00
   0.508E+03 -.835E-03 -.113E+04   -.509E+03 0.616E-08 0.113E+04   0.138E+01 0.000E+00 -.301E+01   -.757E-01 0.191E-06 0.386E-01
   -.495E+02 -.692E-03 0.234E+04   0.487E+02 -.620E-08 -.234E+04   0.158E+01 0.000E+00 0.620E+01   -.776E-01 -.180E-06 -.266E+00
   0.970E+02 -.895E-03 -.174E+04   -.991E+02 0.275E-08 0.174E+04   0.187E+01 0.000E+00 -.537E+01   -.109E+00 0.382E-06 -.339E+00
   0.645E+03 -.722E-03 0.768E+03   -.650E+03 -.179E-07 -.766E+03   0.461E+01 0.000E+00 -.162E+01   -.700E-01 -.524E-05 -.804E-01
   0.560E+03 -.812E-03 0.855E+03   -.564E+03 -.123E-07 -.857E+03   0.402E+01 0.000E+00 0.306E+01   -.600E-01 0.290E-05 0.167E+00
   0.505E+02 -.876E-03 -.343E+04   -.515E+02 -.178E-07 0.343E+04   0.264E+01 0.000E+00 -.225E+01   -.196E+00 0.282E-05 -.108E-02
   0.387E+03 -.787E-03 -.170E+04   -.394E+03 -.125E-07 0.170E+04   0.567E+01 0.000E+00 -.173E+01   0.158E+00 -.625E-06 -.401E-01
   -.169E+03 -.179E+03 0.198E+04   0.171E+03 0.181E+03 -.199E+04   -.192E+01 -.748E+00 0.815E+01   0.525E-01 0.104E+00 0.931E-01
   0.147E+03 0.534E+03 -.238E+04   -.146E+03 -.535E+03 0.238E+04   -.175E+01 -.419E+00 -.545E+01   0.114E+00 0.234E+00 0.690E-01
   -.281E+03 0.528E+03 0.381E+04   0.280E+03 -.522E+03 -.381E+04   0.101E+01 -.652E+01 -.175E+01   0.731E-01 -.148E+00 -.238E+00
   -.567E+03 0.346E+03 0.158E+03   0.568E+03 -.349E+03 -.158E+03   -.979E+00 0.308E+01 0.301E+00   0.802E-02 -.143E+00 -.217E+00
   -.293E+03 0.824E+02 -.350E+04   0.296E+03 -.849E+02 0.349E+04   -.305E+01 0.289E+01 0.241E+01   -.561E-01 -.515E-02 0.102E+00
   -.324E+03 0.710E+03 0.343E+04   0.323E+03 -.705E+03 -.343E+04   0.987E+00 -.566E+01 -.126E+01   -.753E-03 0.145E+00 -.202E+00
   -.542E+03 0.593E+03 -.837E+03   0.546E+03 -.598E+03 0.840E+03   -.286E+01 0.505E+01 -.340E+01   0.160E+00 0.223E-01 -.348E+00
   0.122E+02 0.544E+03 0.193E+04   -.971E+01 -.549E+03 -.193E+04   -.161E+01 0.500E+01 0.248E+01   -.173E+00 -.160E+00 -.801E-01
   0.174E+03 -.150E+03 -.274E+04   -.171E+03 0.150E+03 0.274E+04   -.245E+01 0.166E+01 0.658E+00   -.115E+00 -.261E+00 0.545E-01
   0.121E+03 0.383E+03 0.130E+04   -.121E+03 -.387E+03 -.131E+04   0.819E+00 0.295E+01 0.442E+01   -.634E-01 0.248E+00 -.547E-01
   0.582E+02 0.165E+03 -.322E+04   -.574E+02 -.169E+03 0.322E+04   -.600E+00 0.426E+01 0.202E+01   -.229E+00 0.183E+00 -.151E-01
   0.521E+03 -.426E+03 0.252E+04   -.523E+03 0.429E+03 -.252E+04   0.199E+01 -.172E+01 0.650E+01   0.192E-01 0.206E-01 -.128E+00
   -.242E+03 0.231E+03 -.171E+04   0.247E+03 -.234E+03 0.171E+04   -.334E+01 0.234E+01 -.450E+01   0.102E-01 -.143E+00 -.116E+00
   -.169E+03 0.179E+03 0.198E+04   0.171E+03 -.181E+03 -.199E+04   -.192E+01 0.748E+00 0.815E+01   0.525E-01 -.104E+00 0.931E-01
   0.147E+03 -.534E+03 -.238E+04   -.146E+03 0.535E+03 0.238E+04   -.175E+01 0.419E+00 -.545E+01   0.114E+00 -.234E+00 0.690E-01
   -.281E+03 -.528E+03 0.381E+04   0.280E+03 0.522E+03 -.381E+04   0.101E+01 0.652E+01 -.175E+01   0.731E-01 0.148E+00 -.238E+00
   -.567E+03 -.346E+03 0.158E+03   0.568E+03 0.349E+03 -.158E+03   -.979E+00 -.308E+01 0.301E+00   0.802E-02 0.143E+00 -.217E+00
   -.293E+03 -.824E+02 -.350E+04   0.296E+03 0.849E+02 0.349E+04   -.305E+01 -.289E+01 0.241E+01   -.561E-01 0.515E-02 0.102E+00
   -.324E+03 -.710E+03 0.343E+04   0.323E+03 0.705E+03 -.343E+04   0.987E+00 0.566E+01 -.126E+01   -.753E-03 -.145E+00 -.202E+00
   -.542E+03 -.593E+03 -.837E+03   0.546E+03 0.598E+03 0.840E+03   -.286E+01 -.505E+01 -.340E+01   0.160E+00 -.223E-01 -.348E+00
   0.122E+02 -.544E+03 0.193E+04   -.971E+01 0.549E+03 -.193E+04   -.161E+01 -.500E+01 0.248E+01   -.173E+00 0.160E+00 -.801E-01
   0.174E+03 0.150E+03 -.274E+04   -.171E+03 -.150E+03 0.274E+04   -.245E+01 -.166E+01 0.658E+00   -.115E+00 0.261E+00 0.545E-01
   0.121E+03 -.383E+03 0.130E+04   -.121E+03 0.387E+03 -.131E+04   0.819E+00 -.295E+01 0.442E+01   -.634E-01 -.248E+00 -.547E-01
   0.582E+02 -.165E+03 -.322E+04   -.574E+02 0.169E+03 0.322E+04   -.600E+00 -.426E+01 0.202E+01   -.229E+00 -.183E+00 -.151E-01
   0.521E+03 0.426E+03 0.252E+04   -.523E+03 -.429E+03 -.252E+04   0.199E+01 0.172E+01 0.650E+01   0.192E-01 -.206E-01 -.128E+00
   -.242E+03 -.231E+03 -.171E+04   0.247E+03 0.234E+03 0.171E+04   -.334E+01 -.234E+01 -.450E+01   0.102E-01 0.143E+00 -.116E+00
   0.132E+03 -.886E-05 -.165E+04   -.132E+03 0.101E-07 0.165E+04   -.101E+01 0.000E+00 -.126E+01   0.266E-01 0.127E-05 -.860E-01
   -.752E+02 -.149E-04 0.487E+03   0.756E+02 -.289E-07 -.493E+03   0.913E+00 0.000E+00 0.283E+01   -.170E-01 0.175E-05 0.120E+00
   -.728E+03 -.180E-04 0.914E+03   0.735E+03 0.396E-07 -.916E+03   -.351E+01 0.000E+00 0.290E+00   0.578E-01 0.345E-06 -.110E+00
   -.334E+03 0.332E-05 -.636E+03   0.336E+03 -.173E-07 0.638E+03   0.113E+00 0.000E+00 -.157E+01   0.663E-01 -.570E-07 -.273E-01
   -.322E+03 0.327E-04 0.784E+03   0.325E+03 -.616E-07 -.786E+03   -.905E+00 0.000E+00 0.132E+01   -.125E+00 -.278E-07 -.129E+00
   -.111E+03 -.182E-05 -.110E+04   0.112E+03 -.769E-08 0.111E+04   -.289E-02 0.000E+00 -.253E+01   0.527E-01 0.477E-06 -.838E-02
   0.672E+02 0.112E-04 0.168E+04   -.662E+02 0.957E-08 -.169E+04   -.470E+00 0.000E+00 0.273E+01   -.784E-01 -.664E-06 -.913E-01
   -.702E+02 -.158E-05 -.423E+03   0.704E+02 0.814E-08 0.427E+03   0.612E+00 0.000E+00 -.252E+01   -.189E-01 -.585E-06 0.612E-02
   0.111E+03 0.418E-05 0.158E+04   -.112E+03 0.195E-08 -.159E+04   0.798E+00 0.000E+00 0.167E+01   -.216E-02 0.545E-07 0.166E-01
   -.963E+02 -.360E-04 -.581E+03   0.969E+02 0.401E-08 0.586E+03   0.766E+00 0.000E+00 -.429E+01   -.106E+00 0.134E-06 -.814E-01
   0.377E+02 0.749E-06 0.637E+03   -.364E+02 -.272E-07 -.640E+03   -.125E+01 0.000E+00 0.172E+01   0.640E-02 -.136E-05 -.591E-01
   -.368E+03 0.203E-04 -.136E+04   0.373E+03 0.154E-07 0.136E+04   -.215E+01 0.000E+00 -.283E+00   0.269E-01 -.127E-05 0.219E-01
   -.436E+02 0.172E+02 0.158E+04   0.445E+02 -.169E+02 -.159E+04   -.501E+00 -.345E+00 0.347E+01   0.312E-01 0.343E-01 -.579E-01
   0.733E+02 -.708E+02 -.345E+03   -.741E+02 0.705E+02 0.348E+03   -.137E+00 0.841E+00 -.185E+01   0.111E+00 -.160E-02 0.223E-01
   0.163E+03 -.225E+03 0.797E+03   -.164E+03 0.227E+03 -.801E+03   -.634E+00 -.143E+01 0.296E+01   -.416E-02 0.120E+00 -.424E-01
   0.195E+03 0.540E+02 -.115E+04   -.195E+03 -.530E+02 0.115E+04   -.224E+00 -.444E+00 -.208E+01   -.841E-01 0.413E-01 0.290E-01
   -.239E+02 -.215E+03 0.493E+03   0.224E+02 0.217E+03 -.495E+03   -.318E+00 -.515E+00 0.186E+01   0.535E-01 -.747E-01 -.173E+00
   -.184E+03 0.216E+02 -.138E+04   0.185E+03 -.207E+02 0.138E+04   -.499E+00 -.809E+00 -.210E+01   0.378E-01 -.946E-02 0.186E-01
   0.154E+03 0.815E+02 -.570E+03   -.154E+03 -.842E+02 0.574E+03   -.457E+00 0.161E+01 -.212E+01   -.721E-01 0.122E+00 0.424E-02
   0.113E+03 -.815E+02 0.154E+04   -.114E+03 0.824E+02 -.155E+04   0.811E+00 -.227E+00 0.370E+01   -.320E-01 0.299E-01 -.288E-01
   0.144E+03 0.524E+02 0.112E+04   -.145E+03 -.535E+02 -.112E+04   0.361E+00 0.957E+00 0.385E+01   0.333E-02 -.859E-01 0.102E-01
   0.696E+02 -.144E+03 -.888E+03   -.701E+02 0.146E+03 0.891E+03   0.204E-02 -.251E+01 -.168E+01   -.471E-01 -.146E+00 0.136E-01
   0.205E+03 0.110E+03 0.307E+03   -.208E+03 -.110E+03 -.310E+03   0.757E+00 0.454E+00 0.158E+01   0.252E-01 0.164E-01 -.713E-01
   -.118E+02 -.226E+03 -.149E+04   0.106E+02 0.230E+03 0.150E+04   0.848E+00 -.210E+01 -.139E+01   0.315E-01 0.225E-01 0.411E-01
   0.163E+03 0.225E+03 0.797E+03   -.164E+03 -.227E+03 -.801E+03   -.634E+00 0.143E+01 0.296E+01   -.416E-02 -.120E+00 -.424E-01
   0.195E+03 -.540E+02 -.115E+04   -.195E+03 0.530E+02 0.115E+04   -.224E+00 0.444E+00 -.208E+01   -.841E-01 -.413E-01 0.290E-01
   -.436E+02 -.172E+02 0.158E+04   0.445E+02 0.169E+02 -.159E+04   -.501E+00 0.345E+00 0.347E+01   0.312E-01 -.343E-01 -.579E-01
   0.733E+02 0.708E+02 -.345E+03   -.741E+02 -.705E+02 0.348E+03   -.137E+00 -.841E+00 -.185E+01   0.111E+00 0.161E-02 0.223E-01
   0.154E+03 -.815E+02 -.570E+03   -.154E+03 0.842E+02 0.574E+03   -.457E+00 -.161E+01 -.212E+01   -.721E-01 -.122E+00 0.424E-02
   0.113E+03 0.815E+02 0.154E+04   -.114E+03 -.824E+02 -.155E+04   0.811E+00 0.227E+00 0.370E+01   -.320E-01 -.299E-01 -.288E-01
   -.239E+02 0.215E+03 0.493E+03   0.224E+02 -.217E+03 -.495E+03   -.318E+00 0.515E+00 0.186E+01   0.535E-01 0.747E-01 -.173E+00
   -.184E+03 -.216E+02 -.138E+04   0.185E+03 0.207E+02 0.138E+04   -.499E+00 0.809E+00 -.210E+01   0.378E-01 0.946E-02 0.186E-01
   0.205E+03 -.110E+03 0.307E+03   -.208E+03 0.110E+03 -.310E+03   0.757E+00 -.454E+00 0.158E+01   0.252E-01 -.164E-01 -.713E-01
   -.118E+02 0.226E+03 -.149E+04   0.106E+02 -.230E+03 0.150E+04   0.848E+00 0.210E+01 -.139E+01   0.315E-01 -.225E-01 0.411E-01
   0.144E+03 -.524E+02 0.112E+04   -.145E+03 0.535E+02 -.112E+04   0.361E+00 -.957E+00 0.385E+01   0.333E-02 0.859E-01 0.102E-01
   0.696E+02 0.144E+03 -.888E+03   -.701E+02 -.146E+03 0.891E+03   0.204E-02 0.251E+01 -.168E+01   -.471E-01 0.146E+00 0.136E-01
   0.447E+01 -.666E-02 -.372E+02   0.796E-12 -.279E-11 0.284E-11   -.409E+01 0.000E+00 0.409E+02   -.535E+00 -.270E-06 -.373E+01

 POSITION                                       TOTAL-FORCE (eV/Angst)
     13.17084      1.39171      1.94975        -0.439355      0.000000      1.074343
     13.45777      1.39171      4.60244         0.099824      0.000000      0.488166
      3.78356      6.18092      1.52986         0.847553      0.000000     -0.049373
      5.02033      6.18092      3.49202         0.114767      0.000000      0.040644
      6.67829      1.39171      2.01848         0.735609      0.000000     -0.253656
      7.93172      1.39171      4.00611        -0.322494      0.000000     -0.798467
     16.08224      6.18092      2.46384        -0.885216      0.000000      0.274768
      2.10894      1.39171      2.97793        -0.548466      0.000000      0.242966
      1.71497      1.39171      5.26724         1.447724      0.000000      0.628556
     10.84312      6.18092      4.52020        -1.820197      0.000000     -2.616168
     15.56717      8.94956      2.12441         0.629617      1.457583      0.319858
     15.97326      0.15218      4.43538        -0.876887     -0.587274     -0.116091
      6.79409      4.96447      0.67421         0.040434     -0.570594     -1.324005
      7.17375      4.91558      3.08454         0.050912     -0.562111      0.008279
      7.83510      4.52376      5.42336         0.002273      0.321956      1.062717
      9.55160      0.18163      1.05691         0.092674     -0.488597     -1.247685
     10.08514      0.12638      3.59863         0.595198     -0.412876     -1.503546
      1.35096      4.91558      2.05636         0.703295     -0.099514      0.401556
      1.73490      4.66779      4.44501         0.336114      0.651180      0.886108
      4.26235      0.12638      2.57045         0.228455     -0.876998      1.386211
      4.91739      9.38303      5.00619         0.016908      0.034852      0.741133
     13.06495      4.13628      1.90864        -0.684262      0.809660     -0.003995
     12.99653      4.91558      4.11272         0.869680     -0.461024     -0.795622
     15.56717      3.41228      2.12441         0.629617     -1.457583      0.319858
     15.97326      2.63125      4.43538        -0.876887      0.587274     -0.116091
      6.79409      7.39737      0.67421         0.040434      0.570594     -1.324005
      7.17375      7.44626      3.08454         0.050912      0.562111      0.008279
      7.83510      7.83808      5.42336         0.002273     -0.321956      1.062717
      9.55160      2.60180      1.05691         0.092674      0.488597     -1.247685
     10.08514      2.65705      3.59863         0.595198      0.412876     -1.503546
      1.35096      7.44626      2.05636         0.703295      0.099514      0.401556
      1.73490      7.69405      4.44501         0.336114     -0.651180      0.886108
      4.26235      2.65705      2.57045         0.228455      0.876998      1.386211
      4.91739      2.97881      5.00619         0.016908     -0.034852      0.741133
     13.06495      8.22555      1.90864        -0.684262     -0.809660     -0.003995
     12.99653      7.44626      4.11272         0.869680      0.461024     -0.795622
     16.69231      1.39171      5.90598        -0.752323      0.000000      3.798815
     16.74052      1.39171      2.94940         1.301433      0.000000     -2.673124
      8.09713      6.18092      1.63134         3.350174      0.000000     -1.645997
      8.59001      6.18092      4.49167         1.971745      0.000000      0.411784
     10.91773      1.39171      1.92122         2.227665      0.000000     -1.204187
     11.40329      1.39171      4.64122         0.989251      0.000000      2.822756
      2.03257      6.18092      0.54638         0.411960      0.000000     -3.710131
      2.76722      6.18092      3.46349         0.781351      0.000000      1.728114
      4.88213      1.39171      1.06944         0.401236      0.000000     -3.962904
      5.67861      1.39171      3.97758         1.331845      0.000000      0.328308
     13.82913      6.18092      2.43531         0.066773      0.000000     -1.731070
     14.11499      6.18092      5.24333         2.568750      0.000000      2.961368
     14.08859      2.82133      0.76115         0.436910      0.007146     -3.754711
     13.99844      3.00295      3.46826        -0.879016      0.549807      1.839712
      5.26426      7.79215      1.92599        -1.405675      0.819734     -0.641214
      5.89937      7.60617      4.80454        -1.185660      0.639544      1.827900
      8.17565      3.00295      2.44008        -1.747231      1.221951     -0.052700
      8.85029      2.79579      5.25796         0.191554      0.124220      2.893045
     16.73507      7.89259      3.62386        -0.380421     -0.930669      2.420697
     16.47893      7.56763      0.92635        -0.308443      0.697402     -3.195270
      2.37141      3.08583      1.78096        -0.550580     -0.233347     -2.738802
      2.93654      3.00295      4.49645        -0.617164     -0.609767      1.142630
     11.25045      7.90230      3.05413        -2.163580      0.162874     -1.128299
     11.71698      7.55952      5.69637        -0.334912      1.516989      3.494341
      5.26426      4.56969      1.92599        -1.405675     -0.819734     -0.641214
      5.89937      4.75567      4.80454        -1.185660     -0.639544      1.827900
     14.08859      9.54051      0.76115         0.436910     -0.007146     -3.754711
     13.99844      9.35889      3.46826        -0.879016     -0.549807      1.839712
     16.73507      4.46924      3.62386        -0.380421      0.930669      2.420697
     16.47893      4.79421      0.92635        -0.308443     -0.697402     -3.195270
      8.17565      9.35889      2.44008        -1.747231     -1.221951     -0.052700
      8.85029      9.56605      5.25796         0.191554     -0.124220      2.893045
     11.25045      4.45954      3.05413        -2.163580     -0.162874     -1.128299
     11.71698      4.80231      5.69637        -0.334912     -1.516989      3.494341
      2.37141      9.27601      1.78096        -0.550580      0.233347     -2.738802
      2.93654      9.35889      4.49645        -0.617164      0.609767      1.142630
    total drift:                               -0.151667     -0.006662     -0.000105

  FREE ENERGIE OF THE ION-ELECTRON SYSTEM (eV)
  free  energy   TOTEN  =      -339.01940300 eV

  energy  without entropy=     -337.62662373  energy(sigma->0) =     -338.32301336