 vasp.5.4.4.18Apr17-6-g9f103f2a35 (build Aug 13 2019 17:33:20) gamma-only

 executed on             LinuxIFC date 2020.05.11  02:19:11

 INCAR:
 POTCAR:    PAW_PBE Ni_pv 06Sep2000
 POTCAR:    PAW_PBE S 06Sep2000
 POTCAR:    PAW_PBE Ni_pv 06Sep2000
   VRHFIN =Ni:

   TITEL  = PAW_PBE Ni_pv 06Sep2000
   POMASS =   58.690; ZVAL   =   16.000    mass and valenz
   ENMAX  =  367.986; ENMIN  =  275.989 eV

 POTCAR:    PAW_PBE S 06Sep2000
   VRHFIN =S : s2p4

   TITEL  = PAW_PBE S 06Sep2000
   POMASS =   32.066; ZVAL   =    6.000    mass and valenz
   ENMAX  =  258.689; ENMIN  =  194.016 eV

 Optimization of the real space projectors (new method)

 maximal supplied QI-value         = 18.90
 optimisation between [QCUT,QGAM] = [ 10.77, 21.73] = [ 32.49,132.25] Ry
 Optimized for a Real-space Cutoff    1.38 Angstroem

   l    n(q)    QCUT    max X(q) W(low)/X(q) W(high)/X(q)  e(spline)
   1      8    10.771     2.836    0.40E-04    0.29E-04    0.12E-06
   1      8    10.771     4.023    0.10E-03    0.48E-04    0.29E-06
   2      8    10.771    73.368    0.42E-03    0.97E-04    0.44E-06
   2      8    10.771    69.010    0.42E-03    0.99E-04    0.45E-06
   0      9    10.771    54.797    0.10E-03    0.56E-04    0.74E-07
   0      9    10.771    24.266    0.89E-04    0.49E-04    0.67E-07
 Optimization of the real space projectors (new method)

 maximal supplied QI-value         = 19.84
 optimisation between [QCUT,QGAM] = [ 10.71, 21.63] = [ 32.15,130.99] Ry
 Optimized for a Real-space Cutoff    1.19 Angstroem

   l    n(q)    QCUT    max X(q) W(low)/X(q) W(high)/X(q)  e(spline)
   0      8    10.715   187.594    0.41E-03    0.53E-04    0.66E-07
   0      8    10.715   164.243    0.41E-03    0.53E-04    0.65E-07
   1      7    10.715    67.533    0.19E-03    0.59E-03    0.68E-07
   1      7    10.715    50.729    0.19E-03    0.58E-03    0.67E-07
  PAW_PBE Ni_pv 06Sep2000               :
  PAW_PBE S 06Sep2000                   :

 POSCAR: Type_052 Type_152
  positions in cartesian coordinates
 exchange correlation table for  LEXCH =        8
   RHO(1)=    0.500       N(1)  =     2000
   RHO(2)=  100.500       N(2)  =     4000

 ion  position               nearest neighbor table
   1  0.261  0.479  0.291-  79 2.25  63 2.26  87 2.26  59 2.36  64 2.36   8 2.53  22 2.53
   2  0.355  0.385  0.419-  65 2.03  57 2.10  59 2.26  64 2.26  80 2.27  71 2.38   9 2.53  23 2.53

   3  0.077  0.163  0.056-  68 2.09  88 2.09  60 2.09
   4  0.167  0.073  0.162-  69 2.25  60 2.26  88 2.26  61 2.36  89 2.36  38 2.53  32 2.53
   5  0.061  0.054  0.481-  83 2.07  54 2.08  78 2.14  84 2.16  21 2.47
   6  0.203  0.316  0.034-  60 2.09  55 2.17  62 2.22   7 2.34  39 2.51
   7  0.274  0.333  0.128-  55 2.06  62 2.13  60 2.25   6 2.34  56 2.36  63 2.36  12 2.53  30 2.53

[...]

  37  0.189  0.679  0.481-  57 2.03  80 2.09  91 2.13  84 2.15  36 2.47
  38  0.406  0.965  0.128- 101 2.12  81 2.26  60 2.26  82 2.36  61 2.36   4 2.53  32 2.53
  39  0.214  0.529  0.057-  55 2.02  62 2.06  86 2.07  30 2.47   6 2.51
  40  0.761  0.979  0.291-  66 2.25 102 2.26  74 2.26  98 2.36 103 2.36  48 2.53  35 2.53
  41  0.855  0.885  0.419- 104 2.14  67 2.21  96 2.21  98 2.26 103 2.26  84 2.36  42 2.53  49 2.53
                            36 2.53
  42  0.937  0.785  0.518- 104 2.01  84 2.01  96 2.04  41 2.53
  43  0.531  0.701  0.090-  81 2.00  82 2.12  75 2.17  99 2.26  44 2.27  18 2.44
  44  0.667  0.573  0.162-  99 2.11  82 2.25  75 2.26  43 2.27 100 2.36  76 2.36  25 2.53  19 2.53

[...]

  53  0.073  0.167  0.306-  27 2.25  11 2.26  21 2.26  10 2.36  20 2.36  54 2.60
  54  0.165  0.075  0.410-   5 2.08  21 2.13  11 2.13  28 2.26  83 2.55  53 2.60
  55  0.374  0.349  0.055-  39 2.02   7 2.06   6 2.17  12 2.25
  56  0.479  0.261  0.178-  17 2.25   8 2.26  22 2.26   7 2.36  12 2.36
  57  0.299  0.484  0.500-  37 2.03   2 2.10  80 2.49  71 2.67
  58  0.023  0.370  0.463-  16 2.00  11 2.04  15 2.09
  59  0.436  0.472  0.350-  34 2.25   2 2.26  23 2.26   1 2.36  22 2.36
  60  0.248  0.160  0.093-  13 2.01   6 2.09   3 2.09   7 2.25   4 2.26  38 2.26
  61  0.342  0.066  0.221-   8 2.25  27 2.26  50 2.26   4 2.36  38 2.36
  62  0.084  0.473  0.098-  39 2.06   7 2.13  25 2.15   6 2.22  30 2.29
  63  0.174  0.397  0.221-  10 2.25   8 2.26   1 2.26   7 2.36  30 2.36
  64  0.268  0.303  0.350-  11 2.25   2 2.26   9 2.26   1 2.36   8 2.36
  65  0.389  0.217  0.464-   9 2.00   2 2.03
  66  0.573  0.167  0.306-  40 2.25  23 2.26   9 2.26  22 2.36   8 2.36  67 2.54
  67  0.667  0.067  0.405-  24 2.05   9 2.12  23 2.19  41 2.21  66 2.54  96 2.63
  68  0.900  0.339  0.061-  18 2.04   3 2.09  19 2.12  25 2.13
  69  0.979  0.261  0.178-   4 2.25  20 2.26  10 2.26  19 2.36  25 2.36
  70  0.743  0.466  0.513-  16 2.01  45 2.06  15 2.45  93 2.57  78 2.70
  71  0.554  0.352  0.468-  23 2.05  45 2.11  24 2.12   2 2.38  57 2.67
  72  0.936  0.472  0.350-  49 2.25  15 2.26  11 2.26  14 2.36  10 2.36
  73  0.767  0.154  0.098-  46 2.06  52 2.12  19 2.17  26 2.21  17 2.29
  74  0.842  0.066  0.221-  20 2.25  40 2.26  35 2.26  17 2.36  52 2.36
  75  0.580  0.491  0.093-  18 2.05  43 2.17  12 2.25  19 2.26  44 2.26
  76  0.674  0.397  0.221-  22 2.25  20 2.26  14 2.26  19 2.36  44 2.36
  77  0.768  0.303  0.350-  23 2.25  15 2.26  21 2.26  14 2.36  20 2.36
  78  0.862  0.209  0.478-  16 2.01  24 2.08   5 2.14  15 2.36  21 2.36  70 2.70
  79  0.073  0.667  0.306-   1 2.25  36 2.26  49 2.26  35 2.36  48 2.36  80 2.61
  80  0.163  0.575  0.410-  37 2.09  49 2.11  36 2.14   2 2.27  57 2.49  79 2.61
  81  0.385  0.855  0.050-  43 2.00  13 2.07  31 2.07  38 2.26  32 2.26
  82  0.479  0.761  0.178-  43 2.12  44 2.25  33 2.26  50 2.26  32 2.36  38 2.36
  83  0.257  0.968  0.509-  29 2.02   5 2.07  28 2.32  54 2.55  91 2.70
  84  0.030  0.878  0.478-  42 2.01  37 2.15   5 2.16  36 2.36  41 2.36  96 2.66
  85  0.436  0.972  0.350-   9 2.25  28 2.26  51 2.26  27 2.36  50 2.36  97 2.78
  86  0.259  0.657  0.107-  39 2.07  12 2.11  30 2.12  32 2.12
  87  0.342  0.566  0.221-  33 2.25   1 2.26  22 2.26  30 2.36  12 2.36
  88  0.080  0.991  0.093-  31 2.01   3 2.09  26 2.10  52 2.25  32 2.26   4 2.26
  89  0.174  0.897  0.221-  35 2.25  33 2.26  27 2.26  32 2.36   4 2.36
  90  0.268  0.803  0.350-  36 2.25  28 2.26  34 2.26  27 2.36  33 2.36
  91  0.362  0.709  0.478-  29 2.01  37 2.13  45 2.16  28 2.36  34 2.36  83 2.70
  92  0.573  0.667  0.306-  14 2.25  51 2.26  34 2.26  50 2.36  33 2.36  93 2.64
  93  0.662  0.575  0.412-  45 2.09  34 2.11  51 2.14  15 2.27  70 2.57  92 2.64
  94  0.890  0.866  0.055-  46 2.02  52 2.07  26 2.16  47 2.24
  95  0.979  0.761  0.178-  30 2.25  48 2.26  35 2.26  47 2.36  52 2.36
  96  0.776  0.964  0.507-  42 2.04  24 2.06  41 2.21  67 2.63  84 2.66 104 2.77
  97  0.523  0.876  0.462-  29 2.00  51 2.04  28 2.09  85 2.78
  98  0.936  0.972  0.350-  21 2.25  41 2.26  36 2.26  40 2.36  35 2.36
  99  0.745  0.663  0.102-  18 2.08  44 2.11  47 2.17  25 2.23  43 2.26
 100  0.842  0.566  0.221-  48 2.25  14 2.26  10 2.26  44 2.36  25 2.36
 101  0.582  0.981  0.107-  46 2.07  17 2.11  47 2.11  38 2.12
 102  0.674  0.897  0.221-  50 2.25  48 2.26  40 2.26  47 2.36  17 2.36
 103  0.768  0.803  0.350-  51 2.25  41 2.26  49 2.26  40 2.36  48 2.36 104 2.72
 104  0.854  0.714  0.459-  42 2.01  49 2.03  41 2.14 103 2.72  96 2.77

  LATTYP: Found a base centered orthorhombic cell.
 ALAT       =    11.8257374459
 B/A-ratio  =     1.6199260857
 C/A-ratio  =     1.9350716598

  Lattice vectors:

 A1 = (  11.2564630382,   0.0000000000,   0.0000000000)
 A2 = (  -5.0445621212, -10.0628203371,   0.0000000000)
 A3 = (   0.0000000000,   0.0000000000, -22.8836493875)

Analysis of symmetry for initial positions (statically):
 Subroutine PRICEL returns:
 Original cell was already a primitive cell.

 Routine SETGRP: Setting up the symmetry group for a
 base centered orthorhombic supercell.

 Subroutine GETGRP returns: Found  1 space group operations
 (whereof  1 operations were pure point group operations)
 out of a pool of  8 trial point group operations.

The static configuration has the point symmetry C_1 .

Analysis of symmetry for dynamics (positions and initial velocities):
 Subroutine PRICEL returns:
 Original cell was already a primitive cell.

 Routine SETGRP: Setting up the symmetry group for a
 base centered orthorhombic supercell.

 Subroutine GETGRP returns: Found  1 space group operations
 (whereof  1 operations were pure point group operations)
 out of a pool of  8 trial point group operations.

The dynamic configuration has the point symmetry C_1 .

 Subroutine INISYM returns: Found  1 space group operations
 (whereof  1 operations are pure point group operations),
 and found     1 'primitive' translations

 KPOINTS: gamma-point-only calculation. no periodi

Automatic generation of k-mesh.
Space group operators:
 irot       det(A)        alpha          n_x          n_y          n_z        tau_x        tau_y        tau_z
    1     1.000000     0.000001     1.000000     0.000000     0.000000     0.000000     0.000000     0.000000

 Subroutine IBZKPT returns following result:

 Found      1 irreducible k-points:

 Following reciprocal coordinates:
            Coordinates               Weight
  0.000000  0.000000  0.000000      1.000000

 Following cartesian coordinates:
            Coordinates               Weight
  0.000000  0.000000  0.000000      1.000000

 SYSTEM =  "Millerite NiS"
 POSCAR =  Type_052 Type_152

 Startparameter for this run:
   NWRITE =      2    write-flag & timer
   PREC   = normal    normal or accurate (medium, high low for compatibility)
   ISTART =      0    job   : 0-new  1-cont  2-samecut
   ICHARG =      2    charge: 1-file 2-atom 10-const
   ISPIN  =      1    spin polarized calculation?
   LNONCOLLINEAR =      F non collinear calculations
   LSORBIT =      F    spin-orbit coupling
   INIWAV =      1    electr: 0-lowe 1-rand  2-diag
   LASPH  =      F    aspherical Exc in radial PAW
   METAGGA=      F    non-selfconsistent MetaGGA calc.

 Electronic Relaxation 1
   ENCUT  =  450.0 eV  33.07 Ry    5.75 a.u.  19.47 19.47 39.58*2*pi/ulx,y,z
   ENINI  =  450.0     initial cutoff
   ENAUG  =  703.4 eV  augmentation charge cutoff
   NELM   =    100;   NELMIN=  2; NELMDL= -5     # of ELM steps
   EDIFF  = 0.1E-03   stopping-criterion for ELM
   LREAL  =      T    real-space projection
   NLSPLINE    = F    spline interpolate recip. space projectors
   LCOMPAT=      F    compatible to vasp.4.4
   GGA_COMPAT  = T    GGA compatible to vasp.4.4-vasp.4.6
   LMAXPAW     = -100 max onsite density
   LMAXMIX     =    2 max onsite mixed and CHGCAR
   VOSKOWN=      0    Vosko Wilk Nusair interpolation
   ROPT   =   -0.00050  -0.00050
 Ionic relaxation
   EDIFFG = 0.1E-02   stopping-criterion for IOM
   NSW    =      0    number of steps for IOM
   NBLOCK =      1;   KBLOCK =      1    inner block; outer block
   IBRION =     -1    ionic relax: 0-MD 1-quasi-New 2-CG
   NFREE  =      0    steps in history (QN), initial steepest desc. (CG)
   ISIF   =      2    stress and relaxation
   IWAVPR =     10    prediction:  0-non 1-charg 2-wave 3-comb
   ISYM   =      2    0-nonsym 1-usesym 2-fastsym
   LCORR  =      T    Harris-Foulkes like correction to forces

[...]
     0.000000000  0.000000000 22.883649388     0.000000000  0.000000000  0.043699324

  length of vectors
    11.256463038 11.256463038 22.883649388     0.099375718  0.099375718  0.043699324

 FORCES acting on ions
    electron-ion (+dipol)            ewald-force                    non-local-force                 convergence-correction
   0.279E+03 -.331E+03 -.797E+03   -.279E+03 0.331E+03 0.797E+03   0.389E+00 -.643E+00 0.615E+00   0.682E-01 -.151E+00 -.794E+00
   0.480E+03 -.102E+03 -.415E+04   -.480E+03 0.103E+03 0.415E+04   0.948E+00 -.677E+00 -.882E+00   -.331E-01 0.160E+00 -.440E+00
   0.390E+03 -.621E+03 0.526E+04   -.391E+03 0.624E+03 -.526E+04   0.899E+00 -.162E+01 0.396E+01   0.411E-01 -.152E+00 -.337E+00
   0.203E+03 -.354E+03 0.194E+04   -.204E+03 0.354E+03 -.194E+04   0.226E+00 -.283E+00 -.361E+01   -.652E-02 0.547E-01 -.574E+00
   -.245E+03 0.738E+02 -.548E+04   0.243E+03 -.740E+02 0.548E+04   0.172E+01 0.150E+00 -.124E+01   0.827E-02 -.836E-01 0.427E+00
   0.125E+02 -.319E+03 0.613E+04   -.123E+02 0.319E+03 -.614E+04   -.761E+00 0.494E+00 0.232E+01   -.219E-02 -.413E-01 -.118E+00
   -.971E+02 0.479E+03 0.303E+04   0.976E+02 -.482E+03 -.302E+04   -.321E+00 0.206E+01 -.263E+01   -.306E-01 0.395E-01 -.484E+00
   0.220E+03 0.442E+03 0.226E+03   -.221E+03 -.443E+03 -.226E+03   0.932E+00 0.498E+00 0.148E+01   0.104E+00 0.316E-01 -.715E+00
   0.436E+03 0.479E+03 -.316E+04   -.440E+03 -.482E+03 0.316E+04   0.401E+01 0.301E+01 -.250E+01   -.425E-01 -.105E+00 -.700E+00
   -.549E+03 -.666E+02 0.211E+03   0.550E+03 0.672E+02 -.212E+03   -.109E+01 -.665E+00 0.160E+01   0.284E+00 0.526E-01 -.804E+00
   -.802E+03 -.106E+03 -.304E+04   0.806E+03 0.106E+03 0.304E+04   -.407E+01 -.673E+00 -.169E+01   0.234E+00 -.133E-01 -.330E+00
   -.742E+03 0.177E+03 0.365E+04   0.745E+03 -.178E+03 -.365E+04   -.215E+01 0.211E+00 0.253E+00   -.116E+00 -.321E-01 -.377E+00
   -.941E+03 0.499E+02 0.617E+04   0.936E+03 -.484E+02 -.617E+04   0.548E+01 -.122E+01 -.192E-01   -.119E+00 0.560E-01 -.741E-01
   0.190E+03 -.409E+03 -.789E+03   -.190E+03 0.409E+03 0.789E+03   0.547E+00 -.607E+00 0.660E+00   -.130E+00 0.229E+00 -.654E+00
   0.297E+02 -.587E+03 -.376E+04   -.304E+02 0.588E+03 0.376E+04   -.119E+00 -.597E+00 0.236E+01   -.271E-01 0.149E+00 0.384E-01
   -.497E+03 -.187E+03 -.612E+04   0.501E+03 0.184E+03 0.612E+04   -.403E+01 0.242E+01 0.694E+00   0.939E-01 -.630E-01 0.547E+00
   0.339E+03 -.581E+03 0.227E+04   -.341E+03 0.584E+03 -.227E+04   0.142E+01 -.273E+01 -.128E+01   0.110E-01 -.699E-02 -.622E+00
   0.397E+01 -.120E+03 0.632E+04   -.333E+01 0.120E+03 -.633E+04   -.461E+00 0.996E-02 0.469E+01   -.230E-01 0.311E-01 -.267E+00
   0.566E+03 0.458E+03 0.348E+04   -.568E+03 -.460E+03 -.348E+04   0.158E+01 0.166E+01 -.110E+00   -.485E-01 0.939E-02 -.698E+00
   0.265E+03 0.419E+03 0.274E+03   -.266E+03 -.419E+03 -.275E+03   0.105E+01 0.540E+00 0.149E+01   -.170E+00 -.177E+00 -.834E+00
   0.202E+03 0.281E+03 -.260E+04   -.206E+03 -.282E+03 0.260E+04   0.319E+01 0.160E+01 0.117E+01   -.248E-01 -.193E+00 -.266E+00
   -.478E+03 0.171E+02 0.329E+03   0.478E+03 -.162E+02 -.330E+03   -.736E+00 -.708E+00 0.158E+01   -.259E+00 -.892E-01 -.726E+00
   -.240E+03 -.658E+02 -.270E+04   0.244E+03 0.683E+02 0.270E+04   -.345E+01 -.240E+01 0.136E+01   -.737E-01 0.181E-01 -.548E+00
   0.348E+03 0.262E+02 -.553E+04   -.346E+03 -.254E+02 0.553E+04   -.113E+01 -.143E-01 -.271E+01   0.696E-01 -.126E+00 0.271E+00
   -.677E+03 -.274E+03 0.346E+04   0.680E+03 0.274E+03 -.346E+04   -.246E+01 -.220E+00 0.635E-01   -.246E-01 0.652E-01 -.691E+00
   0.269E+03 -.159E+03 0.614E+04   -.268E+03 0.158E+03 -.614E+04   -.160E+00 0.890E+00 0.238E+01   -.375E-01 -.144E-01 -.119E+00
   0.173E+03 -.424E+03 -.824E+03   -.174E+03 0.425E+03 0.823E+03   0.463E+00 -.717E+00 0.117E+01   0.928E-01 -.231E-01 -.682E+00
   0.114E+02 -.597E+03 -.376E+04   -.125E+02 0.597E+03 0.376E+04   0.317E+00 -.469E+00 0.196E+01   0.262E-01 0.123E-01 -.645E-01
   -.503E+03 -.153E+03 -.612E+04   0.508E+03 0.150E+03 0.612E+04   -.405E+01 0.223E+01 0.762E+00   0.693E-01 -.599E-01 0.435E+00
   0.374E+03 -.546E+03 0.227E+04   -.376E+03 0.549E+03 -.226E+04   0.178E+01 -.238E+01 -.131E+01   -.110E-01 -.503E-01 -.540E+00
   0.381E+03 0.858E+03 0.617E+04   -.380E+03 -.853E+03 -.617E+04   -.136E+01 -.545E+01 -.140E+00   -.313E-01 0.158E+00 -.792E-01
   0.437E+03 0.614E+03 0.327E+04   -.439E+03 -.615E+03 -.327E+04   0.136E+01 0.535E+00 -.173E+01   -.899E-01 0.182E-01 -.568E+00
   0.257E+03 0.471E+03 0.240E+03   -.259E+03 -.471E+03 -.240E+03   0.171E+01 0.437E+00 0.623E+00   -.527E-01 -.123E-01 -.663E+00
   0.236E+03 0.317E+03 -.262E+04   -.240E+03 -.319E+03 0.262E+04   0.301E+01 0.162E+01 0.125E+01   -.491E-01 0.135E-01 -.327E+00
   -.464E+03 0.324E+02 0.316E+03   0.465E+03 -.317E+02 -.317E+03   -.947E+00 -.517E+00 0.149E+01   -.899E-01 -.112E+00 -.780E+00
   -.393E+03 -.279E+02 -.258E+04   0.396E+03 0.309E+02 0.258E+04   -.263E+01 -.228E+01 0.110E+01   0.331E-01 0.215E-01 -.409E+00
   -.489E+02 0.385E+03 -.550E+04   0.486E+02 -.383E+03 0.550E+04   0.213E+00 -.935E+00 -.244E+01   -.569E-01 0.127E+00 0.329E+00
   -.766E+03 -.107E+03 0.328E+04   0.767E+03 0.107E+03 -.327E+04   -.122E+01 -.920E+00 -.162E+01   0.626E-01 0.107E+00 -.546E+00
   -.106E+02 -.778E+03 0.597E+04   0.121E+02 0.781E+03 -.598E+04   -.174E+01 -.185E+01 0.543E+01   -.108E+00 -.919E-01 -.161E+00
   0.299E+03 -.361E+03 -.738E+03   -.299E+03 0.361E+03 0.738E+03   0.245E+00 -.575E+00 0.100E+01   -.440E-01 -.111E+00 -.797E+00
   0.490E+03 -.276E+03 -.372E+04   -.489E+03 0.276E+03 0.372E+04   -.493E+00 0.913E-01 0.216E+01   -.746E-01 -.536E-02 -.316E-01
   0.376E+03 0.423E+03 -.616E+04   -.376E+03 -.429E+03 0.616E+04   0.297E+00 0.520E+01 -.655E-01   -.361E-01 -.467E-01 0.457E+00
   0.454E+02 -.347E+02 0.503E+04   -.448E+02 0.327E+02 -.504E+04   -.357E+00 0.192E+01 0.530E+01   0.115E+00 -.144E+00 -.487E+00
   0.136E+03 -.170E+03 0.199E+04   -.137E+03 0.168E+03 -.198E+04   0.587E+00 0.618E+00 -.354E+01   -.129E-01 0.428E-01 -.790E+00
   -.878E+01 0.196E+03 -.548E+04   0.524E+01 -.197E+03 0.548E+04   0.363E+01 0.103E+01 -.681E+00   0.287E-02 0.179E+00 0.316E+00
   0.711E+03 -.337E+03 0.597E+04   -.715E+03 0.337E+03 -.598E+04   0.258E+01 0.661E+00 0.544E+01   0.182E+00 0.466E-01 -.164E+00
   0.180E+03 0.719E+03 0.366E+04   -.181E+03 -.722E+03 -.366E+04   0.516E+00 0.216E+01 0.126E+00   0.608E-01 0.137E+00 -.418E+00
   0.244E+03 0.475E+03 0.302E+03   -.245E+03 -.475E+03 -.303E+03   0.954E+00 0.369E+00 0.130E+01   0.927E-01 0.927E-01 -.758E+00
   0.370E+03 0.650E+03 -.296E+04   -.373E+03 -.654E+03 0.296E+04   0.234E+01 0.313E+01 -.182E+01   -.333E-01 0.446E-01 -.348E+00
   -.568E+03 -.544E+02 0.190E+03   0.569E+03 0.558E+02 -.190E+03   -.113E+01 -.142E+01 0.417E+00   0.551E-01 0.885E-01 -.641E+00
   -.690E+03 -.918E+02 -.300E+04   0.694E+03 0.921E+02 0.300E+04   -.366E+01 -.614E+00 -.159E+01   0.684E-01 0.975E-01 -.324E+00
   -.375E+03 0.302E+03 0.304E+04   0.378E+03 -.304E+03 -.303E+04   -.183E+01 0.141E+01 -.262E+01   -.746E-01 0.108E+00 -.641E+00
   -.100E+03 0.897E+02 -.261E+03   0.101E+03 -.909E+02 0.259E+03   -.107E+01 0.160E+01 0.148E+01   0.957E-01 -.995E-01 -.283E+00
   -.302E+03 0.228E+02 -.132E+04   0.303E+03 -.225E+02 0.132E+04   -.126E+01 -.193E+00 0.249E+01   0.520E-01 -.764E-01 -.296E-01
   -.494E+03 0.238E+03 0.224E+04   0.499E+03 -.241E+03 -.224E+04   -.243E+01 0.174E+01 0.787E+00   -.102E+00 0.182E-01 -.695E-01
   -.111E+03 0.122E+03 0.950E+03   0.112E+03 -.124E+03 -.952E+03   -.947E+00 0.148E+01 0.164E+01   -.376E-01 -.131E-01 -.133E+00
   0.120E+03 0.253E+03 -.230E+04   -.119E+03 -.255E+03 0.230E+04   -.109E+01 0.847E+00 -.399E+01   -.892E-02 0.503E-01 0.141E+00
   -.470E+03 -.206E+03 -.198E+04   0.474E+03 0.209E+03 0.198E+04   -.128E+01 -.212E+01 -.447E+00   -.856E-02 0.219E-01 0.167E+00
   -.392E+02 -.118E+03 -.716E+03   0.405E+02 0.120E+03 0.717E+03   -.111E+01 -.232E+01 -.102E+01   -.512E-01 -.924E-02 -.269E+00
   -.208E+03 -.108E+03 0.139E+04   0.209E+03 0.108E+03 -.139E+04   0.503E+00 -.858E-01 0.141E+00   0.239E-01 0.444E-01 -.259E+00
[...]
   0.144E+03 0.630E+02 -.198E+04   -.146E+03 -.644E+02 0.198E+04   0.170E+01 -.439E+00 -.173E+01   0.764E-01 0.385E-01 0.155E+00
   -.934E+02 0.103E+03 -.259E+03   0.947E+02 -.104E+03 0.257E+03   -.140E+01 0.178E+01 0.179E+01   -.173E-01 0.593E-01 -.269E+00
   -.276E+03 0.340E+02 -.135E+04   0.278E+03 -.339E+02 0.135E+04   -.138E+01 -.107E+00 0.255E+01   -.105E-01 0.396E-01 -.137E-01
   0.135E+02 0.549E+03 0.224E+04   -.126E+02 -.554E+03 -.224E+04   -.482E+00 0.294E+01 0.940E+00   0.198E-01 0.152E+00 -.827E-01
   -.547E+02 0.159E+03 0.954E+03   0.558E+02 -.161E+03 -.955E+03   -.934E+00 0.160E+01 0.151E+01   -.103E-01 0.120E-01 -.158E+00
   0.331E+03 -.801E+02 -.227E+04   -.336E+03 0.818E+02 0.227E+04   0.315E+01 -.641E+00 -.359E+01   0.326E-01 -.108E+00 0.169E+00
   -.409E+03 -.262E+03 -.197E+04   0.413E+03 0.266E+03 0.197E+04   -.125E+01 -.248E+01 -.481E+00   -.202E-01 -.360E-01 0.130E+00
   -.598E+02 -.135E+03 -.686E+03   0.607E+02 0.138E+03 0.687E+03   -.551E+00 -.256E+01 -.637E+00   -.390E-01 -.570E-01 -.254E+00
   -.294E+03 -.251E+03 0.175E+04   0.297E+03 0.254E+03 -.175E+04   -.102E+01 -.794E+00 0.609E+00   -.272E-01 -.590E-01 -.210E+00
   -.103E+03 -.164E+03 0.402E+03   0.104E+03 0.167E+03 -.402E+03   -.100E+01 -.267E+01 0.448E+00   0.640E-01 0.127E+00 -.281E+00
   0.185E+03 -.502E+02 0.166E+04   -.188E+03 0.503E+02 -.166E+04   0.632E+00 0.343E+00 0.741E+00   0.107E+00 0.424E-01 -.172E+00
   0.155E+03 -.218E+01 0.401E+03   -.157E+03 0.273E+01 -.401E+03   0.235E+01 -.691E+00 0.953E+00   0.344E-01 0.242E-02 -.241E+00
   0.203E+03 0.181E+02 -.764E+03   -.206E+03 -.175E+02 0.764E+03   0.280E+01 -.688E+00 -.113E+01   -.157E-01 0.254E-01 -.244E+00
   0.404E+03 0.244E+03 -.194E+04   -.410E+03 -.247E+03 0.194E+04   0.326E+01 0.630E+00 -.910E-01   0.120E-01 0.466E-01 0.166E+00
   -.860E+01 0.846E+01 -.525E+01   -.409E-11 -.287E-11 -.568E-11   0.849E+01 -.875E+01 0.303E+02   -.882E-01 0.351E+00 -.251E+02

 POSITION                                       TOTAL-FORCE (eV/Angst)
      5.35228      4.81788      6.64784         0.185695     -0.301063     -0.142900
      5.93595      3.87238      9.58390         0.511818      0.489634     -1.411206
      1.68422      1.64041      1.28439        -0.303119      0.450574     -1.332791
      2.24633      0.73197      3.71178        -0.132628      0.207098      0.371227
      0.95707      0.53975     11.00750        -0.637481     -0.194549      1.127680
      3.88093      3.18162      0.78159        -0.523796     -0.197284     -1.159300
      4.76861      3.35453      2.93606         0.130893     -1.216086      3.575792
      5.35228      2.40903      5.87212        -0.034200      0.114018      0.044646
      5.93595      1.46353      8.80817        -0.425931     -0.444863     -2.403424
      1.87746      3.73836      5.87212        -0.114925     -0.012297      0.065748
      2.46113      2.79286      8.80817         0.459590     -0.071881     -1.912160
      6.92203      4.68386      2.93606         1.071845     -0.587276      0.981695
      3.80437      0.48264      0.46975         0.468175      0.368964     -0.897109
     10.98051      4.81788      6.64784         0.229994     -0.315346     -0.099578
     11.56418      3.87238      9.58390        -0.821956      0.136235     -0.550035
     12.05917      3.21614     11.99922         0.426918     -0.651529      1.665421
      7.87456      0.73197      3.71178         0.084036      0.697426      1.423959
     10.83282      5.17826      1.21679         0.159726      0.390243     -2.008073
     10.39684      3.35453      2.93606        -0.397784     -0.451597      1.328080
     10.98051      2.40903      5.87212         0.050566      0.211148      0.087601
     11.56418      1.46353      8.80817        -0.868516      0.070125     -1.138574
      7.50570      3.73836      5.87212        -0.164448      0.125525      0.035136
      8.08937      2.79286      8.80817         0.561536      0.112320     -2.446346
      8.74979      1.56508     10.88301         0.289175      0.640554      1.116492
     12.55026      4.68386      2.93606         0.654828     -0.015719      1.439210
     10.56591      0.36161      0.78147         0.555100      0.330780     -1.188827
      7.87456      9.84929      6.64784         0.201511     -0.278775     -0.157590
      8.45823      8.90379      9.58390        -0.781543      0.174168     -0.561746
      9.01904      8.19160     11.96318         0.469636     -0.854208      2.057435
      4.76861      5.76338      3.71178        -0.557192      0.309409      1.342250
      6.80425      9.26606      0.47334        -0.511999     -0.208985     -0.849830
      7.29089      8.38594      2.93606         0.050752      0.130527      0.665491
      7.87456      7.44044      5.87212        -0.155500     -0.056313      0.082119
      8.45823      6.49494      8.80817        -1.049597      0.088985     -1.191752
      4.39975      8.76977      5.87212        -0.099954      0.092827      0.122710
      4.98341      7.82427      8.80817         0.398464      0.684986     -1.212298
      5.54663      6.82844     10.99647        -0.114157      1.019365      0.718048
      9.44431      9.71527      2.93606        -0.192805      0.017446      0.665650
      5.07838      5.32628      1.30499        -0.415135      1.527453     -1.654224
     13.50279      9.84929      6.64784         0.125364     -0.380016     -0.227862
     14.08646      8.90379      9.58390         0.318086      0.021990     -0.509626
     14.50803      7.89630     11.86365         0.596017     -1.026162      2.065545
      9.51909      7.05647      2.05897         0.319132     -0.240896     -0.929698
     10.39684      5.76338      3.71178         0.063349     -0.989242      2.525854
      8.96220      5.41570     10.94882         0.094961      0.170758      0.978074
      8.11463      0.25917      1.29490        -1.152160      1.062054     -1.582367
     12.91912      8.38594      2.93606         0.142691     -1.008626      1.050938
     13.50279      7.44044      5.87212        -0.108083      0.110206      0.060842
     14.08646      6.49494      8.80817        -0.198901     -0.407863     -2.148345
     10.02798      8.76977      5.87212         0.229523      0.080587      0.108713
     10.61165      7.82427      8.80817         0.216728     -0.284753     -1.902860
     15.07254      9.71527      2.93606         0.985423     -0.759329      3.617094
      1.66190      1.67871      7.01153        -0.099688      0.237611     -0.895655
      2.22940      0.75329      9.37473         0.552278      0.026649      0.273165
      5.96793      3.51386      1.26763         2.153039     -1.596452     -2.931290
      6.70646      2.62422      4.07548         0.196813     -0.075553     -0.001964
      5.80308      4.86599     11.43405        -0.557512     -0.657250      2.393739
      2.13067      3.72823     10.58817         2.931420      1.150107      1.815281
      7.29013      4.74605      7.99931         0.096376      0.308403     -0.590285
      3.60051      1.60565      2.12720         0.993111      0.606256      1.376933
[...]
      7.07033      8.08475      7.99931        -0.118435     -0.042051     -0.280157
      7.65400      7.13925     10.93537        -0.727190     -1.738533     -0.561510
      9.81241      6.71012      7.01153        -0.060654      0.267720     -0.837576
     10.35213      5.78818      9.42712         0.684250     -0.002685      0.261125
     14.38087      8.71235      1.26625         0.499981     -2.611529     -2.913456
     14.85697      7.65563      4.07548         0.089828     -0.179048     -0.032485
     13.60342      9.70493     11.59073        -1.707370      0.998509      2.091343
     10.30665      8.81670     10.56221         2.963368      1.203759      1.648795
     15.44064      9.77746      7.99931         0.321513      0.084820     -0.423417
     11.72908      6.67208      2.34429         1.335194      1.371233     -0.966521
     12.33469      5.69156      5.06325         0.133420      0.037470      0.270307
     11.50328      9.87592      2.44658        -1.354667      0.466298     -1.259352
     12.11489      9.03025      5.06325         0.023699     -0.138794      0.578531
     12.69856      8.08475      7.99931        -0.167266     -0.051222     -1.275919
     13.21202      7.18153     10.50950        -2.064268     -1.787708      1.637662
    total drift:                               -0.189099      0.056589     -0.077510

  FREE ENERGIE OF THE ION-ELECTRON SYSTEM (eV)
  free  energy   TOTEN  =      -505.12346946 eV

  energy  without entropy=     -503.86451605  energy(sigma->0) =     -504.49399275