 vasp.5.4.4.18Apr17-6-g9f103f2a35 (build Aug 13 2019 17:33:20) gamma-only

 executed on             LinuxIFC date 2020.05.10  13:26:55

 INCAR:
 POTCAR:    PAW_PBE Ni_pv 06Sep2000
 POTCAR:    PAW_PBE S 06Sep2000
 POTCAR:    PAW_PBE Ni_pv 06Sep2000
   VRHFIN =Ni:

   TITEL  = PAW_PBE Ni_pv 06Sep2000
   POMASS =   58.690; ZVAL   =   16.000    mass and valenz
   ENMAX  =  367.986; ENMIN  =  275.989 eV

 POTCAR:    PAW_PBE S 06Sep2000
   VRHFIN =S : s2p4

   TITEL  = PAW_PBE S 06Sep2000
   POMASS =   32.066; ZVAL   =    6.000    mass and valenz
   ENMAX  =  258.689; ENMIN  =  194.016 eV

 Optimization of the real space projectors (new method)

 maximal supplied QI-value         = 18.90
 optimisation between [QCUT,QGAM] = [ 10.77, 21.73] = [ 32.49,132.25] Ry
 Optimized for a Real-space Cutoff    1.38 Angstroem

   l    n(q)    QCUT    max X(q) W(low)/X(q) W(high)/X(q)  e(spline)
   1      8    10.771     2.836    0.40E-04    0.29E-04    0.12E-06
   1      8    10.771     4.023    0.10E-03    0.48E-04    0.29E-06
   2      8    10.771    73.368    0.42E-03    0.97E-04    0.44E-06
   2      8    10.771    69.010    0.42E-03    0.99E-04    0.45E-06
   0      9    10.771    54.797    0.10E-03    0.56E-04    0.74E-07
   0      9    10.771    24.266    0.89E-04    0.49E-04    0.67E-07
 Optimization of the real space projectors (new method)

 maximal supplied QI-value         = 19.84
 optimisation between [QCUT,QGAM] = [ 10.71, 21.63] = [ 32.15,130.99] Ry
 Optimized for a Real-space Cutoff    1.19 Angstroem

   l    n(q)    QCUT    max X(q) W(low)/X(q) W(high)/X(q)  e(spline)
   0      8    10.715   187.594    0.41E-03    0.53E-04    0.66E-07
   0      8    10.715   164.243    0.41E-03    0.53E-04    0.65E-07
   1      7    10.715    67.533    0.19E-03    0.59E-03    0.68E-07
   1      7    10.715    50.729    0.19E-03    0.58E-03    0.67E-07
  PAW_PBE Ni_pv 06Sep2000               :
  PAW_PBE S 06Sep2000                   :

 POSCAR: Type_048 Type_148
  positions in cartesian coordinates
 exchange correlation table for  LEXCH =        8
   RHO(1)=    0.500       N(1)  =     2000
   RHO(2)=  100.500       N(2)  =     4000

 ion  position               nearest neighbor table
   1  0.261  0.479  0.318-  73 2.25  58 2.26  80 2.26  59 2.36  54 2.36   7 2.53  21 2.53
   2  0.355  0.385  0.458-  65 2.01  60 2.01  54 2.26  59 2.26  74 2.26   8 2.53  22 2.53
   3  0.042  0.198  0.094-  63 2.03  81 2.17  55 2.17  64 2.24   4 2.29
   4  0.167  0.073  0.177-  64 2.25  55 2.26  81 2.26   3 2.29  56 2.36  82 2.36  35 2.53  30 2.53

   5  0.196  0.416  0.026-  57 1.99  51 2.02  36 2.46
   6  0.274  0.333  0.140-  55 2.25  51 2.26  57 2.26  58 2.36  52 2.36  11 2.53  28 2.53
   7  0.368  0.239  0.280-  56 2.25  52 2.26  58 2.26  59 2.36  61 2.36   1 2.53  21 2.53
   8  0.462  0.145  0.421-  60 2.00  62 2.13  78 2.25  59 2.26  61 2.26   2 2.53  22 2.53
   9  0.000  0.372  0.280-  58 2.25  64 2.26  92 2.26  49 2.36  66 2.36  19 2.53  13 2.53
  10  0.094  0.278  0.421-  53 2.00  50 2.13  59 2.25  49 2.26  66 2.26  20 2.53  14 2.53
  11  0.406  0.465  0.140-  69 2.25  51 2.26  79 2.26  52 2.36  80 2.36  28 2.53   6 2.53
  12  0.324  0.044  0.026-  55 1.99  75 2.02  29 2.46
  13  0.761  0.479  0.318-  85 2.25  70 2.26  92 2.26  71 2.36  66 2.36  19 2.53   9 2.53
  14  0.855  0.385  0.458-  53 2.01  72 2.01  71 2.26  66 2.26  86 2.26  20 2.53  10 2.53
  15  0.542  0.198  0.094-  51 2.03  93 2.17  67 2.17  52 2.24  16 2.29
  16  0.667  0.073  0.177-  52 2.25  67 2.26  93 2.26  15 2.29  68 2.36  94 2.36  47 2.53  42 2.53

[...]

  41  0.696  0.916  0.026-  93 1.99  87 2.02  24 2.46
  42  0.774  0.833  0.140-  91 2.25  87 2.26  93 2.26  94 2.36  88 2.36  47 2.53  16 2.53
  43  0.868  0.739  0.280-  92 2.25  88 2.26  94 2.26  95 2.36  73 2.36  37 2.53  33 2.53
  44  0.962  0.645  0.421-  96 2.00  74 2.13  66 2.25  95 2.26  73 2.26  38 2.53  34 2.53
  45  0.500  0.872  0.280-  94 2.25  76 2.26  56 2.26  85 2.36  78 2.36  31 2.53  25 2.53
  46  0.594  0.778  0.421-  89 2.00  86 2.13  95 2.25  85 2.26  78 2.26  32 2.53  26 2.53
  47  0.906  0.965  0.140-  81 2.25  87 2.26  67 2.26  88 2.36  68 2.36  16 2.53  42 2.53
  48  0.824  0.544  0.026-  91 1.99  63 2.02  17 2.46
  49  0.073  0.167  0.335-  25 2.25  10 2.26  20 2.26   9 2.36  19 2.36  50 2.64
  50  0.164  0.076  0.450-  20 2.13  10 2.13  26 2.26  49 2.64
  51  0.385  0.355  0.054-   5 2.02  36 2.02  15 2.03   6 2.26  11 2.26
  52  0.479  0.261  0.195-  15 2.24  16 2.25   7 2.26  21 2.26  11 2.36   6 2.36
  53  0.019  0.364  0.504-  10 2.00  14 2.01  72 2.75
  54  0.436  0.472  0.382-  32 2.25   2 2.26  22 2.26   1 2.36  21 2.36
  55  0.248  0.160  0.102-  12 1.99   3 2.17   6 2.25   4 2.26  35 2.26
  56  0.342  0.066  0.242-   7 2.25  25 2.26  45 2.26   4 2.36  35 2.36
  57  0.080  0.491  0.102-   5 1.99  27 2.17  23 2.25   6 2.26  28 2.26
  58  0.174  0.397  0.242-   9 2.25   1 2.26   7 2.26   6 2.36  28 2.36
  59  0.268  0.303  0.382-  10 2.25   8 2.26   2 2.26   1 2.36   7 2.36
  60  0.376  0.221  0.504-   8 2.00   2 2.01  65 2.75
  61  0.573  0.167  0.335-  37 2.25  22 2.26   8 2.26  21 2.36   7 2.36  62 2.64
  62  0.664  0.076  0.450-   8 2.13  22 2.13  38 2.26  61 2.64
  63  0.885  0.355  0.054-  17 2.02  48 2.02   3 2.03  23 2.26  18 2.26
  64  0.979  0.261  0.195-   3 2.24   4 2.25  19 2.26   9 2.26  23 2.36  18 2.36
  65  0.519  0.364  0.504-  22 2.00   2 2.01  60 2.75
  66  0.936  0.472  0.382-  44 2.25  14 2.26  10 2.26  13 2.36   9 2.36
  67  0.748  0.160  0.102-  24 1.99  15 2.17  18 2.25  16 2.26  47 2.26
  68  0.842  0.066  0.242-  19 2.25  37 2.26  33 2.26  16 2.36  47 2.36
  69  0.580  0.491  0.102-  17 1.99  39 2.17  11 2.25  18 2.26  40 2.26
  70  0.674  0.397  0.242-  21 2.25  13 2.26  19 2.26  18 2.36  40 2.36
  71  0.768  0.303  0.382-  22 2.25  20 2.26  14 2.26  13 2.36  19 2.36
  72  0.876  0.221  0.504-  20 2.00  14 2.01  53 2.75
  73  0.073  0.667  0.335-   1 2.25  34 2.26  44 2.26  33 2.36  43 2.36  74 2.64
  74  0.164  0.576  0.450-  44 2.13  34 2.13   2 2.26  73 2.64
  75  0.385  0.855  0.054-  29 2.02  12 2.02  39 2.03  35 2.26  30 2.26
  76  0.479  0.761  0.195-  39 2.24  40 2.25  31 2.26  45 2.26  35 2.36  30 2.36
  77  0.019  0.864  0.504-  34 2.00  38 2.01  96 2.75
  78  0.436  0.972  0.382-   8 2.25  26 2.26  46 2.26  25 2.36  45 2.36
  79  0.248  0.660  0.102-  36 1.99  27 2.17  30 2.25  28 2.26  11 2.26
  80  0.342  0.566  0.242-  31 2.25   1 2.26  21 2.26  28 2.36  11 2.36
  81  0.080  0.991  0.102-  29 1.99   3 2.17  47 2.25  30 2.26   4 2.26
  82  0.174  0.897  0.242-  33 2.25  25 2.26  31 2.26  30 2.36   4 2.36
  83  0.268  0.803  0.382-  34 2.25  32 2.26  26 2.26  25 2.36  31 2.36
  84  0.376  0.721  0.504-  32 2.00  26 2.01  89 2.75
  85  0.573  0.667  0.335-  13 2.25  46 2.26  32 2.26  45 2.36  31 2.36  86 2.64
  86  0.664  0.576  0.450-  32 2.13  46 2.13  14 2.26  85 2.64
  87  0.885  0.855  0.054-  41 2.02  24 2.02  27 2.03  47 2.26  42 2.26
  88  0.979  0.761  0.195-  27 2.24  28 2.25  43 2.26  33 2.26  47 2.36  42 2.36
  89  0.519  0.864  0.504-  46 2.00  26 2.01  84 2.75
  90  0.936  0.972  0.382-  20 2.25  38 2.26  34 2.26  37 2.36  33 2.36
  91  0.748  0.660  0.102-  48 1.99  39 2.17  42 2.25  40 2.26  23 2.26
  92  0.842  0.566  0.242-  43 2.25  13 2.26   9 2.26  40 2.36  23 2.36
  93  0.580  0.991  0.102-  41 1.99  15 2.17  35 2.25  42 2.26  16 2.26
  94  0.674  0.897  0.242-  45 2.25  37 2.26  43 2.26  42 2.36  16 2.36
  95  0.768  0.803  0.382-  46 2.25  44 2.26  38 2.26  37 2.36  43 2.36
  96  0.876  0.721  0.504-  44 2.00  38 2.01  77 2.75

  LATTYP: Found a base centered orthorhombic cell.
 ALAT       =    11.8257374459
 B/A-ratio  =     1.6199260857
 C/A-ratio  =     1.7703225276

  Lattice vectors:

 A1 = (  11.2564630382,   0.0000000000,   0.0000000000)
 A2 = (  -5.0445621212, -10.0628203371,   0.0000000000)
 A3 = (   0.0000000000,   0.0000000000, -20.9353694064)

Analysis of symmetry for initial positions (statically):
 Subroutine PRICEL returns following result:

[...]

   4 primitive cells build up your supercell.

 Routine SETGRP: Setting up the symmetry group for a
 base centered orthorhombic supercell.

 Subroutine GETGRP returns: Found  2 space group operations
 (whereof  1 operations were pure point group operations)
 out of a pool of  8 trial point group operations.

The static configuration has the point symmetry C_1 .
 The point group associated with its full space group is C_1h.

Analysis of symmetry for dynamics (positions and initial velocities):
 Subroutine PRICEL returns following result:

  LATTYP: Found a base centered orthorhombic cell.
 ALAT       =     5.9128687230
 B/A-ratio  =     1.6199260857
 C/A-ratio  =     3.5406450553

  Lattice vectors:

 A1 = (   5.6282315191,   0.0000000000,   0.0000000000)
 A2 = (  -2.5222810606,  -5.0314101686,   0.0000000000)
 A3 = (   0.0000000000,   0.0000000000, -20.9353694064)

   4 primitive cells build up your supercell.

 Routine SETGRP: Setting up the symmetry group for a
 base centered orthorhombic supercell.

 Subroutine GETGRP returns: Found  2 space group operations
 (whereof  1 operations were pure point group operations)
 out of a pool of  8 trial point group operations.

The dynamic configuration has the point symmetry C_1 .
 The point group associated with its full space group is C_1h.

 Subroutine INISYM returns: Found  2 space group operations
 (whereof  1 operations are pure point group operations),
 and found     4 'primitive' translations

 KPOINTS: gamma-point-only calculation. no periodi

Automatic generation of k-mesh.
Space group operators:
 irot       det(A)        alpha          n_x          n_y          n_z        tau_x        tau_y        tau_z
    1     1.000000     0.000001     1.000000     0.000000     0.000000     0.000000     0.000000     0.000000
    2    -1.000000   180.000000     0.850925     0.525287     0.000000     0.239701    -0.260299     0.000000

 Subroutine IBZKPT returns following result:

 Found      1 irreducible k-points:

 Following reciprocal coordinates:
            Coordinates               Weight
  0.000000  0.000000  0.000000      1.000000

 Following cartesian coordinates:
            Coordinates               Weight
  0.000000  0.000000  0.000000      1.000000

 SYSTEM =  "Millerite NiS"
 POSCAR =  Type_048 Type_148

 Startparameter for this run:
   NWRITE =      2    write-flag & timer
   PREC   = normal    normal or accurate (medium, high low for compatibility)
   ISTART =      0    job   : 0-new  1-cont  2-samecut
   ICHARG =      2    charge: 1-file 2-atom 10-const
   ISPIN  =      1    spin polarized calculation?
   LNONCOLLINEAR =      F non collinear calculations
   LSORBIT =      F    spin-orbit coupling
   INIWAV =      1    electr: 0-lowe 1-rand  2-diag
   LASPH  =      F    aspherical Exc in radial PAW
   METAGGA=      F    non-selfconsistent MetaGGA calc.

 Electronic Relaxation 1
   ENCUT  =  450.0 eV  33.07 Ry    5.75 a.u.  19.47 19.47 36.21*2*pi/ulx,y,z
   ENINI  =  450.0     initial cutoff
   ENAUG  =  703.4 eV  augmentation charge cutoff
   NELM   =    100;   NELMIN=  2; NELMDL= -5     # of ELM steps
   EDIFF  = 0.1E-03   stopping-criterion for ELM
[...]
     0.000000000  0.000000000 20.935369406     0.000000000  0.000000000  0.047766055

  length of vectors
    11.256463038 11.256463038 20.935369406     0.099375718  0.099375718  0.047766055

 FORCES acting on ions
    electron-ion (+dipol)            ewald-force                    non-local-force                 convergence-correction
   0.240E+03 -.390E+03 -.192E+04   -.241E+03 0.390E+03 0.192E+04   0.611E+00 -.990E+00 0.118E+01   -.713E-03 0.115E-02 0.514E-02
   0.313E+03 -.506E+03 -.485E+04   -.316E+03 0.511E+03 0.485E+04   0.162E+01 -.263E+01 -.525E+01   0.495E-04 -.802E-04 -.101E-03
   0.708E+02 -.115E+03 0.411E+04   -.698E+02 0.113E+03 -.412E+04   -.913E+00 0.148E+01 0.335E+01   0.892E-03 -.144E-02 0.924E-02
   0.132E+03 -.214E+03 0.991E+03   -.131E+03 0.213E+03 -.988E+03   -.705E+00 0.114E+01 -.165E+01   -.478E-03 0.774E-03 0.624E-02
   0.478E+03 0.194E+03 0.557E+04   -.477E+03 -.191E+03 -.557E+04   -.203E+01 -.370E+01 -.250E+01   -.682E-03 -.819E-04 0.608E-02
   0.337E+03 0.450E+03 0.228E+04   -.339E+03 -.451E+03 -.228E+04   0.204E+01 0.366E+00 -.128E+01   0.339E-04 0.688E-03 0.799E-02
   0.259E+03 0.450E+03 -.886E+03   -.260E+03 -.451E+03 0.886E+03   0.146E+01 0.562E+00 0.803E+00   -.977E-03 0.111E-02 0.561E-02
   0.239E+03 0.525E+03 -.392E+04   -.241E+03 -.530E+03 0.392E+04   0.229E+01 0.466E+01 -.254E+01   0.127E-02 0.121E-02 0.287E-02
   -.518E+03 -.297E+02 -.886E+03   0.519E+03 0.308E+02 0.886E+03   -.116E+01 -.106E+01 0.803E+00   -.555E-03 0.137E-02 0.561E-02
   -.577E+03 0.217E+02 -.392E+04   0.582E+03 -.219E+02 0.392E+04   -.519E+01 0.388E-01 -.254E+01   -.165E-02 -.594E-03 0.287E-02
   -.553E+03 -.993E+02 0.228E+04   0.555E+03 0.101E+03 -.228E+04   -.124E+01 -.166E+01 -.128E+01   -.631E-03 0.278E-03 0.799E-02
   -.388E+03 -.340E+03 0.557E+04   0.384E+03 0.341E+03 -.557E+04   0.422E+01 0.160E+00 -.250E+01   0.379E-03 0.573E-03 0.608E-02
   0.240E+03 -.390E+03 -.192E+04   -.241E+03 0.390E+03 0.192E+04   0.611E+00 -.990E+00 0.118E+01   -.713E-03 0.115E-02 0.514E-02
   0.313E+03 -.506E+03 -.485E+04   -.316E+03 0.511E+03 0.485E+04   0.162E+01 -.263E+01 -.525E+01   0.495E-04 -.802E-04 -.101E-03
   0.708E+02 -.115E+03 0.411E+04   -.698E+02 0.113E+03 -.412E+04   -.913E+00 0.148E+01 0.335E+01   0.892E-03 -.144E-02 0.924E-02
   0.132E+03 -.214E+03 0.991E+03   -.131E+03 0.213E+03 -.988E+03   -.705E+00 0.114E+01 -.165E+01   -.478E-03 0.774E-03 0.624E-02
   0.478E+03 0.194E+03 0.557E+04   -.477E+03 -.191E+03 -.557E+04   -.203E+01 -.370E+01 -.250E+01   -.682E-03 -.819E-04 0.608E-02
   0.337E+03 0.450E+03 0.228E+04   -.339E+03 -.451E+03 -.228E+04   0.204E+01 0.366E+00 -.128E+01   0.339E-04 0.688E-03 0.799E-02
   0.259E+03 0.450E+03 -.886E+03   -.260E+03 -.451E+03 0.886E+03   0.146E+01 0.562E+00 0.803E+00   -.977E-03 0.111E-02 0.561E-02
   0.239E+03 0.525E+03 -.392E+04   -.241E+03 -.530E+03 0.392E+04   0.229E+01 0.466E+01 -.254E+01   0.127E-02 0.121E-02 0.287E-02
   -.518E+03 -.297E+02 -.886E+03   0.519E+03 0.308E+02 0.886E+03   -.116E+01 -.106E+01 0.803E+00   -.555E-03 0.137E-02 0.561E-02
   -.577E+03 0.217E+02 -.392E+04   0.582E+03 -.219E+02 0.392E+04   -.519E+01 0.388E-01 -.254E+01   -.165E-02 -.594E-03 0.287E-02
   -.553E+03 -.993E+02 0.228E+04   0.555E+03 0.101E+03 -.228E+04   -.124E+01 -.166E+01 -.128E+01   -.631E-03 0.278E-03 0.799E-02
   -.388E+03 -.340E+03 0.557E+04   0.384E+03 0.341E+03 -.557E+04   0.422E+01 0.160E+00 -.250E+01   0.379E-03 0.573E-03 0.608E-02
   0.240E+03 -.390E+03 -.192E+04   -.241E+03 0.390E+03 0.192E+04   0.611E+00 -.990E+00 0.118E+01   -.713E-03 0.115E-02 0.514E-02
   0.313E+03 -.506E+03 -.485E+04   -.316E+03 0.511E+03 0.485E+04   0.162E+01 -.263E+01 -.525E+01   0.495E-04 -.802E-04 -.101E-03
   0.708E+02 -.115E+03 0.411E+04   -.698E+02 0.113E+03 -.412E+04   -.913E+00 0.148E+01 0.335E+01   0.892E-03 -.144E-02 0.924E-02
   0.132E+03 -.214E+03 0.991E+03   -.131E+03 0.213E+03 -.988E+03   -.705E+00 0.114E+01 -.165E+01   -.478E-03 0.774E-03 0.624E-02
   0.478E+03 0.194E+03 0.557E+04   -.477E+03 -.191E+03 -.557E+04   -.203E+01 -.370E+01 -.250E+01   -.682E-03 -.819E-04 0.608E-02
   0.337E+03 0.450E+03 0.228E+04   -.339E+03 -.451E+03 -.228E+04   0.204E+01 0.366E+00 -.128E+01   0.339E-04 0.688E-03 0.799E-02
   0.259E+03 0.450E+03 -.886E+03   -.260E+03 -.451E+03 0.886E+03   0.146E+01 0.562E+00 0.803E+00   -.977E-03 0.111E-02 0.561E-02
   0.239E+03 0.525E+03 -.392E+04   -.241E+03 -.530E+03 0.392E+04   0.229E+01 0.466E+01 -.254E+01   0.127E-02 0.121E-02 0.287E-02
   -.518E+03 -.297E+02 -.886E+03   0.519E+03 0.308E+02 0.886E+03   -.116E+01 -.106E+01 0.803E+00   -.555E-03 0.137E-02 0.561E-02
   -.577E+03 0.217E+02 -.392E+04   0.582E+03 -.219E+02 0.392E+04   -.519E+01 0.388E-01 -.254E+01   -.165E-02 -.594E-03 0.287E-02
   -.553E+03 -.993E+02 0.228E+04   0.555E+03 0.101E+03 -.228E+04   -.124E+01 -.166E+01 -.128E+01   -.631E-03 0.278E-03 0.799E-02
   -.388E+03 -.340E+03 0.557E+04   0.384E+03 0.341E+03 -.557E+04   0.422E+01 0.160E+00 -.250E+01   0.379E-03 0.573E-03 0.608E-02
   0.240E+03 -.390E+03 -.192E+04   -.241E+03 0.390E+03 0.192E+04   0.611E+00 -.990E+00 0.118E+01   -.713E-03 0.115E-02 0.514E-02
   0.313E+03 -.506E+03 -.485E+04   -.316E+03 0.511E+03 0.485E+04   0.162E+01 -.263E+01 -.525E+01   0.495E-04 -.802E-04 -.101E-03
   0.708E+02 -.115E+03 0.411E+04   -.698E+02 0.113E+03 -.412E+04   -.913E+00 0.148E+01 0.335E+01   0.892E-03 -.144E-02 0.924E-02
   0.132E+03 -.214E+03 0.991E+03   -.131E+03 0.213E+03 -.988E+03   -.705E+00 0.114E+01 -.165E+01   -.478E-03 0.774E-03 0.624E-02
   0.478E+03 0.194E+03 0.557E+04   -.477E+03 -.191E+03 -.557E+04   -.203E+01 -.370E+01 -.250E+01   -.682E-03 -.819E-04 0.608E-02
   0.337E+03 0.450E+03 0.228E+04   -.339E+03 -.451E+03 -.228E+04   0.204E+01 0.366E+00 -.128E+01   0.339E-04 0.688E-03 0.799E-02
   0.259E+03 0.450E+03 -.886E+03   -.260E+03 -.451E+03 0.886E+03   0.146E+01 0.562E+00 0.803E+00   -.977E-03 0.111E-02 0.561E-02
   0.239E+03 0.525E+03 -.392E+04   -.241E+03 -.530E+03 0.392E+04   0.229E+01 0.466E+01 -.254E+01   0.127E-02 0.121E-02 0.287E-02
   -.518E+03 -.297E+02 -.886E+03   0.519E+03 0.308E+02 0.886E+03   -.116E+01 -.106E+01 0.803E+00   -.555E-03 0.137E-02 0.561E-02
   -.577E+03 0.217E+02 -.392E+04   0.582E+03 -.219E+02 0.392E+04   -.519E+01 0.388E-01 -.254E+01   -.165E-02 -.594E-03 0.287E-02
   -.553E+03 -.993E+02 0.228E+04   0.555E+03 0.101E+03 -.228E+04   -.124E+01 -.166E+01 -.128E+01   -.631E-03 0.278E-03 0.799E-02
   -.388E+03 -.340E+03 0.557E+04   0.384E+03 0.341E+03 -.557E+04   0.422E+01 0.160E+00 -.250E+01   0.379E-03 0.573E-03 0.608E-02
   -.718E+02 0.116E+03 -.681E+03   0.726E+02 -.118E+03 0.680E+03   -.102E+01 0.166E+01 0.125E-01   0.847E-03 -.137E-02 0.214E-02
   -.760E+02 0.123E+03 -.183E+04   0.762E+02 -.123E+03 0.183E+04   0.282E+00 -.457E+00 -.103E+01   0.203E-03 -.329E-03 0.271E-03
   -.135E+03 0.219E+03 0.193E+04   0.137E+03 -.222E+03 -.194E+04   -.885E+00 0.143E+01 0.255E+01   0.530E-03 -.858E-03 0.330E-02
   -.491E+02 0.796E+02 0.343E+03   0.497E+02 -.805E+02 -.343E+03   -.626E+00 0.101E+01 -.526E+00   0.494E-03 -.800E-03 0.129E-02
   -.203E+03 -.105E+03 -.220E+04   0.206E+03 0.107E+03 0.221E+04   -.146E+01 -.132E+01 -.247E+00   -.636E-03 -.121E-03 -.148E-03
   -.814E+02 -.160E+03 -.115E+04   0.824E+02 0.163E+03 0.115E+04   -.891E+00 -.253E+01 -.755E+00   -.115E-02 -.133E-03 0.151E-02
   -.102E+03 -.200E+03 0.131E+04   0.104E+03 0.202E+03 -.131E+04   -.146E+01 -.785E+00 0.239E+01   -.905E-03 0.107E-03 0.371E-02
   -.757E+02 -.152E+03 -.264E+02   0.767E+02 0.155E+03 0.261E+02   -.908E+00 -.271E+01 0.185E+00   -.125E-02 -.333E-03 0.241E-02
   0.225E+03 0.180E+01 0.131E+04   -.228E+03 -.245E+01 -.131E+04   0.135E+01 0.950E+00 0.239E+01   0.310E-03 0.857E-03 0.371E-02
   0.170E+03 -.428E+00 -.264E+02   -.173E+03 0.790E+00 0.261E+02   0.283E+01 -.401E+00 0.185E+00   0.856E-03 0.965E-03 0.241E-02
   0.180E+03 0.876E+00 -.115E+04   -.183E+03 -.638E+00 0.115E+04   0.267E+01 -.339E+00 -.755E+00   0.633E-03 0.968E-03 0.151E-02
   0.185E+03 0.134E+03 -.220E+04   -.188E+03 -.136E+03 0.221E+04   0.183E+01 0.716E+00 -.247E+00   0.394E-03 0.515E-03 -.148E-03
[...]
   0.180E+03 0.876E+00 -.115E+04   -.183E+03 -.638E+00 0.115E+04   0.267E+01 -.339E+00 -.755E+00   0.633E-03 0.968E-03 0.151E-02
   0.185E+03 0.134E+03 -.220E+04   -.188E+03 -.136E+03 0.221E+04   0.183E+01 0.716E+00 -.247E+00   0.394E-03 0.515E-03 -.148E-03
   -.718E+02 0.116E+03 -.681E+03   0.726E+02 -.118E+03 0.680E+03   -.102E+01 0.166E+01 0.125E-01   0.847E-03 -.137E-02 0.214E-02
   -.760E+02 0.123E+03 -.183E+04   0.762E+02 -.123E+03 0.183E+04   0.282E+00 -.457E+00 -.103E+01   0.203E-03 -.329E-03 0.271E-03
   -.135E+03 0.219E+03 0.193E+04   0.137E+03 -.222E+03 -.194E+04   -.885E+00 0.143E+01 0.255E+01   0.530E-03 -.858E-03 0.330E-02
   -.491E+02 0.796E+02 0.343E+03   0.497E+02 -.805E+02 -.343E+03   -.626E+00 0.101E+01 -.526E+00   0.494E-03 -.800E-03 0.129E-02
   -.203E+03 -.105E+03 -.220E+04   0.206E+03 0.107E+03 0.221E+04   -.146E+01 -.132E+01 -.247E+00   -.636E-03 -.121E-03 -.148E-03
   -.814E+02 -.160E+03 -.115E+04   0.824E+02 0.163E+03 0.115E+04   -.891E+00 -.253E+01 -.755E+00   -.115E-02 -.133E-03 0.151E-02
   -.102E+03 -.200E+03 0.131E+04   0.104E+03 0.202E+03 -.131E+04   -.146E+01 -.785E+00 0.239E+01   -.905E-03 0.107E-03 0.371E-02
   -.757E+02 -.152E+03 -.264E+02   0.767E+02 0.155E+03 0.261E+02   -.908E+00 -.271E+01 0.185E+00   -.125E-02 -.333E-03 0.241E-02
   0.225E+03 0.180E+01 0.131E+04   -.228E+03 -.245E+01 -.131E+04   0.135E+01 0.950E+00 0.239E+01   0.310E-03 0.857E-03 0.371E-02
   0.170E+03 -.428E+00 -.264E+02   -.173E+03 0.790E+00 0.261E+02   0.283E+01 -.401E+00 0.185E+00   0.856E-03 0.965E-03 0.241E-02
   0.180E+03 0.876E+00 -.115E+04   -.183E+03 -.638E+00 0.115E+04   0.267E+01 -.339E+00 -.755E+00   0.633E-03 0.968E-03 0.151E-02
   0.185E+03 0.134E+03 -.220E+04   -.188E+03 -.136E+03 0.221E+04   0.183E+01 0.716E+00 -.247E+00   0.394E-03 0.515E-03 -.148E-03
   -.109E+02 0.176E+02 0.367E+02   0.256E-12 0.000E+00 -.100E-10   0.109E+02 -.176E+02 -.370E+02   -.109E-01 0.177E-01 0.350E+00

 POSITION                                       TOTAL-FORCE (eV/Angst)
      5.35228      4.81788      6.64784         0.281947     -0.456733     -0.267546
      5.93595      3.87238      9.58390        -1.337187      2.166143     -2.566444
      1.47093      1.98806      1.95867         0.029616     -0.047975     -0.638545
      2.24633      0.73197      3.71178         0.467894     -0.757954      1.277629
      4.30052      4.18350      0.53387        -0.372338     -0.272532     -1.323170
      4.76861      3.35453      2.93606        -0.059683     -0.276725      0.607814
      5.35228      2.40903      5.87212        -0.038331      0.071600      0.035922
      5.93595      1.46353      8.80817         0.005892     -0.526441     -2.627105
      1.87746      3.73836      5.87212        -0.046830      0.066354      0.035922
      2.46113      2.79286      8.80817         0.467976     -0.241191     -2.627105
      6.92203      4.68386      2.93606         0.274128     -0.070660      0.607814
      3.86845      0.44241      0.53387         0.410495      0.210720     -1.323170
     10.98051      4.81788      6.64784         0.281947     -0.456733     -0.267546
     11.56418      3.87238      9.58390        -1.337187      2.166143     -2.566444
      7.09916      1.98806      1.95867         0.029616     -0.047975     -0.638545
      7.87456      0.73197      3.71178         0.467894     -0.757954      1.277629
      9.92875      4.18350      0.53387        -0.372338     -0.272532     -1.323170
     10.39684      3.35453      2.93606        -0.059683     -0.276725      0.607814
     10.98051      2.40903      5.87212        -0.038331      0.071600      0.035922
     11.56418      1.46353      8.80817         0.005892     -0.526441     -2.627105
      7.50570      3.73836      5.87212        -0.046830      0.066354      0.035922
      8.08937      2.79286      8.80817         0.467976     -0.241191     -2.627105
     12.55026      4.68386      2.93606         0.274128     -0.070660      0.607814
      9.49669      0.44241      0.53387         0.410495      0.210720     -1.323170
      7.87456      9.84929      6.64784         0.281947     -0.456733     -0.267546
      8.45823      8.90379      9.58390        -1.337187      2.166143     -2.566444
      3.99321      7.01947      1.95867         0.029616     -0.047975     -0.638545
      4.76861      5.76338      3.71178         0.467894     -0.757954      1.277629
      6.82280      9.21491      0.53387        -0.372338     -0.272532     -1.323170
      7.29089      8.38594      2.93606        -0.059683     -0.276725      0.607814
      7.87456      7.44044      5.87212        -0.038331      0.071600      0.035922
      8.45823      6.49494      8.80817         0.005892     -0.526441     -2.627105
      4.39975      8.76977      5.87212        -0.046830      0.066354      0.035922
      4.98341      7.82427      8.80817         0.467976     -0.241191     -2.627105
      9.44431      9.71527      2.93606         0.274128     -0.070660      0.607814
      6.39074      5.47382      0.53387         0.410495      0.210720     -1.323170
     13.50279      9.84929      6.64784         0.281947     -0.456733     -0.267546
     14.08646      8.90379      9.58390        -1.337187      2.166143     -2.566444
      9.62145      7.01947      1.95867         0.029616     -0.047975     -0.638545
     10.39684      5.76338      3.71178         0.467894     -0.757954      1.277629
     12.45103      9.21491      0.53387        -0.372338     -0.272532     -1.323170
     12.91912      8.38594      2.93606        -0.059683     -0.276725      0.607814
     13.50279      7.44044      5.87212        -0.038331      0.071600      0.035922
     14.08646      6.49494      8.80817         0.005892     -0.526441     -2.627105
     10.02798      8.76977      5.87212        -0.046830      0.066354      0.035922
     10.61165      7.82427      8.80817         0.467976     -0.241191     -2.627105
     15.07254      9.71527      2.93606         0.274128     -0.070660      0.607814
     12.01897      5.47382      0.53387         0.410495      0.210720     -1.323170
      1.66190      1.67871      7.01153        -0.168867      0.273553     -1.004349
      2.22839      0.76103      9.41912         0.492482     -0.797785      2.080998
      6.12279      3.56972      1.13942         0.584830     -0.947381     -1.461672
      6.70646      2.62422      4.07548        -0.058693      0.095078      0.329340
      2.05118      3.66415     10.55734         1.352108      0.483746      4.068690
      7.29013      4.74605      7.99931         0.133524      0.042709     -0.461619
      3.60051      1.60565      2.12720         0.521017      1.694985      0.949534
      4.18418      0.66014      5.06325         0.107815      0.127887     -0.124771
      3.38071      4.94434      2.12720        -1.748741      0.293836      0.949534
      3.96438      3.99884      5.06325        -0.162642     -0.039070     -0.124771
      4.54805      3.05334      7.99931        -0.098019     -0.100225     -0.461619
      5.34077      2.22048     10.55734        -1.038394     -0.991939      4.068690
[...]
      6.48666      9.03025      5.06325        -0.162642     -0.039070     -0.124771
      7.07033      8.08475      7.99931        -0.098019     -0.100225     -0.461619
      7.86305      7.25189     10.55734        -1.038394     -0.991939      4.068690
      9.81241      6.71012      7.01153        -0.168867      0.273553     -1.004349
     10.37891      5.79244      9.41912         0.492482     -0.797785      2.080998
     14.27330      8.60113      1.13942         0.584830     -0.947381     -1.461672
     14.85697      7.65563      4.07548        -0.058693      0.095078      0.329340
     10.20170      8.69556     10.55734         1.352108      0.483746      4.068690
     15.44064      9.77746      7.99931         0.133524      0.042709     -0.461619
     11.75102      6.63706      2.12720         0.521017      1.694985      0.949534
     12.33469      5.69156      5.06325         0.107815      0.127887     -0.124771
     11.53122      9.97575      2.12720        -1.748741      0.293836      0.949534
     12.11489      9.03025      5.06325        -0.162642     -0.039070     -0.124771
     12.69856      8.08475      7.99931        -0.098019     -0.100225     -0.461619
     13.49128      7.25189     10.55734        -1.038394     -0.991939      4.068690
    total drift:                               -0.009061      0.002857      0.050345

  FREE ENERGIE OF THE ION-ELECTRON SYSTEM (eV)
  free  energy   TOTEN  =      -463.38277203 eV

  energy  without entropy=     -461.82963984  energy(sigma->0) =     -462.60620594