 vasp.5.4.4.18Apr17-6-g9f103f2a35 (build Aug 13 2019 17:33:20) gamma-only

 executed on             LinuxIFC date 2020.05.12  03:10:32

 INCAR:
 POTCAR:    PAW_PBE Ni_pv 06Sep2000
 POTCAR:    PAW_PBE S 06Sep2000
 POTCAR:    PAW_PBE Ni_pv 06Sep2000
   VRHFIN =Ni:

   TITEL  = PAW_PBE Ni_pv 06Sep2000
   POMASS =   58.690; ZVAL   =   16.000    mass and valenz
   ENMAX  =  367.986; ENMIN  =  275.989 eV

 POTCAR:    PAW_PBE S 06Sep2000
   VRHFIN =S : s2p4

   TITEL  = PAW_PBE S 06Sep2000
   POMASS =   32.066; ZVAL   =    6.000    mass and valenz
   ENMAX  =  258.689; ENMIN  =  194.016 eV

 Optimization of the real space projectors (new method)

 maximal supplied QI-value         = 18.90
 optimisation between [QCUT,QGAM] = [ 10.77, 21.73] = [ 32.49,132.25] Ry
 Optimized for a Real-space Cutoff    1.38 Angstroem

   l    n(q)    QCUT    max X(q) W(low)/X(q) W(high)/X(q)  e(spline)
   1      8    10.771     2.836    0.40E-04    0.29E-04    0.12E-06
   1      8    10.771     4.023    0.10E-03    0.48E-04    0.29E-06
   2      8    10.771    73.368    0.42E-03    0.97E-04    0.44E-06
   2      8    10.771    69.010    0.42E-03    0.99E-04    0.45E-06
   0      9    10.771    54.797    0.10E-03    0.56E-04    0.74E-07
   0      9    10.771    24.266    0.89E-04    0.49E-04    0.67E-07
 Optimization of the real space projectors (new method)

 maximal supplied QI-value         = 19.84
 optimisation between [QCUT,QGAM] = [ 10.71, 21.63] = [ 32.15,130.99] Ry
 Optimized for a Real-space Cutoff    1.19 Angstroem

   l    n(q)    QCUT    max X(q) W(low)/X(q) W(high)/X(q)  e(spline)
   0      8    10.715   187.594    0.41E-03    0.53E-04    0.66E-07
   0      8    10.715   164.243    0.41E-03    0.53E-04    0.65E-07
   1      7    10.715    67.533    0.19E-03    0.59E-03    0.68E-07
   1      7    10.715    50.729    0.19E-03    0.58E-03    0.67E-07
  PAW_PBE Ni_pv 06Sep2000               :
  PAW_PBE S 06Sep2000                   :

 POSCAR: Type_037 Type_137
  positions in cartesian coordinates
 exchange correlation table for  LEXCH =        8
   RHO(1)=    0.500       N(1)  =     2000
   RHO(2)=  100.500       N(2)  =     4000

 ion  position               nearest neighbor table
   1  0.780  0.145  0.123-  65 2.01  51 2.08  42 2.25  52 2.36  66 2.36  26 2.54
   2  0.803  0.143  0.285-  66 2.02  52 2.05  43 2.08
   3  0.216  0.626  0.099-  44 2.03  45 2.12  63 2.20   4 2.39  53 2.45  16 2.48
   4  0.297  0.645  0.216-  54 2.11  64 2.13  45 2.25  53 2.26  63 2.26   3 2.39  29 2.53  17 2.53

   5  0.390  0.126  0.128-  47 2.04  48 2.08  69 2.17   6 2.40  55 2.44  19 2.45
   6  0.470  0.145  0.247-  56 2.09  70 2.10  55 2.26  69 2.26  48 2.39   5 2.40  32 2.53  20 2.53

   7  0.952  0.645  0.154-  58 2.06  68 2.08  49 2.23  57 2.36  67 2.36  33 2.53  21 2.53
   8  0.975  0.646  0.317-  46 2.05  57 2.06  67 2.06  50 2.10
   9  0.170  0.143  0.047-  47 2.01  59 2.05  73 2.05  10 2.43
  10  0.125  0.145  0.185-  74 2.12  73 2.14  59 2.17  39 2.25  11 2.36  60 2.36   9 2.43  35 2.53
                            23 2.53
  11  0.067  0.191  0.311-  38 2.05  74 2.07  60 2.23  10 2.36  27 2.43  39 2.52
  12  0.570  0.644  0.162-  40 2.00  41 2.16  61 2.19  71 2.20  13 2.28
  13  0.642  0.645  0.278-  72 2.04  62 2.04  61 2.09  41 2.25  71 2.26  12 2.28  37 2.53  25 2.53

[...]

  26  0.908  0.283  0.118-  51 2.06  68 2.11  52 2.11  39 2.21   1 2.54
  27  0.940  0.284  0.268-  38 2.05  52 2.09  39 2.12  67 2.16  11 2.43
  28  0.415  0.885  0.064-  69 2.08  53 2.10  29 2.37  16 2.49  40 2.55
  29  0.425  0.777  0.192-  54 2.10  69 2.25  40 2.26  53 2.26  41 2.36  28 2.37  30 2.46   4 2.53
                            17 2.53
  30  0.460  0.815  0.333-  70 2.01  54 2.02  41 2.06  29 2.46
  31  0.625  0.350  0.089-  42 2.07  71 2.07  32 2.38  19 2.52  55 2.62
  32  0.597  0.277  0.222-  56 2.08  43 2.14  71 2.25  55 2.26  42 2.26  31 2.38  20 2.53   6 2.53

[...]

  36  0.295  0.321  0.297-  64 2.03  48 2.06  60 2.08  35 2.42
  37  0.770  0.777  0.253-  62 2.00  50 2.09  61 2.22  66 2.25  49 2.35  13 2.53  25 2.53
  38  0.959  0.151  0.363-  15 2.05  27 2.05  11 2.05
  39  0.991  0.145  0.183-  15 2.10  27 2.12  14 2.15  26 2.21  10 2.25  11 2.52
  40  0.474  0.645  0.091-  12 2.00  16 2.02  17 2.26  29 2.26  28 2.55
  41  0.509  0.645  0.276-  30 2.06  18 2.08  12 2.16  13 2.25  29 2.36  17 2.36
  42  0.647  0.145  0.122-  19 2.03  31 2.07   1 2.25  20 2.26  32 2.26  43 2.72
  43  0.680  0.142  0.281-   2 2.08  20 2.11  32 2.14  42 2.72
  44  0.112  0.645  0.038-   3 2.03  21 2.06  33 2.06
  45  0.164  0.645  0.214-  22 2.09  34 2.10   3 2.12   4 2.25  33 2.36  21 2.36
  46  0.080  0.650  0.379-  34 2.04   8 2.05  22 2.05
  47  0.288  0.145  0.063-   9 2.01   5 2.04  23 2.15  35 2.15
  48  0.329  0.142  0.236-  36 2.06   5 2.08  23 2.18  35 2.21   6 2.39
  49  0.821  0.622  0.157-  25 2.10  24 2.18   7 2.23  37 2.35  50 2.66
  50  0.850  0.649  0.313-  37 2.09   8 2.10  25 2.13  49 2.66
  51  0.815  0.291  0.038-  24 2.03  26 2.06   1 2.08  65 2.72
  52  0.829  0.314  0.215-   2 2.05  27 2.09  26 2.11  24 2.15  25 2.25   1 2.36
  53  0.312  0.814  0.122-  16 2.04  28 2.10  23 2.25   4 2.26  29 2.26   3 2.45
  54  0.348  0.800  0.290-  30 2.02  29 2.10   4 2.11
  55  0.484  0.314  0.153-  19 2.05  17 2.25   6 2.26  32 2.26   5 2.44  31 2.62
  56  0.529  0.279  0.326-  18 2.00  32 2.08   6 2.09  70 2.74
  57  0.001  0.814  0.246-  34 2.04   8 2.06  15 2.19  33 2.36   7 2.36  58 2.75
  58  0.968  0.820  0.084-   7 2.06  33 2.09  14 2.09  57 2.75
  59  0.141  0.323  0.106-   9 2.05  21 2.13  35 2.14  10 2.17
  60  0.174  0.314  0.276-  36 2.08  22 2.13  11 2.23  10 2.36  35 2.36
  61  0.652  0.810  0.196-  13 2.09  12 2.19  20 2.20  37 2.22  62 2.72
  62  0.701  0.782  0.351-  37 2.00  13 2.04  61 2.72  72 2.73
  63  0.312  0.477  0.122-  16 2.04   3 2.20  35 2.25   4 2.26  17 2.26
  64  0.353  0.506  0.298-  36 2.03  18 2.05   4 2.13  17 2.14
  65  0.824  0.008  0.043-  14 2.00   1 2.01  51 2.72
  66  0.829  0.977  0.215-   2 2.02  14 2.10  15 2.16  37 2.25   1 2.36
  67  0.001  0.477  0.246-  22 2.06   8 2.06  27 2.16  21 2.36   7 2.36  68 2.75
  68  0.967  0.468  0.084-   7 2.08  21 2.10  26 2.11  67 2.75
  69  0.484  0.977  0.153-  19 2.06  28 2.08   5 2.17  29 2.25   6 2.26  20 2.26
  70  0.522  0.993  0.320-  30 2.01  20 2.07   6 2.10  56 2.74
  71  0.657  0.477  0.184-  31 2.07  12 2.20  24 2.22  32 2.25  25 2.26  13 2.26
  72  0.695  0.497  0.348-  25 2.02  13 2.04  62 2.73
  73  0.141  0.966  0.110-   9 2.05  23 2.10  33 2.11  10 2.14
  74  0.128  0.010  0.286-  11 2.07  10 2.12  34 2.13

  LATTYP: Found a simple orthorhombic cell.
 ALAT       =     9.5784100000
 B/A-ratio  =     1.7387693453
 C/A-ratio  =     1.7627867312

  Lattice vectors:

 A1 = (   0.0000000000,   9.5784100000,   0.0000000000)
 A2 = (   0.0000000000,   0.0000000000, -16.6546456851)
 A3 = ( -16.8846940542,   0.0000000000,   0.0000000000)

Analysis of symmetry for initial positions (statically):
 Subroutine PRICEL returns:
 Original cell was already a primitive cell.

 Routine SETGRP: Setting up the symmetry group for a
 simple orthorhombic supercell.

 Subroutine GETGRP returns: Found  1 space group operations
 (whereof  1 operations were pure point group operations)
 out of a pool of  8 trial point group operations.

The static configuration has the point symmetry C_1 .

Analysis of symmetry for dynamics (positions and initial velocities):
 Subroutine PRICEL returns:
 Original cell was already a primitive cell.

 Routine SETGRP: Setting up the symmetry group for a
 simple orthorhombic supercell.

 Subroutine GETGRP returns: Found  1 space group operations
 (whereof  1 operations were pure point group operations)
 out of a pool of  8 trial point group operations.

The dynamic configuration has the point symmetry C_1 .

 Subroutine INISYM returns: Found  1 space group operations
 (whereof  1 operations are pure point group operations),
 and found     1 'primitive' translations

 KPOINTS: gamma-point-only calculation. no periodi

Automatic generation of k-mesh.
Space group operators:
 irot       det(A)        alpha          n_x          n_y          n_z        tau_x        tau_y        tau_z
    1     1.000000     0.000000     1.000000     0.000000     0.000000     0.000000     0.000000     0.000000

 Subroutine IBZKPT returns following result:

 Found      1 irreducible k-points:

 Following reciprocal coordinates:
            Coordinates               Weight
  0.000000  0.000000  0.000000      1.000000

 Following cartesian coordinates:
            Coordinates               Weight
  0.000000  0.000000  0.000000      1.000000

 SYSTEM =  "Millerite NiS"
 POSCAR =  Type_037 Type_137

 Startparameter for this run:
   NWRITE =      2    write-flag & timer
   PREC   = normal    normal or accurate (medium, high low for compatibility)
   ISTART =      0    job   : 0-new  1-cont  2-samecut
   ICHARG =      2    charge: 1-file 2-atom 10-const
   ISPIN  =      1    spin polarized calculation?
   LNONCOLLINEAR =      F non collinear calculations
   LSORBIT =      F    spin-orbit coupling
   INIWAV =      1    electr: 0-lowe 1-rand  2-diag
   LASPH  =      F    aspherical Exc in radial PAW
   METAGGA=      F    non-selfconsistent MetaGGA calc.

 Electronic Relaxation 1
   ENCUT  =  450.0 eV  33.07 Ry    5.75 a.u.  29.20 16.57 28.81*2*pi/ulx,y,z
   ENINI  =  450.0     initial cutoff
   ENAUG  =  703.4 eV  augmentation charge cutoff
   NELM   =    100;   NELMIN=  2; NELMDL= -5     # of ELM steps
   EDIFF  = 0.1E-03   stopping-criterion for ELM
   LREAL  =      T    real-space projection
   NLSPLINE    = F    spline interpolate recip. space projectors
   LCOMPAT=      F    compatible to vasp.4.4
   GGA_COMPAT  = T    GGA compatible to vasp.4.4-vasp.4.6
   LMAXPAW     = -100 max onsite density
   LMAXMIX     =    2 max onsite mixed and CHGCAR
   VOSKOWN=      0    Vosko Wilk Nusair interpolation
   ROPT   =   -0.00050  -0.00050
 Ionic relaxation
   EDIFFG = 0.1E-02   stopping-criterion for IOM
   NSW    =      0    number of steps for IOM
   NBLOCK =      1;   KBLOCK =      1    inner block; outer block
   IBRION =     -1    ionic relax: 0-MD 1-quasi-New 2-CG
   NFREE  =      0    steps in history (QN), initial steepest desc. (CG)
   ISIF   =      2    stress and relaxation
   IWAVPR =     10    prediction:  0-non 1-charg 2-wave 3-comb
   ISYM   =      2    0-nonsym 1-usesym 2-fastsym
   LCORR  =      T    Harris-Foulkes like correction to forces

   POTIM  = 0.5000    time-step for ionic-motion
   TEIN   =    0.0    initial temperature
   TEBEG  =    0.0;   TEEND  =   0.0 temperature during run
   SMASS  =  -3.00    Nose mass-parameter (am)
   estimated Nose-frequenzy (Omega)   =  0.10E-29 period in steps =****** mass=  -0.652E-26a.u.
   SCALEE = 1.0000    scale energy and forces
   NPACO  =    256;   APACO  = 16.0  distance and # of slots for P.C.
   PSTRESS=    0.0 pullay stress

  Mass of Ions in am
   POMASS =  58.69 32.07
  Ionic Valenz
   ZVAL   =  16.00  6.00
  Atomic Wigner-Seitz radii
  virtual crystal weights
   VCA    =   1.00  1.00
   NELECT =     814.0000    total number of electrons
   NUPDOWN=      -1.0000    fix difference up-down

[...]
     0.000000000  9.578410000  0.000000000     0.000000000  0.104401461  0.000000000
     0.000000000  0.000000000 16.654645685     0.000000000  0.000000000  0.060043307

  length of vectors
    16.884694054  9.578410000 16.654645685     0.059225237  0.104401461  0.060043307

 FORCES acting on ions
    electron-ion (+dipol)            ewald-force                    non-local-force                 convergence-correction
   0.632E+03 0.637E+03 0.207E+04   -.636E+03 -.639E+03 -.208E+04   0.372E+01 0.305E+01 0.511E+01   0.220E-01 0.140E+00 -.131E+00
   0.572E+03 0.176E+03 -.285E+04   -.576E+03 -.178E+03 0.285E+04   0.347E+01 0.217E+01 0.158E+01   -.462E-01 0.894E-01 -.788E-01
   0.138E+03 0.112E+02 0.282E+04   -.139E+03 -.114E+02 -.282E+04   0.124E+01 0.442E+00 0.731E+01   0.630E-01 -.625E-01 0.221E-01
   0.477E+03 -.169E+03 -.133E+04   -.479E+03 0.169E+03 0.134E+04   0.190E+01 0.150E+00 -.457E+01   -.440E-02 -.153E+00 0.735E-01
   -.526E+01 -.280E+03 0.203E+04   0.712E+01 0.280E+03 -.203E+04   -.148E+01 0.877E-01 0.410E+01   0.194E+00 0.146E+00 0.295E-01
   0.345E+03 0.820E+02 -.203E+04   -.349E+03 -.818E+02 0.203E+04   0.255E+01 -.156E+00 -.612E+01   0.633E-01 0.187E+00 0.127E-01
   0.893E+03 -.163E+03 0.143E+04   -.899E+03 0.164E+03 -.143E+04   0.544E+01 -.457E+00 0.418E+01   -.272E+00 -.692E-01 0.109E+00
   0.659E+03 -.840E+02 -.323E+04   -.663E+03 0.844E+02 0.323E+04   0.303E+01 -.165E+00 -.387E+01   -.118E+00 -.760E-01 0.254E-01
   0.472E+03 0.245E+02 0.412E+04   -.476E+03 -.249E+02 -.413E+04   0.313E+01 0.161E+00 0.384E+01   0.648E-02 0.699E-01 -.343E-01
   0.369E+03 0.154E+03 0.202E+03   -.372E+03 -.155E+03 -.202E+03   0.124E+01 0.674E+00 0.689E+00   0.252E-01 0.331E-01 -.140E+00
   -.369E+03 0.132E+02 -.335E+04   0.370E+03 -.142E+02 0.335E+04   -.107E+00 0.148E+01 -.547E+01   -.590E-01 0.129E+00 0.343E-01
   -.618E+03 -.256E+03 0.177E+04   0.620E+03 0.257E+03 -.177E+04   -.248E+01 -.136E+01 0.386E+01   0.228E+00 -.956E-01 -.598E-02
   0.420E+02 -.160E+03 -.227E+04   -.460E+02 0.159E+03 0.227E+04   0.277E+01 0.611E+00 -.665E+01   0.185E+00 -.509E-01 -.348E-01
   0.269E+02 0.558E+03 0.244E+04   -.232E+02 -.562E+03 -.244E+04   -.277E+01 0.453E+01 0.604E+01   -.209E+00 0.434E-01 -.117E+00
   0.185E+03 0.690E+03 -.219E+04   -.186E+03 -.694E+03 0.219E+04   -.110E+00 0.305E+01 -.466E+01   -.288E+00 -.189E+00 -.951E-01
   -.188E+03 0.392E+03 0.395E+04   0.187E+03 -.393E+03 -.395E+04   0.638E+00 0.120E+01 0.511E+01   0.167E+00 -.128E+00 -.987E-01
   -.283E+03 0.541E+03 0.375E+03   0.283E+03 -.545E+03 -.376E+03   0.424E+00 0.346E+01 0.198E-01   0.143E+00 -.570E-01 0.236E-02
   -.171E+03 0.157E+03 -.365E+04   0.173E+03 -.161E+03 0.365E+04   -.283E+01 0.434E+01 0.140E+01   0.855E-01 -.538E-01 0.767E-02
   -.338E+03 0.220E+03 0.347E+04   0.338E+03 -.220E+03 -.348E+04   0.513E+00 -.391E+00 0.574E+01   0.175E+00 0.853E-01 -.761E-01
   -.712E+03 0.648E+03 -.687E+03   0.716E+03 -.654E+03 0.690E+03   -.350E+01 0.570E+01 -.429E+01   0.174E+00 -.125E-01 -.100E+00
   0.204E+03 0.489E+03 0.198E+04   -.205E+03 -.492E+03 -.198E+04   0.118E+01 0.284E+01 0.448E+01   -.220E+00 0.271E-01 0.139E+00
   -.385E+03 0.273E+03 -.280E+04   0.389E+03 -.278E+03 0.281E+04   -.236E+01 0.367E+01 -.379E+01   -.632E-01 0.242E+00 0.124E+00
   -.182E+02 0.644E+03 0.318E+03   0.179E+02 -.647E+03 -.318E+03   0.909E+00 0.232E+01 -.470E-01   0.527E-01 0.996E-03 0.114E+00
   0.113E+03 -.680E+03 0.254E+04   -.116E+03 0.683E+03 -.255E+04   0.193E+01 -.205E+01 0.809E+01   0.173E-01 0.338E-01 -.668E-01
   -.192E+03 0.125E+03 -.167E+04   0.194E+03 -.129E+03 0.168E+04   -.140E+01 0.280E+01 -.699E+01   -.681E-02 0.101E+00 -.108E+00
   -.355E+03 -.208E+03 0.258E+04   0.361E+03 0.210E+03 -.258E+04   -.507E+01 -.301E+01 0.569E+01   -.273E+00 0.676E-01 -.229E-01
   0.270E+03 -.545E+03 -.211E+04   -.268E+03 0.550E+03 0.212E+04   -.166E+01 -.344E+01 -.504E+01   -.438E+00 0.350E+00 -.170E+00
   -.486E+03 -.211E+03 0.381E+04   0.484E+03 0.212E+03 -.381E+04   0.228E+01 -.340E+00 -.182E+01   0.177E+00 -.927E-01 -.130E+00
   -.339E+03 -.409E+03 -.158E+03   0.339E+03 0.411E+03 0.160E+03   0.300E+00 -.256E+01 -.210E+01   0.161E+00 -.174E+00 -.102E+00
   -.201E+01 -.275E+03 -.378E+04   0.184E+01 0.278E+03 0.377E+04   0.389E+00 -.345E+01 0.237E+01   0.964E-01 -.112E+00 0.299E-01
   -.778E+02 -.495E+03 0.345E+04   0.800E+02 0.492E+03 -.345E+04   -.256E+01 0.270E+01 -.144E+01   0.204E+00 0.103E+00 0.152E-02
   -.458E+03 -.262E+03 -.115E+04   0.461E+03 0.266E+03 0.115E+04   -.191E+01 -.425E+01 -.488E+01   0.105E+00 0.173E+00 -.447E-01
   0.140E+03 -.578E+03 0.195E+04   -.141E+03 0.581E+03 -.195E+04   0.126E+01 -.268E+01 0.464E+01   -.224E+00 -.857E-01 0.113E+00
   -.563E+03 -.541E+03 -.275E+04   0.566E+03 0.546E+03 0.275E+04   -.161E+01 -.348E+01 -.461E+01   -.897E-01 -.246E+00 0.161E+00
   -.171E+03 -.445E+03 0.927E+03   0.171E+03 0.450E+03 -.928E+03   0.216E-01 -.376E+01 0.604E+00   0.110E+00 0.186E+00 0.149E+00
   -.308E+02 0.210E+03 -.325E+04   0.312E+02 -.207E+03 0.325E+04   -.778E+00 -.311E+01 0.152E+01   0.619E-01 0.902E-01 0.805E-01
   -.166E+03 -.570E+03 -.103E+04   0.169E+03 0.576E+03 0.103E+04   -.214E+01 -.464E+01 -.124E+01   -.220E-01 -.182E+00 0.344E-01
   0.151E+03 0.587E+02 -.176E+04   -.151E+03 -.593E+02 0.176E+04   -.736E+00 0.417E+00 -.208E+01   -.202E+00 0.155E-01 0.125E+00
   -.151E+03 0.371E+02 0.399E+03   0.152E+03 -.377E+02 -.403E+03   0.581E+00 0.110E+01 0.188E+01   -.156E+00 0.348E-01 -.126E+00
   -.410E+03 0.100E+03 0.136E+04   0.414E+03 -.102E+03 -.136E+04   -.270E+01 0.255E+01 0.230E+01   0.787E-01 -.475E-01 -.240E-01
   -.173E+03 -.367E+02 -.909E+03   0.173E+03 0.369E+02 0.915E+03   0.630E+00 -.381E+00 -.404E+01   0.114E+00 -.101E+00 -.517E-01
   -.282E+03 0.356E+03 0.917E+03   0.284E+03 -.359E+03 -.921E+03   -.256E+00 0.150E+01 0.243E+01   0.739E-01 0.325E-01 -.445E-01
   -.951E+02 0.745E+02 -.107E+04   0.960E+02 -.745E+02 0.107E+04   -.239E+00 0.114E+00 -.214E+01   0.216E-01 0.363E-01 -.299E-02
   0.140E+03 -.339E+02 0.175E+04   -.140E+03 0.340E+02 -.175E+04   0.363E+00 0.866E-01 0.193E+01   -.544E-01 -.864E-02 -.695E-01
   -.140E+03 -.728E+02 -.328E+03   0.141E+03 0.731E+02 0.330E+03   0.401E+00 -.167E+00 -.285E+01   -.622E-01 -.335E-01 0.126E+00
   -.118E+03 -.444E+02 -.177E+04   0.119E+03 0.445E+02 0.177E+04   0.207E+00 -.129E+00 -.111E+01   -.250E-01 -.211E-01 -.122E-01
   -.179E+03 -.715E+02 0.155E+04   0.180E+03 0.725E+02 -.155E+04   -.287E+00 -.861E+00 0.351E+01   0.942E-01 0.513E-01 -.386E-01
   -.225E+02 0.210E+03 -.824E+03   0.220E+02 -.213E+03 0.829E+03   0.111E+01 0.148E+01 -.334E+01   0.340E-01 0.734E-01 0.553E-01
   0.527E+02 -.300E+03 0.744E+03   -.535E+02 0.302E+03 -.748E+03   0.136E+01 -.700E+00 0.235E+01   -.382E-01 -.442E-01 -.920E-02
   0.316E+00 -.464E+02 -.122E+04   0.135E+01 0.467E+02 0.122E+04   -.831E+00 -.321E+00 -.273E+01   -.104E-01 -.115E-02 -.446E-03
   0.417E+02 -.672E+02 0.174E+04   -.413E+02 0.687E+02 -.175E+04   -.686E+00 -.127E+01 0.244E+01   -.438E-01 0.379E-01 0.504E-01
   0.134E+03 -.139E+03 -.328E+03   -.134E+03 0.139E+03 0.331E+03   -.110E+01 0.146E+01 -.202E+01   -.172E-01 0.679E-01 -.950E-01
   0.266E+03 -.218E+03 0.684E+03   -.269E+03 0.221E+03 -.685E+03   0.102E+01 -.134E+01 0.161E+00   0.273E-01 -.586E-01 -.150E-01
   0.351E+03 -.256E+03 -.123E+04   -.354E+03 0.260E+03 0.123E+04   0.110E+01 -.203E+01 -.170E+01   -.574E-01 -.293E-01 0.256E-01
   0.833E+02 -.254E+03 0.600E+03   -.855E+02 0.257E+03 -.601E+03   0.101E+01 -.137E+01 0.101E+01   0.524E-01 0.370E-01 0.218E-02
   -.146E+03 0.892E+02 -.151E+04   0.147E+03 -.879E+02 0.151E+04   -.533E+00 -.118E+01 -.211E+01   0.192E-01 0.457E-01 0.191E-01
   0.193E+03 -.174E+03 -.439E+03   -.195E+03 0.177E+03 0.438E+03   0.116E+01 -.844E+00 -.382E+00   -.451E-01 -.120E+00 0.406E-01
   0.244E+03 -.531E+02 0.134E+04   -.246E+03 0.527E+02 -.135E+04   0.758E+00 0.113E+01 0.386E+01   -.107E+00 -.185E-01 -.516E-02
   0.192E+03 -.169E+03 0.103E+04   -.192E+03 0.170E+03 -.103E+04   -.745E+00 -.222E+00 0.117E+01   -.228E-01 0.703E-01 0.311E-01
   -.517E+02 0.145E+02 -.965E+03   0.520E+02 -.122E+02 0.967E+03   -.577E+00 -.244E+01 -.903E+00   0.118E+00 0.155E+00 0.101E-01
   -.181E+03 -.199E+03 0.378E+03   0.181E+03 0.200E+03 -.382E+03   0.743E-01 -.373E-01 0.244E+01   0.664E-01 -.922E-01 -.337E-02
   -.139E+01 -.255E+03 -.154E+04   0.903E+00 0.258E+03 0.154E+04   -.378E-01 -.260E+01 -.155E+01   0.418E-01 -.592E-01 -.699E-02
   -.222E+02 0.328E+03 0.865E+03   0.224E+02 -.331E+03 -.867E+03   -.104E+01 0.118E+01 0.226E+01   0.576E-01 -.106E-01 0.591E-02
   0.177E+03 -.673E+02 -.128E+04   -.178E+03 0.661E+02 0.128E+04   0.169E+00 0.732E+00 -.280E+01   0.133E-01 -.531E-01 0.272E-01
   0.210E+03 0.353E+03 0.155E+04   -.211E+03 -.357E+03 -.155E+04   0.320E+00 0.199E+01 0.141E+01   -.339E-01 0.247E-01 0.560E-03
   0.270E+03 0.335E+03 -.118E+03   -.272E+03 -.337E+03 0.119E+03   0.109E+01 -.118E+00 -.238E+00   -.478E-01 -.459E-01 -.631E-01
   0.174E+03 0.115E+03 -.437E+03   -.176E+03 -.117E+03 0.436E+03   0.462E+00 0.347E+00 -.330E+00   -.723E-01 0.890E-01 0.443E-01
   0.154E+03 0.161E+02 0.135E+04   -.156E+03 -.157E+02 -.136E+04   0.119E+01 -.112E+01 0.414E+01   -.129E+00 -.435E-02 0.103E-01
   -.261E+03 0.211E+03 0.426E+03   0.262E+03 -.214E+03 -.426E+03   -.119E+01 0.187E+01 0.288E-01   0.711E-01 0.193E-01 -.207E-01
   -.127E+03 -.260E+02 -.142E+04   0.127E+03 0.248E+02 0.142E+04   -.572E+00 0.103E+01 -.202E+01   0.634E-01 0.679E-01 0.312E-01
   -.396E+02 -.124E+03 0.204E+03   0.375E+02 0.123E+03 -.204E+03   0.117E+01 0.118E+01 -.589E+00   0.638E-01 0.343E-01 -.210E-01
   0.669E+01 0.226E+03 -.156E+04   -.788E+01 -.229E+03 0.157E+04   0.603E+00 0.233E+01 -.255E+00   0.106E-01 0.475E-01 -.624E-02
   0.186E+03 0.207E+03 0.935E+03   -.186E+03 -.208E+03 -.937E+03   -.886E+00 0.229E+00 0.831E+00   -.623E-01 -.610E-01 0.215E-01
   -.245E+03 0.150E+03 -.107E+04   0.248E+03 -.151E+03 0.107E+04   -.741E+00 0.114E+00 -.301E+00   0.713E-01 -.193E+00 0.277E-01
   -.741E+01 -.102E+02 -.926E+01   -.202E-11 0.881E-12 -.146E-10   0.720E+01 0.984E+01 0.947E+01   0.897E-01 0.395E+00 -.253E+00

 POSITION                                       TOTAL-FORCE (eV/Angst)
     13.17084      1.39171      2.05636        -0.125361      0.198661      1.680211
     13.56371      1.37249      4.74625        -0.133592      0.304439      1.216867
      3.64126      5.99770      1.64989         1.033343      0.207835     -0.363564
      5.02033      6.18092      3.59863        -0.374614     -0.177209     -0.055499
      6.58610      1.20238      2.12989         0.581044      0.296517     -0.847730
      7.93172      1.39171      4.11272        -1.090216      0.210521     -0.883058
     16.08224      6.18092      2.57045        -0.367544     -0.388732      2.002592
     16.45709      6.18507      5.28771        -1.541159      0.172862      0.563156
      2.87323      1.36738      0.77931        -0.766887     -0.113502     -1.927787
      2.10894      1.39171      3.08454        -0.883142      0.094232      0.342317
      1.12469      1.83213      5.18389         0.627353      0.665798      0.467802
      9.62169      6.17158      2.69798         0.534513     -0.095277     -0.427213
     10.84312      6.18092      4.62682        -0.994747     -0.261566     -0.048417
     15.41126      0.04346      2.04389         0.778808      0.464195      0.250964
     15.91468      0.12395      4.50590        -0.854297     -1.178995     -0.252128
      6.04316      6.17936      1.04754        -0.335015     -0.031227     -1.655229
      7.17375      4.91558      3.19116         0.454585     -0.174157     -1.217908
      7.91288      4.39371      5.43017        -0.250506      0.541685      0.836005
      8.95261      1.40070      1.53201        -0.168397     -0.251534     -1.760540
     10.08514      0.12638      3.70525         0.726479     -0.546357     -1.259521
      1.35096      4.91558      2.16298        -0.197929     -0.527508      1.505244
      1.89495      4.83253      4.91463         1.118695     -1.227387      0.197413
      4.26235      0.12638      2.67707         0.601082     -0.713103      0.670293
     12.97670      4.06134      2.00237        -0.776867      0.683288     -0.056254
     12.99653      4.91558      4.21934         1.089616     -0.460807     -0.641117
     15.33585      2.70829      1.96340         1.191500     -0.520493      0.181276
     15.86336      2.71594      4.46547        -0.292385      1.223372     -0.312661
      7.00095      8.47893      1.06979         0.177223      0.151972     -0.896333
      7.17375      7.44626      3.19116         0.716720     -0.490306     -0.266085
      7.76693      7.81083      5.54629         0.313958     -0.234227      0.801286
     10.54620      3.34854      1.47852        -0.133484      0.510210     -0.915135
     10.08514      2.65705      3.70525         0.513247      0.028104     -0.506464
      1.35096      7.44626      2.16298         0.117149      0.336370      1.631187
      1.89402      7.56939      4.87963         1.060714      1.450342     -0.041636
      4.26235      2.65705      2.67707         0.382700      0.653649      0.105707
      4.98749      3.07171      4.94435        -0.379212     -0.240839      1.045997
     12.99653      7.44626      4.21934         0.937701      0.484585     -2.884380
     16.18716      1.44796      6.04617        -0.614400     -0.179407      4.036874
     16.74052      1.39171      3.05601         1.812850      0.572257     -2.110019
      8.00634      6.18092      1.51374         1.073664      0.355451     -2.803994
      8.59001      6.18092      4.59828         0.949234     -0.352302      1.304535
     10.91773      1.39171      2.02783         1.913234     -1.049488     -1.738220
     11.48088      1.36125      4.68494         0.700812      0.168925      2.686726
      1.89360      6.18028      0.63394         0.181199      0.132028     -3.897095
      2.76722      6.18092      3.57010         1.439828      0.147989     -0.186327
      1.34414      6.22290      6.31705         0.583196     -0.100880      4.373225
      4.86718      1.39105      1.04369         1.479655      0.236796     -2.976234
      5.54810      1.36479      3.92891         0.670323     -0.894060      2.390446
     13.86239      5.95888      2.61906         0.552768      1.500855     -1.675501
     14.35863      6.21280      5.21641         0.827367     -0.025422      2.389654
     13.76151      2.78715      0.63135        -0.322951      0.271591     -3.835138
     13.99844      3.00295      3.57488        -1.192497      1.186312      1.311781
      5.26426      7.79215      2.03261        -1.767085      1.403319     -0.527807
      5.88142      7.66513      4.82653        -1.908204      1.730845      2.025289
      8.17565      3.00295      2.54670        -1.103624      1.253479     -0.181971
      8.92593      2.66874      5.42950         0.438344      0.144415      2.875794
      0.02514      7.79215      4.08897        -1.211674      1.413012     -0.720618
     16.33773      7.85867      1.39818        -0.861007      0.712087     -2.882803
      2.37403      3.09183      1.77048        -0.840116      0.791867     -1.396760
      2.93654      3.00295      4.60306        -0.141622      0.022909      1.284884
     11.00890      7.76117      3.27052         0.110448      1.615829     -1.560415
     11.82929      7.48712      5.84424        -0.483738      1.033004      3.712395
      5.26426      4.56969      2.03261        -0.740549     -1.744374     -0.117278
      5.96593      4.84540      4.96144        -1.122190     -0.572630      1.892344
     13.90569      0.07559      0.72170        -0.744956     -1.631100     -3.547224
     13.99844      9.35889      3.57488        -1.165181     -2.231203      0.638737
      0.02514      4.56969      4.08897        -0.988111     -1.277433     -0.716187
     16.32881      4.47924      1.40474        -0.415717     -0.770428     -2.668773
      8.17565      9.35889      2.54670        -0.031666     -1.391539     -0.101248
      8.81898      9.51102      5.33416        -0.013045     -0.169068      2.883938
     11.08705      4.56969      3.06079        -0.789523     -0.436169     -0.569453
     11.73111      4.76308      5.79127        -0.570559     -1.221968      3.785814
      2.38644      9.25608      1.83509        -0.675928     -0.819672     -1.165058
      2.16615      0.09675      4.76729         1.680344     -0.871237      1.506025
    total drift:                               -0.117637      0.027060     -0.045873

  FREE ENERGIE OF THE ION-ELECTRON SYSTEM (eV)
  free  energy   TOTEN  =      -351.28455734 eV

  energy  without entropy=     -350.21349420  energy(sigma->0) =     -350.74902577