 vasp.5.4.4.18Apr17-6-g9f103f2a35 (build Aug 13 2019 17:33:20) gamma-only

 executed on             LinuxIFC date 2020.05.12  05:11:35

 INCAR:
 POTCAR:    PAW_PBE Ni_pv 06Sep2000
 POTCAR:    PAW_PBE S 06Sep2000
 POTCAR:    PAW_PBE Ni_pv 06Sep2000
   VRHFIN =Ni:

   TITEL  = PAW_PBE Ni_pv 06Sep2000
   POMASS =   58.690; ZVAL   =   16.000    mass and valenz
   ENMAX  =  367.986; ENMIN  =  275.989 eV

 POTCAR:    PAW_PBE S 06Sep2000
   VRHFIN =S : s2p4

   TITEL  = PAW_PBE S 06Sep2000
   POMASS =   32.066; ZVAL   =    6.000    mass and valenz
   ENMAX  =  258.689; ENMIN  =  194.016 eV

 Optimization of the real space projectors (new method)

 maximal supplied QI-value         = 18.90
 optimisation between [QCUT,QGAM] = [ 10.77, 21.73] = [ 32.49,132.25] Ry
 Optimized for a Real-space Cutoff    1.38 Angstroem

   l    n(q)    QCUT    max X(q) W(low)/X(q) W(high)/X(q)  e(spline)
   1      8    10.771     2.836    0.40E-04    0.29E-04    0.12E-06
   1      8    10.771     4.023    0.10E-03    0.48E-04    0.29E-06
   2      8    10.771    73.368    0.42E-03    0.97E-04    0.44E-06
   2      8    10.771    69.010    0.42E-03    0.99E-04    0.45E-06
   0      9    10.771    54.797    0.10E-03    0.56E-04    0.74E-07
   0      9    10.771    24.266    0.89E-04    0.49E-04    0.67E-07
 Optimization of the real space projectors (new method)

 maximal supplied QI-value         = 19.84
 optimisation between [QCUT,QGAM] = [ 10.71, 21.63] = [ 32.15,130.99] Ry
 Optimized for a Real-space Cutoff    1.19 Angstroem

   l    n(q)    QCUT    max X(q) W(low)/X(q) W(high)/X(q)  e(spline)
   0      8    10.715   187.594    0.41E-03    0.53E-04    0.66E-07
   0      8    10.715   164.243    0.41E-03    0.53E-04    0.65E-07
   1      7    10.715    67.533    0.19E-03    0.59E-03    0.68E-07
   1      7    10.715    50.729    0.19E-03    0.58E-03    0.67E-07
  PAW_PBE Ni_pv 06Sep2000               :
  PAW_PBE S 06Sep2000                   :

 POSCAR: Type_037 Type_137
  positions in cartesian coordinates
 exchange correlation table for  LEXCH =        8
   RHO(1)=    0.500       N(1)  =     2000
   RHO(2)=  100.500       N(2)  =     4000

 ion  position               nearest neighbor table
   1  0.780  0.145  0.123-  42 2.06  65 2.09  51 2.09   2 2.26  52 2.36  66 2.36
   2  0.736  0.145  0.252-  43 1.99  42 2.17   1 2.26  66 2.33  52 2.33
   3  0.225  0.645  0.096-  44 2.02  63 2.22  53 2.22  45 2.22   4 2.34
   4  0.297  0.645  0.216-  64 2.11  54 2.11  45 2.25  53 2.26  63 2.26   3 2.34  29 2.53  17 2.53

   5  0.393  0.145  0.130-  47 2.03  48 2.14  69 2.15  55 2.15   6 2.33
   6  0.470  0.145  0.247-  70 2.10  56 2.10  55 2.13  69 2.13  48 2.25   5 2.33  31 2.53  19 2.53

   7  0.952  0.645  0.154-  58 2.07  68 2.07  49 2.25  57 2.36  67 2.36  32 2.53  20 2.53
   8  0.976  0.645  0.318-  46 2.05  67 2.06  57 2.06  50 2.10
   9  0.174  0.145  0.047-  47 2.01  73 2.05  59 2.05  10 2.44
  10  0.125  0.145  0.185-  73 2.14  59 2.14  39 2.25  60 2.36  74 2.36  11 2.40   9 2.44  34 2.53
                            22 2.53
  11  0.115  0.145  0.329-  38 2.03  74 2.09  60 2.09  10 2.40
  12  0.571  0.645  0.162-  40 2.02  41 2.17  61 2.20  71 2.20  13 2.27
  13  0.642  0.645  0.278-  62 2.03  72 2.03  41 2.25  61 2.26  71 2.26  12 2.27  37 2.53  25 2.53

[...]

  38  0.996  0.145  0.350-  11 2.03  27 2.06  15 2.06  39 2.78
  39  0.991  0.145  0.183-  27 2.07  15 2.07  14 2.21  26 2.21  10 2.25  38 2.78
  40  0.474  0.645  0.091-  16 2.01  28 2.01  12 2.02  17 2.26  29 2.26
  41  0.509  0.645  0.276-  18 2.04  30 2.04  12 2.17  13 2.25  29 2.36  17 2.36
  42  0.660  0.145  0.147-   1 2.06  19 2.08  31 2.08   2 2.17
  43  0.636  0.145  0.315-   2 1.99  19 2.10  31 2.10  56 2.63  70 2.63
  44  0.119  0.645  0.041-   3 2.02  20 2.06  32 2.06
  45  0.164  0.645  0.214-  33 2.08  21 2.08   3 2.22   4 2.25  32 2.36  20 2.36
  46  0.080  0.645  0.382-  21 2.04  33 2.04   8 2.05
  47  0.291  0.145  0.065-   9 2.01   5 2.03  34 2.14  22 2.14
  48  0.336  0.145  0.245-  23 2.03  35 2.03   5 2.14   6 2.25  34 2.36  22 2.36
  49  0.819  0.645  0.153-   7 2.25  25 2.26  37 2.26  36 2.30  24 2.30  50 2.71
  50  0.852  0.645  0.312-   8 2.10  25 2.11  37 2.11  49 2.71
  51  0.817  0.295  0.040-  24 2.01  26 2.06   1 2.09
  52  0.829  0.314  0.215-  26 2.10  24 2.12  27 2.19  25 2.25   2 2.33   1 2.36
  53  0.312  0.814  0.122-  28 1.99   3 2.22  22 2.25   4 2.26  29 2.26
  54  0.342  0.804  0.291-  30 2.03  23 2.06   4 2.11  29 2.18
  55  0.477  0.306  0.159-   6 2.13   5 2.15  17 2.23  31 2.30  56 2.67
  56  0.513  0.313  0.316-  18 2.02   6 2.10  31 2.14  43 2.63  55 2.67
  57  0.001  0.814  0.246-  33 2.06   8 2.06  15 2.14  32 2.36   7 2.36  58 2.77
  58  0.968  0.820  0.083-   7 2.07  32 2.09  14 2.10  57 2.77
  59  0.140  0.322  0.108-   9 2.05  20 2.13  34 2.14  10 2.14
  60  0.174  0.314  0.276-  35 2.03  11 2.09  21 2.15  10 2.36  34 2.36
  61  0.657  0.814  0.184-  12 2.20  36 2.24  19 2.25  37 2.26  13 2.26
  62  0.696  0.789  0.349-  37 2.02  13 2.03  72 2.75
  63  0.312  0.477  0.122-  16 1.99   3 2.22  34 2.25   4 2.26  17 2.26
  64  0.342  0.486  0.291-  18 2.03  35 2.06   4 2.11  17 2.18
  65  0.817  0.996  0.040-  36 2.01  14 2.06   1 2.09
  66  0.829  0.977  0.215-  14 2.10  36 2.12  15 2.19  37 2.25   2 2.33   1 2.36
  67  0.001  0.477  0.246-  21 2.06   8 2.06  27 2.14  20 2.36   7 2.36  68 2.77
  68  0.968  0.470  0.083-   7 2.07  20 2.09  26 2.10  67 2.77
  69  0.477  0.984  0.159-   6 2.13   5 2.15  29 2.23  19 2.30  70 2.67
  70  0.513  0.978  0.316-  30 2.02   6 2.10  19 2.14  43 2.63  69 2.67
  71  0.657  0.477  0.184-  12 2.20  24 2.24  31 2.25  25 2.26  13 2.26
  72  0.696  0.502  0.349-  25 2.02  13 2.03  62 2.75
  73  0.140  0.969  0.108-   9 2.05  32 2.13  22 2.14  10 2.14
  74  0.174  0.977  0.276-  23 2.03  11 2.09  33 2.15  10 2.36  22 2.36

  LATTYP: Found a simple orthorhombic cell.
 ALAT       =     9.5784100000
 B/A-ratio  =     1.7387693453
 C/A-ratio  =     1.7627867312

  Lattice vectors:

 A1 = (   0.0000000000,   9.5784100000,   0.0000000000)
 A2 = (   0.0000000000,   0.0000000000, -16.6546456851)
 A3 = ( -16.8846940542,   0.0000000000,   0.0000000000)

Analysis of symmetry for initial positions (statically):
 Subroutine PRICEL returns:
 Original cell was already a primitive cell.

 Routine SETGRP: Setting up the symmetry group for a
 simple orthorhombic supercell.

 Subroutine GETGRP returns: Found  2 space group operations
 (whereof  1 operations were pure point group operations)
 out of a pool of  8 trial point group operations.

The static configuration has the point symmetry C_1 .
 The point group associated with its full space group is C_1h.

Analysis of symmetry for dynamics (positions and initial velocities):
 Subroutine PRICEL returns:
 Original cell was already a primitive cell.

 Routine SETGRP: Setting up the symmetry group for a
 simple orthorhombic supercell.

 Subroutine GETGRP returns: Found  2 space group operations
 (whereof  1 operations were pure point group operations)
 out of a pool of  8 trial point group operations.

The dynamic configuration has the point symmetry C_1 .
 The point group associated with its full space group is C_1h.

 Subroutine INISYM returns: Found  2 space group operations
 (whereof  1 operations are pure point group operations),
 and found     1 'primitive' translations

 KPOINTS: gamma-point-only calculation. no periodi

Automatic generation of k-mesh.
Space group operators:
 irot       det(A)        alpha          n_x          n_y          n_z        tau_x        tau_y        tau_z
    1     1.000000     0.000000     1.000000     0.000000     0.000000     0.000000     0.000000     0.000000
    2    -1.000000   180.000000     0.000000     1.000000     0.000000    -0.000000     0.290594     0.000000

 Subroutine IBZKPT returns following result:

 Found      1 irreducible k-points:

 Following reciprocal coordinates:
            Coordinates               Weight
  0.000000  0.000000  0.000000      1.000000

 Following cartesian coordinates:
            Coordinates               Weight
  0.000000  0.000000  0.000000      1.000000

 SYSTEM =  "Millerite NiS"
 POSCAR =  Type_037 Type_137

 Startparameter for this run:
   NWRITE =      2    write-flag & timer
   PREC   = normal    normal or accurate (medium, high low for compatibility)
   ISTART =      0    job   : 0-new  1-cont  2-samecut
   ICHARG =      2    charge: 1-file 2-atom 10-const
   ISPIN  =      1    spin polarized calculation?
   LNONCOLLINEAR =      F non collinear calculations
   LSORBIT =      F    spin-orbit coupling
   INIWAV =      1    electr: 0-lowe 1-rand  2-diag
   LASPH  =      F    aspherical Exc in radial PAW
   METAGGA=      F    non-selfconsistent MetaGGA calc.

 Electronic Relaxation 1
   ENCUT  =  450.0 eV  33.07 Ry    5.75 a.u.  29.20 16.57 28.81*2*pi/ulx,y,z
   ENINI  =  450.0     initial cutoff
   ENAUG  =  703.4 eV  augmentation charge cutoff
   NELM   =    100;   NELMIN=  2; NELMDL= -5     # of ELM steps
   EDIFF  = 0.1E-03   stopping-criterion for ELM
   LREAL  =      T    real-space projection
   NLSPLINE    = F    spline interpolate recip. space projectors
   LCOMPAT=      F    compatible to vasp.4.4
   GGA_COMPAT  = T    GGA compatible to vasp.4.4-vasp.4.6
   LMAXPAW     = -100 max onsite density
   LMAXMIX     =    2 max onsite mixed and CHGCAR
   VOSKOWN=      0    Vosko Wilk Nusair interpolation
   ROPT   =   -0.00050  -0.00050
 Ionic relaxation
   EDIFFG = 0.1E-02   stopping-criterion for IOM
   NSW    =      0    number of steps for IOM
   NBLOCK =      1;   KBLOCK =      1    inner block; outer block
   IBRION =     -1    ionic relax: 0-MD 1-quasi-New 2-CG
   NFREE  =      0    steps in history (QN), initial steepest desc. (CG)
   ISIF   =      2    stress and relaxation
   IWAVPR =     10    prediction:  0-non 1-charg 2-wave 3-comb
   ISYM   =      2    0-nonsym 1-usesym 2-fastsym
   LCORR  =      T    Harris-Foulkes like correction to forces

   POTIM  = 0.5000    time-step for ionic-motion
   TEIN   =    0.0    initial temperature
   TEBEG  =    0.0;   TEEND  =   0.0 temperature during run
   SMASS  =  -3.00    Nose mass-parameter (am)
   estimated Nose-frequenzy (Omega)   =  0.10E-29 period in steps =****** mass=  -0.652E-26a.u.
   SCALEE = 1.0000    scale energy and forces
   NPACO  =    256;   APACO  = 16.0  distance and # of slots for P.C.
   PSTRESS=    0.0 pullay stress

  Mass of Ions in am
   POMASS =  58.69 32.07
  Ionic Valenz
   ZVAL   =  16.00  6.00
  Atomic Wigner-Seitz radii
  virtual crystal weights
   VCA    =   1.00  1.00
   NELECT =     814.0000    total number of electrons
   NUPDOWN=      -1.0000    fix difference up-down

 DOS related values:
   EMIN   =  10.00;   EMAX   =-10.00  energy-range for DOS
   EFERMI =   0.00
   ISMEAR =     0;   SIGMA  =   0.20  broadening in eV -4-tet -1-fermi 0-gaus

 Electronic relaxation 2 (details)
   IALGO  =     38    algorithm
   LDIAG  =      T    sub-space diagonalisation (order eigenvalues)
   LSUBROT=      F    optimize rotation matrix (better conditioning)
   TURBO    =      0    0=normal 1=particle mesh
   IRESTART =      0    0=no restart 2=restart with 2 vectors
[...]
     0.000000000  9.578410000  0.000000000     0.000000000  0.104401461  0.000000000
     0.000000000  0.000000000 16.654645685     0.000000000  0.000000000  0.060043307

  length of vectors
    16.884694054  9.578410000 16.654645685     0.059225237  0.104401461  0.060043307

 FORCES acting on ions
    electron-ion (+dipol)            ewald-force                    non-local-force                 convergence-correction
   0.681E+03 -.788E-03 0.235E+04   -.682E+03 0.831E-07 -.236E+04   0.243E+01 0.000E+00 0.505E+01   -.122E-01 -.384E-07 0.122E-01
   -.120E+03 -.782E-03 -.212E+04   0.122E+03 0.881E-07 0.213E+04   -.332E+00 0.000E+00 -.202E+01   -.111E-02 -.110E-07 0.102E-01
   0.621E+02 -.748E-03 0.300E+04   -.634E+02 0.242E-06 -.300E+04   0.227E+01 0.000E+00 0.584E+01   0.247E-02 -.203E-07 0.957E-02
   0.303E+03 -.873E-03 -.979E+03   -.304E+03 -.267E-06 0.982E+03   0.137E+01 0.000E+00 -.370E+01   -.200E-01 -.191E-07 0.755E-02
   -.793E+03 -.745E-03 0.254E+04   0.797E+03 0.207E-05 -.254E+04   -.402E+01 0.000E+00 0.571E+01   -.790E-02 -.143E-06 0.114E-01
   -.214E+03 -.797E-03 -.142E+04   0.212E+03 0.502E-06 0.143E+04   0.201E+01 0.000E+00 -.610E+01   -.100E-01 -.102E-06 0.125E-01
   0.835E+03 -.854E-03 0.140E+04   -.840E+03 -.790E-08 -.140E+04   0.482E+01 0.000E+00 0.443E+01   -.460E-02 -.139E-06 0.132E-01
   0.805E+03 -.861E-03 -.325E+04   -.810E+03 0.357E-08 0.325E+04   0.332E+01 0.000E+00 -.360E+01   0.766E-02 -.201E-06 0.527E-02
   0.416E+03 -.676E-03 0.423E+04   -.420E+03 0.107E-06 -.424E+04   0.319E+01 0.000E+00 0.406E+01   0.171E-03 -.400E-07 0.420E-02
   0.767E+03 -.758E-03 0.394E+03   -.772E+03 0.410E-07 -.393E+03   0.359E+01 0.000E+00 -.446E+00   0.139E-01 0.150E-07 0.825E-02
   0.225E+03 -.826E-03 -.359E+04   -.229E+03 0.167E-07 0.359E+04   0.492E+01 0.000E+00 0.782E+00   0.211E-01 0.297E-07 0.259E-03
   -.583E+03 -.949E-03 0.191E+04   0.587E+03 -.961E-06 -.191E+04   -.337E+01 0.000E+00 0.511E+01   0.149E-01 -.424E-07 0.413E-02
   0.126E+03 -.910E-03 -.216E+04   -.129E+03 -.189E-06 0.217E+04   0.227E+01 0.000E+00 -.632E+01   0.156E-01 -.913E-07 0.783E-02
   -.234E+03 0.194E+03 0.241E+04   0.240E+03 -.196E+03 -.241E+04   -.527E+01 0.291E+01 0.537E+01   -.145E-02 -.590E-02 0.375E-02
   0.455E+03 0.295E+03 -.228E+04   -.454E+03 -.298E+03 0.229E+04   -.210E+01 0.234E+01 -.397E+01   0.276E-02 -.670E-02 0.877E-02
   -.529E+03 0.715E+03 0.398E+04   0.527E+03 -.711E+03 -.398E+04   0.277E+01 -.486E+01 -.214E+01   -.799E-02 0.102E-02 -.686E-02
   -.595E+03 0.593E+03 0.379E+03   0.596E+03 -.598E+03 -.380E+03   -.102E+00 0.439E+01 0.112E+00   -.128E-01 -.515E-02 0.315E-02
   -.329E+03 0.238E+03 -.368E+04   0.327E+03 -.239E+03 0.368E+04   0.155E+01 0.167E+01 0.170E+01   -.762E-02 -.599E-02 0.880E-02
   -.224E+03 0.446E+03 -.168E+03   0.225E+03 -.454E+03 0.166E+03   -.162E+01 0.632E+01 0.174E+01   0.946E-02 -.260E-02 0.562E-02
   0.175E+03 0.519E+03 0.204E+04   -.176E+03 -.522E+03 -.204E+04   0.118E+01 0.247E+01 0.482E+01   0.143E-01 -.138E-02 0.120E-01
   -.204E+03 0.397E+03 -.269E+04   0.208E+03 -.403E+03 0.269E+04   -.208E+01 0.443E+01 -.367E+01   0.113E-01 -.156E-03 0.722E-02
   -.273E+03 0.585E+03 0.110E+04   0.273E+03 -.590E+03 -.110E+04   0.582E+00 0.404E+01 0.184E+01   -.931E-02 0.961E-03 0.172E-01
   -.216E+03 0.183E+03 -.334E+04   0.216E+03 -.185E+03 0.334E+04   0.857E+00 0.282E+01 0.200E+01   -.106E-01 0.809E-02 0.583E-02
   0.634E+03 -.437E+03 0.262E+04   -.636E+03 0.440E+03 -.262E+04   0.163E+01 -.164E+01 0.667E+01   -.751E-02 0.106E-01 0.827E-02
   -.119E+03 0.355E+03 -.164E+04   0.122E+03 -.358E+03 0.164E+04   -.170E+01 0.267E+01 -.535E+01   -.416E-02 0.185E-02 0.226E-02
   -.234E+03 -.194E+03 0.241E+04   0.240E+03 0.196E+03 -.241E+04   -.527E+01 -.291E+01 0.537E+01   -.145E-02 0.590E-02 0.375E-02
   0.455E+03 -.295E+03 -.228E+04   -.454E+03 0.298E+03 0.229E+04   -.210E+01 -.234E+01 -.397E+01   0.276E-02 0.670E-02 0.877E-02
   -.529E+03 -.715E+03 0.398E+04   0.527E+03 0.711E+03 -.398E+04   0.277E+01 0.486E+01 -.214E+01   -.799E-02 -.102E-02 -.686E-02
   -.595E+03 -.593E+03 0.379E+03   0.596E+03 0.598E+03 -.380E+03   -.102E+00 -.439E+01 0.112E+00   -.128E-01 0.515E-02 0.315E-02
   -.329E+03 -.238E+03 -.368E+04   0.327E+03 0.239E+03 0.368E+04   0.155E+01 -.167E+01 0.170E+01   -.762E-02 0.599E-02 0.880E-02
   -.224E+03 -.446E+03 -.168E+03   0.225E+03 0.454E+03 0.166E+03   -.162E+01 -.632E+01 0.174E+01   0.946E-02 0.260E-02 0.562E-02
   0.175E+03 -.519E+03 0.204E+04   -.176E+03 0.522E+03 -.204E+04   0.118E+01 -.247E+01 0.482E+01   0.143E-01 0.138E-02 0.120E-01
   -.204E+03 -.397E+03 -.269E+04   0.208E+03 0.403E+03 0.269E+04   -.208E+01 -.443E+01 -.367E+01   0.113E-01 0.156E-03 0.722E-02
   -.273E+03 -.585E+03 0.110E+04   0.273E+03 0.590E+03 -.110E+04   0.582E+00 -.404E+01 0.184E+01   -.931E-02 -.961E-03 0.172E-01
   -.216E+03 -.183E+03 -.334E+04   0.216E+03 0.185E+03 0.334E+04   0.857E+00 -.282E+01 0.200E+01   -.106E-01 -.809E-02 0.583E-02
   0.634E+03 0.437E+03 0.262E+04   -.636E+03 -.440E+03 -.262E+04   0.163E+01 0.164E+01 0.667E+01   -.751E-02 -.106E-01 0.827E-02
   -.119E+03 -.355E+03 -.164E+04   0.122E+03 0.358E+03 0.164E+04   -.170E+01 -.267E+01 -.535E+01   -.416E-02 -.185E-02 0.226E-02
   0.218E+03 -.967E-05 -.158E+04   -.217E+03 0.333E-08 0.159E+04   -.772E+00 0.000E+00 -.133E+01   0.648E-02 0.418E-07 0.196E-02
   -.101E+03 -.905E-05 0.339E+03   0.103E+03 -.653E-08 -.343E+03   -.437E+00 0.000E+00 0.801E+00   0.750E-02 0.374E-07 0.255E-02
   -.548E+03 0.409E-05 0.122E+04   0.551E+03 -.196E-05 -.122E+04   -.178E+01 0.000E+00 0.236E+01   -.233E-02 0.255E-07 -.417E-02
   -.283E+03 -.278E-04 -.770E+03   0.284E+03 -.139E-06 0.774E+03   0.104E+01 0.000E+00 -.390E+01   0.400E-02 0.741E-09 0.300E-02
   0.222E+03 0.481E-05 0.100E+04   -.226E+03 0.119E-06 -.101E+04   0.261E+01 0.000E+00 0.370E+01   0.102E-02 0.122E-10 0.362E-02
   -.785E+02 0.331E-06 -.146E+04   0.814E+02 0.466E-07 0.146E+04   -.214E+01 0.000E+00 -.267E+01   0.452E-02 0.106E-07 0.690E-03
   0.120E+03 -.784E-05 0.173E+04   -.120E+03 0.107E-06 -.174E+04   0.416E-02 0.000E+00 0.184E+01   0.476E-02 -.110E-07 0.961E-03
   -.123E+03 0.224E-04 -.219E+03   0.123E+03 0.427E-07 0.222E+03   0.115E+01 0.000E+00 -.317E+01   0.178E-02 -.217E-07 0.667E-02
   -.418E+02 0.105E-04 -.178E+04   0.423E+02 0.600E-08 0.178E+04   0.658E-01 0.000E+00 -.710E+00   0.366E-02 -.307E-07 -.459E-02
   -.311E+03 -.216E-04 0.158E+04   0.313E+03 0.449E-06 -.159E+04   -.627E+00 0.000E+00 0.214E+01   -.963E-02 -.348E-07 -.998E-03
   -.230E+03 -.792E-05 -.538E+03   0.231E+03 0.218E-06 0.543E+03   0.440E+00 0.000E+00 -.413E+01   -.890E-02 -.260E-07 0.114E-01
   0.618E+02 0.595E-04 0.748E+03   -.608E+02 -.426E-07 -.752E+03   -.691E+00 0.000E+00 0.248E+01   -.531E-02 -.190E-08 0.249E-02
   0.141E+02 -.211E-04 -.123E+04   -.123E+02 -.858E-09 0.124E+04   -.862E+00 0.000E+00 -.206E+01   -.205E-02 -.430E-07 0.349E-03
   0.161E+03 -.964E+02 0.172E+04   -.161E+03 0.976E+02 -.173E+04   -.510E+00 -.300E+00 0.231E+01   -.376E-02 0.492E-02 -.615E-03
   0.932E+02 -.390E+02 -.459E+03   -.928E+02 0.387E+02 0.464E+03   -.158E+01 -.230E-01 -.199E+01   -.651E-02 0.372E-02 0.430E-02
   0.534E+02 -.230E+03 0.804E+03   -.545E+02 0.233E+03 -.807E+03   -.574E+00 -.138E+01 0.282E+01   -.497E-02 -.119E-02 0.150E-02
   0.133E+03 -.778E+01 -.105E+04   -.134E+03 0.858E+01 0.106E+04   0.717E+00 -.340E+00 -.156E+01   -.106E-01 0.562E-02 0.282E-02
   -.300E+03 -.650E+02 0.751E+03   0.301E+03 0.672E+02 -.755E+03   -.272E+00 -.840E+00 0.229E+01   -.185E-04 -.475E-03 0.195E-02
   -.188E+03 0.434E+02 -.125E+04   0.188E+03 -.426E+02 0.125E+04   0.856E+00 -.755E+00 -.196E+01   -.344E-03 -.228E-02 0.231E-02
   0.223E+03 -.178E+03 -.441E+03   -.224E+03 0.181E+03 0.441E+03   0.151E+00 -.119E+01 -.658E+00   0.558E-02 -.193E-02 0.589E-02
   0.174E+03 -.503E+02 0.137E+04   -.175E+03 0.498E+02 -.137E+04   0.775E+00 0.113E+01 0.399E+01   0.106E-02 -.536E-03 -.214E-03
   0.219E+03 -.195E+03 0.104E+04   -.220E+03 0.196E+03 -.104E+04   -.276E+00 -.336E-01 0.100E+01   0.392E-02 -.529E-02 0.835E-03
   0.775E+02 -.167E+03 -.811E+03   -.784E+02 0.169E+03 0.812E+03   0.210E+00 -.146E+01 -.446E+00   0.477E-02 -.479E-03 0.482E-02
   0.927E+02 -.111E+03 0.461E+03   -.947E+02 0.114E+03 -.464E+03   0.129E+01 -.172E+01 0.190E+01   0.598E-02 -.820E-04 0.205E-02
   0.130E+01 -.253E+03 -.154E+04   -.200E+01 0.256E+03 0.154E+04   0.231E+00 -.226E+01 -.865E+00   0.157E-02 -.106E-02 -.582E-03
   0.534E+02 0.230E+03 0.804E+03   -.545E+02 -.233E+03 -.807E+03   -.574E+00 0.138E+01 0.282E+01   -.497E-02 0.119E-02 0.150E-02
   0.133E+03 0.778E+01 -.105E+04   -.134E+03 -.858E+01 0.106E+04   0.717E+00 0.340E+00 -.156E+01   -.106E-01 -.562E-02 0.282E-02
   0.161E+03 0.964E+02 0.172E+04   -.161E+03 -.976E+02 -.173E+04   -.510E+00 0.300E+00 0.231E+01   -.376E-02 -.492E-02 -.615E-03
   0.932E+02 0.390E+02 -.459E+03   -.928E+02 -.387E+02 0.464E+03   -.158E+01 0.230E-01 -.199E+01   -.651E-02 -.372E-02 0.430E-02
   0.223E+03 0.178E+03 -.441E+03   -.224E+03 -.181E+03 0.441E+03   0.151E+00 0.119E+01 -.658E+00   0.558E-02 0.193E-02 0.589E-02
   0.174E+03 0.503E+02 0.137E+04   -.175E+03 -.498E+02 -.137E+04   0.775E+00 -.113E+01 0.399E+01   0.106E-02 0.536E-03 -.214E-03
   -.300E+03 0.650E+02 0.751E+03   0.301E+03 -.672E+02 -.755E+03   -.272E+00 0.840E+00 0.229E+01   -.185E-04 0.475E-03 0.195E-02
   -.188E+03 -.434E+02 -.125E+04   0.188E+03 0.426E+02 0.125E+04   0.856E+00 0.755E+00 -.196E+01   -.344E-03 0.228E-02 0.231E-02
   0.927E+02 0.111E+03 0.461E+03   -.947E+02 -.114E+03 -.464E+03   0.129E+01 0.172E+01 0.190E+01   0.598E-02 0.820E-04 0.205E-02
   0.130E+01 0.253E+03 -.154E+04   -.200E+01 -.256E+03 0.154E+04   0.231E+00 0.226E+01 -.865E+00   0.157E-02 0.106E-02 -.582E-03
   0.219E+03 0.195E+03 0.104E+04   -.220E+03 -.196E+03 -.104E+04   -.276E+00 0.336E-01 0.100E+01   0.392E-02 0.529E-02 0.835E-03
   0.775E+02 0.167E+03 -.811E+03   -.784E+02 -.169E+03 0.812E+03   0.210E+00 0.146E+01 -.446E+00   0.477E-02 0.479E-03 0.482E-02
   -.137E+02 -.894E-02 -.366E+02   -.995E-13 -.597E-12 0.114E-12   0.139E+02 -.711E-14 0.361E+02   -.281E-01 -.327E-06 0.333E+00

 POSITION                                       TOTAL-FORCE (eV/Angst)
     13.17084      1.39171      2.05636         1.752931     -0.000000     -0.683126
     12.42910      1.39171      4.19056         1.403481     -0.000000      0.543973
      3.80073      6.18092      1.60169         0.885025     -0.000000     -0.164706
      5.02033      6.18092      3.59863        -0.115872     -0.000000     -0.239881
      6.63677      1.39171      2.17266         0.076599     -0.000000     -0.585164
      7.93172      1.39171      4.11272        -0.501583     -0.000000      0.450741
     16.08224      6.18092      2.57045        -0.420811     -0.000000      2.123909
     16.48451      6.18092      5.30083        -1.665171     -0.000000      0.516832
      2.93184      1.39171      0.78484        -1.035726     -0.000000     -1.920066
      2.10894      1.39171      3.08454        -1.009505     -0.000000      0.678720
      1.93665      1.39171      5.48054         0.843274     -0.000000      1.030394
      9.63809      6.18092      2.69802         0.377085     -0.000000     -0.454870
     10.84312      6.18092      4.62682        -0.764342     -0.000000     -1.198168
     15.36038      0.02406      2.00170         0.930465      0.711947      0.120659
     15.97561      0.09587      4.47146        -0.923159     -0.789940     -0.080533
      6.64415      4.97052      0.65887         0.164947     -0.544820     -1.107482
      7.17375      4.91558      3.19116         0.280386     -0.218903     -0.655951
      7.64661      4.70524      5.65083         0.307152      0.334217      1.066737
     10.08514      0.12638      3.70525        -0.443020     -1.414662     -0.585589
      1.35096      4.91558      2.16298         0.172688     -0.410961      1.588979
      1.89151      4.85059      4.91516         1.193718     -1.213169      0.358233
      4.26235      0.12638      2.67707         0.669507     -0.728822      1.026569
      4.86164      9.50769      5.23887         0.337901     -0.059892      0.685821
     13.01800      4.08410      2.04000        -0.486777      1.252952     -0.168758
     12.99653      4.91558      4.21934         0.724286     -0.114402     -1.293366
     15.36038      2.75937      2.00170         0.930465     -0.711947      0.120659
     15.97561      2.68756      4.47146        -0.923159      0.789940     -0.080533
      6.64415      7.39131      0.65887         0.164947      0.544820     -1.107482
      7.17375      7.44626      3.19116         0.280386      0.218903     -0.655951
      7.64661      7.65660      5.65083         0.307152     -0.334217      1.066737
     10.08514      2.65705      3.70525        -0.443020      1.414662     -0.585589
      1.35096      7.44626      2.16298         0.172688      0.410961      1.588979
      1.89151      7.51125      4.91516         1.193718      1.213169      0.358233
      4.26235      2.65705      2.67707         0.669507      0.728822      1.026569
      4.86164      2.85415      5.23887         0.337901      0.059892      0.685821
     13.01800      8.27774      2.04000        -0.486777     -1.252952     -0.168758
     12.99653      7.44626      4.21934         0.724286      0.114402     -1.293366
     16.82080      1.39171      5.83293        -0.370876     -0.000000      3.044623
     16.74052      1.39171      3.05601         1.873338     -0.000000     -2.572687
      8.00634      6.18092      1.51374         1.646158     -0.000000     -1.677528
      8.59001      6.18092      4.59828         1.177290     -0.000000      0.618833
     11.14706      1.39171      2.44518        -0.897559     -0.000000     -2.307455
     10.74284      1.39171      5.24819         0.794175     -0.000000      3.948928
      2.00130      6.18092      0.67862         0.002412     -0.000000     -4.103631
      2.76722      6.18092      3.57010         1.553862     -0.000000     -1.097060
      1.35123      6.18092      6.36958         0.580311     -0.000000      4.195963
      4.92085      1.39171      1.08521         1.567350     -0.000000     -3.081893
      5.67861      1.39171      4.08419         0.528416     -0.000000      0.784727
     13.82913      6.18092      2.54192         0.263101     -0.000000     -1.573289
     14.38320      6.18092      5.19158         0.927263     -0.000000      2.595922
     13.79178      2.82305      0.67240        -0.324935      0.892467     -3.922497
     13.99844      3.00295      3.57488        -1.130061     -0.326836      3.038176
      5.26426      7.79215      2.03261        -1.764954      0.915789     -0.282714
      5.78129      7.70214      4.84869        -0.904856      0.467462      1.864832
      8.05577      2.93392      2.65351         0.304011      1.335437     -1.932342
      8.65617      2.99793      5.25645         0.357680      0.014353      2.327501
      0.02514      7.79215      4.08897        -1.060979      1.456264     -0.703413
     16.34399      7.85577      1.38092        -0.475609      0.666537     -2.838177
      2.36423      3.08209      1.79108        -0.832372      0.796074     -1.366369
      2.93654      3.00295      4.60306        -0.706982      0.356560      0.483956
     11.08705      7.79215      3.06079        -0.647625      0.730048     -0.956133
     11.75888      7.55760      5.80647        -0.476726      1.180099      3.894843
      5.26426      4.56969      2.03261        -1.764954     -0.915789     -0.282714
      5.78129      4.65970      4.84869        -0.904856     -0.467462      1.864832
     13.79178      9.53879      0.67240        -0.324935     -0.892467     -3.922497
     13.99844      9.35889      3.57488        -1.130061      0.326836      3.038176
      0.02514      4.56969      4.08897        -1.060979     -1.456264     -0.703413
     16.34399      4.50607      1.38092        -0.475609     -0.666537     -2.838177
      8.05577      9.42792      2.65351         0.304011     -1.335437     -1.932342
      8.65617      9.36390      5.25645         0.357680     -0.014353      2.327501
     11.08705      4.56969      3.06079        -0.647625     -0.730048     -0.956133
     11.75888      4.80424      5.80647        -0.476726     -1.180099      3.894843
      2.36423      9.27975      1.79108        -0.832372     -0.796074     -1.366369
      2.93654      9.35889      4.60306        -0.706982     -0.356560      0.483956
    total drift:                                0.119474     -0.008939     -0.199854

  FREE ENERGIE OF THE ION-ELECTRON SYSTEM (eV)
  free  energy   TOTEN  =      -352.79945345 eV

  energy  without entropy=     -351.62732100  energy(sigma->0) =     -352.21338723