 vasp.5.4.4.18Apr17-6-g9f103f2a35 (build Aug 13 2019 17:33:20) gamma-only

 executed on             LinuxIFC date 2020.05.10  13:43:23

 INCAR:
 POTCAR:    PAW_PBE Ni_pv 06Sep2000
 POTCAR:    PAW_PBE S 06Sep2000
 POTCAR:    PAW_PBE Ni_pv 06Sep2000
   VRHFIN =Ni:

   TITEL  = PAW_PBE Ni_pv 06Sep2000
   POMASS =   58.690; ZVAL   =   16.000    mass and valenz
   ENMAX  =  367.986; ENMIN  =  275.989 eV

 POTCAR:    PAW_PBE S 06Sep2000
   VRHFIN =S : s2p4

   TITEL  = PAW_PBE S 06Sep2000
   POMASS =   32.066; ZVAL   =    6.000    mass and valenz
   ENMAX  =  258.689; ENMIN  =  194.016 eV

 Optimization of the real space projectors (new method)

 maximal supplied QI-value         = 18.90
 optimisation between [QCUT,QGAM] = [ 10.77, 21.73] = [ 32.49,132.25] Ry
 Optimized for a Real-space Cutoff    1.38 Angstroem

   l    n(q)    QCUT    max X(q) W(low)/X(q) W(high)/X(q)  e(spline)
   1      8    10.771     2.836    0.40E-04    0.29E-04    0.12E-06
   1      8    10.771     4.023    0.10E-03    0.48E-04    0.29E-06
   2      8    10.771    73.368    0.42E-03    0.97E-04    0.44E-06
   2      8    10.771    69.010    0.42E-03    0.99E-04    0.45E-06
   0      9    10.771    54.797    0.10E-03    0.56E-04    0.74E-07
   0      9    10.771    24.266    0.89E-04    0.49E-04    0.67E-07
 Optimization of the real space projectors (new method)

 maximal supplied QI-value         = 19.84
 optimisation between [QCUT,QGAM] = [ 10.71, 21.63] = [ 32.15,130.99] Ry
 Optimized for a Real-space Cutoff    1.19 Angstroem

   l    n(q)    QCUT    max X(q) W(low)/X(q) W(high)/X(q)  e(spline)
   0      8    10.715   187.594    0.41E-03    0.53E-04    0.66E-07
   0      8    10.715   164.243    0.41E-03    0.53E-04    0.65E-07
   1      7    10.715    67.533    0.19E-03    0.59E-03    0.68E-07
   1      7    10.715    50.729    0.19E-03    0.58E-03    0.67E-07
  PAW_PBE Ni_pv 06Sep2000               :
  PAW_PBE S 06Sep2000                   :

 POSCAR: Type_048 Type_148
  positions in cartesian coordinates
 exchange correlation table for  LEXCH =        8
   RHO(1)=    0.500       N(1)  =     2000
   RHO(2)=  100.500       N(2)  =     4000

 ion  position               nearest neighbor table
   1  0.261  0.479  0.253-  74 2.25  59 2.26  80 2.26  55 2.36  60 2.36   7 2.53  21 2.53
   2  0.355  0.385  0.388-  75 2.25  55 2.26  60 2.26  61 2.36  66 2.36   3 2.39   8 2.53  22 2.53

   3  0.376  0.364  0.498-  53 2.04  61 2.08  66 2.08   2 2.39
   4  0.167  0.073  0.118-  56 2.08  81 2.08  65 2.25  57 2.36  82 2.36  36 2.46  30 2.46
   5  0.043  0.053  0.467-  50 2.03  73 2.04  78 2.07  15 2.49
   6  0.274  0.333  0.083-  51 2.04  56 2.07  58 2.08  52 2.36  59 2.36  28 2.48
   7  0.368  0.239  0.218-  57 2.25  59 2.26  52 2.26  60 2.36  62 2.36   1 2.53  21 2.53
   8  0.462  0.145  0.353-  79 2.25  60 2.26  62 2.26  61 2.36  63 2.36   2 2.53  22 2.53
   9  0.000  0.372  0.218-  59 2.25  65 2.26  93 2.26  49 2.36  67 2.36  13 2.53  19 2.53
  10  0.094  0.278  0.353-  60 2.25  49 2.26  67 2.26  54 2.36  50 2.36  20 2.53  14 2.53
  11  0.187  0.197  0.467-  50 2.03  54 2.04  61 2.07  15 2.49
  12  0.485  0.442  0.114-  70 2.05  51 2.07  52 2.12  80 2.14  21 2.37  71 2.43
  13  0.761  0.479  0.253-  85 2.25  71 2.26  93 2.26  67 2.36  72 2.36  19 2.53   9 2.53
  14  0.855  0.385  0.388-  86 2.25  67 2.26  72 2.26  73 2.36  54 2.36  20 2.53  10 2.53
  15  0.954  0.286  0.505-  73 2.00  54 2.00  11 2.49   5 2.49
  16  0.684  0.063  0.132-  87 2.08  69 2.08  68 2.14  94 2.19  52 2.38  48 2.48
  17  0.550  0.055  0.473-  63 2.05  89 2.07  61 2.10  90 2.16
  18  0.774  0.333  0.083-  64 2.00  70 2.06  68 2.08  65 2.36  71 2.36  24 2.53  40 2.53
  19  0.868  0.239  0.218-  69 2.25  71 2.26  65 2.26  72 2.36  49 2.36  13 2.53   9 2.53
  20  0.962  0.145  0.353-  91 2.25  72 2.26  49 2.26  73 2.36  50 2.36  14 2.53  10 2.53
  21  0.500  0.372  0.218-  71 2.25  52 2.26  80 2.26  62 2.36  55 2.36  12 2.37   1 2.53   7 2.53

[...]

  44  0.962  0.645  0.353-  67 2.25  95 2.26  74 2.26  96 2.36  75 2.36  38 2.53  34 2.53
  45  0.500  0.872  0.218-  94 2.25  77 2.26  57 2.26  85 2.36  79 2.36  25 2.53  31 2.53
  46  0.594  0.778  0.353-  95 2.25  85 2.26  79 2.26  90 2.36  86 2.36  32 2.53  26 2.53
  47  0.687  0.697  0.467-  86 2.03  90 2.04  96 2.07  27 2.49
  48  0.906  0.965  0.083-  87 2.04  81 2.07  68 2.08  88 2.36  69 2.36  16 2.48
  49  0.073  0.167  0.270-  25 2.25  10 2.26  20 2.26   9 2.36  19 2.36
  50  0.167  0.073  0.405-  11 2.03   5 2.03  26 2.25  10 2.36  20 2.36
  51  0.317  0.487  0.061-   6 2.04  12 2.07  28 2.08  58 2.68
  52  0.479  0.261  0.135-  12 2.12   7 2.26  21 2.26   6 2.36  16 2.38
  53  0.211  0.528  0.527-   3 2.04  29 2.07  35 2.07  75 2.70
  54  0.030  0.378  0.451-  15 2.00  11 2.04  29 2.16  10 2.36  14 2.36
  55  0.436  0.472  0.315-  32 2.25   2 2.26  22 2.26   1 2.36  21 2.36
  56  0.271  0.153  0.068-   6 2.07   4 2.08  36 2.14  57 2.62  76 2.72
  57  0.342  0.066  0.180-  36 2.05   7 2.25  25 2.26  45 2.26   4 2.36  56 2.62
  58  0.082  0.481  0.068-   6 2.08  24 2.08  28 2.14  59 2.65  51 2.68
  59  0.174  0.397  0.180-  28 2.08   9 2.25   7 2.26   1 2.26   6 2.36  58 2.65
  60  0.268  0.303  0.315-  10 2.25   2 2.26   8 2.26   7 2.36   1 2.36
  61  0.362  0.209  0.451-  11 2.07   3 2.08  17 2.10   8 2.36   2 2.36
  62  0.573  0.167  0.270-  37 2.25  22 2.26   8 2.26  21 2.36   7 2.36
  63  0.667  0.073  0.405-  17 2.05  23 2.05  38 2.25  22 2.36   8 2.36  89 2.70
  64  0.875  0.365  0.014-  18 2.00  24 2.00
  65  0.979  0.261  0.135-   4 2.25  19 2.26   9 2.26  18 2.36  24 2.36
  66  0.530  0.378  0.451-  41 2.07   3 2.08  23 2.10  22 2.36   2 2.36
  67  0.936  0.472  0.315-  44 2.25  14 2.26  10 2.26  13 2.36   9 2.36
  68  0.759  0.158  0.068-  48 2.08  18 2.08  16 2.14  69 2.65  87 2.68
  69  0.842  0.066  0.180-  16 2.08  19 2.25  37 2.26  33 2.26  48 2.36  68 2.65
  70  0.598  0.486  0.053-  12 2.05  18 2.06  40 2.06
  71  0.674  0.397  0.180-  21 2.25  19 2.26  13 2.26  18 2.36  40 2.36  12 2.43
  72  0.768  0.303  0.315-  22 2.25  14 2.26  20 2.26  19 2.36  13 2.36
  73  0.862  0.209  0.451-  15 2.00   5 2.04  23 2.16  20 2.36  14 2.36
  74  0.073  0.667  0.270-   1 2.25  34 2.26  44 2.26  33 2.36  43 2.36
  75  0.167  0.573  0.405-  35 2.05  29 2.05   2 2.25  34 2.36  44 2.36  53 2.70
  76  0.337  0.903  0.028-  30 2.01  36 2.01  56 2.72  81 2.72
  77  0.479  0.761  0.135-  36 2.15  30 2.15  40 2.25  31 2.26  45 2.26
  78  0.030  0.878  0.451-   5 2.07  39 2.08  35 2.10  34 2.36  38 2.36
  79  0.436  0.972  0.315-   8 2.25  26 2.26  46 2.26  25 2.36  45 2.36
  80  0.342  0.566  0.180-  12 2.14  28 2.19  31 2.25   1 2.26  21 2.26
  81  0.086  0.969  0.068-  48 2.07   4 2.08  30 2.14  82 2.62  76 2.72
  82  0.174  0.897  0.180-  30 2.05  33 2.25  31 2.26  25 2.26   4 2.36  81 2.62
  83  0.268  0.803  0.315-  34 2.25  26 2.26  32 2.26  31 2.36  25 2.36
  84  0.362  0.709  0.451-  27 2.00  41 2.04  35 2.16  32 2.36  26 2.36
  85  0.573  0.667  0.270-  13 2.25  46 2.26  32 2.26  45 2.36  31 2.36
  86  0.667  0.573  0.405-  47 2.03  41 2.03  14 2.25  46 2.36  32 2.36
  87  0.753  0.923  0.061-  48 2.04  42 2.07  16 2.08  68 2.68
  88  0.979  0.761  0.135-  42 2.12  43 2.26  33 2.26  48 2.36  28 2.38
  89  0.711  0.028  0.527-  39 2.04  23 2.07  17 2.07  63 2.70
  90  0.530  0.878  0.451-  27 2.00  47 2.04  17 2.16  46 2.36  26 2.36
  91  0.936  0.972  0.315-  20 2.25  38 2.26  34 2.26  37 2.36  33 2.36
  92  0.754  0.641  0.053-  42 2.05  24 2.06  40 2.06
  93  0.842  0.566  0.180-  43 2.25  13 2.26   9 2.26  40 2.36  24 2.36  42 2.43
  94  0.674  0.897  0.180-  42 2.14  16 2.19  45 2.25  43 2.26  37 2.26
  95  0.768  0.803  0.315-  46 2.25  38 2.26  44 2.26  43 2.36  37 2.36
  96  0.862  0.709  0.451-  47 2.07  39 2.08  29 2.10  44 2.36  38 2.36

  LATTYP: Found a base centered orthorhombic cell.
 ALAT       =    11.8257374459
 B/A-ratio  =     1.6199260857
 C/A-ratio  =     1.8387210052

  Lattice vectors:

 A1 = (  11.2564630382,   0.0000000000,   0.0000000000)
 A2 = (  -5.0445621212, -10.0628203371,   0.0000000000)
 A3 = (   0.0000000000,   0.0000000000, -21.7442318436)

Analysis of symmetry for initial positions (statically):
 Subroutine PRICEL returns:
 Original cell was already a primitive cell.

 Routine SETGRP: Setting up the symmetry group for a
 base centered orthorhombic supercell.

 Subroutine GETGRP returns: Found  2 space group operations
 (whereof  1 operations were pure point group operations)
 out of a pool of  8 trial point group operations.

The static configuration has the point symmetry C_1 .
 The point group associated with its full space group is C_1h.

Analysis of symmetry for dynamics (positions and initial velocities):
 Subroutine PRICEL returns:
 Original cell was already a primitive cell.

 Routine SETGRP: Setting up the symmetry group for a
 base centered orthorhombic supercell.

 Subroutine GETGRP returns: Found  2 space group operations
 (whereof  1 operations were pure point group operations)
 out of a pool of  8 trial point group operations.

The dynamic configuration has the point symmetry C_1 .
 The point group associated with its full space group is C_1h.

 Subroutine INISYM returns: Found  2 space group operations
 (whereof  1 operations are pure point group operations),
 and found     1 'primitive' translations

 KPOINTS: gamma-point-only calculation. no periodi

Automatic generation of k-mesh.
Space group operators:
 irot       det(A)        alpha          n_x          n_y          n_z        tau_x        tau_y        tau_z
    1     1.000000     0.000000     1.000000     0.000000     0.000000     0.000000     0.000000     0.000000
    2    -1.000000   180.000000     0.850925     0.525287     0.000000     0.239701    -0.760299     0.000000

 Subroutine IBZKPT returns following result:

 Found      1 irreducible k-points:

 Following reciprocal coordinates:
            Coordinates               Weight
  0.000000  0.000000  0.000000      1.000000

 Following cartesian coordinates:
            Coordinates               Weight
  0.000000  0.000000  0.000000      1.000000

 SYSTEM =  "Millerite NiS"
 POSCAR =  Type_048 Type_148

 Startparameter for this run:
   NWRITE =      2    write-flag & timer
   PREC   = normal    normal or accurate (medium, high low for compatibility)
   ISTART =      0    job   : 0-new  1-cont  2-samecut
   ICHARG =      2    charge: 1-file 2-atom 10-const
   ISPIN  =      1    spin polarized calculation?
   LNONCOLLINEAR =      F non collinear calculations
   LSORBIT =      F    spin-orbit coupling
   INIWAV =      1    electr: 0-lowe 1-rand  2-diag
   LASPH  =      F    aspherical Exc in radial PAW
   METAGGA=      F    non-selfconsistent MetaGGA calc.

 Electronic Relaxation 1
   ENCUT  =  450.0 eV  33.07 Ry    5.75 a.u.  19.47 19.47 37.61*2*pi/ulx,y,z
   ENINI  =  450.0     initial cutoff
   ENAUG  =  703.4 eV  augmentation charge cutoff
   NELM   =    100;   NELMIN=  2; NELMDL= -5     # of ELM steps
   EDIFF  = 0.1E-03   stopping-criterion for ELM
   LREAL  =      T    real-space projection
   NLSPLINE    = F    spline interpolate recip. space projectors
   LCOMPAT=      F    compatible to vasp.4.4
[...]
     0.000000000  0.000000000 21.744231844     0.000000000  0.000000000  0.045989208

  length of vectors
    11.256463038 11.256463038 21.744231844     0.099375718  0.099375718  0.045989208

 FORCES acting on ions
    electron-ion (+dipol)            ewald-force                    non-local-force                 convergence-correction
   0.255E+03 -.382E+03 0.529E+03   -.255E+03 0.383E+03 -.528E+03   0.613E+00 -.398E+00 -.195E+01   -.258E-01 -.131E-01 0.609E+00
   0.233E+03 -.367E+03 -.243E+04   -.233E+03 0.368E+03 0.242E+04   0.645E+00 -.103E+01 0.777E-01   0.895E-01 -.572E-01 0.144E+01
   -.223E+02 0.382E+02 -.561E+04   0.194E+02 -.337E+02 0.561E+04   0.328E+01 -.528E+01 -.644E-01   -.950E-03 0.800E-01 0.513E+00
   0.324E+03 -.524E+03 0.406E+04   -.328E+03 0.531E+03 -.406E+04   0.316E+01 -.511E+01 0.297E+01   -.150E-01 0.243E-01 -.719E-01
   -.645E+02 0.509E+03 -.490E+04   0.646E+02 -.509E+03 0.490E+04   0.985E+00 0.939E+00 -.358E+00   -.597E+00 -.210E+00 0.574E+00
   -.291E+02 0.425E+03 0.519E+04   0.291E+02 -.431E+03 -.519E+04   0.222E+00 0.408E+01 0.405E+01   0.108E-01 -.244E-01 -.175E+00
   0.260E+03 0.491E+03 0.175E+04   -.260E+03 -.492E+03 -.175E+04   0.168E+00 0.412E+00 0.117E+01   0.570E-01 0.473E-01 0.389E+00
   0.281E+03 0.455E+03 -.146E+04   -.282E+03 -.456E+03 0.146E+04   0.106E+01 0.498E+00 0.207E+01   0.304E+00 0.340E+00 0.856E+00
   -.523E+03 0.443E+02 0.168E+04   0.523E+03 -.450E+02 -.168E+04   -.609E+00 0.499E+00 0.191E+00   0.185E-01 0.762E-01 0.333E+00
   -.476E+03 -.342E+02 -.142E+04   0.477E+03 0.345E+02 0.142E+04   -.799E+00 -.670E+00 0.252E+01   0.120E+00 0.292E+00 0.535E+00
   -.426E+03 0.286E+03 -.490E+04   0.427E+03 -.286E+03 0.490E+04   -.128E+01 -.460E+00 -.358E+00   0.455E+00 0.440E+00 0.574E+00
   0.156E+02 -.102E+03 0.462E+04   -.141E+02 0.104E+03 -.462E+04   -.688E+00 -.160E+01 0.619E+01   0.177E-01 0.119E-01 -.759E-01
   0.227E+03 -.367E+03 0.516E+03   -.227E+03 0.368E+03 -.514E+03   0.408E+00 -.661E+00 -.147E+01   0.205E-01 -.332E-01 0.404E+00
   0.288E+03 -.467E+03 -.274E+04   -.289E+03 0.468E+03 0.273E+04   0.624E+00 -.101E+01 0.168E+01   -.489E-01 0.793E-01 0.565E+00
   0.248E+03 -.402E+03 -.584E+04   -.245E+03 0.396E+03 0.584E+04   -.322E+01 0.522E+01 0.419E+01   -.898E-01 0.146E+00 0.407E+00
   0.536E+03 -.351E+03 0.393E+04   -.543E+03 0.354E+03 -.393E+04   0.537E+01 -.222E+01 0.962E+00   -.389E-01 0.214E-01 0.568E-01
   0.414E+03 0.242E+03 -.491E+04   -.418E+03 -.246E+03 0.491E+04   0.250E+01 0.326E+01 -.170E+01   0.630E+00 0.412E+00 0.610E+00
   0.212E+03 0.563E+03 0.490E+04   -.214E+03 -.567E+03 -.490E+04   0.124E+01 0.319E+01 0.395E+01   -.427E-01 0.104E-01 -.165E+00
   0.195E+03 0.487E+03 0.168E+04   -.194E+03 -.488E+03 -.168E+04   -.173E+00 0.768E+00 0.191E+00   -.764E-01 0.177E-01 0.333E+00
   0.244E+03 0.410E+03 -.142E+04   -.245E+03 -.411E+03 0.142E+04   0.957E+00 0.414E+00 0.252E+01   -.315E+00 0.232E-01 0.535E+00
   -.424E+03 0.935E+02 0.146E+04   0.424E+03 -.944E+02 -.146E+04   -.578E+00 0.703E+00 -.168E+01   -.348E-01 -.418E-01 0.414E+00
   -.527E+03 -.341E+02 -.148E+04   0.528E+03 0.346E+02 0.147E+04   -.970E+00 -.692E+00 0.222E+01   -.231E+00 -.367E-01 0.908E+00
   -.403E+03 -.260E+03 -.491E+04   0.407E+03 0.261E+03 0.491E+04   -.404E+01 -.623E+00 -.169E+01   -.494E+00 -.226E+00 0.561E+00
   -.598E+03 0.625E+02 0.490E+04   0.603E+03 -.634E+02 -.490E+04   -.341E+01 0.322E+00 0.395E+01   0.985E-02 0.428E-01 -.165E+00
   0.262E+03 -.425E+03 0.532E+03   -.263E+03 0.426E+03 -.531E+03   0.641E+00 -.104E+01 -.755E+00   -.573E-01 0.928E-01 0.273E+00
   0.295E+03 -.478E+03 -.273E+04   -.296E+03 0.480E+03 0.273E+04   0.639E+00 -.103E+01 0.173E+01   -.224E-01 0.363E-01 0.467E+00
   0.250E+03 -.404E+03 -.584E+04   -.246E+03 0.399E+03 0.584E+04   -.324E+01 0.525E+01 0.429E+01   0.743E-01 -.120E+00 0.518E+00
   0.736E+02 -.636E+03 0.393E+04   -.737E+02 0.644E+03 -.393E+04   -.425E+00 -.580E+01 0.962E+00   -.169E-02 0.444E-01 0.568E-01
   0.412E+03 0.244E+03 -.491E+04   -.416E+03 -.247E+03 0.491E+04   0.237E+01 0.333E+01 -.169E+01   0.423E+00 0.341E+00 0.561E+00
   0.479E+03 0.715E+03 0.485E+04   -.480E+03 -.719E+03 -.486E+04   -.139E+00 0.277E+01 0.421E+01   -.234E-01 -.762E-01 -.181E+00
   0.278E+03 0.453E+03 0.163E+04   -.278E+03 -.454E+03 -.163E+04   -.231E-01 0.649E+00 -.750E+00   -.867E-01 -.722E-01 0.205E+00
   0.255E+03 0.399E+03 -.144E+04   -.255E+03 -.399E+03 0.144E+04   0.869E+00 0.197E+00 0.233E+01   -.177E+00 -.397E+00 0.524E+00
   -.555E+03 -.121E+02 0.175E+04   0.556E+03 0.120E+02 -.175E+04   -.444E+00 0.344E-01 0.117E+01   -.678E-01 -.298E-01 0.389E+00
   -.533E+03 -.472E+02 -.146E+04   0.534E+03 0.479E+02 0.146E+04   -.923E+00 -.728E+00 0.207E+01   -.441E+00 -.119E+00 0.856E+00
   -.402E+03 -.262E+03 -.491E+04   0.407E+03 0.264E+03 0.491E+04   -.403E+01 -.770E+00 -.170E+01   -.650E+00 -.379E+00 0.610E+00
   -.854E+03 -.108E+03 0.485E+04   0.858E+03 0.107E+03 -.486E+04   -.242E+01 0.137E+01 0.421E+01   0.786E-01 -.132E-01 -.181E+00
   0.228E+03 -.399E+03 0.529E+03   -.228E+03 0.400E+03 -.528E+03   0.806E-01 -.727E+00 -.195E+01   0.232E-01 0.172E-01 0.609E+00
   0.223E+03 -.372E+03 -.243E+04   -.224E+03 0.374E+03 0.242E+04   0.635E+00 -.104E+01 0.777E-01   0.110E-01 -.106E+00 0.144E+01
   -.242E+02 0.370E+02 -.561E+04   0.214E+02 -.325E+02 0.561E+04   0.325E+01 -.530E+01 -.644E-01   -.711E-01 0.367E-01 0.513E+00
   0.318E+03 -.516E+03 0.392E+04   -.320E+03 0.518E+03 -.392E+04   0.164E+01 -.265E+01 0.237E+01   -.250E-01 0.405E-01 -.526E-01
   -.631E+02 0.508E+03 -.491E+04   0.628E+02 -.509E+03 0.491E+04   0.104E+01 0.806E+00 -.440E+00   -.379E+00 -.549E+00 0.514E+00
   0.844E+02 -.598E+02 0.462E+04   -.864E+02 0.591E+02 -.462E+04   0.174E+01 -.103E+00 0.619E+01   -.185E-01 -.105E-01 -.759E-01
   0.106E+03 0.421E+03 0.146E+04   -.106E+03 -.422E+03 -.146E+04   -.369E+00 0.831E+00 -.168E+01   0.530E-01 0.124E-01 0.414E+00
   0.267E+03 0.456E+03 -.148E+04   -.268E+03 -.457E+03 0.147E+04   0.105E+01 0.557E+00 0.222E+01   0.136E+00 0.190E+00 0.908E+00
   -.530E+03 -.453E+02 0.163E+04   0.530E+03 0.450E+02 -.163E+04   -.570E+00 0.311E+00 -.750E+00   0.103E+00 0.452E-01 0.205E+00
   -.471E+03 -.488E+02 -.144E+04   0.471E+03 0.494E+02 0.144E+04   -.566E+00 -.688E+00 0.233E+01   0.435E+00 -.199E-01 0.524E+00
   -.426E+03 0.284E+03 -.491E+04   0.427E+03 -.284E+03 0.491E+04   -.119E+01 -.569E+00 -.440E+00   0.661E+00 0.925E-01 0.514E+00
   -.367E+03 0.217E+03 0.519E+04   0.372E+03 -.219E+03 -.519E+04   -.375E+01 0.163E+01 0.405E+01   0.170E-01 -.206E-01 -.175E+00
   -.753E+02 0.122E+03 0.251E+03   0.767E+02 -.124E+03 -.253E+03   -.132E+01 0.214E+01 0.243E+01   -.876E-02 0.142E-01 0.125E+00
   -.122E+03 0.198E+03 -.100E+04   0.124E+03 -.200E+03 0.100E+04   -.408E+00 0.661E+00 -.119E+01   -.366E-01 0.593E-01 0.183E+00
   -.880E+02 -.190E+03 0.229E+04   0.885E+02 0.193E+03 -.229E+04   0.669E+00 -.119E+01 0.410E+01   0.253E-01 0.195E-01 -.116E+00
   0.893E+01 0.255E+03 0.160E+04   -.833E+01 -.259E+03 -.160E+04   -.113E+01 0.164E+01 0.214E+01   0.752E-02 -.883E-02 0.179E-01
   -.391E+01 0.640E+01 -.233E+04   0.418E+01 -.679E+01 0.233E+04   -.132E+00 0.194E+00 -.200E+01   0.154E+00 -.293E+00 -.494E-01
   -.464E+02 -.234E+03 -.157E+04   0.471E+02 0.235E+03 0.157E+04   -.410E+00 0.688E-01 -.166E+01   0.102E+00 0.147E+00 0.211E+00
   -.740E+02 -.153E+03 -.243E+03   0.754E+02 0.156E+03 0.243E+03   -.131E+01 -.276E+01 -.553E+00   -.945E-01 -.107E+00 0.307E+00
   -.688E+02 -.996E+02 0.211E+04   0.686E+02 0.101E+03 -.212E+04   0.735E+00 -.909E+00 0.311E+01   0.197E-01 -.550E-03 -.110E+00
   -.875E+02 -.221E+03 0.913E+03   0.887E+02 0.224E+03 -.912E+03   -.112E+01 -.137E+01 0.168E+01   0.246E-01 0.318E-01 0.717E-01
   0.119E+02 -.120E+03 0.210E+04   -.131E+02 0.122E+03 -.210E+04   0.348E+00 -.191E+01 0.338E+01   -.319E-02 0.221E-01 -.980E-01
   0.186E+03 0.643E+02 0.949E+03   -.188E+03 -.654E+02 -.947E+03   0.194E+01 -.174E+00 0.295E+00   0.331E-02 0.966E-02 0.117E+00
   0.175E+03 0.595E+01 -.230E+03   -.178E+03 -.623E+01 0.230E+03   0.278E+01 0.187E+00 -.143E+00   0.106E+00 0.907E-01 0.286E+00
[...]
   0.169E+03 -.145E+02 -.250E+03   -.172E+03 0.144E+02 0.250E+03   0.288E+01 0.276E+00 -.256E+00   -.128E+00 -.457E-01 0.147E+00
   0.231E+03 -.644E+02 -.157E+04   -.233E+03 0.650E+02 0.157E+04   0.137E+00 0.197E+00 -.161E+01   -.202E+00 -.198E+00 0.227E+00
   -.711E+02 0.115E+03 0.231E+03   0.723E+02 -.117E+03 -.233E+03   -.122E+01 0.197E+01 0.206E+01   0.429E-01 -.694E-01 0.118E+00
   -.123E+03 0.199E+03 -.101E+04   0.124E+03 -.201E+03 0.100E+04   -.310E+00 0.502E+00 -.129E+01   0.607E-01 -.983E-01 0.211E+00
   0.210E+03 -.656E+01 0.229E+04   -.212E+03 0.735E+01 -.229E+04   0.768E+00 -.113E+01 0.410E+01   -.287E-01 -.139E-01 -.116E+00
   -.232E+03 0.106E+03 0.160E+04   0.235E+03 -.109E+03 -.160E+04   -.960E+00 0.175E+01 0.214E+01   0.452E-02 -.107E-01 0.179E-01
   -.397E+01 0.636E+01 -.233E+04   0.420E+01 -.678E+01 0.233E+04   -.115E+00 0.205E+00 -.200E+01   0.193E+00 -.269E+00 -.494E-01
   -.459E+02 -.235E+03 -.157E+04   0.462E+02 0.237E+03 0.157E+04   -.238E+00 -.339E-01 -.161E+01   0.268E+00 0.922E-01 0.227E+00
   -.836E+02 -.153E+03 -.230E+03   0.852E+02 0.156E+03 0.230E+03   -.141E+01 -.240E+01 -.143E+00   -.128E+00 -.538E-01 0.286E+00
   0.397E+02 -.258E+03 0.231E+04   -.402E+02 0.261E+03 -.232E+04   0.131E+00 -.198E+01 0.269E+01   -.156E-01 0.258E-01 -.111E+00
   -.633E+02 -.700E+02 0.889E+03   0.637E+02 0.693E+02 -.888E+03   -.266E+00 0.831E+00 -.373E+00   0.125E-02 0.509E-02 0.858E-01
   0.216E+03 -.975E+02 0.987E+03   -.220E+03 0.973E+02 -.987E+03   0.256E+01 0.376E+00 0.137E+01   0.230E-01 0.816E-02 0.831E-01
   0.170E+03 -.258E+01 -.243E+03   -.173E+03 0.256E+01 0.243E+03   0.306E+01 -.671E-01 -.553E+00   0.138E+00 0.364E-01 0.307E+00
   0.156E+03 0.104E+03 -.160E+04   -.160E+03 -.105E+03 0.160E+04   0.244E+01 0.593E+00 -.203E+01   0.313E+00 0.331E+00 0.367E+00
   -.598E+01 0.968E+01 -.117E+03   -.119E-11 -.189E-11 0.307E-10   0.601E+01 -.973E+01 0.919E+02   -.159E+00 0.257E+00 0.250E+02

 POSITION                                       TOTAL-FORCE (eV/Angst)
      5.35228      4.81788      5.50842        -0.060432      0.112576     -0.049279
      5.93595      3.87238      8.44448        -0.089214      0.089530     -0.994848
      6.06543      3.66262     10.82147         0.448093     -0.714300      0.776029
      2.24633      0.73197      2.57236        -0.726141      1.176295      2.039604
      0.74949      0.53163     10.16199         0.440737     -0.224639      0.950719
      4.76861      3.35453      1.79664         0.222101     -1.704274      1.232025
      5.35228      2.40903      4.73270         0.046887      0.036666      0.167164
      5.93595      1.46353      7.66876         0.156817     -0.001494     -0.044419
      1.87746      3.73836      4.73270         0.075925     -0.141530      0.085452
      2.46113      2.79286      7.66876        -0.003818      0.003440     -0.192985
      3.09624      1.98030     10.16199         0.003303     -0.494673      0.950719
      7.68776      4.45178      2.47905         0.844812     -0.077289      0.246500
     10.98051      4.81788      5.50842        -0.143961      0.233205      0.174825
     11.56418      3.87238      8.44448        -0.022064      0.035741     -0.029775
     12.17941      2.87575     10.97736         0.038996     -0.063171      1.226675
      8.01605      0.63486      2.86709        -1.673952      1.365153      0.563951
      6.46330      0.55295     10.27950        -0.978649      0.079141      0.555909
     10.39684      3.35453      1.79664        -0.059127     -1.279828      2.501611
     10.98051      2.40903      4.73270         0.092496     -0.131300      0.085452
     11.56418      1.46353      7.66876        -0.001364      0.004954     -0.192985
      7.50570      3.73836      4.73270        -0.174504     -0.251708      1.068889
      8.08937      2.79286      7.66876        -0.018567     -0.176123      0.043155
      8.66708      1.91334     10.27950         0.385632      0.912673      0.555304
     12.55026      4.68386      1.79664         1.170612     -0.520695      2.501611
      7.87456      9.84929      5.50842         0.126718     -0.205273     -0.067627
      8.45823      8.90379      8.44448        -0.053658      0.086923      0.119827
      9.07343      7.90721     10.97737         0.035965     -0.058261      1.217421
      4.79202      5.59338      2.86709        -0.470213      2.108236      0.563951
      3.35735      5.58433     10.27950        -0.988713      0.064273      0.555304
      7.33833      8.36717      2.18598        -0.963753     -1.472984     -0.131982
      7.87456      7.44044      4.73270        -0.049081      0.048452      0.131987
      8.45823      6.49494      7.66876         0.021995     -0.085509     -0.240162
      4.39975      8.76977      4.73270        -0.053790     -0.025484      0.167164
      4.98341      7.82427      7.66876        -0.068941     -0.140858     -0.044419
      5.56111      6.94476     10.27950         0.367830      0.910339      0.555909
      9.43983      9.66445      2.18598         1.748692      0.201441     -0.131982
     13.50279      9.84929      5.50842        -0.073556      0.104475     -0.049279
     14.08646      8.90379      8.44448        -0.040055      0.119877     -0.994848
     14.21595      8.69403     10.82147         0.437743     -0.720690      0.776029
     10.39684      5.76338      2.57236        -0.161691      0.261928      2.077560
      8.90005      5.56305     10.16210         0.434788     -0.275444      0.923852
     12.78343      7.59740      2.47905        -0.309508     -0.789865      0.246500
     13.50279      7.44044      4.73270         0.303220      0.043198      1.068889
     14.08646      6.49494      7.66876         0.165767     -0.062331      0.043155
     10.02798      8.76977      4.73270        -0.021319      0.065590      0.131987
     10.61165      7.82427      7.66876         0.066585     -0.057983     -0.240162
     11.24672      7.01168     10.16210         0.051386     -0.512122      0.923852
     15.07254      9.71527      1.79664         1.424017     -0.962316      1.232025
      1.66190      1.67871      5.87212         0.043293     -0.070131      0.139809
      2.24556      0.73321      8.80817         0.938297     -1.519972     -1.615211
      6.02097      4.90228      1.33239         1.138436      1.462334     -3.152862
      6.70646      2.62422      2.93606        -0.522498     -2.234807     -0.047458
      5.04489      5.31584     11.45527         0.296073     -0.488795      2.737653
      2.24556      3.80055      9.79595         0.376100      2.068230     -0.531873
      7.29013      4.74605      6.85989         0.020734     -0.073818     -0.112723
      3.81925      1.54287      1.47891         0.589154      0.480896     -2.382143
      4.18418      0.66015      3.92384         0.093113      1.154989      2.475763
      3.34865      4.83585      1.48802        -0.802621      0.828670     -1.869895
      3.96438      3.99884      3.92384        -0.544544     -1.310084      1.745706
      4.54805      3.05334      6.85989        -0.077245     -0.003493     -0.087960
[...]
      6.48666      9.03025      3.92384        -1.074242      0.434367      2.475763
      7.07033      8.08475      6.85989        -0.063728      0.090532      0.118885
      7.65400      7.13925      9.79595        -2.028297      0.612556     -0.606578
      9.81241      6.71012      5.87212         0.038558     -0.062462      0.250745
     10.39608      5.76462      8.80817         0.897700     -1.454207     -1.587597
     13.12767      9.28933      1.33239        -1.817455     -0.362373     -3.152862
     14.85697      7.65563      2.93606         2.231983     -0.534433     -0.047458
      8.15084      0.28442     11.45527         0.304278     -0.483729      2.737653
     10.39608      8.83196      9.79595         0.361378      2.087731     -0.606578
     15.44064      9.77746      6.85989         0.037739      0.067488     -0.087960
     11.72108      6.45326      1.15830        -0.415369      1.376511     -3.358669
     12.33469      5.69156      3.92384         0.175382      0.074960      0.444917
     12.11489      9.03025      3.92384        -1.267928      0.249594      1.362473
     12.69856      8.08475      6.85989         0.056698     -0.051617     -0.112723
     13.28223      7.13925      9.79595        -0.554422      0.168080     -0.236603
    total drift:                               -0.135538      0.204349      0.022657

  FREE ENERGIE OF THE ION-ELECTRON SYSTEM (eV)
  free  energy   TOTEN  =      -473.52169384 eV

  energy  without entropy=     -472.46380928  energy(sigma->0) =     -472.99275156