 vasp.5.4.4.18Apr17-6-g9f103f2a35 (build Aug 13 2019 17:33:20) gamma-only

 executed on             LinuxIFC date 2020.05.11  19:24:33

 INCAR:
 POTCAR:    PAW_PBE Ni_pv 06Sep2000
 POTCAR:    PAW_PBE S 06Sep2000
 POTCAR:    PAW_PBE Ni_pv 06Sep2000
   VRHFIN =Ni:

   TITEL  = PAW_PBE Ni_pv 06Sep2000
   POMASS =   58.690; ZVAL   =   16.000    mass and valenz
   ENMAX  =  367.986; ENMIN  =  275.989 eV

 POTCAR:    PAW_PBE S 06Sep2000
   VRHFIN =S : s2p4

   TITEL  = PAW_PBE S 06Sep2000
   POMASS =   32.066; ZVAL   =    6.000    mass and valenz
   ENMAX  =  258.689; ENMIN  =  194.016 eV

 Optimization of the real space projectors (new method)

 maximal supplied QI-value         = 18.90
 optimisation between [QCUT,QGAM] = [ 10.77, 21.73] = [ 32.49,132.25] Ry
 Optimized for a Real-space Cutoff    1.38 Angstroem

   l    n(q)    QCUT    max X(q) W(low)/X(q) W(high)/X(q)  e(spline)
   1      8    10.771     2.836    0.40E-04    0.29E-04    0.12E-06
   1      8    10.771     4.023    0.10E-03    0.48E-04    0.29E-06
   2      8    10.771    73.368    0.42E-03    0.97E-04    0.44E-06
   2      8    10.771    69.010    0.42E-03    0.99E-04    0.45E-06
   0      9    10.771    54.797    0.10E-03    0.56E-04    0.74E-07
   0      9    10.771    24.266    0.89E-04    0.49E-04    0.67E-07
 Optimization of the real space projectors (new method)

 maximal supplied QI-value         = 19.84
 optimisation between [QCUT,QGAM] = [ 10.71, 21.63] = [ 32.15,130.99] Ry
 Optimized for a Real-space Cutoff    1.19 Angstroem

   l    n(q)    QCUT    max X(q) W(low)/X(q) W(high)/X(q)  e(spline)
   0      8    10.715   187.594    0.41E-03    0.53E-04    0.66E-07
   0      8    10.715   164.243    0.41E-03    0.53E-04    0.65E-07
   1      7    10.715    67.533    0.19E-03    0.59E-03    0.68E-07
   1      7    10.715    50.729    0.19E-03    0.58E-03    0.67E-07
  PAW_PBE Ni_pv 06Sep2000               :
  PAW_PBE S 06Sep2000                   :

 POSCAR: Type_036 Type_136
  positions in cartesian coordinates
 exchange correlation table for  LEXCH =        8
   RHO(1)=    0.500       N(1)  =     2000
   RHO(2)=  100.500       N(2)  =     4000

 ion  position               nearest neighbor table
   1  0.780  0.145  0.121-  49 2.08  63 2.08  41 2.25  50 2.36  64 2.36
   2  0.802  0.145  0.286-  64 2.04  50 2.04  42 2.07
   3  0.297  0.645  0.216-  52 2.05  61 2.08  44 2.25  14 2.42  34 2.47  28 2.53  15 2.53
   4  0.382  0.092  0.126-  45 2.06  67 2.09  46 2.15  51 2.36  21 2.37   5 2.52
   5  0.470  0.145  0.248-  68 2.05  54 2.07  46 2.25  53 2.26  67 2.26   4 2.52  30 2.53  18 2.53

   6  0.952  0.645  0.152-  66 2.07  56 2.08  47 2.25  55 2.36  65 2.36  31 2.53  19 2.53
   7  0.967  0.645  0.313-  65 2.03  55 2.03  48 2.05
   8  0.125  0.145  0.184-  57 2.08  71 2.09  38 2.25   9 2.33  58 2.36  72 2.36  33 2.53  21 2.53

   9  0.103  0.146  0.326-  37 2.01  58 2.14  72 2.16   8 2.33
  10  0.577  0.647  0.151-  39 2.03  40 2.10  59 2.14  69 2.17  11 2.34
  11  0.642  0.645  0.280-  60 2.02  70 2.05  40 2.17  59 2.26  69 2.26  10 2.34  16 2.48  36 2.53
                            24 2.53
  12  0.910  0.004  0.118-  63 2.06  56 2.10  64 2.10  38 2.19
  13  0.944  0.012  0.272-  37 2.06  38 2.08  55 2.17  64 2.18
  14  0.353  0.650  0.078-  39 2.05  51 2.11  61 2.14   3 2.42  28 2.51
  15  0.425  0.513  0.191-  62 2.07  61 2.11  53 2.25  39 2.26  40 2.48  28 2.53   3 2.53
  16  0.536  0.467  0.293-  54 2.05  40 2.08  62 2.16  70 2.19  30 2.38  11 2.48
  17  0.599  0.922  0.088-  59 2.10  67 2.26  41 2.34  18 2.35  29 2.46
  18  0.597  0.013  0.223-  68 2.04  42 2.11  59 2.25  67 2.26  41 2.26  17 2.35   5 2.53  30 2.53

[...]

  25  0.912  0.283  0.117-  49 2.06  66 2.10  50 2.12  38 2.16  23 2.54
  26  0.944  0.279  0.272-  37 2.06  38 2.09  65 2.17  50 2.18
  27  0.449  0.853  0.051-  67 2.09  39 2.12  51 2.14  28 2.41
  28  0.425  0.777  0.191-  52 2.11  40 2.17  51 2.18  67 2.25  39 2.26  27 2.41  14 2.51  15 2.53
                             3 2.53
  29  0.529  0.147  0.089-  53 2.03  41 2.05  67 2.05  17 2.46
  30  0.597  0.277  0.223-  54 2.09  42 2.14  69 2.25  53 2.26  41 2.26  16 2.38   5 2.53  18 2.53

[...]

  68  0.519  0.990  0.318-  18 2.04   5 2.05  54 2.65  67 2.77
  69  0.657  0.477  0.183-  10 2.17  30 2.25  24 2.26  11 2.26  70 2.45  23 2.54
  70  0.660  0.455  0.334-  11 2.05  16 2.19  24 2.32  69 2.45
  71  0.140  0.968  0.111-   8 2.09  31 2.10  21 2.10  72 2.77
  72  0.174  0.977  0.278-  32 2.08  22 2.11   9 2.16   8 2.36  21 2.36  71 2.77

  LATTYP: Found a simple orthorhombic cell.
 ALAT       =     9.5784100000
 B/A-ratio  =     1.6880763216
 C/A-ratio  =     1.7627867312

  Lattice vectors:

 A1 = (   0.0000000000,   9.5784100000,   0.0000000000)
 A2 = (   0.0000000000,   0.0000000000, -16.1690871197)
 A3 = ( -16.8846940542,   0.0000000000,   0.0000000000)

Analysis of symmetry for initial positions (statically):
 Subroutine PRICEL returns:
 Original cell was already a primitive cell.

 Routine SETGRP: Setting up the symmetry group for a
 simple orthorhombic supercell.

 Subroutine GETGRP returns: Found  1 space group operations
 (whereof  1 operations were pure point group operations)
 out of a pool of  8 trial point group operations.

The static configuration has the point symmetry C_1 .

Analysis of symmetry for dynamics (positions and initial velocities):
 Subroutine PRICEL returns:
 Original cell was already a primitive cell.

 Routine SETGRP: Setting up the symmetry group for a
 simple orthorhombic supercell.

 Subroutine GETGRP returns: Found  1 space group operations
 (whereof  1 operations were pure point group operations)
 out of a pool of  8 trial point group operations.

The dynamic configuration has the point symmetry C_1 .

 Subroutine INISYM returns: Found  1 space group operations
 (whereof  1 operations are pure point group operations),
 and found     1 'primitive' translations

 KPOINTS: gamma-point-only calculation. no periodi

Automatic generation of k-mesh.
Space group operators:
 irot       det(A)        alpha          n_x          n_y          n_z        tau_x        tau_y        tau_z
    1     1.000000     0.000000     1.000000     0.000000     0.000000     0.000000     0.000000     0.000000

 Subroutine IBZKPT returns following result:

 Found      1 irreducible k-points:

 Following reciprocal coordinates:
            Coordinates               Weight
  0.000000  0.000000  0.000000      1.000000

 Following cartesian coordinates:
            Coordinates               Weight
  0.000000  0.000000  0.000000      1.000000

 SYSTEM =  "Millerite NiS"
 POSCAR =  Type_036 Type_136

 Startparameter for this run:
   NWRITE =      2    write-flag & timer
   PREC   = normal    normal or accurate (medium, high low for compatibility)
   ISTART =      0    job   : 0-new  1-cont  2-samecut
   ICHARG =      2    charge: 1-file 2-atom 10-const
   ISPIN  =      1    spin polarized calculation?
   LNONCOLLINEAR =      F non collinear calculations
   LSORBIT =      F    spin-orbit coupling
   INIWAV =      1    electr: 0-lowe 1-rand  2-diag
   LASPH  =      F    aspherical Exc in radial PAW
   METAGGA=      F    non-selfconsistent MetaGGA calc.

 Electronic Relaxation 1
   ENCUT  =  450.0 eV  33.07 Ry    5.75 a.u.  29.20 16.57 27.97*2*pi/ulx,y,z
   ENINI  =  450.0     initial cutoff
   ENAUG  =  703.4 eV  augmentation charge cutoff
   NELM   =    100;   NELMIN=  2; NELMDL= -5     # of ELM steps
   EDIFF  = 0.1E-03   stopping-criterion for ELM
   LREAL  =      T    real-space projection
   NLSPLINE    = F    spline interpolate recip. space projectors
   LCOMPAT=      F    compatible to vasp.4.4
   GGA_COMPAT  = T    GGA compatible to vasp.4.4-vasp.4.6
   LMAXPAW     = -100 max onsite density
   LMAXMIX     =    2 max onsite mixed and CHGCAR
   VOSKOWN=      0    Vosko Wilk Nusair interpolation
   ROPT   =   -0.00050  -0.00050
 Ionic relaxation
   EDIFFG = 0.1E-02   stopping-criterion for IOM
   NSW    =      0    number of steps for IOM
   NBLOCK =      1;   KBLOCK =      1    inner block; outer block
   IBRION =     -1    ionic relax: 0-MD 1-quasi-New 2-CG
   NFREE  =      0    steps in history (QN), initial steepest desc. (CG)
   ISIF   =      2    stress and relaxation
   IWAVPR =     10    prediction:  0-non 1-charg 2-wave 3-comb
   ISYM   =      2    0-nonsym 1-usesym 2-fastsym
   LCORR  =      T    Harris-Foulkes like correction to forces

   POTIM  = 0.5000    time-step for ionic-motion
   TEIN   =    0.0    initial temperature
   TEBEG  =    0.0;   TEEND  =   0.0 temperature during run
   SMASS  =  -3.00    Nose mass-parameter (am)
   estimated Nose-frequenzy (Omega)   =  0.10E-29 period in steps =****** mass=  -0.652E-26a.u.
   SCALEE = 1.0000    scale energy and forces
   NPACO  =    256;   APACO  = 16.0  distance and # of slots for P.C.
   PSTRESS=    0.0 pullay stress

  Mass of Ions in am
   POMASS =  58.69 32.07
  Ionic Valenz
   ZVAL   =  16.00  6.00
  Atomic Wigner-Seitz radii
  virtual crystal weights
   VCA    =   1.00  1.00
   NELECT =     792.0000    total number of electrons
   NUPDOWN=      -1.0000    fix difference up-down

 DOS related values:
   EMIN   =  10.00;   EMAX   =-10.00  energy-range for DOS
   EFERMI =   0.00
   ISMEAR =     0;   SIGMA  =   0.20  broadening in eV -4-tet -1-fermi 0-gaus

 Electronic relaxation 2 (details)
   IALGO  =     38    algorithm
   LDIAG  =      T    sub-space diagonalisation (order eigenvalues)
   LSUBROT=      F    optimize rotation matrix (better conditioning)
   TURBO    =      0    0=normal 1=particle mesh
   IRESTART =      0    0=no restart 2=restart with 2 vectors
   NREBOOT  =      0    no. of reboots
   NMIN     =      0    reboot dimension
   EREF     =   0.00    reference energy to select bands
   IMIX   =      4    mixing-type and parameters
     AMIX     =   0.40;   BMIX     =  1.00
     AMIX_MAG =   1.60;   BMIX_MAG =  1.00
     AMIN     =   0.10
     WC   =   100.;   INIMIX=   1;  MIXPRE=   1;  MAXMIX= -45

 Intra band minimization:
   WEIMIN = 0.0000     energy-eigenvalue tresh-hold
   EBREAK =  0.53E-07  absolut break condition
   DEPER  =   0.30     relativ break condition

   TIME   =   0.40     timestep for ELM

  volume/ion in A,a.u.               =      36.32       245.10
  Fermi-wavevector in a.u.,A,eV,Ry     =   1.099409  2.077581 16.445356  1.208700
  Thomas-Fermi vector in A             =   2.235803

 Write flags
   LWAVE        =      F    write WAVECAR
   LDOWNSAMPLE  =      F    k-point downsampling of WAVECAR
   LCHARG       =      F    write CHGCAR
   LVTOT        =      F    write LOCPOT, total local potential
   LVHAR        =      F    write LOCPOT, Hartree potential only
   LELF         =      F    write electronic localiz. function (ELF)
   LORBIT       =      0    0 simple, 1 ext, 2 COOP (PROOUT), +10 PAW based schemes

 Dipole corrections
   LMONO  =      F    monopole corrections only (constant potential shift)
   LDIPOL =      F    correct potential (dipole corrections)
   IDIPOL =      0    1-x, 2-y, 3-z, 4-all directions
   EPSILON=  1.0000000 bulk dielectric constant

 Exchange correlation treatment:
   GGA     =    --    GGA type
   VOSKOWN=      0    Vosko Wilk Nusair interpolation
[...]
  Fock        0.00000     0.00000     0.00000     0.00000     0.00000     0.00000
  Total     109.62951   125.79230   142.77847     0.87755     2.01217    -0.92443
  in kB      67.16854    77.07127    87.47847     0.53766     1.23283    -0.56638

 VOLUME and BASIS-vectors are now :
  energy-cutoff  :      450.00
  volume of cell :     2615.00
      direct lattice vectors                 reciprocal lattice vectors
    16.884694054  0.000000000  0.000000000     0.059225237  0.000000000  0.000000000
     0.000000000  9.578410000  0.000000000     0.000000000  0.104401461  0.000000000
     0.000000000  0.000000000 16.169087120     0.000000000  0.000000000  0.061846411

  length of vectors
    16.884694054  9.578410000 16.169087120     0.059225237  0.104401461  0.061846411

 FORCES acting on ions
    electron-ion (+dipol)            ewald-force                    non-local-force                 convergence-correction
   0.519E+03 -.220E+03 0.204E+04   -.522E+03 0.220E+03 -.204E+04   0.328E+01 -.456E-01 0.522E+01   -.766E-02 -.956E-02 0.461E-03
   0.329E+03 -.195E+02 -.299E+04   -.332E+03 0.190E+02 0.298E+04   0.279E+01 0.589E+00 0.142E+01   -.108E-03 -.315E-02 -.153E-02
   0.810E+03 -.156E+03 -.861E+03   -.815E+03 0.158E+03 0.865E+03   0.334E+01 -.248E+01 -.427E+01   0.529E-02 0.169E-02 -.142E-01
   0.191E+03 -.466E+03 0.215E+04   -.192E+03 0.470E+03 -.215E+04   0.237E+01 -.408E+01 0.501E+01   0.102E-01 -.197E-03 -.667E-02
   0.533E+03 -.785E+02 -.204E+04   -.538E+03 0.809E+02 0.204E+04   0.364E+01 -.177E+01 -.647E+01   0.909E-02 0.183E-02 -.112E-01
   0.414E+03 -.380E+02 0.139E+04   -.420E+03 0.382E+02 -.139E+04   0.519E+01 -.881E-01 0.399E+01   -.107E-02 0.400E-02 -.133E-02
   0.137E+03 -.649E+01 -.326E+04   -.139E+03 0.619E+01 0.326E+04   0.218E+01 0.318E+00 0.240E+00   -.462E-02 0.244E-02 -.409E-02
   0.346E+03 -.146E+02 0.837E+03   -.350E+03 0.144E+02 -.840E+03   0.409E+01 0.229E+00 0.299E+01   0.231E-03 -.423E-02 -.566E-02
   -.252E+03 -.165E+02 -.340E+04   0.249E+03 0.160E+02 0.340E+04   0.416E+01 0.510E+00 -.230E+01   -.647E-02 -.173E-02 -.136E-02
   -.341E+03 0.383E+03 0.190E+04   0.343E+03 -.383E+03 -.191E+04   -.730E+00 0.519E+00 0.370E+01   0.217E-02 0.118E-02 -.725E-03
   0.630E+02 -.267E+03 -.249E+04   -.617E+02 0.271E+03 0.250E+04   -.138E+01 -.388E+01 -.854E+01   -.530E-02 -.304E-02 -.114E-01
   -.645E+03 0.286E+03 0.243E+04   0.651E+03 -.289E+03 -.244E+04   -.485E+01 0.303E+01 0.535E+01   -.291E-02 -.538E-02 0.244E-02
   -.880E+02 0.517E+03 -.225E+04   0.901E+02 -.520E+03 0.225E+04   -.307E+01 0.240E+01 -.394E+01   -.801E-03 -.397E-03 -.225E-03
   0.770E+03 0.492E+03 0.363E+04   -.774E+03 -.493E+03 -.363E+04   0.347E+01 0.937E+00 0.218E+00   0.531E-02 0.241E-02 -.977E-02
   -.969E+02 0.529E+03 0.313E+03   0.972E+02 -.532E+03 -.314E+03   0.904E+00 0.233E+01 0.228E+00   0.157E-01 -.378E-02 -.102E-01
   0.223E+03 -.175E+02 -.287E+04   -.224E+03 0.174E+02 0.288E+04   0.539E+00 0.973E+00 -.388E+01   0.761E-02 -.507E-02 -.844E-02
   -.468E+03 0.343E+03 0.327E+04   0.467E+03 -.342E+03 -.327E+04   0.516E+00 -.124E+01 0.183E+01   -.305E-02 0.169E-02 0.267E-02
   -.375E+03 0.300E+03 -.143E+04   0.379E+03 -.305E+03 0.144E+04   -.326E+01 0.450E+01 -.678E+01   -.471E-02 0.177E-02 -.851E-02
   -.399E+03 0.433E+03 0.212E+04   0.401E+03 -.437E+03 -.213E+04   -.254E+01 0.309E+01 0.507E+01   -.268E-02 0.641E-03 -.411E-02
   -.293E+03 0.119E+03 -.270E+04   0.294E+03 -.120E+03 0.270E+04   -.612E+00 0.151E+01 0.436E+00   -.593E-02 -.329E-02 -.445E-02
   0.468E+03 0.405E+03 0.125E+04   -.472E+03 -.408E+03 -.125E+04   0.292E+01 0.292E+01 0.192E+01   0.218E-02 0.280E-02 -.155E-01
   -.440E+02 0.643E+02 -.311E+04   0.460E+02 -.671E+02 0.311E+04   -.289E+01 0.354E+01 -.302E+00   0.225E-02 0.678E-02 -.685E-02
   0.427E+03 -.454E+03 0.261E+04   -.429E+03 0.457E+03 -.262E+04   0.106E+01 -.221E+01 0.774E+01   -.455E-02 0.404E-02 0.130E-02
   -.210E+03 0.348E+03 -.176E+04   0.212E+03 -.350E+03 0.177E+04   -.336E+01 0.163E+01 -.448E+01   -.859E-02 0.309E-02 -.558E-03
   -.670E+03 -.187E+03 0.244E+04   0.676E+03 0.189E+03 -.245E+04   -.542E+01 -.239E+01 0.503E+01   0.325E-02 -.214E-02 0.172E-02
   -.854E+02 -.506E+03 -.226E+04   0.871E+02 0.510E+03 0.227E+04   -.266E+01 -.267E+01 -.398E+01   0.954E-03 -.368E-02 0.136E-02
   0.443E+01 -.409E+02 0.403E+04   -.893E+00 0.401E+02 -.403E+04   -.334E+01 0.124E+01 0.140E+01   0.436E-02 0.479E-02 0.197E-02
   -.581E+02 -.251E+03 -.648E+03   0.558E+02 0.253E+03 0.654E+03   0.285E+01 -.157E+01 -.469E+01   0.140E-01 0.461E-02 -.138E-01
   -.264E+02 -.800E+03 0.342E+04   0.264E+02 0.803E+03 -.342E+04   -.479E+00 -.274E+01 0.552E+01   -.230E-02 -.264E-02 0.453E-02
   -.501E+03 -.278E+03 -.521E+03   0.504E+03 0.280E+03 0.518E+03   -.192E+01 -.189E+01 0.804E+00   -.696E-02 -.205E-03 -.460E-02
   -.391E+03 -.428E+03 0.211E+04   0.394E+03 0.432E+03 -.211E+04   -.273E+01 -.319E+01 0.473E+01   -.152E-02 0.446E-02 -.241E-02
   -.316E+03 -.116E+03 -.270E+04   0.317E+03 0.117E+03 0.270E+04   -.107E+01 -.664E+00 0.553E+00   -.679E-02 0.658E-02 -.597E-02
   0.116E+03 -.368E+03 0.139E+04   -.117E+03 0.368E+03 -.139E+04   0.106E+01 -.327E+00 0.397E+01   0.297E-02 -.803E-02 -.113E-01
   0.193E+03 0.133E+03 -.260E+04   -.194E+03 -.133E+03 0.260E+04   0.534E+00 -.928E+00 -.103E+01   0.622E-02 -.703E-02 -.492E-02
   0.109E+02 0.538E+03 0.242E+04   -.125E+02 -.540E+03 -.243E+04   0.127E+01 0.515E+00 0.720E+01   -.645E-02 -.304E-02 0.847E-03
   -.312E+03 -.296E+03 -.175E+04   0.314E+03 0.299E+03 0.175E+04   -.179E+01 -.299E+01 -.573E+01   -.412E-02 0.373E-02 -.113E-01
   0.585E+02 0.670E+00 -.163E+04   -.578E+02 -.662E+00 0.163E+04   -.121E+01 -.290E-01 -.164E+01   -.911E-03 -.686E-03 -.294E-02
   -.308E+03 0.756E+01 0.382E+03   0.309E+03 -.744E+01 -.385E+03   0.655E+00 -.134E+00 0.127E+01   -.435E-03 -.129E-02 0.157E-02
   -.220E+03 0.354E+03 0.132E+04   0.223E+03 -.357E+03 -.133E+04   -.194E+01 0.271E+01 0.233E+01   0.159E-02 0.109E-02 0.682E-03
   0.121E+03 -.243E+03 -.100E+04   -.123E+03 0.246E+03 0.101E+04   0.932E+00 -.192E+01 -.424E+01   0.420E-02 -.643E-03 -.397E-02
   -.223E+03 -.248E+03 0.939E+03   0.225E+03 0.251E+03 -.942E+03   -.112E+01 -.259E+01 0.104E+01   -.581E-02 -.151E-02 0.594E-03
   -.786E+02 0.146E+02 -.112E+04   0.800E+02 -.145E+02 0.113E+04   -.883E+00 -.173E+00 -.201E+01   -.420E-02 0.390E-03 -.273E-02
   -.191E+03 0.533E+01 0.161E+04   0.193E+03 -.531E+01 -.162E+04   -.998E-01 -.935E-02 0.854E+00   -.235E-03 0.110E-02 0.695E-03
   -.229E+03 -.147E+02 -.397E+02   0.230E+03 0.148E+02 0.408E+02   0.888E+00 0.228E+00 -.195E+01   -.271E-02 0.162E-02 -.425E-02
   0.155E+03 -.133E+03 0.162E+04   -.156E+03 0.133E+03 -.163E+04   0.938E+00 -.165E-01 0.184E+01   0.318E-02 -.211E-02 0.110E-02
   0.128E+02 -.158E+03 -.821E+03   -.120E+02 0.159E+03 0.826E+03   -.516E+00 -.453E+00 -.437E+01   0.526E-02 0.868E-03 -.578E-02
   -.370E+02 -.767E+02 0.705E+03   0.374E+02 0.774E+02 -.710E+03   -.935E-01 0.413E+00 0.319E+01   -.150E-02 0.456E-02 -.697E-03
   -.694E+02 0.562E+01 -.133E+04   0.712E+02 -.652E+01 0.133E+04   -.104E+01 0.879E+00 -.199E+01   0.201E-03 0.128E-02 -.178E-02
   0.726E+02 -.940E+02 0.171E+04   -.725E+02 0.954E+02 -.172E+04   -.556E+00 -.863E+00 0.245E+01   -.392E-03 -.894E-03 -.105E-02
   0.910E+02 -.141E+03 -.359E+03   -.913E+02 0.142E+03 0.363E+03   -.193E+00 0.997E+00 -.167E+01   0.540E-03 -.636E-03 0.132E-02
   0.419E+03 -.289E+02 0.959E+03   -.422E+03 0.269E+02 -.961E+03   0.144E+01 0.166E+01 0.738E+00   0.263E-02 0.192E-02 -.413E-02
   -.420E+02 0.414E+02 -.140E+04   0.419E+02 -.416E+02 0.140E+04   0.217E+00 0.473E+00 -.167E+01   0.546E-02 -.605E-03 -.189E-03
   0.112E+03 -.261E+03 0.704E+03   -.113E+03 0.262E+03 -.706E+03   -.608E-03 -.365E+00 0.221E+01   0.291E-02 -.347E-02 -.545E-03
   0.481E+02 0.117E+03 -.160E+04   -.475E+02 -.118E+03 0.161E+04   -.152E+01 -.368E+00 -.399E+01   0.106E-02 -.357E-03 -.421E-02
   0.636E+02 -.150E+03 -.470E+03   -.640E+02 0.152E+03 0.472E+03   -.490E+00 -.505E+00 -.153E+01   -.211E-02 0.171E-02 -.189E-02
   0.199E+02 -.548E+02 0.134E+04   -.225E+02 0.546E+02 -.134E+04   0.186E+01 0.961E+00 0.394E+01   -.117E-03 -.654E-04 0.111E-02
   0.660E+02 -.351E+02 0.113E+04   -.674E+02 0.338E+02 -.114E+04   0.721E+00 0.157E+01 0.449E+01   0.237E-04 -.664E-03 -.115E-02
   -.891E+02 -.446E+02 -.905E+03   0.879E+02 0.458E+02 0.909E+03   0.181E+01 -.167E+01 -.245E+01   -.190E-02 -.303E-02 -.163E-02
   -.667E+02 0.516E+02 0.101E+03   0.663E+02 -.494E+02 -.101E+03   0.436E+00 -.117E+01 0.138E+00   -.114E-02 0.162E-03 -.350E-02
   0.313E+02 -.225E+03 -.162E+04   -.320E+02 0.228E+03 0.163E+04   0.637E+00 -.164E+01 -.106E+01   -.178E-02 -.145E-03 -.256E-02
   0.197E+03 0.166E+03 0.883E+03   -.198E+03 -.166E+03 -.887E+03   0.398E+00 -.194E+00 0.235E+01   0.336E-02 -.638E-03 -.679E-02
   0.882E+02 0.299E+02 -.144E+04   -.912E+02 -.285E+02 0.144E+04   0.258E+01 -.145E+01 -.230E+01   0.708E-02 -.151E-02 -.945E-03
   -.375E+02 0.106E+03 0.172E+04   0.376E+02 -.108E+03 -.172E+04   -.361E+00 0.614E+00 0.254E+01   -.247E-02 -.361E-02 0.248E-02
   0.233E+02 0.166E+03 -.369E+03   -.228E+02 -.167E+03 0.372E+03   -.110E+01 -.509E+00 -.197E+01   -.970E-03 -.300E-02 -.192E-02
   0.560E+02 0.147E+03 -.476E+03   -.563E+02 -.150E+03 0.478E+03   -.589E+00 0.105E+01 -.130E+01   -.253E-02 -.663E-03 -.144E-02
   -.107E+02 0.471E+02 0.134E+04   0.832E+01 -.466E+02 -.135E+04   0.214E+01 -.111E+01 0.383E+01   0.605E-03 0.103E-02 0.286E-03
   0.395E+02 0.814E+02 0.250E+03   -.404E+02 -.838E+02 -.248E+03   0.194E+01 0.665E+00 -.177E+01   0.180E-02 0.338E-02 -.320E-02
   0.703E+02 0.225E+03 -.151E+04   -.709E+02 -.229E+03 0.151E+04   0.380E+00 0.157E+01 -.108E+01   0.150E-02 0.180E-02 -.349E-02
   -.573E+02 0.139E+03 0.491E+03   0.569E+02 -.141E+03 -.497E+03   0.134E+01 0.119E+01 0.372E+01   -.532E-02 0.912E-03 0.229E-03
   -.161E+03 0.227E+03 -.147E+04   0.162E+03 -.230E+03 0.148E+04   -.119E+00 0.247E+01 -.372E+01   -.310E-02 -.579E-03 -.254E-02
   0.898E+02 0.350E+02 0.112E+04   -.909E+02 -.338E+02 -.113E+04   0.456E+00 -.144E+01 0.451E+01   0.703E-03 -.653E-03 -.533E-03
   -.111E+02 0.758E+02 -.879E+03   0.101E+02 -.780E+02 0.882E+03   0.905E+00 0.259E+01 -.146E+01   -.370E-02 0.170E-02 -.311E-02
   -.130E+02 0.911E+00 -.173E+02   -.266E-12 -.122E-11 -.603E-11   0.130E+02 -.936E+00 0.174E+02   0.607E-02 -.113E-01 -.221E+00

 POSITION                                       TOTAL-FORCE (eV/Angst)
     13.17084      1.39171      1.94975         0.069638      0.264006      0.931471
     13.53549      1.39001      4.63170         0.094219      0.060278      0.789184
      5.02033      6.18092      3.49202        -1.539066     -0.243386     -0.251745
      6.44452      0.87692      2.03167         1.343965      0.440598     -0.787718
      7.93172      1.39171      4.00611        -1.277991      0.681123     -1.167367
     16.08224      6.18092      2.46384        -0.503898      0.107326      2.137385
     16.32017      6.18052      5.06741         0.263311      0.021287      0.759911
      2.10894      1.39171      2.97793        -0.437442      0.011838      0.592435
      1.74613      1.40160      5.27574         1.776654     -0.007782      0.751977
      9.74409      6.19850      2.44936         0.981415     -0.059314     -1.102888
     10.84312      6.18092      4.52020        -0.059793      0.763865     -0.676517
     15.37036      0.04201      1.90047         0.987926      0.629048     -0.071313
     15.94667      0.11744      4.39590        -0.952482     -0.736863     -0.161542
      5.95846      6.22750      1.25692        -0.839414     -0.232109     -1.164691
      7.17375      4.91558      3.08454         1.148214     -0.217621     -0.509164
      9.05824      4.47310      4.73441        -0.324717      0.903639      0.159381
     10.11399      8.82908      1.41554        -0.032113     -0.179665     -1.056311
     10.08514      0.12638      3.59863         1.067642     -0.049954     -0.466203
      1.35096      4.91558      2.05636         0.166964     -0.877320      2.250494
      1.92835      4.79474      4.67869         0.157597      0.609075      1.364729
      4.26235      0.12638      2.57045        -0.904694     -0.492438      0.531240
      5.01662      9.12020      4.71843        -0.967162      0.758296      1.047921
     13.35239      4.21473      1.86092        -1.494071      0.581238      0.276544
     12.99653      4.91558      4.11272        -0.984822     -0.549142     -0.666761
     15.39451      2.70797      1.89794         0.914114     -0.588475     -0.065032
     15.94489      2.66823      4.39571        -1.037709      0.626710     -0.152109
      7.58102      8.17483      0.82738         0.205960      0.382629     -1.087021
      7.17375      7.44626      3.08454         0.573308     -0.049863      0.567148
      8.92820      1.40907      1.43978        -0.489612     -0.034582     -1.818411
     10.08514      2.65705      3.59863         0.921932     -0.031639     -1.845713
      1.35096      7.44626      2.05636         0.371466      0.854596      2.264918
      1.91706      7.55721      4.68476         0.001795     -0.462668      1.442298
      4.26235      2.65705      2.57045        -0.358570     -0.190852      0.685714
      5.06831      3.87981      4.37853        -0.584739     -0.981032      0.844823
     12.84815      8.42875      1.91609        -0.364428     -1.409846      0.210892
     12.99653      7.44626      4.11272         0.906356      0.036247     -1.890724
     16.69571      1.39308      5.83213        -0.428247     -0.020801      3.444712
     16.74052      1.39171      2.94940         1.875532     -0.012374     -2.096322
      8.00634      6.18092      1.40713         0.695949     -0.728066     -3.251502
      8.70582      6.46521      4.26055        -0.863046      1.671868      1.730900
     10.91773      1.39171      1.92122         1.166719     -0.474636     -1.428433
     11.47056      1.36217      4.59927         0.484106     -0.147867      2.755467
      1.74591      6.17956      0.55990         1.423012      0.020326     -3.950774
      2.76722      6.18092      3.46349         2.602067      0.298789     -0.881480
      4.73989      1.41013      1.00871        -0.030700      0.538684     -3.579870
      5.67861      1.39171      3.97758         0.281058      0.707047      1.374664
     13.82913      6.18092      2.43531         0.315397      1.175037     -1.235482
     14.27040      6.14367      5.17805         0.726229     -0.012240      2.781796
     13.83733      2.76921      0.54398        -0.465479      0.511125     -4.026983
     13.99844      3.00295      3.46826        -0.512785      1.300477      1.885247
      5.65021      8.25311      1.75121        -1.655953     -0.404045     -0.958390
      5.99963      7.37263      4.83546         0.162351      0.267311      2.743689
      8.17565      3.00295      2.44008        -0.883333      1.254013     -0.218351
      8.98762      2.52760      5.37518        -0.915141     -1.194939      3.342753
      0.02514      7.79215      3.98236        -0.871416      1.361730      0.492592
     16.34502      7.87109      1.28473        -0.699986      0.723577     -2.846552
      2.35471      3.09176      1.79637        -0.660066      0.223771     -2.952250
      2.93654      3.00295      4.49645         0.623185     -0.430193      1.343916
     11.08705      7.79215      2.95417         0.040095      0.958681     -0.459199
     11.83703      7.41982      5.76389        -0.050196      1.384006      3.848811
      5.25979      4.49377      2.29490        -0.776859     -0.035813     -1.848350
      6.92194      4.36699      5.06005        -0.383831      0.010494      3.159226
     13.81319      9.56881      0.55163        -0.249792     -0.691997     -3.797352
     13.99844      9.35889      3.46826        -0.593361     -1.449837      1.685828
      0.02514      4.56969      3.98236        -0.915340     -1.356328      0.654150
     16.31892      4.49038      1.28726        -0.246914     -0.638353     -2.861078
      8.17565      9.35889      2.44008         0.966507     -1.733363      0.107184
      8.76899      9.47885      5.13904        -0.277548     -1.647796      3.240240
     11.08705      4.56969      2.95417         0.946213     -0.783160     -2.198640
     11.14301      4.35652      5.39833         1.071114     -1.148480      2.753331
      2.36035      9.26768      1.79269        -0.578702     -0.265901     -2.821779
      2.93654      9.35889      4.49645        -0.120589      0.432006      1.401042
    total drift:                                0.000373     -0.036748     -0.084948

  FREE ENERGIE OF THE ION-ELECTRON SYSTEM (eV)
  free  energy   TOTEN  =      -339.44249086 eV

  energy  without entropy=     -338.38278252  energy(sigma->0) =     -338.91263669