 vasp.5.4.4.18Apr17-6-g9f103f2a35 (build Aug 13 2019 17:33:20) gamma-only

 executed on             LinuxIFC date 2020.05.11  20:20:57

 INCAR:
 POTCAR:    PAW_PBE Ni_pv 06Sep2000
 POTCAR:    PAW_PBE S 06Sep2000
 POTCAR:    PAW_PBE Ni_pv 06Sep2000
   VRHFIN =Ni:

   TITEL  = PAW_PBE Ni_pv 06Sep2000
   POMASS =   58.690; ZVAL   =   16.000    mass and valenz
   ENMAX  =  367.986; ENMIN  =  275.989 eV

 POTCAR:    PAW_PBE S 06Sep2000
   VRHFIN =S : s2p4

   TITEL  = PAW_PBE S 06Sep2000
   POMASS =   32.066; ZVAL   =    6.000    mass and valenz
   ENMAX  =  258.689; ENMIN  =  194.016 eV

 Optimization of the real space projectors (new method)

 maximal supplied QI-value         = 18.90
 optimisation between [QCUT,QGAM] = [ 10.77, 21.73] = [ 32.49,132.25] Ry
 Optimized for a Real-space Cutoff    1.38 Angstroem

   l    n(q)    QCUT    max X(q) W(low)/X(q) W(high)/X(q)  e(spline)
   1      8    10.771     2.836    0.40E-04    0.29E-04    0.12E-06
   1      8    10.771     4.023    0.10E-03    0.48E-04    0.29E-06
   2      8    10.771    73.368    0.42E-03    0.97E-04    0.44E-06
   2      8    10.771    69.010    0.42E-03    0.99E-04    0.45E-06
   0      9    10.771    54.797    0.10E-03    0.56E-04    0.74E-07
   0      9    10.771    24.266    0.89E-04    0.49E-04    0.67E-07
 Optimization of the real space projectors (new method)

 maximal supplied QI-value         = 19.84
 optimisation between [QCUT,QGAM] = [ 10.71, 21.63] = [ 32.15,130.99] Ry
 Optimized for a Real-space Cutoff    1.19 Angstroem

   l    n(q)    QCUT    max X(q) W(low)/X(q) W(high)/X(q)  e(spline)
   0      8    10.715   187.594    0.41E-03    0.53E-04    0.66E-07
   0      8    10.715   164.243    0.41E-03    0.53E-04    0.65E-07
   1      7    10.715    67.533    0.19E-03    0.59E-03    0.68E-07
   1      7    10.715    50.729    0.19E-03    0.58E-03    0.67E-07
  PAW_PBE Ni_pv 06Sep2000               :
  PAW_PBE S 06Sep2000                   :

 POSCAR: Type_036 Type_136
  positions in cartesian coordinates
 exchange correlation table for  LEXCH =        8
   RHO(1)=    0.500       N(1)  =     2000
   RHO(2)=  100.500       N(2)  =     4000

 ion  position               nearest neighbor table
   1  0.763  0.145  0.175-  63 2.09  49 2.09  42 2.12  41 2.17  50 2.22  64 2.22
   2  0.824  0.145  0.320-  64 2.04  50 2.04  37 2.16  42 2.40  13 2.54  25 2.54
   3  0.226  0.645  0.093-  43 2.01  61 2.21  51 2.21  44 2.22   4 2.33
   4  0.297  0.645  0.216-  52 2.14  62 2.14  44 2.25  51 2.26  61 2.26   3 2.33  27 2.53  15 2.53

   5  0.395  0.145  0.125-  45 2.03  46 2.19  67 2.25  53 2.25   6 2.35
   6  0.470  0.145  0.248-  68 2.10  54 2.10  46 2.25  53 2.26  67 2.26   5 2.35  30 2.53  18 2.53

[...]

  42  0.687  0.145  0.280-   1 2.12  18 2.18  30 2.18   2 2.40  41 2.69
  43  0.120  0.645  0.035-   3 2.01  31 2.07  19 2.07
  44  0.164  0.645  0.214-  32 2.05  20 2.05   3 2.22   4 2.25  31 2.36  19 2.36
  45  0.289  0.145  0.066-   5 2.03  33 2.06  21 2.06
  46  0.336  0.145  0.246-  22 2.05  34 2.05   5 2.19   6 2.25  33 2.36  21 2.36
  47  0.819  0.645  0.151-  35 2.04  23 2.04   7 2.25  36 2.26  24 2.26  48 2.77
  48  0.848  0.645  0.319-   8 2.05  24 2.11  36 2.11  47 2.77
  49  0.782  0.299  0.086-  23 2.00   1 2.09  50 2.65  41 2.77
  50  0.823  0.315  0.244-   2 2.04  25 2.08  24 2.11   1 2.22  49 2.65
  51  0.312  0.814  0.119-  26 1.99   3 2.21  21 2.25   4 2.26  27 2.26
  52  0.352  0.791  0.298-  22 2.03  28 2.05   4 2.14  27 2.14  62 2.79
  53  0.484  0.314  0.151-  29 2.00   5 2.25  15 2.25  30 2.26   6 2.26
  54  0.529  0.284  0.328-  16 2.00  30 2.06   6 2.10  68 2.66
  55  0.001  0.814  0.246-  32 2.02   8 2.03  13 2.12   7 2.36  31 2.36
  56  0.975  0.794  0.068-   7 2.01  31 2.01
  57  0.140  0.323  0.110-   9 2.09  33 2.09  19 2.11  58 2.77
  58  0.174  0.314  0.278-  34 2.04  20 2.07   9 2.36  33 2.36  10 2.62  57 2.77
  59  0.657  0.814  0.183-  35 2.04  11 2.18  18 2.25  36 2.26  12 2.26
  60  0.695  0.791  0.352-  36 2.02  12 2.03  70 2.78
  61  0.312  0.477  0.119-  14 1.99   3 2.21  33 2.25   4 2.26  15 2.26
  62  0.352  0.500  0.298-  34 2.03  16 2.05   4 2.14  15 2.14  52 2.79
  63  0.782  0.992  0.086-  35 2.00   1 2.09  64 2.65  41 2.77
  64  0.823  0.976  0.244-   2 2.04  13 2.08  36 2.11   1 2.22  63 2.65
  65  0.001  0.477  0.246-  20 2.02   8 2.03  25 2.12   7 2.36  19 2.36
  66  0.975  0.496  0.068-   7 2.01  19 2.01
  67  0.484  0.977  0.151-  17 2.00   5 2.25  27 2.25  18 2.26   6 2.26
  68  0.529  0.006  0.328-  28 2.00  18 2.06   6 2.10  54 2.66
  69  0.657  0.477  0.183-  23 2.04  11 2.18  30 2.25  24 2.26  12 2.26
  70  0.695  0.500  0.352-  24 2.02  12 2.03  60 2.78
  71  0.140  0.968  0.110-   9 2.09  21 2.09  31 2.11  72 2.77
  72  0.174  0.977  0.278-  22 2.04  32 2.07   9 2.36  21 2.36  10 2.62  71 2.77

  LATTYP: Found a simple orthorhombic cell.
 ALAT       =     9.5784100000
 B/A-ratio  =     1.6880763216
 C/A-ratio  =     1.7627867312

  Lattice vectors:

 A1 = (   0.0000000000,   9.5784100000,   0.0000000000)
 A2 = (   0.0000000000,   0.0000000000, -16.1690871197)
 A3 = ( -16.8846940542,   0.0000000000,   0.0000000000)

Analysis of symmetry for initial positions (statically):
 Subroutine PRICEL returns:
 Original cell was already a primitive cell.

 Routine SETGRP: Setting up the symmetry group for a
 simple orthorhombic supercell.

 Subroutine GETGRP returns: Found  2 space group operations
 (whereof  1 operations were pure point group operations)
 out of a pool of  8 trial point group operations.

The static configuration has the point symmetry C_1 .
 The point group associated with its full space group is C_1h.

Analysis of symmetry for dynamics (positions and initial velocities):
 Subroutine PRICEL returns:
 Original cell was already a primitive cell.

 Routine SETGRP: Setting up the symmetry group for a
 simple orthorhombic supercell.

 Subroutine GETGRP returns: Found  2 space group operations
 (whereof  1 operations were pure point group operations)
 out of a pool of  8 trial point group operations.

The dynamic configuration has the point symmetry C_1 .
 The point group associated with its full space group is C_1h.

 Subroutine INISYM returns: Found  2 space group operations
 (whereof  1 operations are pure point group operations),
 and found     1 'primitive' translations

 KPOINTS: gamma-point-only calculation. no periodi

Automatic generation of k-mesh.
Space group operators:
 irot       det(A)        alpha          n_x          n_y          n_z        tau_x        tau_y        tau_z
    1     1.000000     0.000000     1.000000     0.000000     0.000000     0.000000     0.000000     0.000000
    2    -1.000000   180.000000     0.000000     1.000000     0.000000     0.000000     0.290594     0.000000

 Subroutine IBZKPT returns following result:

 Found      1 irreducible k-points:

 Following reciprocal coordinates:
            Coordinates               Weight
  0.000000  0.000000  0.000000      1.000000

 Following cartesian coordinates:
            Coordinates               Weight
  0.000000  0.000000  0.000000      1.000000

 SYSTEM =  "Millerite NiS"
 POSCAR =  Type_036 Type_136

 Startparameter for this run:
   NWRITE =      2    write-flag & timer
   PREC   = normal    normal or accurate (medium, high low for compatibility)
   ISTART =      0    job   : 0-new  1-cont  2-samecut
   ICHARG =      2    charge: 1-file 2-atom 10-const
   ISPIN  =      1    spin polarized calculation?
   LNONCOLLINEAR =      F non collinear calculations
   LSORBIT =      F    spin-orbit coupling
   INIWAV =      1    electr: 0-lowe 1-rand  2-diag
   LASPH  =      F    aspherical Exc in radial PAW
   METAGGA=      F    non-selfconsistent MetaGGA calc.

 Electronic Relaxation 1
   ENCUT  =  450.0 eV  33.07 Ry    5.75 a.u.  29.20 16.57 27.97*2*pi/ulx,y,z
   ENINI  =  450.0     initial cutoff
   ENAUG  =  703.4 eV  augmentation charge cutoff
   NELM   =    100;   NELMIN=  2; NELMDL= -5     # of ELM steps
   EDIFF  = 0.1E-03   stopping-criterion for ELM
   LREAL  =      T    real-space projection
   NLSPLINE    = F    spline interpolate recip. space projectors
   LCOMPAT=      F    compatible to vasp.4.4
   GGA_COMPAT  = T    GGA compatible to vasp.4.4-vasp.4.6
   LMAXPAW     = -100 max onsite density
   LMAXMIX     =    2 max onsite mixed and CHGCAR
   VOSKOWN=      0    Vosko Wilk Nusair interpolation
   ROPT   =   -0.00050  -0.00050
 Ionic relaxation
   EDIFFG = 0.1E-02   stopping-criterion for IOM
   NSW    =      0    number of steps for IOM
   NBLOCK =      1;   KBLOCK =      1    inner block; outer block
   IBRION =     -1    ionic relax: 0-MD 1-quasi-New 2-CG
   NFREE  =      0    steps in history (QN), initial steepest desc. (CG)
   ISIF   =      2    stress and relaxation
   IWAVPR =     10    prediction:  0-non 1-charg 2-wave 3-comb
   ISYM   =      2    0-nonsym 1-usesym 2-fastsym
   LCORR  =      T    Harris-Foulkes like correction to forces

   POTIM  = 0.5000    time-step for ionic-motion
   TEIN   =    0.0    initial temperature
   TEBEG  =    0.0;   TEEND  =   0.0 temperature during run
   SMASS  =  -3.00    Nose mass-parameter (am)
   estimated Nose-frequenzy (Omega)   =  0.10E-29 period in steps =****** mass=  -0.652E-26a.u.
   SCALEE = 1.0000    scale energy and forces
   NPACO  =    256;   APACO  = 16.0  distance and # of slots for P.C.
   PSTRESS=    0.0 pullay stress

  Mass of Ions in am
   POMASS =  58.69 32.07
  Ionic Valenz
   ZVAL   =  16.00  6.00
  Atomic Wigner-Seitz radii
  virtual crystal weights
   VCA    =   1.00  1.00
   NELECT =     792.0000    total number of electrons
   NUPDOWN=      -1.0000    fix difference up-down

 DOS related values:
   EMIN   =  10.00;   EMAX   =-10.00  energy-range for DOS
   EFERMI =   0.00
   ISMEAR =     0;   SIGMA  =   0.20  broadening in eV -4-tet -1-fermi 0-gaus

 Electronic relaxation 2 (details)
   IALGO  =     38    algorithm
   LDIAG  =      T    sub-space diagonalisation (order eigenvalues)
   LSUBROT=      F    optimize rotation matrix (better conditioning)
   TURBO    =      0    0=normal 1=particle mesh
   IRESTART =      0    0=no restart 2=restart with 2 vectors
   NREBOOT  =      0    no. of reboots
   NMIN     =      0    reboot dimension
   EREF     =   0.00    reference energy to select bands
   IMIX   =      4    mixing-type and parameters
     AMIX     =   0.40;   BMIX     =  1.00
     AMIX_MAG =   1.60;   BMIX_MAG =  1.00
     AMIN     =   0.10
     WC   =   100.;   INIMIX=   1;  MIXPRE=   1;  MAXMIX= -45

 Intra band minimization:
   WEIMIN = 0.0000     energy-eigenvalue tresh-hold
   EBREAK =  0.53E-07  absolut break condition
   DEPER  =   0.30     relativ break condition

   TIME   =   0.40     timestep for ELM

  volume/ion in A,a.u.               =      36.32       245.10
  Fermi-wavevector in a.u.,A,eV,Ry     =   1.099409  2.077581 16.445356  1.208700
  Thomas-Fermi vector in A             =   2.235803

 Write flags
   LWAVE        =      F    write WAVECAR
   LDOWNSAMPLE  =      F    k-point downsampling of WAVECAR
   LCHARG       =      F    write CHGCAR
   LVTOT        =      F    write LOCPOT, total local potential
   LVHAR        =      F    write LOCPOT, Hartree potential only
[...]
  Fock        0.00000     0.00000     0.00000     0.00000     0.00000     0.00000
  Total     122.12321   120.35650   129.14195     0.00000     0.00000    -0.76616
  in kB      74.82327    73.74083    79.12356     0.00000     0.00000    -0.46941

 VOLUME and BASIS-vectors are now :
  energy-cutoff  :      450.00
  volume of cell :     2615.00
      direct lattice vectors                 reciprocal lattice vectors
    16.884694054  0.000000000  0.000000000     0.059225237  0.000000000  0.000000000
     0.000000000  9.578410000  0.000000000     0.000000000  0.104401461  0.000000000
     0.000000000  0.000000000 16.169087120     0.000000000  0.000000000  0.061846411

  length of vectors
    16.884694054  9.578410000 16.169087120     0.059225237  0.104401461  0.061846411

 FORCES acting on ions
    electron-ion (+dipol)            ewald-force                    non-local-force                 convergence-correction
   -.659E+03 -.960E-03 0.116E+04   0.660E+03 -.657E-06 -.116E+04   0.410E+00 0.000E+00 0.205E+01   -.145E-01 -.261E-07 -.118E-01
   0.380E+03 -.772E-03 -.299E+04   -.382E+03 -.343E-07 0.299E+04   0.732E+00 0.000E+00 -.357E+01   0.240E-02 -.210E-06 0.229E-02
   0.427E+03 -.876E-03 0.292E+04   -.427E+03 0.265E-07 -.293E+04   0.148E+01 0.000E+00 0.626E+01   0.330E-01 -.867E-07 -.187E-01
   0.665E+03 -.815E-03 -.106E+04   -.666E+03 -.152E-06 0.106E+04   0.177E+01 0.000E+00 -.234E+01   0.199E-01 -.114E-06 -.269E-01
   0.797E+02 -.618E-03 0.236E+04   -.803E+02 0.143E-05 -.237E+04   0.143E+01 0.000E+00 0.643E+01   0.281E-01 0.188E-09 -.285E-01
   0.199E+03 -.874E-03 -.174E+04   -.201E+03 0.111E-06 0.175E+04   0.178E+01 0.000E+00 -.472E+01   -.132E-01 0.142E-07 -.448E-01
   0.763E+03 -.886E-03 0.148E+04   -.767E+03 0.137E-07 -.148E+04   0.373E+01 0.000E+00 0.416E+01   0.124E-02 -.779E-08 -.208E-02
   0.291E+03 -.715E-03 -.301E+04   -.293E+03 -.335E-07 0.301E+04   0.212E+01 0.000E+00 0.803E+00   0.120E-01 0.127E-06 0.957E-02
   0.783E+03 -.833E-03 0.960E+03   -.785E+03 0.983E-07 -.963E+03   0.229E+01 0.000E+00 0.367E+01   -.274E-02 -.316E-06 0.885E-02
   -.332E+03 -.805E-03 -.293E+04   0.332E+03 0.218E-07 0.293E+04   0.136E+01 0.000E+00 0.197E+01   0.177E-02 -.414E-06 -.252E-02
   -.482E+03 -.119E-02 0.167E+04   0.484E+03 0.160E-05 -.167E+04   -.185E+01 0.000E+00 0.321E+01   -.274E-01 -.417E-06 -.129E-01
   -.170E+02 -.833E-03 -.233E+04   0.139E+02 0.526E-06 0.234E+04   0.218E+01 0.000E+00 -.576E+01   -.315E-01 -.248E-06 -.297E-02
   0.145E+03 0.530E+03 -.113E+04   -.143E+03 -.536E+03 0.113E+04   -.118E+01 0.499E+01 0.732E+00   0.121E-01 0.146E-01 0.481E-02
   -.122E+02 0.634E+03 0.393E+04   0.999E+01 -.630E+03 -.393E+04   0.244E+01 -.398E+01 -.212E+01   0.833E-02 0.682E-02 -.193E-02
   -.160E+03 0.479E+03 0.198E+03   0.160E+03 -.483E+03 -.199E+03   0.442E+00 0.364E+01 -.293E+00   0.104E-01 -.382E-02 -.204E-01
   -.166E+03 0.146E+03 -.360E+04   0.169E+03 -.150E+03 0.360E+04   -.334E+01 0.469E+01 0.138E+01   0.300E-02 0.940E-02 -.202E-02
   -.418E+03 0.486E+03 0.357E+04   0.415E+03 -.483E+03 -.357E+04   0.351E+01 -.357E+01 -.244E+01   -.284E-01 0.228E-01 -.118E-01
   -.672E+03 0.394E+03 -.855E+03   0.674E+03 -.398E+03 0.857E+03   -.100E+01 0.367E+01 -.377E+01   -.257E-01 -.336E-02 -.375E-01
   0.412E+03 0.782E+03 0.207E+04   -.412E+03 -.788E+03 -.207E+04   0.235E+00 0.557E+01 0.376E+01   0.205E-01 -.240E-02 -.441E-02
   -.164E+02 0.211E+03 -.264E+04   0.178E+02 -.214E+03 0.264E+04   -.119E+01 0.280E+01 -.114E+00   0.410E-02 -.223E-02 0.585E-02
   0.397E+03 0.310E+03 0.134E+04   -.398E+03 -.314E+03 -.134E+04   0.790E+00 0.303E+01 0.441E+01   0.319E-01 0.327E-02 -.184E-01
   0.232E+03 0.336E+02 -.314E+04   -.232E+03 -.373E+02 0.314E+04   -.335E+00 0.388E+01 0.142E+01   0.185E-01 -.304E-02 -.484E-02
   -.456E+03 0.217E+03 0.305E+04   0.457E+03 -.219E+03 -.305E+04   -.100E+01 0.272E+01 0.330E+00   -.239E-01 -.859E-02 -.131E-01
   -.592E+03 0.518E+03 -.136E+04   0.594E+03 -.521E+03 0.136E+04   -.188E+01 0.310E+01 -.415E+01   -.129E-01 -.382E-02 -.423E-03
   0.145E+03 -.530E+03 -.113E+04   -.143E+03 0.536E+03 0.113E+04   -.118E+01 -.499E+01 0.732E+00   0.121E-01 -.146E-01 0.481E-02
   -.122E+02 -.634E+03 0.393E+04   0.999E+01 0.630E+03 -.393E+04   0.244E+01 0.398E+01 -.212E+01   0.833E-02 -.682E-02 -.193E-02
   -.160E+03 -.479E+03 0.198E+03   0.160E+03 0.483E+03 -.199E+03   0.442E+00 -.364E+01 -.293E+00   0.104E-01 0.382E-02 -.204E-01
   -.166E+03 -.146E+03 -.360E+04   0.169E+03 0.150E+03 0.360E+04   -.334E+01 -.469E+01 0.138E+01   0.300E-02 -.940E-02 -.202E-02
   -.418E+03 -.486E+03 0.357E+04   0.415E+03 0.483E+03 -.357E+04   0.351E+01 0.357E+01 -.244E+01   -.284E-01 -.228E-01 -.118E-01
   -.672E+03 -.394E+03 -.855E+03   0.674E+03 0.398E+03 0.857E+03   -.100E+01 -.367E+01 -.377E+01   -.257E-01 0.337E-02 -.375E-01
   0.412E+03 -.782E+03 0.207E+04   -.412E+03 0.788E+03 -.207E+04   0.235E+00 -.557E+01 0.376E+01   0.205E-01 0.240E-02 -.441E-02
   -.164E+02 -.211E+03 -.264E+04   0.178E+02 0.214E+03 0.264E+04   -.119E+01 -.280E+01 -.114E+00   0.410E-02 0.223E-02 0.585E-02
   0.397E+03 -.310E+03 0.134E+04   -.398E+03 0.314E+03 -.134E+04   0.790E+00 -.303E+01 0.441E+01   0.319E-01 -.327E-02 -.184E-01
   0.232E+03 -.336E+02 -.314E+04   -.232E+03 0.373E+02 0.314E+04   -.335E+00 -.388E+01 0.142E+01   0.185E-01 0.304E-02 -.484E-02
   -.456E+03 -.217E+03 0.305E+04   0.457E+03 0.219E+03 -.305E+04   -.100E+01 -.272E+01 0.330E+00   -.239E-01 0.859E-02 -.131E-01
   -.592E+03 -.518E+03 -.136E+04   0.594E+03 0.521E+03 0.136E+04   -.188E+01 -.310E+01 -.415E+01   -.129E-01 0.382E-02 -.423E-03
   0.258E+02 -.298E-04 -.161E+04   -.252E+02 0.493E-08 0.162E+04   -.180E+00 0.000E+00 -.285E+01   0.562E-02 -.774E-07 -.436E-02
   0.216E+03 -.289E-04 0.674E+03   -.218E+03 0.244E-07 -.679E+03   0.222E+01 0.000E+00 0.254E+01   0.423E-02 -.905E-07 0.606E-02
   -.405E+03 -.182E-04 0.117E+04   0.408E+03 -.369E-06 -.118E+04   -.175E+01 0.000E+00 0.202E+01   -.110E-01 -.649E-07 -.727E-02
   -.165E+03 -.334E-04 -.893E+03   0.165E+03 0.123E-06 0.898E+03   0.118E+01 0.000E+00 -.447E+01   -.720E-02 -.584E-07 0.272E-02
   -.461E+03 0.572E-04 0.896E+03   0.460E+03 -.185E-05 -.899E+03   0.155E+01 0.000E+00 0.199E+01   -.251E-01 0.109E-06 -.177E-01
   -.140E+03 -.515E-06 -.103E+04   0.139E+03 -.191E-06 0.103E+04   0.115E+01 0.000E+00 -.228E+01   -.400E-02 0.190E-07 -.189E-02
   0.190E+03 0.403E-05 0.167E+04   -.189E+03 0.354E-07 -.168E+04   -.905E+00 0.000E+00 0.277E+01   0.141E-01 0.631E-08 -.240E-02
   -.272E+02 -.123E-04 -.240E+03   0.267E+02 0.111E-07 0.243E+03   0.213E+01 0.000E+00 -.314E+01   0.622E-02 0.448E-07 -.360E-02
   0.196E+03 0.579E-05 0.159E+04   -.197E+03 0.320E-06 -.159E+04   0.837E+00 0.000E+00 0.171E+01   0.215E-01 -.576E-09 0.989E-03
   -.132E+02 0.320E-04 -.605E+03   0.139E+02 0.205E-06 0.610E+03   0.490E+00 0.000E+00 -.469E+01   0.116E-01 0.300E-08 -.150E-01
   -.343E+03 -.161E-04 0.653E+03   0.346E+03 0.157E-07 -.654E+03   -.451E+00 0.000E+00 0.992E+00   -.321E-02 -.239E-07 -.250E-02
   -.104E+03 0.667E-05 -.119E+04   0.106E+03 0.137E-07 0.120E+04   -.489E+00 0.000E+00 -.278E+01   -.479E-03 0.343E-07 0.276E-02
   -.363E+03 0.115E+03 0.121E+04   0.365E+03 -.114E+03 -.122E+04   -.719E+00 -.113E+01 0.247E+01   -.743E-02 -.349E-02 -.401E-02
   -.782E+02 -.122E+03 -.186E+03   0.788E+02 0.125E+03 0.186E+03   -.682E+00 -.120E+01 -.108E+01   -.135E-04 -.395E-02 0.308E-03
   0.242E+03 -.254E+03 0.786E+03   -.243E+03 0.256E+03 -.789E+03   -.569E+00 -.135E+01 0.300E+01   0.124E-01 -.512E-02 -.126E-01
   0.235E+03 0.466E+02 -.120E+04   -.236E+03 -.457E+02 0.120E+04   0.120E-01 -.410E+00 -.260E+01   0.141E-01 -.942E-03 -.147E-02
   0.329E+02 -.135E+03 0.522E+03   -.339E+02 0.137E+03 -.524E+03   -.667E+00 -.132E+01 0.192E+01   -.107E-02 -.720E-02 -.195E-01
   -.181E+03 0.598E+02 -.144E+04   0.182E+03 -.585E+02 0.145E+04   -.129E+01 -.110E+01 -.197E+01   -.733E-02 0.995E-02 -.966E-03
   0.204E+03 -.217E+03 -.300E+03   -.204E+03 0.218E+03 0.300E+03   -.493E+00 -.386E-01 -.824E+00   0.465E-02 0.498E-02 0.339E-02
   0.312E+03 -.368E+03 0.136E+04   -.315E+03 0.371E+03 -.137E+04   0.878E+00 -.156E+01 0.707E+00   0.111E-02 0.378E-02 -.506E-02
   0.302E+03 0.785E+02 0.113E+04   -.303E+03 -.793E+02 -.113E+04   0.791E-01 0.674E+00 0.426E+01   0.477E-02 -.116E-02 -.240E-02
   0.171E+03 0.156E+02 -.859E+03   -.171E+03 -.145E+02 0.862E+03   -.849E+00 -.217E+01 -.194E+01   -.332E-02 -.122E-02 -.346E-03
   -.601E+02 -.167E+03 0.273E+03   0.585E+02 0.170E+03 -.274E+03   -.501E-01 -.136E+01 0.124E+01   -.136E-01 0.233E-02 -.575E-02
   -.489E+02 -.248E+03 -.152E+04   0.479E+02 0.252E+03 0.152E+04   0.393E+00 -.267E+01 -.730E+00   -.873E-02 -.990E-04 0.148E-02
   0.242E+03 0.254E+03 0.786E+03   -.243E+03 -.256E+03 -.789E+03   -.569E+00 0.135E+01 0.300E+01   0.124E-01 0.512E-02 -.126E-01
   0.235E+03 -.466E+02 -.120E+04   -.236E+03 0.457E+02 0.120E+04   0.120E-01 0.410E+00 -.260E+01   0.141E-01 0.942E-03 -.147E-02
   -.363E+03 -.115E+03 0.121E+04   0.365E+03 0.114E+03 -.122E+04   -.719E+00 0.113E+01 0.247E+01   -.743E-02 0.349E-02 -.401E-02
   -.782E+02 0.122E+03 -.186E+03   0.788E+02 -.125E+03 0.186E+03   -.682E+00 0.120E+01 -.108E+01   -.134E-04 0.395E-02 0.308E-03
   0.204E+03 0.217E+03 -.300E+03   -.204E+03 -.218E+03 0.300E+03   -.493E+00 0.386E-01 -.824E+00   0.465E-02 -.498E-02 0.339E-02
   0.312E+03 0.368E+03 0.136E+04   -.315E+03 -.371E+03 -.137E+04   0.878E+00 0.156E+01 0.707E+00   0.111E-02 -.378E-02 -.506E-02
   0.329E+02 0.135E+03 0.522E+03   -.339E+02 -.137E+03 -.524E+03   -.667E+00 0.132E+01 0.192E+01   -.107E-02 0.720E-02 -.195E-01
   -.181E+03 -.598E+02 -.144E+04   0.182E+03 0.585E+02 0.145E+04   -.129E+01 0.110E+01 -.197E+01   -.733E-02 -.995E-02 -.966E-03
   -.601E+02 0.167E+03 0.273E+03   0.585E+02 -.170E+03 -.274E+03   -.501E-01 0.136E+01 0.124E+01   -.136E-01 -.233E-02 -.575E-02
   -.489E+02 0.248E+03 -.152E+04   0.479E+02 -.252E+03 0.152E+04   0.393E+00 0.267E+01 -.730E+00   -.873E-02 0.990E-04 0.148E-02
   0.302E+03 -.785E+02 0.113E+04   -.303E+03 0.793E+02 -.113E+04   0.791E-01 -.674E+00 0.426E+01   0.477E-02 0.116E-02 -.240E-02
   0.171E+03 -.156E+02 -.859E+03   -.171E+03 0.145E+02 0.862E+03   -.849E+00 0.217E+01 -.194E+01   -.332E-02 0.122E-02 -.346E-03
   -.104E+02 -.104E-01 -.108E+02   -.210E-11 -.239E-11 -.216E-11   0.103E+02 0.533E-14 0.112E+02   0.484E-01 -.546E-06 -.475E+00

 POSITION                                       TOTAL-FORCE (eV/Angst)
     12.88178      1.39171      2.83406         0.950964      0.000000      0.614495
     13.90903      1.39171      5.17653        -0.619088      0.000000      1.489000
      3.80975      6.18092      1.50123         0.878217      0.000000      0.079188
      5.02033      6.18092      3.49202         0.315533      0.000000     -0.045617
      6.66606      1.39171      2.02714         0.861262      0.000000     -0.201857
      7.93172      1.39171      4.00611        -0.207512      0.000000     -0.719623
     16.08224      6.18092      2.46384        -0.711561      0.000000      2.709677
     16.36616      6.18092      5.08465         0.216474      0.000000      0.879730
      2.10894      1.39171      2.97793         0.972439      0.000000      1.310687
      0.96190      1.39171      5.09646         1.433722      0.000000      0.828658
      9.66676      6.18092      2.56024         0.085551      0.000000     -0.595344
     10.84312      6.18092      4.52020        -0.934176      0.000000     -0.795863
     15.91093      0.03280      4.41795         0.167897     -1.454847     -0.578590
      6.65316      4.95883      0.55100         0.250707     -0.472150     -1.071562
      7.17375      4.91558      3.08454         0.332317     -0.136666     -1.133671
      7.88753      4.42888      5.35332        -0.242775      0.729536      0.808747
      9.56575      0.16511      1.06040         0.244120     -0.612203     -1.317376
     10.08514      0.12638      3.59863         0.786527     -0.474392     -1.508280
      1.35096      4.91558      2.05636         1.095875     -0.365477      1.986201
      1.90712      4.78617      4.69066         0.184654      0.572237      1.045080
      4.26235      0.12638      2.57045         0.308049     -0.918600      1.297566
      4.92474      9.32952      4.94396        -0.029224      0.170421      0.827484
     12.60947      4.76508      1.61022        -0.329208      0.688425     -1.060502
     12.99653      4.91558      4.11272         0.551542      0.079630     -1.552692
     15.91093      2.75063      4.41795         0.167897      1.454847     -0.578590
      6.65316      7.40301      0.55100         0.250707      0.472150     -1.071562
      7.17375      7.44626      3.08454         0.332317      0.136666     -1.133671
      7.88753      7.93295      5.35332        -0.242775     -0.729536      0.808747
      9.56575      2.61831      1.06040         0.244120      0.612203     -1.317376
     10.08514      2.65705      3.59863         0.786527      0.474392     -1.508280
      1.35096      7.44626      2.05636         1.095875      0.365477      1.986201
      1.90712      7.57567      4.69066         0.184654     -0.572237      1.045080
      4.26235      2.65705      2.57045         0.308049      0.918600      1.297566
      4.92474      3.03232      4.94396        -0.029224     -0.170421      0.827484
     12.60947      7.59676      1.61022        -0.329208     -0.688425     -1.060502
     12.99653      7.44626      4.11272         0.551542     -0.079630     -1.552692
     15.91621      1.39171      5.96941         0.453628      0.000000      4.531166
      0.05777      1.39171      3.22650        -0.130480      0.000000     -2.409930
      8.00634      6.18092      1.40713         1.581615      0.000000     -1.766784
      8.59001      6.18092      4.49167         1.373116      0.000000      0.986623
     10.91773      1.39171      1.92122         0.440016      0.000000     -0.916254
     11.60114      1.39171      4.52105         0.028682      0.000000      2.848489
      2.02762      6.18092      0.56328        -0.116154      0.000000     -4.028050
      2.76722      6.18092      3.46349         1.638042      0.000000      0.150839
      4.87713      1.39171      1.06774         0.227724      0.000000     -3.983356
      5.67861      1.39171      3.97758         1.196622      0.000000      0.650807
     13.82913      6.18092      2.43531         2.120866      0.000000     -0.763060
     14.31340      6.18092      5.16089         0.846802      0.000000      2.635582
     13.20201      2.86462      1.39231         0.934061     -0.165936     -2.428254
     13.90018      3.01625      3.94401        -0.003889      1.373800     -0.441101
      5.26426      7.79215      1.92599        -1.628322      1.045341     -0.144481
      5.94006      7.57397      4.82647        -1.156382      0.581321      1.946269
      8.17565      3.00295      2.44008        -1.616543      0.795091      0.098648
      8.92774      2.72193      5.29654         0.260738      0.285730      2.925207
      0.02514      7.79215      3.98236        -1.072013      1.098179     -0.362073
     16.47067      7.60619      1.10030        -1.639428      1.923633     -3.107712
      2.36970      3.09312      1.78615        -0.701709     -0.141756     -2.914205
      2.93654      3.00295      4.49645        -0.898095     -1.000336      1.258706
     11.08705      7.79215      2.95417        -1.639419      0.929048      0.014416
     11.73810      7.57196      5.69411        -0.610631      1.127083      3.667576
      5.26426      4.56969      1.92599        -1.628322     -1.045341     -0.144481
      5.94006      4.78787      4.82647        -1.156382     -0.581321      1.946269
     13.20201      9.49722      1.39231         0.934061      0.165936     -2.428254
     13.90018      9.34559      3.94401        -0.003889     -1.373800     -0.441101
      0.02514      4.56969      3.98236        -1.072013     -1.098179     -0.362073
     16.47067      4.75565      1.10030        -1.639428     -1.923633     -3.107712
      8.17565      9.35889      2.44008        -1.616543     -0.795091      0.098648
      8.92774      0.06150      5.29654         0.260738     -0.285730      2.925207
     11.08705      4.56969      2.95417        -1.639419     -0.929048      0.014416
     11.73810      4.78987      5.69411        -0.610631     -1.127083      3.667576
      2.36970      9.26871      1.78615        -0.701709      0.141756     -2.914205
      2.93654      9.35889      4.49645        -0.898095      1.000336      1.258706
    total drift:                               -0.121503     -0.010418     -0.097648

  FREE ENERGIE OF THE ION-ELECTRON SYSTEM (eV)
  free  energy   TOTEN  =      -337.48734843 eV

  energy  without entropy=     -336.37215014  energy(sigma->0) =     -336.92974929