 vasp.6.1.0 28Jan20 (build Mar 31 2020 17:42:31) gamma-only

 executed on             LinuxIFC date 2020.04.12  13:24:28

 INCAR:
 POTCAR:    PAW_PBE Ni_pv 06Sep2000
 POTCAR:    PAW_PBE S 06Sep2000
 POTCAR:    PAW_PBE Ni_pv 06Sep2000
   VRHFIN =Ni:

   TITEL  = PAW_PBE Ni_pv 06Sep2000
   POMASS =   58.690; ZVAL   =   16.000    mass and valenz
   ENMAX  =  367.986; ENMIN  =  275.989 eV

 POTCAR:    PAW_PBE S 06Sep2000
   VRHFIN =S : s2p4

   TITEL  = PAW_PBE S 06Sep2000
   POMASS =   32.066; ZVAL   =    6.000    mass and valenz
   ENMAX  =  258.689; ENMIN  =  194.016 eV

 Optimization of the real space projectors (new method)

 maximal supplied QI-value         = 18.90
 optimisation between [QCUT,QGAM] = [ 10.77, 21.73] = [ 32.49,132.25] Ry
 Optimized for a Real-space Cutoff    1.38 Angstroem

   l    n(q)    QCUT    max X(q) W(low)/X(q) W(high)/X(q)  e(spline)
   1      8    10.771     2.836    0.40E-04    0.29E-04    0.12E-06
   1      8    10.771     4.023    0.10E-03    0.48E-04    0.29E-06
   2      8    10.771    73.368    0.42E-03    0.97E-04    0.44E-06
   2      8    10.771    69.010    0.42E-03    0.99E-04    0.45E-06
   0      9    10.771    54.797    0.10E-03    0.56E-04    0.74E-07
   0      9    10.771    24.266    0.89E-04    0.49E-04    0.67E-07
 Optimization of the real space projectors (new method)

 maximal supplied QI-value         = 19.84
 optimisation between [QCUT,QGAM] = [ 10.71, 21.63] = [ 32.15,130.99] Ry
 Optimized for a Real-space Cutoff    1.19 Angstroem

   l    n(q)    QCUT    max X(q) W(low)/X(q) W(high)/X(q)  e(spline)
   0      8    10.715   187.594    0.41E-03    0.53E-04    0.66E-07
   0      8    10.715   164.243    0.41E-03    0.53E-04    0.65E-07
   1      7    10.715    67.533    0.19E-03    0.59E-03    0.68E-07
   1      7    10.715    50.729    0.19E-03    0.58E-03    0.67E-07
  PAW_PBE Ni_pv 06Sep2000               :
  PAW_PBE S 06Sep2000                   :

 POSCAR: Structure 1 made from -120-4.xsd file
  positions in direct lattice
 exchange correlation table for  LEXCH =        8
   RHO(1)=    0.500       N(1)  =     2000
   RHO(2)=  100.500       N(2)  =     4000

 ion  position               nearest neighbor table
   1  0.256  0.016  0.104-  75 2.25  65 2.26  81 2.26  53 2.36  93 2.36   9 2.53   5 2.53
   2  0.256  0.016  0.451-  76 2.25  66 2.26  82 2.26  54 2.36  94 2.36   6 2.53  10 2.53
   3  0.006  0.266  0.278-  62 2.25  71 2.26  67 2.26  59 2.36  55 2.36   7 2.53  23 2.53
   4  0.006  0.266  0.625-  68 2.26  72 2.26  56 2.36  60 2.36  24 2.53   8 2.53
   5  0.256  0.016  0.013-  61 2.26  81 2.26  49 2.36  93 2.36   9 2.53   1 2.53
   6  0.256  0.016  0.360-  79 2.25  62 2.26  82 2.26  50 2.36  94 2.36   2 2.53  10 2.53
   7  0.006  0.266  0.186-  65 2.25  71 2.26  63 2.26  59 2.36  51 2.36   3 2.53  23 2.53
   8  0.006  0.266  0.533-  66 2.25  72 2.26  64 2.26  60 2.36  52 2.36  24 2.53   4 2.53
   9  0.190  0.215  0.058-  57 2.25  65 2.26  61 2.26  53 2.36  49 2.36   1 2.53   5 2.53
  10  0.190  0.215  0.406-  58 2.25  62 2.26  66 2.26  50 2.36  54 2.36   6 2.53   2 2.53
  11  0.440  0.465  0.232-  83 2.25  55 2.26  51 2.26  67 2.36  63 2.36  15 2.53  19 2.53
  12  0.440  0.465  0.579-  84 2.25  52 2.26  56 2.26  64 2.36  68 2.36  20 2.53  16 2.53
  13  0.756  0.016  0.104-  87 2.25  53 2.26  93 2.26  65 2.36  81 2.36  21 2.53  17 2.53
  14  0.756  0.016  0.451-  88 2.25  54 2.26  94 2.26  66 2.36  82 2.36  18 2.53  22 2.53
  15  0.506  0.266  0.278-  50 2.25  59 2.26  55 2.26  71 2.36  67 2.36  19 2.53  11 2.53
  16  0.506  0.266  0.625-  56 2.26  60 2.26  68 2.36  72 2.36  12 2.53  20 2.53
  17  0.756  0.016  0.013-  49 2.26  93 2.26  61 2.36  81 2.36  21 2.53  13 2.53
  18  0.756  0.016  0.360-  91 2.25  50 2.26  94 2.26  62 2.36  82 2.36  14 2.53  22 2.53
  19  0.506  0.266  0.186-  53 2.25  59 2.26  51 2.26  71 2.36  63 2.36  15 2.53  11 2.53
  20  0.506  0.266  0.533-  54 2.25  60 2.26  52 2.26  72 2.36  64 2.36  12 2.53  16 2.53
  21  0.690  0.215  0.058-  69 2.25  53 2.26  49 2.26  65 2.36  61 2.36  13 2.53  17 2.53
  22  0.690  0.215  0.406-  70 2.25  50 2.26  54 2.26  62 2.36  66 2.36  18 2.53  14 2.53
  23  0.940  0.465  0.232-  95 2.25  67 2.26  63 2.26  55 2.36  51 2.36   3 2.53   7 2.53
  24  0.940  0.465  0.579-  96 2.25  64 2.26  68 2.26  52 2.36  56 2.36   8 2.53   4 2.53
  25  0.256  0.516  0.104-  51 2.25  89 2.26  57 2.26  77 2.36  69 2.36  33 2.53  29 2.53
  26  0.256  0.516  0.451-  52 2.25  90 2.26  58 2.26  78 2.36  70 2.36  30 2.53  34 2.53
  27  0.006  0.766  0.278-  86 2.25  95 2.26  91 2.26  83 2.36  79 2.36  31 2.53  47 2.53
  28  0.006  0.766  0.625-  92 2.26  96 2.26  80 2.36  84 2.36  48 2.53  32 2.53
  29  0.256  0.516  0.013-  85 2.26  57 2.26  73 2.36  69 2.36  33 2.53  25 2.53
  30  0.256  0.516  0.360-  55 2.25  86 2.26  58 2.26  74 2.36  70 2.36  26 2.53  34 2.53
  31  0.006  0.766  0.186-  89 2.25  95 2.26  87 2.26  83 2.36  75 2.36  27 2.53  47 2.53
  32  0.006  0.766  0.533-  90 2.25  96 2.26  88 2.26  84 2.36  76 2.36  48 2.53  28 2.53
  33  0.190  0.715  0.058-  81 2.25  89 2.26  85 2.26  77 2.36  73 2.36  25 2.53  29 2.53
  34  0.190  0.715  0.406-  82 2.25  86 2.26  90 2.26  74 2.36  78 2.36  30 2.53  26 2.53
  35  0.440  0.965  0.232-  59 2.25  79 2.26  75 2.26  91 2.36  87 2.36  39 2.53  43 2.53
  36  0.440  0.965  0.579-  60 2.25  76 2.26  80 2.26  88 2.36  92 2.36  44 2.53  40 2.53
  37  0.756  0.516  0.104-  63 2.25  77 2.26  69 2.26  89 2.36  57 2.36  45 2.53  41 2.53
  38  0.756  0.516  0.451-  64 2.25  78 2.26  70 2.26  90 2.36  58 2.36  42 2.53  46 2.53
  39  0.506  0.766  0.278-  74 2.25  83 2.26  79 2.26  95 2.36  91 2.36  43 2.53  35 2.53
  40  0.506  0.766  0.625-  80 2.26  84 2.26  92 2.36  96 2.36  36 2.53  44 2.53
  41  0.756  0.516  0.013-  73 2.26  69 2.26  85 2.36  57 2.36  45 2.53  37 2.53
  42  0.756  0.516  0.360-  67 2.25  74 2.26  70 2.26  86 2.36  58 2.36  38 2.53  46 2.53
  43  0.506  0.766  0.186-  77 2.25  83 2.26  75 2.26  95 2.36  87 2.36  39 2.53  35 2.53
  44  0.506  0.766  0.533-  78 2.25  84 2.26  76 2.26  96 2.36  88 2.36  36 2.53  40 2.53
  45  0.690  0.715  0.058-  93 2.25  77 2.26  73 2.26  89 2.36  85 2.36  37 2.53  41 2.53
  46  0.690  0.715  0.406-  94 2.25  74 2.26  78 2.26  86 2.36  90 2.36  42 2.53  38 2.53
  47  0.940  0.965  0.232-  71 2.25  91 2.26  87 2.26  79 2.36  75 2.36  27 2.53  31 2.53
  48  0.940  0.965  0.579-  72 2.25  88 2.26  92 2.26  76 2.36  80 2.36  32 2.53  28 2.53
  49  0.468  0.167  0.000-  17 2.26  21 2.26   5 2.36   9 2.36
  50  0.468  0.167  0.347-  15 2.25  22 2.26  18 2.26  10 2.36   6 2.36
  51  0.218  0.417  0.174-  25 2.25  19 2.26  11 2.26   7 2.36  23 2.36
  52  0.218  0.417  0.521-  26 2.25  12 2.26  20 2.26  24 2.36   8 2.36
  53  0.468  0.167  0.117-  19 2.25  21 2.26  13 2.26   9 2.36   1 2.36
  54  0.468  0.167  0.464-  20 2.25  14 2.26  22 2.26   2 2.36  10 2.36
  55  0.218  0.417  0.290-  30 2.25  11 2.26  15 2.26  23 2.36   3 2.36
  56  0.218  0.417  0.638-  16 2.26  12 2.26   4 2.36  24 2.36
  57  0.053  0.414  0.058-   9 2.25  25 2.26  29 2.26  37 2.36  41 2.36
  58  0.053  0.414  0.406-  10 2.25  26 2.26  30 2.26  38 2.36  42 2.36
  59  0.303  0.164  0.232-  35 2.25  15 2.26  19 2.26   3 2.36   7 2.36
  60  0.303  0.164  0.579-  36 2.25  20 2.26  16 2.26   8 2.36   4 2.36
[...]
  82  0.053  0.914  0.406-  34 2.25   6 2.26   2 2.26  18 2.36  14 2.36
  83  0.303  0.664  0.232-  11 2.25  39 2.26  43 2.26  27 2.36  31 2.36
  84  0.303  0.664  0.579-  12 2.25  44 2.26  40 2.26  32 2.36  28 2.36
  85  0.968  0.667  0.000-  29 2.26  33 2.26  41 2.36  45 2.36
  86  0.968  0.667  0.347-  27 2.25  34 2.26  30 2.26  46 2.36  42 2.36
  87  0.718  0.917  0.174-  13 2.25  31 2.26  47 2.26  43 2.36  35 2.36
  88  0.718  0.917  0.521-  14 2.25  48 2.26  32 2.26  36 2.36  44 2.36
  89  0.968  0.667  0.117-  31 2.25  33 2.26  25 2.26  45 2.36  37 2.36
  90  0.968  0.667  0.464-  32 2.25  26 2.26  34 2.26  38 2.36  46 2.36
  91  0.718  0.917  0.290-  18 2.25  47 2.26  27 2.26  35 2.36  39 2.36
  92  0.718  0.917  0.638-  28 2.26  48 2.26  40 2.36  36 2.36
  93  0.553  0.914  0.058-  45 2.25  13 2.26  17 2.26   1 2.36   5 2.36
  94  0.553  0.914  0.406-  46 2.25  18 2.26  14 2.26   6 2.36   2 2.36
  95  0.803  0.664  0.232-  23 2.25  27 2.26  31 2.26  39 2.36  43 2.36
  96  0.803  0.664  0.579-  24 2.25  32 2.26  28 2.26  44 2.36  40 2.36

  LATTYP: Found a simple monoclinic cell.
 ALAT       =    13.8711386352
 B/A-ratio  =     1.9890277361
 C/A-ratio  =     1.3233367991
 COS(beta)  =    -0.9620914447

  Lattice vectors:

 A1 = (  -6.1690871197, -12.4238017992,   0.0000000000)
 A2 = (   0.0000000000,   0.0000000000, -27.5900794763)
 A3 = (  12.3381742394,  13.5911405602,   0.0000000000)

Analysis of symmetry for initial positions (statically):
 Subroutine PRICEL returns following result:

[...]

   4 primitive cells build up your supercell.

 Routine SETGRP: Setting up the symmetry group for a
 simple monoclinic supercell.

 Subroutine GETGRP returns: Found  2 space group operations
 (whereof  1 operations were pure point group operations)
 out of a pool of  4 trial point group operations.

The static configuration has the point symmetry C_1 .
 The point group associated with its full space group is C_1h.

Analysis of symmetry for dynamics (positions and initial velocities):
 Subroutine PRICEL returns following result:

  LATTYP: Found a simple monoclinic cell.
 ALAT       =     6.9355693176
 B/A-ratio  =     3.9780554721
 C/A-ratio  =     1.3233367991
 COS(beta)  =    -0.9620914447

  Lattice vectors:

 A1 = (  -3.0845435599,  -6.2119008996,   0.0000000000)
 A2 = (   0.0000000000,   0.0000000000, -27.5900794763)
 A3 = (   6.1690871197,   6.7955702801,   0.0000000000)

   4 primitive cells build up your supercell.

 Routine SETGRP: Setting up the symmetry group for a
 simple monoclinic supercell.

 Subroutine GETGRP returns: Found  2 space group operations
 (whereof  1 operations were pure point group operations)
 out of a pool of  4 trial point group operations.

The dynamic configuration has the point symmetry C_1 .
 The point group associated with its full space group is C_1h.

 Subroutine INISYM returns: Found  2 space group operations
 (whereof  1 operations are pure point group operations),
 and found     4 'primitive' translations

                                     Primitive cell

  volume of cell :     478.9783

  direct lattice vectors                    reciprocal lattice vectors
    -3.084543560 -6.211900900  0.000000000     0.391438057 -0.355351409  0.000000000
     0.000000000  0.000000000-27.590079476     0.000000000  0.000000000 -0.036244912
     6.169087120  6.795570280  0.000000000     0.357817566 -0.177675704  0.000000000

  length of vectors
     6.935569318 27.590079476  9.178094101     0.528676060  0.036244912  0.399502273

  position of ions in fractional coordinates (direct lattice)
     0.446784512  0.895739012  0.479701694
     0.446784512  0.548570386  0.479701694
     0.946784544  0.722154699  0.479701710
     0.946784544  0.374986072  0.479701710
     0.446784512  0.987463047  0.479701694
     0.446784512  0.640294420  0.479701694
     0.946784544  0.813878733  0.479701710
[...]
     0.000000000  0.000000000 27.590079476     0.000000000  0.000000000  0.036244912

  length of vectors
     6.278560000 11.256463038 27.590079476     0.162098538  0.090414315  0.036244912

 FORCES acting on ions
    electron-ion (+dipol)            ewald-force                    non-local-force                 convergence-correction
   -.901E+02 0.253E+03 0.370E+04   0.889E+02 -.253E+03 -.370E+04   0.118E+01 0.363E+00 -.290E+00   0.388E-03 0.345E-01 -.529E+00
   -.884E+02 0.245E+03 -.302E+04   0.876E+02 -.246E+03 0.302E+04   0.900E+00 0.830E+00 -.133E+01   0.254E-01 -.951E-01 -.134E+00
   -.885E+02 0.246E+03 0.347E+03   0.877E+02 -.246E+03 -.346E+03   0.865E+00 0.719E+00 -.103E+01   -.109E-01 -.822E-02 0.243E+00
   -.991E+02 0.388E+03 -.625E+04   0.976E+02 -.385E+03 0.625E+04   0.168E+01 -.254E+01 0.228E+01   0.227E-01 -.845E-01 0.513E+00
   -.991E+02 0.388E+03 0.625E+04   0.976E+02 -.385E+03 -.625E+04   0.168E+01 -.254E+01 -.228E+01   0.227E-01 -.845E-01 -.513E+00
   -.885E+02 0.246E+03 -.347E+03   0.877E+02 -.246E+03 0.346E+03   0.865E+00 0.719E+00 0.103E+01   -.109E-01 -.823E-02 -.243E+00
   -.884E+02 0.245E+03 0.302E+04   0.876E+02 -.246E+03 -.302E+04   0.900E+00 0.830E+00 0.133E+01   0.254E-01 -.951E-01 0.134E+00
   -.901E+02 0.253E+03 -.370E+04   0.889E+02 -.253E+03 0.370E+04   0.118E+01 0.363E+00 0.290E+00   0.388E-03 0.345E-01 0.529E+00
   0.661E+02 -.557E+03 0.506E+04   -.668E+02 0.558E+03 -.506E+04   0.104E+01 -.497E+00 0.107E+01   0.463E-01 -.186E+00 -.480E+00
   0.554E+02 -.514E+03 -.168E+04   -.562E+02 0.515E+03 0.168E+04   0.110E+01 -.103E+01 -.347E-01   0.316E-02 0.307E-01 -.351E+00
   0.554E+02 -.514E+03 0.168E+04   -.562E+02 0.515E+03 -.168E+04   0.110E+01 -.103E+01 0.347E-01   0.316E-02 0.307E-01 0.351E+00
   0.661E+02 -.557E+03 -.506E+04   -.668E+02 0.558E+03 0.506E+04   0.104E+01 -.497E+00 -.107E+01   0.463E-01 -.186E+00 0.480E+00
   -.901E+02 0.253E+03 0.370E+04   0.889E+02 -.253E+03 -.370E+04   0.118E+01 0.363E+00 -.290E+00   0.388E-03 0.345E-01 -.529E+00
   -.884E+02 0.245E+03 -.302E+04   0.876E+02 -.246E+03 0.302E+04   0.900E+00 0.830E+00 -.133E+01   0.254E-01 -.951E-01 -.134E+00
   -.885E+02 0.246E+03 0.347E+03   0.877E+02 -.246E+03 -.346E+03   0.865E+00 0.719E+00 -.103E+01   -.109E-01 -.822E-02 0.243E+00
   -.991E+02 0.388E+03 -.625E+04   0.976E+02 -.385E+03 0.625E+04   0.168E+01 -.254E+01 0.228E+01   0.227E-01 -.845E-01 0.513E+00
   -.991E+02 0.388E+03 0.625E+04   0.976E+02 -.385E+03 -.625E+04   0.168E+01 -.254E+01 -.228E+01   0.227E-01 -.845E-01 -.513E+00
   -.885E+02 0.246E+03 -.347E+03   0.877E+02 -.246E+03 0.346E+03   0.865E+00 0.719E+00 0.103E+01   -.109E-01 -.823E-02 -.243E+00
   -.884E+02 0.245E+03 0.302E+04   0.876E+02 -.246E+03 -.302E+04   0.900E+00 0.830E+00 0.133E+01   0.254E-01 -.951E-01 0.134E+00
   -.901E+02 0.253E+03 -.370E+04   0.889E+02 -.253E+03 0.370E+04   0.118E+01 0.363E+00 0.290E+00   0.388E-03 0.345E-01 0.529E+00
   0.661E+02 -.557E+03 0.506E+04   -.668E+02 0.558E+03 -.506E+04   0.104E+01 -.497E+00 0.107E+01   0.463E-01 -.186E+00 -.480E+00
   0.554E+02 -.514E+03 -.168E+04   -.562E+02 0.515E+03 0.168E+04   0.110E+01 -.103E+01 -.347E-01   0.316E-02 0.307E-01 -.351E+00
   0.554E+02 -.514E+03 0.168E+04   -.562E+02 0.515E+03 -.168E+04   0.110E+01 -.103E+01 0.347E-01   0.316E-02 0.307E-01 0.351E+00
   0.661E+02 -.557E+03 -.506E+04   -.668E+02 0.558E+03 0.506E+04   0.104E+01 -.497E+00 -.107E+01   0.463E-01 -.186E+00 0.480E+00
   -.901E+02 0.253E+03 0.370E+04   0.889E+02 -.253E+03 -.370E+04   0.118E+01 0.363E+00 -.290E+00   0.388E-03 0.345E-01 -.529E+00
   -.884E+02 0.245E+03 -.302E+04   0.876E+02 -.246E+03 0.302E+04   0.900E+00 0.830E+00 -.133E+01   0.254E-01 -.951E-01 -.134E+00
   -.885E+02 0.246E+03 0.347E+03   0.877E+02 -.246E+03 -.346E+03   0.865E+00 0.719E+00 -.103E+01   -.109E-01 -.822E-02 0.243E+00
   -.991E+02 0.388E+03 -.625E+04   0.976E+02 -.385E+03 0.625E+04   0.168E+01 -.254E+01 0.228E+01   0.227E-01 -.845E-01 0.513E+00
   -.991E+02 0.388E+03 0.625E+04   0.976E+02 -.385E+03 -.625E+04   0.168E+01 -.254E+01 -.228E+01   0.227E-01 -.845E-01 -.513E+00
   -.885E+02 0.246E+03 -.347E+03   0.877E+02 -.246E+03 0.346E+03   0.865E+00 0.719E+00 0.103E+01   -.109E-01 -.823E-02 -.243E+00
   -.884E+02 0.245E+03 0.302E+04   0.876E+02 -.246E+03 -.302E+04   0.900E+00 0.830E+00 0.133E+01   0.254E-01 -.951E-01 0.134E+00
   -.901E+02 0.253E+03 -.370E+04   0.889E+02 -.253E+03 0.370E+04   0.118E+01 0.363E+00 0.290E+00   0.388E-03 0.345E-01 0.529E+00
   0.661E+02 -.557E+03 0.506E+04   -.668E+02 0.558E+03 -.506E+04   0.104E+01 -.497E+00 0.107E+01   0.463E-01 -.186E+00 -.480E+00
   0.554E+02 -.514E+03 -.168E+04   -.562E+02 0.515E+03 0.168E+04   0.110E+01 -.103E+01 -.347E-01   0.316E-02 0.307E-01 -.351E+00
   0.554E+02 -.514E+03 0.168E+04   -.562E+02 0.515E+03 -.168E+04   0.110E+01 -.103E+01 0.347E-01   0.316E-02 0.307E-01 0.351E+00
   0.661E+02 -.557E+03 -.506E+04   -.668E+02 0.558E+03 0.506E+04   0.104E+01 -.497E+00 -.107E+01   0.463E-01 -.186E+00 0.480E+00
   -.901E+02 0.253E+03 0.370E+04   0.889E+02 -.253E+03 -.370E+04   0.118E+01 0.363E+00 -.290E+00   0.388E-03 0.345E-01 -.529E+00
   -.884E+02 0.245E+03 -.302E+04   0.876E+02 -.246E+03 0.302E+04   0.900E+00 0.830E+00 -.133E+01   0.254E-01 -.951E-01 -.134E+00
   -.885E+02 0.246E+03 0.347E+03   0.877E+02 -.246E+03 -.346E+03   0.865E+00 0.719E+00 -.103E+01   -.109E-01 -.822E-02 0.243E+00
   -.991E+02 0.388E+03 -.625E+04   0.976E+02 -.385E+03 0.625E+04   0.168E+01 -.254E+01 0.228E+01   0.227E-01 -.845E-01 0.513E+00
   -.991E+02 0.388E+03 0.625E+04   0.976E+02 -.385E+03 -.625E+04   0.168E+01 -.254E+01 -.228E+01   0.227E-01 -.845E-01 -.513E+00
   -.885E+02 0.246E+03 -.347E+03   0.877E+02 -.246E+03 0.346E+03   0.865E+00 0.719E+00 0.103E+01   -.109E-01 -.823E-02 -.243E+00
   -.884E+02 0.245E+03 0.302E+04   0.876E+02 -.246E+03 -.302E+04   0.900E+00 0.830E+00 0.133E+01   0.254E-01 -.951E-01 0.134E+00
   -.901E+02 0.253E+03 -.370E+04   0.889E+02 -.253E+03 0.370E+04   0.118E+01 0.363E+00 0.290E+00   0.388E-03 0.345E-01 0.529E+00
   0.661E+02 -.557E+03 0.506E+04   -.668E+02 0.558E+03 -.506E+04   0.104E+01 -.497E+00 0.107E+01   0.463E-01 -.186E+00 -.480E+00
   0.554E+02 -.514E+03 -.168E+04   -.562E+02 0.515E+03 0.168E+04   0.110E+01 -.103E+01 -.347E-01   0.316E-02 0.307E-01 -.351E+00
   0.554E+02 -.514E+03 0.168E+04   -.562E+02 0.515E+03 -.168E+04   0.110E+01 -.103E+01 0.347E-01   0.316E-02 0.307E-01 0.351E+00
   0.661E+02 -.557E+03 -.506E+04   -.668E+02 0.558E+03 0.506E+04   0.104E+01 -.497E+00 -.107E+01   0.463E-01 -.186E+00 0.480E+00
   0.579E+02 -.187E+03 0.243E+04   -.587E+02 0.191E+03 -.244E+04   0.383E+00 -.443E+01 0.595E+01   0.323E-01 -.150E+00 -.151E+00
   0.544E+02 -.746E+02 -.623E+02   -.554E+02 0.755E+02 0.601E+02   0.887E+00 -.117E+01 0.271E+01   0.696E-02 -.216E-01 -.784E-01
   0.545E+02 -.741E+02 0.120E+04   -.553E+02 0.751E+02 -.120E+04   0.734E+00 -.116E+01 0.275E+01   -.281E-02 0.112E-01 0.613E-03
   0.549E+02 -.771E+02 -.132E+04   -.559E+02 0.780E+02 0.132E+04   0.890E+00 -.124E+01 0.224E+01   0.186E-02 -.231E-01 0.103E+00
   0.549E+02 -.771E+02 0.132E+04   -.559E+02 0.780E+02 -.132E+04   0.890E+00 -.124E+01 -.224E+01   0.186E-02 -.231E-01 -.103E+00
   0.545E+02 -.741E+02 -.120E+04   -.553E+02 0.751E+02 0.120E+04   0.734E+00 -.116E+01 -.275E+01   -.281E-02 0.112E-01 -.586E-03
   0.544E+02 -.746E+02 0.623E+02   -.554E+02 0.755E+02 -.601E+02   0.887E+00 -.117E+01 -.271E+01   0.696E-02 -.216E-01 0.784E-01
   0.579E+02 -.187E+03 -.243E+04   -.587E+02 0.191E+03 0.244E+04   0.383E+00 -.443E+01 -.595E+01   0.323E-01 -.150E+00 0.151E+00
   0.499E+01 0.186E+03 0.190E+04   -.513E+01 -.189E+03 -.190E+04   -.159E-01 0.311E+01 -.455E+00   -.169E-01 0.110E+00 -.276E+00
   0.778E+01 0.171E+03 -.631E+03   -.830E+01 -.173E+03 0.631E+03   0.283E+00 0.286E+01 0.576E-02   -.236E-02 0.176E-01 -.119E+00
   0.778E+01 0.171E+03 0.631E+03   -.830E+01 -.173E+03 -.631E+03   0.283E+00 0.286E+01 -.576E-02   -.236E-02 0.176E-01 0.119E+00
   0.499E+01 0.186E+03 -.190E+04   -.513E+01 -.189E+03 0.190E+04   -.159E-01 0.311E+01 0.455E+00   -.169E-01 0.110E+00 0.276E+00
[...]
   0.778E+01 0.171E+03 0.631E+03   -.830E+01 -.173E+03 -.631E+03   0.283E+00 0.286E+01 -.576E-02   -.236E-02 0.176E-01 0.119E+00
   0.499E+01 0.186E+03 -.190E+04   -.513E+01 -.189E+03 0.190E+04   -.159E-01 0.311E+01 0.455E+00   -.169E-01 0.110E+00 0.276E+00
   0.579E+02 -.187E+03 0.243E+04   -.587E+02 0.191E+03 -.244E+04   0.383E+00 -.443E+01 0.595E+01   0.323E-01 -.150E+00 -.151E+00
   0.544E+02 -.746E+02 -.623E+02   -.554E+02 0.755E+02 0.601E+02   0.887E+00 -.117E+01 0.271E+01   0.696E-02 -.216E-01 -.784E-01
   0.545E+02 -.741E+02 0.120E+04   -.553E+02 0.751E+02 -.120E+04   0.734E+00 -.116E+01 0.275E+01   -.281E-02 0.112E-01 0.613E-03
   0.549E+02 -.771E+02 -.132E+04   -.559E+02 0.780E+02 0.132E+04   0.890E+00 -.124E+01 0.224E+01   0.186E-02 -.231E-01 0.103E+00
   0.549E+02 -.771E+02 0.132E+04   -.559E+02 0.780E+02 -.132E+04   0.890E+00 -.124E+01 -.224E+01   0.186E-02 -.231E-01 -.103E+00
   0.545E+02 -.741E+02 -.120E+04   -.553E+02 0.751E+02 0.120E+04   0.734E+00 -.116E+01 -.275E+01   -.281E-02 0.112E-01 -.586E-03
   0.544E+02 -.746E+02 0.623E+02   -.554E+02 0.755E+02 -.601E+02   0.887E+00 -.117E+01 -.271E+01   0.696E-02 -.216E-01 0.784E-01
   0.579E+02 -.187E+03 -.243E+04   -.587E+02 0.191E+03 0.244E+04   0.383E+00 -.443E+01 -.595E+01   0.323E-01 -.150E+00 0.151E+00
   0.499E+01 0.186E+03 0.190E+04   -.513E+01 -.189E+03 -.190E+04   -.159E-01 0.311E+01 -.455E+00   -.169E-01 0.110E+00 -.276E+00
   0.778E+01 0.171E+03 -.631E+03   -.830E+01 -.173E+03 0.631E+03   0.283E+00 0.286E+01 0.576E-02   -.236E-02 0.176E-01 -.119E+00
   0.778E+01 0.171E+03 0.631E+03   -.830E+01 -.173E+03 -.631E+03   0.283E+00 0.286E+01 -.576E-02   -.236E-02 0.176E-01 0.119E+00
   0.499E+01 0.186E+03 -.190E+04   -.513E+01 -.189E+03 0.190E+04   -.159E-01 0.311E+01 0.455E+00   -.169E-01 0.110E+00 0.276E+00
   -.808E+02 0.365E+02 -.129E+00   -.986E-13 0.796E-12 -.141E-10   0.794E+02 -.335E+02 -.178E-14   0.850E+00 -.292E+01 0.219E-02

 POSITION                                       TOTAL-FORCE (eV/Angst)
      1.58120      0.48447      2.87657         0.015977      0.324873     -0.054836
      1.58120      0.48447     12.45498         0.091649      0.167403     -0.336474
      0.03892      3.00675      7.66577         0.060991      0.170506     -0.344735
      0.03892      3.00675     17.24418         0.284581      0.800003     -1.238175
      1.58120      0.48447      0.34590         0.284581      0.800003      1.238175
      1.58120      0.48447      9.92431         0.060991      0.170506      0.344735
      0.03892      3.00675      5.13510         0.091649      0.167403      0.336474
      0.03892      3.00675     14.71351         0.015977      0.324873      0.054836
      1.17372      2.63788      1.61123         0.347180     -0.492126      0.338882
      1.17372      2.63788     11.18964         0.235362     -0.336847      0.004520
      2.71599      5.74383      6.40044         0.235362     -0.336847     -0.004520
      2.71599      5.74383     15.97885         0.347180     -0.492126     -0.338882
      4.66574      1.06813      2.87657         0.015977      0.324873     -0.054836
      4.66574      1.06813     12.45498         0.091649      0.167403     -0.336474
      3.12347      3.59042      7.66577         0.060991      0.170506     -0.344735
      3.12347      3.59042     17.24418         0.284581      0.800003     -1.238175
      4.66574      1.06813      0.34590         0.284581      0.800003      1.238175
      4.66574      1.06813      9.92431         0.060991      0.170506      0.344735
      3.12347      3.59042      5.13510         0.091649      0.167403      0.336474
      3.12347      3.59042     14.71351         0.015977      0.324873      0.054836
      4.25826      3.22155      1.61123         0.347180     -0.492126      0.338882
      4.25826      3.22155     11.18964         0.235362     -0.336847      0.004520
      5.80053      6.32750      6.40044         0.235362     -0.336847     -0.004520
      5.80053      6.32750     15.97885         0.347180     -0.492126     -0.338882
      1.58120      6.11270      2.87657         0.015977      0.324873     -0.054836
      1.58120      6.11270     12.45498         0.091649      0.167403     -0.336474
      0.03892      8.63498      7.66577         0.060991      0.170506     -0.344735
      0.03892      8.63498     17.24418         0.284581      0.800003     -1.238175
      1.58120      6.11270      0.34590         0.284581      0.800003      1.238175
      1.58120      6.11270      9.92431         0.060991      0.170506      0.344735
      0.03892      8.63498      5.13510         0.091649      0.167403      0.336474
      0.03892      8.63498     14.71351         0.015977      0.324873      0.054836
      1.17372      8.26611      1.61123         0.347180     -0.492126      0.338882
      1.17372      8.26611     11.18964         0.235362     -0.336847      0.004520
      2.71599     11.37206      6.40044         0.235362     -0.336847     -0.004520
      2.71599     11.37206     15.97885         0.347180     -0.492126     -0.338882
      4.66574      6.69637      2.87657         0.015977      0.324873     -0.054836
      4.66574      6.69637     12.45498         0.091649      0.167403     -0.336474
      3.12347      9.21865      7.66577         0.060991      0.170506     -0.344735
      3.12347      9.21865     17.24418         0.284581      0.800003     -1.238175
      4.66574      6.69637      0.34590         0.284581      0.800003      1.238175
      4.66574      6.69637      9.92431         0.060991      0.170506      0.344735
      3.12347      9.21865      5.13510         0.091649      0.167403      0.336474
      3.12347      9.21865     14.71351         0.015977      0.324873      0.054836
      4.25826      8.84978      1.61123         0.347180     -0.492126      0.338882
      4.25826      8.84978     11.18964         0.235362     -0.336847      0.004520
      5.80053     11.95573      6.40044         0.235362     -0.336847     -0.004520
      5.80053     11.95573     15.97885         0.347180     -0.492126     -0.338882
      2.88963      2.42231      0.00000        -0.411397     -0.856933     -0.248173
      2.88963      2.42231      9.57841        -0.058275     -0.280067      0.396275
      1.34735      4.94459      4.78920        -0.078565     -0.202226      0.315558
      1.34735      4.94459     14.36762        -0.091446     -0.404888      0.595658
      2.88963      2.42231      3.22246        -0.091446     -0.404888     -0.595658
      2.88963      2.42231     12.80087        -0.078565     -0.202226     -0.315558
      1.34735      4.94459      8.01167        -0.058275     -0.280067     -0.396275
      1.34735      4.94459     17.59008        -0.411397     -0.856933      0.248173
      0.32395      4.72480      1.61123        -0.164668      0.618987     -0.868734
      0.32395      4.72480     11.18964        -0.231389      0.491314     -0.029699
      1.86622      2.20252      6.40044        -0.231389      0.491314      0.029699
      1.86622      2.20252     15.97885        -0.164668      0.618987      0.868734
[...]
      0.32395     10.35303     11.18964        -0.231389      0.491314     -0.029699
      1.86622      7.83075      6.40044        -0.231389      0.491314      0.029699
      1.86622      7.83075     15.97885        -0.164668      0.618987      0.868734
      5.97417      8.63421      0.00000        -0.411397     -0.856933     -0.248173
      5.97417      8.63421      9.57841        -0.058275     -0.280067      0.396275
      4.43190     11.15649      4.78920        -0.078565     -0.202226      0.315558
      4.43190     11.15649     14.36762        -0.091446     -0.404888      0.595658
      5.97417      8.63421      3.22246        -0.091446     -0.404888     -0.595658
      5.97417      8.63421     12.80087        -0.078565     -0.202226     -0.315558
      4.43190     11.15649      8.01167        -0.058275     -0.280067     -0.396275
      4.43190     11.15649     17.59008        -0.411397     -0.856933      0.248173
      3.40849     10.93670      1.61123        -0.164668      0.618987     -0.868734
      3.40849     10.93670     11.18964        -0.231389      0.491314     -0.029699
      4.95076      8.41442      6.40044        -0.231389      0.491314      0.029699
      4.95076      8.41442     15.97885        -0.164668      0.618987      0.868734
    total drift:                               -0.529844      0.101752     -0.126512

  FREE ENERGIE OF THE ION-ELECTRON SYSTEM (eV)
  free  energy   TOTEN  =      -489.17663059 eV

  energy  without entropy=     -488.18964825  energy(sigma->0) =     -488.68313942