 vasp.5.4.4.18Apr17-6-g9f103f2a35 (build Aug 13 2019 17:33:20) gamma-only

 executed on             LinuxIFC date 2020.05.12  04:44:04

 INCAR:
 POTCAR:    PAW_PBE Ni_pv 06Sep2000
 POTCAR:    PAW_PBE S 06Sep2000
 POTCAR:    PAW_PBE Ni_pv 06Sep2000
   VRHFIN =Ni:

   TITEL  = PAW_PBE Ni_pv 06Sep2000
   POMASS =   58.690; ZVAL   =   16.000    mass and valenz
   ENMAX  =  367.986; ENMIN  =  275.989 eV

 POTCAR:    PAW_PBE S 06Sep2000
   VRHFIN =S : s2p4

   TITEL  = PAW_PBE S 06Sep2000
   POMASS =   32.066; ZVAL   =    6.000    mass and valenz
   ENMAX  =  258.689; ENMIN  =  194.016 eV

 Optimization of the real space projectors (new method)

 maximal supplied QI-value         = 18.90
 optimisation between [QCUT,QGAM] = [ 10.77, 21.73] = [ 32.49,132.25] Ry
 Optimized for a Real-space Cutoff    1.38 Angstroem

   l    n(q)    QCUT    max X(q) W(low)/X(q) W(high)/X(q)  e(spline)
   1      8    10.771     2.836    0.40E-04    0.29E-04    0.12E-06
   1      8    10.771     4.023    0.10E-03    0.48E-04    0.29E-06
   2      8    10.771    73.368    0.42E-03    0.97E-04    0.44E-06
   2      8    10.771    69.010    0.42E-03    0.99E-04    0.45E-06
   0      9    10.771    54.797    0.10E-03    0.56E-04    0.74E-07
   0      9    10.771    24.266    0.89E-04    0.49E-04    0.67E-07
 Optimization of the real space projectors (new method)

 maximal supplied QI-value         = 19.84
 optimisation between [QCUT,QGAM] = [ 10.71, 21.63] = [ 32.15,130.99] Ry
 Optimized for a Real-space Cutoff    1.19 Angstroem

   l    n(q)    QCUT    max X(q) W(low)/X(q) W(high)/X(q)  e(spline)
   0      8    10.715   187.594    0.41E-03    0.53E-04    0.66E-07
   0      8    10.715   164.243    0.41E-03    0.53E-04    0.65E-07
   1      7    10.715    67.533    0.19E-03    0.59E-03    0.68E-07
   1      7    10.715    50.729    0.19E-03    0.58E-03    0.67E-07
  PAW_PBE Ni_pv 06Sep2000               :
  PAW_PBE S 06Sep2000                   :

 POSCAR: Type_037 Type_137
  positions in cartesian coordinates
 exchange correlation table for  LEXCH =        8
   RHO(1)=    0.500       N(1)  =     2000
   RHO(2)=  100.500       N(2)  =     4000

 ion  position               nearest neighbor table
   1  0.780  0.145  0.123-  51 2.07  65 2.08  42 2.25  52 2.36  66 2.36
   2  0.800  0.146  0.284-  52 2.04  66 2.05  43 2.07
   3  0.215  0.625  0.099-  44 2.03  45 2.12  63 2.19   4 2.40  53 2.46  16 2.47
   4  0.297  0.645  0.216-  54 2.10  64 2.13  45 2.25  53 2.26  63 2.26   3 2.40  30 2.53  17 2.53

   5  0.391  0.130  0.128-  47 2.04  48 2.08  69 2.19   6 2.39  55 2.40  31 2.45
   6  0.470  0.145  0.247-  70 2.03  56 2.08  55 2.26  69 2.26  48 2.37   5 2.39  32 2.53  20 2.53

   7  0.952  0.645  0.154-  68 2.07  58 2.07  49 2.25  57 2.36  67 2.36  33 2.53  21 2.53
   8  0.975  0.645  0.318-  46 2.05  67 2.06  57 2.06  50 2.10
   9  0.171  0.147  0.047-  47 2.00  73 2.05  59 2.05  10 2.43
  10  0.125  0.145  0.185-  60 2.11  73 2.15  59 2.16  39 2.25  11 2.35  74 2.36   9 2.43  35 2.53
                            23 2.53
  11  0.070  0.104  0.313-  38 2.04  60 2.08  74 2.22  10 2.35  15 2.47  39 2.56
  12  0.580  0.649  0.150-  40 2.04  61 2.12  41 2.12  71 2.17  13 2.37
  13  0.642  0.645  0.278-  62 2.03  72 2.03  41 2.21  61 2.26  71 2.26  12 2.37  37 2.53  26 2.53

[...]

  38  0.962  0.141  0.364-  11 2.04  28 2.05  15 2.05
  39  0.991  0.145  0.183-  28 2.08  15 2.12  27 2.20  14 2.21  10 2.25  11 2.56
  40  0.474  0.645  0.091-  16 2.03  12 2.04  29 2.12  17 2.26  30 2.26
  41  0.513  0.646  0.258-  18 2.06  12 2.12  13 2.21  30 2.23  17 2.25
  42  0.647  0.145  0.122-  31 2.02   1 2.25  20 2.26  32 2.26  19 2.50  43 2.75
  43  0.677  0.146  0.284-   2 2.07  32 2.10  20 2.12  42 2.75
  44  0.112  0.646  0.038-   3 2.03  33 2.06  21 2.06
  45  0.164  0.645  0.214-  22 2.09  34 2.09   3 2.12   4 2.25  33 2.36  21 2.36
  46  0.080  0.639  0.379-   8 2.05  22 2.05  34 2.05
  47  0.288  0.148  0.063-   9 2.00   5 2.04  35 2.13  23 2.16
  48  0.330  0.154  0.236-  24 2.05   5 2.08  35 2.16  23 2.25   6 2.37
  49  0.819  0.645  0.153-  25 2.20   7 2.25  26 2.26  37 2.26  36 2.37  50 2.72
  50  0.851  0.645  0.313-   8 2.10  26 2.11  37 2.11  49 2.72
  51  0.816  0.294  0.041-  25 2.02  27 2.06   1 2.07
  52  0.829  0.314  0.215-   2 2.04  27 2.10  25 2.14  28 2.18  26 2.25   1 2.36
  53  0.312  0.814  0.122-  16 2.03  23 2.25   4 2.26  30 2.26   3 2.46  29 2.55
  54  0.349  0.798  0.290-  24 2.01  30 2.09   4 2.10  64 2.77
  55  0.484  0.314  0.153-  31 2.05  17 2.25   6 2.26  32 2.26   5 2.40
  56  0.526  0.286  0.323-  18 2.00  32 2.07   6 2.08  70 2.77
  57  0.001  0.814  0.246-   8 2.06  34 2.06  15 2.17  33 2.36   7 2.36  58 2.76
  58  0.968  0.821  0.083-   7 2.07  33 2.09  14 2.10  57 2.76
  59  0.142  0.325  0.109-   9 2.05  35 2.10  21 2.11  10 2.16
  60  0.135  0.281  0.285-  11 2.08  10 2.11  22 2.12
  61  0.657  0.814  0.184-  19 2.09  12 2.12  36 2.20  20 2.25  37 2.26  13 2.26
  62  0.696  0.789  0.349-  37 2.02  13 2.03  72 2.78
  63  0.312  0.477  0.122-  16 2.04   3 2.19  35 2.25   4 2.26  17 2.26
  64  0.360  0.509  0.295-  17 2.05  18 2.05   4 2.13  54 2.77
  65  0.817  0.998  0.040-  36 2.02  14 2.06   1 2.08
  66  0.829  0.977  0.215-   2 2.05  14 2.11  15 2.11  36 2.15  37 2.25   1 2.36
  67  0.001  0.477  0.246-  22 2.05   8 2.06  28 2.18  21 2.36   7 2.36  68 2.77
  68  0.967  0.470  0.083-   7 2.07  27 2.10  21 2.10  67 2.77
  69  0.484  0.977  0.153-  31 2.08  29 2.08  19 2.16   5 2.19  30 2.25   6 2.26  20 2.26
  70  0.522  0.997  0.317-  20 2.03   6 2.03  56 2.77
  71  0.657  0.477  0.184-  12 2.17  32 2.25  26 2.26  13 2.26  25 2.31
  72  0.695  0.498  0.347-  26 2.02  13 2.03  62 2.78
  73  0.140  0.969  0.107-   9 2.05  33 2.13  23 2.14  10 2.15
  74  0.174  0.977  0.276-  24 2.06  34 2.13  11 2.22  10 2.36  23 2.36

  LATTYP: Found a simple orthorhombic cell.
 ALAT       =     9.5784100000
 B/A-ratio  =     1.7387693453
 C/A-ratio  =     1.7627867312

  Lattice vectors:

 A1 = (   0.0000000000,   9.5784100000,   0.0000000000)
 A2 = (   0.0000000000,   0.0000000000, -16.6546456851)
 A3 = ( -16.8846940542,   0.0000000000,   0.0000000000)

Analysis of symmetry for initial positions (statically):
 Subroutine PRICEL returns:
 Original cell was already a primitive cell.

 Routine SETGRP: Setting up the symmetry group for a
 simple orthorhombic supercell.

 Subroutine GETGRP returns: Found  1 space group operations
 (whereof  1 operations were pure point group operations)
 out of a pool of  8 trial point group operations.

The static configuration has the point symmetry C_1 .

Analysis of symmetry for dynamics (positions and initial velocities):
 Subroutine PRICEL returns:
 Original cell was already a primitive cell.

 Routine SETGRP: Setting up the symmetry group for a
 simple orthorhombic supercell.

 Subroutine GETGRP returns: Found  1 space group operations
 (whereof  1 operations were pure point group operations)
 out of a pool of  8 trial point group operations.

The dynamic configuration has the point symmetry C_1 .

 Subroutine INISYM returns: Found  1 space group operations
 (whereof  1 operations are pure point group operations),
 and found     1 'primitive' translations

 KPOINTS: gamma-point-only calculation. no periodi

Automatic generation of k-mesh.
Space group operators:
 irot       det(A)        alpha          n_x          n_y          n_z        tau_x        tau_y        tau_z
    1     1.000000     0.000000     1.000000     0.000000     0.000000     0.000000     0.000000     0.000000

 Subroutine IBZKPT returns following result:

 Found      1 irreducible k-points:

 Following reciprocal coordinates:
            Coordinates               Weight
  0.000000  0.000000  0.000000      1.000000

 Following cartesian coordinates:
            Coordinates               Weight
  0.000000  0.000000  0.000000      1.000000

 SYSTEM =  "Millerite NiS"
 POSCAR =  Type_037 Type_137

 Startparameter for this run:
   NWRITE =      2    write-flag & timer
   PREC   = normal    normal or accurate (medium, high low for compatibility)
   ISTART =      0    job   : 0-new  1-cont  2-samecut
   ICHARG =      2    charge: 1-file 2-atom 10-const
   ISPIN  =      1    spin polarized calculation?
   LNONCOLLINEAR =      F non collinear calculations
   LSORBIT =      F    spin-orbit coupling
   INIWAV =      1    electr: 0-lowe 1-rand  2-diag
   LASPH  =      F    aspherical Exc in radial PAW
   METAGGA=      F    non-selfconsistent MetaGGA calc.

 Electronic Relaxation 1
   ENCUT  =  450.0 eV  33.07 Ry    5.75 a.u.  29.20 16.57 28.81*2*pi/ulx,y,z
   ENINI  =  450.0     initial cutoff
   ENAUG  =  703.4 eV  augmentation charge cutoff
   NELM   =    100;   NELMIN=  2; NELMDL= -5     # of ELM steps
   EDIFF  = 0.1E-03   stopping-criterion for ELM
   LREAL  =      T    real-space projection
   NLSPLINE    = F    spline interpolate recip. space projectors
   LCOMPAT=      F    compatible to vasp.4.4
   GGA_COMPAT  = T    GGA compatible to vasp.4.4-vasp.4.6
   LMAXPAW     = -100 max onsite density
   LMAXMIX     =    2 max onsite mixed and CHGCAR
   VOSKOWN=      0    Vosko Wilk Nusair interpolation
   ROPT   =   -0.00050  -0.00050
 Ionic relaxation
   EDIFFG = 0.1E-02   stopping-criterion for IOM
   NSW    =      0    number of steps for IOM
   NBLOCK =      1;   KBLOCK =      1    inner block; outer block
   IBRION =     -1    ionic relax: 0-MD 1-quasi-New 2-CG
   NFREE  =      0    steps in history (QN), initial steepest desc. (CG)
   ISIF   =      2    stress and relaxation
   IWAVPR =     10    prediction:  0-non 1-charg 2-wave 3-comb
   ISYM   =      2    0-nonsym 1-usesym 2-fastsym
   LCORR  =      T    Harris-Foulkes like correction to forces

   POTIM  = 0.5000    time-step for ionic-motion
   TEIN   =    0.0    initial temperature
   TEBEG  =    0.0;   TEEND  =   0.0 temperature during run
   SMASS  =  -3.00    Nose mass-parameter (am)
   estimated Nose-frequenzy (Omega)   =  0.10E-29 period in steps =****** mass=  -0.652E-26a.u.
   SCALEE = 1.0000    scale energy and forces
   NPACO  =    256;   APACO  = 16.0  distance and # of slots for P.C.
   PSTRESS=    0.0 pullay stress

  Mass of Ions in am
   POMASS =  58.69 32.07
  Ionic Valenz
   ZVAL   =  16.00  6.00
  Atomic Wigner-Seitz radii
  virtual crystal weights
   VCA    =   1.00  1.00
   NELECT =     814.0000    total number of electrons
   NUPDOWN=      -1.0000    fix difference up-down

 DOS related values:
   EMIN   =  10.00;   EMAX   =-10.00  energy-range for DOS
   EFERMI =   0.00
   ISMEAR =     0;   SIGMA  =   0.20  broadening in eV -4-tet -1-fermi 0-gaus

 Electronic relaxation 2 (details)
   IALGO  =     38    algorithm
   LDIAG  =      T    sub-space diagonalisation (order eigenvalues)
   LSUBROT=      F    optimize rotation matrix (better conditioning)
   TURBO    =      0    0=normal 1=particle mesh
   IRESTART =      0    0=no restart 2=restart with 2 vectors
   NREBOOT  =      0    no. of reboots
   NMIN     =      0    reboot dimension
   EREF     =   0.00    reference energy to select bands
   IMIX   =      4    mixing-type and parameters
     AMIX     =   0.40;   BMIX     =  1.00
     AMIX_MAG =   1.60;   BMIX_MAG =  1.00
[...]
     0.000000000  9.578410000  0.000000000     0.000000000  0.104401461  0.000000000
     0.000000000  0.000000000 16.654645685     0.000000000  0.000000000  0.060043307

  length of vectors
    16.884694054  9.578410000 16.654645685     0.059225237  0.104401461  0.060043307

 FORCES acting on ions
    electron-ion (+dipol)            ewald-force                    non-local-force                 convergence-correction
   0.668E+03 -.155E+03 0.205E+04   -.672E+03 0.155E+03 -.206E+04   0.364E+01 0.115E+00 0.550E+01   -.500E-01 -.164E+00 -.300E-01
   0.536E+03 -.482E+02 -.301E+04   -.541E+03 0.483E+02 0.301E+04   0.495E+01 -.256E-01 0.180E+01   -.196E+00 -.995E-01 -.646E-01
   0.365E+02 0.128E+03 0.272E+04   -.367E+02 -.128E+03 -.273E+04   0.125E+01 0.530E+00 0.747E+01   -.369E-01 -.101E-01 -.436E-01
   0.326E+03 0.232E+03 -.151E+04   -.329E+03 -.232E+03 0.151E+04   0.268E+01 -.115E+00 -.511E+01   0.528E-01 -.161E-01 0.832E-01
   0.768E+02 -.399E+03 0.198E+04   -.754E+02 0.400E+03 -.198E+04   -.932E+00 -.325E+00 0.383E+01   0.151E+00 0.788E-02 -.352E-01
   0.477E+03 -.138E+03 -.223E+04   -.481E+03 0.139E+03 0.224E+04   0.274E+01 -.674E+00 -.753E+01   0.208E+00 -.456E-01 0.124E+00
   0.655E+03 0.154E+02 0.134E+04   -.661E+03 -.153E+02 -.134E+04   0.518E+01 -.874E-01 0.427E+01   -.141E+00 0.531E-01 -.234E-01
   0.559E+03 0.484E+02 -.332E+04   -.564E+03 -.489E+02 0.333E+04   0.348E+01 0.428E+00 -.393E+01   -.163E+00 0.641E-02 0.491E-01
   0.375E+03 -.544E+02 0.409E+04   -.378E+03 0.544E+02 -.410E+04   0.298E+01 0.252E+00 0.399E+01   -.892E-02 0.377E-02 -.118E+00
   0.274E+03 -.142E+03 0.183E+03   -.276E+03 0.142E+03 -.184E+03   0.189E+01 -.526E+00 0.639E+00   0.143E-01 0.117E-01 -.898E-01
   -.445E+03 -.579E+01 -.341E+04   0.446E+03 0.706E+01 0.342E+04   0.313E+00 -.184E+01 -.506E+01   -.192E-01 -.222E-01 0.982E-01
   -.335E+03 0.534E+03 0.174E+04   0.337E+03 -.535E+03 -.174E+04   -.167E+01 0.137E+01 0.368E+01   0.115E+00 0.665E-01 -.293E-01
   0.417E+03 0.137E+02 -.254E+04   -.419E+03 -.135E+02 0.254E+04   0.186E+01 -.261E+00 -.750E+01   0.414E-01 0.937E-01 -.409E-02
   -.422E+03 0.248E+03 0.250E+04   0.428E+03 -.251E+03 -.250E+04   -.484E+01 0.298E+01 0.584E+01   -.266E+00 -.342E-01 -.845E-01
   0.208E+03 0.549E+03 -.223E+04   -.206E+03 -.553E+03 0.223E+04   -.152E+01 0.295E+01 -.483E+01   -.269E+00 -.111E+00 -.784E-01
   -.360E+02 0.473E+03 0.380E+04   0.342E+02 -.473E+03 -.381E+04   0.145E+01 0.326E+00 0.543E+01   0.952E-01 -.171E-01 -.126E+00
   -.159E+03 0.724E+03 0.106E+03   0.158E+03 -.729E+03 -.108E+03   0.595E+00 0.450E+01 -.100E+01   0.105E+00 -.373E-01 0.557E-01
   0.527E+02 0.598E+02 -.365E+04   -.530E+02 -.633E+02 0.365E+04   0.271E+00 0.417E+01 0.201E+01   0.831E-01 -.717E-01 0.969E-01
   -.590E+03 0.288E+03 0.317E+04   0.588E+03 -.288E+03 -.317E+04   0.194E+01 0.330E-01 0.167E+01   0.154E+00 0.723E-01 -.165E-01
   -.369E+03 0.270E+03 -.147E+04   0.373E+03 -.273E+03 0.148E+04   -.337E+01 0.395E+01 -.633E+01   0.956E-01 0.302E-01 0.478E-01
   0.477E+02 0.572E+03 0.189E+04   -.494E+02 -.575E+03 -.190E+04   0.175E+01 0.280E+01 0.446E+01   -.122E+00 0.343E-01 -.387E-01
   -.694E+03 0.518E+03 -.279E+04   0.697E+03 -.523E+03 0.279E+04   -.182E+01 0.392E+01 -.412E+01   -.217E-01 0.268E-01 0.842E-01
   -.115E+03 0.430E+03 0.786E+03   0.115E+03 -.434E+03 -.787E+03   0.326E+00 0.345E+01 0.917E+00   0.518E-01 0.244E-01 -.245E-01
   -.286E+03 -.121E+03 -.346E+04   0.286E+03 0.118E+03 0.345E+04   -.994E-01 0.252E+01 0.280E+01   0.110E+00 0.230E-01 0.125E+00
   0.528E+03 -.405E+03 0.256E+04   -.531E+03 0.407E+03 -.257E+04   0.163E+01 -.179E+01 0.767E+01   -.195E-01 -.372E-01 -.481E-01
   -.779E+02 0.353E+03 -.178E+04   0.803E+02 -.356E+03 0.178E+04   -.179E+01 0.258E+01 -.549E+01   0.129E-01 0.856E-01 0.273E-02
   -.413E+03 -.257E+03 0.245E+04   0.419E+03 0.259E+03 -.246E+04   -.472E+01 -.291E+01 0.613E+01   -.163E+00 -.849E-01 -.123E+00
   0.663E+02 -.601E+03 -.230E+04   -.655E+02 0.605E+03 0.231E+04   -.166E+01 -.256E+01 -.498E+01   -.187E+00 0.339E-01 -.305E-01
   -.434E+02 -.198E+03 0.387E+04   0.462E+02 0.196E+03 -.387E+04   -.321E+01 0.177E+01 -.654E+00   0.172E+00 0.659E-01 -.900E-01
   -.221E+03 -.292E+03 -.791E+03   0.221E+03 0.295E+03 0.796E+03   0.130E-01 -.334E+01 -.474E+01   0.145E+00 0.474E-01 0.728E-01
   -.221E+03 -.767E+03 0.337E+04   0.221E+03 0.769E+03 -.338E+04   -.186E+00 -.202E+01 0.552E+01   0.177E+00 -.313E-01 -.208E-01
   -.369E+03 -.590E+03 -.815E+03   0.372E+03 0.596E+03 0.816E+03   -.283E+01 -.546E+01 -.261E+01   0.721E-01 -.125E+00 0.390E-01
   0.419E+01 -.513E+03 0.195E+04   -.507E+01 0.516E+03 -.195E+04   0.120E+01 -.298E+01 0.456E+01   -.152E+00 -.192E-01 -.647E-01
   -.518E+03 -.281E+03 -.284E+04   0.521E+03 0.287E+03 0.284E+04   -.241E+01 -.382E+01 -.408E+01   -.563E-01 -.659E-01 0.689E-01
   -.344E+03 -.733E+03 0.344E+03   0.345E+03 0.737E+03 -.343E+03   0.447E+00 -.302E+01 -.958E-01   0.543E-01 0.696E-02 0.873E-02
   0.205E+03 0.493E+03 0.248E+04   -.207E+03 -.495E+03 -.249E+04   0.135E+01 0.115E+01 0.772E+01   -.741E-02 0.930E-01 -.308E-01
   -.144E+03 -.270E+03 -.183E+04   0.148E+03 0.272E+03 0.183E+04   -.221E+01 -.265E+01 -.631E+01   -.636E-02 0.858E-01 -.953E-01
   0.134E+03 -.520E+02 -.178E+04   -.134E+03 0.525E+02 0.178E+04   -.967E+00 -.225E+00 -.183E+01   -.734E-01 -.136E-01 0.830E-01
   -.192E+03 -.229E+02 0.382E+03   0.194E+03 0.233E+02 -.386E+03   0.137E+00 -.727E+00 0.127E+01   -.819E-01 -.267E-01 -.760E-01
   -.303E+03 0.356E+03 0.123E+04   0.306E+03 -.360E+03 -.123E+04   -.138E+01 0.279E+01 0.265E+01   0.637E-01 -.105E-02 -.337E-01
   -.312E+02 -.147E+03 -.919E+03   0.305E+02 0.149E+03 0.925E+03   0.918E+00 -.126E+01 -.374E+01   0.318E-01 0.160E-01 0.269E-01
   -.212E+03 -.210E+03 0.920E+03   0.215E+03 0.212E+03 -.923E+03   -.610E+00 -.211E+01 0.181E+01   0.358E-01 -.309E-01 -.267E-02
   -.263E+02 -.191E+02 -.116E+04   0.274E+02 0.193E+02 0.117E+04   -.305E+00 -.289E+00 -.246E+01   -.481E-02 -.245E-01 -.586E-02
   0.951E+02 -.159E+02 0.174E+04   -.952E+02 0.161E+02 -.175E+04   0.367E+00 -.202E+00 0.194E+01   -.434E-01 0.450E-02 -.495E-01
   -.198E+03 0.291E+02 -.352E+03   0.199E+03 -.292E+02 0.354E+03   0.363E+00 0.181E+00 -.269E+01   -.133E-01 -.164E-01 0.492E-02
   -.162E+03 0.439E+02 -.177E+04   0.163E+03 -.440E+02 0.178E+04   0.203E+00 0.116E+00 -.113E+01   -.265E-01 -.177E-01 0.692E-01
   -.212E+03 -.889E+02 0.152E+04   0.214E+03 0.889E+02 -.152E+04   -.359E+00 -.183E+00 0.317E+01   0.286E-01 0.666E-02 -.441E-01
   -.619E+02 -.285E+03 -.841E+03   0.614E+02 0.288E+03 0.847E+03   0.120E+01 -.178E+01 -.305E+01   0.298E-01 0.968E-02 0.257E-01
   -.230E+01 -.148E+02 0.707E+03   0.331E+01 0.149E+02 -.711E+03   -.649E+00 0.246E+00 0.231E+01   -.139E-01 0.726E-01 -.289E-02
   -.110E+02 0.101E+02 -.129E+04   0.128E+02 -.101E+02 0.129E+04   -.939E+00 -.327E-01 -.251E+01   -.154E-01 0.282E-01 -.484E-02
   0.112E+03 -.112E+03 0.172E+04   -.112E+03 0.113E+03 -.173E+04   -.331E+00 -.353E+00 0.254E+01   -.176E-01 -.593E-01 -.240E-01
   0.137E+03 -.157E+03 -.364E+03   -.137E+03 0.158E+03 0.368E+03   -.613E+00 0.736E+00 -.207E+01   -.525E-01 -.482E-01 -.252E-01
   0.182E+03 -.230E+03 0.745E+03   -.184E+03 0.232E+03 -.746E+03   0.108E+01 -.800E+00 0.217E+00   0.198E-01 0.189E-01 -.459E-02
   -.869E+02 0.252E+02 -.134E+04   0.877E+02 -.235E+02 0.135E+04   -.593E+00 -.138E+01 -.270E+01   0.415E-01 -.175E-03 0.450E-01
   0.217E+02 -.324E+03 0.583E+03   -.218E+02 0.326E+03 -.584E+03   -.991E+00 -.187E+01 0.162E+01   0.599E-01 -.197E-01 -.969E-02
   -.348E+02 0.552E+02 -.149E+04   0.358E+02 -.531E+02 0.150E+04   -.946E+00 -.215E+01 -.206E+01   0.371E-01 -.320E-01 0.409E-01
   0.136E+03 -.131E+03 -.461E+03   -.138E+03 0.133E+03 0.460E+03   0.390E+00 -.638E+00 -.449E+00   -.794E-01 -.350E-01 -.198E-01
   0.113E+03 -.397E+02 0.136E+04   -.114E+03 0.393E+02 -.136E+04   0.959E+00 0.126E+01 0.412E+01   -.705E-01 0.125E-01 -.100E-01
   0.131E+03 -.184E+03 0.935E+03   -.131E+03 0.185E+03 -.937E+03   -.135E+01 -.208E+00 0.107E+01   -.129E-01 0.170E-01 -.219E-01
   -.301E+03 -.153E+03 -.108E+04   0.303E+03 0.154E+03 0.108E+04   -.824E+00 -.197E+00 -.462E+00   0.344E-01 0.455E-01 0.271E-01
   -.568E+02 0.260E+02 0.816E+02   0.559E+02 -.240E+02 -.817E+02   0.116E+01 -.956E+00 -.324E+00   0.557E-01 0.483E-01 -.225E-01
   0.971E+02 -.239E+03 -.162E+04   -.982E+02 0.243E+03 0.162E+04   0.543E+00 -.243E+01 -.596E+00   0.538E-02 0.314E-01 -.272E-02
   -.318E+02 0.379E+03 0.742E+03   0.319E+02 -.382E+03 -.744E+03   -.110E+01 0.119E+01 0.240E+01   0.209E-01 -.288E-01 -.268E-02
   0.290E+03 0.186E+03 -.132E+04   -.292E+03 -.190E+03 0.132E+04   0.897E+00 0.238E+01 -.157E+01   0.249E-01 -.673E-02 0.495E-01
   0.433E+02 0.908E+02 0.174E+04   -.432E+02 -.918E+02 -.175E+04   -.399E+00 0.107E+00 0.255E+01   -.385E-01 -.116E-01 0.363E-01
   0.121E+03 0.153E+03 -.364E+03   -.121E+03 -.153E+03 0.368E+03   -.105E+01 -.102E+01 -.219E+01   -.718E-01 -.109E-01 -.660E-01
   0.128E+03 0.169E+03 -.481E+03   -.130E+03 -.172E+03 0.480E+03   0.828E+00 0.981E+00 -.246E+00   -.354E-01 0.580E-01 -.354E-02
   0.107E+03 0.464E+02 0.135E+04   -.108E+03 -.459E+02 -.136E+04   0.117E+01 -.117E+01 0.397E+01   -.423E-01 0.910E-02 -.198E-01
   0.709E+02 0.671E+02 0.199E+03   -.729E+02 -.693E+02 -.197E+03   0.999E+00 0.960E+00 -.169E+01   0.810E-01 0.957E-02 0.204E-02
   0.617E+02 0.210E+03 -.154E+04   -.625E+02 -.213E+03 0.155E+04   0.426E+00 0.150E+01 -.863E+00   0.458E-01 0.478E-02 0.439E-01
   0.850E+02 0.145E+03 0.350E+03   -.873E+02 -.147E+03 -.352E+03   0.237E+01 0.101E+01 0.145E+01   -.111E-02 -.121E-01 -.349E-02
   0.679E+02 0.243E+03 -.158E+04   -.687E+02 -.246E+03 0.159E+04   0.293E+00 0.238E+01 -.942E+00   -.383E-02 -.400E-02 0.218E-01
   0.162E+03 0.189E+03 0.101E+04   -.162E+03 -.190E+03 -.101E+04   -.336E+00 0.664E-01 0.142E+01   -.251E-01 -.198E-01 -.317E-01
   -.889E+02 0.189E+02 -.971E+03   0.891E+02 -.213E+02 0.973E+03   -.607E+00 0.233E+01 -.568E+00   0.356E-01 -.920E-02 0.179E-01
   -.850E+01 -.357E+01 -.116E+02   -.232E-11 0.257E-11 -.114E-12   0.860E+01 0.365E+01 0.119E+02   -.484E-01 -.155E+00 -.346E+00

 POSITION                                       TOTAL-FORCE (eV/Angst)
     13.17084      1.39171      2.05636         0.097475      0.205656      0.957612
     13.50140      1.39381      4.73248        -0.012274      0.004837      0.983832
      3.63775      5.98454      1.64999         0.978420      0.317866     -0.426339
      5.02033      6.18092      3.59863        -0.534419     -0.081821     -0.329506
      6.59540      1.24045      2.13251         0.652758      0.116222     -0.870699
      7.93172      1.39171      4.11272        -1.386413      1.058855     -1.044236
     16.08224      6.18092      2.57045        -0.435394      0.079970      2.018150
     16.46637      6.17841      5.29133        -1.571416      0.006060      0.472068
      2.88464      1.41168      0.78133        -0.811975      0.164156     -1.959195
      2.10894      1.39171      3.08454        -0.798942     -0.016634      0.062132
      1.18156      0.99278      5.20598         0.667419     -0.578957      0.375485
      9.78542      6.21693      2.50384         0.745029     -0.151607     -0.950444
     10.84312      6.18092      4.62682        -0.987155     -0.021944     -1.442944
     15.35886      0.03769      1.98841         0.995896      0.691208      0.111058
     15.88195      0.08337      4.48371        -0.318275     -1.109750     -0.219378
      6.02897      6.18705      1.05059        -0.324478     -0.076714     -1.786711
      7.17375      4.91558      3.19116         0.380736     -0.269314     -2.233452
      8.04833      4.55636      5.38837        -0.003388      0.655463      1.043363
      9.97402      8.71040      1.54329         0.031626     -0.151665     -0.969935
     10.08514      0.12638      3.70525         1.223612      0.218606     -0.780050
      1.35096      4.91558      2.16298        -0.094086     -0.399006      1.360895
      1.90466      4.78231      4.86707         1.049751     -1.375554     -0.028129
      4.26235      0.12638      2.67707         0.340866     -0.596375      0.059250
      4.95550      9.41073      4.98998        -0.136979      0.152738      0.984356
     13.10983      4.16790      2.01252        -0.938071      0.734430      0.332956
     12.99653      4.91558      4.21934         0.599863     -0.040110     -1.312609
     15.36300      2.74478      1.99811         1.002060     -0.689957      0.198772
     15.93876      2.65773      4.50265        -0.972836      1.149843     -0.382930
      7.54272      8.17841      0.96097        -0.298798      0.306147     -0.735233
      7.17375      7.44626      3.19116         0.233146     -0.154736      0.239678
      8.96299      1.40904      1.52901        -0.323868      0.010559     -1.783142
     10.08514      2.65705      3.70525         0.546935      0.496867     -1.849772
      1.35096      7.44626      2.16298         0.161239      0.494495      1.623880
      1.89321      7.52481      4.91692         0.990355      1.169826      0.297496
      4.26235      2.65705      2.67707         0.656148      0.902568      0.865030
     12.94921      8.31575      2.01496        -0.495823     -1.176103      0.220439
     12.99653      7.44626      4.21934         1.150420      0.008561     -1.424352
     16.24968      1.35471      6.05498        -0.747881      0.271295      4.065855
     16.74052      1.39171      3.05601         1.524707     -0.318297     -2.270763
      8.00634      6.18092      1.51374         1.384909     -0.455948     -2.993163
      8.65469      6.19199      4.29471         0.176275      1.044180      2.068878
     10.91773      1.39171      2.02783         1.611472     -0.365452     -1.196426
     11.43079      1.40311      4.72866         0.698391     -0.093004      2.650534
      1.89010      6.18402      0.63321         0.170331      0.008315     -3.888572
      2.76722      6.18092      3.57010         1.505613     -0.010663     -0.135822
      1.35385      6.12357      6.31438         0.630212      0.077336      4.367405
      4.86920      1.42187      1.05586         1.703347     -0.152398     -3.131455
      5.56675      1.47664      3.92385         0.779529      1.023412      2.379783
     13.82913      6.18092      2.54192         0.341071      0.397895     -1.642702
     14.36447      6.17946      5.21338         0.819438     -0.012825      2.602098
     13.78114      2.81603      0.67698        -0.302288      0.712912     -3.967305
     13.99844      3.00295      3.57488        -0.670968      1.372829      1.538993
      5.26426      7.79215      2.03261        -0.820399      1.405852     -0.565156
      5.89069      7.64084      4.82793         0.250746      0.301874      2.404014
      8.17565      3.00295      2.54670        -1.023503      1.039458     -0.163711
      8.88121      2.73539      5.38487         0.101524     -0.147406      2.930303
      0.02514      7.79215      4.08897        -1.055758      1.340130     -0.771053
     16.33959      7.86219      1.38533        -0.568454      0.801344     -2.681016
      2.39921      3.11356      1.81823        -0.908668      0.686819     -1.219743
      2.27568      2.69572      4.73914         1.459743      0.922149      1.558419
     11.08705      7.79215      3.06079         0.267292      1.160209     -0.431042
     11.75401      7.55625      5.80448        -0.514921      1.262691      3.866492
      5.26426      4.56969      2.03261        -0.919019     -2.013734      0.134346
      6.07785      4.87858      4.91768        -1.774004     -1.336026      2.747030
     13.78643      9.56124      0.66075        -0.325933     -0.872630     -3.911569
     13.99844      9.35889      3.57488        -1.207201     -1.515471      1.364216
      0.02514      4.56969      4.08897        -1.233283     -1.355927     -0.701113
     16.33128      4.50079      1.38487        -0.396895     -0.660497     -2.756367
      8.17565      9.35889      2.54670        -0.957574     -1.235396     -0.159619
      8.80735      9.55006      5.27764        -0.388253     -1.642842      3.524691
     11.08705      4.56969      3.06079         0.064141     -1.297956     -0.956577
     11.73096      4.77353      5.78588        -0.450043     -1.293929      3.825440
      2.36586      9.27828      1.77823        -0.889021     -1.033978     -1.380467
      2.93654      9.35889      4.60306        -0.393841     -0.069006      1.217747
    total drift:                                0.050060     -0.071580     -0.048112

  FREE ENERGIE OF THE ION-ELECTRON SYSTEM (eV)
  free  energy   TOTEN  =      -351.32315543 eV

  energy  without entropy=     -350.20195463  energy(sigma->0) =     -350.76255503