 vasp.5.4.4.18Apr17-6-g9f103f2a35 (build Aug 13 2019 17:33:20) gamma-only

 executed on             LinuxIFC date 2020.05.12  17:04:40

 INCAR:
 POTCAR:    PAW_PBE Ni_pv 06Sep2000
 POTCAR:    PAW_PBE S 06Sep2000
 POTCAR:    PAW_PBE Ni_pv 06Sep2000
   VRHFIN =Ni:

   TITEL  = PAW_PBE Ni_pv 06Sep2000
   POMASS =   58.690; ZVAL   =   16.000    mass and valenz
   ENMAX  =  367.986; ENMIN  =  275.989 eV

 POTCAR:    PAW_PBE S 06Sep2000
   VRHFIN =S : s2p4

   TITEL  = PAW_PBE S 06Sep2000
   POMASS =   32.066; ZVAL   =    6.000    mass and valenz
   ENMAX  =  258.689; ENMIN  =  194.016 eV

 Optimization of the real space projectors (new method)

 maximal supplied QI-value         = 18.90
 optimisation between [QCUT,QGAM] = [ 10.77, 21.73] = [ 32.49,132.25] Ry
 Optimized for a Real-space Cutoff    1.38 Angstroem

   l    n(q)    QCUT    max X(q) W(low)/X(q) W(high)/X(q)  e(spline)
   1      8    10.771     2.836    0.40E-04    0.29E-04    0.12E-06
   1      8    10.771     4.023    0.10E-03    0.48E-04    0.29E-06
   2      8    10.771    73.368    0.42E-03    0.97E-04    0.44E-06
   2      8    10.771    69.010    0.42E-03    0.99E-04    0.45E-06
   0      9    10.771    54.797    0.10E-03    0.56E-04    0.74E-07
   0      9    10.771    24.266    0.89E-04    0.49E-04    0.67E-07
 Optimization of the real space projectors (new method)

 maximal supplied QI-value         = 19.84
 optimisation between [QCUT,QGAM] = [ 10.71, 21.63] = [ 32.15,130.99] Ry
 Optimized for a Real-space Cutoff    1.19 Angstroem

   l    n(q)    QCUT    max X(q) W(low)/X(q) W(high)/X(q)  e(spline)
   0      8    10.715   187.594    0.41E-03    0.53E-04    0.66E-07
   0      8    10.715   164.243    0.41E-03    0.53E-04    0.65E-07
   1      7    10.715    67.533    0.19E-03    0.59E-03    0.68E-07
   1      7    10.715    50.729    0.19E-03    0.58E-03    0.67E-07
  PAW_PBE Ni_pv 06Sep2000               :
  PAW_PBE S 06Sep2000                   :

 POSCAR: Type_036 Type_136
  positions in cartesian coordinates
 exchange correlation table for  LEXCH =        8
   RHO(1)=    0.500       N(1)  =     2000
   RHO(2)=  100.500       N(2)  =     4000

 ion  position               nearest neighbor table
   1  0.288  0.993  0.059-  69 2.08  41 2.11  42 2.13  61 2.14  49 2.26   2 2.38
   2  0.397  0.795  0.128-  49 2.05  61 2.10  42 2.25  50 2.36  62 2.36   1 2.38  26 2.38  22 2.40

   3  0.547  0.645  0.256-  43 2.25  62 2.26  50 2.26  51 2.36  63 2.36  14 2.53  27 2.53
   4  0.698  0.494  0.384-  64 2.16  44 2.25  51 2.26  63 2.26  52 2.36  15 2.53  28 2.53
   5  0.825  0.342  0.488-  52 2.00  64 2.00  16 2.45  25 2.47
   6  0.114  0.412  0.171-  53 2.05  68 2.18  45 2.25  54 2.36  65 2.36  29 2.53  17 2.53
   7  0.264  0.261  0.299-  46 2.25  65 2.26  54 2.26  55 2.36  66 2.36  30 2.53  18 2.53
   8  0.414  0.111  0.427-  67 2.01  56 2.14  47 2.21  66 2.26  55 2.26  31 2.53  19 2.53
   9  0.082  0.807  0.453-  59 2.05  58 2.07  72 2.08  37 2.11  12 2.50
  10  0.715  0.214  0.145-  38 1.99  60 2.11  39 2.15  11 2.30  70 2.35  36 2.52
  11  0.831  0.028  0.213-  39 2.25  60 2.26  70 2.26  10 2.30  71 2.36  57 2.36  23 2.53  33 2.53

[...]

  32  0.728  0.799  0.451-  44 2.05  56 2.06  72 2.06  31 2.39
  33  0.015  0.843  0.146-  48 2.08  61 2.12  60 2.26  45 2.36  57 2.36  23 2.53  11 2.53
  34  0.166  0.693  0.274-  62 2.25  57 2.26  45 2.26  58 2.36  46 2.36  24 2.53  12 2.53
  35  0.316  0.543  0.402-  59 2.04  47 2.15  63 2.25  58 2.26  46 2.26  21 2.46
  36  0.781  0.979  0.087-  48 2.02  70 2.07  60 2.07  10 2.52
  37  0.989  0.014  0.490-  25 2.10  16 2.10   9 2.11  40 2.62
  38  0.586  0.406  0.118-  10 1.99  26 2.07  27 2.26  14 2.26  13 2.27
  39  0.736  0.256  0.246-  10 2.15  11 2.25  28 2.26  15 2.26  14 2.36  27 2.36
  40  0.886  0.105  0.374-  16 2.04  25 2.05  12 2.25  15 2.36  28 2.36  37 2.62
  41  0.123  0.189  0.041-  17 2.03   1 2.11  20 2.20  29 2.32
  42  0.303  0.023  0.161-   1 2.13   2 2.25  18 2.26  30 2.26  29 2.36  17 2.36
  43  0.453  0.872  0.289-   3 2.25  31 2.26  19 2.26  30 2.36  18 2.36  44 2.79
  44  0.591  0.730  0.400-  32 2.05  31 2.18  19 2.20   4 2.25  43 2.79
  45  0.019  0.639  0.204-   6 2.25  24 2.26  34 2.26  33 2.36  23 2.36  48 2.79
  46  0.170  0.489  0.332-  21 2.06   7 2.25  35 2.26  24 2.36  34 2.36  47 2.57
  47  0.302  0.343  0.430-  35 2.15  21 2.21   8 2.21  46 2.57  59 2.72
  48  0.887  0.767  0.089-  36 2.02  23 2.07  33 2.08  45 2.79
  49  0.471  0.792  0.035-   2 2.05  22 2.10  26 2.10   1 2.26
  50  0.636  0.692  0.161-  26 2.05  23 2.25  27 2.26   3 2.26  22 2.29   2 2.36
  51  0.787  0.542  0.289-  24 2.25  28 2.26   4 2.26   3 2.36  27 2.36
  52  0.937  0.391  0.417-   5 2.00  25 2.14  21 2.27   4 2.36  28 2.36
  53  0.197  0.437  0.082-  13 2.02  29 2.05   6 2.05
  54  0.353  0.308  0.204-  13 2.18  14 2.25   7 2.26  30 2.26  29 2.36   6 2.36
  55  0.503  0.158  0.332-  15 2.25   8 2.26  31 2.26  30 2.36   7 2.36
  56  0.635  0.016  0.448-  32 2.06  16 2.12  31 2.13   8 2.14
  57  0.070  0.925  0.247-  18 2.25  34 2.26  12 2.26  11 2.36  33 2.36
  58  0.220  0.775  0.375-   9 2.07  19 2.25  35 2.26  34 2.36  12 2.36
  59  0.197  0.606  0.484-  35 2.04   9 2.05  21 2.07  47 2.72
  60  0.920  0.075  0.119-  36 2.07  10 2.11  20 2.11  17 2.25  33 2.26  11 2.26
  61  0.191  0.848  0.090-   2 2.10  33 2.12   1 2.14
  62  0.350  0.641  0.204-  13 2.19  34 2.25   3 2.26  14 2.26   2 2.36
  63  0.501  0.491  0.333-  35 2.25   4 2.26  15 2.26  14 2.36   3 2.36
  64  0.646  0.344  0.445-   5 2.00  15 2.06   4 2.16  16 2.16
  65  0.067  0.258  0.247-  28 2.25   7 2.26  18 2.26  17 2.36   6 2.36
  66  0.218  0.108  0.375-  25 2.13   8 2.26  19 2.26  18 2.36   7 2.36
  67  0.391  0.957  0.483-  19 2.00   8 2.01
  68  0.920  0.394  0.131-  20 2.08  17 2.12  27 2.13   6 2.18
  69  0.449  0.075  0.047-  29 2.07   1 2.08  22 2.11
  70  0.634  0.025  0.162-  36 2.07  22 2.13  30 2.25  23 2.26  11 2.26  10 2.35
  71  0.784  0.874  0.290-  31 2.25  24 2.26  12 2.26  11 2.36  23 2.36
  72  0.934  0.724  0.418-  32 2.06   9 2.08  21 2.17  12 2.36  24 2.36

  LATTYP: Found a base centered orthorhombic cell.
 ALAT       =    11.4527836704
 B/A-ratio  =     1.4485816945
 C/A-ratio  =     1.7901333131

  Lattice vectors:

 A1 = (  10.0797329849,   0.0000000000,   0.0000000000)
 A2 = (  -3.5732980427,  -9.4251025535,   0.0000000000)
 A3 = (   0.0000000000,   0.0000000000, -20.5020095760)

Analysis of symmetry for initial positions (statically):
 Subroutine PRICEL returns:
 Original cell was already a primitive cell.

 Routine SETGRP: Setting up the symmetry group for a
 base centered orthorhombic supercell.

 Subroutine GETGRP returns: Found  1 space group operations
 (whereof  1 operations were pure point group operations)
 out of a pool of  8 trial point group operations.

The static configuration has the point symmetry C_1 .

Analysis of symmetry for dynamics (positions and initial velocities):
 Subroutine PRICEL returns:
 Original cell was already a primitive cell.

 Routine SETGRP: Setting up the symmetry group for a
 base centered orthorhombic supercell.

 Subroutine GETGRP returns: Found  1 space group operations
 (whereof  1 operations were pure point group operations)
 out of a pool of  8 trial point group operations.

The dynamic configuration has the point symmetry C_1 .

 Subroutine INISYM returns: Found  1 space group operations
 (whereof  1 operations are pure point group operations),
 and found     1 'primitive' translations

 KPOINTS: gamma-point-only calculation. no periodi

Automatic generation of k-mesh.
Space group operators:
 irot       det(A)        alpha          n_x          n_y          n_z        tau_x        tau_y        tau_z
    1     1.000000     0.000001     1.000000     0.000000     0.000000     0.000000     0.000000     0.000000

 Subroutine IBZKPT returns following result:

 Found      1 irreducible k-points:

 Following reciprocal coordinates:
            Coordinates               Weight
  0.000000  0.000000  0.000000      1.000000

 Following cartesian coordinates:
            Coordinates               Weight
  0.000000  0.000000  0.000000      1.000000

 SYSTEM =  "Millerite NiS"
 POSCAR =  Type_036 Type_136

 Startparameter for this run:
   NWRITE =      2    write-flag & timer
   PREC   = normal    normal or accurate (medium, high low for compatibility)
   ISTART =      0    job   : 0-new  1-cont  2-samecut
   ICHARG =      2    charge: 1-file 2-atom 10-const
   ISPIN  =      1    spin polarized calculation?
   LNONCOLLINEAR =      F non collinear calculations
   LSORBIT =      F    spin-orbit coupling
   INIWAV =      1    electr: 0-lowe 1-rand  2-diag
   LASPH  =      F    aspherical Exc in radial PAW
   METAGGA=      F    non-selfconsistent MetaGGA calc.

 Electronic Relaxation 1
   ENCUT  =  450.0 eV  33.07 Ry    5.75 a.u.  17.43 17.43 35.46*2*pi/ulx,y,z
   ENINI  =  450.0     initial cutoff
   ENAUG  =  703.4 eV  augmentation charge cutoff
   NELM   =    100;   NELMIN=  2; NELMDL= -5     # of ELM steps
   EDIFF  = 0.1E-03   stopping-criterion for ELM
   LREAL  =      T    real-space projection
   NLSPLINE    = F    spline interpolate recip. space projectors
   LCOMPAT=      F    compatible to vasp.4.4
   GGA_COMPAT  = T    GGA compatible to vasp.4.4-vasp.4.6
   LMAXPAW     = -100 max onsite density
   LMAXMIX     =    2 max onsite mixed and CHGCAR
   VOSKOWN=      0    Vosko Wilk Nusair interpolation
   ROPT   =   -0.00050  -0.00050
 Ionic relaxation
   EDIFFG = 0.1E-02   stopping-criterion for IOM
   NSW    =      0    number of steps for IOM
   NBLOCK =      1;   KBLOCK =      1    inner block; outer block
   IBRION =     -1    ionic relax: 0-MD 1-quasi-New 2-CG
   NFREE  =      0    steps in history (QN), initial steepest desc. (CG)
   ISIF   =      2    stress and relaxation
   IWAVPR =     10    prediction:  0-non 1-charg 2-wave 3-comb
   ISYM   =      2    0-nonsym 1-usesym 2-fastsym
   LCORR  =      T    Harris-Foulkes like correction to forces

   POTIM  = 0.5000    time-step for ionic-motion
   TEIN   =    0.0    initial temperature
   TEBEG  =    0.0;   TEEND  =   0.0 temperature during run
   SMASS  =  -3.00    Nose mass-parameter (am)
   estimated Nose-frequenzy (Omega)   =  0.10E-29 period in steps =****** mass=  -0.232E-26a.u.
   SCALEE = 1.0000    scale energy and forces
   NPACO  =    256;   APACO  = 16.0  distance and # of slots for P.C.
   PSTRESS=    0.0 pullay stress

  Mass of Ions in am
   POMASS =  58.69 32.07
  Ionic Valenz
   ZVAL   =  16.00  6.00
  Atomic Wigner-Seitz radii
  virtual crystal weights
   VCA    =   1.00  1.00
   NELECT =     792.0000    total number of electrons
   NUPDOWN=      -1.0000    fix difference up-down

 DOS related values:
   EMIN   =  10.00;   EMAX   =-10.00  energy-range for DOS
   EFERMI =   0.00
   ISMEAR =     0;   SIGMA  =   0.20  broadening in eV -4-tet -1-fermi 0-gaus

 Electronic relaxation 2 (details)
   IALGO  =     38    algorithm
   LDIAG  =      T    sub-space diagonalisation (order eigenvalues)
   LSUBROT=      F    optimize rotation matrix (better conditioning)
   TURBO    =      0    0=normal 1=particle mesh
   IRESTART =      0    0=no restart 2=restart with 2 vectors
[...]
  Fock        0.00000     0.00000     0.00000     0.00000     0.00000     0.00000
  Total      80.83040    87.84118   103.25361    -3.86481    -1.36286    -0.53962
  in kB      66.48960    72.25655    84.93453    -3.17912    -1.12106    -0.44388

 VOLUME and BASIS-vectors are now :
  energy-cutoff  :      450.00
  volume of cell :     1947.74
      direct lattice vectors                 reciprocal lattice vectors
    10.079732985  0.000000000  0.000000000     0.099208977 -0.037612667  0.000000000
     3.573298043  9.425102554  0.000000000     0.000000000  0.106099641  0.000000000
     0.000000000  0.000000000 20.502009576     0.000000000  0.000000000  0.048775706

  length of vectors
    10.079732985 10.079732985 20.502009576     0.106099641  0.106099641  0.048775706

 FORCES acting on ions
    electron-ion (+dipol)            ewald-force                    non-local-force                 convergence-correction
   0.409E+03 0.131E+03 0.536E+04   -.414E+03 -.130E+03 -.537E+04   0.340E+01 -.178E+01 0.779E+01   -.138E-02 0.401E-02 -.241E-02
   0.585E+03 0.366E+03 0.297E+04   -.589E+03 -.370E+03 -.297E+04   0.311E+01 0.306E+01 -.165E+01   0.119E-01 -.568E-02 0.343E-02
   0.372E+02 -.427E+03 -.251E+03   -.383E+02 0.428E+03 0.251E+03   0.896E+00 -.146E+01 -.310E+00   0.998E-02 -.795E-02 -.633E-02
   0.124E+03 -.726E+03 -.337E+04   -.124E+03 0.728E+03 0.337E+04   -.428E+00 -.149E+01 0.602E+00   0.559E-02 -.909E-02 -.167E-02
   -.113E+03 -.617E+03 -.563E+04   0.113E+03 0.615E+03 0.563E+04   0.341E+00 0.207E+01 0.561E+01   -.521E-02 0.249E-02 -.110E-01
   0.190E+03 -.731E+03 0.223E+04   -.192E+03 0.734E+03 -.223E+04   0.179E+01 -.251E+01 0.487E+00   -.169E-01 -.263E-02 -.316E-02
   -.321E+01 -.464E+03 -.127E+04   0.226E+01 0.465E+03 0.127E+04   0.909E+00 -.875E+00 0.111E+00   -.329E-02 -.214E-02 -.111E-01
   0.748E+02 -.583E+03 -.452E+04   -.754E+02 0.586E+03 0.453E+04   0.680E+00 -.123E+01 -.407E+01   0.360E-02 0.293E-02 0.603E-03
   -.314E+03 -.429E+02 -.498E+04   0.315E+03 0.478E+02 0.499E+04   -.462E+00 -.383E+01 -.426E+01   -.620E-02 0.473E-02 -.652E-02
   0.352E+03 -.310E+03 0.337E+04   -.354E+03 0.309E+03 -.337E+04   0.135E+01 0.615E-01 0.401E+01   0.103E-01 -.152E-01 -.119E-01
   -.152E+03 -.722E+02 0.574E+03   0.153E+03 0.707E+02 -.568E+03   -.759E+00 0.602E+00 -.393E+01   -.147E-02 0.699E-02 -.225E-01
   -.533E+02 -.334E+03 -.199E+04   0.528E+02 0.335E+03 0.199E+04   0.534E+00 -.177E+01 0.135E+01   -.235E-02 0.390E-02 -.128E-01
   0.211E+03 -.422E+03 0.387E+04   -.213E+03 0.426E+03 -.387E+04   0.217E+01 -.379E+01 0.381E+01   0.754E-02 -.110E-02 -.376E-02
   0.366E+03 0.124E+03 0.653E+03   -.366E+03 -.123E+03 -.650E+03   0.596E+00 -.141E+01 -.216E+01   0.222E-01 -.612E-02 -.337E-02
   0.583E+03 0.133E+03 -.214E+04   -.585E+03 -.134E+03 0.214E+04   0.255E+01 0.491E+00 0.143E+01   0.165E-01 0.610E-02 -.784E-02
   0.521E+03 0.261E+03 -.496E+04   -.524E+03 -.263E+03 0.497E+04   0.207E+01 0.231E+01 -.358E+01   0.681E-02 0.104E-01 -.240E-02
   0.185E+03 0.927E+02 0.283E+04   -.184E+03 -.932E+02 -.282E+04   0.256E+00 -.404E+00 -.193E+01   -.213E-01 0.393E-02 -.222E-02
   0.396E+03 0.343E+03 -.238E+03   -.397E+03 -.343E+03 0.238E+03   0.154E+01 -.142E+00 -.258E+00   -.852E-02 -.134E-02 -.109E-01
   0.439E+03 0.492E+03 -.346E+04   -.443E+03 -.495E+03 0.346E+04   0.225E+01 0.191E+01 -.275E+01   -.216E-02 -.576E-02 -.790E-02
   0.302E+03 -.460E+03 0.555E+04   -.300E+03 0.462E+03 -.555E+04   -.236E+01 -.180E+01 -.178E+01   -.134E-01 -.348E-02 0.837E-02
   0.323E+03 0.378E+03 -.433E+04   -.329E+03 -.380E+03 0.434E+04   0.383E+01 0.121E+01 -.245E+01   -.105E-01 0.160E-02 -.174E-02
   -.381E+03 0.112E+03 0.437E+04   0.383E+03 -.109E+03 -.437E+04   -.227E+00 -.332E+01 0.394E+01   0.274E-01 0.231E-02 0.370E-03
   0.201E+03 0.736E+03 0.189E+04   -.201E+03 -.738E+03 -.189E+04   -.290E+00 0.159E+01 -.134E+01   0.187E-02 0.140E-01 -.172E-01
   0.388E+03 0.385E+03 -.107E+04   -.389E+03 -.385E+03 0.106E+04   0.116E+01 -.347E-01 0.156E+01   -.363E-02 0.535E-02 -.821E-02
   -.794E+03 0.144E+03 -.414E+04   0.799E+03 -.144E+03 0.414E+04   -.431E+01 0.117E+01 -.102E+01   -.153E-01 0.964E-02 -.225E-02
   -.177E+03 0.507E+03 0.512E+04   0.175E+03 -.508E+03 -.512E+04   0.246E+01 -.180E+00 0.167E+00   0.143E-01 -.102E-01 0.185E-02
   -.613E+03 -.149E+03 0.198E+04   0.617E+03 0.149E+03 -.198E+04   -.358E+01 0.348E+00 -.776E+00   0.178E-02 -.769E-02 -.702E-02
   -.505E+03 0.358E+02 -.109E+04   0.506E+03 -.351E+02 0.109E+04   -.163E+01 -.635E+00 0.210E+01   -.126E-01 0.445E-02 -.639E-02
   -.527E+03 -.407E+03 0.430E+04   0.531E+03 0.409E+03 -.431E+04   -.418E+01 -.900E+00 0.330E+01   0.321E-03 -.539E-02 0.121E-02
   -.364E+03 0.112E+03 0.739E+03   0.364E+03 -.113E+03 -.738E+03   -.169E+00 0.318E+00 -.401E+00   0.944E-02 -.485E-02 -.120E-01
   -.197E+03 0.122E+03 -.209E+04   0.200E+03 -.122E+03 0.208E+04   -.316E+01 0.894E+00 0.221E+01   0.120E-01 -.793E-02 -.681E-02
   0.585E+02 0.437E+03 -.505E+04   -.590E+02 -.439E+03 0.505E+04   0.923E+00 0.521E+00 0.124E+01   0.399E-02 -.721E-02 -.201E-02
   -.597E+03 0.647E+03 0.332E+04   0.602E+03 -.650E+03 -.332E+04   -.314E+01 0.250E+01 0.160E+01   -.211E-01 0.181E-01 -.428E-02
   -.458E+03 0.215E+03 -.593E+02   0.459E+03 -.215E+03 0.578E+02   -.686E+00 -.852E-01 0.149E+01   -.444E-02 0.960E-02 -.523E-02
   -.692E+03 0.123E+03 -.364E+04   0.698E+03 -.124E+03 0.364E+04   -.456E+01 0.566E+00 0.282E+00   0.776E-02 0.204E-02 -.731E-02
   -.274E+02 0.324E+01 0.538E+04   0.268E+02 -.600E+01 -.539E+04   0.318E+00 0.353E+01 0.612E+01   0.238E-02 0.828E-02 0.470E-02
   -.148E+03 0.129E+03 -.213E+04   0.149E+03 -.130E+03 0.214E+04   -.570E+00 0.122E+01 -.170E+01   -.289E-02 0.388E-02 -.633E-03
   0.129E+03 0.323E+02 0.175E+04   -.130E+03 -.337E+02 -.175E+04   -.261E-01 0.222E+01 0.295E+01   0.106E-01 -.447E-02 -.293E-03
   -.128E+02 0.629E+02 0.543E+02   0.130E+02 -.642E+02 -.526E+02   0.982E-02 0.110E+01 -.746E+00   0.324E-02 -.189E-03 -.572E-02
   -.704E+01 0.149E+03 -.822E+03   0.602E+01 -.151E+03 0.817E+03   0.624E+00 0.158E+01 0.149E+01   -.114E-02 0.245E-02 -.295E-02
   0.281E+02 -.187E+03 0.227E+04   -.273E+02 0.190E+03 -.228E+04   -.866E+00 -.157E+01 0.269E+01   -.732E-02 0.237E-02 0.138E-02
   0.606E+02 0.862E+02 0.797E+03   -.602E+02 -.862E+02 -.794E+03   -.404E+00 0.569E+00 -.396E+00   0.308E-03 0.192E-02 0.138E-02
   0.451E+02 0.148E+03 -.190E+03   -.456E+02 -.150E+03 0.189E+03   0.212E+00 0.201E+01 0.270E+00   0.863E-03 -.226E-02 -.653E-02
   0.173E+03 0.239E+03 -.138E+04   -.173E+03 -.241E+03 0.139E+04   0.528E+00 0.191E+00 -.569E+00   0.523E-02 -.765E-02 -.345E-03
   0.138E+02 0.156E+03 0.747E+03   -.132E+02 -.158E+03 -.748E+03   -.400E+00 0.145E+01 0.165E+01   -.230E-02 0.345E-02 -.139E-02
   -.257E+02 0.126E+03 -.507E+03   0.251E+02 -.127E+03 0.503E+03   0.668E+00 0.141E+01 0.898E+00   -.136E-02 0.288E-02 -.414E-02
   -.678E+02 0.104E+03 -.173E+04   0.675E+02 -.104E+03 0.173E+04   0.809E+00 -.180E+00 0.241E-01   0.345E-03 -.339E-03 0.236E-03
   -.790E+02 0.509E+03 0.202E+04   0.790E+02 -.513E+03 -.203E+04   -.233E+00 0.195E+01 0.113E+01   -.396E-02 0.118E-01 0.246E-03
   0.293E+02 0.188E+03 0.235E+04   -.284E+02 -.190E+03 -.235E+04   -.453E+00 0.821E+00 0.277E+01   0.549E-02 -.308E-02 -.989E-03
   -.199E+03 0.291E+02 0.882E+03   0.202E+03 -.291E+02 -.880E+03   -.131E+01 0.698E+00 -.736E+00   0.260E-02 -.368E-02 -.220E-02
   -.136E+03 -.126E+03 -.225E+03   0.137E+03 0.128E+03 0.225E+03   -.137E+01 -.208E+01 0.396E+00   -.435E-02 -.392E-02 -.173E-02
   -.256E+03 -.208E+03 -.142E+04   0.258E+03 0.209E+03 0.142E+04   -.655E+00 -.467E+00 -.917E+00   -.103E-01 -.690E-03 -.101E-03
   0.865E+02 -.385E+03 0.208E+04   -.872E+02 0.388E+03 -.209E+04   0.403E+00 -.109E+01 0.113E+01   -.360E-02 -.105E-02 -.232E-02
   -.523E+02 -.564E+02 0.478E+03   0.538E+02 0.551E+02 -.476E+03   -.134E+01 0.710E+00 -.761E+00   0.215E-02 -.465E-02 -.191E-02
   -.773E+02 -.138E+03 -.650E+03   0.790E+02 0.140E+03 0.650E+03   -.168E+01 -.201E+01 -.622E+00   0.533E-02 0.791E-03 -.512E-02
   0.581E+01 -.112E+03 -.189E+04   -.373E+01 0.112E+03 0.189E+04   -.113E+01 0.525E+00 -.662E+00   0.561E-02 -.236E-02 0.111E-02
   -.147E+03 -.531E+02 0.165E+03   0.149E+03 0.551E+02 -.165E+03   -.179E+01 -.183E+01 0.527E+00   -.443E-02 0.148E-02 -.155E-02
   -.254E+03 -.517E+01 -.102E+04   0.256E+03 0.711E+01 0.102E+04   -.115E+01 -.206E+01 -.579E+00   -.359E-02 0.874E-03 -.525E-02
   -.178E+03 0.102E+03 -.223E+04   0.179E+03 -.103E+03 0.224E+04   -.680E+00 0.684E+00 -.258E+01   -.556E-03 0.103E-02 0.236E-02
   -.202E+03 0.102E+03 0.149E+04   0.205E+03 -.102E+03 -.149E+04   -.151E+01 -.828E-01 -.251E+00   -.111E-01 0.267E-02 -.268E-02
   0.268E+03 0.248E+03 0.176E+04   -.270E+03 -.251E+03 -.176E+04   0.484E+00 0.182E+01 0.266E+01   -.527E-02 0.194E-02 0.345E-04
   0.163E+03 -.156E+03 0.533E+03   -.166E+03 0.159E+03 -.533E+03   0.236E+01 -.152E+01 0.101E+01   0.204E-02 0.211E-02 0.173E-02
   0.179E+03 -.118E+03 -.776E+03   -.181E+03 0.120E+03 0.776E+03   0.273E+01 -.114E+01 -.104E+01   0.793E-02 -.106E-02 -.159E-02
   0.449E+03 -.243E+03 -.187E+04   -.455E+03 0.246E+03 0.188E+04   0.296E+01 -.144E+01 -.139E+01   0.963E-02 0.124E-02 -.250E-02
   0.113E+03 -.106E+03 0.655E+02   -.116E+03 0.107E+03 -.651E+02   0.268E+01 -.122E+01 0.191E-01   -.741E-02 -.465E-03 -.402E-02
   0.781E+02 -.544E+02 -.114E+04   -.809E+02 0.556E+02 0.114E+04   0.292E+01 -.130E+01 -.900E+00   -.503E-02 0.858E-03 -.225E-02
   0.114E+03 0.113E+03 -.223E+04   -.114E+03 -.114E+03 0.224E+04   0.579E-01 0.409E+00 -.476E-01   0.812E-03 -.945E-03 0.382E-02
   -.506E+02 -.396E+03 0.136E+04   0.497E+02 0.401E+03 -.136E+04   0.496E+00 -.203E+01 0.943E+00   -.804E-02 -.302E-02 -.142E-02
   -.316E+03 -.216E+03 0.214E+04   0.319E+03 0.218E+03 -.215E+04   -.548E+00 -.158E+01 0.280E+01   0.744E-02 -.108E-02 0.644E-03
   0.186E+03 -.166E+03 0.858E+03   -.189E+03 0.169E+03 -.857E+03   0.212E+01 -.132E+01 0.684E+00   0.100E-01 -.601E-03 -.843E-02
   0.146E+03 -.254E+02 -.295E+03   -.149E+03 0.264E+02 0.296E+03   0.294E+01 -.845E+00 -.803E+00   0.381E-02 0.155E-02 -.467E-02
   0.154E+03 0.841E+02 -.154E+04   -.158E+03 -.825E+02 0.154E+04   0.296E+01 -.165E+01 -.226E+01   -.469E-02 0.316E-02 -.167E-02
   -.130E+02 0.106E+02 -.233E+02   0.188E-11 0.512E-12 0.432E-11   0.130E+02 -.105E+02 0.236E+02   0.220E-01 0.219E-01 -.247E+00

 POSITION                                       TOTAL-FORCE (eV/Angst)
      6.45391      9.36312      1.20456        -1.447106     -0.746311     -1.654675
      6.84285      7.49250      2.62550        -1.369437     -0.908510      3.158361
      7.82056      6.07621      5.25100        -0.181087     -0.300891      0.078427
      8.79827      4.65991      7.87651         0.264741      0.444609     -0.253088
      9.53701      3.21902      9.99537         0.364392      0.058840      1.456246
      2.61774      3.87870      3.50067        -0.228673      0.035614      1.361374
      3.59545      2.46241      6.12617        -0.045908     -0.259488     -0.116454
      4.57317      1.04611      8.75167         0.126214      1.684552     -1.352183
      3.71249      7.60599      9.28089         0.020255      1.058028      1.005367
      7.97322      2.01519      2.96680        -0.669153     -0.351583     -0.873819
      8.47237      0.26490      4.37584         0.253407     -0.924920      1.677878
     13.02338      8.27371      7.00134        -0.034916     -0.082644     -0.406062
      5.21196      4.48448      2.78368         0.931167      0.219043     -0.281882
      6.61816      3.96023      4.55733         0.531667     -0.185840      1.052893
      7.59587      2.54394      7.18283        -0.081728     -0.572604     -1.224817
      8.30328      1.17940      9.43564        -0.827310      0.302071      0.816315
      1.41534      1.76273      2.80700         1.159694     -0.939651      3.555508
      2.39305      0.34643      5.43250         0.023418     -0.111044     -0.063006
      6.94406      8.35524      8.05800        -1.168903     -0.702212     -2.287157
      9.93207      2.40800      1.24340        -0.772972     -0.000322     -1.078408
      2.73117      4.81434      8.71311        -2.437069     -0.975969      0.895330
      8.97067      8.38603      1.98484         1.697641     -0.291315     -0.543189
     10.84326      7.57403      3.68216        -0.419650     -0.539553      1.717618
     11.82097      6.15773      6.30767        -0.032194     -0.001631     -0.169253
      0.84421      1.56215      8.79825         0.827466      0.489278      0.476792
      8.00813      5.64062      1.68097         0.179897     -0.941406     -0.959327
      9.02296      4.33443      3.86366        -0.103232      0.004123      0.493974
     10.00068      2.91813      6.48916         0.163291      0.024105     -0.126078
      3.82015      2.13692      2.11332        -0.380798      0.196892      1.092613
      4.79786      0.72063      4.73883        -0.067047      0.020735      0.303308
      9.34887      8.72943      7.36433        -0.204691      0.684521     -2.533060
     10.19765      7.53024      9.24761         0.414205     -0.875608      1.174176
      3.16834      7.94822      2.98849         1.042985     -0.237432      1.355425
      4.14605      6.53193      5.61399         0.168703      0.090141     -0.015400
      5.12376      5.11563      8.23950         1.537356      0.213306     -1.759523
     11.36612      9.22560      1.77822        -0.291714      0.776636     -1.611303
     10.02259      0.13627     10.04443         0.507279     -0.604969      2.083596
      7.35546      3.82659      2.42507        -1.542080      0.868425     -1.787984
      8.33317      2.41029      5.05057         0.183602     -0.220655      0.977866
      9.31088      0.99399      7.67607        -0.395445     -0.762009     -3.412183
      1.91893      1.78450      0.83880        -0.112107      0.733967     -3.387111
      3.13035      0.21279      3.30024        -0.032174      0.521009      2.659291
      7.68136      8.22159      5.92574        -0.289092      0.258823     -0.676562
      8.56580      6.87778      8.20112        -0.214505     -1.450126      1.364732
      2.47854      6.02409      4.17540         0.246231     -0.147955      0.635247
      3.45626      4.60779      6.80091         0.066418      0.342186     -2.721187
      4.26552      3.23178      8.81760         0.499157     -0.834051      1.680370
     11.68566      7.23228      1.82125        -0.225373     -2.009420     -3.160364
      7.58104      7.46185      0.71673         0.383096     -0.820918     -3.701228
      8.88655      6.52099      3.30837         0.811984      0.632806      1.585785
      9.86427      5.10469      5.93387         0.313231      0.068068      0.136577
     10.84198      3.68840      8.55937         1.570315      1.219852     -0.537864
      3.55030      4.12333      1.68976        -0.310312      2.163660     -3.095900
      4.66145      2.90719      4.18354         0.192522     -0.612750      0.739852
      5.63916      1.49089      6.80904         0.049262      0.039571     -0.818834
      6.46367      0.15343      9.19099         0.962537      0.206070      2.213022
      4.00964      8.71849      5.05870         0.053929      0.108163      0.273155
      4.98735      7.30220      7.68420         1.327709     -0.128579     -1.076215
      4.15083      5.71028      9.93124         0.583997     -0.141154      3.679724
      9.53836      0.70969      2.43320         1.117715      0.058344     -0.465781
      4.95301      7.98836      1.85353        -1.394310     -1.331501     -1.629408
      5.82436      6.04450      4.19167        -0.194890      0.553708      0.500970
      6.80207      4.62821      6.81717         0.035212      0.229169     -0.821978
      7.73887      3.24216      9.11791        -2.274318      1.072859      2.451647
      1.59925      2.43070      5.06683        -0.061132     -0.041283      0.373121
      2.57697      1.01441      7.69234         0.125042     -0.043328     -0.540028
      7.35873      9.02309      9.89584        -0.796536     -0.699302      4.175849
     10.68387      3.71493      2.67764        -0.459014      2.166547     -0.822524
      4.79296      0.71120      0.96874         2.218484      0.949092     -2.318049
      6.47617      0.23320      3.31650        -0.909381      1.229619      1.888017
     11.02718      8.24201      5.94200         0.306225      0.147992     -0.365272
     12.00489      6.82571      8.56750        -1.286192     -0.075493     -0.443268
    total drift:                                0.031544      0.034122      0.103997

  FREE ENERGIE OF THE ION-ELECTRON SYSTEM (eV)
  free  energy   TOTEN  =      -350.40541026 eV

  energy  without entropy=     -349.44882902  energy(sigma->0) =     -349.92711964