 vasp.5.4.4.18Apr17-6-g9f103f2a35 (build Aug 13 2019 17:33:20) gamma-only

 executed on             LinuxIFC date 2020.05.10  12:50:05

 INCAR:
 POTCAR:    PAW_PBE Ni_pv 06Sep2000
 POTCAR:    PAW_PBE S 06Sep2000
 POTCAR:    PAW_PBE Ni_pv 06Sep2000
   VRHFIN =Ni:

   TITEL  = PAW_PBE Ni_pv 06Sep2000
   POMASS =   58.690; ZVAL   =   16.000    mass and valenz
   ENMAX  =  367.986; ENMIN  =  275.989 eV

 POTCAR:    PAW_PBE S 06Sep2000
   VRHFIN =S : s2p4

   TITEL  = PAW_PBE S 06Sep2000
   POMASS =   32.066; ZVAL   =    6.000    mass and valenz
   ENMAX  =  258.689; ENMIN  =  194.016 eV

 Optimization of the real space projectors (new method)

 maximal supplied QI-value         = 18.90
 optimisation between [QCUT,QGAM] = [ 10.77, 21.73] = [ 32.49,132.25] Ry
 Optimized for a Real-space Cutoff    1.38 Angstroem

   l    n(q)    QCUT    max X(q) W(low)/X(q) W(high)/X(q)  e(spline)
   1      8    10.771     2.836    0.40E-04    0.29E-04    0.12E-06
   1      8    10.771     4.023    0.10E-03    0.48E-04    0.29E-06
   2      8    10.771    73.368    0.42E-03    0.97E-04    0.44E-06
   2      8    10.771    69.010    0.42E-03    0.99E-04    0.45E-06
   0      9    10.771    54.797    0.10E-03    0.56E-04    0.74E-07
   0      9    10.771    24.266    0.89E-04    0.49E-04    0.67E-07
 Optimization of the real space projectors (new method)

 maximal supplied QI-value         = 19.84
 optimisation between [QCUT,QGAM] = [ 10.71, 21.63] = [ 32.15,130.99] Ry
 Optimized for a Real-space Cutoff    1.19 Angstroem

   l    n(q)    QCUT    max X(q) W(low)/X(q) W(high)/X(q)  e(spline)
   0      8    10.715   187.594    0.41E-03    0.53E-04    0.66E-07
   0      8    10.715   164.243    0.41E-03    0.53E-04    0.65E-07
   1      7    10.715    67.533    0.19E-03    0.59E-03    0.68E-07
   1      7    10.715    50.729    0.19E-03    0.58E-03    0.67E-07
  PAW_PBE Ni_pv 06Sep2000               :
  PAW_PBE S 06Sep2000                   :

 POSCAR: Type_026 Type_126
  positions in cartesian coordinates
 exchange correlation table for  LEXCH =        8
   RHO(1)=    0.500       N(1)  =     2000
   RHO(2)=  100.500       N(2)  =     4000

 ion  position               nearest neighbor table
   1  0.439  0.464  0.163-  44 2.06  35 2.08  30 2.25  36 2.36  45 2.36   5 2.53  22 2.53
   2  0.492  0.450  0.324-  46 2.02  36 2.04  45 2.05  23 2.49   6 2.53
   3  0.158  0.982  0.103-  37 2.07  27 2.08  38 2.08  33 2.16
   4  0.215  0.964  0.253-  39 2.09  34 2.20  28 2.25  38 2.26  33 2.26  12 2.36
   5  0.439  0.200  0.163-  40 2.08  35 2.08  33 2.25  36 2.36  41 2.36   1 2.53  22 2.53
   6  0.481  0.186  0.322-  46 2.06  41 2.06  34 2.10  36 2.10   2 2.53
   7  0.159  0.697  0.093-  37 2.05  31 2.09  38 2.11  30 2.23   8 2.50
   8  0.212  0.683  0.234-  30 2.03  39 2.05  32 2.09  38 2.17  26 2.34  12 2.44   7 2.50
   9  0.131  0.332  0.139-  27 2.06  31 2.08  35 2.12  28 2.36  32 2.36  18 2.53  14 2.53
  10  0.185  0.333  0.298-  29 2.05  32 2.07  28 2.08  36 2.12  19 2.49
  11  0.452  0.831  0.096-  50 2.04  51 2.13  30 2.27  33 2.28  12 2.37
  12  0.388  0.831  0.227-  34 2.14  30 2.18  33 2.18   4 2.36  11 2.37  13 2.39  51 2.44   8 2.44
                            39 2.60
  13  0.550  0.901  0.308-  52 2.04  34 2.06  17 2.34  51 2.36  12 2.39
  14  0.939  0.464  0.163-  31 2.08  48 2.08  42 2.25  49 2.36  32 2.36  18 2.53   9 2.53
  15  0.981  0.478  0.322-  29 2.06  32 2.06  43 2.10  49 2.10  19 2.53
  16  0.659  0.967  0.093-  50 2.05  40 2.09  51 2.11  47 2.23  17 2.50
  17  0.712  0.981  0.234-  47 2.03  52 2.05  41 2.09  51 2.17  13 2.34  25 2.44  16 2.50
  18  0.939  0.200  0.163-  27 2.06  48 2.08  47 2.25  49 2.36  28 2.36  14 2.53   9 2.53
  19  0.992  0.213  0.324-  29 2.02  49 2.04  28 2.05  10 2.49  15 2.53
  20  0.658  0.682  0.103-  50 2.07  44 2.08  51 2.08  42 2.16
  21  0.715  0.700  0.253-  52 2.09  43 2.20  45 2.25  51 2.26  42 2.26  25 2.36
  22  0.631  0.332  0.139-  44 2.06  40 2.08  48 2.12  41 2.36  45 2.36   5 2.53   1 2.53
  23  0.685  0.331  0.298-  46 2.05  41 2.07  45 2.08  49 2.12   2 2.49
  24  0.952  0.832  0.096-  37 2.04  38 2.13  47 2.27  42 2.28  25 2.37
  25  0.888  0.832  0.227-  43 2.14  47 2.18  42 2.18  21 2.36  24 2.37  26 2.39  38 2.44  17 2.44
                            52 2.60
  26  0.050  0.762  0.308-  39 2.04  43 2.06   8 2.34  38 2.36  25 2.39
  27  0.065  0.163  0.078-   9 2.06  18 2.06   3 2.08
  28  0.111  0.164  0.239-  19 2.05  10 2.08   4 2.25   9 2.36  18 2.36
  29  0.078  0.350  0.394-  19 2.02  10 2.05  15 2.06
  30  0.336  0.664  0.149-   8 2.03  12 2.18   7 2.23   1 2.25  11 2.27
  31  0.069  0.507  0.080-  14 2.08   9 2.08   7 2.09  32 2.77
  32  0.111  0.500  0.239-  15 2.06  10 2.07   8 2.09   9 2.36  14 2.36  31 2.77
  33  0.336  1.000  0.149-   3 2.16  12 2.18   5 2.25   4 2.26  11 2.28
  34  0.387  0.998  0.310-  13 2.06   6 2.10  12 2.14   4 2.20  39 2.66
  35  0.314  0.332  0.113-   5 2.08   1 2.08   9 2.12  36 2.75
  36  0.368  0.332  0.269-   2 2.04   6 2.10  10 2.12   1 2.36   5 2.36  35 2.75
  37  0.091  0.846  0.020-  24 2.04   7 2.05   3 2.07  38 2.74
  38  0.092  0.832  0.179-   3 2.08   7 2.11  24 2.13   8 2.17   4 2.26  26 2.36  25 2.44  37 2.74

  39  0.224  0.801  0.333-  26 2.04   8 2.05   4 2.09  12 2.60  34 2.66
  40  0.569  0.156  0.080-   5 2.08  22 2.08  16 2.09  41 2.77
  41  0.611  0.164  0.239-   6 2.06  23 2.07  17 2.09  22 2.36   5 2.36  40 2.77
  42  0.836  0.664  0.149-  20 2.16  25 2.18  14 2.25  21 2.26  24 2.28
  43  0.887  0.665  0.310-  26 2.06  15 2.10  25 2.14  21 2.20  52 2.66
  44  0.565  0.500  0.078-  22 2.06   1 2.06  20 2.08
  45  0.611  0.500  0.239-   2 2.05  23 2.08  21 2.25  22 2.36   1 2.36
  46  0.578  0.313  0.394-   2 2.02  23 2.05   6 2.06
  47  0.836  1.000  0.149-  17 2.03  25 2.18  16 2.23  18 2.25  24 2.27
  48  0.814  0.332  0.113-  14 2.08  18 2.08  22 2.12  49 2.75
  49  0.868  0.332  0.269-  19 2.04  15 2.10  23 2.12  14 2.36  18 2.36  48 2.75
  50  0.591  0.817  0.020-  11 2.04  16 2.05  20 2.07  51 2.74
  51  0.592  0.832  0.179-  20 2.08  16 2.11  11 2.13  17 2.17  21 2.26  13 2.36  12 2.44  50 2.74

  52  0.724  0.863  0.333-  13 2.04  17 2.05  21 2.09  25 2.60  43 2.66

  LATTYP: Found a simple orthorhombic cell.
 ALAT       =     9.5784100000
 B/A-ratio  =     1.1751911892
 C/A-ratio  =     1.7949213288

  Lattice vectors:

 A1 = (   0.0000000000,  -9.5784100000,   0.0000000000)
 A2 = ( -11.2564630382,   0.0000000000,   0.0000000000)
 A3 = (   0.0000000000,   0.0000000000, -17.1924924047)

Analysis of symmetry for initial positions (statically):
 Subroutine PRICEL returns:
 Original cell was already a primitive cell.

 Routine SETGRP: Setting up the symmetry group for a
 simple orthorhombic supercell.

 Subroutine GETGRP returns: Found  2 space group operations
 (whereof  1 operations were pure point group operations)
 out of a pool of  8 trial point group operations.

The static configuration has the point symmetry C_1 .
 The point group associated with its full space group is C_1h.

Analysis of symmetry for dynamics (positions and initial velocities):
 Subroutine PRICEL returns:
 Original cell was already a primitive cell.

 Routine SETGRP: Setting up the symmetry group for a
 simple orthorhombic supercell.

 Subroutine GETGRP returns: Found  2 space group operations
 (whereof  1 operations were pure point group operations)
 out of a pool of  8 trial point group operations.

The dynamic configuration has the point symmetry C_1 .
 The point group associated with its full space group is C_1h.

 Subroutine INISYM returns: Found  2 space group operations
 (whereof  1 operations are pure point group operations),
 and found     1 'primitive' translations

 KPOINTS: gamma-point-only calculation. no periodi

Automatic generation of k-mesh.
Space group operators:
 irot       det(A)        alpha          n_x          n_y          n_z        tau_x        tau_y        tau_z
    1     1.000000     0.000000     1.000000     0.000000     0.000000     0.000000     0.000000     0.000000
    2    -1.000000   180.000000     0.000000     1.000000     0.000000    -0.500000    -0.336430     0.000000

 Subroutine IBZKPT returns following result:

 Found      1 irreducible k-points:

 Following reciprocal coordinates:
            Coordinates               Weight
  0.000000  0.000000  0.000000      1.000000

 Following cartesian coordinates:
            Coordinates               Weight
  0.000000  0.000000  0.000000      1.000000

 SYSTEM =  "Millerite NiS"
 POSCAR =  Type_026 Type_126

 Startparameter for this run:
   NWRITE =      2    write-flag & timer
   PREC   = normal    normal or accurate (medium, high low for compatibility)
   ISTART =      0    job   : 0-new  1-cont  2-samecut
   ICHARG =      2    charge: 1-file 2-atom 10-const
   ISPIN  =      1    spin polarized calculation?
   LNONCOLLINEAR =      F non collinear calculations
   LSORBIT =      F    spin-orbit coupling
   INIWAV =      1    electr: 0-lowe 1-rand  2-diag
   LASPH  =      F    aspherical Exc in radial PAW
   METAGGA=      F    non-selfconsistent MetaGGA calc.

 Electronic Relaxation 1
   ENCUT  =  450.0 eV  33.07 Ry    5.75 a.u.  19.47 16.57 29.74*2*pi/ulx,y,z
   ENINI  =  450.0     initial cutoff
   ENAUG  =  703.4 eV  augmentation charge cutoff
   NELM   =    100;   NELMIN=  2; NELMDL= -5     # of ELM steps
   EDIFF  = 0.1E-03   stopping-criterion for ELM
   LREAL  =      T    real-space projection
   NLSPLINE    = F    spline interpolate recip. space projectors
   LCOMPAT=      F    compatible to vasp.4.4
   GGA_COMPAT  = T    GGA compatible to vasp.4.4-vasp.4.6
   LMAXPAW     = -100 max onsite density
   LMAXMIX     =    2 max onsite mixed and CHGCAR
   VOSKOWN=      0    Vosko Wilk Nusair interpolation
   ROPT   =   -0.00050  -0.00050
 Ionic relaxation
   EDIFFG = 0.1E-02   stopping-criterion for IOM
   NSW    =      0    number of steps for IOM
   NBLOCK =      1;   KBLOCK =      1    inner block; outer block
   IBRION =     -1    ionic relax: 0-MD 1-quasi-New 2-CG
   NFREE  =      0    steps in history (QN), initial steepest desc. (CG)
   ISIF   =      2    stress and relaxation
   IWAVPR =     10    prediction:  0-non 1-charg 2-wave 3-comb
   ISYM   =      2    0-nonsym 1-usesym 2-fastsym
   LCORR  =      T    Harris-Foulkes like correction to forces

   POTIM  = 0.5000    time-step for ionic-motion
   TEIN   =    0.0    initial temperature
   TEBEG  =    0.0;   TEEND  =   0.0 temperature during run
   SMASS  =  -3.00    Nose mass-parameter (am)
   estimated Nose-frequenzy (Omega)   =  0.10E-29 period in steps =****** mass=  -0.290E-26a.u.
   SCALEE = 1.0000    scale energy and forces
   NPACO  =    256;   APACO  = 16.0  distance and # of slots for P.C.
   PSTRESS=    0.0 pullay stress

  Mass of Ions in am
   POMASS =  58.69 32.07
  Ionic Valenz
   ZVAL   =  16.00  6.00
  Atomic Wigner-Seitz radii
  virtual crystal weights
   VCA    =   1.00  1.00
   NELECT =     572.0000    total number of electrons
   NUPDOWN=      -1.0000    fix difference up-down

 DOS related values:
   EMIN   =  10.00;   EMAX   =-10.00  energy-range for DOS
   EFERMI =   0.00
   ISMEAR =     0;   SIGMA  =   0.20  broadening in eV -4-tet -1-fermi 0-gaus
[...]
      26 -87.3637      27 -92.3054      28 -93.3439      29 -92.3827      30 -93.1330
      31 -92.3467      32 -93.4973      33 -93.0581      34 -92.7569      35 -92.3564
      36 -93.2329      37 -92.3450      38 -93.9481      39 -92.4949      40 -92.3467
      41 -93.4972      42 -93.0581      43 -92.7570      44 -92.3055      45 -93.3439
      46 -92.3827      47 -93.1329      48 -92.3564      49 -93.2329      50 -92.3449
      51 -93.9480      52 -92.4949

 E-fermi :  -0.1523     XC(G=0):  -5.3323     alpha+bet : -5.1393

 k-point     1 :       0.0000    0.0000    0.0000
  band No.  band energies     occupation
      1     -64.8803      2.00000
      2     -64.8802      2.00000
      3     -64.8195      2.00000
      4     -64.8194      2.00000
      5     -64.8087      2.00000
      6     -64.8085      2.00000
      7     -64.7829      2.00000
      8     -64.7827      2.00000
      9     -64.7456      2.00000
     10     -64.7453      2.00000
     11     -64.7239      2.00000
     12     -64.7238      2.00000
     13     -64.7179      2.00000
     14     -64.7178      2.00000
     15     -64.7147      2.00000
     16     -64.7145      2.00000
     17     -64.7052      2.00000
     18     -64.7051      2.00000
     19     -64.6932      2.00000
     20     -64.6931      2.00000
     21     -64.6646      2.00000
     22     -64.6645      2.00000
     23     -64.6328      2.00000
     24     -64.6328      2.00000
     25     -64.5940      2.00000
     26     -64.5940      2.00000
     27     -64.5848      2.00000
     28     -64.5847      2.00000
     29     -64.5813      2.00000
     30     -64.5808      2.00000
     31     -64.5754      2.00000
     32     -64.5754      2.00000
     33     -64.5559      2.00000
     34     -64.5559      2.00000
     35     -64.5399      2.00000
     36     -64.5398      2.00000
     37     -64.5286      2.00000
     38     -64.5285      2.00000
     39     -64.5256      2.00000
     40     -64.5256      2.00000
     41     -64.5078      2.00000
     42     -64.5075      2.00000
     43     -64.5006      2.00000
     44     -64.5005      2.00000
     45     -64.4847      2.00000
     46     -64.4846      2.00000
     47     -64.4297      2.00000
     48     -64.4296      2.00000
     49     -64.4263      2.00000
     50     -64.4262      2.00000
     51     -64.4061      2.00000
     52     -64.4060      2.00000
     53     -64.3717      2.00000
     54     -64.3716      2.00000
     55     -64.3098      2.00000
     56     -64.3097      2.00000
     57     -64.2929      2.00000
     58     -64.2927      2.00000
     59     -64.2773      2.00000
     60     -64.2771      2.00000
[...]
    330       5.0123      0.00000
    331       5.0455      0.00000
    332       5.0623      0.00000
    333       5.0715      0.00000
    334       5.2602      0.00000
    335       5.2920      0.00000
    336       5.3498      0.00000
    337       5.4190      0.00000
    338       5.4633      0.00000
    339       5.5373      0.00000
    340       5.6645      0.00000
    341       5.6782      0.00000
    342       5.7293      0.00000
    343       5.7471      0.00000
    344       5.7767      0.00000

 soft charge-density along one line, spin component           1
         0         1         2         3         4         5         6         7         8         9
 total charge-density along one line

------------------------ aborting loop because EDIFF is reached ----------------------------------------

  FORCE on cell =-STRESS in cart. coord.  units (eV):
  Direction    XX          YY          ZZ          XY          YZ          ZX
  Alpha Z  1046.73971  1046.73971  1046.73971
  Ewald  164555.07419161324.28030************     0.00000    -0.00000  -507.11941
  Hartree188665.20541186372.56853************    -0.00016     0.00190  -456.93594
  E(xc)   -3649.66902 -3651.67490 -3655.19648    -0.00010     0.00002     0.37286
  Local  ************************352347.59521     0.00037    -0.00347   971.03033
  n-local  -404.41560  -418.50235  -422.11321    -0.00582    -0.01016     3.73315
  augment  4167.31566  4196.61170  4191.23520     0.00400    -0.00149    -6.17369
  Kinetic  7990.67254  8026.56243  8073.93746    -0.00084    -0.00001    -6.08375
  Fock        0.00000     0.00000     0.00000     0.00000     0.00000     0.00000
  Total      90.05529    86.98982   104.14809     0.00000     0.00000    -1.17646
  in kB      77.83691    75.18735    90.01765     0.00000     0.00000    -1.01684

 VOLUME and BASIS-vectors are now :
  energy-cutoff  :      450.00
  volume of cell :     1853.68
      direct lattice vectors                 reciprocal lattice vectors
    11.256463038  0.000000000  0.000000000     0.088837852  0.000000000  0.000000000
     0.000000000  9.578410000  0.000000000     0.000000000  0.104401461  0.000000000
     0.000000000  0.000000000 17.192492405     0.000000000  0.000000000  0.058164923

  length of vectors
    11.256463038  9.578410000 17.192492405     0.088837852  0.104401461  0.058164923

 FORCES acting on ions
    electron-ion (+dipol)            ewald-force                    non-local-force                 convergence-correction
   0.349E+03 -.345E+03 0.133E+04   -.352E+03 0.348E+03 -.134E+04   0.179E+01 -.219E+01 0.454E+01   0.310E-02 -.181E-01 -.236E-01
   0.392E+03 -.896E+03 -.330E+04   -.392E+03 0.897E+03 0.330E+04   -.168E+00 0.983E+00 -.179E+01   0.113E-01 -.339E-01 -.193E-01
   -.237E+03 -.604E+03 0.295E+04   0.239E+03 0.611E+03 -.295E+04   -.113E+01 -.725E+01 0.566E+01   -.898E-02 0.171E-01 -.337E-01
   0.247E+03 -.631E+03 -.176E+04   -.249E+03 0.635E+03 0.176E+04   0.135E+01 -.281E+01 -.318E+01   0.236E-01 0.425E-01 -.352E-01
   0.387E+03 0.209E+03 0.150E+04   -.389E+03 -.212E+03 -.150E+04   0.195E+01 0.230E+01 0.447E+01   -.781E-02 0.269E-01 -.305E-01
   0.323E+03 0.319E+03 -.328E+04   -.325E+03 -.322E+03 0.328E+04   0.132E+01 0.187E+01 -.297E+01   -.391E-02 0.612E-01 -.134E-01
   -.293E+03 0.556E+03 0.333E+04   0.293E+03 -.562E+03 -.333E+04   0.391E+00 0.601E+01 0.547E+01   -.209E-02 -.481E-02 -.275E-01
   -.348E+03 0.632E+03 -.110E+04   0.350E+03 -.636E+03 0.110E+04   -.160E+01 0.385E+01 -.354E+01   0.439E-01 -.451E-01 -.528E-01
   -.468E+03 0.323E+02 0.222E+04   0.472E+03 -.316E+02 -.222E+04   -.358E+01 -.447E+00 0.593E+01   -.594E-03 -.813E-02 -.141E-01
   -.660E+03 0.356E+02 -.257E+04   0.667E+03 -.356E+02 0.258E+04   -.479E+01 -.130E+00 -.259E+01   -.133E-01 -.713E-02 -.210E-01
   0.415E+03 0.305E+02 0.329E+04   -.418E+03 -.301E+02 -.330E+04   0.182E+01 -.253E+00 0.526E+01   -.879E-03 -.638E-02 -.328E-01
   -.224E+03 0.362E+03 -.964E+03   0.226E+03 -.365E+03 0.964E+03   -.152E+01 0.143E+01 -.850E+00   -.262E-01 -.181E-01 -.590E-01
   0.141E+03 0.281E+03 -.339E+04   -.141E+03 -.281E+03 0.339E+04   -.121E+00 -.413E+00 -.263E+01   -.118E-01 0.785E-02 -.510E-03
   0.387E+03 -.209E+03 0.150E+04   -.389E+03 0.212E+03 -.150E+04   0.195E+01 -.230E+01 0.447E+01   -.781E-02 -.269E-01 -.305E-01
   0.323E+03 -.319E+03 -.328E+04   -.325E+03 0.322E+03 0.328E+04   0.132E+01 -.187E+01 -.297E+01   -.391E-02 -.612E-01 -.134E-01
   -.293E+03 -.556E+03 0.333E+04   0.293E+03 0.562E+03 -.333E+04   0.391E+00 -.601E+01 0.547E+01   -.209E-02 0.480E-02 -.275E-01
   -.348E+03 -.632E+03 -.110E+04   0.350E+03 0.636E+03 0.110E+04   -.160E+01 -.385E+01 -.354E+01   0.439E-01 0.451E-01 -.528E-01
   0.349E+03 0.345E+03 0.133E+04   -.352E+03 -.348E+03 -.134E+04   0.179E+01 0.219E+01 0.454E+01   0.311E-02 0.181E-01 -.236E-01
   0.392E+03 0.896E+03 -.330E+04   -.392E+03 -.897E+03 0.330E+04   -.168E+00 -.983E+00 -.179E+01   0.114E-01 0.339E-01 -.193E-01
   -.237E+03 0.604E+03 0.295E+04   0.239E+03 -.611E+03 -.295E+04   -.113E+01 0.725E+01 0.566E+01   -.897E-02 -.171E-01 -.337E-01
   0.247E+03 0.631E+03 -.176E+04   -.249E+03 -.635E+03 0.176E+04   0.135E+01 0.281E+01 -.318E+01   0.236E-01 -.425E-01 -.352E-01
   -.468E+03 -.322E+02 0.222E+04   0.472E+03 0.316E+02 -.222E+04   -.358E+01 0.447E+00 0.593E+01   -.594E-03 0.813E-02 -.141E-01
   -.660E+03 -.356E+02 -.257E+04   0.667E+03 0.356E+02 0.258E+04   -.479E+01 0.130E+00 -.259E+01   -.133E-01 0.714E-02 -.210E-01
   0.415E+03 -.305E+02 0.329E+04   -.418E+03 0.301E+02 -.330E+04   0.182E+01 0.253E+00 0.526E+01   -.874E-03 0.638E-02 -.328E-01
   -.224E+03 -.362E+03 -.964E+03   0.226E+03 0.365E+03 0.964E+03   -.152E+01 -.143E+01 -.850E+00   -.262E-01 0.181E-01 -.590E-01
   0.141E+03 -.281E+03 -.339E+04   -.141E+03 0.281E+03 0.339E+04   -.121E+00 0.413E+00 -.263E+01   -.118E-01 -.785E-02 -.510E-03
   0.299E+02 -.439E+02 0.151E+04   -.307E+02 0.440E+02 -.152E+04   0.108E+01 -.444E+00 0.371E+01   0.823E-03 0.147E-02 -.126E-02
   -.753E+02 0.207E+03 -.304E+03   0.766E+02 -.209E+03 0.304E+03   -.757E+00 -.420E-01 -.122E+01   -.455E-02 0.181E-01 -.841E-02
   -.126E+03 -.407E+01 -.185E+04   0.127E+03 0.438E+01 0.185E+04   0.168E-01 -.207E+00 -.549E+00   0.114E-03 -.669E-02 -.160E-02
   -.112E+03 0.258E+03 0.734E+03   0.113E+03 -.259E+03 -.736E+03   0.926E+00 0.612E+00 0.476E-01   0.591E-02 -.844E-02 -.112E-01
   0.170E+02 0.594E+02 0.149E+04   -.181E+02 -.596E+02 -.150E+04   0.129E+01 0.369E+00 0.356E+01   -.360E-02 -.948E-02 -.256E-02
   -.138E+03 -.600E+02 -.265E+03   0.140E+03 0.612E+02 0.263E+03   -.121E+01 -.647E+00 -.282E+00   0.392E-02 -.216E-01 -.125E-01
   -.280E+02 -.241E+03 0.752E+03   0.282E+02 0.243E+03 -.755E+03   0.326E+00 -.944E+00 0.946E+00   0.699E-03 0.933E-02 -.178E-01
   0.177E+03 -.614E+02 -.128E+04   -.176E+03 0.639E+02 0.129E+04   -.148E+01 -.207E+01 -.159E+01   -.211E-01 0.190E-01 -.543E-03
   0.934E+02 -.445E+01 0.121E+04   -.931E+02 0.426E+01 -.122E+04   -.115E+01 0.236E+00 0.422E+01   0.907E-03 -.141E-02 -.131E-02
   0.231E+03 -.604E+02 -.624E+03   -.233E+03 0.604E+02 0.624E+03   0.113E+01 0.103E+00 -.960E+00   0.470E-03 0.337E-02 -.775E-02
   -.682E+01 -.466E+02 0.186E+04   0.659E+01 0.468E+02 -.186E+04   0.596E-01 0.124E+00 0.155E+01   -.208E-02 0.637E-02 -.699E-02
   0.109E+03 -.856E+02 0.154E+03   -.110E+03 0.859E+02 -.153E+03   -.160E+01 -.126E+00 0.618E+00   -.993E-03 0.800E-02 -.347E-01
   -.189E+03 0.201E+02 -.167E+04   0.190E+03 -.213E+02 0.168E+04   0.371E+00 0.732E+00 -.334E+01   0.257E-01 -.130E-02 0.107E-01
   0.170E+02 -.594E+02 0.149E+04   -.181E+02 0.596E+02 -.150E+04   0.129E+01 -.369E+00 0.356E+01   -.360E-02 0.948E-02 -.256E-02
   -.138E+03 0.600E+02 -.265E+03   0.140E+03 -.612E+02 0.263E+03   -.121E+01 0.647E+00 -.282E+00   0.392E-02 0.216E-01 -.125E-01
   -.280E+02 0.241E+03 0.752E+03   0.282E+02 -.243E+03 -.755E+03   0.326E+00 0.944E+00 0.946E+00   0.701E-03 -.933E-02 -.178E-01
   0.177E+03 0.614E+02 -.128E+04   -.176E+03 -.639E+02 0.129E+04   -.148E+01 0.207E+01 -.159E+01   -.211E-01 -.190E-01 -.543E-03
   0.299E+02 0.439E+02 0.151E+04   -.307E+02 -.440E+02 -.152E+04   0.108E+01 0.444E+00 0.371E+01   0.822E-03 -.147E-02 -.126E-02
   -.753E+02 -.207E+03 -.304E+03   0.766E+02 0.209E+03 0.304E+03   -.757E+00 0.420E-01 -.122E+01   -.455E-02 -.181E-01 -.841E-02
   -.126E+03 0.407E+01 -.185E+04   0.127E+03 -.438E+01 0.185E+04   0.168E-01 0.207E+00 -.549E+00   0.114E-03 0.669E-02 -.160E-02
   -.112E+03 -.258E+03 0.734E+03   0.113E+03 0.259E+03 -.736E+03   0.926E+00 -.612E+00 0.476E-01   0.591E-02 0.844E-02 -.112E-01
   0.934E+02 0.445E+01 0.121E+04   -.931E+02 -.426E+01 -.122E+04   -.115E+01 -.236E+00 0.422E+01   0.909E-03 0.141E-02 -.131E-02
   0.231E+03 0.604E+02 -.624E+03   -.233E+03 -.604E+02 0.624E+03   0.113E+01 -.103E+00 -.960E+00   0.472E-03 -.337E-02 -.775E-02
   -.682E+01 0.466E+02 0.186E+04   0.659E+01 -.468E+02 -.186E+04   0.596E-01 -.124E+00 0.155E+01   -.208E-02 -.637E-02 -.699E-02
   0.109E+03 0.856E+02 0.154E+03   -.110E+03 -.859E+02 -.153E+03   -.160E+01 0.126E+00 0.618E+00   -.993E-03 -.800E-02 -.347E-01
   -.189E+03 -.201E+02 -.167E+04   0.190E+03 0.213E+02 0.168E+04   0.371E+00 -.732E+00 -.334E+01   0.257E-01 0.130E-02 0.107E-01
   0.106E+02 0.512E-01 -.400E+02   0.227E-12 0.696E-12 -.455E-12   -.106E+02 -.189E-14 0.410E+02   0.254E-01 -.417E-06 -.919E+00

 POSITION                                       TOTAL-FORCE (eV/Angst)
      4.94536      4.44331      2.79952        -0.655308      0.869842      1.861488
      5.54166      4.31258      5.57745        -0.733189      1.790624      0.625046
      1.78008      9.40242      1.77214         0.820671      0.292871     -0.175462
      2.42308      9.23251      4.34179        -1.063685      1.591603     -0.769313
      4.94536      1.91264      2.79952        -0.346172     -0.702641      1.476200
      5.41559      1.78137      5.53614        -0.786468     -1.250730      0.722928
      1.79188      6.67507      1.60264         0.823536     -0.375695      0.100461
      2.38245      6.54131      4.02377        -0.182636     -0.794142     -0.026895
      1.47054      3.17797      2.39204         0.783987      0.198624      2.046100
      2.07941      3.18556      5.12631         1.613610     -0.148936      0.401056
      5.09225      7.96272      1.64958        -0.976699      0.155801      0.247820
      4.36734      7.96264      3.90927         0.559695     -0.870872     -0.365907
      6.19625      8.63163      5.29869        -0.567956     -0.298741      0.211285
     10.57359      4.44331      2.79952        -0.346172      0.702641      1.476200
     11.04382      4.57458      5.53614        -0.786468      1.250730      0.722928
      7.42011      9.25929      1.60264         0.823536      0.375695      0.100461
      8.01069      9.39305      4.02377        -0.182636      0.794142     -0.026895
     10.57359      1.91264      2.79952        -0.655308     -0.869842      1.861488
     11.16990      2.04337      5.57745        -0.733189     -1.790624      0.625046
      7.40831      6.53193      1.77214         0.820671     -0.292871     -0.175462
      8.05131      6.70184      4.34179        -1.063685     -1.591603     -0.769313
      7.09877      3.17797      2.39204         0.783987     -0.198624      2.046100
      7.70764      3.17038      5.12631         1.613610      0.148936      0.401056
     10.72048      7.97164      1.64958        -0.976699     -0.155801      0.247820
      9.99557      7.97171      3.90927         0.559695      0.870872     -0.365907
      0.56802      7.30272      5.29869        -0.567956      0.298741      0.211285
      0.73342      1.56354      1.34118         0.231311     -0.337745     -3.201179
      1.25497      1.56674      4.10795         0.616467     -1.719420     -0.732015
      0.87600      3.35486      6.78140         0.769858      0.092529      3.800106
      3.77725      6.35595      2.56568         1.776125     -0.988682     -1.593909
      0.77588      4.86090      1.38036         0.212578      0.125102     -2.920861
      1.25497      4.78920      4.10795         0.513207      0.574895     -1.559916
      3.77725      9.57841      2.56568         0.540503      0.810648     -1.499168
      4.35899      9.55994      5.33251        -0.479120      0.422736      2.476358
      3.53705      3.17655      1.93999        -0.919967      0.048444     -2.538714
      4.14113      3.17797      4.62682        -1.588534      0.141936     -0.679367
      1.02777      8.10519      0.34846        -0.179942      0.291149     -4.111523
      1.03518      7.96718      3.08454        -2.018428      0.214736      2.551520
      2.52590      7.67285      5.72890         1.236555     -0.456908      3.653859
      6.40411      1.49505      1.38036         0.212578     -0.125102     -2.920861
      6.88320      1.56674      4.10795         0.513207     -0.574895     -1.559916
      9.40548      6.35595      2.56568         0.540503     -0.810648     -1.499168
      9.98723      6.37442      5.33251        -0.479120     -0.422736      2.476358
      6.36165      4.79241      1.34118         0.231311      0.337745     -3.201179
      6.88320      4.78920      4.10795         0.616467      1.719420     -0.732015
      6.50423      3.00108      6.78140         0.769858     -0.092529      3.800106
      9.40548      9.57841      2.56568         1.776125      0.988682     -1.593909
      9.16528      3.17940      1.93999        -0.919967     -0.048444     -2.538714
      9.76936      3.17797      4.62682        -1.588534     -0.141936     -0.679367
      6.65600      7.82917      0.34846        -0.179942     -0.291149     -4.111523
      6.66341      7.96718      3.08454        -2.018428     -0.214736      2.551520
      8.15413      8.26150      5.72890         1.236555      0.456908      3.653859
    total drift:                                0.055459      0.051205      0.013365

  FREE ENERGIE OF THE ION-ELECTRON SYSTEM (eV)
  free  energy   TOTEN  =      -249.48140583 eV

  energy  without entropy=     -248.61053952  energy(sigma->0) =     -249.04597268