 vasp.5.4.4.18Apr17-6-g9f103f2a35 (build Aug 13 2019 17:33:20) gamma-only

 executed on             LinuxIFC date 2020.05.11  22:25:07

 INCAR:
 POTCAR:    PAW_PBE Ni_pv 06Sep2000
 POTCAR:    PAW_PBE S 06Sep2000
 POTCAR:    PAW_PBE Ni_pv 06Sep2000
   VRHFIN =Ni:

   TITEL  = PAW_PBE Ni_pv 06Sep2000
   POMASS =   58.690; ZVAL   =   16.000    mass and valenz
   ENMAX  =  367.986; ENMIN  =  275.989 eV

 POTCAR:    PAW_PBE S 06Sep2000
   VRHFIN =S : s2p4

   TITEL  = PAW_PBE S 06Sep2000
   POMASS =   32.066; ZVAL   =    6.000    mass and valenz
   ENMAX  =  258.689; ENMIN  =  194.016 eV

 Optimization of the real space projectors (new method)

 maximal supplied QI-value         = 18.90
 optimisation between [QCUT,QGAM] = [ 10.77, 21.73] = [ 32.49,132.25] Ry
 Optimized for a Real-space Cutoff    1.38 Angstroem

   l    n(q)    QCUT    max X(q) W(low)/X(q) W(high)/X(q)  e(spline)
   1      8    10.771     2.836    0.40E-04    0.29E-04    0.12E-06
   1      8    10.771     4.023    0.10E-03    0.48E-04    0.29E-06
   2      8    10.771    73.368    0.42E-03    0.97E-04    0.44E-06
   2      8    10.771    69.010    0.42E-03    0.99E-04    0.45E-06
   0      9    10.771    54.797    0.10E-03    0.56E-04    0.74E-07
   0      9    10.771    24.266    0.89E-04    0.49E-04    0.67E-07
 Optimization of the real space projectors (new method)

 maximal supplied QI-value         = 19.84
 optimisation between [QCUT,QGAM] = [ 10.71, 21.63] = [ 32.15,130.99] Ry
 Optimized for a Real-space Cutoff    1.19 Angstroem

   l    n(q)    QCUT    max X(q) W(low)/X(q) W(high)/X(q)  e(spline)
   0      8    10.715   187.594    0.41E-03    0.53E-04    0.66E-07
   0      8    10.715   164.243    0.41E-03    0.53E-04    0.65E-07
   1      7    10.715    67.533    0.19E-03    0.59E-03    0.68E-07
   1      7    10.715    50.729    0.19E-03    0.58E-03    0.67E-07
  PAW_PBE Ni_pv 06Sep2000               :
  PAW_PBE S 06Sep2000                   :

 POSCAR: Type_036 Type_136
  positions in cartesian coordinates
 exchange correlation table for  LEXCH =        8
   RHO(1)=    0.500       N(1)  =     2000
   RHO(2)=  100.500       N(2)  =     4000

 ion  position               nearest neighbor table
   1  0.780  0.145  0.097-  50 2.08  63 2.09  41 2.25  51 2.36  64 2.36  13 2.39  35 2.52
   2  0.801  0.145  0.263-  64 2.04  51 2.04  42 2.06
   3  0.217  0.645  0.073-  43 2.03  44 2.11  52 2.18  61 2.19   4 2.37
   4  0.297  0.645  0.193-  52 2.09  61 2.09  53 2.15  62 2.15  44 2.25   3 2.37  27 2.53  15 2.53

   5  0.387  0.155  0.104-  46 2.03  47 2.10  54 2.26  67 2.40   6 2.40  29 2.47
   6  0.470  0.145  0.224-  55 2.11  68 2.11  47 2.25  54 2.26  67 2.26   5 2.40  30 2.53  18 2.53

[...]

  37  0.991  0.143  0.336-  10 2.02  26 2.06  14 2.06
  38  0.991  0.145  0.159-  14 2.08  13 2.09  26 2.09  25 2.22   9 2.25
  39  0.459  0.645  0.073-  11 2.03  15 2.06  27 2.06
  40  0.509  0.645  0.254-  28 2.07  16 2.07  11 2.13  12 2.25  27 2.36  15 2.36
  41  0.647  0.145  0.095-  29 2.04  17 2.20   1 2.25  18 2.26  30 2.26  42 2.73
  42  0.679  0.147  0.261-   2 2.06  30 2.11  18 2.13  41 2.73
  43  0.109  0.665  0.019-   3 2.03  19 2.05  31 2.06
  44  0.164  0.645  0.191-  20 2.09   3 2.11  31 2.12  32 2.13   4 2.25  19 2.36
  45  0.091  0.642  0.369-   8 2.04  32 2.04  20 2.05
  46  0.283  0.145  0.040-   5 2.03  33 2.06  21 2.06
  47  0.336  0.145  0.223-  34 2.05  22 2.05   5 2.10   6 2.25  33 2.36  21 2.36
  48  0.819  0.645  0.127-   7 2.07  23 2.17  24 2.26  36 2.26  35 2.57  49 2.58
  49  0.863  0.645  0.280-   8 2.13  24 2.16  36 2.17   7 2.25  48 2.58
  50  0.823  0.293  0.014-  23 2.02  25 2.06   1 2.08
  51  0.829  0.314  0.191-   2 2.04  25 2.10  23 2.13  26 2.18  24 2.25   1 2.36
  52  0.301  0.808  0.107-   4 2.09   3 2.18  21 2.18  27 2.32
  53  0.353  0.789  0.276-  22 2.03  28 2.05  27 2.14   4 2.15  62 2.75
  54  0.484  0.314  0.127-  29 2.03  15 2.25   6 2.26  30 2.26   5 2.26
  55  0.530  0.283  0.305-  16 1.99  30 2.06   6 2.11  68 2.63
  56  0.001  0.814  0.223-  32 2.10   8 2.11  14 2.17  31 2.18   7 2.26
  57  0.140  0.323  0.087-   9 2.09  19 2.10  33 2.11  58 2.77
  58  0.174  0.314  0.255-  34 2.05  10 2.13  20 2.13   9 2.36  33 2.36  57 2.77
  59  0.657  0.814  0.159-  17 2.09  35 2.13  11 2.22  18 2.25  36 2.26  12 2.26
  60  0.698  0.785  0.330-  36 2.01  12 2.03  70 2.72
  61  0.302  0.483  0.107-   4 2.09  33 2.18   3 2.19  15 2.32
  62  0.354  0.502  0.276-  34 2.03  16 2.04  15 2.14   4 2.15  53 2.75
  63  0.818  0.999  0.010-  35 2.02  13 2.05   1 2.09
  64  0.829  0.977  0.191-   2 2.04  13 2.09  35 2.14  14 2.17  36 2.25   1 2.36
  65  0.001  0.477  0.223-  20 2.08   7 2.08   8 2.12  26 2.20  19 2.36  66 2.66
  66  0.962  0.497  0.064-  19 2.09  25 2.09   7 2.13  65 2.66
  67  0.484  0.977  0.127-  29 2.04  27 2.25   6 2.26  18 2.26  17 2.35   5 2.40
  68  0.529  0.008  0.306-  28 1.99  18 2.08   6 2.11  55 2.63
  69  0.657  0.477  0.159-  30 2.25  24 2.26  12 2.26  11 2.36  23 2.38
  70  0.696  0.500  0.328-  24 2.01  12 2.03  60 2.72
  71  0.140  0.969  0.087-   9 2.08  31 2.10  21 2.10  72 2.77
  72  0.174  0.977  0.255-  22 2.05  10 2.13  32 2.14   9 2.36  21 2.36  71 2.77

  LATTYP: Found a simple orthorhombic cell.
 ALAT       =     9.5784100000
 B/A-ratio  =     1.6880763216
 C/A-ratio  =     1.7627867312

  Lattice vectors:

 A1 = (   0.0000000000,   9.5784100000,   0.0000000000)
 A2 = (   0.0000000000,   0.0000000000, -16.1690871197)
 A3 = ( -16.8846940542,   0.0000000000,   0.0000000000)

Analysis of symmetry for initial positions (statically):
 Subroutine PRICEL returns:
 Original cell was already a primitive cell.

 Routine SETGRP: Setting up the symmetry group for a
 simple orthorhombic supercell.

 Subroutine GETGRP returns: Found  1 space group operations
 (whereof  1 operations were pure point group operations)
 out of a pool of  8 trial point group operations.

The static configuration has the point symmetry C_1 .

Analysis of symmetry for dynamics (positions and initial velocities):
 Subroutine PRICEL returns:
 Original cell was already a primitive cell.

 Routine SETGRP: Setting up the symmetry group for a
 simple orthorhombic supercell.

 Subroutine GETGRP returns: Found  1 space group operations
 (whereof  1 operations were pure point group operations)
 out of a pool of  8 trial point group operations.

The dynamic configuration has the point symmetry C_1 .

 Subroutine INISYM returns: Found  1 space group operations
 (whereof  1 operations are pure point group operations),
 and found     1 'primitive' translations

 KPOINTS: gamma-point-only calculation. no periodi

Automatic generation of k-mesh.
Space group operators:
 irot       det(A)        alpha          n_x          n_y          n_z        tau_x        tau_y        tau_z
    1     1.000000     0.000000     1.000000     0.000000     0.000000     0.000000     0.000000     0.000000

 Subroutine IBZKPT returns following result:

 Found      1 irreducible k-points:

 Following reciprocal coordinates:
            Coordinates               Weight
  0.000000  0.000000  0.000000      1.000000

 Following cartesian coordinates:
            Coordinates               Weight
  0.000000  0.000000  0.000000      1.000000

 SYSTEM =  "Millerite NiS"
 POSCAR =  Type_036 Type_136

 Startparameter for this run:
   NWRITE =      2    write-flag & timer
   PREC   = normal    normal or accurate (medium, high low for compatibility)
   ISTART =      0    job   : 0-new  1-cont  2-samecut
   ICHARG =      2    charge: 1-file 2-atom 10-const
   ISPIN  =      1    spin polarized calculation?
   LNONCOLLINEAR =      F non collinear calculations
   LSORBIT =      F    spin-orbit coupling
   INIWAV =      1    electr: 0-lowe 1-rand  2-diag
   LASPH  =      F    aspherical Exc in radial PAW
   METAGGA=      F    non-selfconsistent MetaGGA calc.

 Electronic Relaxation 1
   ENCUT  =  450.0 eV  33.07 Ry    5.75 a.u.  29.20 16.57 27.97*2*pi/ulx,y,z
   ENINI  =  450.0     initial cutoff
   ENAUG  =  703.4 eV  augmentation charge cutoff
   NELM   =    100;   NELMIN=  2; NELMDL= -5     # of ELM steps
   EDIFF  = 0.1E-03   stopping-criterion for ELM
   LREAL  =      T    real-space projection
   NLSPLINE    = F    spline interpolate recip. space projectors
   LCOMPAT=      F    compatible to vasp.4.4
   GGA_COMPAT  = T    GGA compatible to vasp.4.4-vasp.4.6
   LMAXPAW     = -100 max onsite density
   LMAXMIX     =    2 max onsite mixed and CHGCAR
   VOSKOWN=      0    Vosko Wilk Nusair interpolation
   ROPT   =   -0.00050  -0.00050
 Ionic relaxation
   EDIFFG = 0.1E-02   stopping-criterion for IOM
   NSW    =      0    number of steps for IOM
   NBLOCK =      1;   KBLOCK =      1    inner block; outer block
   IBRION =     -1    ionic relax: 0-MD 1-quasi-New 2-CG
   NFREE  =      0    steps in history (QN), initial steepest desc. (CG)
   ISIF   =      2    stress and relaxation
   IWAVPR =     10    prediction:  0-non 1-charg 2-wave 3-comb
   ISYM   =      2    0-nonsym 1-usesym 2-fastsym
   LCORR  =      T    Harris-Foulkes like correction to forces

   POTIM  = 0.5000    time-step for ionic-motion
   TEIN   =    0.0    initial temperature
   TEBEG  =    0.0;   TEEND  =   0.0 temperature during run
   SMASS  =  -3.00    Nose mass-parameter (am)
   estimated Nose-frequenzy (Omega)   =  0.10E-29 period in steps =****** mass=  -0.652E-26a.u.
   SCALEE = 1.0000    scale energy and forces
   NPACO  =    256;   APACO  = 16.0  distance and # of slots for P.C.
   PSTRESS=    0.0 pullay stress

  Mass of Ions in am
   POMASS =  58.69 32.07
  Ionic Valenz
   ZVAL   =  16.00  6.00
  Atomic Wigner-Seitz radii
  virtual crystal weights
   VCA    =   1.00  1.00
   NELECT =     792.0000    total number of electrons
   NUPDOWN=      -1.0000    fix difference up-down

 DOS related values:
   EMIN   =  10.00;   EMAX   =-10.00  energy-range for DOS
   EFERMI =   0.00
   ISMEAR =     0;   SIGMA  =   0.20  broadening in eV -4-tet -1-fermi 0-gaus

 Electronic relaxation 2 (details)
   IALGO  =     38    algorithm
   LDIAG  =      T    sub-space diagonalisation (order eigenvalues)
   LSUBROT=      F    optimize rotation matrix (better conditioning)
   TURBO    =      0    0=normal 1=particle mesh
   IRESTART =      0    0=no restart 2=restart with 2 vectors
   NREBOOT  =      0    no. of reboots
   NMIN     =      0    reboot dimension
   EREF     =   0.00    reference energy to select bands
   IMIX   =      4    mixing-type and parameters
     AMIX     =   0.40;   BMIX     =  1.00
     AMIX_MAG =   1.60;   BMIX_MAG =  1.00
     AMIN     =   0.10
     WC   =   100.;   INIMIX=   1;  MIXPRE=   1;  MAXMIX= -45

 Intra band minimization:
   WEIMIN = 0.0000     energy-eigenvalue tresh-hold
   EBREAK =  0.53E-07  absolut break condition
   DEPER  =   0.30     relativ break condition

   TIME   =   0.40     timestep for ELM

  volume/ion in A,a.u.               =      36.32       245.10
  Fermi-wavevector in a.u.,A,eV,Ry     =   1.099409  2.077581 16.445356  1.208700
  Thomas-Fermi vector in A             =   2.235803

 Write flags
   LWAVE        =      F    write WAVECAR
   LDOWNSAMPLE  =      F    k-point downsampling of WAVECAR
   LCHARG       =      F    write CHGCAR
[...]
  Fock        0.00000     0.00000     0.00000     0.00000     0.00000     0.00000
  Total     117.35382   116.47039   147.14080    -1.08364    -1.14238    -1.09192
  in kB      71.90113    71.35986    90.15121    -0.66393    -0.69992    -0.66900

 VOLUME and BASIS-vectors are now :
  energy-cutoff  :      450.00
  volume of cell :     2615.00
      direct lattice vectors                 reciprocal lattice vectors
    16.884694054  0.000000000  0.000000000     0.059225237  0.000000000  0.000000000
     0.000000000  9.578410000  0.000000000     0.000000000  0.104401461  0.000000000
     0.000000000  0.000000000 16.169087120     0.000000000  0.000000000  0.061846411

  length of vectors
    16.884694054  9.578410000 16.169087120     0.059225237  0.104401461  0.061846411

 FORCES acting on ions
    electron-ion (+dipol)            ewald-force                    non-local-force                 convergence-correction
   0.573E+03 -.236E+03 0.217E+04   -.577E+03 0.237E+03 -.217E+04   0.281E+01 -.249E+00 0.549E+01   -.431E-02 -.424E-02 0.166E-02
   0.404E+03 -.150E+02 -.287E+04   -.406E+03 0.152E+02 0.287E+04   0.279E+01 -.116E+00 0.145E+01   0.945E-02 -.710E-03 -.290E-05
   -.364E+03 0.156E+02 0.332E+04   0.366E+03 -.152E+02 -.333E+04   -.603E+00 -.721E+00 0.781E+01   0.118E-01 0.295E-02 0.880E-02
   0.201E+03 0.152E+02 -.526E+03   -.202E+03 -.151E+02 0.530E+03   0.135E+01 -.731E-01 -.225E+01   0.143E-01 0.207E-02 0.135E-01
   0.535E+02 -.735E+02 0.262E+04   -.535E+02 0.741E+02 -.263E+04   0.882E+00 -.677E+00 0.799E+01   -.311E-02 0.501E-03 0.176E-01
   0.297E+03 -.665E+02 -.161E+04   -.300E+03 0.670E+02 0.162E+04   0.271E+01 -.432E+00 -.551E+01   -.114E-01 0.108E-02 0.127E-02
   0.303E+03 -.324E+03 0.100E+04   -.306E+03 0.327E+03 -.101E+04   0.303E+01 -.178E+01 0.526E+01   -.366E-02 -.654E-02 0.980E-02
   0.620E+03 -.438E+02 -.336E+04   -.621E+03 0.434E+02 0.337E+04   -.248E+00 0.168E+00 -.676E+01   -.139E-02 -.421E-02 0.100E-01
   0.448E+03 0.217E+02 0.109E+04   -.452E+03 -.218E+02 -.109E+04   0.409E+01 0.295E+00 0.326E+01   0.849E-02 -.598E-02 0.140E-01
   -.482E+02 -.503E+00 -.329E+04   0.451E+02 0.333E+00 0.329E+04   0.422E+01 0.262E+00 -.614E+00   0.279E-02 -.265E-02 0.199E-02
   -.263E+03 0.345E+03 0.201E+04   0.263E+03 -.346E+03 -.202E+04   0.125E+01 0.105E+01 0.663E+01   -.866E-02 -.584E-02 -.260E-02
   0.198E+03 0.114E+03 -.213E+04   -.202E+03 -.115E+03 0.213E+04   0.248E+01 0.302E+00 -.626E+01   -.104E-01 -.261E-02 -.666E-02
   -.789E+03 0.625E+03 0.266E+04   0.791E+03 -.624E+03 -.267E+04   -.957E-01 -.120E+01 0.552E+01   -.156E-02 0.613E-02 0.143E-01
   0.216E+02 0.545E+03 -.199E+04   -.197E+02 -.548E+03 0.200E+04   -.275E+01 0.280E+01 -.432E+01   0.814E-02 0.103E-01 0.134E-01
   -.118E+03 0.418E+03 0.103E+04   0.117E+03 -.422E+03 -.103E+04   0.681E+00 0.318E+01 0.349E+01   0.573E-02 -.132E-01 -.328E-02
   -.186E+03 0.118E+03 -.337E+04   0.189E+03 -.121E+03 0.337E+04   -.329E+01 0.443E+01 0.151E+01   -.330E-02 -.105E-01 -.113E-01
   0.611E+02 0.570E+03 0.354E+04   -.600E+02 -.568E+03 -.354E+04   -.112E+01 -.225E+01 -.546E+00   -.230E-02 -.839E-02 0.437E-02
   -.373E+03 0.274E+03 -.104E+04   0.376E+03 -.278E+03 0.104E+04   -.250E+01 0.442E+01 -.451E+01   -.188E-01 0.586E-02 0.102E-01
   0.804E+02 0.453E+03 0.236E+04   -.810E+02 -.458E+03 -.236E+04   0.104E+01 0.525E+01 0.551E+01   -.581E-02 -.870E-02 0.541E-02
   -.374E+03 0.463E+03 -.245E+04   0.377E+03 -.469E+03 0.245E+04   -.228E+01 0.416E+01 -.395E+01   0.838E-03 -.893E-02 0.101E-01
   -.262E+02 0.447E+03 0.167E+04   0.262E+02 -.452E+03 -.167E+04   0.199E+00 0.410E+01 0.393E+01   0.214E-01 0.989E-02 0.224E-01
   -.763E+02 0.902E+02 -.293E+04   0.773E+02 -.937E+02 0.293E+04   -.121E+01 0.387E+01 0.148E+01   0.136E-01 0.962E-02 -.119E-04
   0.572E+03 -.466E+03 0.273E+04   -.575E+03 0.468E+03 -.274E+04   0.151E+01 -.212E+01 0.760E+01   -.156E-02 -.101E-03 0.509E-02
   -.339E+02 0.337E+03 -.159E+04   0.349E+02 -.340E+03 0.159E+04   -.455E+00 0.311E+01 -.570E+01   -.523E-02 -.106E-02 0.658E-02
   -.566E+03 -.209E+03 0.254E+04   0.571E+03 0.212E+03 -.255E+04   -.480E+01 -.320E+01 0.571E+01   0.818E-02 0.120E-03 0.703E-02
   0.234E+02 -.416E+03 -.217E+04   -.223E+02 0.419E+03 0.218E+04   -.190E+01 -.191E+01 -.477E+01   0.101E-01 -.986E-02 0.373E-02
   0.444E+02 -.332E+03 0.967E+03   -.452E+02 0.336E+03 -.971E+03   0.525E+00 -.292E+01 0.336E+01   -.599E-03 0.407E-02 0.963E-02
   -.138E+03 -.902E+02 -.344E+04   0.141E+03 0.941E+02 0.344E+04   -.302E+01 -.442E+01 0.151E+01   -.907E-02 0.170E-01 0.344E-02
   0.742E+02 -.483E+03 0.363E+04   -.747E+02 0.484E+03 -.364E+04   0.269E+00 -.688E+00 0.599E+01   -.206E-01 0.487E-02 0.131E-01
   -.448E+03 -.665E+03 -.491E+03   0.451E+03 0.672E+03 0.492E+03   -.243E+01 -.585E+01 -.263E+01   -.227E-01 -.134E-03 0.751E-02
   0.373E+03 -.595E+03 0.199E+04   -.375E+03 0.602E+03 -.200E+04   0.138E+01 -.644E+01 0.417E+01   0.510E-02 0.112E-01 0.193E-02
   -.358E+03 -.464E+03 -.260E+04   0.361E+03 0.469E+03 0.261E+04   -.183E+01 -.369E+01 -.430E+01   0.728E-02 0.805E-02 0.882E-02
   0.612E+00 -.460E+03 0.166E+04   -.691E+00 0.465E+03 -.166E+04   0.269E+00 -.435E+01 0.380E+01   0.245E-01 -.189E-01 0.115E-01
   -.798E+02 -.103E+03 -.293E+04   0.806E+02 0.107E+03 0.293E+04   -.976E+00 -.391E+01 0.147E+01   0.122E-01 -.180E-01 -.409E-02
   -.345E+02 0.641E+03 0.254E+04   0.327E+02 -.643E+03 -.255E+04   0.146E+01 0.342E+00 0.756E+01   -.111E-01 -.533E-02 0.227E-02
   -.247E+03 -.278E+03 -.156E+04   0.249E+03 0.281E+03 0.157E+04   -.111E+01 -.260E+01 -.626E+01   -.293E-02 0.489E-02 -.616E-02
   0.102E+03 0.108E+02 -.158E+04   -.102E+03 -.109E+02 0.159E+04   -.121E+01 0.926E-01 -.168E+01   0.718E-03 -.703E-03 -.720E-02
   -.287E+03 0.442E+02 0.458E+03   0.288E+03 -.443E+02 -.461E+03   0.114E+01 0.526E+00 0.148E+01   0.254E-03 0.374E-02 0.983E-02
   0.203E+02 0.674E+02 0.153E+04   -.210E+02 -.673E+02 -.153E+04   0.113E+01 -.437E-01 0.170E+01   0.383E-02 -.476E-02 0.412E-02
   -.120E+03 0.393E+02 -.807E+03   0.121E+03 -.393E+02 0.813E+03   0.807E+00 -.516E-03 -.447E+01   -.214E-02 0.683E-03 -.329E-02
   -.181E+03 -.274E+03 0.980E+03   0.183E+03 0.277E+03 -.984E+03   -.713E+00 -.277E+01 0.178E+01   -.447E-02 0.320E-03 0.586E-02
   -.755E+02 -.377E+02 -.107E+04   0.769E+02 0.377E+02 0.107E+04   -.530E+00 -.979E-01 -.239E+01   -.116E-01 0.149E-02 -.278E-02
   0.133E+03 -.975E+02 0.170E+04   -.134E+03 0.988E+02 -.171E+04   -.790E-02 -.466E+00 0.167E+01   -.103E-02 0.104E-02 -.371E-02
   -.183E+03 0.354E+02 -.146E+03   0.184E+03 -.357E+02 0.150E+03   0.238E+00 -.546E-01 -.286E+01   0.607E-02 -.136E-02 0.420E-02
   -.145E+03 0.130E+02 -.174E+04   0.146E+03 -.133E+02 0.174E+04   -.185E+00 0.104E+00 -.680E+00   -.148E-02 -.280E-02 0.391E-02
   0.615E+02 0.943E+01 0.168E+04   -.621E+02 -.948E+01 -.169E+04   0.110E+01 0.739E-01 0.191E+01   0.846E-02 -.134E-02 0.541E-02
   -.908E+02 0.505E+01 -.541E+03   0.918E+02 -.485E+01 0.547E+03   0.272E-01 -.276E+00 -.451E+01   0.285E-02 -.684E-02 0.237E-02
   0.173E+02 -.119E+03 0.860E+03   -.177E+02 0.120E+03 -.866E+03   -.707E+00 -.157E-01 0.361E+01   -.545E-02 0.398E-02 0.143E-02
   0.563E+02 -.235E+02 -.115E+04   -.568E+02 0.239E+02 0.116E+04   0.386E+00 -.279E+00 -.413E+01   -.977E-04 -.377E-03 0.218E-02
   0.604E+02 -.102E+03 0.172E+04   -.604E+02 0.104E+03 -.172E+04   -.436E+00 -.692E+00 0.307E+01   0.393E-02 -.691E-03 0.617E-03
   0.135E+03 -.126E+03 -.304E+03   -.135E+03 0.126E+03 0.308E+03   -.465E+00 0.474E+00 -.162E+01   0.672E-02 0.624E-03 0.182E-02
   -.101E+03 -.127E+03 0.103E+04   0.102E+03 0.129E+03 -.104E+04   -.774E-01 -.930E-01 0.305E+01   0.374E-02 0.791E-02 0.603E-02
   0.158E+03 0.733E+02 -.110E+04   -.159E+03 -.723E+02 0.111E+04   -.176E+00 -.462E+00 -.258E+01   -.342E-02 0.126E-01 0.378E-02
   -.742E+01 -.370E+03 0.763E+03   0.703E+01 0.372E+03 -.766E+03   -.857E+00 -.991E+00 0.274E+01   -.487E-02 -.901E-03 0.792E-02
   -.155E+03 0.318E+02 -.140E+04   0.156E+03 -.302E+02 0.141E+04   -.101E+01 -.126E+01 -.218E+01   -.197E-02 -.593E-02 -.843E-02
   0.181E+03 -.219E+03 -.278E+03   -.182E+03 0.221E+03 0.277E+03   0.450E+00 -.656E+00 -.105E+00   -.505E-02 0.744E-02 0.555E-02
   0.880E+02 0.227E+02 0.120E+04   -.897E+02 -.233E+02 -.120E+04   0.952E+00 0.492E+00 0.342E+01   0.217E-02 -.601E-02 0.294E-02
   0.263E+02 -.961E+02 -.749E+03   -.269E+02 0.972E+02 0.751E+03   -.750E-01 -.135E+01 -.903E+00   0.475E-02 -.641E-02 0.326E-02
   -.124E+02 0.131E+03 0.233E+03   0.112E+02 -.130E+03 -.234E+03   0.264E+00 -.100E+01 0.493E+00   -.240E-02 0.175E-02 -.262E-02
   0.146E+01 -.222E+03 -.155E+04   -.234E+01 0.226E+03 0.156E+04   0.454E+00 -.279E+01 -.373E+00   -.198E-02 0.186E-02 -.297E-03
   -.108E+03 0.124E+03 0.103E+04   0.109E+03 -.125E+03 -.104E+04   -.312E+00 0.301E+00 0.355E+01   0.975E-02 -.533E-02 0.529E-02
   0.149E+03 -.687E+02 -.110E+04   -.150E+03 0.673E+02 0.111E+04   -.235E+00 0.700E+00 -.245E+01   0.346E-03 -.359E-02 -.314E-02
   -.664E+02 0.173E+03 0.173E+04   0.673E+02 -.174E+03 -.174E+04   -.693E+00 0.281E+00 0.178E+01   -.667E-02 -.332E-02 0.693E-03
   0.146E+02 0.209E+03 -.288E+03   -.148E+02 -.209E+03 0.291E+03   -.125E+00 -.928E+00 -.216E+01   0.310E-03 -.377E-02 0.254E-02
   0.773E+02 0.214E+03 -.375E+03   -.775E+02 -.217E+03 0.375E+03   0.141E+00 0.843E+00 0.270E+00   -.179E-02 -.718E-02 0.536E-02
   0.586E+02 -.951E+02 0.137E+04   -.608E+02 0.962E+02 -.138E+04   0.194E+01 -.798E+00 0.402E+01   -.241E-02 -.772E-02 0.587E-03
   0.209E+03 0.266E+03 0.686E+03   -.212E+03 -.268E+03 -.687E+03   0.125E+01 0.101E+01 0.107E+00   -.436E-02 0.587E-02 0.636E-02
   -.142E+03 -.602E+02 -.144E+04   0.143E+03 0.588E+02 0.144E+04   -.685E+00 0.110E+01 -.255E+01   -.663E-02 0.237E-02 -.462E-02
   0.996E+02 0.825E+02 0.485E+03   -.102E+03 -.845E+02 -.488E+03   0.152E+01 0.150E+01 0.204E+01   -.866E-02 -.229E-02 0.192E-02
   0.202E+02 0.247E+03 -.152E+04   -.209E+02 -.250E+03 0.152E+04   0.298E+00 0.270E+01 -.695E+00   -.190E-02 -.272E-02 -.603E-03
   0.144E+03 -.369E+01 0.123E+04   -.146E+03 0.422E+01 -.124E+04   0.650E+00 -.599E+00 0.420E+01   0.533E-02 0.549E-02 0.391E-02
   0.278E+02 0.897E+02 -.747E+03   -.288E+02 -.909E+02 0.749E+03   0.276E+00 0.137E+01 -.757E+00   0.146E-01 0.817E-02 0.293E-02
   -.696E+01 0.160E+02 -.462E+02   -.129E-11 -.995E-13 -.455E-11   0.685E+01 -.159E+02 0.459E+02   0.109E-01 -.460E-01 0.269E+00

 POSITION                                       TOTAL-FORCE (eV/Angst)
     13.17084      1.39171      1.57080        -0.737987      1.041627      0.945492
     13.52704      1.38898      4.24986        -0.060851      0.056356      0.817535
      3.66733      6.18226      1.17277         1.005765     -0.350632     -0.425210
      5.02033      6.18092      3.11308         0.015982      0.010139      1.599558
      6.53758      1.48654      1.68033         0.863846     -0.114174     -0.114590
      7.93172      1.39171      3.62717        -0.452348      0.041910     -0.701478
     15.80430      6.05944      2.66053         0.427626      0.657333      0.017436
     16.65369      6.19079      4.94562        -0.859478     -0.180498      0.387621
      2.10894      1.39171      2.59898        -0.497014      0.177491      0.394594
      1.81179      1.39003      4.93199         1.165663      0.090455      0.865451
      9.50880      6.28351      2.19389         1.250854     -0.229162     -0.429029
     10.84312      6.18092      4.14126        -1.064885     -0.242661     -1.761084
     15.29504      0.30030      1.52997         1.360917     -0.681239      0.042412
     15.93809      0.11456      4.00952        -0.797955     -0.935350     -0.212089
      7.17375      4.91558      2.70560        -0.060388     -0.648557     -0.685679
      7.91626      4.41597      4.95784        -0.187645      0.645070      0.867404
     10.25087      8.93511      1.04490         0.006064     -0.313937     -1.003579
     10.08514      0.12638      3.21969         0.647839      0.132155      0.026649
      1.35096      4.91558      1.67742         0.456164     -0.027960      1.595088
      1.91011      4.83996      4.43900         0.903471     -1.218485      0.461463
      4.26235      0.12638      2.19151         0.254228     -0.798594      1.037636
      4.94186      9.30578      4.54283        -0.146424      0.410433      0.881892
     13.17911      4.18199      1.51504        -0.977603      0.527411      0.107131
     12.99653      4.91558      3.73378         0.558624     -0.059589     -1.215717
     15.45302      2.89913      1.57169         0.766979     -1.012801     -0.112466
     15.93348      2.64658      4.03373        -0.806888      0.925427     -0.095953
      7.17375      7.44626      2.70560        -0.300546      0.635931     -0.628994
      7.91305      7.93756      4.96905        -0.134157     -0.529504      0.845179
      8.93538      1.40190      1.07547        -0.205008      0.255985     -2.029598
     10.08514      2.65705      3.21969         0.789711      0.490481     -1.794038
      1.47848      7.47259      2.01116        -0.940768      0.396454      0.204035
      1.90965      7.51979      4.49668         0.957463      1.189302      0.148640
      4.26235      2.65705      2.19151         0.215522      0.806208      1.004864
      4.94396      3.05882      4.53734        -0.142244     -0.272377      0.982159
     12.81340      8.48047      1.54350        -0.396072     -1.372653      0.140180
     12.99653      7.44626      3.73378         1.101445     -0.067859     -1.364467
     16.73971      1.36935      5.43845        -0.290016     -0.044215      3.334252
     16.74052      1.39171      2.57045         2.207664      0.465934     -2.166537
      7.75628      6.17677      1.18481         0.361684      0.021345     -4.079912
      8.59001      6.18092      4.11272         1.627504     -0.036495      1.268108
     10.91773      1.39171      1.54227         1.458894     -0.000255     -1.875728
     11.46245      1.41023      4.21900         0.829177     -0.122695      2.561270
      1.83942      6.36531      0.31115        -0.808716      0.774513     -3.940033
      2.76722      6.18092      3.08454         1.266443     -0.362561      0.778892
      1.53097      6.15077      5.96421         0.868433     -0.154836      4.449965
      4.78623      1.39240      0.65289         0.536839      0.022479     -3.872553
      5.67861      1.39171      3.59863         1.030639     -0.079361      1.402763
     13.82913      6.18092      2.05636        -1.096881      1.131531     -2.430920
     14.56533      6.17338      4.52994        -0.078424      0.054083      2.116587
     13.89772      2.80236      0.22083        -0.355528      0.618085     -3.820898
     13.99844      3.00295      3.08932        -0.713206      1.157119      1.914869
      5.08986      7.73878      1.72318         0.462164      1.434827     -2.124987
      5.96533      7.55882      4.46930        -1.271376      0.500312      2.213768
      8.17565      3.00295      2.06114        -1.246188      1.666750     -0.069040
      8.94317      2.70672      4.92949         0.064496      0.344961      2.851970
      0.02514      7.79215      3.60341        -1.098109      1.847728     -1.032395
      2.35851      3.09428      1.40491        -0.779014     -0.147742     -2.544399
      2.93654      3.00295      4.11750        -0.707883     -0.172824      1.176119
     11.08705      7.79215      2.57523        -0.955377      0.299646     -0.124242
     11.79149      7.51741      5.34015        -0.423703      1.068745      3.934909
      5.09545      4.62170      1.72395         0.427434     -1.345452     -2.147710
      5.96895      4.80514      4.46944        -1.398114     -0.689727      2.133791
     13.80933      9.57092      0.15875         0.167526     -0.958825     -3.951339
     13.99844      9.35889      3.08932        -0.292166     -1.458102      1.306972
      0.02514      4.56969      3.60341         0.008410     -2.282685      0.678870
     16.25107      4.75877      1.03323        -0.272914      0.267379     -2.395568
      8.17565      9.35889      2.06114        -1.082091     -1.574128     -0.669212
      8.92767      0.07644      4.94326         0.273684     -0.317501      2.754067
     11.08705      4.56969      2.57523        -0.443606     -0.472753     -0.811208
     11.75371      4.79395      5.30988        -0.402297     -0.980709      3.750413
      2.36154      9.27898      1.41126        -1.135870     -0.062673     -2.632621
      2.93654      9.35889      4.11750        -0.719417      0.153966      1.263266
    total drift:                               -0.095164     -0.022451      0.015351

  FREE ENERGIE OF THE ION-ELECTRON SYSTEM (eV)
  free  energy   TOTEN  =      -343.26622237 eV

  energy  without entropy=     -342.14584293  energy(sigma->0) =     -342.70603265