 vasp.5.4.4.18Apr17-6-g9f103f2a35 (build Aug 13 2019 17:33:20) gamma-only

 executed on             LinuxIFC date 2020.05.11  19:37:00

 INCAR:
 POTCAR:    PAW_PBE Ni_pv 06Sep2000
 POTCAR:    PAW_PBE S 06Sep2000
 POTCAR:    PAW_PBE Ni_pv 06Sep2000
   VRHFIN =Ni:

   TITEL  = PAW_PBE Ni_pv 06Sep2000
   POMASS =   58.690; ZVAL   =   16.000    mass and valenz
   ENMAX  =  367.986; ENMIN  =  275.989 eV

 POTCAR:    PAW_PBE S 06Sep2000
   VRHFIN =S : s2p4

   TITEL  = PAW_PBE S 06Sep2000
   POMASS =   32.066; ZVAL   =    6.000    mass and valenz
   ENMAX  =  258.689; ENMIN  =  194.016 eV

 Optimization of the real space projectors (new method)

 maximal supplied QI-value         = 18.90
 optimisation between [QCUT,QGAM] = [ 10.77, 21.73] = [ 32.49,132.25] Ry
 Optimized for a Real-space Cutoff    1.38 Angstroem

   l    n(q)    QCUT    max X(q) W(low)/X(q) W(high)/X(q)  e(spline)
   1      8    10.771     2.836    0.40E-04    0.29E-04    0.12E-06
   1      8    10.771     4.023    0.10E-03    0.48E-04    0.29E-06
   2      8    10.771    73.368    0.42E-03    0.97E-04    0.44E-06
   2      8    10.771    69.010    0.42E-03    0.99E-04    0.45E-06
   0      9    10.771    54.797    0.10E-03    0.56E-04    0.74E-07
   0      9    10.771    24.266    0.89E-04    0.49E-04    0.67E-07
 Optimization of the real space projectors (new method)

 maximal supplied QI-value         = 19.84
 optimisation between [QCUT,QGAM] = [ 10.71, 21.63] = [ 32.15,130.99] Ry
 Optimized for a Real-space Cutoff    1.19 Angstroem

   l    n(q)    QCUT    max X(q) W(low)/X(q) W(high)/X(q)  e(spline)
   0      8    10.715   187.594    0.41E-03    0.53E-04    0.66E-07
   0      8    10.715   164.243    0.41E-03    0.53E-04    0.65E-07
   1      7    10.715    67.533    0.19E-03    0.59E-03    0.68E-07
   1      7    10.715    50.729    0.19E-03    0.58E-03    0.67E-07
  PAW_PBE Ni_pv 06Sep2000               :
  PAW_PBE S 06Sep2000                   :

 POSCAR: Type_036 Type_136
  positions in cartesian coordinates
 exchange correlation table for  LEXCH =        8
   RHO(1)=    0.500       N(1)  =     2000
   RHO(2)=  100.500       N(2)  =     4000

 ion  position               nearest neighbor table
   1  0.780  0.145  0.121-  49 2.02  63 2.08  41 2.25  50 2.36  64 2.36  12 2.53
   2  0.799  0.147  0.285-  50 2.02  64 2.05  42 2.06
   3  0.216  0.670  0.095-  43 2.03  44 2.13  51 2.16   4 2.40  61 2.49
   4  0.297  0.645  0.216-  62 2.13  52 2.14  44 2.25  51 2.26  61 2.26   3 2.40  27 2.53  15 2.53

   5  0.387  0.168  0.126-  45 2.05  46 2.14  53 2.19   6 2.43  67 2.49  29 2.50
   6  0.470  0.145  0.248-  68 2.09  54 2.10  46 2.25  53 2.26  67 2.26   5 2.43  30 2.53  18 2.53

[...]

  10  0.109  0.145  0.329-  37 2.02  72 2.12  58 2.12   9 2.36
  11  0.642  0.645  0.280-  60 2.03  70 2.03  69 2.09  40 2.25  59 2.32  36 2.53  23 2.53
  12  0.909  0.010  0.116-  63 2.08  56 2.11  64 2.11  38 2.19   1 2.53
  13  0.944  0.013  0.271-  37 2.06  38 2.08  64 2.17  55 2.18
  14  0.418  0.410  0.058-  53 2.08  39 2.14  61 2.15  15 2.37  26 2.46
  15  0.425  0.513  0.191-  39 2.07  62 2.17  53 2.25  61 2.26  40 2.36  14 2.37  16 2.47  27 2.53
                             4 2.53
  16  0.465  0.471  0.335-  54 2.01  40 2.04  62 2.05  15 2.47
  17  0.641  0.945  0.083-  41 2.01  59 2.05  18 2.46  35 2.50
  18  0.597  0.013  0.223-  68 2.07  42 2.12  67 2.26  41 2.26  59 2.27  17 2.46   6 2.53  30 2.53

[...]

  37  0.992  0.146  0.358-  10 2.02  25 2.06  13 2.06
  38  0.991  0.145  0.182-  13 2.08  25 2.10  24 2.14  12 2.19   9 2.25
  39  0.477  0.600  0.087-  26 2.02  15 2.07  14 2.14  27 2.54
  40  0.509  0.645  0.278-  28 2.04  16 2.04  11 2.25  27 2.36  15 2.36
  41  0.647  0.145  0.119-  17 2.01  29 2.03   1 2.25  30 2.26  18 2.26  42 2.75
  42  0.677  0.146  0.286-   2 2.06  30 2.10  18 2.12  41 2.75
  43  0.112  0.645  0.033-   3 2.03  31 2.06  19 2.06
  44  0.164  0.645  0.214-  32 2.05  20 2.05   3 2.13   4 2.25  31 2.36  19 2.36
  45  0.283  0.145  0.063-   5 2.05  21 2.06  33 2.07
  46  0.336  0.145  0.246-  22 2.04  34 2.05   5 2.14   6 2.25  33 2.36  21 2.36
  47  0.822  0.660  0.158-  36 2.11  35 2.16   7 2.21  23 2.28  48 2.67
  48  0.847  0.644  0.321-   8 2.05  23 2.10  36 2.12  47 2.67  70 2.79
  49  0.824  0.283  0.039-  24 2.01   1 2.02  63 2.71
  50  0.829  0.314  0.214-   2 2.02  24 2.10  25 2.15  23 2.25   1 2.36
  51  0.312  0.814  0.119-  26 2.03   3 2.16  21 2.25   4 2.26  27 2.26
  52  0.351  0.797  0.296-  22 2.04  28 2.05  27 2.12   4 2.14
  53  0.484  0.314  0.151-  29 2.07  14 2.08   5 2.19  15 2.25  30 2.26   6 2.26
  54  0.525  0.291  0.326-  16 2.01  30 2.07   6 2.10  68 2.77
  55  0.001  0.814  0.246-  32 2.03   8 2.03  13 2.18   7 2.36  31 2.36  56 2.74
  56  0.967  0.824  0.081-   7 2.08  31 2.10  12 2.11  55 2.74
  57  0.140  0.322  0.110-   9 2.09  33 2.10  19 2.11  58 2.77
  58  0.174  0.314  0.278-  34 2.05  20 2.09  10 2.12   9 2.36  33 2.36  57 2.77
  59  0.665  0.820  0.183-  17 2.05  36 2.14  35 2.20  18 2.27  11 2.32  60 2.73
  60  0.691  0.799  0.349-  11 2.03  36 2.03  70 2.70  59 2.73
  61  0.312  0.477  0.119-  26 2.06  14 2.15  33 2.25   4 2.26  15 2.26   3 2.49
  62  0.350  0.500  0.299-  34 2.04  16 2.05   4 2.13  15 2.17
  63  0.816  0.001  0.032-  35 2.03  12 2.08   1 2.08  49 2.71
  64  0.829  0.977  0.214-   2 2.05  12 2.11  35 2.14  13 2.17  36 2.25   1 2.36
  65  0.001  0.477  0.246-  20 2.03   8 2.03  25 2.19   7 2.36  19 2.36  66 2.76
  66  0.968  0.470  0.080-   7 2.07  19 2.08  24 2.09  65 2.76
  67  0.484  0.977  0.151-  29 2.03  27 2.25  18 2.26   6 2.26   5 2.49
  68  0.525  0.001  0.326-  28 2.01  18 2.07   6 2.09  54 2.77
  69  0.658  0.467  0.207-  23 2.08  11 2.09  30 2.10  70 2.59
  70  0.702  0.518  0.358-  23 2.02  11 2.03  69 2.59  60 2.70  48 2.79
  71  0.141  0.967  0.110-  21 2.09   9 2.10  31 2.11  72 2.78
  72  0.174  0.977  0.278-  22 2.04  32 2.09  10 2.12   9 2.36  21 2.36  71 2.78

  LATTYP: Found a simple orthorhombic cell.
 ALAT       =     9.5784100000
 B/A-ratio  =     1.6880763216
 C/A-ratio  =     1.7627867312

  Lattice vectors:

 A1 = (   0.0000000000,   9.5784100000,   0.0000000000)
 A2 = (   0.0000000000,   0.0000000000, -16.1690871197)
 A3 = ( -16.8846940542,   0.0000000000,   0.0000000000)

Analysis of symmetry for initial positions (statically):
 Subroutine PRICEL returns:
 Original cell was already a primitive cell.

 Routine SETGRP: Setting up the symmetry group for a
 simple orthorhombic supercell.

 Subroutine GETGRP returns: Found  1 space group operations
 (whereof  1 operations were pure point group operations)
 out of a pool of  8 trial point group operations.

The static configuration has the point symmetry C_1 .

Analysis of symmetry for dynamics (positions and initial velocities):
 Subroutine PRICEL returns:
 Original cell was already a primitive cell.

 Routine SETGRP: Setting up the symmetry group for a
 simple orthorhombic supercell.

 Subroutine GETGRP returns: Found  1 space group operations
 (whereof  1 operations were pure point group operations)
 out of a pool of  8 trial point group operations.

The dynamic configuration has the point symmetry C_1 .

 Subroutine INISYM returns: Found  1 space group operations
 (whereof  1 operations are pure point group operations),
 and found     1 'primitive' translations

 KPOINTS: gamma-point-only calculation. no periodi

Automatic generation of k-mesh.
Space group operators:
 irot       det(A)        alpha          n_x          n_y          n_z        tau_x        tau_y        tau_z
    1     1.000000     0.000000     1.000000     0.000000     0.000000     0.000000     0.000000     0.000000

 Subroutine IBZKPT returns following result:

 Found      1 irreducible k-points:

 Following reciprocal coordinates:
            Coordinates               Weight
  0.000000  0.000000  0.000000      1.000000

 Following cartesian coordinates:
            Coordinates               Weight
  0.000000  0.000000  0.000000      1.000000

 SYSTEM =  "Millerite NiS"
 POSCAR =  Type_036 Type_136

 Startparameter for this run:
   NWRITE =      2    write-flag & timer
   PREC   = normal    normal or accurate (medium, high low for compatibility)
   ISTART =      0    job   : 0-new  1-cont  2-samecut
   ICHARG =      2    charge: 1-file 2-atom 10-const
   ISPIN  =      1    spin polarized calculation?
   LNONCOLLINEAR =      F non collinear calculations
   LSORBIT =      F    spin-orbit coupling
   INIWAV =      1    electr: 0-lowe 1-rand  2-diag
   LASPH  =      F    aspherical Exc in radial PAW
   METAGGA=      F    non-selfconsistent MetaGGA calc.

 Electronic Relaxation 1
   ENCUT  =  450.0 eV  33.07 Ry    5.75 a.u.  29.20 16.57 27.97*2*pi/ulx,y,z
   ENINI  =  450.0     initial cutoff
   ENAUG  =  703.4 eV  augmentation charge cutoff
   NELM   =    100;   NELMIN=  2; NELMDL= -5     # of ELM steps
   EDIFF  = 0.1E-03   stopping-criterion for ELM
   LREAL  =      T    real-space projection
   NLSPLINE    = F    spline interpolate recip. space projectors
   LCOMPAT=      F    compatible to vasp.4.4
   GGA_COMPAT  = T    GGA compatible to vasp.4.4-vasp.4.6
   LMAXPAW     = -100 max onsite density
   LMAXMIX     =    2 max onsite mixed and CHGCAR
   VOSKOWN=      0    Vosko Wilk Nusair interpolation
   ROPT   =   -0.00050  -0.00050
 Ionic relaxation
   EDIFFG = 0.1E-02   stopping-criterion for IOM
   NSW    =      0    number of steps for IOM
   NBLOCK =      1;   KBLOCK =      1    inner block; outer block
   IBRION =     -1    ionic relax: 0-MD 1-quasi-New 2-CG
   NFREE  =      0    steps in history (QN), initial steepest desc. (CG)
   ISIF   =      2    stress and relaxation
   IWAVPR =     10    prediction:  0-non 1-charg 2-wave 3-comb
   ISYM   =      2    0-nonsym 1-usesym 2-fastsym
   LCORR  =      T    Harris-Foulkes like correction to forces

   POTIM  = 0.5000    time-step for ionic-motion
   TEIN   =    0.0    initial temperature
   TEBEG  =    0.0;   TEEND  =   0.0 temperature during run
   SMASS  =  -3.00    Nose mass-parameter (am)
   estimated Nose-frequenzy (Omega)   =  0.10E-29 period in steps =****** mass=  -0.652E-26a.u.
   SCALEE = 1.0000    scale energy and forces
   NPACO  =    256;   APACO  = 16.0  distance and # of slots for P.C.
   PSTRESS=    0.0 pullay stress

  Mass of Ions in am
   POMASS =  58.69 32.07
  Ionic Valenz
   ZVAL   =  16.00  6.00
  Atomic Wigner-Seitz radii
  virtual crystal weights
   VCA    =   1.00  1.00
   NELECT =     792.0000    total number of electrons
   NUPDOWN=      -1.0000    fix difference up-down

 DOS related values:
   EMIN   =  10.00;   EMAX   =-10.00  energy-range for DOS
   EFERMI =   0.00
   ISMEAR =     0;   SIGMA  =   0.20  broadening in eV -4-tet -1-fermi 0-gaus

 Electronic relaxation 2 (details)
   IALGO  =     38    algorithm
   LDIAG  =      T    sub-space diagonalisation (order eigenvalues)
   LSUBROT=      F    optimize rotation matrix (better conditioning)
   TURBO    =      0    0=normal 1=particle mesh
   IRESTART =      0    0=no restart 2=restart with 2 vectors
   NREBOOT  =      0    no. of reboots
   NMIN     =      0    reboot dimension
   EREF     =   0.00    reference energy to select bands
[...]
  Fock        0.00000     0.00000     0.00000     0.00000     0.00000     0.00000
  Total     117.92687   120.20382   131.61604     0.62097    -4.36064    -1.84296
  in kB      72.25223    73.64728    80.63940     0.38046    -2.67171    -1.12916

 VOLUME and BASIS-vectors are now :
  energy-cutoff  :      450.00
  volume of cell :     2615.00
      direct lattice vectors                 reciprocal lattice vectors
    16.884694054  0.000000000  0.000000000     0.059225237  0.000000000  0.000000000
     0.000000000  9.578410000  0.000000000     0.000000000  0.104401461  0.000000000
     0.000000000  0.000000000 16.169087120     0.000000000  0.000000000  0.061846411

  length of vectors
    16.884694054  9.578410000 16.169087120     0.059225237  0.104401461  0.061846411

 FORCES acting on ions
    electron-ion (+dipol)            ewald-force                    non-local-force                 convergence-correction
   0.623E+03 -.636E+03 0.203E+04   -.627E+03 0.640E+03 -.203E+04   0.343E+01 -.332E+01 0.486E+01   -.166E-01 -.966E-02 -.137E-02
   0.451E+03 -.151E+03 -.274E+04   -.453E+03 0.153E+03 0.274E+04   0.252E+01 -.242E+01 0.116E+01   0.885E-02 -.633E-02 -.368E-03
   0.127E+03 -.913E+02 0.294E+04   -.127E+03 0.918E+02 -.294E+04   0.103E+01 -.892E+00 0.772E+01   0.298E-02 0.600E-03 0.275E-02
   0.403E+03 -.467E+02 -.109E+04   -.405E+03 0.470E+02 0.109E+04   0.212E+01 -.128E+00 -.425E+01   -.115E-01 0.330E-02 0.740E-02
   -.656E+02 0.380E+03 0.229E+04   0.648E+02 -.380E+03 -.230E+04   0.141E+01 0.287E-01 0.800E+01   0.407E-02 -.328E-02 0.845E-02
   0.447E+02 0.728E+02 -.175E+04   -.484E+02 -.734E+02 0.176E+04   0.293E+01 0.425E-01 -.683E+01   0.275E-03 -.301E-02 0.727E-02
   0.874E+03 0.142E+03 0.145E+04   -.880E+03 -.142E+03 -.145E+04   0.532E+01 0.373E+00 0.414E+01   0.291E-02 0.704E-02 0.214E-01
   0.417E+03 0.367E+02 -.320E+04   -.418E+03 -.366E+02 0.320E+04   0.120E+01 -.199E+00 0.486E+00   0.120E-01 0.102E-02 0.203E-03
   0.592E+03 -.206E+01 0.899E+03   -.597E+03 0.203E+01 -.902E+03   0.394E+01 -.753E-01 0.299E+01   -.190E-02 -.374E-04 0.175E-01
   0.103E+03 -.811E+01 -.342E+04   -.106E+03 0.807E+01 0.342E+04   0.496E+01 0.397E-01 -.439E+00   0.570E-02 0.888E-03 -.568E-02
   0.361E+03 0.110E+03 -.155E+04   -.370E+03 -.109E+03 0.155E+04   0.670E+01 -.969E+00 -.196E+01   -.171E-01 0.598E-02 -.290E-03
   -.452E+03 0.169E+03 0.249E+04   0.459E+03 -.171E+03 -.249E+04   -.592E+01 0.278E+01 0.517E+01   0.280E-02 -.903E-02 0.116E-01
   0.124E+03 0.466E+03 -.218E+04   -.122E+03 -.470E+03 0.218E+04   -.325E+01 0.243E+01 -.405E+01   0.136E-01 -.431E-02 0.702E-02
   -.561E+03 0.220E+03 0.384E+04   0.561E+03 -.220E+03 -.384E+04   -.253E+00 -.955E+00 0.170E+01   -.126E-02 -.681E-03 -.341E-02
   -.800E+03 0.110E+03 0.465E+02   0.801E+03 -.111E+03 -.424E+02   -.154E+01 0.474E+00 -.249E+01   -.491E-03 -.145E-02 0.133E-01
   -.404E+03 0.603E+02 -.347E+04   0.407E+03 -.629E+02 0.347E+04   -.277E+01 0.281E+01 0.244E+01   -.603E-02 0.120E-02 0.902E-02
   0.164E+03 0.680E+03 0.329E+04   -.162E+03 -.681E+03 -.329E+04   -.282E+01 -.319E+00 -.194E+01   -.248E-02 0.490E-02 -.127E-02
   -.430E+03 0.513E+03 -.933E+03   0.433E+03 -.519E+03 0.937E+03   -.196E+01 0.493E+01 -.428E+01   -.367E-02 0.258E-02 -.826E-02
   0.165E+03 0.630E+03 0.207E+04   -.164E+03 -.636E+03 -.207E+04   -.774E-01 0.475E+01 0.455E+01   0.650E-02 0.258E-02 0.179E-01
   -.852E+02 0.159E+03 -.277E+04   0.852E+02 -.162E+03 0.277E+04   0.391E+00 0.267E+01 -.562E+00   -.378E-02 0.105E-02 0.749E-02
   0.253E+01 0.439E+03 0.141E+04   -.367E+01 -.442E+03 -.141E+04   0.155E+01 0.235E+01 0.382E+01   -.713E-02 -.155E-02 0.176E-01
   -.771E+02 0.153E+03 -.317E+04   0.784E+02 -.157E+03 0.317E+04   -.111E+01 0.433E+01 0.209E+01   -.221E-02 0.206E-02 0.993E-02
   -.615E+02 0.513E+03 -.915E+03   0.659E+02 -.518E+03 0.913E+03   -.279E+01 0.499E+01 0.238E+00   0.817E-02 0.445E-02 0.869E-03
   -.348E+02 -.515E+03 0.241E+04   0.391E+02 0.519E+03 -.241E+04   -.353E+01 -.428E+01 0.539E+01   0.653E-02 -.108E-02 0.133E-01
   0.205E+03 -.557E+03 -.216E+04   -.204E+03 0.560E+03 0.216E+04   -.149E+01 -.259E+01 -.385E+01   0.198E-01 0.978E-03 0.136E-01
   -.327E+03 -.516E+03 0.385E+04   0.329E+03 0.517E+03 -.386E+04   -.290E+01 -.102E+01 0.472E+01   -.104E-01 0.335E-02 -.121E-02
   -.762E+03 -.437E+03 0.605E+03   0.763E+03 0.440E+03 -.606E+03   -.547E+00 -.248E+01 -.256E+00   0.923E-03 0.890E-02 0.129E-01
   -.347E+03 -.693E+02 -.340E+04   0.349E+03 0.722E+02 0.340E+04   -.234E+01 -.310E+01 0.220E+01   -.826E-02 0.147E-02 0.720E-02
   -.363E+03 -.899E+02 0.343E+04   0.362E+03 0.895E+02 -.343E+04   0.519E+00 0.625E+00 0.532E+01   0.103E-01 -.616E-02 0.295E-02
   -.747E+03 -.772E+03 -.502E+03   0.751E+03 0.778E+03 0.505E+03   -.312E+01 -.541E+01 -.437E+01   -.603E-02 -.634E-02 -.215E-02
   0.219E+03 -.605E+03 0.205E+04   -.220E+03 0.610E+03 -.205E+04   0.637E+00 -.471E+01 0.434E+01   0.308E-02 0.683E-03 0.145E-01
   -.102E+03 -.150E+03 -.279E+04   0.102E+03 0.152E+03 0.279E+04   0.104E+00 -.245E+01 -.154E+00   -.486E-02 -.262E-02 0.509E-02
   0.261E+03 -.368E+03 0.133E+04   -.263E+03 0.371E+03 -.134E+04   0.193E+01 -.198E+01 0.358E+01   -.938E-02 0.842E-03 0.172E-01
   -.285E+02 -.128E+03 -.319E+04   0.300E+02 0.132E+03 0.319E+04   -.140E+01 -.425E+01 0.209E+01   -.665E-02 -.475E-02 0.826E-02
   0.198E+03 0.799E+03 0.251E+04   -.201E+03 -.803E+03 -.251E+04   0.203E+01 0.254E+01 0.790E+01   -.751E-02 0.335E-02 0.141E-02
   -.732E+02 -.946E+02 -.156E+04   0.760E+02 0.980E+02 0.157E+04   -.165E+01 -.286E+01 -.641E+01   0.117E-01 0.117E-01 -.450E-02
   0.130E+03 -.707E+01 -.158E+04   -.129E+03 0.715E+01 0.158E+04   -.875E+00 -.824E-01 -.163E+01   0.322E-02 0.452E-03 -.596E-02
   -.207E+03 -.124E+02 0.389E+03   0.209E+03 0.124E+02 -.392E+03   0.419E+00 -.200E+00 0.123E+01   0.665E-02 -.199E-02 0.114E-01
   -.763E+03 -.204E+03 0.115E+04   0.769E+03 0.205E+03 -.115E+04   -.289E+01 0.302E-01 0.425E+00   -.597E-05 0.213E-02 0.479E-05
   -.356E+03 -.203E+01 -.590E+03   0.357E+03 0.232E+01 0.592E+03   0.491E+00 -.117E+00 -.228E+01   -.462E-02 0.227E-02 0.633E-02
   -.241E+03 -.363E+03 0.899E+03   0.243E+03 0.366E+03 -.903E+03   -.335E+00 -.759E+00 0.230E+01   -.269E-02 -.432E-02 -.515E-03
   -.106E+03 -.614E+02 -.105E+04   0.108E+03 0.611E+02 0.106E+04   -.521E+00 0.220E+00 -.211E+01   -.685E-02 -.355E-03 -.250E-02
   0.128E+03 0.334E+02 0.173E+04   -.129E+03 -.335E+02 -.174E+04   0.387E+00 0.836E-01 0.186E+01   0.562E-02 0.127E-02 -.439E-03
   -.942E+02 0.239E+02 -.278E+03   0.944E+02 -.242E+02 0.283E+03   0.146E+01 0.175E+00 -.365E+01   -.390E-03 -.683E-03 0.552E-02
   0.120E+03 0.875E+02 0.164E+04   -.121E+03 -.877E+02 -.165E+04   0.163E+01 0.223E+00 0.200E+01   -.215E-02 0.891E-04 -.469E-03
   -.120E+03 0.535E+02 -.596E+03   0.121E+03 -.533E+02 0.602E+03   0.671E+00 -.206E+00 -.444E+01   -.413E-02 -.191E-02 0.932E-02
   0.109E+03 0.298E+03 0.711E+03   -.109E+03 -.300E+03 -.716E+03   0.145E+01 0.921E+00 0.220E+01   0.506E-02 0.599E-02 -.221E-03
   0.522E+01 0.335E+02 -.123E+04   -.353E+01 -.338E+02 0.124E+04   -.824E+00 0.169E+00 -.258E+01   0.137E-01 0.515E-02 0.147E-02
   0.207E+03 -.358E+03 0.150E+04   -.208E+03 0.362E+03 -.151E+04   0.388E+00 -.218E+01 0.145E+01   -.545E-02 -.150E-02 -.310E-02
   0.262E+03 -.330E+03 -.109E+03   -.264E+03 0.332E+03 0.110E+03   0.125E+01 0.299E+00 -.230E+00   0.455E-02 -.208E-02 0.250E-02
   -.393E+02 -.361E+03 0.907E+03   0.389E+02 0.364E+03 -.910E+03   -.962E-01 -.112E+01 0.309E+01   -.270E-02 -.233E-02 0.878E-03
   0.134E+03 0.336E+02 -.111E+04   -.135E+03 -.331E+02 0.111E+04   0.419E-01 0.371E-01 -.250E+01   0.507E-03 0.533E-02 0.566E-02
   -.337E+03 -.251E+03 0.481E+03   0.339E+03 0.253E+03 -.480E+03   -.148E+01 -.112E+01 -.283E+00   0.424E-02 -.288E-02 0.267E-02
   -.222E+03 0.149E+02 -.137E+04   0.222E+03 -.137E+02 0.137E+04   -.366E+00 -.110E+01 -.190E+01   -.293E-02 0.189E-02 -.981E-06
   0.174E+03 -.158E+03 -.459E+03   -.174E+03 0.160E+03 0.461E+03   -.665E+00 -.352E+00 -.139E+01   -.871E-03 -.314E-02 0.747E-02
   0.121E+03 -.413E+02 0.132E+04   -.123E+03 0.411E+02 -.133E+04   0.144E+01 0.947E+00 0.384E+01   -.591E-03 -.233E-02 0.331E-02
   0.169E+03 0.271E+02 0.114E+04   -.170E+03 -.284E+02 -.114E+04   0.614E+00 0.123E+01 0.415E+01   0.142E-02 -.316E-02 0.516E-02
   0.844E+02 -.123E+03 -.816E+03   -.851E+02 0.125E+03 0.819E+03   -.167E-01 -.151E+01 -.158E+01   -.110E-02 0.816E-04 0.356E-02
   0.189E+03 0.302E+03 0.249E+03   -.193E+03 -.303E+03 -.250E+03   0.198E+01 0.114E+01 0.822E+00   -.127E-02 0.467E-02 -.455E-02
   0.263E+02 -.220E+03 -.145E+04   -.277E+02 0.224E+03 0.145E+04   0.840E+00 -.217E+01 -.105E+00   -.115E-02 0.236E-02 -.348E-05
   0.257E+03 0.189E+03 0.818E+03   -.260E+03 -.191E+03 -.819E+03   0.153E+01 0.136E+01 0.304E+00   -.449E-02 0.207E-02 0.780E-03
   0.143E+03 -.722E+02 -.118E+04   -.144E+03 0.716E+02 0.118E+04   -.126E+00 -.539E-01 -.253E+01   -.664E-03 -.267E-02 0.588E-02
   0.355E+02 0.566E+02 0.170E+04   -.351E+02 -.581E+02 -.171E+04   -.750E+00 0.126E+01 0.284E+01   -.490E-02 -.146E-02 0.198E-03
   0.102E+03 0.135E+03 -.346E+03   -.102E+03 -.134E+03 0.350E+03   -.434E+00 -.143E+01 -.180E+01   0.293E-02 -.481E-02 0.112E-02
   0.202E+03 0.173E+03 -.442E+03   -.202E+03 -.175E+03 0.444E+03   -.428E+00 0.266E+00 -.159E+01   0.199E-02 0.363E-02 0.994E-02
   0.226E+03 0.731E+02 0.133E+04   -.227E+03 -.728E+02 -.134E+04   0.858E+00 -.985E+00 0.374E+01   0.110E-02 0.546E-02 0.196E-02
   0.764E+01 0.359E+03 0.647E+03   -.942E+01 -.362E+03 -.649E+03   0.615E+00 0.117E+01 0.137E+01   0.279E-02 -.330E-04 0.930E-03
   -.188E+03 -.230E+02 -.138E+04   0.189E+03 0.218E+02 0.138E+04   -.721E+00 0.106E+01 -.250E+01   -.494E-02 -.385E-02 0.121E-02
   -.290E+01 -.183E+01 0.344E+03   0.180E+01 0.272E+01 -.350E+03   0.417E+00 -.126E+01 0.359E+01   -.826E-02 -.430E-02 -.245E-02
   -.179E+01 0.222E+03 -.147E+04   0.115E+01 -.225E+03 0.148E+04   0.392E+00 0.251E+01 -.237E+01   -.453E-02 -.174E-03 0.599E-02
   0.153E+03 -.553E+02 0.114E+04   -.155E+03 0.571E+02 -.114E+04   0.562E+00 -.138E+01 0.409E+01   -.183E-03 0.214E-02 0.416E-02
   0.715E+02 0.124E+03 -.811E+03   -.723E+02 -.125E+03 0.813E+03   -.994E-01 0.139E+01 -.155E+01   0.131E-02 0.116E-02 0.407E-02
   -.100E+02 0.973E+01 -.456E+02   -.995E-13 0.853E-13 -.864E-11   0.101E+02 -.977E+01 0.453E+02   -.167E-01 0.108E-01 0.309E+00

 POSITION                                       TOTAL-FORCE (eV/Angst)
     13.17084      1.39171      1.94975        -0.158983     -0.152174      1.654404
     13.49546      1.40764      4.60225        -0.101088     -0.364475      0.948889
      3.64458      6.42092      1.54143         0.954005     -0.397426     -0.153479
      5.02033      6.18092      3.49202        -0.346026      0.172772     -0.090848
      6.53479      1.60785      2.03318         0.582473     -0.258726     -0.474413
      7.93172      1.39171      4.00611        -0.691574     -0.498463     -1.014650
     16.08224      6.18092      2.46384        -0.364826      0.240504      2.105955
     16.35088      6.17934      5.08323         0.358710     -0.053810      0.753949
      2.10894      1.39171      2.97793        -0.631633     -0.103426      0.534805
      1.84153      1.39124      5.32491         1.338602      0.007325      0.880416
     10.84312      6.18092      4.52020        -2.066186      0.471584     -1.832775
     15.34516      0.09397      1.87074         1.056788      0.390281     -0.019803
     15.93298      0.12057      4.38398        -1.070071     -0.889082     -0.146102
      7.06136      3.92288      0.93939        -0.267686     -0.900506     -0.941272
      7.17375      4.91558      3.08454         0.001605     -0.044697      1.622088
      7.85824      4.51605      5.42014         0.005807      0.224419      0.961446
     10.81490      9.04990      1.34612        -0.198183     -0.711380     -1.055745
     10.08514      0.12638      3.59863         0.571697     -0.443640     -0.997119
      1.35096      4.91558      2.05636         0.300978     -0.412685      1.836693
      1.89952      4.80694      4.71282         0.338875      0.472093      1.046058
      4.26235      0.12638      2.57045         0.399503     -0.626185      1.186489
      4.90910      9.38701      5.01516         0.170859      0.006142      0.660428
     12.99653      4.91558      4.11272         1.551053     -0.667808     -2.120273
     15.42369      2.74098      1.94386         0.739068     -0.435126     -0.070927
     15.90599      2.66372      4.39772        -0.779950      0.663159      0.096251
      6.13450      6.20360      1.01381        -0.438381      0.425046     -1.803179
      7.17375      7.44626      3.08454         0.451922     -0.013811     -1.570222
      7.86286      7.85821      5.39755        -0.060574     -0.178390      1.056148
      8.94946      1.36630      1.44114        -0.246387      0.186052     -1.846567
     10.08514      2.65705      3.59863         0.694293      0.107474     -1.124847
      1.35096      7.44626      2.05636        -0.024831      0.511294      1.472655
      1.90105      7.55445      4.71130         0.445091     -0.426535      1.103505
      4.26235      2.65705      2.57045        -0.039583      0.866268      1.033591
      4.92580      3.00872      4.98149         0.062218     -0.094340      0.866327
     13.11948      8.22590      1.87731        -0.589192     -0.599276     -0.128961
     12.99653      7.44626      4.11272         1.138080      0.553340     -0.355832
     16.75581      1.39377      5.78569        -0.163601      0.000131      3.201904
     16.74052      1.39171      2.94940         2.134019     -0.114153     -2.050867
      8.05934      5.75000      1.41401         3.202711      1.298307     -2.082080
      8.59001      6.18092      4.49167         1.728319      0.173139     -0.002701
     10.91773      1.39171      1.92122         1.831830      1.772056     -1.483194
     11.43107      1.40256      4.62106         0.857268     -0.068955      2.676021
      1.89859      6.18139      0.52789         0.090605     -0.101513     -3.840755
      2.76722      6.18092      3.46349         1.604041     -0.132457      0.604187
      4.77109      1.38919      1.02125         0.490431     -0.018470     -3.723159
      5.67861      1.39171      3.97758         1.259785      0.037442      1.059633
     13.88077      6.32321      2.55466         0.611746     -1.265571     -1.982416
     14.30115      6.16821      5.18502         0.884984     -0.123700      2.464071
     13.91353      2.71514      0.62297        -0.783968      1.535805     -3.417122
     13.99844      3.00295      3.46826        -0.973127      2.049457      0.893606
      5.26426      7.79215      1.92599        -0.481840      1.750268     -0.154821
      5.92315      7.63053      4.78026        -1.194177      0.514383      1.889696
      8.17565      3.00295      2.44008        -0.152344      1.050070      0.093569
      8.86476      2.78528      5.26945        -0.087565      0.085570      2.850769
      0.02514      7.79215      3.98236        -0.863006      1.431538      0.607813
     16.32254      7.89508      1.30682        -0.301702      0.702379     -2.813142
      2.35890      3.08434      1.78597        -0.597400     -0.074992     -2.698730
      2.93654      3.00295      4.49645        -0.723587     -0.135178      0.979000
     11.23608      7.85531      2.95776        -2.015191     -0.556860     -0.428328
     11.67040      7.65097      5.64083        -0.558641      1.298579      3.668581
      5.26426      4.56969      1.92599        -1.685708     -1.036054     -0.663550
      5.91282      4.78939      4.84224        -1.237192     -0.674430      1.698915
     13.77058      0.00911      0.51854        -0.363488     -0.192091     -3.825647
     13.99844      9.35889      3.46826        -0.199822     -0.882280      1.823871
      0.02514      4.56969      3.98236        -0.907740     -1.523563      0.583274
     16.34449      4.50088      1.28596        -0.821701     -0.753413     -2.956225
      8.17565      9.35889      2.44008        -1.159695     -1.880563     -0.008767
      8.86688      0.01182      5.27354         0.143177     -0.094323      2.780907
     11.11169      4.47321      3.34796        -0.691459     -0.371400     -1.740463
     11.85827      4.96465      5.78359        -0.257365     -1.006519      3.543482
      2.37780      9.26382      1.77817        -0.855801      0.368904     -2.658711
      2.93654      9.35889      4.49645        -0.849266     -0.087332      1.038296
    total drift:                                0.057440     -0.025558     -0.002539

  FREE ENERGIE OF THE ION-ELECTRON SYSTEM (eV)
  free  energy   TOTEN  =      -341.72265895 eV

  energy  without entropy=     -340.65276605  energy(sigma->0) =     -341.18771250