 vasp.6.1.0 28Jan20 (build Mar 31 2020 17:42:31) gamma-only

 executed on             LinuxIFC date 2020.04.13  06:05:40

 INCAR:
 POTCAR:    PAW_PBE Ni_pv 06Sep2000
 POTCAR:    PAW_PBE S 06Sep2000
 POTCAR:    PAW_PBE Ni_pv 06Sep2000
   VRHFIN =Ni:

   TITEL  = PAW_PBE Ni_pv 06Sep2000
   POMASS =   58.690; ZVAL   =   16.000    mass and valenz
   ENMAX  =  367.986; ENMIN  =  275.989 eV

 POTCAR:    PAW_PBE S 06Sep2000
   VRHFIN =S : s2p4

   TITEL  = PAW_PBE S 06Sep2000
   POMASS =   32.066; ZVAL   =    6.000    mass and valenz
   ENMAX  =  258.689; ENMIN  =  194.016 eV

 Optimization of the real space projectors (new method)

 maximal supplied QI-value         = 18.90
 optimisation between [QCUT,QGAM] = [ 10.77, 21.73] = [ 32.49,132.25] Ry
 Optimized for a Real-space Cutoff    1.38 Angstroem

   l    n(q)    QCUT    max X(q) W(low)/X(q) W(high)/X(q)  e(spline)
   1      8    10.771     2.836    0.40E-04    0.29E-04    0.12E-06
   1      8    10.771     4.023    0.10E-03    0.48E-04    0.29E-06
   2      8    10.771    73.368    0.42E-03    0.97E-04    0.44E-06
   2      8    10.771    69.010    0.42E-03    0.99E-04    0.45E-06
   0      9    10.771    54.797    0.10E-03    0.56E-04    0.74E-07
   0      9    10.771    24.266    0.89E-04    0.49E-04    0.67E-07
 Optimization of the real space projectors (new method)

 maximal supplied QI-value         = 19.84
 optimisation between [QCUT,QGAM] = [ 10.71, 21.63] = [ 32.15,130.99] Ry
 Optimized for a Real-space Cutoff    1.19 Angstroem

   l    n(q)    QCUT    max X(q) W(low)/X(q) W(high)/X(q)  e(spline)
   0      8    10.715   187.594    0.41E-03    0.53E-04    0.66E-07
   0      8    10.715   164.243    0.41E-03    0.53E-04    0.65E-07
   1      7    10.715    67.533    0.19E-03    0.59E-03    0.68E-07
   1      7    10.715    50.729    0.19E-03    0.58E-03    0.67E-07
  PAW_PBE Ni_pv 06Sep2000               :
  PAW_PBE S 06Sep2000                   :

 POSCAR: Structure 1 made from 021-3.xsd file
  positions in direct lattice
 exchange correlation table for  LEXCH =        8
   RHO(1)=    0.500       N(1)  =     2000
   RHO(2)=  100.500       N(2)  =     4000

 ion  position               nearest neighbor table
   1  0.288  0.330  0.000-  37 2.25  43 2.36  40 2.36   7 2.53
   2  0.424  0.194  0.147-  38 2.25  43 2.26  40 2.26  41 2.36  53 2.36  13 2.53  17 2.53
   3  0.061  0.057  0.294-  48 2.25  50 2.26  44 2.26  42 2.36  63 2.36   9 2.53  23 2.53
   4  0.116  0.134  0.069-  37 2.26  52 2.26  38 2.36  44 2.36   8 2.53  11 2.53
   5  0.253  0.497  0.217-  40 2.25  62 2.26  56 2.26  45 2.36  57 2.36  21 2.53  27 2.53
   6  0.389  0.361  0.364-  41 2.25  45 2.26  57 2.26
   7  0.420  0.463  0.000-  61 2.25  40 2.36  46 2.36   1 2.53
   8  0.056  0.326  0.147-  62 2.25  37 2.26  49 2.26  38 2.36  50 2.36   4 2.53  11 2.53
   9  0.193  0.189  0.294-  45 2.25  38 2.26  50 2.26  42 2.36  39 2.36   3 2.53  23 2.53
  10  0.788  0.330  0.000-  46 2.25  52 2.36  49 2.36  16 2.53
  11  0.924  0.194  0.147-  47 2.25  52 2.26  49 2.26  50 2.36  44 2.36   4 2.53   8 2.53
  12  0.561  0.057  0.294-  39 2.25  41 2.26  53 2.26  51 2.36  72 2.36  18 2.53  32 2.53
  13  0.616  0.134  0.069-  46 2.26  43 2.26  47 2.36  53 2.36  17 2.53   2 2.53
  14  0.753  0.497  0.217-  49 2.25  71 2.26  65 2.26  54 2.36  66 2.36  30 2.53  36 2.53
  15  0.889  0.361  0.364-  50 2.25  54 2.26  66 2.26
  16  0.920  0.463  0.000-  70 2.25  49 2.36  37 2.36  10 2.53
  17  0.556  0.326  0.147-  71 2.25  46 2.26  40 2.26  47 2.36  41 2.36  13 2.53   2 2.53
  18  0.693  0.189  0.294-  54 2.25  47 2.26  41 2.26  51 2.36  48 2.36  12 2.53  32 2.53
  19  0.288  0.830  0.000-  55 2.25  61 2.36  58 2.36  25 2.53
  20  0.424  0.694  0.147-  56 2.25  61 2.26  58 2.26  59 2.36  71 2.36  31 2.53  35 2.53
  21  0.061  0.557  0.294-  66 2.25  68 2.26  62 2.26  60 2.36  45 2.36  27 2.53   5 2.53
  22  0.116  0.634  0.069-  55 2.26  70 2.26  56 2.36  62 2.36  26 2.53  29 2.53
  23  0.253  0.997  0.217-  58 2.25  44 2.26  38 2.26  63 2.36  39 2.36   3 2.53   9 2.53
  24  0.389  0.861  0.364-  59 2.25  63 2.26  39 2.26
  25  0.420  0.963  0.000-  43 2.25  58 2.36  64 2.36  19 2.53
  26  0.056  0.826  0.147-  44 2.25  55 2.26  67 2.26  56 2.36  68 2.36  22 2.53  29 2.53
  27  0.193  0.689  0.294-  63 2.25  56 2.26  68 2.26  60 2.36  57 2.36  21 2.53   5 2.53
  28  0.788  0.830  0.000-  64 2.25  70 2.36  67 2.36  34 2.53
  29  0.924  0.694  0.147-  65 2.25  70 2.26  67 2.26  68 2.36  62 2.36  22 2.53  26 2.53
  30  0.561  0.557  0.294-  57 2.25  59 2.26  71 2.26  69 2.36  54 2.36  36 2.53  14 2.53
  31  0.616  0.634  0.069-  64 2.26  61 2.26  65 2.36  71 2.36  35 2.53  20 2.53
  32  0.753  0.997  0.217-  67 2.25  53 2.26  47 2.26  72 2.36  48 2.36  12 2.53  18 2.53
  33  0.889  0.861  0.364-  68 2.25  72 2.26  48 2.26
  34  0.920  0.963  0.000-  52 2.25  67 2.36  55 2.36  28 2.53
  35  0.556  0.826  0.147-  53 2.25  64 2.26  58 2.26  65 2.36  59 2.36  31 2.53  20 2.53
  36  0.693  0.689  0.294-  72 2.25  65 2.26  59 2.26  69 2.36  66 2.36  30 2.53  14 2.53
  37  0.105  0.313  0.018-   1 2.25   8 2.26   4 2.26  16 2.36
  38  0.241  0.177  0.165-   2 2.25   9 2.26  23 2.26   4 2.36   8 2.36
  39  0.378  0.040  0.313-  12 2.25  24 2.26   9 2.36  23 2.36
  40  0.360  0.390  0.117-   5 2.25   2 2.26  17 2.26   1 2.36   7 2.36
  41  0.497  0.253  0.265-   6 2.25  12 2.26  18 2.26   2 2.36  17 2.36
  42  0.133  0.117  0.412-   3 2.36   9 2.36
  43  0.437  0.145  0.018-  25 2.25   2 2.26  13 2.26   1 2.36
  44  0.073  0.009  0.165-  26 2.25  23 2.26   3 2.26   4 2.36  11 2.36
  45  0.210  0.372  0.313-   9 2.25   6 2.26   5 2.36  21 2.36
  46  0.605  0.313  0.018-  10 2.25  17 2.26  13 2.26   7 2.36
  47  0.741  0.177  0.165-  11 2.25  18 2.26  32 2.26  13 2.36  17 2.36
  48  0.878  0.040  0.313-   3 2.25  33 2.26  18 2.36  32 2.36
  49  0.860  0.390  0.117-  14 2.25  11 2.26   8 2.26  10 2.36  16 2.36
  50  0.997  0.253  0.265-  15 2.25   3 2.26   9 2.26  11 2.36   8 2.36
  51  0.633  0.117  0.412-  12 2.36  18 2.36
  52  0.937  0.145  0.018-  34 2.25  11 2.26   4 2.26  10 2.36
  53  0.573  0.009  0.165-  35 2.25  32 2.26  12 2.26  13 2.36   2 2.36
  54  0.710  0.372  0.313-  18 2.25  15 2.26  14 2.36  30 2.36
  55  0.105  0.813  0.018-  19 2.25  26 2.26  22 2.26  34 2.36
  56  0.241  0.677  0.165-  20 2.25  27 2.26   5 2.26  22 2.36  26 2.36
  57  0.378  0.540  0.313-  30 2.25   6 2.26  27 2.36   5 2.36
  58  0.360  0.890  0.117-  23 2.25  20 2.26  35 2.26  19 2.36  25 2.36
  59  0.497  0.753  0.265-  24 2.25  30 2.26  36 2.26  20 2.36  35 2.36
  60  0.133  0.617  0.412-  21 2.36  27 2.36
  61  0.437  0.645  0.018-   7 2.25  20 2.26  31 2.26  19 2.36
  62  0.073  0.509  0.165-   8 2.25   5 2.26  21 2.26  22 2.36  29 2.36
  63  0.210  0.872  0.313-  27 2.25  24 2.26  23 2.36   3 2.36
  64  0.605  0.813  0.018-  28 2.25  35 2.26  31 2.26  25 2.36
  65  0.741  0.677  0.165-  29 2.25  36 2.26  14 2.26  31 2.36  35 2.36
  66  0.878  0.540  0.313-  21 2.25  15 2.26  36 2.36  14 2.36
  67  0.860  0.890  0.117-  32 2.25  29 2.26  26 2.26  28 2.36  34 2.36
  68  0.997  0.753  0.265-  33 2.25  21 2.26  27 2.26  29 2.36  26 2.36
  69  0.633  0.617  0.412-  30 2.36  36 2.36
  70  0.937  0.645  0.018-  16 2.25  29 2.26  22 2.26  28 2.36
  71  0.573  0.509  0.165-  17 2.25  14 2.26  30 2.26  31 2.36  20 2.36
  72  0.710  0.872  0.313-  36 2.25  33 2.26  32 2.36  12 2.36

  LATTYP: Found a base centered orthorhombic cell.
 ALAT       =    13.8711387481
 B/A-ratio  =     1.3810560848
 C/A-ratio  =     1.2256051556

  Lattice vectors:

 A1 = (  11.2351097480,   3.6905792348,   0.0000000000)
 A2 = (   0.0000000000, -11.8257374459,   0.0000000000)
 A3 = (   0.0000000000,   0.0000000000, -17.0005391643)

Analysis of symmetry for initial positions (statically):
 Subroutine PRICEL returns following result:

[...]

   4 primitive cells build up your supercell.

 Routine SETGRP: Setting up the symmetry group for a
 base centered orthorhombic supercell.

 Subroutine GETGRP returns: Found  2 space group operations
 (whereof  1 operations were pure point group operations)
 out of a pool of  8 trial point group operations.

The static configuration has the point symmetry C_1 .
 The point group associated with its full space group is C_1h.

Analysis of symmetry for dynamics (positions and initial velocities):
 Subroutine PRICEL returns following result:

  LATTYP: Found a base centered orthorhombic cell.
 ALAT       =     6.9355693741
 B/A-ratio  =     1.3810560848
 C/A-ratio  =     2.4512103113

  Lattice vectors:

 A1 = (   5.6175548740,   1.8452896174,   0.0000000000)
 A2 = (   0.0000000000,  -5.9128687229,   0.0000000000)
 A3 = (   0.0000000000,   0.0000000000, -17.0005391643)

   4 primitive cells build up your supercell.

 Routine SETGRP: Setting up the symmetry group for a
 base centered orthorhombic supercell.

 Subroutine GETGRP returns: Found  2 space group operations
 (whereof  1 operations were pure point group operations)
 out of a pool of  8 trial point group operations.

The dynamic configuration has the point symmetry C_1 .
 The point group associated with its full space group is C_1h.

 Subroutine INISYM returns: Found  2 space group operations
 (whereof  1 operations are pure point group operations),
 and found     4 'primitive' translations

                                     Primitive cell

  volume of cell :     564.6876

  direct lattice vectors                    reciprocal lattice vectors
     5.617554874  1.845289617  0.000000000     0.178013392  0.000000000  0.000000000
     0.000000000 -5.912868723  0.000000000     0.055554466 -0.169122645  0.000000000
     0.000000000  0.000000000-17.000539164     0.000000000  0.000000000 -0.058821664

  length of vectors
     5.912868723  5.912868723 17.000539164     0.178013392  0.178013392  0.058821664

  position of ions in fractional coordinates (direct lattice)
     0.575005388  0.339193900  0.000000000
     0.848176402  0.612364914  0.852762632
     0.232241574  0.732224064  0.930564624
     0.505412588  0.005395108  0.783327256
     0.778583602  0.278566124  0.636089887
     0.839211380  0.074987908  0.000000000
     0.112382424  0.348158922  0.852762632
     0.385553438  0.621329938  0.705525263
     0.121347446  0.885535930  0.705525263
     0.209479456  0.373031958  0.981761511
     0.482650472  0.646202972  0.834524143
     0.720425296  0.220407816  0.882691375
     0.993596310  0.493578832  0.735454007
     0.873049436  0.709461948  0.981761511
     0.419391496  0.255804006  0.687286774
     0.755821486  0.919373986  0.687286774
     0.266767354  0.766749846  0.588216639
     0.146220482  0.982632962  0.834524143

  ion indices of the primitive-cell ions
   primitive index   ion index
                 1           1
                 2           2
                 3           4
                 4           5
                 5           6
                 6           7
                 7           8
                 8           9
                 9          21
                10          37
                11          38
                12          40
                13          41
                14          43
                15          45
[...]
  Fock        0.00000     0.00000     0.00000     0.00000     0.00000     0.00000
  Total     -42.65550   -38.05039   -36.20353     7.00960    10.32668   -14.26173
  in kB     -30.25641   -26.98991   -25.67989     4.97205     7.32492   -10.11613

 VOLUME and BASIS-vectors are now :
  energy-cutoff  :      450.00
  volume of cell :     2258.75
      direct lattice vectors                 reciprocal lattice vectors
    11.235109748  3.690579235  0.000000000     0.089006696  0.000000000  0.000000000
     0.000000000 11.825737446  0.000000000    -0.027777233  0.084561323  0.000000000
     0.000000000  0.000000000 17.000539164     0.000000000  0.000000000  0.058821664

  length of vectors
    11.825737446 11.825737446 17.000539164     0.089006696  0.089006696  0.058821664

 FORCES acting on ions
    electron-ion (+dipol)            ewald-force                    non-local-force                 convergence-correction
   0.247E+03 0.752E+02 0.344E+04   -.247E+03 -.770E+02 -.343E+04   0.366E+00 0.121E+01 -.440E+01   0.598E-02 0.650E-02 -.431E-03
   0.404E+03 0.245E+03 0.484E+03   -.406E+03 -.245E+03 -.486E+03   0.171E+01 0.429E+00 0.171E+01   -.601E-02 0.173E-02 0.153E-02
   0.359E+03 0.333E+03 -.265E+04   -.359E+03 -.333E+03 0.265E+04   0.366E+00 0.259E+00 -.414E+01   0.414E-02 0.405E-03 -.896E-02
   -.406E+03 0.294E+03 0.270E+04   0.401E+03 -.290E+03 -.270E+04   0.479E+01 -.347E+01 0.480E+00   0.111E-03 -.808E-04 0.806E-02
   -.361E+03 0.261E+03 -.592E+03   0.362E+03 -.262E+03 0.592E+03   -.111E+01 0.805E+00 -.115E+00   0.143E-02 -.103E-02 -.566E-02
   -.907E+02 0.657E+02 -.359E+04   0.860E+02 -.623E+02 0.358E+04   0.427E+01 -.309E+01 0.960E+01   -.377E-03 0.273E-03 -.596E-02
   0.571E+01 -.258E+03 0.344E+04   -.399E+01 0.259E+03 -.343E+04   -.103E+01 -.725E+00 -.440E+01   -.431E-02 -.771E-02 -.431E-03
   -.106E+03 -.460E+03 0.484E+03   0.106E+03 0.462E+03 -.486E+03   0.125E+00 -.175E+01 0.171E+01   -.352E-02 0.517E-02 0.153E-02
   -.204E+03 -.445E+03 -.265E+04   0.204E+03 0.445E+03 0.265E+04   -.131E+00 -.428E+00 -.414E+01   0.907E-03 -.406E-02 -.896E-02
   0.247E+03 0.752E+02 0.344E+04   -.247E+03 -.770E+02 -.343E+04   0.366E+00 0.121E+01 -.440E+01   0.598E-02 0.650E-02 -.431E-03
   0.404E+03 0.245E+03 0.484E+03   -.406E+03 -.245E+03 -.486E+03   0.171E+01 0.429E+00 0.171E+01   -.601E-02 0.173E-02 0.153E-02
   0.359E+03 0.333E+03 -.265E+04   -.359E+03 -.333E+03 0.265E+04   0.366E+00 0.259E+00 -.414E+01   0.414E-02 0.405E-03 -.896E-02
   -.406E+03 0.294E+03 0.270E+04   0.401E+03 -.290E+03 -.270E+04   0.479E+01 -.347E+01 0.480E+00   0.111E-03 -.808E-04 0.806E-02
   -.361E+03 0.261E+03 -.592E+03   0.362E+03 -.262E+03 0.592E+03   -.111E+01 0.805E+00 -.115E+00   0.143E-02 -.103E-02 -.566E-02
   -.907E+02 0.657E+02 -.359E+04   0.860E+02 -.623E+02 0.358E+04   0.427E+01 -.309E+01 0.960E+01   -.377E-03 0.273E-03 -.596E-02
   0.571E+01 -.258E+03 0.344E+04   -.399E+01 0.259E+03 -.343E+04   -.103E+01 -.725E+00 -.440E+01   -.431E-02 -.771E-02 -.431E-03
   -.106E+03 -.460E+03 0.484E+03   0.106E+03 0.462E+03 -.486E+03   0.125E+00 -.175E+01 0.171E+01   -.352E-02 0.517E-02 0.153E-02
   -.204E+03 -.445E+03 -.265E+04   0.204E+03 0.445E+03 0.265E+04   -.131E+00 -.428E+00 -.414E+01   0.907E-03 -.406E-02 -.896E-02
   0.247E+03 0.752E+02 0.344E+04   -.247E+03 -.770E+02 -.343E+04   0.366E+00 0.121E+01 -.440E+01   0.598E-02 0.650E-02 -.431E-03
   0.404E+03 0.245E+03 0.484E+03   -.406E+03 -.245E+03 -.486E+03   0.171E+01 0.429E+00 0.171E+01   -.601E-02 0.173E-02 0.153E-02
   0.359E+03 0.333E+03 -.265E+04   -.359E+03 -.333E+03 0.265E+04   0.366E+00 0.259E+00 -.414E+01   0.414E-02 0.405E-03 -.896E-02
   -.406E+03 0.294E+03 0.270E+04   0.401E+03 -.290E+03 -.270E+04   0.479E+01 -.347E+01 0.480E+00   0.111E-03 -.808E-04 0.806E-02
   -.361E+03 0.261E+03 -.592E+03   0.362E+03 -.262E+03 0.592E+03   -.111E+01 0.805E+00 -.115E+00   0.143E-02 -.103E-02 -.566E-02
   -.907E+02 0.657E+02 -.359E+04   0.860E+02 -.623E+02 0.358E+04   0.427E+01 -.309E+01 0.960E+01   -.377E-03 0.273E-03 -.596E-02
   0.571E+01 -.258E+03 0.344E+04   -.399E+01 0.259E+03 -.343E+04   -.103E+01 -.725E+00 -.440E+01   -.431E-02 -.771E-02 -.431E-03
   -.106E+03 -.460E+03 0.484E+03   0.106E+03 0.462E+03 -.486E+03   0.125E+00 -.175E+01 0.171E+01   -.352E-02 0.517E-02 0.153E-02
   -.204E+03 -.445E+03 -.265E+04   0.204E+03 0.445E+03 0.265E+04   -.131E+00 -.428E+00 -.414E+01   0.907E-03 -.406E-02 -.896E-02
   0.247E+03 0.752E+02 0.344E+04   -.247E+03 -.770E+02 -.343E+04   0.366E+00 0.121E+01 -.440E+01   0.598E-02 0.650E-02 -.431E-03
   0.404E+03 0.245E+03 0.484E+03   -.406E+03 -.245E+03 -.486E+03   0.171E+01 0.429E+00 0.171E+01   -.601E-02 0.173E-02 0.153E-02
   0.359E+03 0.333E+03 -.265E+04   -.359E+03 -.333E+03 0.265E+04   0.366E+00 0.259E+00 -.414E+01   0.414E-02 0.405E-03 -.896E-02
   -.406E+03 0.294E+03 0.270E+04   0.401E+03 -.290E+03 -.270E+04   0.479E+01 -.347E+01 0.480E+00   0.111E-03 -.808E-04 0.806E-02
   -.361E+03 0.261E+03 -.592E+03   0.362E+03 -.262E+03 0.592E+03   -.111E+01 0.805E+00 -.115E+00   0.143E-02 -.103E-02 -.566E-02
   -.907E+02 0.657E+02 -.359E+04   0.860E+02 -.623E+02 0.358E+04   0.427E+01 -.309E+01 0.960E+01   -.377E-03 0.273E-03 -.596E-02
   0.571E+01 -.258E+03 0.344E+04   -.399E+01 0.259E+03 -.343E+04   -.103E+01 -.725E+00 -.440E+01   -.431E-02 -.771E-02 -.431E-03
   -.106E+03 -.460E+03 0.484E+03   0.106E+03 0.462E+03 -.486E+03   0.125E+00 -.175E+01 0.171E+01   -.352E-02 0.517E-02 0.153E-02
   -.204E+03 -.445E+03 -.265E+04   0.204E+03 0.445E+03 0.265E+04   -.131E+00 -.428E+00 -.414E+01   0.907E-03 -.406E-02 -.896E-02
   -.474E+02 -.421E+02 0.132E+04   0.478E+02 0.422E+02 -.132E+04   -.221E+00 0.393E+00 0.189E+01   -.790E-04 0.557E-02 -.174E-03
   -.119E+03 -.862E+02 0.183E+03   0.121E+03 0.875E+02 -.184E+03   -.194E+01 -.151E+01 0.126E+01   0.235E-02 -.886E-04 0.571E-03
   -.726E+02 -.696E+02 -.109E+04   0.734E+02 0.703E+02 0.109E+04   -.101E+01 -.146E+01 -.199E+01   -.165E-02 0.956E-03 -.517E-02
   0.132E+03 -.954E+02 0.435E+03   -.133E+03 0.962E+02 -.434E+03   0.962E+00 -.697E+00 -.214E+01   -.419E-03 0.303E-03 -.128E-02
   0.136E+03 -.981E+02 -.747E+03   -.138E+03 0.999E+02 0.748E+03   0.239E+01 -.173E+01 -.120E+01   0.184E-03 -.133E-03 -.596E-02
   0.605E+00 -.438E+00 -.156E+04   -.267E+00 0.193E+00 0.157E+04   -.837E+00 0.606E+00 -.549E+01   0.102E-03 -.741E-04 0.468E-03
   0.252E+02 0.582E+02 0.132E+04   -.252E+02 -.586E+02 -.132E+04   -.443E+00 0.868E-01 0.189E+01   -.532E-02 -.166E-02 -.174E-03
   0.448E+02 0.140E+03 0.183E+03   -.454E+02 -.142E+03 -.184E+03   0.829E+00 0.232E+01 0.126E+01   0.817E-03 -.220E-02 0.571E-03
   0.434E+02 0.907E+02 -.109E+04   -.439E+02 -.917E+02 0.109E+04   0.107E+01 0.141E+01 -.199E+01   -.142E-02 0.127E-02 -.517E-02
   -.474E+02 -.421E+02 0.132E+04   0.478E+02 0.422E+02 -.132E+04   -.221E+00 0.393E+00 0.189E+01   -.790E-04 0.557E-02 -.174E-03
   -.119E+03 -.862E+02 0.183E+03   0.121E+03 0.875E+02 -.184E+03   -.194E+01 -.151E+01 0.126E+01   0.235E-02 -.886E-04 0.571E-03
   -.726E+02 -.696E+02 -.109E+04   0.734E+02 0.703E+02 0.109E+04   -.101E+01 -.146E+01 -.199E+01   -.165E-02 0.956E-03 -.517E-02
   0.132E+03 -.954E+02 0.435E+03   -.133E+03 0.962E+02 -.434E+03   0.962E+00 -.697E+00 -.214E+01   -.419E-03 0.303E-03 -.128E-02
   0.136E+03 -.981E+02 -.747E+03   -.138E+03 0.999E+02 0.748E+03   0.239E+01 -.173E+01 -.120E+01   0.184E-03 -.133E-03 -.596E-02
   0.605E+00 -.438E+00 -.156E+04   -.267E+00 0.193E+00 0.157E+04   -.837E+00 0.606E+00 -.549E+01   0.102E-03 -.741E-04 0.468E-03
   0.252E+02 0.582E+02 0.132E+04   -.252E+02 -.586E+02 -.132E+04   -.443E+00 0.868E-01 0.189E+01   -.532E-02 -.166E-02 -.174E-03
   0.448E+02 0.140E+03 0.183E+03   -.454E+02 -.142E+03 -.184E+03   0.829E+00 0.232E+01 0.126E+01   0.817E-03 -.220E-02 0.571E-03
   0.434E+02 0.907E+02 -.109E+04   -.439E+02 -.917E+02 0.109E+04   0.107E+01 0.141E+01 -.199E+01   -.142E-02 0.127E-02 -.517E-02
   -.474E+02 -.421E+02 0.132E+04   0.478E+02 0.422E+02 -.132E+04   -.221E+00 0.393E+00 0.189E+01   -.790E-04 0.557E-02 -.174E-03
   -.119E+03 -.862E+02 0.183E+03   0.121E+03 0.875E+02 -.184E+03   -.194E+01 -.151E+01 0.126E+01   0.235E-02 -.886E-04 0.571E-03
   -.726E+02 -.696E+02 -.109E+04   0.734E+02 0.703E+02 0.109E+04   -.101E+01 -.146E+01 -.199E+01   -.165E-02 0.956E-03 -.517E-02
   0.132E+03 -.954E+02 0.435E+03   -.133E+03 0.962E+02 -.434E+03   0.962E+00 -.697E+00 -.214E+01   -.419E-03 0.303E-03 -.128E-02
   0.136E+03 -.981E+02 -.747E+03   -.138E+03 0.999E+02 0.748E+03   0.239E+01 -.173E+01 -.120E+01   0.184E-03 -.133E-03 -.596E-02
   0.605E+00 -.438E+00 -.156E+04   -.267E+00 0.193E+00 0.157E+04   -.837E+00 0.606E+00 -.549E+01   0.102E-03 -.741E-04 0.468E-03
   0.252E+02 0.582E+02 0.132E+04   -.252E+02 -.586E+02 -.132E+04   -.443E+00 0.868E-01 0.189E+01   -.532E-02 -.166E-02 -.174E-03
   0.448E+02 0.140E+03 0.183E+03   -.454E+02 -.142E+03 -.184E+03   0.829E+00 0.232E+01 0.126E+01   0.817E-03 -.220E-02 0.571E-03
   0.434E+02 0.907E+02 -.109E+04   -.439E+02 -.917E+02 0.109E+04   0.107E+01 0.141E+01 -.199E+01   -.142E-02 0.127E-02 -.517E-02
   -.474E+02 -.421E+02 0.132E+04   0.478E+02 0.422E+02 -.132E+04   -.221E+00 0.393E+00 0.189E+01   -.790E-04 0.557E-02 -.174E-03
   -.119E+03 -.862E+02 0.183E+03   0.121E+03 0.875E+02 -.184E+03   -.194E+01 -.151E+01 0.126E+01   0.235E-02 -.886E-04 0.571E-03
   -.726E+02 -.696E+02 -.109E+04   0.734E+02 0.703E+02 0.109E+04   -.101E+01 -.146E+01 -.199E+01   -.165E-02 0.956E-03 -.517E-02
   0.132E+03 -.954E+02 0.435E+03   -.133E+03 0.962E+02 -.434E+03   0.962E+00 -.697E+00 -.214E+01   -.419E-03 0.303E-03 -.128E-02
   0.136E+03 -.981E+02 -.747E+03   -.138E+03 0.999E+02 0.748E+03   0.239E+01 -.173E+01 -.120E+01   0.184E-03 -.133E-03 -.596E-02
   0.605E+00 -.438E+00 -.156E+04   -.267E+00 0.193E+00 0.157E+04   -.837E+00 0.606E+00 -.549E+01   0.102E-03 -.741E-04 0.468E-03
   0.252E+02 0.582E+02 0.132E+04   -.252E+02 -.586E+02 -.132E+04   -.443E+00 0.868E-01 0.189E+01   -.532E-02 -.166E-02 -.174E-03
   0.448E+02 0.140E+03 0.183E+03   -.454E+02 -.142E+03 -.184E+03   0.829E+00 0.232E+01 0.126E+01   0.817E-03 -.220E-02 0.571E-03
   0.434E+02 0.907E+02 -.109E+04   -.439E+02 -.917E+02 0.109E+04   0.107E+01 0.141E+01 -.199E+01   -.142E-02 0.127E-02 -.517E-02
   -.407E+02 0.294E+02 0.410E+02   0.483E-12 0.924E-12 0.682E-11   0.405E+02 -.294E+02 -.408E+02   -.283E-01 0.205E-01 -.142E+00

 POSITION                                       TOTAL-FORCE (eV/Angst)
      3.23012      4.96831      0.00000         0.300812     -0.621874      1.241037
      4.76468      3.85717      2.50311        -0.075418      0.063618     -0.090118
      0.68168      0.90073      5.00623         0.069433     -0.060687      0.588080
      1.30463      2.01188      1.18044        -0.408000      0.295426      0.386443
      2.83918      6.81360      3.68355         0.199294     -0.144306      0.136769
      4.37374      5.70246      6.18667        -0.457515      0.331279     -1.490095
      4.71432      7.01806      0.00000         0.684692     -0.091713      1.241037
      0.63131      4.06163      2.50311        -0.083977      0.051798     -0.090118
      2.16587      2.95048      5.00623         0.079324     -0.047026      0.588080
      8.84768      6.81360      0.00000         0.300812     -0.621874      1.241037
     10.38223      5.70246      2.50311        -0.075418      0.063618     -0.090118
      6.29923      2.74602      5.00623         0.069433     -0.060687      0.588080
      6.92218      3.85717      1.18044        -0.408000      0.295426      0.386443
      8.45674      8.65889      3.68355         0.199294     -0.144306      0.136769
      9.99129      7.54775      6.18667        -0.457515      0.331279     -1.490095
     10.33187      8.86335      0.00000         0.684692     -0.091713      1.241037
      6.24887      5.90692      2.50311        -0.083977      0.051798     -0.090118
      7.78342      4.79577      5.00623         0.079324     -0.047026      0.588080
      3.23012     10.88118      0.00000         0.300812     -0.621874      1.241037
      4.76468      9.77004      2.50311        -0.075418      0.063618     -0.090118
      0.68168      6.81360      5.00623         0.069433     -0.060687      0.588080
      1.30463      7.92475      1.18044        -0.408000      0.295426      0.386443
      2.83918     12.72647      3.68355         0.199294     -0.144306      0.136769
      4.37374     11.61532      6.18667        -0.457515      0.331279     -1.490095
      4.71432     12.93093      0.00000         0.684692     -0.091713      1.241037
      0.63131      9.97450      2.50311        -0.083977      0.051798     -0.090118
      2.16587      8.86335      5.00623         0.079324     -0.047026      0.588080
      8.84768     12.72647      0.00000         0.300812     -0.621874      1.241037
     10.38223     11.61532      2.50311        -0.075418      0.063618     -0.090118
      6.29923      8.65889      5.00623         0.069433     -0.060687      0.588080
      6.92218      9.77004      1.18044        -0.408000      0.295426      0.386443
      8.45674     14.57176      3.68355         0.199294     -0.144306      0.136769
      9.99129     13.46061      6.18667        -0.457515      0.331279     -1.490095
     10.33187     14.77622      0.00000         0.684692     -0.091713      1.241037
      6.24887     11.81979      2.50311        -0.083977      0.051798     -0.090118
      7.78342     10.70864      5.00623         0.079324     -0.047026      0.588080
      1.17676      4.09373      0.31006         0.167663      0.521835     -0.745894
      2.71132      2.98259      2.81318         0.122222     -0.145487      0.068661
      4.24587      1.87144      5.31629        -0.228873     -0.713707      0.531679
      4.04703      5.93902      1.99431        -0.135108      0.097829     -1.036689
      5.58158      4.82787      4.49742        -0.077153      0.055865      0.344166
      1.49858      1.87144      7.00054        -0.496946      0.359831     -1.527484
      4.90440      3.32894      0.31006        -0.443448     -0.322143     -0.745894
      0.82140      0.37251      2.81318         0.176364     -0.070714      0.068661
      2.35595      5.17423      5.31629         0.606635      0.440176      0.531679
      6.79432      5.93902      0.31006         0.167663      0.521835     -0.745894
      8.32887      4.82787      2.81318         0.122222     -0.145487      0.068661
      9.86342      3.71673      5.31629        -0.228873     -0.713707      0.531679
      9.66458      7.78431      1.99431        -0.135108      0.097829     -1.036689
     11.19914      6.67316      4.49742        -0.077153      0.055865      0.344166
      7.11614      3.71673      7.00054        -0.496946      0.359831     -1.527484
     10.52196      5.17423      0.31006        -0.443448     -0.322143     -0.745894
      6.43896      2.21780      2.81318         0.176364     -0.070714      0.068661
      7.97351      7.01952      5.31629         0.606635      0.440176      0.531679
      1.17676     10.00660      0.31006         0.167663      0.521835     -0.745894
      2.71132      8.89545      2.81318         0.122222     -0.145487      0.068661
      4.24587      7.78431      5.31629        -0.228873     -0.713707      0.531679
      4.04703     11.85189      1.99431        -0.135108      0.097829     -1.036689
      5.58158     10.74074      4.49742        -0.077153      0.055865      0.344166
      1.49858      7.78431      7.00054        -0.496946      0.359831     -1.527484
      4.90440      9.24181      0.31006        -0.443448     -0.322143     -0.745894
      0.82140      6.28538      2.81318         0.176364     -0.070714      0.068661
      2.35595     11.08710      5.31629         0.606635      0.440176      0.531679
      6.79432     11.85189      0.31006         0.167663      0.521835     -0.745894
      8.32887     10.74074      2.81318         0.122222     -0.145487      0.068661
      9.86342      9.62960      5.31629        -0.228873     -0.713707      0.531679
      9.66458     13.69718      1.99431        -0.135108      0.097829     -1.036689
     11.19914     12.58603      4.49742        -0.077153      0.055865      0.344166
      7.11614      9.62960      7.00054        -0.496946      0.359831     -1.527484
     10.52196     11.08710      0.31006        -0.443448     -0.322143     -0.745894
      6.43896      8.13067      2.81318         0.176364     -0.070714      0.068661
      7.97351     12.93239      5.31629         0.606635      0.440176      0.531679
    total drift:                               -0.138572      0.094758     -0.028441

  FREE ENERGIE OF THE ION-ELECTRON SYSTEM (eV)
  free  energy   TOTEN  =      -350.12012310 eV

  energy  without entropy=     -348.49407304  energy(sigma->0) =     -349.30709807