 vasp.5.4.4.18Apr17-6-g9f103f2a35 (build Aug 13 2019 17:33:20) gamma-only

 executed on             LinuxIFC date 2020.05.10  16:37:55

 INCAR:
 POTCAR:    PAW_PBE Ni_pv 06Sep2000
 POTCAR:    PAW_PBE S 06Sep2000
 POTCAR:    PAW_PBE Ni_pv 06Sep2000
   VRHFIN =Ni:

   TITEL  = PAW_PBE Ni_pv 06Sep2000
   POMASS =   58.690; ZVAL   =   16.000    mass and valenz
   ENMAX  =  367.986; ENMIN  =  275.989 eV

 POTCAR:    PAW_PBE S 06Sep2000
   VRHFIN =S : s2p4

   TITEL  = PAW_PBE S 06Sep2000
   POMASS =   32.066; ZVAL   =    6.000    mass and valenz
   ENMAX  =  258.689; ENMIN  =  194.016 eV

 Optimization of the real space projectors (new method)

 maximal supplied QI-value         = 18.90
 optimisation between [QCUT,QGAM] = [ 10.77, 21.73] = [ 32.49,132.25] Ry
 Optimized for a Real-space Cutoff    1.38 Angstroem

   l    n(q)    QCUT    max X(q) W(low)/X(q) W(high)/X(q)  e(spline)
   1      8    10.771     2.836    0.40E-04    0.29E-04    0.12E-06
   1      8    10.771     4.023    0.10E-03    0.48E-04    0.29E-06
   2      8    10.771    73.368    0.42E-03    0.97E-04    0.44E-06
   2      8    10.771    69.010    0.42E-03    0.99E-04    0.45E-06
   0      9    10.771    54.797    0.10E-03    0.56E-04    0.74E-07
   0      9    10.771    24.266    0.89E-04    0.49E-04    0.67E-07
 Optimization of the real space projectors (new method)

 maximal supplied QI-value         = 19.84
 optimisation between [QCUT,QGAM] = [ 10.71, 21.63] = [ 32.15,130.99] Ry
 Optimized for a Real-space Cutoff    1.19 Angstroem

   l    n(q)    QCUT    max X(q) W(low)/X(q) W(high)/X(q)  e(spline)
   0      8    10.715   187.594    0.41E-03    0.53E-04    0.66E-07
   0      8    10.715   164.243    0.41E-03    0.53E-04    0.65E-07
   1      7    10.715    67.533    0.19E-03    0.59E-03    0.68E-07
   1      7    10.715    50.729    0.19E-03    0.58E-03    0.67E-07
  PAW_PBE Ni_pv 06Sep2000               :
  PAW_PBE S 06Sep2000                   :

 POSCAR: Type_048 Type_148
  positions in cartesian coordinates
 exchange correlation table for  LEXCH =        8
   RHO(1)=    0.500       N(1)  =     2000
   RHO(2)=  100.500       N(2)  =     4000

 ion  position               nearest neighbor table
   1  0.261  0.479  0.253-  72 2.25  59 2.26  79 2.26  55 2.36  60 2.36   7 2.53  21 2.53
   2  0.355  0.385  0.388-  73 2.25  55 2.26  60 2.26  61 2.36  65 2.36   3 2.37   8 2.53  22 2.53

   3  0.372  0.368  0.497-  53 2.04  65 2.10  61 2.10   2 2.37
   4  0.167  0.073  0.118-  80 2.07  56 2.07  64 2.25  57 2.36  81 2.36  36 2.53  30 2.53
   5  0.043  0.053  0.467-  50 2.03  71 2.04  76 2.07  15 2.48
   6  0.274  0.333  0.083-  51 1.99  58 2.09  56 2.10  52 2.36  59 2.36  12 2.49  28 2.53
   7  0.368  0.239  0.218-  57 2.25  59 2.26  52 2.26  60 2.36  62 2.36   1 2.53  21 2.53
   8  0.462  0.145  0.353-  77 2.25  60 2.26  62 2.26  61 2.36  63 2.36   2 2.53  22 2.53
   9  0.000  0.372  0.218-  59 2.25  64 2.26  92 2.26  49 2.36  66 2.36  13 2.53  19 2.53
  10  0.094  0.278  0.353-  60 2.25  49 2.26  66 2.26  54 2.36  50 2.36  20 2.53  14 2.53
  11  0.187  0.197  0.467-  50 2.03  54 2.04  61 2.07  15 2.48
  12  0.406  0.458  0.101-  51 2.01  79 2.06  52 2.12  78 2.14  28 2.44   6 2.49
  13  0.761  0.479  0.253-  84 2.25  69 2.26  92 2.26  66 2.36  70 2.36  19 2.53   9 2.53
  14  0.855  0.385  0.388-  85 2.25  66 2.26  70 2.26  71 2.36  54 2.36  20 2.53  10 2.53
  15  0.954  0.285  0.505-  54 2.00  71 2.00   5 2.48  11 2.48
  16  0.667  0.073  0.118-  67 2.05  93 2.09  52 2.25  68 2.36  94 2.36  48 2.53  42 2.53
  17  0.550  0.055  0.473-  63 2.05  88 2.07  61 2.10  89 2.15
  18  0.802  0.225  0.118-  67 2.02  68 2.14  64 2.23  69 2.27  19 2.32
  19  0.868  0.239  0.218-  68 2.25  69 2.26  64 2.26  18 2.32  70 2.36  49 2.36  13 2.53   9 2.53

[...]

  39  0.872  0.868  0.497-  88 2.04  96 2.10  76 2.10  38 2.37
  40  0.664  0.589  0.146-  92 2.04  75 2.13  91 2.14  69 2.24
  41  0.543  0.553  0.467-  85 2.03  83 2.04  65 2.07  27 2.49
  42  0.774  0.833  0.083-  86 1.98  93 2.07  91 2.17  87 2.36  94 2.36  48 2.53  16 2.53
  43  0.868  0.739  0.218-  92 2.25  94 2.26  87 2.26  95 2.36  72 2.36  37 2.53  33 2.53
  44  0.962  0.645  0.353-  66 2.25  95 2.26  72 2.26  96 2.36  73 2.36  38 2.53  34 2.53
  45  0.500  0.872  0.218-  94 2.25  75 2.26  57 2.26  84 2.36  77 2.36  25 2.53  31 2.53
  46  0.594  0.778  0.353-  95 2.25  84 2.26  77 2.26  89 2.36  85 2.36  32 2.53  26 2.53
  47  0.687  0.697  0.467-  85 2.03  89 2.04  96 2.07  27 2.49
  48  0.906  0.965  0.083-  86 2.01  67 2.06  80 2.10  87 2.36  68 2.36  16 2.53  42 2.53
  49  0.073  0.167  0.270-  25 2.25  10 2.26  20 2.26   9 2.36  19 2.36
  50  0.167  0.073  0.405-  11 2.03   5 2.03  26 2.25  10 2.36  20 2.36
  51  0.356  0.404  0.020-   6 1.99  12 2.01  78 2.71
  52  0.479  0.261  0.135-  12 2.12  16 2.25   7 2.26  21 2.26   6 2.36
  53  0.209  0.531  0.528-   3 2.04  29 2.07  35 2.07  73 2.71
  54  0.030  0.378  0.451-  15 2.00  11 2.04  29 2.15  10 2.36  14 2.36
  55  0.436  0.472  0.315-  32 2.25   2 2.26  22 2.26   1 2.36  21 2.36
  56  0.261  0.157  0.064-   4 2.07  36 2.08   6 2.10  57 2.73
  57  0.342  0.066  0.180-   7 2.25  25 2.26  45 2.26   4 2.36  36 2.36  56 2.73
  58  0.080  0.478  0.067-  28 2.07  24 2.08   6 2.09  59 2.69
  59  0.174  0.397  0.180-   9 2.25   7 2.26   1 2.26   6 2.36  28 2.36  58 2.69
  60  0.268  0.303  0.315-  10 2.25   2 2.26   8 2.26   7 2.36   1 2.36
  61  0.362  0.209  0.451-  11 2.07   3 2.10  17 2.10   8 2.36   2 2.36
  62  0.573  0.167  0.270-  37 2.25  22 2.26   8 2.26  21 2.36   7 2.36
  63  0.667  0.073  0.405-  17 2.05  23 2.05  38 2.25  22 2.36   8 2.36  88 2.71
  64  0.979  0.261  0.135-  24 2.16  18 2.23   4 2.25  19 2.26   9 2.26
  65  0.530  0.378  0.451-  41 2.07   3 2.10  23 2.10  22 2.36   2 2.36
  66  0.936  0.472  0.315-  44 2.25  14 2.26  10 2.26  13 2.36   9 2.36
  67  0.750  0.136  0.050-  18 2.02  16 2.05  48 2.06
  68  0.842  0.066  0.180-  18 2.14  19 2.25  37 2.26  33 2.26  16 2.36  48 2.36
  69  0.674  0.397  0.180-  40 2.24  21 2.25  19 2.26  13 2.26  18 2.27
  70  0.768  0.303  0.315-  22 2.25  14 2.26  20 2.26  19 2.36  13 2.36
  71  0.862  0.209  0.451-  15 2.00   5 2.04  23 2.15  20 2.36  14 2.36
  72  0.073  0.667  0.270-   1 2.25  34 2.26  44 2.26  33 2.36  43 2.36
  73  0.167  0.573  0.405-  35 2.05  29 2.05   2 2.25  34 2.36  44 2.36  53 2.71
  74  0.351  0.888  0.012-  30 1.99  36 1.99
  75  0.479  0.761  0.135-  40 2.13  31 2.26  45 2.26  30 2.36  36 2.36
  76  0.030  0.878  0.451-   5 2.07  39 2.10  35 2.10  34 2.36  38 2.36
  77  0.436  0.972  0.315-   8 2.25  26 2.26  46 2.26  25 2.36  45 2.36
  78  0.272  0.651  0.068-  28 2.07  30 2.09  12 2.14  79 2.62  51 2.71
  79  0.342  0.566  0.180-  12 2.06  31 2.25   1 2.26  21 2.26  28 2.36  78 2.62
  80  0.082  0.980  0.064-   4 2.07  30 2.09  48 2.10  81 2.74
  81  0.174  0.897  0.180-  33 2.25  31 2.26  25 2.26  30 2.36   4 2.36  80 2.74
  82  0.268  0.803  0.315-  34 2.25  26 2.26  32 2.26  31 2.36  25 2.36
  83  0.362  0.709  0.451-  27 2.00  41 2.04  35 2.15  32 2.36  26 2.36
  84  0.573  0.667  0.270-  13 2.25  46 2.26  32 2.26  45 2.36  31 2.36
  85  0.667  0.573  0.405-  47 2.03  41 2.03  14 2.25  46 2.36  32 2.36
  86  0.872  0.866  0.014-  42 1.98  48 2.01
  87  0.979  0.761  0.135-  28 2.25  43 2.26  33 2.26  42 2.36  48 2.36
  88  0.709  0.031  0.528-  39 2.04  23 2.07  17 2.07  63 2.71
  89  0.530  0.878  0.451-  27 2.00  47 2.04  17 2.15  46 2.36  26 2.36
  90  0.936  0.972  0.315-  20 2.25  38 2.26  34 2.26  37 2.36  33 2.36
  91  0.760  0.648  0.076-  24 2.13  40 2.14  42 2.17  92 2.47
  92  0.842  0.566  0.180-  24 2.03  40 2.04  43 2.25  13 2.26   9 2.26  91 2.47
  93  0.584  0.977  0.064-  42 2.07  16 2.09  36 2.09  94 2.73
  94  0.674  0.897  0.180-  45 2.25  43 2.26  37 2.26  42 2.36  16 2.36  93 2.73
  95  0.768  0.803  0.315-  46 2.25  38 2.26  44 2.26  43 2.36  37 2.36
  96  0.862  0.709  0.451-  47 2.07  39 2.10  29 2.10  44 2.36  38 2.36

  LATTYP: Found a base centered orthorhombic cell.
 ALAT       =    11.8257374459
 B/A-ratio  =     1.6199260857
 C/A-ratio  =     1.8387210052

  Lattice vectors:

 A1 = (  11.2564630382,   0.0000000000,   0.0000000000)
 A2 = (  -5.0445621212, -10.0628203371,   0.0000000000)
 A3 = (   0.0000000000,   0.0000000000, -21.7442318436)

Analysis of symmetry for initial positions (statically):
 Subroutine PRICEL returns:
 Original cell was already a primitive cell.

 Routine SETGRP: Setting up the symmetry group for a
 base centered orthorhombic supercell.

 Subroutine GETGRP returns: Found  1 space group operations
 (whereof  1 operations were pure point group operations)
 out of a pool of  8 trial point group operations.

The static configuration has the point symmetry C_1 .

Analysis of symmetry for dynamics (positions and initial velocities):
 Subroutine PRICEL returns:
 Original cell was already a primitive cell.

 Routine SETGRP: Setting up the symmetry group for a
 base centered orthorhombic supercell.

 Subroutine GETGRP returns: Found  1 space group operations
 (whereof  1 operations were pure point group operations)
 out of a pool of  8 trial point group operations.

The dynamic configuration has the point symmetry C_1 .

 Subroutine INISYM returns: Found  1 space group operations
 (whereof  1 operations are pure point group operations),
 and found     1 'primitive' translations

 KPOINTS: gamma-point-only calculation. no periodi

Automatic generation of k-mesh.
Space group operators:
 irot       det(A)        alpha          n_x          n_y          n_z        tau_x        tau_y        tau_z
    1     1.000000     0.000000     1.000000     0.000000     0.000000     0.000000     0.000000     0.000000

 Subroutine IBZKPT returns following result:

 Found      1 irreducible k-points:

 Following reciprocal coordinates:
            Coordinates               Weight
  0.000000  0.000000  0.000000      1.000000

 Following cartesian coordinates:
            Coordinates               Weight
  0.000000  0.000000  0.000000      1.000000

 SYSTEM =  "Millerite NiS"
 POSCAR =  Type_048 Type_148

 Startparameter for this run:
   NWRITE =      2    write-flag & timer
   PREC   = normal    normal or accurate (medium, high low for compatibility)
   ISTART =      0    job   : 0-new  1-cont  2-samecut
   ICHARG =      2    charge: 1-file 2-atom 10-const
   ISPIN  =      1    spin polarized calculation?
   LNONCOLLINEAR =      F non collinear calculations
   LSORBIT =      F    spin-orbit coupling
   INIWAV =      1    electr: 0-lowe 1-rand  2-diag
   LASPH  =      F    aspherical Exc in radial PAW
   METAGGA=      F    non-selfconsistent MetaGGA calc.

 Electronic Relaxation 1
   ENCUT  =  450.0 eV  33.07 Ry    5.75 a.u.  19.47 19.47 37.61*2*pi/ulx,y,z
   ENINI  =  450.0     initial cutoff
   ENAUG  =  703.4 eV  augmentation charge cutoff
   NELM   =    100;   NELMIN=  2; NELMDL= -5     # of ELM steps
   EDIFF  = 0.1E-03   stopping-criterion for ELM
   LREAL  =      T    real-space projection
   NLSPLINE    = F    spline interpolate recip. space projectors
   LCOMPAT=      F    compatible to vasp.4.4
   GGA_COMPAT  = T    GGA compatible to vasp.4.4-vasp.4.6
   LMAXPAW     = -100 max onsite density
[...]
     0.000000000  0.000000000 21.744231844     0.000000000  0.000000000  0.045989208

  length of vectors
    11.256463038 11.256463038 21.744231844     0.099375718  0.099375718  0.045989208

 FORCES acting on ions
    electron-ion (+dipol)            ewald-force                    non-local-force                 convergence-correction
   0.251E+03 -.405E+03 0.579E+03   -.252E+03 0.406E+03 -.578E+03   0.496E+00 -.792E+00 -.645E+00   0.655E-01 -.129E+00 0.712E-01
   0.226E+03 -.364E+03 -.240E+04   -.227E+03 0.365E+03 0.239E+04   0.602E+00 -.108E+01 0.249E+00   -.277E-01 -.480E-02 0.376E-01
   -.322E+02 0.525E+02 -.558E+04   0.295E+02 -.482E+02 0.558E+04   0.324E+01 -.522E+01 -.228E+00   -.109E-02 0.434E-01 0.139E+00
   0.249E+03 -.497E+03 0.391E+04   -.252E+03 0.501E+03 -.391E+04   0.250E+01 -.397E+01 0.195E+01   -.275E-01 0.666E-01 0.154E+00
   -.687E+02 0.511E+03 -.489E+04   0.680E+02 -.512E+03 0.489E+04   0.112E+01 0.835E+00 -.380E+00   -.104E-01 -.520E-01 0.532E-01
   0.271E+03 0.436E+03 0.494E+04   -.274E+03 -.441E+03 -.494E+04   0.169E+01 0.364E+01 0.456E+01   -.555E-01 -.939E-01 0.764E-01
   0.260E+03 0.468E+03 0.169E+04   -.261E+03 -.469E+03 -.169E+04   0.670E+00 0.441E+00 0.716E+00   0.260E-01 0.301E-01 0.139E+00
   0.280E+03 0.454E+03 -.145E+04   -.281E+03 -.454E+03 0.144E+04   0.103E+01 0.361E+00 0.212E+01   -.543E-01 -.355E-01 0.127E-01
   -.528E+03 0.232E+02 0.166E+04   0.529E+03 -.235E+02 -.166E+04   -.121E+01 0.319E+00 -.688E+00   -.806E-01 -.894E-01 0.128E+00
   -.481E+03 -.385E+02 -.141E+04   0.482E+03 0.392E+02 0.141E+04   -.846E+00 -.680E+00 0.241E+01   -.626E-01 -.922E-01 -.490E-01
   -.427E+03 0.289E+03 -.489E+04   0.428E+03 -.288E+03 0.489E+04   -.125E+01 -.706E+00 -.288E+00   -.383E-01 -.621E-01 0.253E-01
   -.952E+03 -.741E+02 0.473E+04   0.956E+03 0.729E+02 -.473E+04   -.239E+01 0.135E+01 0.412E+01   0.795E-01 -.989E-01 0.140E+00
   0.239E+03 -.333E+03 0.510E+03   -.239E+03 0.333E+03 -.508E+03   0.368E+00 -.494E+00 -.148E+01   0.267E-02 -.939E-01 -.767E-02
   0.289E+03 -.473E+03 -.272E+04   -.290E+03 0.474E+03 0.272E+04   0.639E+00 -.102E+01 0.164E+01   0.782E-01 -.162E+00 -.368E-01
   0.248E+03 -.403E+03 -.583E+04   -.245E+03 0.398E+03 0.582E+04   -.326E+01 0.509E+01 0.424E+01   -.351E-01 -.205E-01 0.157E+00
   0.448E+03 -.441E+03 0.389E+04   -.451E+03 0.444E+03 -.389E+04   0.284E+01 -.278E+01 0.240E+01   0.384E-01 0.862E-02 0.102E+00
   0.420E+03 0.230E+03 -.489E+04   -.423E+03 -.233E+03 0.489E+04   0.240E+01 0.316E+01 -.182E+01   -.965E-02 -.119E+00 0.142E+00
   -.214E+02 -.576E+03 0.464E+04   0.209E+02 0.581E+03 -.464E+04   0.963E+00 -.292E+01 0.462E+01   0.162E-01 0.309E-01 0.153E+00
   0.111E+03 0.334E+03 0.148E+04   -.110E+03 -.334E+03 -.147E+04   -.492E+00 -.922E-03 -.153E+01   0.198E-01 0.428E-01 0.574E-01
   0.239E+03 0.408E+03 -.143E+04   -.240E+03 -.409E+03 0.142E+04   0.100E+01 0.363E+00 0.255E+01   0.967E-01 0.269E-01 -.107E-01
   -.542E+03 -.360E+02 0.168E+04   0.544E+03 0.358E+02 -.168E+04   -.217E+01 0.197E+00 -.538E+00   -.142E-01 -.439E-01 0.128E+00
   -.520E+03 -.451E+02 -.146E+04   0.521E+03 0.457E+02 0.145E+04   -.819E+00 -.752E+00 0.209E+01   -.315E-02 -.208E-01 -.194E-01
   -.393E+03 -.271E+03 -.489E+04   0.397E+03 0.273E+03 0.489E+04   -.389E+01 -.716E+00 -.182E+01   0.154E-02 -.104E+00 0.141E+00
   0.103E+03 0.129E+03 0.503E+04   -.985E+02 -.132E+03 -.504E+04   -.501E+01 0.196E+01 0.387E+01   -.104E+00 -.522E-01 0.721E-01
   0.232E+03 -.388E+03 0.578E+03   -.233E+03 0.389E+03 -.578E+03   0.643E+00 -.939E+00 -.268E+00   0.462E-01 -.206E-02 0.109E+00
   0.293E+03 -.474E+03 -.271E+04   -.294E+03 0.475E+03 0.271E+04   0.586E+00 -.849E+00 0.150E+01   0.481E-01 -.753E-01 0.196E+00
   0.249E+03 -.403E+03 -.582E+04   -.246E+03 0.398E+03 0.582E+04   -.318E+01 0.508E+01 0.403E+01   -.415E-01 0.457E-01 0.199E+00
   0.305E+03 -.494E+03 0.397E+04   -.309E+03 0.499E+03 -.397E+04   0.293E+01 -.421E+01 0.259E+01   -.721E-01 -.333E-01 0.147E+00
   0.417E+03 0.231E+03 -.489E+04   -.421E+03 -.234E+03 0.489E+04   0.235E+01 0.323E+01 -.170E+01   0.416E-01 0.563E-01 0.155E+00
   0.172E+03 0.560E+03 0.483E+04   -.174E+03 -.564E+03 -.483E+04   0.137E+01 0.278E+01 0.464E+01   0.486E-01 0.172E-01 0.751E-01
   0.255E+03 0.445E+03 0.173E+04   -.255E+03 -.446E+03 -.173E+04   0.306E+00 0.382E+00 0.890E+00   0.929E-01 0.395E-01 0.154E+00
   0.258E+03 0.401E+03 -.141E+04   -.259E+03 -.402E+03 0.141E+04   0.102E+01 0.276E+00 0.229E+01   0.103E-01 0.885E-01 0.738E-01
   -.532E+03 0.433E+02 0.167E+04   0.533E+03 -.441E+02 -.167E+04   -.102E+01 0.574E+00 0.554E+00   0.760E-02 0.835E-01 0.120E+00
   -.534E+03 -.361E+02 -.145E+04   0.535E+03 0.367E+02 0.144E+04   -.950E+00 -.800E+00 0.214E+01   0.830E-01 0.720E-01 0.119E+00
   -.394E+03 -.270E+03 -.489E+04   0.399E+03 0.272E+03 0.489E+04   -.391E+01 -.705E+00 -.171E+01   0.855E-01 0.943E-01 0.148E+00
   -.507E+03 0.508E+02 0.481E+04   0.512E+03 -.512E+02 -.481E+04   -.354E+01 0.195E+00 0.444E+01   0.687E-01 -.196E-01 0.952E-01
   0.272E+03 -.371E+03 0.559E+03   -.273E+03 0.371E+03 -.558E+03   0.114E+01 -.384E+00 -.111E+01   -.115E-01 0.434E-01 0.450E-01
   0.224E+03 -.360E+03 -.240E+04   -.224E+03 0.361E+03 0.240E+04   0.593E+00 -.105E+01 0.180E+00   0.292E-01 0.777E-01 0.221E+00
   -.328E+02 0.536E+02 -.558E+04   0.303E+02 -.493E+02 0.559E+04   0.312E+01 -.524E+01 -.290E+00   -.124E-01 0.735E-01 0.153E+00
   0.416E+03 -.173E+02 0.391E+04   -.422E+03 0.181E+02 -.392E+04   0.483E+01 -.114E+01 0.202E+01   -.648E-02 -.453E-01 0.115E+00
   -.654E+02 0.509E+03 -.489E+04   0.648E+02 -.510E+03 0.489E+04   0.109E+01 0.786E+00 -.186E+00   -.267E-01 0.285E+00 0.219E+00
   0.348E+03 0.582E+03 0.487E+04   -.351E+03 -.587E+03 -.488E+04   0.165E+01 0.360E+01 0.473E+01   -.637E-01 0.212E-01 0.616E-01
   0.218E+03 0.450E+03 0.169E+04   -.218E+03 -.450E+03 -.169E+04   0.419E+00 -.221E+00 0.929E+00   -.827E-01 0.171E-01 0.463E-01
   0.267E+03 0.456E+03 -.145E+04   -.268E+03 -.456E+03 0.145E+04   0.110E+01 0.477E+00 0.210E+01   0.133E-01 0.858E-02 0.577E-01
   -.477E+03 -.533E+02 0.170E+04   0.478E+03 0.539E+02 -.170E+04   -.905E+00 -.434E+00 0.702E+00   -.486E-01 -.938E-02 0.120E+00
   -.469E+03 -.489E+02 -.142E+04   0.470E+03 0.496E+02 0.142E+04   -.693E+00 -.759E+00 0.224E+01   -.935E-01 0.546E-01 0.689E-01
   -.425E+03 0.287E+03 -.489E+04   0.426E+03 -.288E+03 0.489E+04   -.120E+01 -.505E+00 -.299E+00   -.227E+00 0.175E+00 0.218E+00
   -.527E+03 0.106E+03 0.488E+04   0.532E+03 -.108E+03 -.488E+04   -.417E+01 0.143E+01 0.387E+01   -.667E-01 0.113E+00 0.766E-01
   -.871E+02 0.122E+03 0.246E+03   0.882E+02 -.124E+03 -.248E+03   -.113E+01 0.205E+01 0.228E+01   -.949E-02 0.291E-01 0.600E-01
   -.124E+03 0.200E+03 -.996E+03   0.125E+03 -.201E+03 0.996E+03   -.183E+00 0.460E+00 -.141E+01   -.215E-01 0.134E-01 -.139E-01
   -.151E+03 0.141E+02 0.236E+04   0.152E+03 -.144E+02 -.237E+04   0.163E+00 0.596E+00 0.968E+00   -.878E-02 -.324E-01 -.733E-01
   -.909E+02 0.164E+03 0.149E+04   0.913E+02 -.166E+03 -.149E+04   -.618E+00 0.659E+00 0.266E+01   0.136E-01 -.392E-01 0.992E-01
   -.741E+00 0.115E+01 -.233E+04   0.110E+01 -.178E+01 0.234E+04   -.115E+00 0.162E+00 -.192E+01   0.312E-01 0.257E-01 0.598E-01
   -.447E+02 -.234E+03 -.156E+04   0.455E+02 0.236E+03 0.156E+04   -.423E+00 -.162E+00 -.151E+01   -.121E-01 -.378E-01 -.396E-02
   -.763E+02 -.155E+03 -.225E+03   0.778E+02 0.158E+03 0.225E+03   -.156E+01 -.257E+01 -.506E+00   -.123E-01 0.428E-02 -.293E-01
   0.391E+02 -.166E+03 0.208E+04   -.410E+02 0.168E+03 -.208E+04   0.173E+01 -.912E+00 0.347E+01   -.942E-03 0.238E-01 0.284E-03
   -.700E+02 -.148E+03 0.944E+03   0.712E+02 0.150E+03 -.944E+03   -.970E+00 -.188E+01 0.798E+00   0.185E-01 -.206E-02 0.919E-01
   0.191E+03 -.697E+02 0.213E+04   -.192E+03 0.721E+02 -.213E+04   0.542E+00 -.194E+01 0.306E+01   -.436E-01 -.241E-01 -.917E-02
   0.167E+03 0.394E+01 0.943E+03   -.169E+03 -.432E+01 -.943E+03   0.246E+01 0.525E-01 0.773E+00   -.387E-02 -.409E-01 0.880E-01
   0.172E+03 0.275E+01 -.224E+03   -.175E+03 -.283E+01 0.225E+03   0.300E+01 0.176E+00 -.698E+00   -.307E-01 -.152E-01 -.105E-01
[...]
   0.229E+03 -.657E+02 -.156E+04   -.232E+03 0.660E+02 0.156E+04   0.245E+00 0.216E+00 -.162E+01   0.864E-01 0.702E-01 0.127E+00
   -.564E+02 0.110E+03 0.225E+03   0.573E+02 -.111E+03 -.226E+03   -.917E+00 0.160E+01 0.123E+01   -.121E-01 0.214E-01 0.467E-02
   -.122E+03 0.198E+03 -.999E+03   0.123E+03 -.200E+03 0.999E+03   -.289E+00 0.486E+00 -.126E+01   -.360E-01 0.422E-01 0.301E-01
   -.609E+02 0.157E+03 0.234E+04   0.614E+02 -.159E+03 -.235E+04   0.131E+00 0.988E+00 0.891E+00   -.288E-01 0.131E-01 -.109E-01
   -.838E+02 0.159E+03 0.147E+04   0.845E+02 -.160E+03 -.147E+04   -.595E+00 0.623E+00 0.226E+01   -.410E-01 0.250E-01 0.351E-01
   -.494E+00 0.103E+01 -.233E+04   0.889E+00 -.160E+01 0.234E+04   -.117E+00 0.210E+00 -.192E+01   0.115E-01 -.657E-01 0.411E-01
   -.434E+02 -.234E+03 -.156E+04   0.441E+02 0.237E+03 0.156E+04   -.335E+00 -.804E-01 -.163E+01   -.955E-01 -.452E-01 0.119E+00
   -.813E+02 -.147E+03 -.234E+03   0.826E+02 0.149E+03 0.233E+03   -.125E+01 -.263E+01 -.510E-01   0.259E-01 0.451E-01 0.404E-01
   0.130E+03 0.177E+02 0.209E+04   -.131E+03 -.168E+02 -.210E+04   0.116E+01 -.734E+00 0.384E+01   -.126E-01 -.488E-02 0.466E-02
   -.112E+03 -.159E+03 0.937E+03   0.114E+03 0.161E+03 -.934E+03   -.598E+00 -.115E+01 -.195E-02   -.255E-01 -.290E-01 0.396E-01
   0.134E+03 -.591E+02 0.208E+04   -.135E+03 0.617E+02 -.208E+04   -.208E+00 -.189E+01 0.393E+01   0.320E-01 -.767E-02 0.183E-01
   0.179E+03 -.805E+00 0.947E+03   -.181E+03 0.382E+00 -.947E+03   0.229E+01 0.208E+00 0.118E+01   -.228E-01 0.275E-02 0.307E-01
   0.171E+03 0.411E+00 -.229E+03   -.174E+03 -.562E+00 0.229E+03   0.301E+01 0.140E+00 -.322E+00   -.368E-01 0.325E-01 0.132E-01
   0.151E+03 0.105E+03 -.160E+04   -.154E+03 -.106E+03 0.160E+04   0.245E+01 0.694E+00 -.188E+01   0.138E-01 0.857E-01 0.854E-01
   -.108E+02 0.114E+02 -.955E+02   0.909E-12 -.189E-11 0.284E-10   0.108E+02 -.117E+02 0.893E+02   -.319E+00 0.198E+00 0.624E+01

 POSITION                                       TOTAL-FORCE (eV/Angst)
      5.35228      4.81788      5.50842        -0.008800     -0.221068     -0.074975
      5.93595      3.87238      8.44448        -0.086026      0.137471     -0.958019
      6.04209      3.70046     10.80849         0.522412     -0.894475      0.712360
      2.24633      0.73197      2.57236        -0.142683      0.538858      2.168882
      0.74818      0.53005     10.16143         0.458086     -0.251655      0.938092
      4.76861      3.35453      1.79664        -0.803586     -1.469917      2.436519
      5.35228      2.40903      4.73270         0.061085      0.160471      0.128574
      5.93595      1.46353      7.66876         0.142222     -0.091197     -0.010495
      1.87746      3.73836      4.73270         0.107765     -0.073561      0.205897
      2.46113      2.79286      7.66876         0.027207     -0.081772     -0.263206
      3.09824      1.98079     10.16139         0.008557     -0.544556      0.963577
      6.88142      4.60443      2.18620         1.683921      0.032069      0.168055
     10.98051      4.81788      5.50842        -0.031801     -0.126229      0.170061
     11.56418      3.87238      8.44448        -0.119385      0.047367      0.018128
     12.18270      2.87042     10.97754         0.034734     -0.085185      1.166634
      7.87456      0.73197      2.57236        -0.717475      0.129195      1.884947
      6.46210      0.55030     10.27936        -0.960417      0.097777      0.491013
     10.16967      2.26859      2.56596         0.476391      1.189932     -0.159166
     10.98051      2.40903      4.73270         0.460505      0.102450      1.157495
     11.56418      1.46353      7.66876        -0.026178     -0.070749     -0.168226
      7.50570      3.73836      4.73270        -0.002054      0.011902      0.139854
      8.08937      2.79286      7.66876        -0.040055     -0.138931     -0.042698
      8.66988      1.91319     10.27947         0.384289      0.903564      0.511997
     12.64161      4.63749      2.21943        -0.167887     -0.612293     -1.136800
      7.87456      9.84929      5.50842         0.016046     -0.027509     -0.158359
      8.45823      8.90379      8.44448        -0.047684      0.085380     -0.017748
      9.07662      7.90204     10.97757         0.042145     -0.078091      1.216181
      4.76861      5.76338      2.57236        -1.022910      0.685203      1.975414
      3.35620      5.58175     10.27941        -0.955127      0.089983      0.531491
      7.29089      8.38594      1.79664        -0.415184     -1.044146      2.639860
      7.87456      7.44044      4.73270        -0.009586      0.256016      0.158115
      8.45823      6.49494      7.66876        -0.070554     -0.062961     -0.172401
      4.39975      8.76977      4.73270         0.151400     -0.106146      0.091121
      4.98341      7.82427      7.66876        -0.086621     -0.141320     -0.057328
      5.56400      6.94465     10.27935         0.367593      0.921938      0.522152
      9.44431      9.71527      1.79664         1.520657     -0.286125      2.712973
     13.50279      9.84929      5.50842        -0.127749      0.012728      0.011016
     14.08646      8.90379      8.44448        -0.057450      0.077328     -1.043461
     14.19259      8.73186     10.80848         0.535398     -0.892592      0.715407
     10.44646      5.92812      3.17549        -0.844130     -0.415941     -0.946829
      8.89872      5.56152     10.16172         0.457147     -0.244989      0.959512
     12.91912      8.38594      1.79664        -0.740523     -1.587942      2.617245
     13.50279      7.44044      4.73270         0.171598      0.097362      0.170005
     14.08646      6.49494      7.66876         0.124554      0.002782     -0.069607
     10.02798      8.76977      4.73270        -0.068797      0.142503      0.159798
     10.61165      7.82427      7.66876         0.078411     -0.004350     -0.175326
     11.24869      7.01218     10.16171         0.014033     -0.516989      0.949528
     15.07254      9.71527      1.79664         1.119700     -0.393220      2.350293
      1.66190      1.67871      5.87212         0.019269     -0.027000      0.141911
      2.24556      0.73321      8.80817         0.902365     -1.389280     -1.556977
      6.03891      4.06120      0.44100         1.214251      0.187701     -4.112167
      6.70646      2.62422      2.93606        -0.170047     -0.995530      0.406055
      5.03093      5.33853     11.47631         0.281401     -0.440569      2.821362
      2.24556      3.80055      9.79595         0.369535      2.063803     -0.548765
      7.29013      4.74605      6.85989        -0.069879      0.056338     -0.077290
      3.72497      1.57956      1.39947        -0.126444      1.287764     -2.354464
      4.18418      0.66015      3.92384         0.188769     -0.057260      0.807165
      3.31199      4.80781      1.44682        -1.066007      0.411911     -2.541502
      3.96438      3.99884      3.92384         0.037491     -0.366899      1.032721
      4.54805      3.05334      6.85989        -0.029996      0.086337     -0.119391
[...]
      7.07033      8.08475      6.85989        -0.047453     -0.034898      0.128327
      7.65400      7.13925      9.79595        -1.998009      0.605207     -0.542253
      9.81241      6.71012      5.87212         0.038227     -0.021131      0.246188
     10.39608      5.76462      8.80817         0.896905     -1.467780     -1.638505
     14.18231      8.71474      0.30168         0.641515     -0.815550     -4.265418
     14.85697      7.65563      2.93606         0.068582     -0.221104      0.266509
      8.13678      0.30705     11.47633         0.291789     -0.429751      2.817614
     10.39608      8.83196      9.79595         0.326426      2.057636     -0.559459
     15.44064      9.77746      6.85989         0.024375      0.051449     -0.056076
     11.82360      6.51597      1.64871        -0.420343      0.227823     -1.679696
     12.33469      5.69156      3.92384         1.466811      0.648286      3.364919
     11.49621      9.82914      1.39153        -1.100037      0.715776     -2.259285
     12.11489      9.03025      3.92384        -0.022348     -0.211124      0.817124
     12.69856      8.08475      6.85989         0.022091      0.022390     -0.055357
     13.28223      7.13925      9.79595        -0.430489      0.275312     -0.221381
    total drift:                               -0.266604     -0.067395      0.038604

  FREE ENERGIE OF THE ION-ELECTRON SYSTEM (eV)
  free  energy   TOTEN  =      -474.56137598 eV

  energy  without entropy=     -473.41792997  energy(sigma->0) =     -473.98965297