 vasp.5.4.4.18Apr17-6-g9f103f2a35 (build Aug 13 2019 17:33:20) gamma-only

 executed on             LinuxIFC date 2020.05.12  00:57:28

 INCAR:
 POTCAR:    PAW_PBE Ni_pv 06Sep2000
 POTCAR:    PAW_PBE S 06Sep2000
 POTCAR:    PAW_PBE Ni_pv 06Sep2000
   VRHFIN =Ni:

   TITEL  = PAW_PBE Ni_pv 06Sep2000
   POMASS =   58.690; ZVAL   =   16.000    mass and valenz
   ENMAX  =  367.986; ENMIN  =  275.989 eV

 POTCAR:    PAW_PBE S 06Sep2000
   VRHFIN =S : s2p4

   TITEL  = PAW_PBE S 06Sep2000
   POMASS =   32.066; ZVAL   =    6.000    mass and valenz
   ENMAX  =  258.689; ENMIN  =  194.016 eV

 Optimization of the real space projectors (new method)

 maximal supplied QI-value         = 18.90
 optimisation between [QCUT,QGAM] = [ 10.77, 21.73] = [ 32.49,132.25] Ry
 Optimized for a Real-space Cutoff    1.38 Angstroem

   l    n(q)    QCUT    max X(q) W(low)/X(q) W(high)/X(q)  e(spline)
   1      8    10.771     2.836    0.40E-04    0.29E-04    0.12E-06
   1      8    10.771     4.023    0.10E-03    0.48E-04    0.29E-06
   2      8    10.771    73.368    0.42E-03    0.97E-04    0.44E-06
   2      8    10.771    69.010    0.42E-03    0.99E-04    0.45E-06
   0      9    10.771    54.797    0.10E-03    0.56E-04    0.74E-07
   0      9    10.771    24.266    0.89E-04    0.49E-04    0.67E-07
 Optimization of the real space projectors (new method)

 maximal supplied QI-value         = 19.84
 optimisation between [QCUT,QGAM] = [ 10.71, 21.63] = [ 32.15,130.99] Ry
 Optimized for a Real-space Cutoff    1.19 Angstroem

   l    n(q)    QCUT    max X(q) W(low)/X(q) W(high)/X(q)  e(spline)
   0      8    10.715   187.594    0.41E-03    0.53E-04    0.66E-07
   0      8    10.715   164.243    0.41E-03    0.53E-04    0.65E-07
   1      7    10.715    67.533    0.19E-03    0.59E-03    0.68E-07
   1      7    10.715    50.729    0.19E-03    0.58E-03    0.67E-07
  PAW_PBE Ni_pv 06Sep2000               :
  PAW_PBE S 06Sep2000                   :

 POSCAR: Type_037 Type_137
  positions in cartesian coordinates
 exchange correlation table for  LEXCH =        8
   RHO(1)=    0.500       N(1)  =     2000
   RHO(2)=  100.500       N(2)  =     4000

 ion  position               nearest neighbor table
   1  0.780  0.145  0.123-  65 2.08  51 2.08  42 2.25  52 2.36  66 2.36  13 2.45
   2  0.817  0.143  0.291-  66 2.04  52 2.08  38 2.14  43 2.17
   3  0.297  0.645  0.216-  63 2.11  46 2.11  54 2.14  45 2.22  15 2.43  35 2.46  29 2.53  16 2.53

   4  0.383  0.087  0.130-  69 2.04  47 2.05  48 2.15  53 2.34  22 2.37   5 2.50
   5  0.470  0.145  0.247-  56 2.08  70 2.14  48 2.25  55 2.26  69 2.26   4 2.50  32 2.53  19 2.53

[...]

   7  0.915  0.621  0.288-  50 2.00  67 2.13  57 2.14   6 2.32
   8  0.172  0.143  0.047-  47 2.00  73 2.04  59 2.05   9 2.43
   9  0.125  0.145  0.185-  74 2.09  73 2.15  59 2.15  39 2.25  60 2.36  10 2.38   8 2.43  34 2.53
                            22 2.53
  10  0.048  0.124  0.305-  38 2.09  74 2.09  39 2.24   9 2.38  14 2.42  27 2.46
  11  0.570  0.644  0.162-  40 2.01  41 2.17  71 2.19  61 2.21  12 2.28
  12  0.642  0.645  0.278-  62 2.04  72 2.05  41 2.25  61 2.26  71 2.26  11 2.28  37 2.53  25 2.53

[...]

  21  0.143  0.517  0.261-  60 2.03  46 2.04  45 2.06  20 2.44  67 2.44
  22  0.252  0.013  0.161-  73 2.11  53 2.17  47 2.22  48 2.36   4 2.37  23 2.42   9 2.53  34 2.53
                            74 2.62
  23  0.274  0.992  0.304-  74 2.04  48 2.05  54 2.06  22 2.42
  24  0.769  0.426  0.120-  51 2.03  52 2.16  71 2.23  49 2.33  25 2.37
  25  0.770  0.513  0.253-  50 2.05  52 2.25  71 2.26  49 2.26  24 2.37  72 2.39  12 2.53  37 2.53

  26  0.909  0.287  0.119-  51 2.06  68 2.07  52 2.10  39 2.22  27 2.53
  27  0.942  0.287  0.268-  38 2.09  67 2.11  52 2.12  39 2.12  10 2.46  26 2.53
  28  0.445  0.853  0.057-  53 2.09  69 2.10  40 2.13  29 2.39  15 2.53
  29  0.425  0.777  0.192-  54 2.16  53 2.22  69 2.25  40 2.26  41 2.36  28 2.39  30 2.47  15 2.52
                             3 2.53  16 2.53
  30  0.451  0.804  0.337-  70 2.01  54 2.04  41 2.07  29 2.47
  31  0.623  0.350  0.089-  42 2.07  71 2.07  32 2.37  18 2.52  55 2.60
  32  0.597  0.277  0.222-  56 2.09  43 2.22  71 2.25  55 2.26  42 2.26  31 2.37  17 2.38  19 2.53
                             5 2.53
  33  0.080  0.777  0.130-  44 2.01  45 2.11  58 2.11  73 2.11  57 2.35   6 2.53  20 2.53
  34  0.252  0.277  0.161-  47 2.11  63 2.11  59 2.14  35 2.35  48 2.36  60 2.36   9 2.53  22 2.53

[...]

  38  0.931  0.116  0.344-  27 2.09  10 2.09  14 2.10   2 2.14
  39  0.991  0.145  0.183-  27 2.12  14 2.18  26 2.22  13 2.22  10 2.24   9 2.25
  40  0.474  0.645  0.091-  11 2.01  15 2.05  28 2.13  16 2.26  29 2.26
  41  0.509  0.645  0.276-  17 2.03  30 2.07  11 2.17  12 2.25  29 2.36  16 2.36  64 2.77
  42  0.647  0.145  0.122-  18 2.05  31 2.07   1 2.25  19 2.26  32 2.26  43 2.63
  43  0.690  0.138  0.273-  19 2.14   2 2.17  32 2.22  42 2.63
  44  0.078  0.646  0.035-  33 2.01  20 2.03  68 2.66  45 2.77  58 2.77
  45  0.174  0.651  0.170-  21 2.06  33 2.11  20 2.17   3 2.22  44 2.77
  46  0.241  0.582  0.323-  35 2.04  21 2.04   3 2.11
  47  0.289  0.155  0.062-   8 2.00   4 2.05  34 2.11  22 2.22
  48  0.336  0.145  0.245-  23 2.05   4 2.15   5 2.25  22 2.36  34 2.36
  49  0.819  0.645  0.153-  36 2.17   6 2.25  25 2.26  37 2.26  24 2.33
  50  0.810  0.641  0.343-   7 2.00  25 2.05  37 2.09  62 2.68
  51  0.816  0.292  0.039-  24 2.03  26 2.06   1 2.08
  52  0.829  0.314  0.215-   2 2.08  26 2.10  27 2.12  24 2.16  25 2.25   1 2.36
  53  0.333  0.862  0.109-  28 2.09  15 2.11  22 2.17  29 2.22   4 2.34
  54  0.340  0.815  0.287-  30 2.04  23 2.06   3 2.14  29 2.16
  55  0.484  0.314  0.153-  18 2.03  16 2.25   5 2.26  32 2.26  31 2.60
  56  0.542  0.239  0.333-  17 2.03   5 2.08  32 2.09  70 2.59
  57  0.001  0.769  0.246-   6 2.10  14 2.11   7 2.14  33 2.35  58 2.72
  58  0.965  0.834  0.091-  13 2.07   6 2.10  33 2.11  57 2.72  44 2.77
  59  0.140  0.322  0.107-   8 2.05  20 2.13  34 2.14   9 2.15
  60  0.174  0.314  0.276-  21 2.03  35 2.18   9 2.36  34 2.36
  61  0.657  0.814  0.184-  11 2.21  19 2.25  37 2.26  12 2.26  36 2.37  62 2.63
  62  0.685  0.813  0.339-  12 2.04  37 2.05  61 2.63  50 2.68
  63  0.313  0.468  0.143-  16 2.10   3 2.11  34 2.11  15 2.14  35 2.27
  64  0.410  0.420  0.305-  35 2.08  16 2.10  17 2.15  41 2.77
  65  0.810  0.998  0.037-  36 2.02  13 2.06   1 2.08
  66  0.829  0.977  0.215-   2 2.04  14 2.10  36 2.13  13 2.15  37 2.25   1 2.36
  67  0.001  0.477  0.246-  27 2.11   7 2.13  20 2.36   6 2.36  21 2.44  68 2.77
  68  0.967  0.467  0.083-  26 2.07   6 2.09  20 2.11  44 2.66  67 2.77
  69  0.484  0.977  0.153-   4 2.04  18 2.05  28 2.10  29 2.25   5 2.26  19 2.26  70 2.74
  70  0.517  0.974  0.314-  30 2.01  19 2.08   5 2.14  56 2.59  69 2.74
  71  0.657  0.477  0.184-  31 2.07  11 2.19  24 2.23  32 2.25  25 2.26  12 2.26  72 2.57
  72  0.659  0.461  0.338-  12 2.05  17 2.14  25 2.39  71 2.57
  73  0.141  0.966  0.109-   8 2.04  22 2.11  33 2.11   9 2.15
  74  0.155  0.020  0.283-  23 2.04   9 2.09  10 2.09  22 2.62

  LATTYP: Found a simple orthorhombic cell.
 ALAT       =     9.5784100000
 B/A-ratio  =     1.7387693453
 C/A-ratio  =     1.7627867312

  Lattice vectors:

 A1 = (   0.0000000000,   9.5784100000,   0.0000000000)
 A2 = (   0.0000000000,   0.0000000000, -16.6546456851)
 A3 = ( -16.8846940542,   0.0000000000,   0.0000000000)

Analysis of symmetry for initial positions (statically):
 Subroutine PRICEL returns:
 Original cell was already a primitive cell.

 Routine SETGRP: Setting up the symmetry group for a
 simple orthorhombic supercell.

 Subroutine GETGRP returns: Found  1 space group operations
 (whereof  1 operations were pure point group operations)
 out of a pool of  8 trial point group operations.

The static configuration has the point symmetry C_1 .

Analysis of symmetry for dynamics (positions and initial velocities):
 Subroutine PRICEL returns:
 Original cell was already a primitive cell.

 Routine SETGRP: Setting up the symmetry group for a
 simple orthorhombic supercell.

 Subroutine GETGRP returns: Found  1 space group operations
 (whereof  1 operations were pure point group operations)
 out of a pool of  8 trial point group operations.

The dynamic configuration has the point symmetry C_1 .

 Subroutine INISYM returns: Found  1 space group operations
 (whereof  1 operations are pure point group operations),
 and found     1 'primitive' translations

 KPOINTS: gamma-point-only calculation. no periodi

Automatic generation of k-mesh.
Space group operators:
 irot       det(A)        alpha          n_x          n_y          n_z        tau_x        tau_y        tau_z
    1     1.000000     0.000000     1.000000     0.000000     0.000000     0.000000     0.000000     0.000000

 Subroutine IBZKPT returns following result:

 Found      1 irreducible k-points:

 Following reciprocal coordinates:
            Coordinates               Weight
  0.000000  0.000000  0.000000      1.000000

 Following cartesian coordinates:
            Coordinates               Weight
  0.000000  0.000000  0.000000      1.000000

 SYSTEM =  "Millerite NiS"
 POSCAR =  Type_037 Type_137

 Startparameter for this run:
   NWRITE =      2    write-flag & timer
   PREC   = normal    normal or accurate (medium, high low for compatibility)
   ISTART =      0    job   : 0-new  1-cont  2-samecut
   ICHARG =      2    charge: 1-file 2-atom 10-const
   ISPIN  =      1    spin polarized calculation?
   LNONCOLLINEAR =      F non collinear calculations
   LSORBIT =      F    spin-orbit coupling
   INIWAV =      1    electr: 0-lowe 1-rand  2-diag
   LASPH  =      F    aspherical Exc in radial PAW
   METAGGA=      F    non-selfconsistent MetaGGA calc.

 Electronic Relaxation 1
   ENCUT  =  450.0 eV  33.07 Ry    5.75 a.u.  29.20 16.57 28.81*2*pi/ulx,y,z
   ENINI  =  450.0     initial cutoff
   ENAUG  =  703.4 eV  augmentation charge cutoff
   NELM   =    100;   NELMIN=  2; NELMDL= -5     # of ELM steps
   EDIFF  = 0.1E-03   stopping-criterion for ELM
   LREAL  =      T    real-space projection
   NLSPLINE    = F    spline interpolate recip. space projectors
   LCOMPAT=      F    compatible to vasp.4.4
   GGA_COMPAT  = T    GGA compatible to vasp.4.4-vasp.4.6
   LMAXPAW     = -100 max onsite density
   LMAXMIX     =    2 max onsite mixed and CHGCAR
   VOSKOWN=      0    Vosko Wilk Nusair interpolation
   ROPT   =   -0.00050  -0.00050
 Ionic relaxation
   EDIFFG = 0.1E-02   stopping-criterion for IOM
   NSW    =      0    number of steps for IOM
   NBLOCK =      1;   KBLOCK =      1    inner block; outer block
   IBRION =     -1    ionic relax: 0-MD 1-quasi-New 2-CG
   NFREE  =      0    steps in history (QN), initial steepest desc. (CG)
   ISIF   =      2    stress and relaxation
   IWAVPR =     10    prediction:  0-non 1-charg 2-wave 3-comb
   ISYM   =      2    0-nonsym 1-usesym 2-fastsym
   LCORR  =      T    Harris-Foulkes like correction to forces

   POTIM  = 0.5000    time-step for ionic-motion
   TEIN   =    0.0    initial temperature
   TEBEG  =    0.0;   TEEND  =   0.0 temperature during run
   SMASS  =  -3.00    Nose mass-parameter (am)
[...]
     0.000000000  9.578410000  0.000000000     0.000000000  0.104401461  0.000000000
     0.000000000  0.000000000 16.654645685     0.000000000  0.000000000  0.060043307

  length of vectors
    16.884694054  9.578410000 16.654645685     0.059225237  0.104401461  0.060043307

 FORCES acting on ions
    electron-ion (+dipol)            ewald-force                    non-local-force                 convergence-correction
   0.530E+03 0.169E+03 0.200E+04   -.533E+03 -.169E+03 -.201E+04   0.213E+01 -.401E-01 0.557E+01   0.265E-01 0.108E+00 -.975E-01
   0.434E+03 0.649E+02 -.314E+04   -.437E+03 -.648E+02 0.315E+04   0.132E+01 0.533E+00 -.261E+01   0.419E-01 -.854E-01 -.365E-02
   0.858E+03 -.378E+03 -.794E+03   -.859E+03 0.382E+03 0.797E+03   -.130E+00 -.234E+01 -.228E+01   0.618E-01 0.901E-01 -.562E-01
   0.562E+02 -.337E+03 0.210E+04   -.561E+02 0.340E+03 -.210E+04   0.840E+00 -.195E+01 0.246E+01   -.738E-02 -.102E+00 -.746E-01
   0.505E+03 -.425E+02 -.196E+04   -.510E+03 0.445E+02 0.196E+04   0.332E+01 -.184E+01 -.563E+01   -.135E-01 -.140E+00 0.232E-01
   0.158E+03 -.474E+02 0.139E+04   -.165E+03 0.468E+02 -.139E+04   0.625E+01 -.572E-01 0.300E+01   0.449E-01 0.372E-01 -.786E-01
   -.500E+03 -.456E+02 -.301E+04   0.499E+03 0.468E+02 0.301E+04   0.738E+00 -.176E+01 -.407E+01   0.149E+00 0.100E+00 0.664E-01
   0.461E+03 0.108E+02 0.412E+04   -.464E+03 -.110E+02 -.412E+04   0.224E+01 0.166E+00 0.400E+01   0.339E-01 -.411E-01 -.159E-01
   0.478E+03 0.492E+02 0.101E+03   -.480E+03 -.478E+02 -.101E+03   0.164E+01 -.291E+00 0.232E+00   0.317E-01 -.756E-01 -.591E-01
   -.521E+03 0.100E+03 -.339E+04   0.522E+03 -.102E+03 0.339E+04   -.800E+00 0.276E+01 -.191E+01   0.925E-03 -.149E+00 -.528E-02
   -.386E+03 -.219E+03 0.182E+04   0.390E+03 0.221E+03 -.182E+04   -.241E+01 -.187E+01 0.377E+01   -.762E-01 0.165E-01 -.895E-01
   -.506E+02 -.334E+03 -.242E+04   0.511E+02 0.337E+03 0.243E+04   -.576E+00 -.266E+01 -.819E+01   -.240E+00 -.643E-03 -.123E-01
   -.630E+03 0.261E+03 0.266E+04   0.633E+03 -.261E+03 -.266E+04   -.184E+01 0.873E+00 0.482E+01   0.805E-01 0.730E-01 0.409E-01
   -.360E+03 0.691E+03 -.190E+04   0.363E+03 -.699E+03 0.191E+04   -.342E+01 0.692E+01 -.288E+01   0.695E-01 -.948E-02 -.578E-02
   0.713E+03 0.427E+03 0.373E+04   -.717E+03 -.428E+03 -.373E+04   0.276E+01 0.106E+01 0.462E+00   0.873E-01 0.747E-01 -.185E+00
   -.451E+02 0.524E+03 0.328E+03   0.446E+02 -.527E+03 -.327E+03   0.192E+01 0.230E+01 -.442E+00   0.610E-01 0.678E-01 -.824E-01
   0.199E+03 0.245E+02 -.334E+04   -.197E+03 -.262E+02 0.335E+04   -.170E+01 0.193E+01 -.455E+01   -.601E-01 0.610E-01 0.726E-01
   -.383E+02 0.898E+02 0.352E+04   0.380E+02 -.888E+02 -.353E+04   0.150E+00 -.127E+01 0.587E+01   -.482E-01 -.674E-01 -.128E+00
   -.539E+03 0.562E+03 -.822E+03   0.543E+03 -.568E+03 0.824E+03   -.382E+01 0.514E+01 -.395E+01   -.148E+00 -.286E-01 0.181E-01
   -.198E+03 0.268E+03 0.192E+04   0.200E+03 -.273E+03 -.192E+04   -.146E+01 0.344E+01 0.234E+01   0.546E-01 -.102E+00 -.513E-01
   0.474E+03 -.332E+03 -.235E+04   -.477E+03 0.333E+03 0.236E+04   0.562E+00 0.216E+00 -.316E+01   -.144E-01 -.347E-02 0.329E-01
   0.378E+03 0.741E+03 0.803E+03   -.380E+03 -.745E+03 -.802E+03   0.226E+01 0.355E+01 -.268E+00   0.104E-01 -.101E-01 -.660E-01
   0.364E+03 0.150E+03 -.344E+04   -.365E+03 -.151E+03 0.343E+04   0.168E-01 0.388E+00 0.323E+01   0.131E-01 -.153E-03 0.129E-01
   -.272E+00 -.564E+03 0.256E+04   -.250E+01 0.567E+03 -.257E+04   0.200E+01 -.167E+01 0.811E+01   -.647E-01 -.955E-01 -.244E+00
   -.268E+03 0.331E+03 -.181E+04   0.270E+03 -.333E+03 0.182E+04   -.272E+01 0.723E+00 -.433E+01   -.829E-01 -.126E+00 -.132E+00
   -.640E+03 -.288E+03 0.246E+04   0.644E+03 0.289E+03 -.247E+04   -.379E+01 -.172E+01 0.552E+01   -.788E-01 -.834E-01 -.136E+00
   -.307E+03 -.613E+03 -.236E+04   0.311E+03 0.617E+03 0.237E+04   -.393E+01 -.301E+01 -.328E+01   0.386E-01 -.141E+00 -.184E-01
   -.472E+03 -.132E+03 0.410E+04   0.473E+03 0.131E+03 -.410E+04   -.795E+00 0.100E+01 -.234E+00   -.135E-01 -.106E-01 -.155E+00
   -.795E+02 -.284E+03 -.164E+03   0.779E+02 0.285E+03 0.167E+03   0.202E+01 -.139E+01 -.239E+01   0.548E-01 0.666E-01 -.889E-01
   0.102E+03 -.942E+02 -.394E+04   -.102E+03 0.953E+02 0.394E+04   0.122E+01 -.149E+01 0.227E+01   0.198E-01 0.652E-01 0.846E-01
   0.108E+02 -.464E+03 0.358E+04   -.903E+01 0.462E+03 -.358E+04   -.212E+01 0.203E+01 -.640E+00   0.623E-01 0.433E-01 -.167E+00
   -.444E+03 -.918E+01 -.950E+03   0.446E+03 0.114E+02 0.951E+03   -.152E+01 -.241E+01 -.169E+01   -.453E-01 -.539E-01 -.366E-01
   -.372E+03 -.411E+03 0.157E+04   0.373E+03 0.417E+03 -.157E+04   -.148E+01 -.402E+01 0.129E+01   0.401E-01 0.118E+00 0.223E-01
   -.355E+02 -.458E+03 0.106E+04   0.352E+02 0.460E+03 -.106E+04   0.359E+00 -.152E+01 0.141E+01   -.334E-01 -.134E+00 -.955E-01
   0.117E+03 0.293E+03 -.273E+04   -.118E+03 -.295E+03 0.273E+04   0.143E+01 0.698E+00 -.519E+01   0.264E-01 -.307E-01 0.724E-01
   0.396E+03 0.437E+03 0.262E+04   -.398E+03 -.440E+03 -.263E+04   0.613E+00 0.183E+01 0.793E+01   0.124E-01 0.979E-01 -.137E+00
   -.226E+03 -.444E+03 -.173E+04   0.228E+03 0.446E+03 0.174E+04   -.170E+01 -.241E+01 -.374E+01   -.417E-02 0.114E+00 0.320E-01
   0.143E+02 0.855E+02 -.172E+04   -.148E+02 -.863E+02 0.173E+04   0.121E+00 0.489E+00 -.307E+01   0.133E-01 -.827E-01 0.269E-01
   -.238E+03 0.256E+00 0.346E+03   0.240E+03 0.470E+00 -.350E+03   0.591E-02 -.687E+00 0.289E+01   0.675E-02 -.809E-01 -.175E-01
   -.272E+03 0.228E+03 0.139E+04   0.275E+03 -.231E+03 -.140E+04   -.254E+01 0.267E+01 0.187E+01   -.532E-02 0.351E-01 -.695E-01
   0.216E+02 -.925E+02 -.957E+03   -.228E+02 0.932E+02 0.961E+03   0.751E+00 0.124E+01 -.406E+01   -.469E-02 0.267E-01 0.147E-01
   -.217E+03 0.283E+03 0.937E+03   0.219E+03 -.286E+03 -.941E+03   -.964E+00 0.183E+01 0.270E+01   -.128E-02 0.486E-02 -.432E-01
   -.113E+03 0.654E+02 -.102E+04   0.114E+03 -.652E+02 0.102E+04   -.899E+00 0.183E+00 0.429E+00   -.238E-01 -.229E-01 0.229E-02
   -.805E+02 -.154E+02 0.166E+04   0.815E+02 0.157E+02 -.166E+04   -.807E+00 -.430E+00 0.239E+01   0.220E-01 -.175E-01 -.529E-01
   -.802E+02 -.208E+03 0.306E+03   0.811E+02 0.209E+03 -.308E+03   -.340E+00 -.289E+00 0.162E+01   0.945E-02 0.128E-01 -.270E-01
   0.175E+03 -.243E+03 -.156E+04   -.175E+03 0.245E+03 0.156E+04   -.392E+00 -.822E+00 -.304E+01   0.572E-02 0.279E-01 0.908E-01
   -.163E+03 -.142E+03 0.158E+04   0.166E+03 0.143E+03 -.159E+04   -.112E+01 -.117E+01 0.303E+01   0.204E-01 -.355E-01 -.368E-01
   0.691E+01 -.139E+03 -.815E+03   -.693E+01 0.141E+03 0.820E+03   0.159E-01 -.108E+01 -.454E+01   0.206E-01 -.422E-01 -.165E-01
   -.418E+02 0.292E+01 0.754E+03   0.422E+02 -.270E+01 -.758E+03   0.120E+00 -.648E+00 0.351E+01   -.378E-02 -.595E-01 -.882E-01
   -.102E+03 -.358E+02 -.168E+04   0.104E+03 0.343E+02 0.169E+04   -.136E+01 0.190E+01 -.206E+01   0.150E-01 0.170E-01 0.108E+00
   -.122E+02 -.956E+02 0.177E+04   0.126E+02 0.967E+02 -.177E+04   -.698E+00 -.231E+00 0.277E+01   -.423E-01 0.244E-01 -.193E-01
   0.615E+02 -.119E+03 -.375E+03   -.618E+02 0.120E+03 0.377E+03   -.783E+00 0.594E+00 -.125E+01   -.364E-01 -.353E-01 -.880E-01
   0.403E+03 -.417E+01 0.973E+03   -.407E+03 0.236E+01 -.975E+03   0.206E+01 0.150E+01 0.928E+00   0.297E-01 0.208E-01 -.526E-01
   0.305E+03 -.178E+02 -.111E+04   -.306E+03 0.190E+02 0.112E+04   0.134E+00 -.108E+01 -.116E+01   0.364E-01 0.191E-01 0.363E-01
   0.226E+03 -.215E+03 0.664E+03   -.229E+03 0.216E+03 -.666E+03   0.203E+01 -.210E+00 0.115E+01   -.114E-01 -.867E-02 -.359E-01
   -.262E+02 0.177E+03 -.165E+04   0.270E+02 -.178E+03 0.166E+04   -.720E+00 -.499E+00 -.299E+01   -.362E-01 -.306E-01 0.502E-01
   -.328E+03 -.618E+02 -.815E+03   0.331E+03 0.630E+02 0.820E+03   -.237E+01 -.125E+00 -.209E+01   0.570E-02 0.107E+00 0.294E-01
   -.199E+02 -.174E+02 0.125E+04   0.191E+02 0.171E+02 -.125E+04   0.802E+00 0.400E+00 0.346E+01   -.299E-02 0.596E-01 -.118E-01
   0.170E+03 -.252E+03 0.103E+04   -.170E+03 0.253E+03 -.103E+04   -.787E+00 -.409E+00 0.227E+01   -.118E-01 -.196E-01 -.206E-01
   0.152E+03 0.903E+02 -.111E+04   -.153E+03 -.919E+02 0.112E+04   0.101E+01 0.721E-01 -.458E+01   -.119E-01 -.457E-01 0.167E-01
   0.798E+01 -.132E+03 0.410E+03   -.937E+01 0.134E+03 -.413E+03   0.142E+01 -.125E+01 0.241E+01   -.103E+00 0.834E-02 -.233E-01
   0.166E+02 -.297E+03 -.154E+04   -.179E+02 0.300E+03 0.154E+04   0.125E+01 -.194E+01 -.149E+01   -.657E-01 0.210E-01 0.544E-01
   0.163E+03 0.151E+03 0.885E+03   -.163E+03 -.151E+03 -.890E+03   0.747E-01 -.320E+00 0.298E+01   0.254E-01 0.170E-01 -.711E-01
   0.132E+03 0.122E+03 -.135E+04   -.133E+03 -.124E+03 0.136E+04   0.720E+00 0.170E+01 -.127E+01   0.277E-01 0.196E-02 0.514E-01
   0.982E+02 0.129E+03 0.175E+04   -.981E+02 -.130E+03 -.176E+04   -.578E+00 0.628E+00 0.212E+01   0.121E-01 0.536E-01 -.730E-01
   0.108E+03 0.129E+03 -.366E+03   -.108E+03 -.131E+03 0.369E+03   -.898E+00 -.118E+00 -.227E+01   0.101E+00 0.589E-01 0.121E-01
   -.183E+03 0.129E+01 -.707E+03   0.183E+03 -.312E+01 0.710E+03   0.117E+01 0.222E+01 -.227E+01   0.478E-01 0.227E-03 -.112E-01
   0.148E+02 0.172E+02 0.134E+04   -.171E+02 -.175E+02 -.134E+04   0.206E+01 -.163E+00 0.269E+01   0.439E-02 -.296E-01 -.455E-01
   -.196E+03 0.160E+03 0.433E+03   0.197E+03 -.163E+03 -.433E+03   0.304E+00 0.845E+00 -.585E+00   -.177E-01 -.157E-01 -.236E-01
   -.984E+02 -.166E+02 -.138E+04   0.993E+02 0.152E+02 0.138E+04   -.673E+00 0.165E+01 -.167E+01   -.271E-01 -.892E-02 0.845E-02
   -.722E+02 -.873E+02 0.262E+03   0.703E+02 0.863E+02 -.264E+03   0.207E+01 0.932E+00 -.102E+00   -.212E-01 -.177E-02 -.854E-01
   -.216E+03 0.211E+03 -.156E+04   0.218E+03 -.214E+03 0.156E+04   -.265E+00 0.153E+01 -.300E+01   -.573E-01 -.212E-02 0.529E-01
   0.179E+03 0.316E+03 0.919E+03   -.179E+03 -.317E+03 -.922E+03   -.592E+00 -.592E+00 0.183E+01   0.337E-01 0.408E-01 0.613E-02
   0.805E+02 0.313E+03 -.110E+04   -.811E+02 -.317E+03 0.110E+04   0.452E+00 0.166E+01 -.121E+01   0.388E-03 -.308E-02 -.866E-02
   0.642E+00 -.115E+02 0.294E+01   0.124E-11 -.108E-11 -.455E-12   -.612E+00 0.118E+02 -.812E+00   0.454E-01 -.342E+00 -.210E+01

 POSITION                                       TOTAL-FORCE (eV/Angst)
     13.17084      1.39171      2.05636        -0.285436      0.049307      1.184588
     13.79435      1.36876      4.84581        -0.937139      0.558674      1.024239
      5.02033      6.18092      3.59863        -0.399666      1.087767     -0.167769
      6.46716      0.83420      2.16210         0.862685      0.301332     -0.391071
      7.93172      1.39171      4.11272        -1.104735      0.102569     -0.398274
     16.08224      6.18092      2.57045        -0.742568     -0.574259     -0.000147
     15.45391      5.95119      4.78846         0.798818     -0.390576      0.458331
      2.90272      1.36738      0.79058        -0.820725     -0.140738     -1.986709
      2.10894      1.39171      3.08454        -0.600542      0.997058      0.313235
      0.81488      1.18583      5.07430         0.431153      0.453384      0.361671
      9.63065      6.16746      2.69212         0.598531      0.077583     -0.714873
     10.84312      6.18092      4.62682        -0.287619      0.749700     -0.363842
     15.28643      0.17176      1.89721         1.206837      0.489408      0.062562
     15.99825      9.27595      4.20310         0.339917     -0.274728     -0.077331
      5.95814      6.22683      1.35514        -1.009969     -0.107769     -0.740583
      7.17375      4.91558      3.19116         1.504221     -0.157349      0.117757
      9.05613      4.27238      5.12434         0.019444      0.250264      1.017852
      8.92802      1.40308      1.54673        -0.272621     -0.373133     -1.738817
     10.08514      0.12638      3.70525         0.697003     -1.081883     -1.125269
      1.35096      4.91558      2.16298         0.045339     -1.158825      1.183140
      2.42147      4.95056      4.35107        -2.495401      0.620924      0.482988
      4.26235      0.12638      2.67707        -0.044248     -0.153026      0.147884
      4.62163      9.50578      5.05825        -0.335227     -0.405801      0.665126
     12.98959      4.07602      2.00140        -0.837354      1.025091      0.205991
     12.99653      4.91558      4.21934        -0.613093     -0.747880     -0.445202
     15.35125      2.75288      1.98538         0.671081     -0.786470      0.062143
     15.90984      2.75227      4.45700         0.178765      1.041272      0.127368
      7.51526      8.17459      0.94285         0.231218      0.483891     -1.072267
      7.17375      7.44626      3.19116         0.483382     -0.256034      0.461821
      7.60859      7.70153      5.60470         0.407893     -0.326045      0.771416
     10.52587      3.35021      1.47915        -0.273780      0.413286     -0.760048
     10.08514      2.65705      3.70525         0.681088     -0.262500     -0.724221
      1.35096      7.44626      2.16298         0.065961      1.658183      1.494424
      4.26235      2.65705      2.67707         0.090273     -0.154247      0.882498
      4.91480      3.91867      4.55096         0.306671     -1.207462      0.539014
     13.17551      8.18054      1.99990        -1.381103     -0.787586      0.446834
     12.99653      7.44626      4.21934         0.298904      0.125522     -1.287688
     15.71914      1.11359      5.73380        -0.334622     -0.395633      4.254156
     16.74052      1.39171      3.05601         1.422356     -0.040807     -1.563219
      8.00634      6.18092      1.51374         0.760317     -0.414755     -3.082518
      8.59001      6.18092      4.59828        -0.395811      1.944332      0.465605
     10.91773      1.39171      2.02783         1.443726     -0.839688     -1.711244
     11.64349      1.32116      4.55481         0.094026      0.323209      2.450834
      1.31607      6.19236      0.58984         0.189725     -0.201791     -4.451853
      2.93852      6.23394      2.82844         0.628177      0.898722     -0.126208
      4.07135      5.57429      5.38122        -0.407924      1.093401      2.870596
      4.88742      1.48833      1.03443         1.285326      0.694056     -3.046423
      5.67861      1.39171      4.08419         0.019966      0.940282      0.798659
     13.82913      6.18092      2.54192         0.562278     -0.482060     -1.123484
     13.68262      6.14370      5.70520         0.426492      0.446930      3.897362
     13.78176      2.79504      0.64507        -0.314182      0.841267     -3.620189
     13.99844      3.00295      3.57488        -1.085714      1.307557      1.037901
      5.62586      8.25599      1.82179        -1.675541     -0.291917     -1.037390
      5.74892      7.80961      4.77638        -0.875059      0.192194      1.412543
      8.17565      3.00295      2.54670        -0.353514      1.362839     -0.680653
      9.15661      2.28493      5.53795         0.074434     -1.204027      2.978437
      0.01433      7.37033      4.09078         0.704839      1.212428      2.046474
     16.29933      7.98643      1.51108        -0.007966      0.134509     -2.648170
      2.36602      3.08475      1.77868        -0.824402      0.773644     -1.453103
      2.93654      3.00295      4.60306        -0.073074     -1.616711      1.315874
     11.08705      7.79215      3.06079        -0.069478      0.562725     -1.359897
     11.56363      7.79100      5.65008        -0.150604      1.590906      3.195714
      5.28361      4.48115      2.38453        -0.255502     -0.759188     -2.088304
      6.92140      4.02675      5.08213        -0.245641     -0.564080      2.065927
     13.67655      9.56062      0.61976        -0.494508     -0.725943     -3.861671
     13.99844      9.35889      3.57488        -0.737468     -1.836844      0.474196
      0.02514      4.56969      4.08897         1.257749      0.389836      1.214971
     16.32448      4.47702      1.38159        -0.202099     -0.459629     -2.986979
      8.17565      9.35889      2.54670         1.575790     -2.000137     -0.209378
      8.72655      9.32769      5.23498         0.201061      0.254607      2.607630
     11.08705      4.56969      3.06079         0.212089     -0.002219     -1.968398
     11.12754      4.41759      5.62655         1.260198     -1.275598      2.962566
      2.38646      9.25685      1.82046        -0.925296     -1.331142     -1.002828
      2.62389      0.19301      4.71926        -0.168105     -1.660178      1.955694
    total drift:                                0.074693     -0.051486      0.027020

  FREE ENERGIE OF THE ION-ELECTRON SYSTEM (eV)
  free  energy   TOTEN  =      -347.39813048 eV

  energy  without entropy=     -346.27525792  energy(sigma->0) =     -346.83669420