 vasp.5.4.4.18Apr17-6-g9f103f2a35 (build Aug 13 2019 17:33:20) gamma-only

 executed on             LinuxIFC date 2020.05.12  04:38:17

 INCAR:
 POTCAR:    PAW_PBE Ni_pv 06Sep2000
 POTCAR:    PAW_PBE S 06Sep2000
 POTCAR:    PAW_PBE Ni_pv 06Sep2000
   VRHFIN =Ni:

   TITEL  = PAW_PBE Ni_pv 06Sep2000
   POMASS =   58.690; ZVAL   =   16.000    mass and valenz
   ENMAX  =  367.986; ENMIN  =  275.989 eV

 POTCAR:    PAW_PBE S 06Sep2000
   VRHFIN =S : s2p4

   TITEL  = PAW_PBE S 06Sep2000
   POMASS =   32.066; ZVAL   =    6.000    mass and valenz
   ENMAX  =  258.689; ENMIN  =  194.016 eV

 Optimization of the real space projectors (new method)

 maximal supplied QI-value         = 18.90
 optimisation between [QCUT,QGAM] = [ 10.77, 21.73] = [ 32.49,132.25] Ry
 Optimized for a Real-space Cutoff    1.38 Angstroem

   l    n(q)    QCUT    max X(q) W(low)/X(q) W(high)/X(q)  e(spline)
   1      8    10.771     2.836    0.40E-04    0.29E-04    0.12E-06
   1      8    10.771     4.023    0.10E-03    0.48E-04    0.29E-06
   2      8    10.771    73.368    0.42E-03    0.97E-04    0.44E-06
   2      8    10.771    69.010    0.42E-03    0.99E-04    0.45E-06
   0      9    10.771    54.797    0.10E-03    0.56E-04    0.74E-07
   0      9    10.771    24.266    0.89E-04    0.49E-04    0.67E-07
 Optimization of the real space projectors (new method)

 maximal supplied QI-value         = 19.84
 optimisation between [QCUT,QGAM] = [ 10.71, 21.63] = [ 32.15,130.99] Ry
 Optimized for a Real-space Cutoff    1.19 Angstroem

   l    n(q)    QCUT    max X(q) W(low)/X(q) W(high)/X(q)  e(spline)
   0      8    10.715   187.594    0.41E-03    0.53E-04    0.66E-07
   0      8    10.715   164.243    0.41E-03    0.53E-04    0.65E-07
   1      7    10.715    67.533    0.19E-03    0.59E-03    0.68E-07
   1      7    10.715    50.729    0.19E-03    0.58E-03    0.67E-07
  PAW_PBE Ni_pv 06Sep2000               :
  PAW_PBE S 06Sep2000                   :

 POSCAR: Type_037 Type_137
  positions in cartesian coordinates
 exchange correlation table for  LEXCH =        8
   RHO(1)=    0.500       N(1)  =     2000
   RHO(2)=  100.500       N(2)  =     4000

 ion  position               nearest neighbor table
   1  0.780  0.145  0.123-  65 2.07  51 2.07  42 2.25  52 2.33  66 2.33  23 2.39  36 2.39
   2  0.226  0.645  0.097-  44 2.01  63 2.21  53 2.21  45 2.22   3 2.32
   3  0.297  0.645  0.216-  64 2.12  54 2.12  45 2.25  53 2.26  63 2.26   2 2.32  28 2.53  15 2.53

   4  0.427  0.145  0.100-  69 2.07  55 2.07  47 2.09
   5  0.470  0.145  0.247-  56 2.09  70 2.09  48 2.25  55 2.26  69 2.26  31 2.53  18 2.53
   6  0.952  0.645  0.154-  68 2.09  58 2.09  67 2.16  57 2.16  49 2.25  25 2.39  12 2.39  32 2.53
                            19 2.53
   7  0.187  0.145  0.050-  47 2.05  59 2.06  73 2.06   8 2.49  21 2.50  34 2.50
   8  0.125  0.145  0.185-  73 2.14  59 2.14  39 2.25   9 2.32  60 2.36  74 2.36   7 2.49  34 2.53
                            21 2.53
   9  0.103  0.145  0.323-  38 2.02  74 2.15  60 2.15   8 2.32
  10  0.570  0.645  0.162-  40 2.01  41 2.16  61 2.20  71 2.20  11 2.28
  11  0.642  0.645  0.278-  72 2.03  62 2.03  41 2.25  61 2.26  71 2.26  10 2.28  37 2.53  24 2.53

  12  0.887  0.866  0.145-  58 2.09  65 2.10  66 2.10  57 2.21   6 2.39  49 2.41  36 2.43
  13  0.936  0.014  0.262-  39 2.04  38 2.06  57 2.12  66 2.18  26 2.52
  14  0.395  0.517  0.040-  63 1.99  40 2.01  27 2.46
  15  0.425  0.513  0.192-  64 2.15  55 2.25  40 2.26  63 2.26  41 2.36  16 2.45   3 2.53  28 2.53

[...]

  38  0.986  0.145  0.346-   9 2.02  13 2.06  26 2.06  39 2.71
  39  0.991  0.145  0.183-  13 2.04  26 2.04   8 2.25  38 2.71
  40  0.474  0.645  0.091-  10 2.01  14 2.01  27 2.01  15 2.26  28 2.26
  41  0.509  0.645  0.276-  16 2.07  29 2.07  10 2.16  11 2.25  28 2.36  15 2.36
  42  0.647  0.145  0.122-  30 2.03  17 2.03   1 2.25  18 2.26  31 2.26
  43  0.664  0.145  0.289-  18 2.03  31 2.03
  44  0.121  0.645  0.040-   2 2.01  32 2.08  19 2.08
  45  0.164  0.645  0.214-  33 2.10  20 2.10   2 2.22   3 2.25  32 2.36  19 2.36
  46  0.082  0.645  0.360-  20 2.00  33 2.00
  47  0.306  0.145  0.074-   7 2.05   4 2.09  34 2.12  21 2.12
  48  0.336  0.145  0.245-  35 2.03  22 2.03   5 2.25  34 2.36  21 2.36
  49  0.819  0.645  0.153-   6 2.25  24 2.26  37 2.26  25 2.41  12 2.41
  50  0.836  0.645  0.321-  24 2.03  37 2.03
  51  0.834  0.300  0.057-  23 2.03   1 2.07  25 2.10  52 2.78
  52  0.815  0.307  0.222-  25 2.10  23 2.15  24 2.18  26 2.18   1 2.33  51 2.78
  53  0.312  0.814  0.122-  27 1.99   2 2.21  21 2.25   3 2.26  28 2.26
  54  0.348  0.797  0.294-  29 2.04  22 2.05   3 2.12  28 2.15
  55  0.484  0.314  0.153-  30 2.01   4 2.07  15 2.25   5 2.26  31 2.26
  56  0.523  0.291  0.322-  16 2.01   5 2.09  31 2.09
  57  0.989  0.824  0.225-  33 2.11  13 2.12   6 2.16  12 2.21  32 2.25  58 2.67
  58  0.974  0.796  0.066-  12 2.09  32 2.09   6 2.09  57 2.67
  59  0.140  0.318  0.106-   7 2.06   8 2.14  34 2.14  19 2.17
  60  0.174  0.314  0.276-  35 2.04  20 2.13   9 2.15   8 2.36  34 2.36
  61  0.657  0.814  0.184-  36 2.01  10 2.20  18 2.25  37 2.26  11 2.26  62 2.79
  62  0.693  0.795  0.347-  11 2.03  37 2.03  61 2.79
  63  0.312  0.477  0.122-  14 1.99   2 2.21  34 2.25   3 2.26  15 2.26
  64  0.348  0.493  0.294-  16 2.04  35 2.05   3 2.12  15 2.15
  65  0.834  0.990  0.057-  36 2.03   1 2.07  12 2.10  66 2.78
  66  0.815  0.983  0.222-  12 2.10  36 2.15  37 2.18  13 2.18   1 2.33  65 2.78
  67  0.989  0.467  0.225-  20 2.11  26 2.12   6 2.16  25 2.21  19 2.25  68 2.67
  68  0.974  0.495  0.066-  25 2.09  19 2.09   6 2.09  67 2.67
  69  0.484  0.977  0.153-  17 2.01   4 2.07  28 2.25   5 2.26  18 2.26
  70  0.523  0.999  0.322-  29 2.01   5 2.09  18 2.09
  71  0.657  0.477  0.184-  23 2.01  10 2.20  31 2.25  24 2.26  11 2.26  72 2.79
  72  0.693  0.496  0.347-  11 2.03  24 2.03  71 2.79
  73  0.140  0.972  0.106-   7 2.06   8 2.14  21 2.14  32 2.17
  74  0.174  0.977  0.276-  22 2.04  33 2.13   9 2.15   8 2.36  21 2.36

  LATTYP: Found a simple orthorhombic cell.
 ALAT       =     9.5784100000
 B/A-ratio  =     1.7387693453
 C/A-ratio  =     1.7627867312

  Lattice vectors:

 A1 = (   0.0000000000,   9.5784100000,   0.0000000000)
 A2 = (   0.0000000000,   0.0000000000, -16.6546456851)
 A3 = ( -16.8846940542,   0.0000000000,   0.0000000000)

Analysis of symmetry for initial positions (statically):
 Subroutine PRICEL returns:
 Original cell was already a primitive cell.

 Routine SETGRP: Setting up the symmetry group for a
 simple orthorhombic supercell.

 Subroutine GETGRP returns: Found  2 space group operations
 (whereof  1 operations were pure point group operations)
 out of a pool of  8 trial point group operations.

The static configuration has the point symmetry C_1 .
 The point group associated with its full space group is C_1h.

Analysis of symmetry for dynamics (positions and initial velocities):
 Subroutine PRICEL returns:
 Original cell was already a primitive cell.

 Routine SETGRP: Setting up the symmetry group for a
 simple orthorhombic supercell.

 Subroutine GETGRP returns: Found  2 space group operations
 (whereof  1 operations were pure point group operations)
 out of a pool of  8 trial point group operations.

The dynamic configuration has the point symmetry C_1 .
 The point group associated with its full space group is C_1h.

 Subroutine INISYM returns: Found  2 space group operations
 (whereof  1 operations are pure point group operations),
 and found     1 'primitive' translations

 KPOINTS: gamma-point-only calculation. no periodi

Automatic generation of k-mesh.
Space group operators:
 irot       det(A)        alpha          n_x          n_y          n_z        tau_x        tau_y        tau_z
    1     1.000000     0.000000     1.000000     0.000000     0.000000     0.000000     0.000000     0.000000
    2    -1.000000   180.000000     0.000000     1.000000     0.000000     0.000000     0.290594     0.000000

 Subroutine IBZKPT returns following result:

 Found      1 irreducible k-points:

 Following reciprocal coordinates:
            Coordinates               Weight
  0.000000  0.000000  0.000000      1.000000

 Following cartesian coordinates:
            Coordinates               Weight
  0.000000  0.000000  0.000000      1.000000

 SYSTEM =  "Millerite NiS"
 POSCAR =  Type_037 Type_137

 Startparameter for this run:
   NWRITE =      2    write-flag & timer
   PREC   = normal    normal or accurate (medium, high low for compatibility)
   ISTART =      0    job   : 0-new  1-cont  2-samecut
   ICHARG =      2    charge: 1-file 2-atom 10-const
   ISPIN  =      1    spin polarized calculation?
   LNONCOLLINEAR =      F non collinear calculations
   LSORBIT =      F    spin-orbit coupling
   INIWAV =      1    electr: 0-lowe 1-rand  2-diag
   LASPH  =      F    aspherical Exc in radial PAW
   METAGGA=      F    non-selfconsistent MetaGGA calc.

 Electronic Relaxation 1
   ENCUT  =  450.0 eV  33.07 Ry    5.75 a.u.  29.20 16.57 28.81*2*pi/ulx,y,z
   ENINI  =  450.0     initial cutoff
   ENAUG  =  703.4 eV  augmentation charge cutoff
   NELM   =    100;   NELMIN=  2; NELMDL= -5     # of ELM steps
   EDIFF  = 0.1E-03   stopping-criterion for ELM
   LREAL  =      T    real-space projection
   NLSPLINE    = F    spline interpolate recip. space projectors
   LCOMPAT=      F    compatible to vasp.4.4
   GGA_COMPAT  = T    GGA compatible to vasp.4.4-vasp.4.6
   LMAXPAW     = -100 max onsite density
   LMAXMIX     =    2 max onsite mixed and CHGCAR
   VOSKOWN=      0    Vosko Wilk Nusair interpolation
   ROPT   =   -0.00050  -0.00050
 Ionic relaxation
   EDIFFG = 0.1E-02   stopping-criterion for IOM
   NSW    =      0    number of steps for IOM
   NBLOCK =      1;   KBLOCK =      1    inner block; outer block
   IBRION =     -1    ionic relax: 0-MD 1-quasi-New 2-CG
   NFREE  =      0    steps in history (QN), initial steepest desc. (CG)
   ISIF   =      2    stress and relaxation
   IWAVPR =     10    prediction:  0-non 1-charg 2-wave 3-comb
   ISYM   =      2    0-nonsym 1-usesym 2-fastsym
   LCORR  =      T    Harris-Foulkes like correction to forces

   POTIM  = 0.5000    time-step for ionic-motion
   TEIN   =    0.0    initial temperature
   TEBEG  =    0.0;   TEEND  =   0.0 temperature during run
   SMASS  =  -3.00    Nose mass-parameter (am)
   estimated Nose-frequenzy (Omega)   =  0.10E-29 period in steps =****** mass=  -0.652E-26a.u.
   SCALEE = 1.0000    scale energy and forces
   NPACO  =    256;   APACO  = 16.0  distance and # of slots for P.C.
   PSTRESS=    0.0 pullay stress

  Mass of Ions in am
   POMASS =  58.69 32.07
  Ionic Valenz
   ZVAL   =  16.00  6.00
  Atomic Wigner-Seitz radii
  virtual crystal weights
   VCA    =   1.00  1.00
   NELECT =     814.0000    total number of electrons
   NUPDOWN=      -1.0000    fix difference up-down

 DOS related values:
   EMIN   =  10.00;   EMAX   =-10.00  energy-range for DOS
   EFERMI =   0.00
   ISMEAR =     0;   SIGMA  =   0.20  broadening in eV -4-tet -1-fermi 0-gaus

 Electronic relaxation 2 (details)
   IALGO  =     38    algorithm
   LDIAG  =      T    sub-space diagonalisation (order eigenvalues)
[...]
     0.000000000  9.578410000  0.000000000     0.000000000  0.104401461  0.000000000
     0.000000000  0.000000000 16.654645685     0.000000000  0.000000000  0.060043307

  length of vectors
    16.884694054  9.578410000 16.654645685     0.059225237  0.104401461  0.060043307

 FORCES acting on ions
    electron-ion (+dipol)            ewald-force                    non-local-force                 convergence-correction
   -.302E+03 -.775E-03 0.172E+04   0.301E+03 -.144E-05 -.172E+04   0.324E+00 0.000E+00 0.344E+01   0.518E-01 -.129E-05 -.144E+00
   0.286E+03 -.678E-03 0.284E+04   -.286E+03 0.376E-05 -.284E+04   0.121E+01 0.000E+00 0.621E+01   0.539E-01 0.322E-06 -.874E-01
   0.600E+03 -.873E-03 -.124E+04   -.601E+03 -.380E-05 0.124E+04   0.126E+01 0.000E+00 -.316E+01   -.235E+00 0.408E-06 -.939E-01
   0.297E+03 -.105E-02 0.274E+04   -.299E+03 0.386E-04 -.274E+04   0.230E+01 0.000E+00 0.307E+01   -.297E+00 0.439E-06 -.268E+00
   0.233E+03 -.814E-03 -.188E+04   -.237E+03 0.779E-05 0.188E+04   0.333E+01 0.000E+00 -.466E+01   -.265E+00 0.124E-05 -.255E+00
   0.430E+03 -.799E-03 0.821E+03   -.433E+03 -.112E-06 -.818E+03   0.222E+01 0.000E+00 -.207E+01   -.259E-01 0.184E-05 -.411E-01
   0.615E+03 -.862E-03 0.414E+04   -.617E+03 0.205E-05 -.414E+04   0.185E+01 0.000E+00 0.413E+01   0.696E-02 0.405E-06 0.130E+00
   0.101E+04 -.770E-03 0.339E+03   -.102E+04 0.675E-06 -.338E+03   0.498E+01 0.000E+00 -.684E+00   0.195E+00 -.307E-06 -.570E-01
   0.347E+03 -.836E-03 -.355E+04   -.349E+03 0.369E-06 0.355E+04   0.382E+01 0.000E+00 0.385E+00   0.108E+00 -.416E-06 -.160E+00
   -.660E+03 -.891E-03 0.157E+04   0.663E+03 -.108E-04 -.157E+04   -.292E+01 0.000E+00 0.464E+01   0.347E-01 0.194E-05 -.283E+00
   -.835E+02 -.916E-03 -.245E+04   0.805E+02 -.154E-05 0.246E+04   0.200E+01 0.000E+00 -.718E+01   0.122E+00 0.216E-05 -.954E-01
   -.122E+03 -.232E+03 0.150E+04   0.123E+03 0.234E+03 -.151E+04   -.293E+00 -.228E+01 0.494E+01   -.183E-01 0.122E+00 -.106E+00
   0.352E+03 0.138E+03 -.212E+04   -.352E+03 -.139E+03 0.213E+04   -.779E+00 -.202E+00 -.261E+01   0.286E+00 0.835E-01 0.286E-01
   -.127E+03 0.542E+03 0.396E+04   0.124E+03 -.538E+03 -.396E+04   0.283E+01 -.394E+01 -.223E+01   -.121E+00 -.815E-01 -.230E+00
   -.240E+03 0.480E+03 0.635E+02   0.240E+03 -.483E+03 -.639E+02   0.184E+00 0.356E+01 -.216E+00   -.231E+00 -.713E-01 -.281E+00
   -.229E+03 0.155E+03 -.378E+04   0.231E+03 -.158E+03 0.378E+04   -.209E+01 0.414E+01 0.231E+01   -.173E+00 -.244E-01 0.118E+00
   -.485E+03 0.663E+03 0.357E+04   0.483E+03 -.658E+03 -.357E+04   0.232E+01 -.562E+01 -.678E+00   -.914E-01 0.438E-01 -.276E+00
   -.730E+03 0.394E+03 -.113E+04   0.733E+03 -.400E+03 0.113E+04   -.256E+01 0.468E+01 -.373E+01   0.730E-01 0.550E-02 -.221E+00
   0.197E+03 0.606E+03 0.187E+04   -.196E+03 -.609E+03 -.188E+04   -.541E+00 0.351E+01 0.286E+01   0.195E+00 -.304E+00 -.726E-01
   0.269E+03 0.187E+03 -.269E+04   -.267E+03 -.189E+03 0.269E+04   -.166E+01 0.133E+01 -.599E+01   0.106E+00 -.259E+00 0.684E-01
   -.574E+02 0.536E+03 0.886E+03   0.592E+02 -.540E+03 -.886E+03   -.856E+00 0.320E+01 0.132E+01   -.372E+00 0.356E+00 -.295E+00
   0.798E+02 0.149E+03 -.338E+04   -.791E+02 -.152E+03 0.338E+04   -.672E-01 0.209E+01 0.202E+01   -.377E+00 0.147E+00 -.621E-01
   0.229E+03 -.318E+03 0.232E+04   -.231E+03 0.319E+03 -.232E+04   0.158E+01 -.471E+00 0.588E+01   0.737E-01 0.220E-01 -.154E+00
   -.406E+03 0.388E+03 -.189E+04   0.409E+03 -.391E+03 0.190E+04   -.232E+01 0.287E+01 -.492E+01   0.173E+00 -.204E-01 -.941E-01
   -.122E+03 0.232E+03 0.150E+04   0.123E+03 -.234E+03 -.151E+04   -.293E+00 0.228E+01 0.494E+01   -.183E-01 -.122E+00 -.106E+00
   0.352E+03 -.138E+03 -.212E+04   -.352E+03 0.139E+03 0.213E+04   -.779E+00 0.202E+00 -.261E+01   0.286E+00 -.835E-01 0.286E-01
   -.127E+03 -.542E+03 0.396E+04   0.124E+03 0.538E+03 -.396E+04   0.283E+01 0.394E+01 -.223E+01   -.121E+00 0.815E-01 -.230E+00
   -.240E+03 -.480E+03 0.635E+02   0.240E+03 0.483E+03 -.639E+02   0.184E+00 -.356E+01 -.216E+00   -.231E+00 0.713E-01 -.281E+00
   -.229E+03 -.155E+03 -.378E+04   0.231E+03 0.158E+03 0.378E+04   -.209E+01 -.414E+01 0.231E+01   -.173E+00 0.244E-01 0.118E+00
   -.485E+03 -.663E+03 0.357E+04   0.483E+03 0.658E+03 -.357E+04   0.232E+01 0.562E+01 -.678E+00   -.914E-01 -.438E-01 -.276E+00
   -.730E+03 -.394E+03 -.113E+04   0.733E+03 0.400E+03 0.113E+04   -.256E+01 -.468E+01 -.373E+01   0.730E-01 -.550E-02 -.221E+00
   0.197E+03 -.606E+03 0.187E+04   -.196E+03 0.609E+03 -.188E+04   -.541E+00 -.351E+01 0.286E+01   0.195E+00 0.304E+00 -.726E-01
   0.269E+03 -.187E+03 -.269E+04   -.267E+03 0.189E+03 0.269E+04   -.166E+01 -.133E+01 -.599E+01   0.106E+00 0.259E+00 0.684E-01
   -.574E+02 -.536E+03 0.886E+03   0.592E+02 0.540E+03 -.886E+03   -.856E+00 -.320E+01 0.132E+01   -.372E+00 -.356E+00 -.295E+00
   0.798E+02 -.149E+03 -.338E+04   -.791E+02 0.152E+03 0.338E+04   -.672E-01 -.209E+01 0.202E+01   -.377E+00 -.147E+00 -.621E-01
   0.229E+03 0.318E+03 0.232E+04   -.231E+03 -.319E+03 -.232E+04   0.158E+01 0.471E+00 0.588E+01   0.737E-01 -.220E-01 -.154E+00
   -.406E+03 -.388E+03 -.189E+04   0.409E+03 0.391E+03 0.190E+04   -.232E+01 -.287E+01 -.492E+01   0.173E+00 0.204E-01 -.941E-01
   0.223E+03 0.368E-05 -.156E+04   -.224E+03 0.201E-06 0.156E+04   -.590E+00 0.000E+00 -.204E+01   0.214E+00 -.360E-06 0.248E-01
   0.760E+02 0.154E-04 0.484E+03   -.782E+02 0.195E-06 -.492E+03   0.398E+01 0.000E+00 0.531E+01   0.198E+00 -.523E-06 -.145E-01
   -.444E+03 0.316E-04 0.117E+04   0.448E+03 -.274E-04 -.117E+04   -.164E+01 0.000E+00 0.188E+01   -.131E-01 0.211E-06 -.118E+00
   -.208E+03 -.502E-04 -.933E+03   0.208E+03 -.200E-05 0.938E+03   0.750E+00 0.000E+00 -.359E+01   0.978E-02 0.133E-06 -.453E-01
   -.378E+03 0.104E-04 0.732E+03   0.379E+03 -.256E-05 -.735E+03   0.118E+01 0.000E+00 0.119E+01   0.119E-01 -.551E-06 -.102E+00
   -.474E+03 0.167E-04 -.126E+04   0.478E+03 0.189E-06 0.127E+04   -.966E+00 0.000E+00 -.138E+01   0.728E-01 -.483E-06 0.164E-01
   0.134E+03 -.808E-05 0.169E+04   -.134E+03 0.108E-05 -.170E+04   -.144E+00 0.000E+00 0.230E+01   0.499E-01 0.244E-07 -.106E+00
   -.520E+02 -.494E-05 -.389E+03   0.542E+02 0.382E-06 0.391E+03   -.870E+00 0.000E+00 -.180E+01   0.492E-01 0.285E-06 0.170E-01
   0.186E+03 0.248E-04 -.163E+04   -.186E+03 -.775E-07 0.163E+04   0.272E+00 0.000E+00 -.889E+00   0.237E-01 0.238E-06 0.621E-01
   -.159E+03 -.155E-04 0.137E+04   0.162E+03 0.699E-05 -.138E+04   -.463E+00 0.000E+00 0.157E+01   -.196E+00 0.191E-06 -.523E-01
   -.146E+03 0.143E-04 -.542E+03   0.147E+03 0.241E-05 0.544E+03   -.140E+00 0.000E+00 -.155E+01   -.151E+00 0.257E-06 -.991E-01
   0.107E+03 0.399E-04 0.673E+03   -.110E+03 0.399E-07 -.678E+03   0.273E+01 0.000E+00 0.347E+01   -.277E-01 0.530E-06 -.443E-01
   -.366E+03 0.137E-05 -.143E+04   0.371E+03 -.148E-07 0.144E+04   -.189E+01 0.000E+00 -.112E+01   0.514E-01 0.501E-06 0.305E-01
   -.224E+03 0.584E+02 0.155E+04   0.225E+03 -.586E+02 -.155E+04   -.122E+00 0.656E-01 0.336E+01   0.943E-02 0.203E-01 -.584E-01
   0.426E+02 0.261E+03 -.650E+03   -.440E+02 -.264E+03 0.656E+03   0.497E+00 0.186E+01 -.350E+01   0.231E-01 0.166E-01 -.392E-01
   0.179E+03 -.221E+03 0.735E+03   -.181E+03 0.223E+03 -.739E+03   -.541E+00 -.120E+01 0.307E+01   -.871E-01 0.759E-01 -.508E-01
   0.225E+03 0.352E+02 -.119E+04   -.226E+03 -.343E+02 0.120E+04   0.321E+00 -.474E+00 -.221E+01   -.162E+00 0.122E-01 -.151E-01
   0.179E+02 -.209E+03 0.399E+03   -.193E+02 0.211E+03 -.400E+03   0.268E+00 -.129E+00 0.162E+01   -.763E-01 -.586E-01 -.134E+00
   -.208E+03 0.534E+02 -.147E+04   0.208E+03 -.525E+02 0.147E+04   0.171E+00 -.732E+00 -.255E+01   -.524E-02 -.437E-01 0.426E-01
   0.133E+03 -.542E+02 -.559E+03   -.133E+03 0.530E+02 0.564E+03   -.172E+00 0.123E+01 -.295E+01   0.524E-01 0.835E-01 0.355E-01
   0.101E+03 -.202E+03 0.153E+04   -.101E+03 0.204E+03 -.154E+04   0.426E+00 -.110E+01 0.365E+01   0.981E-02 0.782E-01 -.977E-01
   0.334E+03 -.163E+03 0.103E+04   -.335E+03 0.164E+03 -.103E+04   0.322E+00 0.456E+00 0.137E+01   0.974E-01 -.266E+00 -.401E-01
   0.136E+03 -.156E+03 -.924E+03   -.137E+03 0.157E+03 0.926E+03   -.150E+00 -.156E+01 -.131E+01   -.991E-01 -.179E+00 -.302E-01
   -.257E+02 -.703E-01 0.250E+03   0.233E+02 0.247E+01 -.252E+03   -.271E+00 -.236E+01 0.141E+01   0.693E-01 0.161E-01 -.100E+00
   -.867E+02 -.288E+03 -.158E+04   0.854E+02 0.292E+03 0.158E+04   0.953E+00 -.208E+01 -.115E+01   0.694E-01 0.213E-01 0.519E-01
   0.179E+03 0.221E+03 0.735E+03   -.181E+03 -.223E+03 -.739E+03   -.541E+00 0.120E+01 0.307E+01   -.871E-01 -.759E-01 -.508E-01
   0.225E+03 -.352E+02 -.119E+04   -.226E+03 0.343E+02 0.120E+04   0.321E+00 0.474E+00 -.221E+01   -.162E+00 -.122E-01 -.151E-01
   -.224E+03 -.584E+02 0.155E+04   0.225E+03 0.586E+02 -.155E+04   -.122E+00 -.656E-01 0.336E+01   0.943E-02 -.203E-01 -.584E-01
   0.426E+02 -.261E+03 -.650E+03   -.440E+02 0.264E+03 0.656E+03   0.497E+00 -.186E+01 -.350E+01   0.231E-01 -.166E-01 -.392E-01
   0.133E+03 0.542E+02 -.559E+03   -.133E+03 -.530E+02 0.564E+03   -.172E+00 -.123E+01 -.295E+01   0.524E-01 -.835E-01 0.355E-01
   0.101E+03 0.202E+03 0.153E+04   -.101E+03 -.204E+03 -.154E+04   0.426E+00 0.110E+01 0.365E+01   0.981E-02 -.782E-01 -.977E-01
   0.179E+02 0.209E+03 0.399E+03   -.193E+02 -.211E+03 -.400E+03   0.268E+00 0.129E+00 0.162E+01   -.763E-01 0.586E-01 -.134E+00
   -.208E+03 -.534E+02 -.147E+04   0.208E+03 0.525E+02 0.147E+04   0.171E+00 0.732E+00 -.255E+01   -.524E-02 0.437E-01 0.426E-01
   -.257E+02 0.703E-01 0.250E+03   0.233E+02 -.247E+01 -.252E+03   -.271E+00 0.236E+01 0.141E+01   0.693E-01 -.161E-01 -.100E+00
   -.867E+02 0.288E+03 -.158E+04   0.854E+02 -.292E+03 0.158E+04   0.953E+00 0.208E+01 -.115E+01   0.694E-01 -.213E-01 0.519E-01
   0.334E+03 0.163E+03 0.103E+04   -.335E+03 -.164E+03 -.103E+04   0.322E+00 -.456E+00 0.137E+01   0.974E-01 0.266E+00 -.401E-01
   0.136E+03 0.156E+03 -.924E+03   -.137E+03 -.157E+03 0.926E+03   -.150E+00 0.156E+01 -.131E+01   -.991E-01 0.179E+00 -.302E-01
   -.163E+02 -.130E-01 -.147E+01   0.114E-11 -.625E-12 0.261E-11   0.175E+02 -.555E-14 0.702E+01   -.111E+01 0.292E-05 -.581E+01

 POSITION                                       TOTAL-FORCE (eV/Angst)
     13.17084      1.39171      2.05636        -0.134285      0.000000      1.162215
      3.81431      6.18092      1.61157         0.917712      0.000000     -0.192551
      5.02033      6.18092      3.59863         0.161866      0.000000      0.085907
      7.21015      1.39171      1.67347         0.068022      0.000000     -1.425704
      7.93172      1.39171      4.11272        -0.963641      0.000000     -1.537999
     16.08224      6.18092      2.57045        -0.306973      0.000000      0.713604
      3.15477      1.39171      0.82711        -0.381995      0.000000     -2.093883
      2.10894      1.39171      3.08454        -1.120166      0.000000      0.327310
      1.74028      1.39171      5.37843         1.363904      0.000000      0.946409
      9.62620      6.18092      2.70089         0.451058      0.000000     -0.723541
     10.84312      6.18092      4.62682        -0.825550      0.000000     -0.854171
     14.97756      8.29415      2.41667         0.243958     -0.191136     -0.091947
     15.81161      0.13094      4.36151        -0.578326     -0.889505     -0.187292
      6.66132      4.95040      0.66031         0.249340     -0.552799     -1.131625
      7.17375      4.91558      3.19116         0.192806     -0.216077     -0.922383
      7.80247      4.50561      5.52283        -0.014672      0.577321      0.878004
      9.55293      0.17553      1.13959         0.194362     -0.350889     -1.100456
     10.08514      0.12638      3.70525        -0.152770     -0.804530     -1.629882
      1.35096      4.91558      2.16298         0.476695     -0.577232      0.911265
      1.69542      4.73539      4.64800         0.321611     -1.234030      0.259754
      4.26235      0.12638      2.67707         0.529362     -0.977635      1.174993
      4.90550      9.42537      5.14400         0.232149     -0.266590      1.071224
     12.60561      3.71369      2.05243        -0.661340      0.766343     -0.496981
     12.99653      4.91558      4.21934         0.574259     -0.026307     -1.806067
     14.97756      4.06769      2.41667         0.243958      0.191136     -0.091947
     15.81161      2.65249      4.36151        -0.578326      0.889505     -0.187292
      6.66132      7.41144      0.66031         0.249340      0.552799     -1.131625
      7.17375      7.44626      3.19116         0.192806      0.216077     -0.922383
      7.80247      7.85622      5.52283        -0.014672     -0.577321      0.878004
      9.55293      2.60790      1.13959         0.194362      0.350889     -1.100456
     10.08514      2.65705      3.70525        -0.152770      0.804530     -1.629882
      1.35096      7.44626      2.16298         0.476695      0.577232      0.911265
      1.69542      7.62645      4.64800         0.321611      1.234030      0.259754
      4.26235      2.65705      2.67707         0.529362      0.977635      1.174993
      4.90550      2.93647      5.14400         0.232149      0.266590      1.071224
     12.60561      8.64815      2.05243        -0.661340     -0.766343     -0.496981
     12.99653      7.44626      4.21934         0.574259      0.026307     -1.806067
     16.64343      1.39171      5.76373        -0.779776      0.000000      3.169964
     16.74052      1.39171      3.05601         1.987758      0.000000     -2.589366
      8.00634      6.18092      1.51374         1.512662      0.000000     -1.766296
      8.59001      6.18092      4.59828         0.937860      0.000000      1.228541
     10.91773      1.39171      2.02783         2.019303      0.000000     -1.356955
     11.21979      1.39171      4.81955         2.755589      0.000000      3.166811
      2.03800      6.18092      0.66763         0.338330      0.000000     -3.867590
      2.76722      6.18092      3.57010         1.365628      0.000000     -0.239347
      1.38613      6.18092      5.99928        -0.527106      0.000000      3.208223
      5.16593      1.39171      1.23058         1.841004      0.000000     -2.320566
      5.67861      1.39171      4.08419         0.984769      0.000000      0.041288
     13.82913      6.18092      2.54192        -0.299359      0.000000     -1.288967
     14.10891      6.18092      5.35315         2.234411      0.000000      3.134804
     14.08103      2.87679      0.94207         0.878845     -0.184553     -3.556396
     13.75695      2.94223      3.70072        -0.830129     -1.520796      2.309293
      5.26426      7.79215      2.03261        -1.665753      1.104614     -0.170426
      5.87092      7.63605      4.89200        -1.043595      0.476790      1.823333
      8.17565      3.00295      2.54670        -1.255270      1.851522      0.341623
      8.83178      2.79037      5.37026         0.223231      0.133035      2.764865
     16.69811      7.89075      3.74031         0.325930      0.054639      2.032913
     16.44436      7.62077      1.09409        -0.294539      0.768739     -3.260219
      2.37019      3.04824      1.75972        -0.902949      0.592590     -1.364289
      2.93654      3.00295      4.60306        -0.976994     -0.211642      0.572235
     11.08705      7.79215      3.06079        -2.581994      0.046597     -0.456422
     11.70195      7.61195      5.77463        -0.284730      1.535844      3.570813
      5.26426      4.56969      2.03261        -1.665753     -1.104614     -0.170426
      5.87092      4.72578      4.89200        -1.043595     -0.476790      1.823333
     14.08103      9.48504      0.94207         0.878845      0.184553     -3.556396
     13.75695      9.41961      3.70072        -0.830129      1.520796      2.309293
     16.69811      4.47109      3.74031         0.325930     -0.054639      2.032913
     16.44436      4.74107      1.09409        -0.294539     -0.768739     -3.260219
      8.17565      9.35889      2.54670        -1.255270     -1.851522      0.341623
      8.83178      9.57147      5.37026         0.223231     -0.133035      2.764865
     11.08705      4.56969      3.06079        -2.581994     -0.046597     -0.456422
     11.70195      4.74989      5.77463        -0.284730     -1.535844      3.570813
      2.37019      9.31360      1.75972        -0.902949     -0.592590     -1.364289
      2.93654      9.35889      4.60306        -0.976994      0.211642      0.572235
    total drift:                                0.089215     -0.013010     -0.272215

  FREE ENERGIE OF THE ION-ELECTRON SYSTEM (eV)
  free  energy   TOTEN  =      -348.24965429 eV

  energy  without entropy=     -346.95446564  energy(sigma->0) =     -347.60205997