 vasp.5.4.4.18Apr17-6-g9f103f2a35 (build Aug 13 2019 17:33:20) gamma-only

 executed on             LinuxIFC date 2020.05.10  14:14:51

 INCAR:
 POTCAR:    PAW_PBE Ni_pv 06Sep2000
 POTCAR:    PAW_PBE S 06Sep2000
 POTCAR:    PAW_PBE Ni_pv 06Sep2000
   VRHFIN =Ni:

   TITEL  = PAW_PBE Ni_pv 06Sep2000
   POMASS =   58.690; ZVAL   =   16.000    mass and valenz
   ENMAX  =  367.986; ENMIN  =  275.989 eV

 POTCAR:    PAW_PBE S 06Sep2000
   VRHFIN =S : s2p4

   TITEL  = PAW_PBE S 06Sep2000
   POMASS =   32.066; ZVAL   =    6.000    mass and valenz
   ENMAX  =  258.689; ENMIN  =  194.016 eV

 Optimization of the real space projectors (new method)

 maximal supplied QI-value         = 18.90
 optimisation between [QCUT,QGAM] = [ 10.77, 21.73] = [ 32.49,132.25] Ry
 Optimized for a Real-space Cutoff    1.38 Angstroem

   l    n(q)    QCUT    max X(q) W(low)/X(q) W(high)/X(q)  e(spline)
   1      8    10.771     2.836    0.40E-04    0.29E-04    0.12E-06
   1      8    10.771     4.023    0.10E-03    0.48E-04    0.29E-06
   2      8    10.771    73.368    0.42E-03    0.97E-04    0.44E-06
   2      8    10.771    69.010    0.42E-03    0.99E-04    0.45E-06
   0      9    10.771    54.797    0.10E-03    0.56E-04    0.74E-07
   0      9    10.771    24.266    0.89E-04    0.49E-04    0.67E-07
 Optimization of the real space projectors (new method)

 maximal supplied QI-value         = 19.84
 optimisation between [QCUT,QGAM] = [ 10.71, 21.63] = [ 32.15,130.99] Ry
 Optimized for a Real-space Cutoff    1.19 Angstroem

   l    n(q)    QCUT    max X(q) W(low)/X(q) W(high)/X(q)  e(spline)
   0      8    10.715   187.594    0.41E-03    0.53E-04    0.66E-07
   0      8    10.715   164.243    0.41E-03    0.53E-04    0.65E-07
   1      7    10.715    67.533    0.19E-03    0.59E-03    0.68E-07
   1      7    10.715    50.729    0.19E-03    0.58E-03    0.67E-07
  PAW_PBE Ni_pv 06Sep2000               :
  PAW_PBE S 06Sep2000                   :

 POSCAR: Type_048 Type_148
  positions in cartesian coordinates
 exchange correlation table for  LEXCH =        8
   RHO(1)=    0.500       N(1)  =     2000
   RHO(2)=  100.500       N(2)  =     4000

 ion  position               nearest neighbor table
   1  0.261  0.479  0.253-  72 2.25  58 2.26  79 2.26  55 2.36  59 2.36   7 2.53  21 2.53
   2  0.355  0.385  0.388-  73 2.25  55 2.26  59 2.26  60 2.36  64 2.36   3 2.39   8 2.53  22 2.53

   3  0.375  0.364  0.498-  53 2.04  64 2.08  60 2.08   2 2.39
   4  0.178  0.054  0.132-  81 2.08  74 2.08  80 2.15  56 2.18  63 2.40  30 2.47
   5  0.043  0.053  0.467-  50 2.03  71 2.04  76 2.07  15 2.49
   6  0.282  0.334  0.100-  51 2.01  58 2.06  52 2.13  57 2.14  28 2.43  12 2.47
   7  0.368  0.239  0.218-  56 2.25  58 2.26  52 2.26  59 2.36  61 2.36   1 2.53  21 2.53
   8  0.462  0.145  0.353-  77 2.25  59 2.26  61 2.26  60 2.36  62 2.36   2 2.53  22 2.53
   9  0.000  0.372  0.218-  58 2.25  63 2.26  92 2.26  49 2.36  65 2.36  13 2.53  19 2.53
  10  0.094  0.278  0.353-  59 2.25  49 2.26  65 2.26  54 2.36  50 2.36  20 2.53  14 2.53
  11  0.187  0.197  0.467-  50 2.03  54 2.04  60 2.07  15 2.49
  12  0.406  0.465  0.083-  51 1.98  78 2.08  68 2.14  52 2.36  79 2.36   6 2.47  28 2.53
  13  0.761  0.479  0.253-  84 2.25  69 2.26  92 2.26  65 2.36  70 2.36  19 2.53   9 2.53
  14  0.855  0.385  0.388-  85 2.25  65 2.26  70 2.26  71 2.36  54 2.36  20 2.53  10 2.53
  15  0.954  0.286  0.505-  71 2.00  54 2.00  11 2.49   5 2.49
  16  0.667  0.073  0.118-  93 2.04  66 2.08  52 2.25  67 2.36  94 2.36  48 2.53  42 2.53
  17  0.549  0.055  0.473-  62 2.05  88 2.08  60 2.10  89 2.15
  18  0.781  0.321  0.102-  69 2.05  66 2.09  68 2.13  63 2.15
  19  0.868  0.239  0.218-  67 2.25  69 2.26  63 2.26  70 2.36  49 2.36  13 2.53   9 2.53
  20  0.962  0.145  0.353-  90 2.25  70 2.26  49 2.26  71 2.36  50 2.36  14 2.53  10 2.53
  21  0.500  0.372  0.218-  69 2.25  52 2.26  79 2.26  61 2.36  55 2.36   1 2.53   7 2.53
  22  0.594  0.278  0.353-  70 2.25  61 2.26  55 2.26  64 2.36  62 2.36   8 2.53   2 2.53
  23  0.685  0.190  0.473-  62 2.05  88 2.08  64 2.10  71 2.15
  24  0.919  0.459  0.102-  92 2.05  57 2.09  91 2.13  63 2.14
  25  0.261  0.979  0.253-  49 2.25  81 2.26  56 2.26  77 2.36  82 2.36  31 2.53  45 2.53
  26  0.355  0.885  0.388-  50 2.25  77 2.26  82 2.26  83 2.36  89 2.36  32 2.53  46 2.53
  27  0.454  0.786  0.505-  83 2.00  89 2.00  47 2.49  41 2.49
  28  0.167  0.573  0.118-  57 2.07  78 2.08  87 2.25  79 2.36  58 2.36   6 2.43  12 2.53
  29  0.049  0.555  0.473-  73 2.05  53 2.08  96 2.10  54 2.15
  30  0.274  0.833  0.083-  74 2.04  80 2.07  78 2.08  75 2.36  81 2.36   4 2.47
  31  0.368  0.739  0.218-  79 2.25  81 2.26  75 2.26  82 2.36  84 2.36  25 2.53  45 2.53
  32  0.462  0.645  0.353-  55 2.25  82 2.26  84 2.26  83 2.36  85 2.36  26 2.53  46 2.53
  33  0.000  0.872  0.218-  81 2.25  87 2.26  67 2.26  72 2.36  90 2.36  37 2.53  43 2.53
  34  0.094  0.778  0.353-  82 2.25  72 2.26  90 2.26  76 2.36  73 2.36  44 2.53  38 2.53
  35  0.185  0.690  0.473-  73 2.05  53 2.08  76 2.10  83 2.15
  36  0.488  0.942  0.114-  93 2.05  74 2.08  75 2.14  56 2.16  45 2.38  94 2.41
  37  0.761  0.979  0.253-  61 2.25  94 2.26  67 2.26  90 2.36  95 2.36  43 2.53  33 2.53
  38  0.855  0.885  0.388-  62 2.25  90 2.26  95 2.26  96 2.36  76 2.36  39 2.39  44 2.53  34 2.53

[...]

  46  0.594  0.778  0.353-  95 2.25  84 2.26  77 2.26  89 2.36  85 2.36  32 2.53  26 2.53
  47  0.687  0.697  0.467-  85 2.03  89 2.04  96 2.07  27 2.49
  48  0.906  0.965  0.083-  86 1.99  66 2.07  80 2.08  87 2.36  67 2.36  16 2.53  42 2.53
  49  0.073  0.167  0.270-  25 2.25  10 2.26  20 2.26   9 2.36  19 2.36
  50  0.167  0.073  0.405-   5 2.03  11 2.03  26 2.25  10 2.36  20 2.36
  51  0.341  0.380  0.020-  12 1.98   6 2.01  57 2.76
  52  0.479  0.261  0.135-   6 2.13  16 2.25   7 2.26  21 2.26  12 2.36
  53  0.211  0.528  0.527-   3 2.04  29 2.08  35 2.08  73 2.70
  54  0.030  0.378  0.451-  15 2.00  11 2.04  29 2.15  10 2.36  14 2.36
  55  0.436  0.472  0.315-  32 2.25   2 2.26  22 2.26   1 2.36  21 2.36
  56  0.342  0.066  0.180-  36 2.16   4 2.18   7 2.25  25 2.26  45 2.26  74 2.79
  57  0.088  0.469  0.068-  28 2.07  24 2.09   6 2.14  58 2.61  51 2.76
  58  0.174  0.397  0.180-   6 2.06   9 2.25   7 2.26   1 2.26  28 2.36  57 2.61
  59  0.268  0.303  0.315-  10 2.25   2 2.26   8 2.26   7 2.36   1 2.36
  60  0.362  0.209  0.451-  11 2.07   3 2.08  17 2.10   8 2.36   2 2.36
  61  0.573  0.167  0.270-  37 2.25  22 2.26   8 2.26  21 2.36   7 2.36
  62  0.667  0.073  0.405-  23 2.05  17 2.05  38 2.25  22 2.36   8 2.36  88 2.70
  63  0.979  0.261  0.135-  24 2.14  18 2.15  19 2.26   9 2.26   4 2.40
  64  0.530  0.378  0.451-  41 2.07   3 2.08  23 2.10  22 2.36   2 2.36
  65  0.936  0.472  0.315-  44 2.25  14 2.26  10 2.26  13 2.36   9 2.36
  66  0.763  0.158  0.065-  48 2.07  16 2.08  18 2.09  67 2.70
  67  0.842  0.066  0.180-  19 2.25  37 2.26  33 2.26  16 2.36  48 2.36  66 2.70
  68  0.595  0.464  0.067-  40 2.07  18 2.13  12 2.14  69 2.61
  69  0.674  0.397  0.180-  18 2.05  21 2.25  19 2.26  13 2.26  40 2.36  68 2.61
  70  0.768  0.303  0.315-  22 2.25  14 2.26  20 2.26  19 2.36  13 2.36
  71  0.862  0.209  0.451-  15 2.00   5 2.04  23 2.15  20 2.36  14 2.36
  72  0.073  0.667  0.270-   1 2.25  34 2.26  44 2.26  33 2.36  43 2.36
  73  0.167  0.573  0.405-  35 2.05  29 2.05   2 2.25  34 2.36  44 2.36  53 2.70
  74  0.319  0.986  0.062-  30 2.04  36 2.08   4 2.08  80 2.69  56 2.79
  75  0.479  0.761  0.135-  36 2.14  40 2.25  31 2.26  45 2.26  30 2.36
  76  0.030  0.878  0.451-   5 2.07  39 2.08  35 2.10  34 2.36  38 2.36
  77  0.436  0.972  0.315-   8 2.25  26 2.26  46 2.26  25 2.36  45 2.36
  78  0.262  0.658  0.065-  12 2.08  28 2.08  30 2.08  79 2.72
  79  0.342  0.566  0.180-  31 2.25   1 2.26  21 2.26  28 2.36  12 2.36  78 2.72
  80  0.083  0.980  0.068-  30 2.07  48 2.08   4 2.15  81 2.65  74 2.69
  81  0.174  0.897  0.180-   4 2.08  33 2.25  31 2.26  25 2.26  30 2.36  80 2.65
  82  0.268  0.803  0.315-  34 2.25  26 2.26  32 2.26  31 2.36  25 2.36
  83  0.362  0.709  0.451-  27 2.00  41 2.04  35 2.15  32 2.36  26 2.36
  84  0.573  0.667  0.270-  13 2.25  46 2.26  32 2.26  45 2.36  31 2.36
  85  0.667  0.573  0.405-  41 2.03  47 2.03  14 2.25  46 2.36  32 2.36
  86  0.866  0.874  0.013-  48 1.99  42 2.00
  87  0.979  0.761  0.135-  28 2.25  43 2.26  33 2.26  42 2.36  48 2.36
  88  0.711  0.028  0.527-  39 2.04  17 2.08  23 2.08  62 2.70
  89  0.530  0.878  0.451-  27 2.00  47 2.04  17 2.15  46 2.36  26 2.36
  90  0.936  0.972  0.315-  20 2.25  38 2.26  34 2.26  37 2.36  33 2.36
  91  0.776  0.644  0.067-  40 2.07  24 2.13  42 2.15  92 2.62
  92  0.842  0.566  0.180-  24 2.05  43 2.25  13 2.26   9 2.26  40 2.36  91 2.62
  93  0.600  0.987  0.053-  16 2.04  36 2.05  42 2.05
  94  0.674  0.897  0.180-  45 2.25  43 2.26  37 2.26  42 2.36  16 2.36  36 2.41
  95  0.768  0.803  0.315-  46 2.25  38 2.26  44 2.26  43 2.36  37 2.36
  96  0.862  0.709  0.451-  47 2.07  39 2.08  29 2.10  44 2.36  38 2.36

  LATTYP: Found a base centered orthorhombic cell.
 ALAT       =    11.8257374459
 B/A-ratio  =     1.6199260857
 C/A-ratio  =     1.8387210052

  Lattice vectors:

 A1 = (  11.2564630382,   0.0000000000,   0.0000000000)
 A2 = (  -5.0445621212, -10.0628203371,   0.0000000000)
 A3 = (   0.0000000000,   0.0000000000, -21.7442318436)

Analysis of symmetry for initial positions (statically):
 Subroutine PRICEL returns:
 Original cell was already a primitive cell.

 Routine SETGRP: Setting up the symmetry group for a
 base centered orthorhombic supercell.

 Subroutine GETGRP returns: Found  1 space group operations
 (whereof  1 operations were pure point group operations)
 out of a pool of  8 trial point group operations.

The static configuration has the point symmetry C_1 .

Analysis of symmetry for dynamics (positions and initial velocities):
 Subroutine PRICEL returns:
 Original cell was already a primitive cell.

 Routine SETGRP: Setting up the symmetry group for a
 base centered orthorhombic supercell.

 Subroutine GETGRP returns: Found  1 space group operations
 (whereof  1 operations were pure point group operations)
 out of a pool of  8 trial point group operations.

The dynamic configuration has the point symmetry C_1 .

 Subroutine INISYM returns: Found  1 space group operations
 (whereof  1 operations are pure point group operations),
 and found     1 'primitive' translations

 KPOINTS: gamma-point-only calculation. no periodi

Automatic generation of k-mesh.
Space group operators:
 irot       det(A)        alpha          n_x          n_y          n_z        tau_x        tau_y        tau_z
    1     1.000000     0.000000     1.000000     0.000000     0.000000     0.000000     0.000000     0.000000

 Subroutine IBZKPT returns following result:

 Found      1 irreducible k-points:

 Following reciprocal coordinates:
            Coordinates               Weight
  0.000000  0.000000  0.000000      1.000000

 Following cartesian coordinates:
            Coordinates               Weight
  0.000000  0.000000  0.000000      1.000000

 SYSTEM =  "Millerite NiS"
 POSCAR =  Type_048 Type_148

 Startparameter for this run:
   NWRITE =      2    write-flag & timer
[...]
     0.000000000  0.000000000 21.744231844     0.000000000  0.000000000  0.045989208

  length of vectors
    11.256463038 11.256463038 21.744231844     0.099375718  0.099375718  0.045989208

 FORCES acting on ions
    electron-ion (+dipol)            ewald-force                    non-local-force                 convergence-correction
   0.238E+03 -.422E+03 0.570E+03   -.239E+03 0.423E+03 -.570E+03   0.526E+00 -.991E+00 -.604E+00   -.387E-02 -.517E-03 -.200E-01
   0.228E+03 -.374E+03 -.241E+04   -.228E+03 0.375E+03 0.241E+04   0.647E+00 -.108E+01 0.253E+00   -.100E-01 0.539E-02 -.106E+00
   -.241E+02 0.381E+02 -.560E+04   0.212E+02 -.335E+02 0.560E+04   0.339E+01 -.542E+01 -.103E+00   -.900E-02 0.630E-02 -.223E-01
   0.130E+03 -.664E+03 0.392E+04   -.130E+03 0.671E+03 -.392E+04   -.834E+00 -.521E+01 0.991E+00   -.636E-02 0.129E-01 0.422E-01
   -.637E+02 0.509E+03 -.490E+04   0.631E+02 -.510E+03 0.490E+04   0.100E+01 0.866E+00 -.392E+00   -.931E-02 -.790E-02 -.669E-01
   0.468E+03 0.718E+03 0.474E+04   -.469E+03 -.722E+03 -.475E+04   0.404E+00 0.280E+01 0.406E+01   -.654E-02 -.635E-02 0.355E-01
   0.258E+03 0.451E+03 0.164E+04   -.258E+03 -.451E+03 -.164E+04   0.899E-02 0.710E+00 -.697E+00   -.134E-03 0.430E-02 0.338E-02
   0.273E+03 0.447E+03 -.147E+04   -.274E+03 -.447E+03 0.146E+04   0.965E+00 0.247E+00 0.198E+01   0.902E-02 0.510E-03 -.875E-01
   -.539E+03 0.477E+02 0.163E+04   0.540E+03 -.481E+02 -.163E+04   -.857E+00 0.321E+00 -.566E+00   -.201E-01 -.567E-02 0.919E-02
   -.474E+03 -.429E+02 -.142E+04   0.474E+03 0.435E+02 0.142E+04   -.826E+00 -.694E+00 0.239E+01   -.192E-01 0.127E-01 -.110E+00
   -.425E+03 0.284E+03 -.490E+04   0.426E+03 -.284E+03 0.490E+04   -.121E+01 -.550E+00 -.366E+00   0.151E-01 0.452E-02 -.636E-01
   -.582E+03 -.665E+02 0.496E+04   0.589E+03 0.666E+02 -.496E+04   -.426E+01 0.125E+00 0.428E+01   0.111E-01 -.569E-02 0.354E-01
   0.257E+03 -.405E+03 0.535E+03   -.258E+03 0.406E+03 -.534E+03   0.589E+00 -.949E+00 -.566E+00   0.148E-01 -.232E-01 -.297E-01
   0.292E+03 -.472E+03 -.272E+04   -.292E+03 0.473E+03 0.272E+04   0.570E+00 -.101E+01 0.151E+01   0.509E-02 -.817E-02 -.129E+00
   0.249E+03 -.403E+03 -.583E+04   -.245E+03 0.398E+03 0.583E+04   -.319E+01 0.518E+01 0.415E+01   -.102E-01 0.162E-01 0.201E-03
   0.201E+03 -.546E+03 0.391E+04   -.203E+03 0.549E+03 -.391E+04   0.172E+01 -.325E+01 0.280E+01   0.798E-02 0.335E-02 0.297E-01
   0.411E+03 0.240E+03 -.490E+04   -.414E+03 -.244E+03 0.490E+04   0.244E+01 0.330E+01 -.168E+01   0.232E-01 0.111E-01 -.582E-01
   0.286E+02 0.298E+03 0.492E+04   -.282E+02 -.302E+03 -.492E+04   0.123E+00 0.398E+01 0.366E+01   0.451E-02 -.538E-02 0.417E-01
   0.200E+03 0.492E+03 0.161E+04   -.201E+03 -.493E+03 -.161E+04   0.437E+00 0.124E+01 -.751E+00   0.116E-01 0.135E-01 0.416E-02
   0.250E+03 0.407E+03 -.142E+04   -.251E+03 -.408E+03 0.142E+04   0.939E+00 0.389E+00 0.239E+01   -.521E-02 0.186E-01 -.111E+00
   -.522E+03 -.420E+02 0.168E+04   0.522E+03 0.422E+02 -.168E+04   -.163E+00 -.174E+00 0.604E+00   0.986E-02 -.231E-02 0.732E-03
   -.531E+03 -.461E+02 -.146E+04   0.532E+03 0.467E+02 0.145E+04   -.923E+00 -.757E+00 0.213E+01   0.711E-02 -.130E-01 -.907E-01
   -.401E+03 -.260E+03 -.490E+04   0.405E+03 0.262E+03 0.490E+04   -.406E+01 -.725E+00 -.170E+01   -.819E-02 -.144E-01 -.585E-01
   -.342E+03 0.142E+03 0.495E+04   0.345E+03 -.144E+03 -.495E+04   -.300E+01 0.130E+01 0.339E+01   -.800E-02 -.862E-02 0.438E-01
   0.263E+03 -.386E+03 0.503E+03   -.264E+03 0.386E+03 -.502E+03   0.659E+00 -.483E+00 -.174E+01   -.513E-02 -.102E-02 -.255E-01
   0.297E+03 -.470E+03 -.273E+04   -.298E+03 0.471E+03 0.273E+04   0.646E+00 -.965E+00 0.148E+01   -.649E-02 0.114E-01 -.122E+00
   0.250E+03 -.402E+03 -.583E+04   -.246E+03 0.397E+03 0.583E+04   -.321E+01 0.515E+01 0.416E+01   -.586E-02 0.161E-01 -.139E-01
   0.290E+03 -.520E+03 0.398E+04   -.292E+03 0.526E+03 -.398E+04   0.230E+01 -.432E+01 0.285E+01   -.108E-01 0.301E-02 0.366E-01
   0.411E+03 0.241E+03 -.490E+04   -.414E+03 -.244E+03 0.490E+04   0.242E+01 0.331E+01 -.164E+01   0.163E-01 -.618E-02 -.595E-01
   0.724E+01 0.350E+03 0.514E+04   -.733E+01 -.357E+03 -.514E+04   0.428E+00 0.444E+01 0.436E+01   0.109E-02 0.203E-02 0.366E-01
   0.268E+03 0.486E+03 0.171E+04   -.269E+03 -.487E+03 -.171E+04   0.657E+00 0.620E+00 0.633E+00   0.473E-02 0.605E-02 0.336E-02
   0.255E+03 0.410E+03 -.142E+04   -.256E+03 -.410E+03 0.142E+04   0.105E+01 0.485E+00 0.245E+01   -.617E-02 0.256E-02 -.114E+00
   -.525E+03 0.146E+01 0.170E+04   0.525E+03 -.112E+01 -.170E+04   -.271E+00 -.358E+00 0.752E+00   -.593E-02 0.371E-02 0.681E-02
   -.531E+03 -.389E+02 -.145E+04   0.532E+03 0.395E+02 0.145E+04   -.947E+00 -.763E+00 0.217E+01   -.134E-01 -.227E-02 -.961E-01
   -.400E+03 -.259E+03 -.490E+04   0.404E+03 0.261E+03 0.490E+04   -.407E+01 -.681E+00 -.162E+01   -.171E-01 -.216E-01 -.587E-01
   0.143E+02 -.128E+03 0.459E+04   -.134E+02 0.130E+03 -.459E+04   -.816E-01 -.190E+01 0.633E+01   0.469E-02 -.241E-02 0.366E-01
   0.210E+03 -.397E+03 0.563E+03   -.210E+03 0.398E+03 -.561E+03   -.129E+00 -.107E+01 -.112E+01   0.107E-01 -.320E-02 -.210E-01
   0.223E+03 -.368E+03 -.241E+04   -.224E+03 0.369E+03 0.241E+04   0.692E+00 -.954E+00 0.239E+00   -.995E-03 0.112E-01 -.123E+00
   -.252E+02 0.395E+02 -.560E+04   0.224E+02 -.349E+02 0.560E+04   0.333E+01 -.536E+01 -.211E+00   -.664E-02 0.133E-01 -.352E-01
   0.296E+03 -.394E+03 0.417E+04   -.299E+03 0.399E+03 -.417E+04   0.216E+01 -.372E+01 0.392E+01   0.424E-02 -.120E-01 0.377E-01
   -.630E+02 0.509E+03 -.490E+04   0.626E+02 -.510E+03 0.490E+04   0.924E+00 0.798E+00 -.375E+00   -.286E-02 -.310E-01 -.611E-01
   0.192E+03 0.561E+03 0.489E+04   -.193E+03 -.567E+03 -.489E+04   0.130E+01 0.425E+01 0.357E+01   0.503E-02 -.471E-03 0.286E-01
   0.201E+03 0.462E+03 0.167E+04   -.201E+03 -.463E+03 -.167E+04   -.513E+00 0.906E+00 0.278E+00   0.284E-02 -.245E-02 0.357E-02
   0.268E+03 0.455E+03 -.145E+04   -.269E+03 -.456E+03 0.145E+04   0.111E+01 0.502E+00 0.212E+01   0.813E-02 -.300E-02 -.949E-01
   -.424E+03 0.901E+02 0.144E+04   0.425E+03 -.909E+02 -.144E+04   -.584E+00 0.573E+00 -.193E+01   -.100E-01 -.512E-02 0.981E-03
   -.472E+03 -.329E+02 -.144E+04   0.473E+03 0.336E+02 0.143E+04   -.940E+00 -.736E+00 0.257E+01   0.446E-02 0.617E-02 -.110E+00
   -.426E+03 0.286E+03 -.490E+04   0.427E+03 -.286E+03 0.490E+04   -.119E+01 -.486E+00 -.407E+00   0.291E-01 -.993E-02 -.627E-01
   -.592E+03 -.559E+02 0.486E+04   0.597E+03 0.555E+02 -.487E+04   -.349E+01 0.173E+00 0.469E+01   -.617E-02 0.470E-02 0.293E-01
   -.728E+02 0.116E+03 0.246E+03   0.739E+02 -.118E+03 -.247E+03   -.114E+01 0.212E+01 0.180E+01   -.578E-02 0.721E-02 -.136E-01
   -.122E+03 0.199E+03 -.999E+03   0.123E+03 -.201E+03 0.999E+03   -.254E+00 0.456E+00 -.133E+01   -.140E-02 0.114E-02 -.482E-01
   0.392E+02 0.133E+03 0.238E+04   -.392E+02 -.134E+03 -.238E+04   -.620E+00 0.340E-01 0.869E+00   -.128E-03 -.212E-02 0.419E-02
   -.122E+03 0.146E+03 0.149E+04   0.123E+03 -.147E+03 -.149E+04   -.369E+00 0.876E+00 0.272E+01   0.442E-02 -.128E-02 0.136E-01
   -.293E+01 0.467E+01 -.232E+04   0.333E+01 -.530E+01 0.233E+04   -.111E+00 0.180E+00 -.202E+01   -.533E-02 0.182E-02 0.300E-02
   -.459E+02 -.234E+03 -.156E+04   0.466E+02 0.236E+03 0.156E+04   -.304E+00 -.145E+00 -.159E+01   0.401E-02 0.106E-01 -.395E-01
   -.784E+02 -.156E+03 -.227E+03   0.798E+02 0.159E+03 0.228E+03   -.140E+01 -.263E+01 -.403E+00   -.991E-03 -.237E-02 -.290E-01
   -.109E+02 -.238E+03 0.983E+03   0.127E+02 0.241E+03 -.983E+03   -.139E+01 -.232E+01 0.157E+01   -.332E-02 -.145E-02 0.100E-01
   0.161E+03 0.158E+02 0.215E+04   -.162E+03 -.143E+02 -.216E+04   0.508E+00 -.201E+01 0.284E+01   -.478E-02 0.263E-03 0.115E-01
   0.208E+03 -.850E+01 0.906E+03   -.211E+03 0.832E+01 -.906E+03   0.227E+01 0.425E+00 0.192E+01   -.860E-02 -.766E-03 0.118E-01
   0.173E+03 -.144E+01 -.231E+03   -.176E+03 0.136E+01 0.232E+03   0.294E+01 0.180E+00 -.423E+00   -.518E-02 0.189E-02 -.249E-01
   0.157E+03 0.104E+03 -.159E+04   -.160E+03 -.104E+03 0.160E+04   0.241E+01 0.488E+00 -.180E+01   0.367E-02 -.233E-02 -.302E-01
[...]
   0.230E+03 -.634E+02 -.156E+04   -.232E+03 0.636E+02 0.156E+04   0.288E+00 0.344E+00 -.152E+01   -.154E-01 0.118E-02 -.369E-01
   -.671E+02 0.129E+03 0.245E+03   0.684E+02 -.132E+03 -.247E+03   -.130E+01 0.217E+01 0.182E+01   0.591E-03 -.219E-02 -.194E-01
   -.122E+03 0.199E+03 -.999E+03   0.123E+03 -.201E+03 0.999E+03   -.316E+00 0.546E+00 -.131E+01   0.946E-02 -.120E-01 -.475E-01
   -.836E+02 0.118E+03 0.235E+04   0.847E+02 -.119E+03 -.235E+04   -.836E+00 0.505E+00 0.108E+01   -.724E-03 0.443E-03 0.476E-02
   -.997E+02 0.143E+03 0.147E+04   0.100E+03 -.144E+03 -.147E+04   -.455E+00 0.102E+01 0.196E+01   -.317E-02 0.121E-02 0.145E-01
   -.314E+01 0.457E+01 -.232E+04   0.352E+01 -.525E+01 0.233E+04   -.120E+00 0.204E+00 -.204E+01   -.508E-02 0.125E-01 0.151E-02
   -.454E+02 -.233E+03 -.156E+04   0.462E+02 0.235E+03 0.157E+04   -.493E+00 -.780E-01 -.169E+01   0.783E-02 0.147E-01 -.362E-01
   -.803E+02 -.151E+03 -.228E+03   0.818E+02 0.154E+03 0.229E+03   -.147E+01 -.257E+01 -.501E+00   -.809E-03 0.238E-02 -.247E-01
   0.886E+01 -.390E+02 0.214E+04   -.942E+01 0.397E+02 -.214E+04   0.959E+00 -.371E+00 0.326E+01   0.413E-03 -.134E-02 0.118E-01
   -.508E+02 -.197E+03 0.902E+03   0.521E+02 0.199E+03 -.900E+03   -.153E+01 -.106E+01 0.249E+00   0.319E-04 -.691E-02 0.125E-01
   0.197E+03 -.154E+03 0.231E+04   -.200E+03 0.157E+03 -.231E+04   0.168E+01 -.178E+01 0.223E+01   0.252E-02 0.204E-04 0.905E-02
   0.807E+02 0.209E+02 0.885E+03   -.805E+02 -.217E+02 -.883E+03   -.389E+00 0.614E+00 -.663E+00   0.216E-02 -.238E-02 0.824E-02
   0.167E+03 0.470E+01 -.235E+03   -.170E+03 -.458E+01 0.235E+03   0.295E+01 -.819E-01 0.897E-01   0.668E-02 0.172E-03 -.268E-01
   0.156E+03 0.105E+03 -.159E+04   -.159E+03 -.105E+03 0.160E+04   0.245E+01 0.553E+00 -.179E+01   0.445E-02 -.781E-02 -.367E-01
   0.110E+01 0.130E+02 -.894E+02   -.108E-11 -.293E-11 0.136E-11   -.145E+01 -.130E+02 0.914E+02   -.547E-02 -.346E-02 -.196E+01

 POSITION                                       TOTAL-FORCE (eV/Angst)
      5.35228      4.81788      5.50842         0.155459     -0.125245     -0.107691
      5.93595      3.87238      8.44448        -0.070942      0.084572     -0.921632
      6.06381      3.66526     10.81874         0.497291     -0.789524      0.797070
      2.28271      0.54590      2.86769        -0.634003      2.079915      0.340586
      0.74990      0.53179     10.16237         0.449333     -0.243140      0.947057
      4.86488      3.36479      2.17722        -0.815654     -1.329732      0.168987
      5.35228      2.40903      4.73270        -0.089968      0.028293      0.146142
      5.93595      1.46353      7.66876         0.178670     -0.058827     -0.106799
      1.87746      3.73836      4.73270        -0.136127     -0.038069      0.135493
      2.46113      2.79286      7.66876        -0.022649     -0.037092     -0.216302
      3.09589      1.98000     10.16241         0.016744     -0.511172      0.950126
      6.92203      4.68386      1.79664         2.156340      0.154905      2.369874
     10.98051      4.81788      5.50842        -0.006386     -0.017744     -0.046142
     11.56418      3.87238      8.44448        -0.036960      0.042506     -0.001141
     12.17923      2.87605     10.97762         0.037492     -0.082852      1.185867
      7.87456      0.73197      2.57236         0.225968      0.592381      2.168207
      6.46114      0.55189     10.27763        -0.908830      0.079180      0.593076
     10.40668      3.22676      2.21385         0.539305     -0.404594     -1.098652
     10.98051      2.40903      4.73270        -0.010639      0.102246      0.124271
     11.56418      1.46353      7.66876         0.007828     -0.052612     -0.200369
      7.50570      3.73836      4.73270        -0.096834     -0.006353      0.127181
      8.08937      2.79286      7.66876        -0.045068     -0.164300     -0.021474
      8.66902      1.91483     10.27757         0.335583      0.891749      0.578961
     12.65646      4.61478      2.21481         0.009376     -0.475060     -1.100922
      7.87456      9.84929      5.50842        -0.075017      0.089093     -0.152710
      8.45823      8.90379      8.44448        -0.070201      0.070997     -0.057970
      9.07333      7.90737     10.97762         0.042070     -0.087506      1.178250
      4.76861      5.76338      2.57236         0.019564      1.330048      2.067315
      3.35516      5.58328     10.27757        -0.928090      0.073443      0.584651
      7.29089      8.38594      1.79664         0.339495     -2.192148      1.266110
      7.87456      7.44044      4.73270         0.023008     -0.033466      0.063590
      8.45823      6.49494      7.66876        -0.012350     -0.039534     -0.187451
      4.39975      8.76977      4.73270        -0.106389     -0.014947      0.166022
      4.98341      7.82427      7.66876        -0.069684     -0.140451     -0.050712
      5.56307      6.94625     10.27754         0.313198      0.888382      0.609105
     10.24431      9.48381      2.47480         0.866612     -0.069696      0.295509
     13.50279      9.84929      5.50842         0.056234      0.110126      0.058533
     14.08646      8.90379      8.44448        -0.061557      0.084269     -0.974172
     14.21431      8.69669     10.81873         0.479330     -0.798961      0.766361
     10.39684      5.76338      2.57236        -0.474004      0.516370      1.459154
      8.90040      5.56319     10.16229         0.434134     -0.253937      0.950318
     12.91912      8.38594      1.79664        -0.290607     -1.673851      2.462933
     13.50279      7.44044      4.73270         0.003661     -0.136870      0.091093
     14.08646      6.49494      7.66876         0.157565     -0.000438     -0.026128
     10.02798      8.76977      4.73270        -0.177236     -0.308824      0.993646
     10.61165      7.82427      7.66876         0.013568     -0.035809     -0.124581
     11.24643      7.01141     10.16234         0.041539     -0.500451      0.935909
     15.07254      9.71527      1.79664         1.050321     -0.214066      2.679806
      1.66190      1.67871      5.87212        -0.028094      0.045084      0.203461
      2.24556      0.73321      8.80817         0.921927     -1.439070     -1.577172
      5.75524      3.82720      0.43888        -0.679242     -1.175080     -4.183063
      6.70646      2.62422      2.93606         0.987858     -0.329157      0.516493
      5.04488      5.31588     11.45359         0.282258     -0.448193      2.760979
      2.24556      3.80055      9.79595         0.369041      2.071784     -0.527815
      7.29013      4.74605      6.85989        -0.060054      0.065226     -0.099826
      4.18418      0.66015      3.92384         0.414189      1.194455      1.332014
      3.35947      4.71445      1.48574        -0.760073     -0.505587     -2.629979
      3.96438      3.99884      3.92384        -0.581575      0.241056      2.452094
      4.54805      3.05334      6.85989        -0.009743      0.097492     -0.034130
      5.13172      2.10784      9.79595        -0.570559      0.165625     -0.298651
[...]
      7.07033      8.08475      6.85989        -0.134621     -0.053273      0.147139
      7.65400      7.13925      9.79595        -1.985277      0.598150     -0.536286
      9.81241      6.71012      5.87212        -0.004136     -0.035675      0.141780
     10.39608      5.76462      8.80817         0.948395     -1.454554     -1.578911
     14.16185      8.79405      0.28212         0.262261     -0.589669     -4.208601
     14.85697      7.65563      2.93606         0.092757     -0.179848      0.304550
      8.15085      0.28448     11.45364         0.260160     -0.459212      2.770470
     10.39608      8.83196      9.79595         0.399093      2.055031     -0.519583
     15.44064      9.77746      6.85989         0.048505     -0.053347     -0.102636
     11.98163      6.48464      1.45554         0.408440      0.373414     -1.923162
     12.33469      5.69156      3.92384        -0.238028      0.853870      2.479959
     11.73732      9.93455      1.14399        -1.316965      0.963566     -3.561766
     12.11489      9.03025      3.92384        -0.172633     -0.204957      0.353834
     12.69856      8.08475      6.85989        -0.079966      0.032734     -0.038565
     13.28223      7.13925      9.79595        -0.584856      0.182273     -0.233797
    total drift:                               -0.349204     -0.014199      0.034591

  FREE ENERGIE OF THE ION-ELECTRON SYSTEM (eV)
  free  energy   TOTEN  =      -475.07384261 eV

  energy  without entropy=     -473.95940426  energy(sigma->0) =     -474.51662343