 vasp.5.4.4.18Apr17-6-g9f103f2a35 (build Aug 13 2019 17:33:20) gamma-only

 executed on             LinuxIFC date 2020.05.10  16:28:57

 INCAR:
 POTCAR:    PAW_PBE Ni_pv 06Sep2000
 POTCAR:    PAW_PBE S 06Sep2000
 POTCAR:    PAW_PBE Ni_pv 06Sep2000
   VRHFIN =Ni:

   TITEL  = PAW_PBE Ni_pv 06Sep2000
   POMASS =   58.690; ZVAL   =   16.000    mass and valenz
   ENMAX  =  367.986; ENMIN  =  275.989 eV

 POTCAR:    PAW_PBE S 06Sep2000
   VRHFIN =S : s2p4

   TITEL  = PAW_PBE S 06Sep2000
   POMASS =   32.066; ZVAL   =    6.000    mass and valenz
   ENMAX  =  258.689; ENMIN  =  194.016 eV

 Optimization of the real space projectors (new method)

 maximal supplied QI-value         = 18.90
 optimisation between [QCUT,QGAM] = [ 10.77, 21.73] = [ 32.49,132.25] Ry
 Optimized for a Real-space Cutoff    1.38 Angstroem

   l    n(q)    QCUT    max X(q) W(low)/X(q) W(high)/X(q)  e(spline)
   1      8    10.771     2.836    0.40E-04    0.29E-04    0.12E-06
   1      8    10.771     4.023    0.10E-03    0.48E-04    0.29E-06
   2      8    10.771    73.368    0.42E-03    0.97E-04    0.44E-06
   2      8    10.771    69.010    0.42E-03    0.99E-04    0.45E-06
   0      9    10.771    54.797    0.10E-03    0.56E-04    0.74E-07
   0      9    10.771    24.266    0.89E-04    0.49E-04    0.67E-07
 Optimization of the real space projectors (new method)

 maximal supplied QI-value         = 19.84
 optimisation between [QCUT,QGAM] = [ 10.71, 21.63] = [ 32.15,130.99] Ry
 Optimized for a Real-space Cutoff    1.19 Angstroem

   l    n(q)    QCUT    max X(q) W(low)/X(q) W(high)/X(q)  e(spline)
   0      8    10.715   187.594    0.41E-03    0.53E-04    0.66E-07
   0      8    10.715   164.243    0.41E-03    0.53E-04    0.65E-07
   1      7    10.715    67.533    0.19E-03    0.59E-03    0.68E-07
   1      7    10.715    50.729    0.19E-03    0.58E-03    0.67E-07
  PAW_PBE Ni_pv 06Sep2000               :
  PAW_PBE S 06Sep2000                   :

 POSCAR: Type_048 Type_148
  positions in cartesian coordinates
 exchange correlation table for  LEXCH =        8
   RHO(1)=    0.500       N(1)  =     2000
   RHO(2)=  100.500       N(2)  =     4000

 ion  position               nearest neighbor table
   1  0.261  0.479  0.253-  73 2.25  57 2.26  79 2.26  55 2.36  58 2.36   7 2.53  21 2.53
   2  0.355  0.385  0.388-  74 2.25  55 2.26  58 2.26  59 2.36  65 2.36   3 2.36   8 2.53  22 2.53

   3  0.370  0.369  0.497-  53 2.04  59 2.10  65 2.10   2 2.36
   4  0.154  0.072  0.143-  81 2.04  80 2.13  63 2.16  56 2.24
   5  0.041  0.054  0.466-  50 2.02  72 2.02  76 2.07
   6  0.288  0.330  0.104-  51 1.99  57 2.03  52 2.04  12 2.48
   7  0.368  0.239  0.218-  56 2.25  57 2.26  52 2.26  58 2.36  60 2.36   1 2.53  21 2.53
   8  0.462  0.145  0.353-  77 2.25  58 2.26  60 2.26  59 2.36  61 2.36   2 2.53  22 2.53
   9  0.000  0.372  0.218-  57 2.25  63 2.26  92 2.26  49 2.36  66 2.36  13 2.53  19 2.53
  10  0.094  0.278  0.353-  58 2.25  49 2.26  66 2.26  54 2.36  50 2.36  20 2.53  14 2.53
  11  0.186  0.199  0.466-  50 2.02  54 2.02  59 2.07
  12  0.406  0.465  0.083-  51 2.00  78 2.09  69 2.10  52 2.36  79 2.36   6 2.48
  13  0.761  0.479  0.253-  84 2.25  70 2.26  92 2.26  66 2.36  71 2.36  19 2.53   9 2.53
  14  0.855  0.385  0.388-  85 2.25  66 2.26  71 2.26  15 2.35  72 2.36  54 2.36  20 2.53  10 2.53

[...]

  46  0.594  0.778  0.353-  95 2.25  84 2.26  77 2.26  89 2.36  85 2.36  32 2.53  26 2.53
  47  0.690  0.689  0.472-  85 2.05  64 2.08  96 2.11  89 2.13  27 2.46
  48  0.906  0.965  0.083-  86 1.99  67 2.07  80 2.17  87 2.36  68 2.36  16 2.53  42 2.53
  49  0.073  0.167  0.270-  25 2.25  10 2.26  20 2.26   9 2.36  19 2.36
  50  0.167  0.073  0.405-   5 2.02  11 2.02  26 2.25  10 2.36  20 2.36
  51  0.308  0.405  0.024-   6 1.99  12 2.00
  52  0.479  0.261  0.135-   6 2.04  16 2.25   7 2.26  21 2.26  12 2.36
  53  0.208  0.532  0.528-   3 2.04  35 2.07  29 2.07  74 2.72
  54  0.030  0.378  0.451-  11 2.02  15 2.12  29 2.14  10 2.36  14 2.36
  55  0.436  0.472  0.315-  32 2.25   2 2.26  22 2.26   1 2.36  21 2.36
  56  0.342  0.066  0.180-   4 2.24   7 2.25  36 2.26  25 2.26  45 2.26
  57  0.174  0.397  0.180-   6 2.03  28 2.23   9 2.25   7 2.26   1 2.26
  58  0.268  0.303  0.315-  10 2.25   2 2.26   8 2.26   7 2.36   1 2.36
  59  0.362  0.209  0.451-  11 2.07   3 2.10  17 2.11   8 2.36   2 2.36
  60  0.573  0.167  0.270-  37 2.25  22 2.26   8 2.26  21 2.36   7 2.36
  61  0.667  0.073  0.405-  17 2.04  23 2.05  38 2.25  22 2.36   8 2.36  88 2.72
  62  0.860  0.400  0.020-  18 1.99  24 2.01  91 2.74
  63  0.979  0.261  0.135-  24 2.13   4 2.16  19 2.26   9 2.26  18 2.36
  64  0.704  0.535  0.530-  15 2.05  47 2.08  41 2.08  85 2.75
  65  0.530  0.378  0.451-   3 2.10  23 2.11  41 2.11  22 2.36   2 2.36
  66  0.936  0.472  0.315-  44 2.25  14 2.26  10 2.26  13 2.36   9 2.36
  67  0.763  0.156  0.064-  48 2.07  16 2.09  18 2.09  68 2.73
  68  0.842  0.066  0.180-  19 2.25  37 2.26  33 2.26  16 2.36  48 2.36  67 2.73
  69  0.583  0.479  0.064-  40 2.07  18 2.08  12 2.10  70 2.73
  70  0.674  0.397  0.180-  21 2.25  19 2.26  13 2.26  18 2.36  40 2.36  69 2.73
  71  0.768  0.303  0.315-  22 2.25  14 2.26  20 2.26  19 2.36  13 2.36
  72  0.862  0.209  0.451-   5 2.02  15 2.12  23 2.14  20 2.36  14 2.36
  73  0.073  0.667  0.270-   1 2.25  34 2.26  44 2.26  33 2.36  43 2.36
  74  0.167  0.573  0.405-  35 2.04  29 2.05   2 2.25  34 2.36  44 2.36  53 2.72
  75  0.479  0.761  0.135-  30 2.16  36 2.24  40 2.25  31 2.26  45 2.26
  76  0.030  0.878  0.451-   5 2.07  39 2.10  35 2.11  34 2.36  38 2.36
  77  0.436  0.972  0.315-   8 2.25  26 2.26  46 2.26  25 2.36  45 2.36
  78  0.253  0.658  0.071-  30 2.08  12 2.09  28 2.10  79 2.60
  79  0.342  0.566  0.180-  28 2.06  31 2.25   1 2.26  21 2.26  12 2.36  78 2.60
  80  0.093  0.976  0.075-  30 2.13   4 2.13  48 2.17  81 2.49
  81  0.174  0.897  0.180-  30 2.03   4 2.04  33 2.25  31 2.26  25 2.26  80 2.49
  82  0.268  0.803  0.315-  34 2.25  26 2.26  32 2.26  31 2.36  25 2.36
  83  0.362  0.709  0.451-  27 2.00  41 2.13  35 2.15  32 2.36  26 2.36
  84  0.573  0.667  0.270-  13 2.25  46 2.26  32 2.26  45 2.36  31 2.36
  85  0.667  0.573  0.405-  41 2.05  47 2.05  14 2.25  46 2.36  32 2.36  64 2.75
  86  0.867  0.874  0.013-  48 1.99  42 2.01  93 2.77
  87  0.979  0.761  0.135-  28 2.24  43 2.26  33 2.26  42 2.36  48 2.36
  88  0.708  0.032  0.528-  39 2.04  17 2.07  23 2.07  61 2.72
  89  0.530  0.878  0.451-  27 2.00  47 2.13  17 2.15  46 2.36  26 2.36
  90  0.936  0.972  0.315-  20 2.25  38 2.26  34 2.26  37 2.36  33 2.36
  91  0.771  0.651  0.067-  40 2.07  42 2.10  24 2.14  92 2.63  62 2.74
  92  0.842  0.566  0.180-  24 2.06  43 2.25  13 2.26   9 2.26  40 2.36  91 2.63
  93  0.604  0.990  0.050-  36 2.02  16 2.05  42 2.07  86 2.77
  94  0.674  0.897  0.180-  36 2.14  45 2.25  43 2.26  37 2.26  42 2.36  16 2.36
  95  0.768  0.803  0.315-  46 2.25  38 2.26  44 2.26  43 2.36  37 2.36
  96  0.862  0.709  0.451-  39 2.10  29 2.11  47 2.11  44 2.36  38 2.36

  LATTYP: Found a base centered orthorhombic cell.
 ALAT       =    11.8257374459
 B/A-ratio  =     1.6199260857
 C/A-ratio  =     1.8387210052

  Lattice vectors:

 A1 = (  11.2564630382,   0.0000000000,   0.0000000000)
 A2 = (  -5.0445621212, -10.0628203371,   0.0000000000)
 A3 = (   0.0000000000,   0.0000000000, -21.7442318436)

Analysis of symmetry for initial positions (statically):
 Subroutine PRICEL returns:
 Original cell was already a primitive cell.

 Routine SETGRP: Setting up the symmetry group for a
 base centered orthorhombic supercell.

 Subroutine GETGRP returns: Found  1 space group operations
 (whereof  1 operations were pure point group operations)
 out of a pool of  8 trial point group operations.

The static configuration has the point symmetry C_1 .

Analysis of symmetry for dynamics (positions and initial velocities):
 Subroutine PRICEL returns:
 Original cell was already a primitive cell.

 Routine SETGRP: Setting up the symmetry group for a
 base centered orthorhombic supercell.

 Subroutine GETGRP returns: Found  1 space group operations
 (whereof  1 operations were pure point group operations)
 out of a pool of  8 trial point group operations.

The dynamic configuration has the point symmetry C_1 .

 Subroutine INISYM returns: Found  1 space group operations
 (whereof  1 operations are pure point group operations),
 and found     1 'primitive' translations

 KPOINTS: gamma-point-only calculation. no periodi

Automatic generation of k-mesh.
Space group operators:
 irot       det(A)        alpha          n_x          n_y          n_z        tau_x        tau_y        tau_z
    1     1.000000     0.000000     1.000000     0.000000     0.000000     0.000000     0.000000     0.000000

 Subroutine IBZKPT returns following result:

 Found      1 irreducible k-points:

 Following reciprocal coordinates:
            Coordinates               Weight
  0.000000  0.000000  0.000000      1.000000

 Following cartesian coordinates:
            Coordinates               Weight
  0.000000  0.000000  0.000000      1.000000

 SYSTEM =  "Millerite NiS"
 POSCAR =  Type_048 Type_148

 Startparameter for this run:
   NWRITE =      2    write-flag & timer
   PREC   = normal    normal or accurate (medium, high low for compatibility)
   ISTART =      0    job   : 0-new  1-cont  2-samecut
   ICHARG =      2    charge: 1-file 2-atom 10-const
   ISPIN  =      1    spin polarized calculation?
   LNONCOLLINEAR =      F non collinear calculations
   LSORBIT =      F    spin-orbit coupling
   INIWAV =      1    electr: 0-lowe 1-rand  2-diag
   LASPH  =      F    aspherical Exc in radial PAW
   METAGGA=      F    non-selfconsistent MetaGGA calc.

 Electronic Relaxation 1
   ENCUT  =  450.0 eV  33.07 Ry    5.75 a.u.  19.47 19.47 37.61*2*pi/ulx,y,z
   ENINI  =  450.0     initial cutoff
   ENAUG  =  703.4 eV  augmentation charge cutoff
   NELM   =    100;   NELMIN=  2; NELMDL= -5     # of ELM steps
   EDIFF  = 0.1E-03   stopping-criterion for ELM
   LREAL  =      T    real-space projection
   NLSPLINE    = F    spline interpolate recip. space projectors
   LCOMPAT=      F    compatible to vasp.4.4
   GGA_COMPAT  = T    GGA compatible to vasp.4.4-vasp.4.6
   LMAXPAW     = -100 max onsite density
   LMAXMIX     =    2 max onsite mixed and CHGCAR
   VOSKOWN=      0    Vosko Wilk Nusair interpolation
   ROPT   =   -0.00050  -0.00050
 Ionic relaxation
   EDIFFG = 0.1E-02   stopping-criterion for IOM
   NSW    =      0    number of steps for IOM
   NBLOCK =      1;   KBLOCK =      1    inner block; outer block
   IBRION =     -1    ionic relax: 0-MD 1-quasi-New 2-CG
   NFREE  =      0    steps in history (QN), initial steepest desc. (CG)
   ISIF   =      2    stress and relaxation
   IWAVPR =     10    prediction:  0-non 1-charg 2-wave 3-comb
   ISYM   =      2    0-nonsym 1-usesym 2-fastsym
   LCORR  =      T    Harris-Foulkes like correction to forces

   POTIM  = 0.5000    time-step for ionic-motion
   TEIN   =    0.0    initial temperature
   TEBEG  =    0.0;   TEEND  =   0.0 temperature during run
   SMASS  =  -3.00    Nose mass-parameter (am)
   estimated Nose-frequenzy (Omega)   =  0.10E-29 period in steps =****** mass=  -0.290E-26a.u.
[...]
     0.000000000  0.000000000 21.744231844     0.000000000  0.000000000  0.045989208

  length of vectors
    11.256463038 11.256463038 21.744231844     0.099375718  0.099375718  0.045989208

 FORCES acting on ions
    electron-ion (+dipol)            ewald-force                    non-local-force                 convergence-correction
   0.246E+03 -.347E+03 0.569E+03   -.246E+03 0.348E+03 -.567E+03   0.294E+00 -.441E+00 -.163E+01   0.538E-02 0.249E-01 0.574E-01
   0.244E+03 -.349E+03 -.235E+04   -.245E+03 0.350E+03 0.235E+04   0.500E+00 -.109E+01 0.541E-01   -.285E-01 -.708E-01 0.523E-01
   0.320E+02 0.876E+02 -.557E+04   -.342E+02 -.833E+02 0.557E+04   0.291E+01 -.509E+01 0.504E+00   -.101E+00 -.821E-01 0.694E-01
   -.186E+03 -.426E+03 0.406E+04   0.187E+03 0.431E+03 -.406E+04   -.968E+00 -.449E+01 0.181E+01   0.472E-01 -.408E-01 0.205E-01
   -.158E+03 0.311E+03 -.499E+04   0.157E+03 -.312E+03 0.499E+04   0.116E+01 0.120E+01 0.102E+01   0.125E+00 0.116E+00 0.129E+00
   0.701E+03 0.582E+03 0.493E+04   -.703E+03 -.582E+03 -.493E+04   0.100E+01 -.540E+00 0.439E+01   -.577E-01 -.740E-01 0.110E+00
   0.293E+03 0.492E+03 0.174E+04   -.294E+03 -.494E+03 -.174E+04   0.629E+00 0.220E+01 -.732E+00   -.157E-02 -.310E-01 0.268E-01
   0.293E+03 0.453E+03 -.141E+04   -.294E+03 -.453E+03 0.141E+04   0.981E+00 0.442E+00 0.213E+01   -.423E-01 0.164E-02 0.396E-01
   -.570E+03 0.199E+02 0.178E+04   0.571E+03 -.201E+02 -.178E+04   -.134E+01 0.290E+00 -.484E+00   0.621E-01 0.305E-01 0.825E-01
   -.497E+03 0.111E+02 -.138E+04   0.498E+03 -.101E+02 0.138E+04   -.656E+00 -.878E+00 0.164E+01   0.205E-01 -.859E-01 0.297E+00
   -.208E+03 0.280E+03 -.499E+04   0.210E+03 -.280E+03 0.499E+04   -.158E+01 -.562E+00 0.112E+01   -.189E+00 -.786E-01 0.114E+00
   -.394E+03 -.396E+02 0.510E+04   0.400E+03 0.390E+02 -.510E+04   -.386E+01 0.640E+00 0.441E+01   -.138E-01 -.762E-02 0.113E+00
   0.252E+03 -.384E+03 0.656E+03   -.252E+03 0.385E+03 -.656E+03   0.565E+00 -.832E+00 -.255E+00   -.465E-01 0.857E-01 0.124E+00
   0.194E+03 -.313E+03 -.234E+04   -.195E+03 0.314E+03 0.234E+04   0.413E+00 -.803E+00 -.131E+00   0.457E-01 -.792E-01 0.273E+00
   -.118E+03 0.191E+03 -.558E+04   0.116E+03 -.188E+03 0.558E+04   0.229E+01 -.366E+01 0.194E-01   0.129E+00 -.219E+00 0.723E-01
   0.193E+03 -.594E+03 0.396E+04   -.194E+03 0.598E+03 -.396E+04   0.984E+00 -.362E+01 0.235E+01   -.530E-01 -.145E-01 0.105E+00
   0.447E+03 0.208E+03 -.487E+04   -.451E+03 -.211E+03 0.487E+04   0.253E+01 0.338E+01 -.191E+01   -.139E+00 -.124E-01 0.213E-01
   0.180E+03 0.477E+03 0.497E+04   -.182E+03 -.482E+03 -.497E+04   0.180E+01 0.352E+01 0.460E+01   -.323E-01 -.243E-01 0.197E-01
   0.254E+03 0.443E+03 0.177E+04   -.255E+03 -.443E+03 -.177E+04   0.805E+00 0.552E+00 0.752E+00   -.670E-01 -.451E-01 0.765E-01
   0.213E+03 0.445E+03 -.139E+04   -.214E+03 -.445E+03 0.139E+04   0.107E+01 0.254E+00 0.168E+01   0.481E-01 -.678E-01 0.302E+00
   -.545E+03 0.234E+00 0.177E+04   0.546E+03 -.149E+00 -.177E+04   -.539E+00 -.183E+00 0.878E+00   0.972E-02 0.358E-02 0.945E-01
   -.493E+03 -.183E+02 -.137E+04   0.494E+03 0.189E+02 0.136E+04   -.741E+00 -.779E+00 0.198E+01   -.992E-02 -.478E-02 0.107E-01
   -.339E+03 -.146E+03 -.486E+04   0.344E+03 0.148E+03 0.486E+04   -.441E+01 -.154E+01 -.197E+01   0.186E+00 -.100E-02 0.174E-01
   -.911E+03 0.520E+02 0.479E+04   0.915E+03 -.524E+02 -.479E+04   -.208E+01 0.523E+00 0.456E+01   0.759E-02 0.102E-02 0.347E-01
   0.196E+03 -.386E+03 0.581E+03   -.197E+03 0.386E+03 -.580E+03   0.321E+00 -.471E+00 -.150E+01   0.276E-01 -.134E-01 0.107E+00
   0.318E+03 -.516E+03 -.269E+04   -.319E+03 0.517E+03 0.269E+04   0.769E+00 -.125E+01 0.134E+01   -.551E-02 0.652E-01 0.135E+00
   0.390E+03 -.631E+03 -.577E+04   -.388E+03 0.629E+03 0.577E+04   -.131E+01 0.214E+01 0.605E+01   -.980E-01 0.177E+00 0.119E+00
   0.503E+03 -.319E+03 0.390E+04   -.508E+03 0.322E+03 -.390E+04   0.388E+01 -.321E+01 0.295E+00   -.101E-01 -.311E-01 0.102E+00
   0.282E+03 0.239E+03 -.486E+04   -.286E+03 -.242E+03 0.486E+04   0.347E+01 0.323E+01 -.195E+01   -.105E+00 -.127E+00 0.242E-01
   -.163E+03 -.226E+02 0.512E+04   0.164E+03 0.174E+02 -.513E+04   0.425E+00 0.536E+01 0.353E+01   0.381E-01 0.407E-01 0.226E-01
   0.189E+03 0.454E+03 0.172E+04   -.189E+03 -.455E+03 -.172E+04   0.387E+00 0.725E+00 -.807E+00   0.948E-02 -.119E-01 0.948E-01
   0.289E+03 0.385E+03 -.136E+04   -.290E+03 -.385E+03 0.136E+04   0.818E+00 0.278E+00 0.243E+01   0.533E-01 0.469E-01 0.688E-02
   -.489E+03 -.317E+02 0.177E+04   0.489E+03 0.322E+02 -.177E+04   0.569E-01 -.474E+00 0.929E+00   -.216E-01 -.293E-01 0.100E+00
   -.538E+03 -.580E+02 -.142E+04   0.539E+03 0.586E+02 0.142E+04   -.919E+00 -.855E+00 0.212E+01   -.321E-01 0.865E-01 0.511E-01
   -.387E+03 -.306E+03 -.487E+04   0.391E+03 0.307E+03 0.487E+04   -.422E+01 -.705E+00 -.187E+01   0.447E-01 0.163E+00 0.411E-01
   0.521E+03 -.233E+03 0.471E+04   -.525E+03 0.235E+03 -.471E+04   0.198E+01 -.203E+01 0.426E+01   -.505E-01 0.878E-03 0.609E-01
   0.211E+03 -.410E+03 0.632E+03   -.211E+03 0.411E+03 -.631E+03   -.171E+00 -.119E+01 -.112E+01   -.260E-01 -.565E-01 0.107E+00
   0.204E+03 -.377E+03 -.236E+04   -.205E+03 0.378E+03 0.235E+04   0.747E+00 -.850E+00 0.580E-01   0.505E-01 0.693E-02 0.607E-01
   -.924E+02 0.105E+02 -.557E+04   0.895E+02 -.668E+01 0.557E+04   0.319E+01 -.475E+01 0.447E+00   0.119E+00 0.604E-01 0.364E-01
   0.354E+03 -.495E+03 0.407E+04   -.358E+03 0.500E+03 -.407E+04   0.286E+01 -.429E+01 0.258E+01   -.364E-01 0.428E-01 0.720E-01
   0.374E+03 0.408E+03 -.473E+04   -.378E+03 -.412E+03 0.473E+04   0.280E+01 0.356E+01 -.220E+01   0.349E-01 0.471E-01 0.532E-01
   0.121E+03 0.597E+03 0.496E+04   -.121E+03 -.603E+03 -.496E+04   0.495E+00 0.411E+01 0.387E+01   -.940E-01 -.370E-02 0.146E+00
   0.209E+03 0.478E+03 0.177E+04   -.209E+03 -.479E+03 -.177E+04   -.527E+00 0.965E+00 0.883E+00   -.163E-01 0.226E-01 0.124E+00
   0.238E+03 0.434E+03 -.137E+04   -.239E+03 -.434E+03 0.137E+04   0.104E+01 0.241E+00 0.205E+01   -.339E-01 0.636E-01 0.594E-02
   -.348E+03 0.415E+02 0.156E+04   0.348E+03 -.423E+02 -.155E+04   0.295E+00 0.350E+00 -.146E+01   0.730E-01 0.144E-01 0.451E-01
   -.470E+03 -.848E+02 -.137E+04   0.470E+03 0.853E+02 0.136E+04   -.585E+00 -.694E+00 0.249E+01   0.728E-02 0.144E-01 -.245E-02
   -.532E+03 -.151E+03 -.473E+04   0.537E+03 0.153E+03 0.473E+04   -.442E+01 -.944E+00 -.231E+01   -.372E-01 0.183E-01 0.249E-01
   -.676E+03 -.128E+02 0.493E+04   0.682E+03 0.125E+02 -.493E+04   -.395E+01 0.283E-01 0.460E+01   0.775E-01 0.352E-01 0.112E+00
   -.787E+02 0.109E+03 0.255E+03   0.800E+02 -.111E+03 -.256E+03   -.138E+01 0.162E+01 0.120E+01   0.120E-01 -.254E-01 0.518E-01
   -.117E+03 0.188E+03 -.102E+04   0.118E+03 -.190E+03 0.102E+04   -.225E+00 0.535E+00 -.147E+01   -.313E-01 0.414E-01 0.162E+00
   0.175E+03 0.519E+02 0.235E+04   -.177E+03 -.526E+02 -.235E+04   -.176E+00 0.213E+00 0.288E+00   -.279E-01 -.338E-01 0.481E-02
   -.115E+03 0.155E+03 0.153E+04   0.117E+03 -.156E+03 -.154E+04   -.229E+00 0.103E+01 0.230E+01   -.500E-01 0.349E-02 0.179E-01
   0.298E+01 0.301E+01 -.234E+04   -.263E+01 -.370E+01 0.234E+04   -.219E+00 0.357E+00 -.199E+01   0.125E-01 -.587E-01 0.855E-01
   -.107E+03 -.744E+02 -.160E+04   0.109E+03 0.754E+02 0.160E+04   -.194E+01 0.481E+00 -.141E+01   -.546E-01 -.134E+00 0.796E-01
   -.745E+02 -.152E+03 -.204E+03   0.761E+02 0.155E+03 0.204E+03   -.165E+01 -.252E+01 -.196E+00   0.155E-01 -.250E-02 0.310E-01
   0.118E+02 -.197E+03 0.114E+04   -.105E+02 0.200E+03 -.115E+04   -.105E+01 -.221E+01 0.126E+01   0.304E-01 -.139E-01 -.644E-02
   0.265E+03 0.138E+02 0.102E+04   -.269E+03 -.143E+02 -.102E+04   0.163E+01 0.104E+01 0.306E+01   0.368E-01 -.516E-02 -.245E-01
   0.175E+03 0.869E+01 -.207E+03   -.178E+03 -.868E+01 0.207E+03   0.304E+01 0.171E-01 -.381E+00   0.895E-02 -.209E-01 0.544E-01
   0.170E+03 0.113E+03 -.160E+04   -.172E+03 -.114E+03 0.160E+04   0.233E+01 0.964E+00 -.207E+01   -.119E+00 0.215E-01 0.290E-01
   -.752E+02 0.114E+03 0.272E+03   0.764E+02 -.116E+03 -.275E+03   -.120E+01 0.196E+01 0.255E+01   -.341E-02 -.485E-02 0.477E-01
[...]
   0.248E+03 -.729E+02 -.153E+04   -.251E+03 0.731E+02 0.153E+04   0.951E+00 0.699E-01 -.140E+01   0.385E-01 0.813E-01 0.315E-01
   -.673E+02 0.123E+03 0.277E+03   0.687E+02 -.125E+03 -.279E+03   -.138E+01 0.193E+01 0.273E+01   0.110E-01 0.265E-01 0.633E-01
   -.793E+02 0.129E+03 -.860E+03   0.804E+02 -.131E+03 0.856E+03   -.594E+00 0.108E+01 0.437E+00   0.183E-01 -.223E-02 -.385E-01
   -.106E+03 0.142E+03 0.234E+04   0.108E+03 -.143E+03 -.235E+04   -.118E+01 0.499E+00 0.937E+00   0.114E-01 0.602E-02 -.301E-01
   -.851E+02 0.176E+03 0.156E+04   0.854E+02 -.177E+03 -.156E+04   -.289E+00 0.959E+00 0.220E+01   0.493E-02 -.638E-02 0.561E-01
   -.376E+01 -.160E+01 -.234E+04   0.422E+01 0.959E+00 0.234E+04   -.261E+00 0.383E+00 -.197E+01   0.589E-01 -.521E-01 0.776E-01
   -.457E+02 -.255E+03 -.153E+04   0.468E+02 0.257E+03 0.154E+04   -.554E+00 -.825E+00 -.157E+01   -.778E-01 -.686E-02 0.127E-01
   -.814E+02 -.153E+03 -.209E+03   0.828E+02 0.156E+03 0.210E+03   -.139E+01 -.257E+01 -.561E+00   -.667E-02 -.204E-01 0.535E-01
   -.393E+02 -.763E+02 0.212E+04   0.382E+02 0.776E+02 -.212E+04   0.164E+01 -.104E+01 0.293E+01   -.178E-01 0.188E-01 0.357E-02
   -.919E+02 -.181E+03 0.939E+03   0.933E+02 0.184E+03 -.939E+03   -.126E+01 -.152E+01 0.185E+01   0.847E-02 0.502E-01 0.408E-01
   0.269E+03 -.176E+03 0.236E+04   -.272E+03 0.179E+03 -.236E+04   0.138E+01 -.175E+01 0.111E+01   -.719E-01 -.555E-02 0.630E-02
   0.496E+02 0.272E+02 0.877E+03   -.498E+02 -.284E+02 -.875E+03   0.496E+00 0.723E+00 -.524E+00   -.286E-01 -.131E-01 0.326E-01
   0.167E+03 -.338E+01 -.207E+03   -.170E+03 0.352E+01 0.207E+03   0.297E+01 -.109E+00 0.402E-01   -.147E-01 -.473E-02 0.279E-01
   0.117E+03 0.531E+02 -.156E+04   -.119E+03 -.539E+02 0.156E+04   0.202E+01 0.119E+01 -.174E+01   0.223E-01 0.454E-01 -.878E-02
   -.117E+02 0.170E+02 -.836E+02   0.158E-11 -.156E-11 0.355E-10   0.116E+02 -.169E+02 0.785E+02   -.136E+00 -.148E+00 0.515E+01

 POSITION                                       TOTAL-FORCE (eV/Angst)
      5.35228      4.81788      5.50842         0.046557      0.025190     -0.018026
      5.93595      3.87238      8.44448        -0.052069      0.199757     -1.030923
      6.02718      3.71515     10.80220         0.597741     -0.834726      0.708097
      2.09548      0.72929      3.11985         0.819079      0.689446     -0.912183
      0.73522      0.54486     10.13311         0.465873     -0.426048      1.012183
      4.90541      3.31633      2.26216        -1.066978     -0.809063     -0.377024
      5.35228      2.40903      4.73270        -0.018735      0.115704     -0.025514
      5.93595      1.46353      7.66876         0.169821      0.008043      0.008297
      1.87746      3.73836      4.73270        -0.014533      0.072658      0.126373
      2.46113      2.79286      7.66876        -0.061689      0.062754     -0.256329
      3.09077      1.99897     10.13317         0.209785     -0.588478      0.989009
      6.92203      4.68386      1.79664         1.985509      0.033251      1.886786
     10.98051      4.81788      5.50842         0.002702     -0.199826     -0.083546
     11.56418      3.87238      8.44448        -0.124205      0.177752     -1.233647
     11.63292      3.76103     10.79073         0.553345     -0.929577      0.865210
      7.87456      0.73197      2.57236         0.216168      0.791117      1.943014
      6.46269      0.54894     10.27500        -0.895745     -0.063937      0.505212
     10.39684      3.35453      1.79664        -0.778508     -1.565243      2.419520
     10.98051      2.40903      4.73270        -0.018001      0.174875      0.203169
     11.56418      1.46353      7.66876        -0.043905     -0.007731     -0.310753
      7.50570      3.73836      4.73270         0.088625     -0.093792      0.129419
      8.08937      2.79286      7.66876        -0.004209     -0.160530     -0.028445
      8.68082      1.91514     10.27222         0.194383      0.663875      0.473227
     12.51413      4.60503      2.17803         1.694905      0.048322      0.270472
      7.87456      9.84929      5.50842         0.047562     -0.043654      0.151700
      8.45823      8.90379      8.44448         0.075613     -0.018040      0.098799
      9.08246      7.89258     10.98171         0.046921     -0.081140      1.353102
      4.86883      5.80858      2.99382        -1.228705      0.101251     -0.545317
      3.34962      5.57289     10.27239        -0.617736      0.084949      0.466848
      7.27700      8.24992      2.22196         0.779349      0.224994     -1.095042
      7.87456      7.44044      4.73270         0.062909     -0.138902      0.187550
      8.45823      6.49494      7.66876         0.137827     -0.114190     -0.089122
      4.39975      8.76977      4.73270        -0.180758     -0.030420      0.239487
      4.98341      7.82427      7.66876        -0.146650     -0.146248     -0.064355
      5.56498      6.94352     10.27509         0.398510      0.811099      0.505095
     10.51613      9.45691      2.57150        -1.179665      0.068424     -0.201136
     13.50279      9.84929      5.50842         0.000284      0.095653      0.038502
     14.08646      8.90379      8.44448        -0.150637      0.056905     -1.043135
     14.18606      8.75189     10.80214         0.475656     -0.880788      0.702004
     10.39684      5.76338      2.57236        -1.197944      0.459145      2.235556
      8.97726      5.53506     10.27394        -0.861151      0.150590      0.454092
     12.91912      8.38594      1.79664        -0.110427     -1.091782      2.294796
     13.50279      7.44044      4.73270         0.005239     -0.062068      0.219049
     14.08646      6.49494      7.66876         0.077900     -0.016033     -0.046710
     10.02798      8.76977      4.73270        -0.297591     -0.408342      1.149941
     10.61165      7.82427      7.66876         0.042287     -0.150028     -0.026409
     11.23713      6.93009     10.27396         0.303461      0.854943      0.442608
     15.07254      9.71527      1.79664         1.924942     -0.171895      2.632568
      1.66190      1.67871      5.87212        -0.051242     -0.017512      0.272195
      2.24556      0.73321      8.80817         0.847923     -1.336964     -1.540535
      5.50799      4.07936      0.52450        -1.564958     -0.553816     -3.341957
      6.70646      2.62422      2.93606         1.477956     -0.454357      0.508068
      5.01878      5.35071     11.48409         0.149129     -0.396820      2.815076
      2.24556      3.80055      9.79595        -0.490545      1.292429      0.101681
      7.29013      4.74605      6.85989        -0.032661      0.081512     -0.054606
      4.18418      0.66015      3.92384         0.302477      0.713817     -0.252884
      3.96438      3.99884      3.92384        -1.814764      0.531664      1.726295
      4.54805      3.05334      6.85989         0.076199      0.004343     -0.092294
      5.13172      2.10784      9.79595        -0.602851      0.283857     -0.167203
      7.29013      1.67871      5.87212         0.006179     -0.115487      0.101041
[...]
      7.07033      8.08475      6.85989        -0.076546      0.088648      0.026457
      7.65400      7.13925      9.79595        -1.758793      0.335993     -0.717555
      9.81241      6.71012      5.87212        -0.004209      0.012135      0.165638
     10.39608      5.76462      8.80817         0.491876     -0.871599     -2.979632
     14.17349      8.79781      0.28216         0.302543     -0.792207     -4.226454
     14.85697      7.65563      2.93606        -0.035503     -0.421550      0.321581
      8.13134      0.32352     11.48409         0.259099     -0.309681      2.818065
     10.39608      8.83196      9.79595         0.477626      1.705817     -0.705812
     15.44064      9.77746      6.85989         0.007903     -0.046193     -0.126083
     11.95781      6.54805      1.46458         0.533645      0.235300     -2.440358
     12.33469      5.69156      3.92384         0.135023      1.029928      2.190046
     11.78994      9.96114      1.08281        -1.599339      0.942833     -3.386584
     12.11489      9.03025      3.92384         0.262903     -0.424479      1.012899
     12.69856      8.08475      6.85989        -0.032142      0.023801      0.010471
     13.28223      7.13925      9.79595        -0.446858      0.427471     -0.092070
    total drift:                               -0.244464     -0.015836      0.048390

  FREE ENERGIE OF THE ION-ELECTRON SYSTEM (eV)
  free  energy   TOTEN  =      -475.12748772 eV

  energy  without entropy=     -473.96520407  energy(sigma->0) =     -474.54634589