 vasp.5.4.4.18Apr17-6-g9f103f2a35 (build Aug 13 2019 17:33:20) gamma-only

 executed on             LinuxIFC date 2020.05.10  13:18:24

 INCAR:
 POTCAR:    PAW_PBE Ni_pv 06Sep2000
 POTCAR:    PAW_PBE S 06Sep2000
 POTCAR:    PAW_PBE Ni_pv 06Sep2000
   VRHFIN =Ni:

   TITEL  = PAW_PBE Ni_pv 06Sep2000
   POMASS =   58.690; ZVAL   =   16.000    mass and valenz
   ENMAX  =  367.986; ENMIN  =  275.989 eV

 POTCAR:    PAW_PBE S 06Sep2000
   VRHFIN =S : s2p4

   TITEL  = PAW_PBE S 06Sep2000
   POMASS =   32.066; ZVAL   =    6.000    mass and valenz
   ENMAX  =  258.689; ENMIN  =  194.016 eV

 Optimization of the real space projectors (new method)

 maximal supplied QI-value         = 18.90
 optimisation between [QCUT,QGAM] = [ 10.77, 21.73] = [ 32.49,132.25] Ry
 Optimized for a Real-space Cutoff    1.38 Angstroem

   l    n(q)    QCUT    max X(q) W(low)/X(q) W(high)/X(q)  e(spline)
   1      8    10.771     2.836    0.40E-04    0.29E-04    0.12E-06
   1      8    10.771     4.023    0.10E-03    0.48E-04    0.29E-06
   2      8    10.771    73.368    0.42E-03    0.97E-04    0.44E-06
   2      8    10.771    69.010    0.42E-03    0.99E-04    0.45E-06
   0      9    10.771    54.797    0.10E-03    0.56E-04    0.74E-07
   0      9    10.771    24.266    0.89E-04    0.49E-04    0.67E-07
 Optimization of the real space projectors (new method)

 maximal supplied QI-value         = 19.84
 optimisation between [QCUT,QGAM] = [ 10.71, 21.63] = [ 32.15,130.99] Ry
 Optimized for a Real-space Cutoff    1.19 Angstroem

   l    n(q)    QCUT    max X(q) W(low)/X(q) W(high)/X(q)  e(spline)
   0      8    10.715   187.594    0.41E-03    0.53E-04    0.66E-07
   0      8    10.715   164.243    0.41E-03    0.53E-04    0.65E-07
   1      7    10.715    67.533    0.19E-03    0.59E-03    0.68E-07
   1      7    10.715    50.729    0.19E-03    0.58E-03    0.67E-07
  PAW_PBE Ni_pv 06Sep2000               :
  PAW_PBE S 06Sep2000                   :

 POSCAR: Type_048 Type_148
  positions in cartesian coordinates
 exchange correlation table for  LEXCH =        8
   RHO(1)=    0.500       N(1)  =     2000
   RHO(2)=  100.500       N(2)  =     4000

 ion  position               nearest neighbor table
   1  0.261  0.479  0.280-  73 2.25  58 2.26  80 2.26  59 2.36  54 2.36   7 2.53  21 2.53
   2  0.355  0.385  0.420-  65 2.10  60 2.10  74 2.25  59 2.26  54 2.26   8 2.53  22 2.53
   3  0.028  0.212  0.061-  63 2.03  64 2.09  81 2.21  55 2.21   4 2.33
   4  0.167  0.073  0.140-  55 2.07  81 2.07  64 2.25   3 2.33  56 2.36  82 2.36  36 2.53  30 2.53

   5  0.031  0.045  0.491-  50 2.03  77 2.04  72 2.04  20 2.49
   6  0.274  0.333  0.103-  51 2.04  55 2.17  57 2.27  58 2.36  52 2.36  12 2.53  28 2.53
   7  0.368  0.239  0.243-  56 2.25  52 2.26  58 2.26  59 2.36  61 2.36   1 2.53  21 2.53
   8  0.462  0.145  0.383-  60 2.12  78 2.25  59 2.26  61 2.26  62 2.36  17 2.49   2 2.53  22 2.53

[...]

  47  0.695  0.709  0.491-  86 2.03  96 2.04  89 2.04  46 2.49
  48  0.906  0.965  0.103-  87 2.04  81 2.17  67 2.27  88 2.36  68 2.36  42 2.53  16 2.53
  49  0.073  0.167  0.297-  25 2.25  10 2.26  20 2.26   9 2.36  19 2.36
  50  0.167  0.073  0.437-   5 2.03  11 2.03  26 2.25  10 2.36  20 2.36
  51  0.366  0.373  0.028-  15 2.03  12 2.04   6 2.04
  52  0.479  0.261  0.157-  15 2.09  16 2.25   7 2.26  21 2.26  12 2.36   6 2.36
  53  0.020  0.372  0.472-  29 2.04  11 2.04  14 2.10  10 2.12
  54  0.436  0.472  0.344-  32 2.25   2 2.26  22 2.26   1 2.36  21 2.36
  55  0.238  0.166  0.077-   4 2.07   6 2.17   3 2.21  36 2.27
  56  0.342  0.066  0.204-   7 2.25  25 2.26  45 2.26   4 2.36  36 2.36
  57  0.073  0.502  0.077-  28 2.07  24 2.17  27 2.21   6 2.27
  58  0.174  0.397  0.204-   9 2.25   7 2.26   1 2.26   6 2.36  28 2.36
  59  0.268  0.303  0.344-  10 2.25   2 2.26   8 2.26   1 2.36   7 2.36
  60  0.368  0.220  0.472-  11 2.04  17 2.04   2 2.10   8 2.12
  61  0.573  0.167  0.297-  37 2.25  22 2.26   8 2.26  21 2.36   7 2.36
  62  0.667  0.073  0.437-  17 2.03  23 2.03  38 2.25  22 2.36   8 2.36
  63  0.866  0.373  0.028-   3 2.03  24 2.04  18 2.04
  64  0.979  0.261  0.157-   3 2.09   4 2.25  19 2.26   9 2.26  24 2.36  18 2.36
  65  0.520  0.372  0.472-  41 2.04  23 2.04   2 2.10  22 2.12
  66  0.936  0.472  0.344-  44 2.25  14 2.26  10 2.26  13 2.36   9 2.36
  67  0.738  0.166  0.077-  16 2.07  18 2.17  15 2.21  48 2.27
  68  0.842  0.066  0.204-  19 2.25  37 2.26  33 2.26  16 2.36  48 2.36
  69  0.573  0.502  0.077-  40 2.07  12 2.17  39 2.21  18 2.27
  70  0.674  0.397  0.204-  21 2.25  19 2.26  13 2.26  18 2.36  40 2.36
  71  0.768  0.303  0.344-  22 2.25  14 2.26  20 2.26  13 2.36  19 2.36
  72  0.868  0.220  0.472-  23 2.04   5 2.04  14 2.10  20 2.12
  73  0.073  0.667  0.297-   1 2.25  34 2.26  44 2.26  33 2.36  43 2.36
  74  0.167  0.573  0.437-  29 2.03  35 2.03   2 2.25  34 2.36  44 2.36
  75  0.366  0.873  0.028-  39 2.03  36 2.04  30 2.04
  76  0.479  0.761  0.157-  39 2.09  40 2.25  31 2.26  45 2.26  30 2.36  36 2.36
  77  0.020  0.872  0.472-   5 2.04  35 2.04  38 2.10  34 2.12
  78  0.436  0.972  0.344-   8 2.25  26 2.26  46 2.26  25 2.36  45 2.36
  79  0.238  0.666  0.077-  28 2.07  30 2.17  27 2.21  12 2.27
  80  0.342  0.566  0.204-  31 2.25   1 2.26  21 2.26  28 2.36  12 2.36
  81  0.073  0.002  0.077-   4 2.07  48 2.17   3 2.21  30 2.27
  82  0.174  0.897  0.204-  33 2.25  31 2.26  25 2.26  30 2.36   4 2.36
  83  0.268  0.803  0.344-  34 2.25  26 2.26  32 2.26  25 2.36  31 2.36
  84  0.368  0.720  0.472-  35 2.04  41 2.04  26 2.10  32 2.12
  85  0.573  0.667  0.297-  13 2.25  46 2.26  32 2.26  45 2.36  31 2.36
  86  0.667  0.573  0.437-  41 2.03  47 2.03  14 2.25  46 2.36  32 2.36
  87  0.866  0.873  0.028-  27 2.03  48 2.04  42 2.04
  88  0.979  0.761  0.157-  27 2.09  28 2.25  43 2.26  33 2.26  42 2.36  48 2.36
  89  0.520  0.872  0.472-  17 2.04  47 2.04  26 2.10  46 2.12
  90  0.936  0.972  0.344-  20 2.25  38 2.26  34 2.26  37 2.36  33 2.36
  91  0.738  0.666  0.077-  40 2.07  42 2.17  39 2.21  24 2.27
  92  0.842  0.566  0.204-  43 2.25  13 2.26   9 2.26  40 2.36  24 2.36
  93  0.573  0.002  0.077-  16 2.07  36 2.17  15 2.21  42 2.27
  94  0.674  0.897  0.204-  45 2.25  43 2.26  37 2.26  42 2.36  16 2.36
  95  0.768  0.803  0.344-  46 2.25  38 2.26  44 2.26  37 2.36  43 2.36
  96  0.868  0.720  0.472-  47 2.04  29 2.04  38 2.10  44 2.12

  LATTYP: Found a base centered orthorhombic cell.
 ALAT       =    11.8257374459
 B/A-ratio  =     1.6199260857
 C/A-ratio  =     1.7731247468

  Lattice vectors:

 A1 = (  11.2564630382,   0.0000000000,   0.0000000000)
 A2 = (  -5.0445621212, -10.0628203371,   0.0000000000)
 A3 = (   0.0000000000,   0.0000000000, -20.9685077140)

Analysis of symmetry for initial positions (statically):
 Subroutine PRICEL returns following result:

[...]

   4 primitive cells build up your supercell.

 Routine SETGRP: Setting up the symmetry group for a
 base centered orthorhombic supercell.

 Subroutine GETGRP returns: Found  2 space group operations
 (whereof  1 operations were pure point group operations)
 out of a pool of  8 trial point group operations.

The static configuration has the point symmetry C_1 .
 The point group associated with its full space group is C_1h.

Analysis of symmetry for dynamics (positions and initial velocities):
 Subroutine PRICEL returns following result:

  LATTYP: Found a base centered orthorhombic cell.
 ALAT       =     5.9128687229
 B/A-ratio  =     1.6199260857
 C/A-ratio  =     3.5462494935

  Lattice vectors:

 A1 = (   5.6282315190,   0.0000000000,   0.0000000000)
 A2 = (  -2.5222810606,  -5.0314101686,   0.0000000000)
 A3 = (   0.0000000000,   0.0000000000, -20.9685077140)

   4 primitive cells build up your supercell.

 Routine SETGRP: Setting up the symmetry group for a
 base centered orthorhombic supercell.

 Subroutine GETGRP returns: Found  2 space group operations
 (whereof  1 operations were pure point group operations)
 out of a pool of  8 trial point group operations.

The dynamic configuration has the point symmetry C_1 .
 The point group associated with its full space group is C_1h.

 Subroutine INISYM returns: Found  2 space group operations
 (whereof  1 operations are pure point group operations),
 and found     4 'primitive' translations

 KPOINTS: gamma-point-only calculation. no periodi

Automatic generation of k-mesh.
Space group operators:
 irot       det(A)        alpha          n_x          n_y          n_z        tau_x        tau_y        tau_z
    1     1.000000     0.000000     1.000000     0.000000     0.000000     0.000000     0.000000     0.000000
    2    -1.000000   180.000000     0.850925     0.525287     0.000000     0.239701    -0.260299     0.000000

 Subroutine IBZKPT returns following result:

 Found      1 irreducible k-points:

 Following reciprocal coordinates:
            Coordinates               Weight
  0.000000  0.000000  0.000000      1.000000

 Following cartesian coordinates:
            Coordinates               Weight
  0.000000  0.000000  0.000000      1.000000

 SYSTEM =  "Millerite NiS"
 POSCAR =  Type_048 Type_148

 Startparameter for this run:
   NWRITE =      2    write-flag & timer
   PREC   = normal    normal or accurate (medium, high low for compatibility)
   ISTART =      0    job   : 0-new  1-cont  2-samecut
   ICHARG =      2    charge: 1-file 2-atom 10-const
   ISPIN  =      1    spin polarized calculation?
   LNONCOLLINEAR =      F non collinear calculations
   LSORBIT =      F    spin-orbit coupling
   INIWAV =      1    electr: 0-lowe 1-rand  2-diag
   LASPH  =      F    aspherical Exc in radial PAW
   METAGGA=      F    non-selfconsistent MetaGGA calc.

 Electronic Relaxation 1
   ENCUT  =  450.0 eV  33.07 Ry    5.75 a.u.  19.47 19.47 36.27*2*pi/ulx,y,z
   ENINI  =  450.0     initial cutoff
   ENAUG  =  703.4 eV  augmentation charge cutoff
   NELM   =    100;   NELMIN=  2; NELMDL= -5     # of ELM steps
   EDIFF  = 0.1E-03   stopping-criterion for ELM
   LREAL  =      T    real-space projection
   NLSPLINE    = F    spline interpolate recip. space projectors
   LCOMPAT=      F    compatible to vasp.4.4
   GGA_COMPAT  = T    GGA compatible to vasp.4.4-vasp.4.6
   LMAXPAW     = -100 max onsite density
   LMAXMIX     =    2 max onsite mixed and CHGCAR
   VOSKOWN=      0    Vosko Wilk Nusair interpolation
   ROPT   =   -0.00050  -0.00050
 Ionic relaxation
   EDIFFG = 0.1E-02   stopping-criterion for IOM
   NSW    =      0    number of steps for IOM
   NBLOCK =      1;   KBLOCK =      1    inner block; outer block
   IBRION =     -1    ionic relax: 0-MD 1-quasi-New 2-CG
   NFREE  =      0    steps in history (QN), initial steepest desc. (CG)
   ISIF   =      2    stress and relaxation
   IWAVPR =     10    prediction:  0-non 1-charg 2-wave 3-comb
   ISYM   =      2    0-nonsym 1-usesym 2-fastsym
   LCORR  =      T    Harris-Foulkes like correction to forces

   POTIM  = 0.5000    time-step for ionic-motion
   TEIN   =    0.0    initial temperature
   TEBEG  =    0.0;   TEEND  =   0.0 temperature during run
   SMASS  =  -3.00    Nose mass-parameter (am)
   estimated Nose-frequenzy (Omega)   =  0.10E-29 period in steps =****** mass=  -0.290E-26a.u.
   SCALEE = 1.0000    scale energy and forces
[...]
     0.000000000  0.000000000 20.968507714     0.000000000  0.000000000  0.047690566

  length of vectors
    11.256463038 11.256463038 20.968507714     0.099375718  0.099375718  0.047690566

 FORCES acting on ions
    electron-ion (+dipol)            ewald-force                    non-local-force                 convergence-correction
   0.243E+03 -.393E+03 -.367E+03   -.244E+03 0.394E+03 0.367E+03   0.746E+00 -.121E+01 0.322E+00   0.611E-02 -.990E-02 -.351E-02
   0.270E+03 -.438E+03 -.367E+04   -.273E+03 0.442E+03 0.367E+04   0.171E+01 -.276E+01 -.204E+01   -.235E-02 0.380E-02 0.461E-02
   -.690E+02 0.112E+03 0.532E+04   0.691E+02 -.112E+03 -.533E+04   0.289E+00 -.469E+00 0.838E+01   -.382E-02 0.619E-02 -.396E-02
   0.854E+02 -.138E+03 0.267E+04   -.845E+02 0.137E+03 -.267E+04   -.455E+00 0.737E+00 -.159E+01   -.181E-02 0.293E-02 0.199E-01
   -.277E+02 0.189E+03 -.537E+04   0.273E+02 -.192E+03 0.537E+04   0.533E+00 0.236E+01 0.268E+01   0.874E-03 -.106E-02 0.274E-01
   0.453E+03 0.300E+03 0.404E+04   -.459E+03 -.302E+03 -.404E+04   0.399E+01 0.180E+01 0.286E+01   0.459E-02 -.603E-02 0.150E-01
   0.261E+03 0.445E+03 0.689E+03   -.263E+03 -.445E+03 -.689E+03   0.139E+01 0.514E+00 -.250E+00   0.324E-02 0.380E-02 0.754E-02
   0.210E+03 0.378E+03 -.222E+04   -.212E+03 -.380E+03 0.222E+04   0.164E+01 0.222E+01 0.170E+01   0.436E-02 -.482E-02 -.115E-02
   -.515E+03 -.340E+02 0.689E+03   0.516E+03 0.352E+02 -.689E+03   -.108E+01 -.101E+01 -.250E+00   -.484E-02 -.119E-02 0.754E-02
   -.432E+03 -.185E+02 -.222E+04   0.435E+03 0.189E+02 0.222E+04   -.272E+01 -.474E+00 0.170E+01   0.236E-02 -.606E-02 -.115E-02
   -.156E+03 0.109E+03 -.537E+04   0.159E+03 -.110E+03 0.537E+04   -.235E+01 0.583E+00 0.268E+01   0.557E-03 -.126E-02 0.274E-01
   -.472E+03 -.271E+03 0.404E+04   0.476E+03 0.275E+03 -.404E+04   -.339E+01 -.276E+01 0.286E+01   0.334E-02 -.680E-02 0.150E-01
   0.243E+03 -.393E+03 -.367E+03   -.244E+03 0.394E+03 0.367E+03   0.746E+00 -.121E+01 0.322E+00   0.611E-02 -.990E-02 -.351E-02
   0.270E+03 -.438E+03 -.367E+04   -.273E+03 0.442E+03 0.367E+04   0.171E+01 -.276E+01 -.204E+01   -.235E-02 0.380E-02 0.461E-02
   -.690E+02 0.112E+03 0.532E+04   0.691E+02 -.112E+03 -.533E+04   0.289E+00 -.469E+00 0.838E+01   -.382E-02 0.619E-02 -.396E-02
   0.854E+02 -.138E+03 0.267E+04   -.845E+02 0.137E+03 -.267E+04   -.455E+00 0.737E+00 -.159E+01   -.181E-02 0.293E-02 0.199E-01
   -.277E+02 0.189E+03 -.537E+04   0.273E+02 -.192E+03 0.537E+04   0.533E+00 0.236E+01 0.268E+01   0.874E-03 -.106E-02 0.274E-01
   0.453E+03 0.300E+03 0.404E+04   -.459E+03 -.302E+03 -.404E+04   0.399E+01 0.180E+01 0.286E+01   0.459E-02 -.603E-02 0.150E-01
   0.261E+03 0.445E+03 0.689E+03   -.263E+03 -.445E+03 -.689E+03   0.139E+01 0.514E+00 -.250E+00   0.324E-02 0.380E-02 0.754E-02
   0.210E+03 0.378E+03 -.222E+04   -.212E+03 -.380E+03 0.222E+04   0.164E+01 0.222E+01 0.170E+01   0.436E-02 -.482E-02 -.115E-02
   -.515E+03 -.340E+02 0.689E+03   0.516E+03 0.352E+02 -.689E+03   -.108E+01 -.101E+01 -.250E+00   -.484E-02 -.119E-02 0.754E-02
   -.432E+03 -.185E+02 -.222E+04   0.435E+03 0.189E+02 0.222E+04   -.272E+01 -.474E+00 0.170E+01   0.236E-02 -.606E-02 -.115E-02
   -.156E+03 0.109E+03 -.537E+04   0.159E+03 -.110E+03 0.537E+04   -.235E+01 0.583E+00 0.268E+01   0.557E-03 -.126E-02 0.274E-01
   -.472E+03 -.271E+03 0.404E+04   0.476E+03 0.275E+03 -.404E+04   -.339E+01 -.276E+01 0.286E+01   0.334E-02 -.680E-02 0.150E-01
   0.243E+03 -.393E+03 -.367E+03   -.244E+03 0.394E+03 0.367E+03   0.746E+00 -.121E+01 0.322E+00   0.611E-02 -.990E-02 -.351E-02
   0.270E+03 -.438E+03 -.367E+04   -.273E+03 0.442E+03 0.367E+04   0.171E+01 -.276E+01 -.204E+01   -.235E-02 0.380E-02 0.461E-02
   -.690E+02 0.112E+03 0.532E+04   0.691E+02 -.112E+03 -.533E+04   0.289E+00 -.469E+00 0.838E+01   -.382E-02 0.619E-02 -.396E-02
   0.854E+02 -.138E+03 0.267E+04   -.845E+02 0.137E+03 -.267E+04   -.455E+00 0.737E+00 -.159E+01   -.181E-02 0.293E-02 0.199E-01
   -.277E+02 0.189E+03 -.537E+04   0.273E+02 -.192E+03 0.537E+04   0.533E+00 0.236E+01 0.268E+01   0.874E-03 -.106E-02 0.274E-01
   0.453E+03 0.300E+03 0.404E+04   -.459E+03 -.302E+03 -.404E+04   0.399E+01 0.180E+01 0.286E+01   0.459E-02 -.603E-02 0.150E-01
   0.261E+03 0.445E+03 0.689E+03   -.263E+03 -.445E+03 -.689E+03   0.139E+01 0.514E+00 -.250E+00   0.324E-02 0.380E-02 0.754E-02
   0.210E+03 0.378E+03 -.222E+04   -.212E+03 -.380E+03 0.222E+04   0.164E+01 0.222E+01 0.170E+01   0.436E-02 -.482E-02 -.115E-02
   -.515E+03 -.340E+02 0.689E+03   0.516E+03 0.352E+02 -.689E+03   -.108E+01 -.101E+01 -.250E+00   -.484E-02 -.119E-02 0.754E-02
   -.432E+03 -.185E+02 -.222E+04   0.435E+03 0.189E+02 0.222E+04   -.272E+01 -.474E+00 0.170E+01   0.236E-02 -.606E-02 -.115E-02
   -.156E+03 0.109E+03 -.537E+04   0.159E+03 -.110E+03 0.537E+04   -.235E+01 0.583E+00 0.268E+01   0.557E-03 -.126E-02 0.274E-01
   -.472E+03 -.271E+03 0.404E+04   0.476E+03 0.275E+03 -.404E+04   -.339E+01 -.276E+01 0.286E+01   0.334E-02 -.680E-02 0.150E-01
   0.243E+03 -.393E+03 -.367E+03   -.244E+03 0.394E+03 0.367E+03   0.746E+00 -.121E+01 0.322E+00   0.611E-02 -.990E-02 -.351E-02
   0.270E+03 -.438E+03 -.367E+04   -.273E+03 0.442E+03 0.367E+04   0.171E+01 -.276E+01 -.204E+01   -.235E-02 0.380E-02 0.461E-02
   -.690E+02 0.112E+03 0.532E+04   0.691E+02 -.112E+03 -.533E+04   0.289E+00 -.469E+00 0.838E+01   -.382E-02 0.619E-02 -.396E-02
   0.854E+02 -.138E+03 0.267E+04   -.845E+02 0.137E+03 -.267E+04   -.455E+00 0.737E+00 -.159E+01   -.181E-02 0.293E-02 0.199E-01
   -.277E+02 0.189E+03 -.537E+04   0.273E+02 -.192E+03 0.537E+04   0.533E+00 0.236E+01 0.268E+01   0.874E-03 -.106E-02 0.274E-01
   0.453E+03 0.300E+03 0.404E+04   -.459E+03 -.302E+03 -.404E+04   0.399E+01 0.180E+01 0.286E+01   0.459E-02 -.603E-02 0.150E-01
   0.261E+03 0.445E+03 0.689E+03   -.263E+03 -.445E+03 -.689E+03   0.139E+01 0.514E+00 -.250E+00   0.324E-02 0.380E-02 0.754E-02
   0.210E+03 0.378E+03 -.222E+04   -.212E+03 -.380E+03 0.222E+04   0.164E+01 0.222E+01 0.170E+01   0.436E-02 -.482E-02 -.115E-02
   -.515E+03 -.340E+02 0.689E+03   0.516E+03 0.352E+02 -.689E+03   -.108E+01 -.101E+01 -.250E+00   -.484E-02 -.119E-02 0.754E-02
   -.432E+03 -.185E+02 -.222E+04   0.435E+03 0.189E+02 0.222E+04   -.272E+01 -.474E+00 0.170E+01   0.236E-02 -.606E-02 -.115E-02
   -.156E+03 0.109E+03 -.537E+04   0.159E+03 -.110E+03 0.537E+04   -.235E+01 0.583E+00 0.268E+01   0.557E-03 -.126E-02 0.274E-01
   -.472E+03 -.271E+03 0.404E+04   0.476E+03 0.275E+03 -.404E+04   -.339E+01 -.276E+01 0.286E+01   0.334E-02 -.680E-02 0.150E-01
   -.748E+02 0.121E+03 -.986E+02   0.759E+02 -.123E+03 0.969E+02   -.106E+01 0.172E+01 0.159E+01   -.202E-02 0.327E-02 -.579E-02
   -.108E+03 0.176E+03 -.137E+04   0.109E+03 -.177E+03 0.137E+04   -.293E+00 0.474E+00 -.126E+01   -.272E-02 0.440E-02 0.105E-01
   0.637E+02 -.103E+03 0.236E+04   -.643E+02 0.104E+03 -.237E+04   0.491E+00 -.796E+00 0.154E+01   0.228E-02 -.370E-02 -.347E-02
   -.437E+02 0.708E+02 0.892E+03   0.444E+02 -.719E+02 -.890E+03   -.103E+01 0.167E+01 -.823E+00   -.141E-02 0.229E-02 0.114E-01
   0.760E+02 -.924E+02 -.194E+04   -.756E+02 0.931E+02 0.194E+04   -.707E-01 0.224E+00 -.183E+01   0.807E-02 0.464E-03 0.106E-01
   -.605E+02 -.148E+03 -.558E+03   0.618E+02 0.151E+03 0.558E+03   -.134E+01 -.264E+01 -.206E+00   0.603E-04 -.208E-03 -.897E-02
   -.137E+03 -.766E+02 0.190E+04   0.139E+03 0.777E+02 -.191E+04   -.518E+00 -.291E+00 0.341E+01   -.759E-03 0.149E-02 0.278E-03
   -.727E+02 -.149E+03 0.571E+03   0.736E+02 0.152E+03 -.571E+03   -.843E+00 -.264E+01 0.626E+00   0.523E-02 -.105E-02 0.962E-02
   0.130E+03 0.883E+02 0.190E+04   -.132E+03 -.894E+02 -.191E+04   0.492E+00 0.333E+00 0.341E+01   -.990E-03 0.135E-02 0.278E-03
   0.166E+03 -.181E+01 0.571E+03   -.169E+03 0.214E+01 -.571E+03   0.274E+01 -.429E+00 0.626E+00   -.140E-02 -.515E-02 0.962E-02
   0.160E+03 -.124E+02 -.558E+03   -.163E+03 0.125E+02 0.558E+03   0.296E+01 0.181E-01 -.206E+00   0.159E-03 -.147E-03 -.897E-02
   0.486E+02 -.109E+03 -.194E+04   -.494E+02 0.109E+03 0.194E+04   -.169E+00 0.164E+00 -.183E+01   -.403E-02 -.701E-02 0.106E-01
[...]
   0.160E+03 -.124E+02 -.558E+03   -.163E+03 0.125E+02 0.558E+03   0.296E+01 0.181E-01 -.206E+00   0.159E-03 -.147E-03 -.897E-02
   0.486E+02 -.109E+03 -.194E+04   -.494E+02 0.109E+03 0.194E+04   -.169E+00 0.164E+00 -.183E+01   -.403E-02 -.701E-02 0.106E-01
   -.748E+02 0.121E+03 -.986E+02   0.759E+02 -.123E+03 0.969E+02   -.106E+01 0.172E+01 0.159E+01   -.202E-02 0.327E-02 -.579E-02
   -.108E+03 0.176E+03 -.137E+04   0.109E+03 -.177E+03 0.137E+04   -.293E+00 0.474E+00 -.126E+01   -.272E-02 0.440E-02 0.105E-01
   0.637E+02 -.103E+03 0.236E+04   -.643E+02 0.104E+03 -.237E+04   0.491E+00 -.796E+00 0.154E+01   0.228E-02 -.370E-02 -.347E-02
   -.437E+02 0.708E+02 0.892E+03   0.444E+02 -.719E+02 -.890E+03   -.103E+01 0.167E+01 -.823E+00   -.141E-02 0.229E-02 0.114E-01
   0.760E+02 -.924E+02 -.194E+04   -.756E+02 0.931E+02 0.194E+04   -.707E-01 0.224E+00 -.183E+01   0.807E-02 0.464E-03 0.106E-01
   -.605E+02 -.148E+03 -.558E+03   0.618E+02 0.151E+03 0.558E+03   -.134E+01 -.264E+01 -.206E+00   0.603E-04 -.208E-03 -.897E-02
   -.137E+03 -.766E+02 0.190E+04   0.139E+03 0.777E+02 -.191E+04   -.518E+00 -.291E+00 0.341E+01   -.759E-03 0.149E-02 0.278E-03
   -.727E+02 -.149E+03 0.571E+03   0.736E+02 0.152E+03 -.571E+03   -.843E+00 -.264E+01 0.626E+00   0.523E-02 -.105E-02 0.962E-02
   0.130E+03 0.883E+02 0.190E+04   -.132E+03 -.894E+02 -.191E+04   0.492E+00 0.333E+00 0.341E+01   -.990E-03 0.135E-02 0.278E-03
   0.166E+03 -.181E+01 0.571E+03   -.169E+03 0.214E+01 -.571E+03   0.274E+01 -.429E+00 0.626E+00   -.140E-02 -.515E-02 0.962E-02
   0.160E+03 -.124E+02 -.558E+03   -.163E+03 0.125E+02 0.558E+03   0.296E+01 0.181E-01 -.206E+00   0.159E-03 -.147E-03 -.897E-02
   0.486E+02 -.109E+03 -.194E+04   -.494E+02 0.109E+03 0.194E+04   -.169E+00 0.164E+00 -.183E+01   -.403E-02 -.701E-02 0.106E-01
   -.676E+01 0.109E+02 -.967E+02   -.296E-11 0.554E-12 0.887E-11   0.659E+01 -.107E+02 0.963E+02   0.603E-01 -.977E-01 0.602E+00

 POSITION                                       TOTAL-FORCE (eV/Angst)
      5.35228      4.81788      5.87212         0.106363     -0.172301      0.019644
      5.93595      3.87238      8.80817        -0.372699      0.603746     -1.345376
      1.38009      2.13522      1.28907         0.438197     -0.709847     -0.710700
      2.24633      0.73197      2.93606         0.433971     -0.703001      3.017281
      0.57236      0.45135     10.28786         0.049523     -0.283001      1.278403
      4.76861      3.35453      2.16033        -1.138084     -0.125476      1.638149
      5.35228      2.40903      5.09639        -0.208256     -0.032552     -0.049651
      5.93595      1.46353      8.03245         0.153112      0.030746     -1.647307
      1.87746      3.73836      5.09639         0.122430      0.171584     -0.049651
      2.46113      2.79286      8.03245        -0.096103     -0.123097     -1.647307
      3.24738      2.10267     10.28786         0.230798     -0.171097      1.278403
      6.92203      4.68386      2.16033         0.622201      0.961169      1.638149
     10.98051      4.81788      5.87212         0.106363     -0.172301      0.019644
     11.56418      3.87238      8.80817        -0.372699      0.603746     -1.345376
      7.00832      2.13522      1.28907         0.438197     -0.709847     -0.710700
      7.87456      0.73197      2.93606         0.433971     -0.703001      3.017281
      6.20059      0.45135     10.28786         0.049523     -0.283001      1.278403
     10.39684      3.35453      2.16033        -1.138084     -0.125476      1.638149
     10.98051      2.40903      5.09639        -0.208256     -0.032552     -0.049651
     11.56418      1.46353      8.03245         0.153112      0.030746     -1.647307
      7.50570      3.73836      5.09639         0.122430      0.171584     -0.049651
      8.08937      2.79286      8.03245        -0.096103     -0.123097     -1.647307
      8.87561      2.10267     10.28786         0.230798     -0.171097      1.278403
     12.55026      4.68386      2.16033         0.622201      0.961169      1.638149
      7.87456      9.84929      5.87212         0.106363     -0.172301      0.019644
      8.45823      8.90379      8.80817        -0.372699      0.603746     -1.345376
      3.90237      7.16663      1.28907         0.438197     -0.709847     -0.710700
      4.76861      5.76338      2.93606         0.433971     -0.703001      3.017281
      3.09464      5.48276     10.28786         0.049523     -0.283001      1.278403
      7.29089      8.38594      2.16033        -1.138084     -0.125476      1.638149
      7.87456      7.44044      5.09639        -0.208256     -0.032552     -0.049651
      8.45823      6.49494      8.03245         0.153112      0.030746     -1.647307
      4.39975      8.76977      5.09639         0.122430      0.171584     -0.049651
      4.98341      7.82427      8.03245        -0.096103     -0.123097     -1.647307
      5.76966      7.13408     10.28786         0.230798     -0.171097      1.278403
      9.44431      9.71527      2.16033         0.622201      0.961169      1.638149
     13.50279      9.84929      5.87212         0.106363     -0.172301      0.019644
     14.08646      8.90379      8.80817        -0.372699      0.603746     -1.345376
      9.53060      7.16663      1.28907         0.438197     -0.709847     -0.710700
     10.39684      5.76338      2.93606         0.433971     -0.703001      3.017281
      8.72287      5.48276     10.28786         0.049523     -0.283001      1.278403
     12.91912      8.38594      2.16033        -1.138084     -0.125476      1.638149
     13.50279      7.44044      5.09639        -0.208256     -0.032552     -0.049651
     14.08646      6.49494      8.03245         0.153112      0.030746     -1.647307
     10.02798      8.76977      5.09639         0.122430      0.171584     -0.049651
     10.61165      7.82427      8.03245        -0.096103     -0.123097     -1.647307
     11.39789      7.13408     10.28786         0.230798     -0.171097      1.278403
     15.07254      9.71527      2.16033         0.622201      0.961169      1.638149
      1.66190      1.67871      6.23581         0.089983     -0.145766     -0.156210
      2.24556      0.73321      9.17187         0.782069     -1.266894     -0.539962
      6.00763      3.75627      0.59143        -0.120422      0.195074     -4.149455
      6.70646      2.62422      3.29975        -0.319820      0.518085      1.586348
      2.09829      3.74458      9.89647         0.274503      0.903606      1.944078
      7.29013      4.74605      7.22359        -0.067585      0.218024     -0.416544
      3.51613      1.67328      1.60627         1.315611      0.786328     -2.049851
      4.18418      0.66015      4.28753         0.108786     -0.035941      0.441938
      3.35806      5.05008      1.60627        -1.292534     -0.823712     -2.049851
      3.96438      3.99884      4.28753        -0.016623     -0.113357      0.441938
      4.54805      3.05334      7.22359        -0.164616      0.158125     -0.416544
      5.24776      2.21441      9.89647        -0.930805      0.159555      1.944078
[...]
      6.48666      9.03025      4.28753        -0.016623     -0.113357      0.441938
      7.07033      8.08475      7.22359        -0.164616      0.158125     -0.416544
      7.77004      7.24582      9.89647        -0.930805      0.159555      1.944078
      9.81241      6.71012      6.23581         0.089983     -0.145766     -0.156210
     10.39608      5.76462      9.17187         0.782069     -1.266894     -0.539962
     14.15814      8.78768      0.59143        -0.120422      0.195074     -4.149455
     14.85697      7.65563      3.29975        -0.319820      0.518085      1.586348
     10.24880      8.77599      9.89647         0.274503      0.903606      1.944078
     15.44064      9.77746      7.22359        -0.067585      0.218024     -0.416544
     11.66664      6.70469      1.60627         1.315611      0.786328     -2.049851
     12.33469      5.69156      4.28753         0.108786     -0.035941      0.441938
      6.46401      0.01867      1.60627        -1.292534     -0.823712     -2.049851
     12.11489      9.03025      4.28753        -0.016623     -0.113357      0.441938
     12.69856      8.08475      7.22359        -0.164616      0.158125     -0.416544
     13.39827      7.24582      9.89647        -0.930805      0.159555      1.944078
    total drift:                               -0.118079      0.174708      0.250310

  FREE ENERGIE OF THE ION-ELECTRON SYSTEM (eV)
  free  energy   TOTEN  =      -477.02110155 eV

  energy  without entropy=     -475.51005893  energy(sigma->0) =     -476.26558024