 vasp.5.4.4.18Apr17-6-g9f103f2a35 (build Aug 13 2019 17:33:20) gamma-only

 executed on             LinuxIFC date 2020.05.12  05:04:38

 INCAR:
 POTCAR:    PAW_PBE Ni_pv 06Sep2000
 POTCAR:    PAW_PBE S 06Sep2000
 POTCAR:    PAW_PBE Ni_pv 06Sep2000
   VRHFIN =Ni:

   TITEL  = PAW_PBE Ni_pv 06Sep2000
   POMASS =   58.690; ZVAL   =   16.000    mass and valenz
   ENMAX  =  367.986; ENMIN  =  275.989 eV

 POTCAR:    PAW_PBE S 06Sep2000
   VRHFIN =S : s2p4

   TITEL  = PAW_PBE S 06Sep2000
   POMASS =   32.066; ZVAL   =    6.000    mass and valenz
   ENMAX  =  258.689; ENMIN  =  194.016 eV

 Optimization of the real space projectors (new method)

 maximal supplied QI-value         = 18.90
 optimisation between [QCUT,QGAM] = [ 10.77, 21.73] = [ 32.49,132.25] Ry
 Optimized for a Real-space Cutoff    1.38 Angstroem

   l    n(q)    QCUT    max X(q) W(low)/X(q) W(high)/X(q)  e(spline)
   1      8    10.771     2.836    0.40E-04    0.29E-04    0.12E-06
   1      8    10.771     4.023    0.10E-03    0.48E-04    0.29E-06
   2      8    10.771    73.368    0.42E-03    0.97E-04    0.44E-06
   2      8    10.771    69.010    0.42E-03    0.99E-04    0.45E-06
   0      9    10.771    54.797    0.10E-03    0.56E-04    0.74E-07
   0      9    10.771    24.266    0.89E-04    0.49E-04    0.67E-07
 Optimization of the real space projectors (new method)

 maximal supplied QI-value         = 19.84
 optimisation between [QCUT,QGAM] = [ 10.71, 21.63] = [ 32.15,130.99] Ry
 Optimized for a Real-space Cutoff    1.19 Angstroem

   l    n(q)    QCUT    max X(q) W(low)/X(q) W(high)/X(q)  e(spline)
   0      8    10.715   187.594    0.41E-03    0.53E-04    0.66E-07
   0      8    10.715   164.243    0.41E-03    0.53E-04    0.65E-07
   1      7    10.715    67.533    0.19E-03    0.59E-03    0.68E-07
   1      7    10.715    50.729    0.19E-03    0.58E-03    0.67E-07
  PAW_PBE Ni_pv 06Sep2000               :
  PAW_PBE S 06Sep2000                   :

 POSCAR: Type_037 Type_137
  positions in cartesian coordinates
 exchange correlation table for  LEXCH =        8
   RHO(1)=    0.500       N(1)  =     2000
   RHO(2)=  100.500       N(2)  =     4000

 ion  position               nearest neighbor table
   1  0.780  0.145  0.123-  65 2.01  51 2.08  42 2.25  52 2.36  66 2.36
   2  0.800  0.144  0.283-  66 2.02  52 2.05  43 2.06
   3  0.213  0.661  0.099-  44 2.04  45 2.10  53 2.24  63 2.25   4 2.42  28 2.44
   4  0.297  0.645  0.216-  63 2.13  54 2.14  64 2.15  45 2.25  53 2.26   3 2.42  29 2.53  16 2.53

   5  0.391  0.130  0.131-  47 2.03  48 2.11  69 2.18   6 2.35  55 2.39  18 2.45
   6  0.470  0.145  0.247-  56 2.10  70 2.10  48 2.25  55 2.26  69 2.26   5 2.35  32 2.53  19 2.53

   7  0.952  0.645  0.154-  58 2.06  68 2.08  49 2.23  57 2.36  67 2.36  33 2.53  20 2.53
   8  0.974  0.645  0.317-  46 2.05  57 2.06  67 2.06  50 2.10
   9  0.173  0.145  0.047-  47 2.01  59 2.04  73 2.05  10 2.45
  10  0.125  0.145  0.185-  59 2.13  73 2.15  39 2.25  60 2.36  74 2.36  11 2.38   9 2.45  35 2.53
                            22 2.53
  11  0.112  0.145  0.328-  38 2.03  60 2.10  74 2.10  10 2.38
  12  0.569  0.640  0.162-  40 2.01  41 2.16  71 2.18  61 2.20  13 2.29
  13  0.642  0.645  0.278-  72 2.04  62 2.04  61 2.09  41 2.25  71 2.26  12 2.29  37 2.53  25 2.53

[...]

  33  0.080  0.777  0.130-  44 2.06  58 2.09  73 2.12  57 2.36  45 2.36   7 2.53  20 2.53
  34  0.112  0.784  0.296-  46 2.05  57 2.06  45 2.09  74 2.15
  35  0.252  0.277  0.161-  47 2.14  63 2.15  59 2.16  48 2.36  60 2.36  10 2.53  22 2.53
  36  0.291  0.311  0.308-  60 2.04  48 2.04  64 2.05
  37  0.770  0.777  0.253-  62 2.00  50 2.08  61 2.25  66 2.25  49 2.39  13 2.53  25 2.53
  38  0.995  0.145  0.353-  11 2.03  27 2.07  15 2.07
  39  0.991  0.145  0.183-  27 2.08  15 2.10  14 2.14  26 2.19  10 2.25
  40  0.469  0.647  0.097-  28 2.00  12 2.01  29 2.15  16 2.17
  41  0.509  0.645  0.276-  30 2.07  17 2.07  12 2.16  13 2.25  29 2.36  16 2.36
  42  0.647  0.145  0.122-  18 2.02  31 2.08   1 2.25  19 2.26  32 2.26  43 2.74
  43  0.678  0.143  0.283-   2 2.06  19 2.10  32 2.13  42 2.74
  44  0.110  0.645  0.037-   3 2.04  20 2.06  33 2.06
  45  0.164  0.645  0.214-  34 2.09  21 2.09   3 2.10   4 2.25  33 2.36  20 2.36
  46  0.077  0.645  0.382-  21 2.04  34 2.05   8 2.05
  47  0.291  0.146  0.064-   9 2.01   5 2.03  35 2.14  22 2.15
  48  0.336  0.145  0.245-  23 2.04  36 2.04   5 2.11   6 2.25  35 2.36  22 2.36
  49  0.822  0.618  0.156-  25 2.09  24 2.18   7 2.23  37 2.39  50 2.67
  50  0.850  0.649  0.313-  37 2.08   8 2.10  25 2.12  49 2.67
  51  0.817  0.291  0.038-  24 2.03  26 2.06   1 2.08  65 2.71
  52  0.829  0.314  0.215-   2 2.05  26 2.10  24 2.14  27 2.17  25 2.25   1 2.36
  53  0.312  0.814  0.122-  28 2.05   3 2.24  22 2.25   4 2.26  29 2.26
  54  0.349  0.796  0.295-  23 2.04  30 2.04   4 2.14  29 2.15
  55  0.484  0.314  0.153-  18 2.04  16 2.25   6 2.26  32 2.26   5 2.39  31 2.59
  56  0.527  0.286  0.325-  17 2.00  32 2.08   6 2.10  70 2.73
  57  0.001  0.814  0.246-   8 2.06  34 2.06  15 2.20  33 2.36   7 2.36  58 2.75
  58  0.967  0.820  0.084-   7 2.06  33 2.09  14 2.09  57 2.75
  59  0.139  0.320  0.107-   9 2.04  20 2.13  10 2.13  35 2.16
  60  0.174  0.314  0.276-  36 2.04  11 2.10  21 2.15  10 2.36  35 2.36
  61  0.651  0.809  0.196-  13 2.09  12 2.20  19 2.20  37 2.25  62 2.72
  62  0.700  0.784  0.350-  37 2.00  13 2.04  61 2.72  72 2.73
  63  0.294  0.482  0.129-  28 2.04   4 2.13  35 2.15   3 2.25  16 2.46
  64  0.351  0.495  0.295-  36 2.05  17 2.05  16 2.14   4 2.15
  65  0.824  0.009  0.043-  14 2.00   1 2.01  51 2.71
  66  0.829  0.977  0.215-   2 2.02  14 2.10  15 2.14  37 2.25   1 2.36
  67  0.001  0.477  0.246-  21 2.06   8 2.06  27 2.18  20 2.36   7 2.36  68 2.74
  68  0.967  0.467  0.085-   7 2.08  20 2.09  26 2.11  67 2.74
  69  0.484  0.977  0.153-  18 2.05   5 2.18  29 2.25   6 2.26  19 2.26
  70  0.526  0.001  0.323-  30 2.00  19 2.06   6 2.10  56 2.73
  71  0.657  0.477  0.184-  31 2.07  12 2.18  24 2.21  32 2.25  25 2.26  13 2.26
  72  0.695  0.499  0.348-  25 2.02  13 2.04  62 2.73
  73  0.140  0.968  0.107-   9 2.05  33 2.12  22 2.14  10 2.15
  74  0.174  0.977  0.276-  23 2.04  11 2.10  34 2.15  10 2.36  22 2.36

  LATTYP: Found a simple orthorhombic cell.
 ALAT       =     9.5784100000
 B/A-ratio  =     1.7387693453
 C/A-ratio  =     1.7627867312

  Lattice vectors:

 A1 = (   0.0000000000,   9.5784100000,   0.0000000000)
 A2 = (   0.0000000000,   0.0000000000, -16.6546456851)
 A3 = ( -16.8846940542,   0.0000000000,   0.0000000000)

Analysis of symmetry for initial positions (statically):
 Subroutine PRICEL returns:
 Original cell was already a primitive cell.

 Routine SETGRP: Setting up the symmetry group for a
 simple orthorhombic supercell.

 Subroutine GETGRP returns: Found  1 space group operations
 (whereof  1 operations were pure point group operations)
 out of a pool of  8 trial point group operations.

The static configuration has the point symmetry C_1 .

Analysis of symmetry for dynamics (positions and initial velocities):
 Subroutine PRICEL returns:
 Original cell was already a primitive cell.

 Routine SETGRP: Setting up the symmetry group for a
 simple orthorhombic supercell.

 Subroutine GETGRP returns: Found  1 space group operations
 (whereof  1 operations were pure point group operations)
 out of a pool of  8 trial point group operations.

The dynamic configuration has the point symmetry C_1 .

 Subroutine INISYM returns: Found  1 space group operations
 (whereof  1 operations are pure point group operations),
 and found     1 'primitive' translations

 KPOINTS: gamma-point-only calculation. no periodi

Automatic generation of k-mesh.
Space group operators:
 irot       det(A)        alpha          n_x          n_y          n_z        tau_x        tau_y        tau_z
    1     1.000000     0.000000     1.000000     0.000000     0.000000     0.000000     0.000000     0.000000

 Subroutine IBZKPT returns following result:

 Found      1 irreducible k-points:

 Following reciprocal coordinates:
            Coordinates               Weight
  0.000000  0.000000  0.000000      1.000000

 Following cartesian coordinates:
            Coordinates               Weight
  0.000000  0.000000  0.000000      1.000000

 SYSTEM =  "Millerite NiS"
 POSCAR =  Type_037 Type_137

 Startparameter for this run:
   NWRITE =      2    write-flag & timer
   PREC   = normal    normal or accurate (medium, high low for compatibility)
   ISTART =      0    job   : 0-new  1-cont  2-samecut
   ICHARG =      2    charge: 1-file 2-atom 10-const
   ISPIN  =      1    spin polarized calculation?
   LNONCOLLINEAR =      F non collinear calculations
   LSORBIT =      F    spin-orbit coupling
   INIWAV =      1    electr: 0-lowe 1-rand  2-diag
   LASPH  =      F    aspherical Exc in radial PAW
   METAGGA=      F    non-selfconsistent MetaGGA calc.

 Electronic Relaxation 1
   ENCUT  =  450.0 eV  33.07 Ry    5.75 a.u.  29.20 16.57 28.81*2*pi/ulx,y,z
   ENINI  =  450.0     initial cutoff
   ENAUG  =  703.4 eV  augmentation charge cutoff
   NELM   =    100;   NELMIN=  2; NELMDL= -5     # of ELM steps
   EDIFF  = 0.1E-03   stopping-criterion for ELM
   LREAL  =      T    real-space projection
   NLSPLINE    = F    spline interpolate recip. space projectors
   LCOMPAT=      F    compatible to vasp.4.4
   GGA_COMPAT  = T    GGA compatible to vasp.4.4-vasp.4.6
   LMAXPAW     = -100 max onsite density
   LMAXMIX     =    2 max onsite mixed and CHGCAR
   VOSKOWN=      0    Vosko Wilk Nusair interpolation
   ROPT   =   -0.00050  -0.00050
 Ionic relaxation
   EDIFFG = 0.1E-02   stopping-criterion for IOM
   NSW    =      0    number of steps for IOM
   NBLOCK =      1;   KBLOCK =      1    inner block; outer block
   IBRION =     -1    ionic relax: 0-MD 1-quasi-New 2-CG
   NFREE  =      0    steps in history (QN), initial steepest desc. (CG)
   ISIF   =      2    stress and relaxation
   IWAVPR =     10    prediction:  0-non 1-charg 2-wave 3-comb
   ISYM   =      2    0-nonsym 1-usesym 2-fastsym
   LCORR  =      T    Harris-Foulkes like correction to forces

   POTIM  = 0.5000    time-step for ionic-motion
   TEIN   =    0.0    initial temperature
   TEBEG  =    0.0;   TEEND  =   0.0 temperature during run
   SMASS  =  -3.00    Nose mass-parameter (am)
   estimated Nose-frequenzy (Omega)   =  0.10E-29 period in steps =****** mass=  -0.652E-26a.u.
   SCALEE = 1.0000    scale energy and forces
   NPACO  =    256;   APACO  = 16.0  distance and # of slots for P.C.
   PSTRESS=    0.0 pullay stress

  Mass of Ions in am
   POMASS =  58.69 32.07
  Ionic Valenz
   ZVAL   =  16.00  6.00
  Atomic Wigner-Seitz radii
  virtual crystal weights
   VCA    =   1.00  1.00
   NELECT =     814.0000    total number of electrons
   NUPDOWN=      -1.0000    fix difference up-down

 DOS related values:
   EMIN   =  10.00;   EMAX   =-10.00  energy-range for DOS
   EFERMI =   0.00
   ISMEAR =     0;   SIGMA  =   0.20  broadening in eV -4-tet -1-fermi 0-gaus

 Electronic relaxation 2 (details)
   IALGO  =     38    algorithm
   LDIAG  =      T    sub-space diagonalisation (order eigenvalues)
   LSUBROT=      F    optimize rotation matrix (better conditioning)
[...]
     0.000000000  9.578410000  0.000000000     0.000000000  0.104401461  0.000000000
     0.000000000  0.000000000 16.654645685     0.000000000  0.000000000  0.060043307

  length of vectors
    16.884694054  9.578410000 16.654645685     0.059225237  0.104401461  0.060043307

 FORCES acting on ions
    electron-ion (+dipol)            ewald-force                    non-local-force                 convergence-correction
   0.656E+03 0.644E+03 0.211E+04   -.660E+03 -.647E+03 -.212E+04   0.380E+01 0.309E+01 0.488E+01   -.838E-02 0.244E-02 0.782E-02
   0.475E+03 0.155E+03 -.281E+04   -.477E+03 -.156E+03 0.281E+04   0.229E+01 0.209E+01 0.140E+01   -.578E-02 -.384E-02 -.369E-02
   0.356E+02 -.648E+02 0.302E+04   -.358E+02 0.651E+02 -.303E+04   0.110E+01 -.214E+00 0.831E+01   0.179E-01 0.214E-02 -.359E-02
   0.307E+03 -.136E+02 -.107E+04   -.309E+03 0.143E+02 0.107E+04   0.147E+01 -.385E+00 -.469E+01   0.209E-01 0.130E-02 0.457E-02
   -.202E+03 0.602E+02 0.245E+04   0.205E+03 -.610E+02 -.245E+04   -.214E+01 0.115E+01 0.507E+01   0.176E-01 0.134E-02 -.255E-02
   0.669E+02 0.539E+02 -.175E+04   -.699E+02 -.538E+02 0.176E+04   0.253E+01 -.452E-01 -.606E+01   -.251E-03 0.545E-04 -.144E-01
   0.961E+03 -.134E+03 0.147E+04   -.967E+03 0.134E+03 -.147E+04   0.538E+01 -.574E+00 0.422E+01   -.136E-01 0.572E-02 -.211E-03
   0.783E+03 -.296E+02 -.317E+04   -.788E+03 0.297E+02 0.317E+04   0.318E+01 0.767E-01 -.379E+01   -.454E-02 0.646E-02 -.953E-03
   0.395E+03 -.606E+01 0.426E+04   -.400E+03 0.589E+01 -.427E+04   0.323E+01 0.163E+00 0.397E+01   0.586E-02 -.154E-02 -.892E-02
   0.737E+03 0.632E+01 0.406E+03   -.741E+03 -.649E+01 -.405E+03   0.378E+01 0.444E-01 -.817E+00   0.605E-03 -.415E-02 -.335E-02
   0.126E+03 0.579E+01 -.357E+04   -.130E+03 -.551E+01 0.357E+04   0.480E+01 -.312E+00 0.408E+00   0.570E-03 -.505E-02 0.982E-03
   -.547E+03 -.351E+03 0.195E+04   0.550E+03 0.352E+03 -.195E+04   -.207E+01 -.102E+01 0.461E+01   -.761E-02 -.667E-02 -.254E-02
   0.187E+02 -.166E+03 -.217E+04   -.224E+02 0.165E+03 0.218E+04   0.270E+01 0.661E+00 -.676E+01   -.111E-01 -.154E-02 -.336E-02
   0.738E+02 0.533E+03 0.244E+04   -.698E+02 -.537E+03 -.245E+04   -.314E+01 0.416E+01 0.545E+01   -.742E-02 0.178E-02 0.708E-02
   0.270E+03 0.543E+03 -.221E+04   -.269E+03 -.546E+03 0.221E+04   -.103E+01 0.238E+01 -.376E+01   -.111E-01 0.171E-02 -.400E-02
   -.344E+03 0.506E+03 0.578E+03   0.344E+03 -.509E+03 -.580E+03   -.124E+00 0.333E+01 0.301E+00   0.945E-02 -.331E-02 0.148E-02
   -.270E+03 0.106E+03 -.361E+04   0.273E+03 -.110E+03 0.361E+04   -.241E+01 0.454E+01 0.181E+01   0.202E-02 -.700E-03 -.845E-02
   -.206E+03 0.447E+03 0.361E+04   0.205E+03 -.448E+03 -.362E+04   0.711E+00 0.419E+00 0.606E+01   -.383E-02 0.938E-02 -.387E-04
   -.723E+03 0.701E+03 -.491E+03   0.726E+03 -.708E+03 0.493E+03   -.284E+01 0.591E+01 -.325E+01   -.628E-02 0.701E-02 -.383E-02
   0.189E+03 0.540E+03 0.205E+04   -.190E+03 -.544E+03 -.205E+04   0.102E+01 0.299E+01 0.419E+01   -.307E-02 -.331E-02 -.191E-02
   -.223E+03 0.393E+03 -.272E+04   0.226E+03 -.399E+03 0.272E+04   -.129E+01 0.474E+01 -.386E+01   0.399E-02 0.222E-02 0.570E-02
   -.210E+03 0.596E+03 0.116E+04   0.210E+03 -.600E+03 -.116E+04   0.748E+00 0.339E+01 0.130E+01   0.183E-01 0.490E-02 -.197E-02
   -.139E+03 0.151E+03 -.329E+04   0.139E+03 -.155E+03 0.328E+04   -.248E+00 0.386E+01 0.240E+01   0.142E-01 0.122E-03 -.945E-03
   0.135E+03 -.669E+03 0.255E+04   -.137E+03 0.672E+03 -.256E+04   0.183E+01 -.193E+01 0.815E+01   -.186E-01 -.636E-02 -.692E-03
   -.200E+03 0.135E+03 -.162E+04   0.202E+03 -.139E+03 0.163E+04   -.128E+01 0.264E+01 -.712E+01   -.796E-02 -.851E-02 -.748E-02
   -.322E+03 -.219E+03 0.251E+04   0.329E+03 0.221E+03 -.252E+04   -.538E+01 -.277E+01 0.561E+01   -.105E-01 -.665E-02 0.243E-02
   0.189E+03 -.455E+03 -.224E+04   -.187E+03 0.458E+03 0.224E+04   -.306E+01 -.205E+01 -.416E+01   -.115E-01 -.126E-01 -.250E-02
   -.487E+03 0.632E+02 0.405E+04   0.486E+03 -.643E+02 -.405E+04   0.213E+00 0.745E+00 0.433E+01   0.140E-01 -.169E-02 -.122E-03
   -.500E+03 -.555E+03 0.608E+03   0.501E+03 0.559E+03 -.609E+03   -.159E-01 -.368E+01 0.614E+00   0.662E-02 0.125E-02 0.384E-02
   -.321E+03 -.133E+03 -.358E+04   0.324E+03 0.136E+03 0.358E+04   -.257E+01 -.411E+01 0.218E+01   0.129E-02 0.175E-02 -.642E-02
   -.455E+02 -.494E+03 0.352E+04   0.474E+02 0.492E+03 -.352E+04   -.208E+01 0.251E+01 -.131E+01   -.781E-02 -.583E-02 -.141E-02
   -.493E+03 -.266E+03 -.105E+04   0.495E+03 0.270E+03 0.106E+04   -.205E+01 -.425E+01 -.466E+01   -.327E-02 -.941E-03 -.151E-01
   0.290E+03 -.562E+03 0.204E+04   -.291E+03 0.565E+03 -.204E+04   0.117E+01 -.314E+01 0.403E+01   -.622E-02 0.987E-02 0.183E-02
   -.206E+03 -.401E+03 -.271E+04   0.209E+03 0.407E+03 0.272E+04   -.175E+01 -.439E+01 -.363E+01   0.191E-02 0.621E-02 0.420E-02
   -.254E+03 -.586E+03 0.118E+04   0.254E+03 0.589E+03 -.118E+04   0.486E+00 -.255E+01 0.115E+01   0.193E-01 -.784E-02 -.318E-02
   -.135E+03 -.149E+03 -.326E+04   0.136E+03 0.153E+03 0.326E+04   -.139E+00 -.415E+01 0.217E+01   0.171E-01 -.195E-02 -.703E-03
   -.145E+03 -.568E+03 -.967E+03   0.148E+03 0.573E+03 0.965E+03   -.207E+01 -.475E+01 -.132E+01   -.479E-02 0.733E-02 -.259E-02
   0.144E+03 0.796E+01 -.160E+04   -.143E+03 -.812E+01 0.161E+04   -.100E+01 0.132E+00 -.169E+01   -.349E-02 -.314E-02 -.372E-02
   -.148E+03 0.124E+02 0.354E+03   0.150E+03 -.122E+02 -.357E+03   0.220E-01 -.104E+00 0.133E+01   -.494E-02 -.378E-02 0.149E-02
   -.370E+03 -.715E+02 0.143E+04   0.372E+03 0.720E+02 -.143E+04   -.634E+00 -.491E+00 0.227E+01   -.655E-03 -.182E-02 0.306E-02
   -.202E+03 -.366E+02 -.845E+03   0.202E+03 0.366E+02 0.851E+03   0.887E+00 -.383E-01 -.406E+01   -.404E-02 -.624E-03 -.106E-02
   -.265E+03 0.370E+03 0.953E+03   0.267E+03 -.372E+03 -.957E+03   -.755E-01 0.161E+01 0.213E+01   -.631E-02 0.630E-02 -.141E-02
   -.113E+03 0.715E+02 -.107E+04   0.115E+03 -.715E+02 0.107E+04   -.412E+00 0.179E+00 -.220E+01   0.986E-03 0.654E-03 -.267E-02
   0.138E+03 0.158E+02 0.178E+04   -.138E+03 -.159E+02 -.179E+04   0.422E+00 0.705E-02 0.181E+01   0.937E-03 0.112E-02 -.588E-02
   -.109E+03 0.123E+02 -.261E+03   0.110E+03 -.124E+02 0.264E+03   0.520E+00 0.237E+00 -.295E+01   0.483E-02 0.250E-02 0.389E-02
   -.405E+02 -.263E+01 -.178E+04   0.408E+02 0.264E+01 0.178E+04   0.121E+00 -.128E-01 -.774E+00   0.159E-02 0.238E-02 0.178E-02
   -.275E+03 -.220E+02 0.162E+04   0.277E+03 0.222E+02 -.162E+04   -.588E+00 -.158E+00 0.261E+01   0.680E-02 -.821E-03 -.454E-04
   -.157E+03 -.129E+02 -.596E+03   0.158E+03 0.128E+02 0.601E+03   0.230E+00 0.112E+00 -.458E+01   0.745E-02 -.829E-03 -.325E-02
   0.686E+02 -.299E+03 0.761E+03   -.695E+02 0.301E+03 -.765E+03   0.133E+01 -.614E+00 0.204E+01   -.222E-02 -.194E-02 -.237E-02
   0.121E+02 -.382E+02 -.120E+04   -.105E+02 0.386E+02 0.121E+04   -.746E+00 -.408E+00 -.262E+01   -.130E-02 0.301E-03 -.360E-04
   0.474E+02 -.713E+02 0.174E+04   -.471E+02 0.730E+02 -.175E+04   -.570E+00 -.141E+01 0.249E+01   -.486E-02 0.451E-04 0.280E-02
   0.988E+02 -.137E+03 -.343E+03   -.986E+02 0.137E+03 0.346E+03   -.855E+00 0.125E+01 -.199E+01   -.458E-02 -.496E-02 -.458E-03
   -.702E+02 -.297E+03 0.948E+03   0.707E+02 0.300E+03 -.951E+03   -.135E+01 -.159E+01 0.280E+01   0.764E-02 0.121E-02 0.247E-03
   0.130E+03 0.459E+02 -.115E+04   -.132E+03 -.453E+02 0.115E+04   -.142E+00 -.128E+00 -.242E+01   0.556E-02 0.918E-03 -.124E-02
   0.712E+02 -.258E+03 0.668E+03   -.731E+02 0.261E+03 -.669E+03   0.881E+00 -.138E+01 0.567E+00   0.208E-02 -.338E-02 -.313E-02
   -.192E+03 0.612E+02 -.145E+04   0.193E+03 -.601E+02 0.146E+04   -.618E+00 -.902E+00 -.231E+01   -.117E-02 0.939E-03 -.328E-02
   0.239E+03 -.186E+03 -.416E+03   -.240E+03 0.188E+03 0.416E+03   0.846E-01 -.694E+00 -.717E+00   -.352E-02 0.596E-02 0.687E-03
   0.269E+03 -.540E+02 0.135E+04   -.271E+03 0.535E+02 -.136E+04   0.989E+00 0.119E+01 0.413E+01   -.486E-02 0.353E-02 0.529E-03
   0.210E+03 -.196E+03 0.106E+04   -.211E+03 0.197E+03 -.106E+04   0.691E-01 -.211E+00 0.934E+00   0.269E-02 -.674E-02 -.377E-02
   0.682E+02 -.147E+03 -.836E+03   -.686E+02 0.148E+03 0.838E+03   -.247E+00 -.123E+01 -.519E+00   0.410E-02 -.191E-02 0.109E-02
   -.163E+03 -.198E+03 0.438E+03   0.163E+03 0.200E+03 -.442E+03   0.275E+00 -.119E+00 0.238E+01   -.415E-02 0.272E-02 -.171E-02
   -.123E+02 -.256E+03 -.151E+04   0.118E+02 0.259E+03 0.152E+04   0.458E-01 -.253E+01 -.152E+01   -.350E-02 0.226E-02 0.906E-03
   -.133E+02 0.283E+03 0.846E+03   0.124E+02 -.285E+03 -.849E+03   0.912E+00 0.570E+00 0.113E+01   0.907E-02 -.184E-03 -.138E-03
   0.137E+03 -.498E+02 -.116E+04   -.138E+03 0.491E+02 0.116E+04   -.250E+00 0.225E+00 -.257E+01   0.675E-02 -.317E-03 -.193E-02
   0.227E+03 0.351E+03 0.155E+04   -.228E+03 -.355E+03 -.156E+04   0.332E+00 0.204E+01 0.145E+01   -.111E-02 0.639E-03 0.228E-02
   0.274E+03 0.328E+03 -.111E+03   -.276E+03 -.330E+03 0.112E+03   0.112E+01 -.171E+00 -.343E+00   0.780E-03 0.634E-02 0.145E-02
   0.208E+03 0.171E+03 -.429E+03   -.210E+03 -.174E+03 0.429E+03   0.608E-01 0.618E+00 -.592E+00   -.424E-02 -.229E-02 0.287E-03
   0.171E+03 0.269E+02 0.135E+04   -.172E+03 -.267E+02 -.136E+04   0.100E+01 -.946E+00 0.431E+01   -.581E-02 -.166E-02 -.122E-02
   -.148E+03 0.349E+03 0.723E+03   0.148E+03 -.352E+03 -.726E+03   -.722E+00 0.129E+01 0.233E+01   -.173E-02 0.579E-02 -.159E-02
   -.215E+03 -.253E+02 -.141E+04   0.216E+03 0.242E+02 0.141E+04   -.794E+00 0.101E+01 -.214E+01   -.154E-02 -.688E-03 -.262E-02
   -.427E+02 -.133E+03 0.229E+03   0.407E+02 0.131E+03 -.229E+03   0.114E+01 0.870E+00 -.551E+00   -.408E-02 -.665E-02 -.696E-02
   -.673E+01 0.225E+03 -.155E+04   0.552E+01 -.229E+03 0.155E+04   0.617E+00 0.236E+01 -.226E+00   -.352E-02 -.279E-02 -.166E-03
   0.218E+03 0.184E+03 0.105E+04   -.219E+03 -.184E+03 -.106E+04   -.118E+00 0.812E-01 0.106E+01   0.198E-02 0.537E-02 -.278E-02
   0.718E+02 0.147E+03 -.837E+03   -.722E+02 -.149E+03 0.838E+03   -.161E+00 0.124E+01 -.564E+00   0.275E-02 -.630E-03 0.112E-02
   -.663E+01 -.105E+02 -.279E+02   -.171E-12 -.568E-12 0.205E-11   0.653E+01 0.104E+02 0.279E+02   0.124E-01 -.568E-02 -.947E-01

 POSITION                                       TOTAL-FORCE (eV/Angst)
     13.17084      1.39171      2.05636        -0.146705      0.275334      1.594156
     13.50941      1.37537      4.71411        -0.064259      0.343362      1.034977
      3.60454      6.33192      1.64500         0.882204      0.071503     -0.446570
      5.02033      6.18092      3.59863        -0.472022      0.260147      0.654812
      6.59404      1.24304      2.18576         0.269154      0.382674     -0.221662
      7.93172      1.39171      4.11272        -0.415960      0.011873     -0.611691
     16.08224      6.18092      2.57045        -0.329112     -0.389397      2.184184
     16.44191      6.18277      5.28160        -1.621161      0.138501      0.516973
      2.91968      1.38629      0.77689        -0.981754     -0.002273     -1.846811
      2.10894      1.39171      3.08454        -0.992714     -0.123314      0.592412
      1.89344      1.39225      5.45756         0.879735     -0.039829      1.016223
      9.60885      6.12725      2.69648         0.600404     -0.104527     -0.503978
     10.84312      6.18092      4.62682        -0.985381     -0.280253     -0.146288
     15.41699      0.04786      2.04795         0.869818      0.457729      0.043424
     15.90088      0.11969      4.50410        -0.644695     -0.786331      0.232692
      7.17375      4.91558      3.19116         0.168769     -0.436072     -1.117902
      7.86466      4.45220      5.48208        -0.015368      0.569733      0.848975
      8.95781      1.39535      1.55893        -0.368426     -0.171185     -1.920239
     10.08514      0.12638      3.70525         0.580728     -0.523788     -1.495249
      1.35096      4.91558      2.16298         0.089109     -0.512826      1.451855
      1.88520      4.85382      4.92682         1.400010     -1.331337      0.255699
      4.26235      0.12638      2.67707         0.663141     -0.574405      0.726071
      4.90775      9.39994      5.13623         0.167362     -0.094158      0.848117
     12.95187      4.02896      2.01079        -0.736873      0.787097     -0.038467
     12.99653      4.91558      4.21934         1.104690     -0.466137     -0.690817
     15.34966      2.70635      1.98847         1.149374     -0.404126      0.092587
     15.92954      2.66017      4.49481        -0.959595      1.043394      0.013030
      5.97877      6.08725      1.15587        -0.255529     -0.389219     -1.648987
      7.17375      7.44626      3.19116         0.351022      0.423820     -0.672041
      7.83596      7.88698      5.49943        -0.059789     -0.555034      0.852737
     10.51108      3.35832      1.48139        -0.168677      0.479665     -0.898745
     10.08514      2.65705      3.70525         0.487152      0.117412     -0.330776
      1.35096      7.44626      2.16298         0.035788      0.413140      1.346013
      1.88664      7.50840      4.92421         1.320093      1.271625      0.322782
      4.26235      2.65705      2.67707         0.476888      0.448016      0.779330
      4.91222      2.97532      5.12538         0.180115     -0.047586      0.828090
     12.99653      7.44626      4.21934         0.831510      0.419306     -2.960322
     16.79284      1.38576      5.87245        -0.056620     -0.028270      2.977021
     16.74052      1.39171      3.05601         2.168314      0.050977     -2.018668
      7.92125      6.19768      1.61325         1.569970      0.023214     -3.024528
      8.59001      6.18092      4.59828         0.865206     -0.063167      1.428565
     10.91773      1.39171      2.02783         2.013434     -0.947826     -1.648018
     11.44456      1.36870      4.71446         0.801775      0.133643      2.585310
      1.85106      6.17827      0.62052         0.115125     -0.072720     -3.733260
      2.76722      6.18092      3.57010         0.972591      0.108921      0.086235
      1.29709      6.18233      6.36537         0.474655      0.002351      4.174786
      4.90991      1.40040      1.07005         1.640653      0.052432     -3.026203
      5.67861      1.39171      4.08419         0.950395      0.047507      0.984637
     13.87228      5.91753      2.60244         0.448006      1.632087     -1.650691
     14.34797      6.21424      5.21576         0.848237     -0.039661      2.454663
     13.78787      2.78665      0.64101        -0.235753      0.286730     -3.810484
     13.99844      3.00295      3.57488        -0.646973      0.873201      1.900101
      5.26426      7.79215      2.03261        -0.839042      1.686183     -0.560283
      5.89554      7.62405      4.91018        -1.188574      0.509006      1.803682
      8.17565      3.00295      2.54670        -1.080265      1.475404     -0.376403
      8.89384      2.73605      5.40755         0.195561      0.134802      2.783233
      0.02514      7.79215      4.08897        -1.112577      1.768836     -0.541868
     16.33363      7.85899      1.39870        -0.906897      0.710071     -2.902557
      2.34138      3.06805      1.78568        -0.932559      0.739964     -1.334774
      2.93654      3.00295      4.60306        -0.673996      0.271692      0.799271
     10.98596      7.74667      3.25705         0.270026      1.632923     -1.556812
     11.81514      7.50656      5.83247        -0.472737      1.102940      3.652390
      4.96661      4.61795      2.15445         0.026839     -1.425970     -1.140746
      5.91891      4.74339      4.91592        -1.176822     -0.473547      1.794227
     13.91726      0.08289      0.71968        -0.804630     -1.651529     -3.496137
     13.99844      9.35889      3.57488        -1.255561     -2.198123      0.816356
      0.02514      4.56969      4.08897        -1.068515     -1.714713     -0.514677
     16.33422      4.47583      1.40885        -0.496812     -0.787753     -2.828955
      8.17565      9.35889      2.54670        -0.850941     -1.686296     -0.255915
      8.88430      0.01037      5.37997         0.071109     -0.111520      2.862370
     11.08705      4.56969      3.06079        -0.838950     -0.583197     -0.545782
     11.73866      4.77537      5.79911        -0.594176     -1.217893      3.767264
      2.36899      9.27240      1.78490        -0.853550     -0.656699     -1.297931
      2.93654      9.35889      4.60306        -0.634990     -0.266533      0.709984
    total drift:                               -0.085211     -0.026764     -0.115094

  FREE ENERGIE OF THE ION-ELECTRON SYSTEM (eV)
  free  energy   TOTEN  =      -352.80331075 eV

  energy  without entropy=     -351.75885417  energy(sigma->0) =     -352.28108246