 vasp.5.4.4.18Apr17-6-g9f103f2a35 (build Aug 13 2019 17:33:20) gamma-only

 executed on             LinuxIFC date 2020.05.12  01:22:20

 INCAR:
 POTCAR:    PAW_PBE Ni_pv 06Sep2000
 POTCAR:    PAW_PBE S 06Sep2000
 POTCAR:    PAW_PBE Ni_pv 06Sep2000
   VRHFIN =Ni:

   TITEL  = PAW_PBE Ni_pv 06Sep2000
   POMASS =   58.690; ZVAL   =   16.000    mass and valenz
   ENMAX  =  367.986; ENMIN  =  275.989 eV

 POTCAR:    PAW_PBE S 06Sep2000
   VRHFIN =S : s2p4

   TITEL  = PAW_PBE S 06Sep2000
   POMASS =   32.066; ZVAL   =    6.000    mass and valenz
   ENMAX  =  258.689; ENMIN  =  194.016 eV

 Optimization of the real space projectors (new method)

 maximal supplied QI-value         = 18.90
 optimisation between [QCUT,QGAM] = [ 10.77, 21.73] = [ 32.49,132.25] Ry
 Optimized for a Real-space Cutoff    1.38 Angstroem

   l    n(q)    QCUT    max X(q) W(low)/X(q) W(high)/X(q)  e(spline)
   1      8    10.771     2.836    0.40E-04    0.29E-04    0.12E-06
   1      8    10.771     4.023    0.10E-03    0.48E-04    0.29E-06
   2      8    10.771    73.368    0.42E-03    0.97E-04    0.44E-06
   2      8    10.771    69.010    0.42E-03    0.99E-04    0.45E-06
   0      9    10.771    54.797    0.10E-03    0.56E-04    0.74E-07
   0      9    10.771    24.266    0.89E-04    0.49E-04    0.67E-07
 Optimization of the real space projectors (new method)

 maximal supplied QI-value         = 19.84
 optimisation between [QCUT,QGAM] = [ 10.71, 21.63] = [ 32.15,130.99] Ry
 Optimized for a Real-space Cutoff    1.19 Angstroem

   l    n(q)    QCUT    max X(q) W(low)/X(q) W(high)/X(q)  e(spline)
   0      8    10.715   187.594    0.41E-03    0.53E-04    0.66E-07
   0      8    10.715   164.243    0.41E-03    0.53E-04    0.65E-07
   1      7    10.715    67.533    0.19E-03    0.59E-03    0.68E-07
   1      7    10.715    50.729    0.19E-03    0.58E-03    0.67E-07
  PAW_PBE Ni_pv 06Sep2000               :
  PAW_PBE S 06Sep2000                   :

 POSCAR: Type_037 Type_137
  positions in cartesian coordinates
 exchange correlation table for  LEXCH =        8
   RHO(1)=    0.500       N(1)  =     2000
   RHO(2)=  100.500       N(2)  =     4000

 ion  position               nearest neighbor table
   1  0.780  0.145  0.123-  65 2.01  51 2.08  42 2.25  52 2.36  66 2.36
   2  0.800  0.144  0.283-  66 2.02  52 2.05  43 2.06
   3  0.216  0.626  0.099-  44 2.03  45 2.12  63 2.19   4 2.40  53 2.45  16 2.48
   4  0.297  0.645  0.216-  54 2.10  64 2.20  45 2.25  53 2.26  63 2.26   3 2.40  30 2.53  17 2.53

   5  0.388  0.117  0.130-  47 2.03  48 2.13  69 2.13   6 2.40  19 2.48  55 2.52
   6  0.470  0.145  0.247-  70 2.05  56 2.09  48 2.25  55 2.26  69 2.26   5 2.40  32 2.53  20 2.53

   7  0.952  0.645  0.154-  58 2.06  68 2.08  49 2.22  57 2.36  67 2.36  33 2.53  21 2.53
   8  0.974  0.645  0.317-  46 2.05  57 2.06  67 2.06  50 2.09
   9  0.171  0.145  0.046-  47 2.01  73 2.05  59 2.05  10 2.44
  10  0.125  0.145  0.185-  73 2.14  59 2.15  39 2.25  60 2.36  74 2.36  11 2.37   9 2.44  35 2.53
                            23 2.53
  11  0.110  0.145  0.327-  38 2.02  74 2.11  60 2.11  10 2.37
  12  0.578  0.646  0.153-  40 2.03  41 2.10  71 2.15  61 2.16  13 2.35
  13  0.642  0.645  0.278-  72 2.04  62 2.04  61 2.10  41 2.23  71 2.26  12 2.35  37 2.53  26 2.53

[...]

  36  0.295  0.328  0.297-  64 2.03  60 2.07  48 2.08  35 2.44
  37  0.770  0.777  0.253-  62 2.00  50 2.09  61 2.20  66 2.25  49 2.39  13 2.53  26 2.53
  38  0.993  0.145  0.354-  11 2.02  28 2.07  15 2.07
  39  0.991  0.145  0.183-  28 2.08  15 2.10  14 2.14  27 2.19  10 2.25
  40  0.474  0.645  0.091-  16 2.02  12 2.03  17 2.26  30 2.26  29 2.47
  41  0.511  0.644  0.259-  18 2.08  12 2.10  17 2.23  13 2.23  30 2.25
  42  0.647  0.145  0.122-  19 2.04  31 2.08   1 2.25  20 2.26  32 2.26  43 2.75
  43  0.677  0.142  0.284-   2 2.06  20 2.09  32 2.13  42 2.75
  44  0.112  0.645  0.038-   3 2.03  33 2.06  21 2.06
  45  0.164  0.645  0.214-  22 2.09  34 2.09   3 2.12   4 2.25  33 2.36  21 2.36
  46  0.077  0.645  0.382-  34 2.04  22 2.05   8 2.05
  47  0.289  0.148  0.063-   9 2.01   5 2.03  35 2.13  23 2.17
  48  0.336  0.145  0.245-  24 2.05  36 2.08   5 2.13   6 2.25  35 2.36  23 2.36
  49  0.822  0.618  0.156-  26 2.10  25 2.18   7 2.22  37 2.39  50 2.67
  50  0.850  0.649  0.313-  37 2.09   8 2.09  26 2.12  49 2.67
  51  0.817  0.291  0.038-  25 2.03  27 2.06   1 2.08  65 2.70
  52  0.829  0.314  0.215-   2 2.05  27 2.10  25 2.15  28 2.17  26 2.25   1 2.36
  53  0.312  0.814  0.122-  16 2.05  29 2.13  23 2.25   4 2.26  30 2.26   3 2.45
  54  0.350  0.796  0.291-  24 2.01  30 2.09   4 2.10  64 2.78
  55  0.484  0.314  0.153-  19 2.05  17 2.25   6 2.26  32 2.26   5 2.52  31 2.56
  56  0.530  0.274  0.328-  18 2.00  32 2.09   6 2.09  70 2.73
  57  0.001  0.814  0.246-   8 2.06  34 2.06  15 2.20  33 2.36   7 2.36  58 2.75
  58  0.968  0.820  0.084-   7 2.06  33 2.09  14 2.09  57 2.75
  59  0.140  0.323  0.107-   9 2.05  21 2.12  35 2.14  10 2.15
  60  0.174  0.314  0.276-  36 2.07  11 2.11  22 2.15  10 2.36  35 2.36
  61  0.654  0.811  0.196-  13 2.10  12 2.16  37 2.20  20 2.20  62 2.70
  62  0.700  0.782  0.351-  37 2.00  13 2.04  61 2.70  72 2.73
  63  0.312  0.477  0.122-  16 2.04   3 2.19  35 2.25   4 2.26  17 2.26
  64  0.360  0.506  0.299-  36 2.03  18 2.09  17 2.10   4 2.20  54 2.78
  65  0.825  0.009  0.043-  14 2.00   1 2.01  51 2.70
  66  0.829  0.977  0.215-   2 2.02  14 2.10  15 2.14  37 2.25   1 2.36
  67  0.001  0.477  0.246-   8 2.06  22 2.06  28 2.18  21 2.36   7 2.36  68 2.74
  68  0.967  0.467  0.085-   7 2.08  21 2.09  27 2.11  67 2.74
  69  0.484  0.977  0.153-  19 2.05  29 2.09   5 2.13  30 2.25   6 2.26  20 2.26  70 2.76
  70  0.520  0.990  0.314-  20 2.02   6 2.05  56 2.73  69 2.76
  71  0.657  0.477  0.184-  31 2.08  12 2.15  25 2.21  32 2.25  26 2.26  13 2.26
  72  0.694  0.497  0.348-  26 2.03  13 2.04  62 2.73
  73  0.139  0.969  0.108-   9 2.05  33 2.12  10 2.14  23 2.15
  74  0.174  0.977  0.276-  24 2.03  11 2.11  34 2.15  10 2.36  23 2.36

  LATTYP: Found a simple orthorhombic cell.
 ALAT       =     9.5784100000
 B/A-ratio  =     1.7387693453
 C/A-ratio  =     1.7627867312

  Lattice vectors:

 A1 = (   0.0000000000,   9.5784100000,   0.0000000000)
 A2 = (   0.0000000000,   0.0000000000, -16.6546456851)
 A3 = ( -16.8846940542,   0.0000000000,   0.0000000000)

Analysis of symmetry for initial positions (statically):
 Subroutine PRICEL returns:
 Original cell was already a primitive cell.

 Routine SETGRP: Setting up the symmetry group for a
 simple orthorhombic supercell.

 Subroutine GETGRP returns: Found  1 space group operations
 (whereof  1 operations were pure point group operations)
 out of a pool of  8 trial point group operations.

The static configuration has the point symmetry C_1 .

Analysis of symmetry for dynamics (positions and initial velocities):
 Subroutine PRICEL returns:
 Original cell was already a primitive cell.

 Routine SETGRP: Setting up the symmetry group for a
 simple orthorhombic supercell.

 Subroutine GETGRP returns: Found  1 space group operations
 (whereof  1 operations were pure point group operations)
 out of a pool of  8 trial point group operations.

The dynamic configuration has the point symmetry C_1 .

 Subroutine INISYM returns: Found  1 space group operations
 (whereof  1 operations are pure point group operations),
 and found     1 'primitive' translations

 KPOINTS: gamma-point-only calculation. no periodi

Automatic generation of k-mesh.
Space group operators:
 irot       det(A)        alpha          n_x          n_y          n_z        tau_x        tau_y        tau_z
    1     1.000000     0.000000     1.000000     0.000000     0.000000     0.000000     0.000000     0.000000

 Subroutine IBZKPT returns following result:

 Found      1 irreducible k-points:

 Following reciprocal coordinates:
            Coordinates               Weight
  0.000000  0.000000  0.000000      1.000000

 Following cartesian coordinates:
            Coordinates               Weight
  0.000000  0.000000  0.000000      1.000000

 SYSTEM =  "Millerite NiS"
 POSCAR =  Type_037 Type_137

 Startparameter for this run:
   NWRITE =      2    write-flag & timer
   PREC   = normal    normal or accurate (medium, high low for compatibility)
   ISTART =      0    job   : 0-new  1-cont  2-samecut
   ICHARG =      2    charge: 1-file 2-atom 10-const
   ISPIN  =      1    spin polarized calculation?
   LNONCOLLINEAR =      F non collinear calculations
   LSORBIT =      F    spin-orbit coupling
   INIWAV =      1    electr: 0-lowe 1-rand  2-diag
   LASPH  =      F    aspherical Exc in radial PAW
   METAGGA=      F    non-selfconsistent MetaGGA calc.

 Electronic Relaxation 1
   ENCUT  =  450.0 eV  33.07 Ry    5.75 a.u.  29.20 16.57 28.81*2*pi/ulx,y,z
   ENINI  =  450.0     initial cutoff
   ENAUG  =  703.4 eV  augmentation charge cutoff
   NELM   =    100;   NELMIN=  2; NELMDL= -5     # of ELM steps
   EDIFF  = 0.1E-03   stopping-criterion for ELM
   LREAL  =      T    real-space projection
   NLSPLINE    = F    spline interpolate recip. space projectors
   LCOMPAT=      F    compatible to vasp.4.4
   GGA_COMPAT  = T    GGA compatible to vasp.4.4-vasp.4.6
   LMAXPAW     = -100 max onsite density
   LMAXMIX     =    2 max onsite mixed and CHGCAR
   VOSKOWN=      0    Vosko Wilk Nusair interpolation
   ROPT   =   -0.00050  -0.00050
 Ionic relaxation
   EDIFFG = 0.1E-02   stopping-criterion for IOM
   NSW    =      0    number of steps for IOM
   NBLOCK =      1;   KBLOCK =      1    inner block; outer block
   IBRION =     -1    ionic relax: 0-MD 1-quasi-New 2-CG
   NFREE  =      0    steps in history (QN), initial steepest desc. (CG)
   ISIF   =      2    stress and relaxation
   IWAVPR =     10    prediction:  0-non 1-charg 2-wave 3-comb
   ISYM   =      2    0-nonsym 1-usesym 2-fastsym
   LCORR  =      T    Harris-Foulkes like correction to forces

   POTIM  = 0.5000    time-step for ionic-motion
   TEIN   =    0.0    initial temperature
   TEBEG  =    0.0;   TEEND  =   0.0 temperature during run
   SMASS  =  -3.00    Nose mass-parameter (am)
   estimated Nose-frequenzy (Omega)   =  0.10E-29 period in steps =****** mass=  -0.652E-26a.u.
   SCALEE = 1.0000    scale energy and forces
   NPACO  =    256;   APACO  = 16.0  distance and # of slots for P.C.
   PSTRESS=    0.0 pullay stress

  Mass of Ions in am
   POMASS =  58.69 32.07
  Ionic Valenz
   ZVAL   =  16.00  6.00
  Atomic Wigner-Seitz radii
  virtual crystal weights
   VCA    =   1.00  1.00
   NELECT =     814.0000    total number of electrons
   NUPDOWN=      -1.0000    fix difference up-down

 DOS related values:
   EMIN   =  10.00;   EMAX   =-10.00  energy-range for DOS
   EFERMI =   0.00
   ISMEAR =     0;   SIGMA  =   0.20  broadening in eV -4-tet -1-fermi 0-gaus

 Electronic relaxation 2 (details)
   IALGO  =     38    algorithm
   LDIAG  =      T    sub-space diagonalisation (order eigenvalues)
   LSUBROT=      F    optimize rotation matrix (better conditioning)
   TURBO    =      0    0=normal 1=particle mesh
   IRESTART =      0    0=no restart 2=restart with 2 vectors
   NREBOOT  =      0    no. of reboots
   NMIN     =      0    reboot dimension
[...]
     0.000000000  9.578410000  0.000000000     0.000000000  0.104401461  0.000000000
     0.000000000  0.000000000 16.654645685     0.000000000  0.000000000  0.060043307

  length of vectors
    16.884694054  9.578410000 16.654645685     0.059225237  0.104401461  0.060043307

 FORCES acting on ions
    electron-ion (+dipol)            ewald-force                    non-local-force                 convergence-correction
   0.635E+03 0.636E+03 0.205E+04   -.639E+03 -.638E+03 -.206E+04   0.392E+01 0.303E+01 0.477E+01   0.467E-02 -.897E-02 -.922E-02
   0.496E+03 0.163E+03 -.285E+04   -.499E+03 -.165E+03 0.285E+04   0.237E+01 0.201E+01 0.151E+01   0.946E-02 -.105E-01 -.655E-02
   0.142E+03 0.564E+02 0.288E+04   -.142E+03 -.568E+02 -.289E+04   0.135E+01 0.565E+00 0.719E+01   -.997E-02 0.140E-02 0.132E-01
   0.268E+03 -.163E+02 -.133E+04   -.270E+03 0.162E+02 0.134E+04   0.234E+01 -.270E+00 -.513E+01   -.155E-01 0.776E-02 -.231E-01
   -.181E+03 -.294E+03 0.207E+04   0.183E+03 0.294E+03 -.207E+04   -.758E+00 0.911E+00 0.493E+01   0.100E-01 0.143E-02 -.102E-01
   0.827E+02 0.141E+03 -.207E+04   -.862E+02 -.140E+03 0.208E+04   0.257E+01 -.147E+00 -.713E+01   -.122E-01 -.155E-01 -.364E-01
   0.957E+03 -.139E+03 0.143E+04   -.963E+03 0.139E+03 -.143E+04   0.522E+01 -.595E+00 0.424E+01   0.186E-01 0.856E-02 0.653E-03
   0.771E+03 -.328E+02 -.320E+04   -.776E+03 0.328E+02 0.321E+04   0.330E+01 0.190E+00 -.369E+01   0.153E-01 0.434E-02 -.213E-01
   0.507E+03 -.126E+02 0.421E+04   -.511E+03 0.124E+02 -.422E+04   0.343E+01 0.208E+00 0.361E+01   0.663E-02 0.323E-02 0.974E-03
   0.741E+03 0.919E+01 0.310E+03   -.746E+03 -.914E+01 -.308E+03   0.362E+01 -.578E-02 -.721E+00   -.151E-02 -.631E-03 -.261E-01
   0.460E+02 0.598E+01 -.361E+04   -.494E+02 -.574E+01 0.361E+04   0.442E+01 -.337E+00 -.413E-01   -.539E-02 -.450E-02 -.745E-02
   -.574E+03 -.375E+03 0.190E+04   0.576E+03 0.376E+03 -.190E+04   -.108E+01 -.129E+01 0.319E+01   -.100E-01 0.344E-02 -.164E-01
   0.224E+03 -.272E+03 -.236E+04   -.228E+03 0.271E+03 0.237E+04   0.257E+01 0.402E+00 -.724E+01   0.572E-02 0.143E-01 -.118E-01
   0.744E+02 0.533E+03 0.240E+04   -.703E+02 -.537E+03 -.241E+04   -.323E+01 0.422E+01 0.542E+01   0.549E-02 -.166E-01 0.422E-03
   0.275E+03 0.547E+03 -.225E+04   -.275E+03 -.550E+03 0.225E+04   -.864E+00 0.242E+01 -.381E+01   -.387E-02 -.226E-01 -.161E-01
   -.242E+03 0.419E+03 0.394E+04   0.241E+03 -.420E+03 -.395E+04   0.103E+01 0.810E+00 0.561E+01   -.158E-01 -.437E-02 0.173E-01
   -.368E+03 0.427E+03 0.292E+03   0.367E+03 -.431E+03 -.294E+03   0.428E+00 0.343E+01 -.332E+00   -.250E-01 0.128E-01 -.470E-01
   -.278E+03 -.111E+03 -.361E+04   0.279E+03 0.107E+03 0.361E+04   -.122E+01 0.457E+01 0.975E+00   -.709E-02 0.673E-02 -.218E-01
   -.371E+03 0.239E+03 0.344E+04   0.371E+03 -.238E+03 -.345E+04   0.195E+00 -.777E+00 0.559E+01   -.134E-01 0.281E-02 -.832E-02
   -.666E+03 0.774E+03 -.811E+03   0.671E+03 -.780E+03 0.815E+03   -.331E+01 0.559E+01 -.487E+01   -.847E-02 -.407E-02 -.204E-01
   0.278E+03 0.520E+03 0.198E+04   -.279E+03 -.523E+03 -.199E+04   0.116E+01 0.285E+01 0.409E+01   0.817E-02 0.260E-01 0.406E-02
   -.250E+03 0.384E+03 -.279E+04   0.253E+03 -.391E+03 0.279E+04   -.183E+01 0.478E+01 -.344E+01   -.521E-02 0.298E-01 -.203E-01
   -.624E+01 0.563E+03 0.916E+03   0.557E+01 -.567E+03 -.917E+03   0.949E+00 0.271E+01 0.120E+01   0.182E-01 -.181E-01 -.608E-02
   -.331E+03 0.199E+03 -.347E+04   0.331E+03 -.202E+03 0.347E+04   -.329E+00 0.388E+01 0.294E+01   0.944E-02 -.237E-01 -.155E-01
   0.113E+03 -.652E+03 0.250E+04   -.115E+03 0.655E+03 -.251E+04   0.154E+01 -.187E+01 0.783E+01   0.312E-02 0.301E-02 -.102E-01
   -.183E+03 0.130E+03 -.170E+04   0.185E+03 -.133E+03 0.171E+04   -.148E+01 0.265E+01 -.698E+01   0.166E-01 0.817E-02 -.112E-01
   -.320E+03 -.217E+03 0.247E+04   0.326E+03 0.219E+03 -.248E+04   -.522E+01 -.272E+01 0.568E+01   0.531E-02 0.268E-02 -.704E-02
   0.196E+03 -.456E+03 -.228E+04   -.194E+03 0.459E+03 0.228E+04   -.318E+01 -.199E+01 -.400E+01   -.143E-03 0.731E-02 -.108E-01
   -.616E+03 -.205E+03 0.383E+04   0.614E+03 0.205E+03 -.383E+04   0.207E+01 0.244E-01 -.165E+01   -.300E-02 0.716E-02 0.126E-01
   -.686E+03 -.349E+03 -.590E+03   0.687E+03 0.351E+03 0.595E+03   -.247E+00 -.290E+01 -.429E+01   -.173E-01 0.269E-03 -.872E-02
   -.123E+03 -.481E+03 0.343E+04   0.125E+03 0.479E+03 -.343E+04   -.196E+01 0.269E+01 -.942E+00   -.131E-01 -.780E-02 -.142E-01
   -.498E+03 -.236E+03 -.119E+04   0.501E+03 0.240E+03 0.119E+04   -.202E+01 -.405E+01 -.432E+01   -.304E-02 -.891E-02 -.335E-01
   0.240E+03 -.549E+03 0.199E+04   -.241E+03 0.553E+03 -.200E+04   0.771E+00 -.276E+01 0.428E+01   -.144E-02 -.228E-01 0.352E-02
   -.251E+03 -.404E+03 -.277E+04   0.254E+03 0.410E+03 0.278E+04   -.178E+01 -.477E+01 -.385E+01   -.486E-02 -.270E-01 -.204E-01
   -.212E+03 -.580E+03 0.105E+04   0.212E+03 0.584E+03 -.105E+04   0.664E+00 -.342E+01 0.722E+00   0.119E-01 0.185E-01 -.204E-01
   -.176E+03 -.129E+03 -.322E+04   0.177E+03 0.132E+03 0.322E+04   -.944E+00 -.323E+01 0.169E+01   -.762E-02 0.103E-01 -.266E-01
   -.116E+03 -.572E+03 -.107E+04   0.119E+03 0.577E+03 0.107E+04   -.226E+01 -.476E+01 -.135E+01   0.148E-01 0.416E-02 -.760E-02
   0.142E+03 0.852E+01 -.162E+04   -.141E+03 -.855E+01 0.163E+04   -.104E+01 0.653E-01 -.166E+01   -.155E-01 -.452E-02 -.118E-02
   -.143E+03 0.128E+02 0.336E+03   0.145E+03 -.130E+02 -.340E+03   0.161E+00 0.270E+00 0.151E+01   -.647E-02 -.690E-02 -.569E-02
   -.424E+03 0.104E+03 0.130E+04   0.427E+03 -.107E+03 -.130E+04   -.227E+01 0.286E+01 0.257E+01   -.373E-02 -.122E-02 0.341E-02
   -.119E+03 -.254E+03 -.898E+03   0.118E+03 0.257E+03 0.904E+03   0.108E+01 -.139E+01 -.386E+01   -.410E-02 0.154E-01 -.169E-01
   -.288E+03 0.357E+03 0.907E+03   0.290E+03 -.359E+03 -.910E+03   -.453E+00 0.144E+01 0.175E+01   -.654E-02 0.128E-02 -.782E-02
   -.900E+02 0.903E+02 -.111E+04   0.915E+02 -.903E+02 0.112E+04   -.694E+00 0.221E+00 -.205E+01   0.260E-02 -.286E-02 -.266E-02
   0.155E+03 -.274E+02 0.176E+04   -.155E+03 0.275E+02 -.176E+04   0.374E+00 -.346E-01 0.181E+01   0.316E-02 -.841E-04 0.101E-01
   -.115E+03 -.254E+02 -.293E+03   0.116E+03 0.254E+02 0.295E+03   0.659E+00 0.132E+00 -.296E+01   -.945E-03 -.841E-03 -.598E-02
   -.564E+02 -.245E+01 -.178E+04   0.568E+02 0.247E+01 0.179E+04   0.788E-01 -.122E-01 -.779E+00   -.456E-03 -.616E-03 -.117E-01
   -.203E+03 -.955E+02 0.159E+04   0.204E+03 0.964E+02 -.159E+04   -.296E+00 -.768E+00 0.271E+01   0.148E-01 0.165E-02 0.437E-02
   -.161E+03 -.150E+02 -.739E+03   0.162E+03 0.151E+02 0.745E+03   0.193E+00 0.362E+00 -.460E+01   0.575E-02 -.753E-02 -.139E-01
   0.617E+02 -.296E+03 0.736E+03   -.628E+02 0.298E+03 -.740E+03   0.147E+01 -.629E+00 0.194E+01   0.982E-02 0.345E-02 -.290E-02
   0.226E+02 -.397E+02 -.122E+04   -.211E+02 0.402E+02 0.123E+04   -.681E+00 -.506E+00 -.251E+01   0.100E-01 0.275E-02 -.365E-02
   0.403E+02 -.706E+02 0.173E+04   -.400E+02 0.723E+02 -.174E+04   -.520E+00 -.153E+01 0.249E+01   0.932E-03 -.179E-03 -.115E-02
   0.101E+03 -.137E+03 -.362E+03   -.101E+03 0.137E+03 0.366E+03   -.986E+00 0.136E+01 -.193E+01   0.307E-02 0.499E-03 -.409E-02
   0.210E+03 -.176E+03 0.746E+03   -.212E+03 0.178E+03 -.747E+03   0.937E+00 -.101E+01 0.267E+00   -.310E-02 -.627E-02 0.480E-02
   -.151E+03 0.157E+02 -.132E+04   0.152E+03 -.148E+02 0.133E+04   -.824E+00 -.535E+00 -.260E+01   -.406E-02 -.229E-02 -.117E-01
   0.752E+02 -.252E+03 0.597E+03   -.773E+02 0.254E+03 -.598E+03   0.119E+01 -.117E+01 0.501E+00   -.427E-02 -.462E-02 -.130E-01
   -.158E+03 0.103E+03 -.155E+04   0.159E+03 -.101E+03 0.156E+04   -.711E+00 -.224E+01 -.214E+01   0.479E-02 -.176E-01 -.298E-02
   0.234E+03 -.185E+03 -.433E+03   -.236E+03 0.188E+03 0.434E+03   0.939E-01 -.688E+00 -.894E+00   0.545E-03 -.752E-02 -.541E-02
   0.268E+03 -.533E+02 0.134E+04   -.270E+03 0.528E+02 -.135E+04   0.835E+00 0.123E+01 0.407E+01   0.225E-02 -.339E-02 0.654E-02
   0.225E+03 -.181E+03 0.103E+04   -.226E+03 0.181E+03 -.103E+04   -.113E+00 -.173E+00 0.937E+00   0.429E-03 0.171E-01 0.284E-02
   0.418E+02 -.119E+03 -.905E+03   -.421E+02 0.120E+03 0.907E+03   0.681E-01 -.132E+01 -.854E+00   -.883E-03 0.202E-01 -.116E-01
   -.140E+03 -.209E+03 0.319E+03   0.139E+03 0.211E+03 -.322E+03   0.416E+00 -.853E-02 0.233E+01   -.427E-03 0.128E-02 -.491E-02
   0.548E+02 -.260E+03 -.154E+04   -.553E+02 0.264E+03 0.154E+04   0.555E-01 -.257E+01 -.154E+01   0.245E-02 0.247E-02 -.228E-03
   -.483E+02 0.323E+03 0.867E+03   0.487E+02 -.325E+03 -.870E+03   -.120E+01 0.828E+00 0.267E+01   -.412E-02 0.561E-02 0.134E-02
   0.707E+02 -.122E+03 -.133E+04   -.724E+02 0.121E+03 0.133E+04   0.602E+00 0.111E+01 -.206E+01   -.160E-01 0.148E-01 -.163E-01
   0.214E+03 0.347E+03 0.154E+04   -.215E+03 -.351E+03 -.155E+04   0.359E+00 0.209E+01 0.138E+01   0.474E-02 -.247E-02 0.265E-02
   0.275E+03 0.327E+03 -.135E+03   -.278E+03 -.329E+03 0.136E+03   0.114E+01 -.161E+00 -.238E+00   0.835E-02 -.289E-02 -.463E-02
   0.208E+03 0.169E+03 -.449E+03   -.209E+03 -.172E+03 0.449E+03   -.112E-01 0.491E+00 -.728E+00   0.601E-02 0.133E-01 -.401E-02
   0.175E+03 0.249E+02 0.134E+04   -.177E+03 -.247E+02 -.135E+04   0.990E+00 -.967E+00 0.433E+01   0.459E-02 0.825E-02 0.375E-02
   -.318E+03 0.252E+03 0.374E+03   0.318E+03 -.255E+03 -.374E+03   -.963E+00 0.155E+01 0.211E+00   -.556E-02 0.412E-02 -.516E-02
   -.422E+02 0.273E+03 -.146E+04   0.415E+02 -.277E+03 0.146E+04   -.441E-01 0.158E+01 -.789E+00   -.401E-02 -.237E-02 -.461E-02
   -.478E+02 -.119E+03 0.169E+03   0.455E+02 0.117E+03 -.168E+03   0.182E+01 0.767E+00 -.100E+01   -.124E-02 -.608E-03 -.104E-01
   0.206E+02 0.209E+03 -.157E+04   -.217E+02 -.213E+03 0.157E+04   0.528E+00 0.226E+01 -.307E+00   0.421E-02 0.138E-02 0.733E-03
   0.240E+03 0.204E+03 0.102E+04   -.241E+03 -.205E+03 -.102E+04   0.868E-01 0.141E+00 0.960E+00   -.342E-02 -.169E-01 0.282E-02
   0.535E+02 0.139E+03 -.891E+03   -.540E+02 -.140E+03 0.892E+03   -.225E+00 0.125E+01 -.457E+00   0.551E-02 -.203E-01 -.868E-02
   -.144E+02 -.163E+02 -.965E+01   0.838E-12 -.909E-12 0.159E-11   0.143E+02 0.163E+02 0.102E+02   -.112E-01 -.103E-01 -.580E+00

 POSITION                                       TOTAL-FORCE (eV/Angst)
     13.17084      1.39171      2.05636        -0.155698      0.294800      1.589986
     13.50047      1.37554      4.71072        -0.056052      0.358563      1.026194
      3.64478      5.99244      1.64522         0.963091      0.207118     -0.309911
      5.02033      6.18092      3.59863        -0.337008     -0.364487     -0.144196
      6.55609      1.11644      2.16198         0.335074      0.398465     -0.424732
      7.93172      1.39171      4.11272        -0.908318      0.697617     -0.901932
     16.08224      6.18092      2.57045        -0.324493     -0.400448      2.151892
     16.44026      6.18265      5.27974        -1.536112      0.148087      0.506912
      2.88637      1.39168      0.77001        -0.840098      0.020437     -1.838282
      2.10894      1.39171      3.08454        -0.889571      0.034708      0.546848
      1.85313      1.39171      5.43857         0.961849     -0.097641      0.983110
      9.76035      6.18367      2.54497         0.800003     -0.187019     -0.962304
     10.84312      6.18092      4.62682        -1.207836     -0.083510     -0.488177
     15.41899      0.04383      2.04914         0.861753      0.469408      0.035764
     15.90150      0.11951      4.50383        -0.633027     -0.786367      0.212538
      6.04223      6.17137      1.04147        -0.375721      0.027482     -1.590322
      7.17375      4.91558      3.19116         0.214167     -0.298941     -1.992416
      8.10058      4.42286      5.31996        -0.298054      0.852571      0.981598
      8.94249      1.39302      1.53171        -0.280320     -0.202946     -1.799058
     10.08514      0.12638      3.70525         1.147300     -0.468801     -1.603536
      1.35096      4.91558      2.16298        -0.068587     -0.446178      1.357747
      1.89149      4.85007      4.91842         1.278193     -1.308723      0.399392
      4.26235      0.12638      2.67707         0.305961     -0.608035      0.387243
      4.91336      9.35419      5.08465         0.212117      0.057472      0.810096
     12.95160      4.03271      2.00590        -0.833143      0.767202      0.036432
     12.99653      4.91558      4.21934         1.086005     -0.467433     -0.592906
     15.34782      2.70563      1.98712         1.236681     -0.430357      0.082591
     15.92980      2.66110      4.49351        -0.921462      1.043958     -0.021668
      7.05816      8.41219      1.05965         0.065196      0.162123     -0.855808
      7.17375      7.44626      3.19116         0.726124     -0.500607      0.334246
     10.47768      3.35561      1.48779        -0.185790      0.609536     -0.843907
     10.08514      2.65705      3.70525         0.390413      0.046709     -0.387225
      1.35096      7.44626      2.16298         0.200036      0.403150      1.637580
      1.88755      7.50815      4.92255         1.138802      1.250931      0.478244
      4.26235      2.65705      2.67707         0.663167      0.649983      0.510316
      4.97469      3.14149      4.95472        -0.143497     -0.335937      0.933008
     12.99653      7.44626      4.21934         1.042453      0.417996     -2.962703
     16.76469      1.38675      5.88805        -0.066108      0.030139      3.085595
     16.74052      1.39171      3.05601         2.155223      0.063778     -2.039090
      8.00634      6.18092      1.51374         1.232916      0.443919     -2.772519
      8.63291      6.16419      4.31818         0.071239      0.875291      2.095142
     10.91773      1.39171      2.02783         1.804648     -0.861828     -1.807867
     11.43703      1.35767      4.72431         0.743247      0.150997      2.681262
      1.89400      6.18204      0.63471         0.136333      0.083750     -3.829114
      2.76722      6.18092      3.57010         1.509582      0.083550     -0.527323
      1.29973      6.17686      6.35800         0.525796      0.007499      4.159433
      4.88047      1.42195      1.05064         1.521171      0.111713     -2.948263
      5.67861      1.39171      4.08419         0.762232      0.495947      1.253815
     13.87754      5.91900      2.60447         0.386764      1.598841     -1.681952
     14.34878      6.21215      5.21967         0.789782     -0.028089      2.460038
     13.78706      2.78590      0.63959        -0.170627      0.210883     -3.835041
     13.99844      3.00295      3.57488        -0.690521      0.841795      1.808623
      5.26426      7.79215      2.03261        -1.475666      1.312430     -0.771749
      5.90961      7.61998      4.84211         0.067011      0.387053      2.469929
      8.17565      3.00295      2.54670        -0.843477      1.266663     -0.387387
      8.95166      2.62103      5.45530         0.333797     -0.225781      2.824445
      0.02514      7.79215      4.08897        -1.091389      1.795506     -0.612842
     16.33920      7.85752      1.39716        -0.923216      0.718928     -2.947032
      2.36736      3.09229      1.78756        -0.900693      0.576068     -1.339724
      2.93654      3.00295      4.60306        -0.294110      0.169784      0.879142
     11.04158      7.76761      3.26714         0.216107      1.755625     -1.468219
     11.82063      7.49330      5.83767        -0.522171      1.075990      3.783337
      5.26426      4.56969      2.03261        -0.863328     -1.934271      0.041639
      6.08560      4.84526      4.98757        -1.148355     -0.348207      2.155024
     13.92147      0.08657      0.71825        -0.821143     -1.640826     -3.517397
     13.99844      9.35889      3.57488        -1.201200     -2.153364      0.829055
      0.02514      4.56969      4.08897        -1.058643     -1.658805     -0.539504
     16.33311      4.47518      1.40852        -0.450816     -0.727172     -2.810195
      8.17565      9.35889      2.54670        -0.134195     -1.816107     -0.183926
      8.78344      9.48519      5.23537        -0.696088     -1.645233      3.418806
     11.08705      4.56969      3.06079        -0.485653     -0.826117     -0.632881
     11.72501      4.76161      5.78912        -0.558939     -1.319713      3.821063
      2.35457      9.27987      1.79326        -0.798957     -0.759685     -1.244658
      2.93654      9.35889      4.60306        -0.694154     -0.041838      0.847679
    total drift:                               -0.120140      0.028497     -0.021095

  FREE ENERGIE OF THE ION-ELECTRON SYSTEM (eV)
  free  energy   TOTEN  =      -351.31436925 eV

  energy  without entropy=     -350.20578073  energy(sigma->0) =     -350.76007499