 vasp.5.4.4.18Apr17-6-g9f103f2a35 (build Aug 13 2019 17:33:20) gamma-only

 executed on             LinuxIFC date 2020.05.10  22:55:34

 INCAR:
 POTCAR:    PAW_PBE Ni_pv 06Sep2000
 POTCAR:    PAW_PBE S 06Sep2000
 POTCAR:    PAW_PBE Ni_pv 06Sep2000
   VRHFIN =Ni:

   TITEL  = PAW_PBE Ni_pv 06Sep2000
   POMASS =   58.690; ZVAL   =   16.000    mass and valenz
   ENMAX  =  367.986; ENMIN  =  275.989 eV

 POTCAR:    PAW_PBE S 06Sep2000
   VRHFIN =S : s2p4

   TITEL  = PAW_PBE S 06Sep2000
   POMASS =   32.066; ZVAL   =    6.000    mass and valenz
   ENMAX  =  258.689; ENMIN  =  194.016 eV

 Optimization of the real space projectors (new method)

 maximal supplied QI-value         = 18.90
 optimisation between [QCUT,QGAM] = [ 10.77, 21.73] = [ 32.49,132.25] Ry
 Optimized for a Real-space Cutoff    1.38 Angstroem

   l    n(q)    QCUT    max X(q) W(low)/X(q) W(high)/X(q)  e(spline)
   1      8    10.771     2.836    0.40E-04    0.29E-04    0.12E-06
   1      8    10.771     4.023    0.10E-03    0.48E-04    0.29E-06
   2      8    10.771    73.368    0.42E-03    0.97E-04    0.44E-06
   2      8    10.771    69.010    0.42E-03    0.99E-04    0.45E-06
   0      9    10.771    54.797    0.10E-03    0.56E-04    0.74E-07
   0      9    10.771    24.266    0.89E-04    0.49E-04    0.67E-07
 Optimization of the real space projectors (new method)

 maximal supplied QI-value         = 19.84
 optimisation between [QCUT,QGAM] = [ 10.71, 21.63] = [ 32.15,130.99] Ry
 Optimized for a Real-space Cutoff    1.19 Angstroem

   l    n(q)    QCUT    max X(q) W(low)/X(q) W(high)/X(q)  e(spline)
   0      8    10.715   187.594    0.41E-03    0.53E-04    0.66E-07
   0      8    10.715   164.243    0.41E-03    0.53E-04    0.65E-07
   1      7    10.715    67.533    0.19E-03    0.59E-03    0.68E-07
   1      7    10.715    50.729    0.19E-03    0.58E-03    0.67E-07
  PAW_PBE Ni_pv 06Sep2000               :
  PAW_PBE S 06Sep2000                   :

 POSCAR: Type_052 Type_152
  positions in cartesian coordinates
 exchange correlation table for  LEXCH =        8
   RHO(1)=    0.500       N(1)  =     2000
   RHO(2)=  100.500       N(2)  =     4000

 ion  position               nearest neighbor table
   1  0.261  0.479  0.291-  79 2.25  63 2.26  87 2.26  59 2.36  64 2.36   9 2.53  25 2.53
   2  0.355  0.385  0.419-  57 2.16  80 2.21  71 2.23  59 2.26  64 2.26  65 2.35   3 2.48  10 2.53
                            26 2.53
   3  0.463  0.288  0.513-  65 2.02  71 2.03  57 2.04   2 2.48
   4  0.040  0.215  0.090-  68 1.98  69 2.12  60 2.14   5 2.30  88 2.35  33 2.42
   5  0.167  0.073  0.162-  69 2.25  60 2.26  88 2.26   4 2.30  61 2.36  89 2.36  39 2.53  34 2.53

   6  0.081  0.044  0.480-  54 2.06  83 2.07  84 2.10  78 2.11  24 2.54
   7  0.177  0.329  0.037-  62 2.12  60 2.13  55 2.21   8 2.36  52 2.50
   8  0.274  0.333  0.128-  55 2.09  62 2.20  60 2.25   7 2.36  56 2.36  63 2.36  13 2.53  31 2.53

[...]

  14  0.417  0.141  0.052-  60 2.05 101 2.10  55 2.11  18 2.41
  15  0.761  0.479  0.291-  92 2.25  76 2.26 100 2.26  72 2.36  77 2.36  23 2.53  11 2.53
  16  0.855  0.385  0.419-  70 2.16  93 2.21  58 2.23  72 2.26  77 2.26  78 2.35  17 2.48  24 2.53
                            12 2.53
  17  0.963  0.288  0.513-  78 2.02  58 2.03  70 2.04  16 2.48
  18  0.548  0.243  0.091-  55 2.10  56 2.10  73 2.11  19 2.40  14 2.41  13 2.44 101 2.61
  19  0.667  0.073  0.162- 101 2.10  73 2.11  56 2.25  74 2.36 102 2.36  18 2.40  51 2.53  46 2.53

[...]

  37  0.000  0.872  0.257-  89 2.25  95 2.26  74 2.26  79 2.36  98 2.36  40 2.53  47 2.53
  38  0.094  0.778  0.385-  84 2.08  80 2.12  90 2.25  79 2.26  98 2.26  48 2.53  41 2.53
  39  0.406  0.965  0.128- 101 2.20  81 2.26  60 2.26  82 2.36  61 2.36   5 2.53  34 2.53
  40  0.761  0.979  0.291-  66 2.25 102 2.26  74 2.26  98 2.36 103 2.36  47 2.53  37 2.53
  41  0.855  0.885  0.419-  96 2.16  67 2.21  84 2.23  98 2.26 103 2.26 104 2.35  42 2.48  48 2.53
                            38 2.53
  42  0.963  0.788  0.513- 104 2.02  84 2.03  96 2.04  41 2.48
  43  0.526  0.702  0.091-  81 1.98  82 2.10  75 2.16  44 2.29  99 2.33  21 2.41
  44  0.667  0.573  0.162-  82 2.25  99 2.26  75 2.26  43 2.29 100 2.36  76 2.36  27 2.53  22 2.53

[...]

  49  0.500  0.872  0.257- 102 2.25  82 2.26  61 2.26  92 2.36  85 2.36  28 2.53  35 2.53
  50  0.594  0.778  0.385-  97 2.08  93 2.12 103 2.25  92 2.26  85 2.26  36 2.53  29 2.53
  51  0.906  0.965  0.128-  94 1.99  73 2.14  88 2.25  95 2.36  74 2.36  19 2.53  46 2.53
  52  0.942  0.505  0.032-  68 2.10  62 2.11  27 2.31  21 2.47   7 2.50  99 2.51
  53  0.073  0.167  0.306-  28 2.25  12 2.26  24 2.26  11 2.36  23 2.36  54 2.57
  54  0.173  0.074  0.407-   6 2.06  12 2.12  24 2.20  29 2.21  53 2.57  83 2.68
  55  0.363  0.347  0.050-   8 2.09  18 2.10  14 2.11   7 2.21  13 2.41
  56  0.479  0.261  0.178-  18 2.10  19 2.25   9 2.26  25 2.26   8 2.36  13 2.36
  57  0.277  0.442  0.506-   3 2.04  32 2.07   2 2.16  80 2.68  65 2.70
  58  0.032  0.389  0.461-  17 2.03  12 2.08  32 2.10  16 2.23  72 2.76
  59  0.436  0.472  0.350-  36 2.25   2 2.26  26 2.26   1 2.36  25 2.36  71 2.76
  60  0.248  0.160  0.093-  14 2.05  33 2.06   7 2.13   4 2.14   8 2.25   5 2.26  39 2.26
  61  0.342  0.066  0.221-   9 2.25  28 2.26  49 2.26   5 2.36  39 2.36
  62  0.081  0.486  0.098-  52 2.11   7 2.12  27 2.19   8 2.20  31 2.22
  63  0.174  0.397  0.221-  11 2.25   9 2.26   1 2.26   8 2.36  31 2.36
  64  0.268  0.303  0.350-  12 2.25   2 2.26  10 2.26   1 2.36   9 2.36
  65  0.384  0.189  0.467-   3 2.02  10 2.04  20 2.11   2 2.35  57 2.70
  66  0.573  0.167  0.306-  40 2.25  26 2.26  10 2.26  25 2.36   9 2.36  67 2.57
  67  0.673  0.074  0.407-  20 2.06  26 2.12  10 2.20  41 2.21  66 2.57  96 2.68
  68  0.885  0.355  0.050-   4 1.98  21 2.01  52 2.10  27 2.26  22 2.26
  69  0.979  0.261  0.178-   4 2.12   5 2.25  23 2.26  11 2.26  22 2.36  27 2.36
  70  0.777  0.442  0.506-  17 2.04  45 2.07  16 2.16  93 2.68  78 2.70
  71  0.532  0.389  0.461-   3 2.03  26 2.08  45 2.10   2 2.23  59 2.76
  72  0.936  0.472  0.350-  48 2.25  16 2.26  12 2.26  15 2.36  11 2.36  58 2.76
  73  0.755  0.159  0.106-  18 2.11  19 2.11  22 2.13  51 2.14
  74  0.842  0.066  0.221-  23 2.25  40 2.26  37 2.26  19 2.36  51 2.36
  75  0.580  0.491  0.093-  21 2.05  43 2.16  13 2.25  22 2.26  44 2.26
  76  0.674  0.397  0.221-  25 2.25  23 2.26  15 2.26  22 2.36  44 2.36
  77  0.768  0.303  0.350-  26 2.25  16 2.26  24 2.26  15 2.36  23 2.36
  78  0.884  0.189  0.467-  17 2.02  24 2.04   6 2.11  16 2.35  70 2.70
  79  0.073  0.667  0.306-   1 2.25  38 2.26  48 2.26  37 2.36  47 2.36  80 2.57
  80  0.173  0.574  0.407-  32 2.06  38 2.12  48 2.19   2 2.21  79 2.57  57 2.68
  81  0.385  0.855  0.050-  43 1.98  33 1.99  39 2.26  34 2.26
  82  0.479  0.761  0.178-  43 2.10  44 2.25  35 2.26  49 2.26  34 2.36  39 2.36
  83  0.277  0.942  0.506-  30 2.04   6 2.07  29 2.16  54 2.68  91 2.70
  84  0.032  0.889  0.461-  42 2.03  38 2.08   6 2.10  41 2.23  98 2.76
  85  0.436  0.972  0.350-  10 2.25  29 2.26  50 2.26  28 2.36  49 2.36  97 2.76
  86  0.261  0.656  0.111-  31 2.07  13 2.07  34 2.10  87 2.72
  87  0.342  0.566  0.221-  35 2.25   1 2.26  25 2.26  31 2.36  13 2.36  86 2.72
  88  0.080  0.991  0.093-  33 2.04  51 2.25  34 2.26   5 2.26   4 2.35
  89  0.174  0.897  0.221-  37 2.25  35 2.26  28 2.26  34 2.36   5 2.36
  90  0.268  0.803  0.350-  38 2.25  29 2.26  36 2.26  28 2.36  35 2.36
  91  0.384  0.689  0.467-  30 2.02  36 2.04  45 2.11  29 2.35  83 2.70
  92  0.573  0.667  0.306-  15 2.25  50 2.26  36 2.26  49 2.36  35 2.36  93 2.57
  93  0.673  0.574  0.407-  45 2.06  50 2.12  36 2.20  16 2.21  92 2.57  70 2.68
  94  0.862  0.877  0.063-  46 1.98  51 1.99
  95  0.979  0.761  0.178-  31 2.25  47 2.26  37 2.26  46 2.36  51 2.36
  96  0.777  0.942  0.506-  42 2.04  20 2.07  41 2.16  67 2.68 104 2.70
  97  0.532  0.889  0.461-  30 2.03  50 2.08  20 2.10  29 2.23  85 2.76
  98  0.936  0.972  0.350-  24 2.25  41 2.26  38 2.26  40 2.36  37 2.36  84 2.76
  99  0.748  0.660  0.093-  21 2.04  46 2.25  44 2.26  27 2.26  43 2.33  52 2.51
 100  0.842  0.566  0.221-  47 2.25  15 2.26  11 2.26  44 2.36  27 2.36
 101  0.575  0.001  0.102-  19 2.10  14 2.10  39 2.20  46 2.27  18 2.61
 102  0.674  0.897  0.221-  49 2.25  47 2.26  40 2.26  46 2.36  19 2.36
 103  0.768  0.803  0.350-  50 2.25  41 2.26  48 2.26  40 2.36  47 2.36
 104  0.884  0.689  0.467-  42 2.02  48 2.04  32 2.11  41 2.35  96 2.70

  LATTYP: Found a base centered orthorhombic cell.
 ALAT       =    11.8257374459
 B/A-ratio  =     1.6199260857
 C/A-ratio  =     1.9350716598

  Lattice vectors:

 A1 = (  11.2564630382,   0.0000000000,   0.0000000000)
 A2 = (  -5.0445621212, -10.0628203371,   0.0000000000)
 A3 = (   0.0000000000,   0.0000000000, -22.8836493875)

Analysis of symmetry for initial positions (statically):
 Subroutine PRICEL returns:
 Original cell was already a primitive cell.

 Routine SETGRP: Setting up the symmetry group for a
 base centered orthorhombic supercell.

 Subroutine GETGRP returns: Found  1 space group operations
 (whereof  1 operations were pure point group operations)
 out of a pool of  8 trial point group operations.

The static configuration has the point symmetry C_1 .

Analysis of symmetry for dynamics (positions and initial velocities):
 Subroutine PRICEL returns:
 Original cell was already a primitive cell.

 Routine SETGRP: Setting up the symmetry group for a
 base centered orthorhombic supercell.

 Subroutine GETGRP returns: Found  1 space group operations
 (whereof  1 operations were pure point group operations)
 out of a pool of  8 trial point group operations.

The dynamic configuration has the point symmetry C_1 .

 Subroutine INISYM returns: Found  1 space group operations
 (whereof  1 operations are pure point group operations),
 and found     1 'primitive' translations

 KPOINTS: gamma-point-only calculation. no periodi

Automatic generation of k-mesh.
Space group operators:
 irot       det(A)        alpha          n_x          n_y          n_z        tau_x        tau_y        tau_z
    1     1.000000     0.000001     1.000000     0.000000     0.000000     0.000000     0.000000     0.000000

 Subroutine IBZKPT returns following result:

 Found      1 irreducible k-points:

 Following reciprocal coordinates:
            Coordinates               Weight
  0.000000  0.000000  0.000000      1.000000

 Following cartesian coordinates:
            Coordinates               Weight
  0.000000  0.000000  0.000000      1.000000

 SYSTEM =  "Millerite NiS"
 POSCAR =  Type_052 Type_152

 Startparameter for this run:
   NWRITE =      2    write-flag & timer
   PREC   = normal    normal or accurate (medium, high low for compatibility)
   ISTART =      0    job   : 0-new  1-cont  2-samecut
   ICHARG =      2    charge: 1-file 2-atom 10-const
   ISPIN  =      1    spin polarized calculation?
   LNONCOLLINEAR =      F non collinear calculations
   LSORBIT =      F    spin-orbit coupling
   INIWAV =      1    electr: 0-lowe 1-rand  2-diag
   LASPH  =      F    aspherical Exc in radial PAW
   METAGGA=      F    non-selfconsistent MetaGGA calc.

 Electronic Relaxation 1
[...]
     0.000000000  0.000000000 22.883649388     0.000000000  0.000000000  0.043699324

  length of vectors
    11.256463038 11.256463038 22.883649388     0.099375718  0.099375718  0.043699324

 FORCES acting on ions
    electron-ion (+dipol)            ewald-force                    non-local-force                 convergence-correction
   0.234E+03 -.446E+03 -.571E+03   -.235E+03 0.446E+03 0.570E+03   0.440E+00 -.394E+00 0.946E+00   -.561E-02 -.579E-01 0.100E+00
   0.270E+03 -.428E+03 -.368E+04   -.270E+03 0.429E+03 0.368E+04   0.915E+00 -.445E+00 0.153E+01   -.115E-01 0.127E-01 -.124E+00
   -.216E+03 0.599E+01 -.627E+04   0.220E+03 -.106E+02 0.627E+04   -.371E+01 0.359E+01 -.681E+00   -.537E-02 0.898E-02 -.423E-01
   0.640E+03 0.216E+03 0.488E+04   -.640E+03 -.219E+03 -.488E+04   0.798E+00 0.237E+01 0.387E+01   0.886E-02 0.403E-01 0.111E+00
   0.355E+03 0.437E+02 0.209E+04   -.356E+03 -.460E+02 -.209E+04   0.105E+01 0.136E+01 -.449E+01   0.684E-01 -.109E-01 0.199E+00
   -.343E+02 0.283E+03 -.554E+04   0.341E+02 -.282E+03 0.555E+04   -.487E+00 -.106E+01 -.318E+01   0.744E-02 -.289E-01 -.842E-01
   -.159E+03 -.395E+03 0.634E+04   0.157E+03 0.399E+03 -.634E+04   0.184E+01 -.473E+01 0.209E+01   0.486E-01 -.906E-02 0.116E-01
   0.223E+02 -.154E+03 0.321E+04   -.227E+02 0.156E+03 -.320E+04   0.522E+00 -.196E+01 -.319E+01   -.133E-01 -.224E-01 0.170E+00
   0.220E+03 0.425E+03 0.355E+03   -.222E+03 -.426E+03 -.356E+03   0.198E+01 0.332E+00 0.360E+00   0.368E-03 0.111E-01 0.151E+00
   0.357E+03 0.366E+03 -.255E+04   -.359E+03 -.368E+03 0.254E+04   0.294E+01 0.118E+01 0.178E+01   -.576E-02 0.606E-02 -.782E-01
   -.516E+03 -.824E+02 0.349E+03   0.517E+03 0.835E+02 -.350E+03   -.133E+01 -.102E+01 0.609E+00   -.259E-01 0.292E-01 0.135E+00
   -.605E+03 0.162E+02 -.277E+04   0.610E+03 -.151E+02 0.277E+04   -.401E+01 -.584E+00 -.129E+01   0.116E-01 0.110E-01 -.702E-01
   -.347E+03 -.528E+03 0.399E+04   0.348E+03 0.529E+03 -.399E+04   -.571E+00 -.207E+01 0.175E+01   0.985E-02 0.150E-01 0.162E+00
   -.561E+03 0.559E+03 0.609E+04   0.567E+03 -.559E+03 -.609E+04   -.594E+01 -.149E+01 0.166E+01   -.433E-01 -.406E-01 0.253E-01
   0.233E+03 -.401E+03 -.623E+03   -.233E+03 0.401E+03 0.622E+03   0.416E+00 -.567E+00 0.122E+01   -.465E-03 0.475E-02 0.805E-01
   0.272E+03 -.423E+03 -.368E+04   -.272E+03 0.424E+03 0.368E+04   0.808E+00 -.425E+00 0.145E+01   -.243E-01 0.402E-01 -.125E+00
   -.214E+03 0.685E+01 -.627E+04   0.218E+03 -.114E+02 0.627E+04   -.372E+01 0.350E+01 -.689E+00   -.622E-02 0.125E-01 -.356E-01
   -.689E+03 0.852E+01 0.524E+04   0.692E+03 -.974E+01 -.524E+04   -.279E+01 0.744E+00 0.364E+01   -.221E-01 0.206E-01 0.902E-01
   -.370E+02 0.419E+02 0.257E+04   0.363E+02 -.424E+02 -.257E+04   0.956E+00 -.325E+00 -.106E+01   -.724E-01 0.399E-01 0.260E+00
   -.408E+02 0.282E+03 -.555E+04   0.407E+02 -.281E+03 0.555E+04   -.483E+00 -.110E+01 -.329E+01   -.982E-02 -.261E-01 -.104E+00
   0.528E+03 -.163E+03 0.639E+04   -.530E+03 0.165E+03 -.639E+04   0.118E+01 -.143E+01 0.553E+01   -.198E-01 -.184E-01 0.415E-01
   0.558E+03 0.603E+03 0.372E+04   -.561E+03 -.606E+03 -.372E+04   0.378E+01 0.266E+01 -.134E+01   0.558E-02 0.687E-01 0.186E+00
   0.302E+03 0.500E+03 0.407E+03   -.304E+03 -.501E+03 -.407E+03   0.185E+01 0.276E+00 0.563E+00   -.262E-02 0.665E-01 0.158E+00
   0.374E+03 0.375E+03 -.254E+04   -.377E+03 -.376E+03 0.253E+04   0.280E+01 0.129E+01 0.181E+01   -.867E-02 0.176E-01 -.594E-01
   -.514E+03 -.579E+02 0.415E+03   0.515E+03 0.589E+02 -.416E+03   -.115E+01 -.906E+00 0.487E+00   -.184E-01 -.156E-01 0.152E+00
   -.609E+03 0.233E+02 -.276E+04   0.614E+03 -.222E+02 0.276E+04   -.390E+01 -.629E+00 -.124E+01   -.836E-02 0.579E-02 -.724E-01
   -.477E+03 -.420E+03 0.312E+04   0.480E+03 0.421E+03 -.312E+04   -.285E+01 -.195E+01 -.260E+01   -.353E-01 0.900E-02 0.232E+00
   0.263E+03 -.339E+03 -.618E+03   -.264E+03 0.339E+03 0.617E+03   0.448E+00 -.609E+00 0.132E+01   0.299E-01 0.335E-01 0.110E+00
   0.275E+03 -.416E+03 -.368E+04   -.275E+03 0.416E+03 0.368E+04   0.812E+00 -.444E+00 0.145E+01   0.675E-02 -.629E-03 -.102E+00
   -.214E+03 0.723E+01 -.626E+04   0.219E+03 -.118E+02 0.627E+04   -.372E+01 0.353E+01 -.645E+00   -.304E-02 -.667E-03 -.494E-01
   0.245E+03 -.741E+03 0.290E+04   -.246E+03 0.744E+03 -.290E+04   0.118E+01 -.276E+01 0.645E+00   -.976E-03 -.570E-01 0.190E+00
   -.386E+02 0.274E+03 -.554E+04   0.385E+02 -.273E+03 0.555E+04   -.574E+00 -.998E+00 -.327E+01   0.198E-02 -.235E-01 -.981E-01
   0.471E+03 0.539E+03 0.644E+04   -.474E+03 -.540E+03 -.644E+04   0.251E+01 0.131E+01 0.429E+01   0.599E-01 -.599E-01 0.230E-01
   0.777E+03 0.636E+03 0.386E+04   -.780E+03 -.638E+03 -.385E+04   0.382E+01 0.261E+01 -.224E+00   0.463E-01 0.109E-01 0.120E+00
   0.326E+03 0.458E+03 0.455E+03   -.328E+03 -.458E+03 -.456E+03   0.179E+01 0.445E-01 0.577E+00   0.379E-01 -.208E-01 0.151E+00
   0.373E+03 0.359E+03 -.253E+04   -.375E+03 -.361E+03 0.253E+04   0.283E+01 0.129E+01 0.174E+01   0.224E-01 -.864E-02 -.444E-01
   -.486E+03 0.300E+02 0.603E+03   0.486E+03 -.294E+02 -.605E+03   -.794E+00 -.646E+00 0.104E+01   -.201E-01 0.338E-02 0.185E+00
   -.600E+03 0.202E+02 -.273E+04   0.604E+03 -.190E+02 0.273E+04   -.393E+01 -.681E+00 -.125E+01   0.528E-02 -.223E-01 -.349E-01
   -.620E+03 0.237E+03 0.352E+04   0.624E+03 -.238E+03 -.352E+04   -.309E+01 0.629E+00 -.216E+01   0.133E-01 0.148E-01 0.139E+00
   0.197E+03 -.338E+03 -.534E+03   -.197E+03 0.339E+03 0.533E+03   0.367E+00 -.586E+00 0.938E+00   -.427E-01 0.158E-01 0.113E+00
   0.266E+03 -.417E+03 -.366E+04   -.267E+03 0.417E+03 0.366E+04   0.755E+00 -.431E+00 0.142E+01   -.217E-01 0.511E-02 -.104E+00
   -.215E+03 0.584E+01 -.626E+04   0.220E+03 -.105E+02 0.626E+04   -.375E+01 0.358E+01 -.639E+00   -.380E-02 -.641E-02 -.349E-01
   0.259E+03 -.194E+03 0.516E+04   -.258E+03 0.192E+03 -.517E+04   -.555E-01 0.189E+01 0.494E+01   -.496E-02 0.245E-01 0.122E+00
   0.153E+03 -.293E+03 0.217E+04   -.153E+03 0.292E+03 -.216E+04   -.336E+00 0.839E+00 -.355E+01   0.319E-01 -.414E-01 0.230E+00
   -.365E+02 0.278E+03 -.555E+04   0.364E+02 -.277E+03 0.555E+04   -.518E+00 -.107E+01 -.306E+01   0.427E-02 -.133E-01 -.109E+00
   -.152E+02 0.372E+03 0.408E+04   0.144E+02 -.374E+03 -.408E+04   -.262E+00 0.171E+01 0.230E+01   -.114E+00 -.388E-01 0.196E+00
   0.180E+03 0.408E+03 0.564E+03   -.181E+03 -.409E+03 -.566E+03   0.108E+01 0.366E+00 0.153E+01   -.500E-01 -.336E-01 0.178E+00
   0.358E+03 0.348E+03 -.252E+04   -.360E+03 -.350E+03 0.251E+04   0.286E+01 0.121E+01 0.170E+01   -.135E-01 -.164E-01 -.568E-01
   -.547E+03 0.243E+01 0.418E+03   0.548E+03 -.981E+00 -.419E+03   -.124E+01 -.140E+01 0.507E+00   0.308E-01 0.100E-01 0.137E+00
   -.614E+03 0.206E+02 -.275E+04   0.618E+03 -.195E+02 0.275E+04   -.389E+01 -.558E+00 -.124E+01   -.252E-02 -.212E-01 -.558E-01
   -.475E+03 0.242E+03 0.418E+04   0.477E+03 -.242E+03 -.418E+04   -.147E+01 0.558E+00 0.339E+01   0.429E-01 0.519E-01 0.177E+00
   -.457E+03 -.917E+03 0.629E+04   0.458E+03 0.914E+03 -.629E+04   -.149E+01 0.352E+01 -.132E+00   -.724E-03 -.107E-01 0.128E-01
   -.622E+02 0.117E+03 -.197E+03   0.631E+02 -.118E+03 0.195E+03   -.107E+01 0.174E+01 0.124E+01   0.218E-02 0.105E-01 0.234E-01
   -.205E+03 0.561E+02 -.124E+04   0.207E+03 -.559E+02 0.123E+04   -.144E+01 -.161E+00 0.237E+01   0.941E-02 -.498E-02 -.287E-01
   -.258E+03 -.381E+03 0.244E+04   0.260E+03 0.385E+03 -.244E+04   -.150E+01 -.265E+01 0.297E+01   -.123E-01 0.139E-01 -.134E-01
   -.683E+02 0.807E+02 0.772E+03   0.683E+02 -.826E+02 -.770E+03   -.185E+00 0.228E+01 -.127E+00   -.211E-01 -.869E-03 0.107E+00
   0.389E+02 -.146E+03 -.230E+04   -.382E+02 0.150E+03 0.231E+04   -.116E+01 -.198E+01 -.343E+01   -.906E-02 0.132E-01 -.215E-01
   -.187E+03 -.605E+02 -.190E+04   0.189E+03 0.599E+02 0.191E+04   -.659E+00 0.272E-01 -.782E+00   0.903E-02 0.146E-01 -.413E-01
   -.659E+02 -.159E+03 -.667E+03   0.669E+02 0.162E+03 0.667E+03   -.116E+01 -.296E+01 -.128E+01   -.502E-03 -.431E-02 -.473E-03
   -.629E+02 0.143E+02 0.159E+04   0.635E+02 -.123E+02 -.159E+04   -.482E+00 -.116E+01 -.131E+01   0.319E-01 -.117E-01 0.515E-01
[...]
   0.459E+03 0.731E+02 -.198E+04   -.466E+03 -.756E+02 0.199E+04   0.453E+01 0.195E+01 -.349E+00   -.777E-02 -.872E-02 -.447E-01
   -.717E+02 0.105E+03 -.186E+03   0.726E+02 -.106E+03 0.184E+03   -.104E+01 0.183E+01 0.117E+01   0.180E-01 -.193E-01 0.345E-01
   -.208E+03 0.515E+02 -.124E+04   0.209E+03 -.513E+02 0.123E+04   -.134E+01 -.131E+00 0.249E+01   0.416E-03 0.152E-02 -.395E-01
   -.137E+03 0.103E+03 0.242E+04   0.137E+03 -.104E+03 -.243E+04   0.168E+00 -.257E+00 0.743E+00   -.569E-02 -.685E-02 -.332E-01
   -.107E+03 0.103E+03 0.112E+04   0.108E+03 -.105E+03 -.112E+04   -.854E+00 0.131E+01 0.154E+01   -.513E-02 -.288E-01 0.921E-01
   0.384E+02 -.144E+03 -.230E+04   -.377E+02 0.148E+03 0.231E+04   -.119E+01 -.199E+01 -.345E+01   -.101E-01 0.893E-02 -.168E-01
   -.188E+03 -.581E+02 -.190E+04   0.190E+03 0.575E+02 0.191E+04   -.675E+00 -.269E-02 -.737E+00   0.606E-02 0.324E-02 -.477E-01
   -.663E+02 -.145E+03 -.656E+03   0.672E+02 0.148E+03 0.656E+03   -.975E+00 -.288E+01 -.110E+01   -.639E-02 0.433E-02 0.803E-02
   -.234E+03 -.425E+03 0.180E+04   0.236E+03 0.429E+03 -.180E+04   -.241E-01 -.264E+01 0.943E+00   -.101E-01 -.175E-01 0.603E-01
   -.103E+03 -.201E+03 0.462E+03   0.104E+03 0.204E+03 -.462E+03   -.116E+01 -.251E+01 0.306E+00   -.196E-01 -.175E-01 0.667E-01
   -.130E+03 0.231E+03 0.183E+04   0.129E+03 -.233E+03 -.183E+04   0.207E+00 0.128E+01 0.154E+01   -.454E-01 0.103E-02 0.446E-01
   0.119E+03 0.177E+02 0.508E+03   -.122E+03 -.175E+02 -.509E+03   0.292E+01 -.308E+00 0.844E+00   -.161E-01 0.428E-02 0.846E-01
   0.170E+03 0.145E+02 -.678E+03   -.173E+03 -.145E+02 0.678E+03   0.267E+01 -.143E+00 -.331E+00   -.879E-02 -.377E-02 -.134E-02
   0.456E+03 0.721E+02 -.198E+04   -.464E+03 -.745E+02 0.198E+04   0.459E+01 0.195E+01 -.316E+00   -.156E-01 -.110E-01 -.412E-01
   -.515E+00 0.535E+01 -.407E+02   0.682E-12 0.144E-11 -.150E-10   0.539E+00 -.532E+01 0.370E+02   -.172E+00 0.200E-01 0.368E+01

 POSITION                                       TOTAL-FORCE (eV/Angst)
      5.35228      4.81788      6.64784         0.221147     -0.312166     -0.127476
      5.93595      3.87238      9.58390         0.247970      0.022853     -0.842470
      6.66410      2.90057     11.75010         0.790982     -1.045823      1.916512
      1.53671      2.16102      2.06002        -0.058802     -0.705516     -0.652344
      2.24633      0.73197      3.71178        -0.024153     -0.973778      1.523041
      1.13784      0.44158     10.97537        -0.643381     -0.083892      1.043302
      3.65249      3.31104      0.85687        -0.384301     -0.140797     -1.000145
      4.76861      3.35453      2.93606         0.181147      0.020962      2.698707
      5.35228      2.40903      5.87212        -0.205539      0.054513      0.145449
      5.93595      1.46353      8.80817         0.242481     -0.286311     -2.663487
      1.87746      3.73836      5.87212         0.074543      0.112187      0.006873
      2.46113      2.79286      8.80817         0.693993      0.530087     -1.948799
      6.92203      4.68386      2.93606         0.638969     -0.283856      0.657147
      5.41007      1.41913      1.18413        -0.075589     -0.797875     -0.839678
     10.98051      4.81788      6.64784         0.154613     -0.362193     -0.113155
     11.56418      3.87238      9.58390         0.274689      0.057554     -0.840121
     12.29238      2.90051     11.75002         0.791380     -1.032537      1.924461
      7.39102      2.44087      2.09370         0.390709     -0.449023     -1.091714
      7.87456      0.73197      3.71178         0.123582     -0.757301      2.350596
      6.76607      0.44164     10.97538        -0.648346     -0.097743      1.051788
     10.70023      5.28468      1.02409        -0.402231      0.242927     -1.668748
     10.39684      3.35453      2.93606         0.126456      0.185339      0.913813
     10.98051      2.40903      5.87212        -0.137076      0.029412      0.079538
     11.56418      1.46353      8.80817         0.281292     -0.271019     -2.665284
      7.50570      3.73836      5.87212         0.066647      0.111357     -0.091008
      8.08937      2.79286      8.80817         0.675942      0.479687     -1.966423
     12.55026      4.68386      2.93606        -0.073677     -0.221767      2.198884
      7.87456      9.84929      6.64784         0.162514     -0.375695     -0.112500
      8.45823      8.90379      9.58390         0.299211      0.018553     -0.887475
      9.18641      7.93193     11.75004         0.787514     -1.020575      1.924610
      4.76861      5.76338      3.71178        -0.378609      0.070250      1.151109
      3.66020      5.47305     10.97523        -0.663122     -0.070726      1.049295
      2.54812      0.21927      1.02484        -0.112287      0.725638     -1.623212
      7.29089      8.38594      2.93606         0.011660      0.035989      0.694450
      7.87456      7.44044      5.87212        -0.123312     -0.019235      0.050490
      8.45823      6.49494      8.80817         0.237562     -0.216422     -2.652211
      4.39975      8.76977      5.87212        -0.041737      0.003612     -0.008823
      4.98341      7.82427      8.80817         0.697685      0.499577     -1.908599
      9.44431      9.71527      2.93606         0.542168     -0.270806      0.408014
     13.50279      9.84929      6.64784         0.217613     -0.357052     -0.109995
     14.08646      8.90379      9.58390         0.266270      0.036582     -0.815231
     14.81461      7.93195     11.75008         0.794941     -1.062410      1.926410
      9.45534      7.06082      2.07780         0.465199     -0.115864     -0.670190
     10.39684      5.76338      3.71178         0.568353     -0.755498      1.485951
      9.28835      5.47299     10.97538        -0.663823     -0.094294      1.072464
     12.91912      8.38594      2.93606        -1.259910     -0.571418      1.894118
     13.50279      7.44044      5.87212        -0.041729      0.178434     -0.007197
     14.08646      6.49494      8.80817         0.243364     -0.271704     -2.643319
     10.02798      8.76977      5.87212         0.023369      0.051212      0.062901
     10.61165      7.82427      8.80817         0.648601      0.534110     -1.948840
     15.07254      9.71527      2.93606         1.293947      0.448148      2.107471
     13.14728      5.08310      0.73895         0.221349      0.587709     -1.166370
      1.66190      1.67871      7.01153        -0.133601      0.392947     -1.048487
      2.31771      0.74231      9.31603         0.495415      0.102177      0.175237
      5.83307      3.49060      1.14497         1.109157      1.300437     -2.862133
      6.70646      2.62422      4.07548        -0.154996      0.366950      1.258090
      5.34573      4.44442     11.58582        -0.461785      1.691749      2.427455
      2.32107      3.91299     10.54956         1.310701     -0.586072      1.404967
      7.29013      4.74605      7.99931        -0.125993     -0.032867     -1.332299
      3.60051      1.60565      2.12720         0.210528      0.832726      0.903357
[...]
      7.07033      8.08475      7.99931        -0.069125     -0.087637     -0.499825
      7.79802      6.93224     10.68435        -2.526398     -0.476762      1.671245
      9.81241      6.71012      7.01153        -0.064013      0.420347     -1.065947
     10.46822      5.77372      9.31604         0.479766      0.068209      0.203972
     14.12978      8.82382      1.43040         0.586039     -0.917690     -4.208196
     14.85697      7.65563      4.07548         0.045931     -0.260726     -0.035721
     13.49617      9.47574     11.58586        -0.444454      1.708979      2.378327
     10.47156      8.94440     10.54957         1.301618     -0.571462      1.435044
     15.44064      9.77746      7.99931        -0.083677     -0.060351     -1.331503
     11.75102      6.63706      2.12720         1.277395      1.557707      0.185202
     12.33469      5.69156      5.06325        -0.032721      0.041822      0.005059
      6.47949      0.01043      2.32366        -0.440364     -0.782113     -1.094258
     12.11489      9.03025      5.06325        -0.242414     -0.121512      0.050925
     12.69856      8.08475      7.99931        -0.081880     -0.139371     -0.523629
     13.42626      6.93227     10.68435        -2.536765     -0.449569      1.710570
    total drift:                               -0.147981      0.045398     -0.036844

  FREE ENERGIE OF THE ION-ELECTRON SYSTEM (eV)
  free  energy   TOTEN  =      -504.34354265 eV

  energy  without entropy=     -503.13411008  energy(sigma->0) =     -503.73882636