 vasp.5.4.4.18Apr17-6-g9f103f2a35 (build Aug 13 2019 17:33:20) gamma-only

 executed on             LinuxIFC date 2020.05.12  11:53:22

 INCAR:
 POTCAR:    PAW_PBE Ni_pv 06Sep2000
 POTCAR:    PAW_PBE S 06Sep2000
 POTCAR:    PAW_PBE Ni_pv 06Sep2000
   VRHFIN =Ni:

   TITEL  = PAW_PBE Ni_pv 06Sep2000
   POMASS =   58.690; ZVAL   =   16.000    mass and valenz
   ENMAX  =  367.986; ENMIN  =  275.989 eV

 POTCAR:    PAW_PBE S 06Sep2000
   VRHFIN =S : s2p4

   TITEL  = PAW_PBE S 06Sep2000
   POMASS =   32.066; ZVAL   =    6.000    mass and valenz
   ENMAX  =  258.689; ENMIN  =  194.016 eV

 Optimization of the real space projectors (new method)

 maximal supplied QI-value         = 18.90
 optimisation between [QCUT,QGAM] = [ 10.77, 21.73] = [ 32.49,132.25] Ry
 Optimized for a Real-space Cutoff    1.38 Angstroem

   l    n(q)    QCUT    max X(q) W(low)/X(q) W(high)/X(q)  e(spline)
   1      8    10.771     2.836    0.40E-04    0.29E-04    0.12E-06
   1      8    10.771     4.023    0.10E-03    0.48E-04    0.29E-06
   2      8    10.771    73.368    0.42E-03    0.97E-04    0.44E-06
   2      8    10.771    69.010    0.42E-03    0.99E-04    0.45E-06
   0      9    10.771    54.797    0.10E-03    0.56E-04    0.74E-07
   0      9    10.771    24.266    0.89E-04    0.49E-04    0.67E-07
 Optimization of the real space projectors (new method)

 maximal supplied QI-value         = 19.84
 optimisation between [QCUT,QGAM] = [ 10.71, 21.63] = [ 32.15,130.99] Ry
 Optimized for a Real-space Cutoff    1.19 Angstroem

   l    n(q)    QCUT    max X(q) W(low)/X(q) W(high)/X(q)  e(spline)
   0      8    10.715   187.594    0.41E-03    0.53E-04    0.66E-07
   0      8    10.715   164.243    0.41E-03    0.53E-04    0.65E-07
   1      7    10.715    67.533    0.19E-03    0.59E-03    0.68E-07
   1      7    10.715    50.729    0.19E-03    0.58E-03    0.67E-07
  PAW_PBE Ni_pv 06Sep2000               :
  PAW_PBE S 06Sep2000                   :

 POSCAR: Type_036 Type_136
  positions in cartesian coordinates
 exchange correlation table for  LEXCH =        8
   RHO(1)=    0.500       N(1)  =     2000
   RHO(2)=  100.500       N(2)  =     4000

 ion  position               nearest neighbor table
   1  0.374  0.751  0.095-  60 2.04  49 2.21  41 2.25  61 2.36  50 2.36  14 2.42
   2  0.525  0.601  0.223-  42 2.25  61 2.26  50 2.26  62 2.36  51 2.36  15 2.53  27 2.53
   3  0.675  0.451  0.351-  43 2.25  51 2.26  62 2.26  63 2.36  52 2.36   4 2.46  28 2.53  16 2.53

   4  0.738  0.354  0.462-  64 2.06  63 2.08  52 2.08  44 2.09   3 2.46
   5  0.558  0.125  0.068-  45 2.08  46 2.11  67 2.17  53 2.18   6 2.37  21 2.48
   6  0.758  0.035  0.137-  67 2.05  53 2.09  46 2.25  54 2.36  68 2.36   5 2.37  20 2.38
   7  0.058  0.734  0.394-  56 2.07  66 2.21  65 2.26  55 2.26  48 2.52  18 2.53  31 2.53
   8  0.908  0.884  0.266-  47 2.25  54 2.26  68 2.26  55 2.36  65 2.36  30 2.53  17 2.53
   9  0.141  0.318  0.180-  69 2.07  40 2.25  57 2.26  12 2.28  58 2.36  70 2.36  34 2.53  21 2.53

[...]

  35  0.516  0.207  0.274-  62 2.25  46 2.26  58 2.26  47 2.36  59 2.36  22 2.53  10 2.53
  36  0.659  0.069  0.389-  47 2.04  59 2.13  63 2.18  48 2.19
  37  0.064  0.262  0.341-  25 2.05  10 2.25  13 2.26  16 2.36  28 2.36  38 2.56
  38  0.202  0.138  0.442-  11 2.12  13 2.12  25 2.16  37 2.56  64 2.66
  39  0.763  0.563  0.085-  12 2.00  14 2.05  26 2.23  15 2.26  27 2.26
  40  0.914  0.412  0.213-  12 2.14   9 2.25  16 2.26  28 2.26  27 2.36  15 2.36
  41  0.147  0.846  0.128-  20 2.06   1 2.25  29 2.26  17 2.26  30 2.26
  42  0.297  0.696  0.256-   2 2.25  31 2.26  18 2.26  17 2.36  30 2.36
  43  0.447  0.545  0.384-  19 2.02  32 2.02   3 2.25  31 2.36  18 2.36  44 2.55
  44  0.530  0.440  0.496-   4 2.09  32 2.09  19 2.11  43 2.55
  45  0.369  0.294  0.051-  34 2.04   5 2.08  21 2.20  33 2.22
  46  0.530  0.129  0.170-   5 2.11   6 2.25  35 2.26  22 2.26  34 2.36  21 2.36  53 2.73
  47  0.680  0.979  0.298-  36 2.04   8 2.25  23 2.26  35 2.36  22 2.36
  48  0.798  0.856  0.418-  24 2.06  23 2.10  36 2.19   7 2.52
  49  0.424  0.938  0.064-  26 2.11  21 2.11   1 2.21  50 2.63
  50  0.528  0.798  0.171-  26 2.06  22 2.25  27 2.26   2 2.26   1 2.36  49 2.63
  51  0.678  0.648  0.299-  23 2.25   3 2.26  28 2.26  27 2.36   2 2.36
  52  0.829  0.497  0.427-  24 2.05   4 2.08  25 2.14  28 2.36   3 2.36  64 2.78
  53  0.695  0.239  0.099-   6 2.09  15 2.17   5 2.18  46 2.73
  54  0.911  0.081  0.214-  29 2.22  16 2.25   8 2.26  30 2.26   6 2.36
  55  0.062  0.931  0.342-  13 2.25  31 2.26   7 2.26  30 2.36   8 2.36
  56  0.223  0.742  0.452-  31 2.04   7 2.07  32 2.10
  57  0.145  0.515  0.128-  12 2.15  33 2.22  17 2.25  34 2.26   9 2.26
  58  0.295  0.364  0.257-  18 2.25  35 2.26  10 2.26   9 2.36  34 2.36
  59  0.445  0.214  0.385-  11 2.09  36 2.13  19 2.18  10 2.36  35 2.36
  60  0.379  0.658  0.006-   1 2.04  33 2.04  14 2.05
  61  0.477  0.512  0.128-  14 2.05  33 2.11  34 2.25   2 2.26  15 2.26   1 2.36
  62  0.628  0.362  0.256-  35 2.25  16 2.26   3 2.26   2 2.36  15 2.36
  63  0.778  0.212  0.384-   4 2.08  36 2.18  13 2.26   3 2.36  16 2.36
  64  0.942  0.240  0.492-  13 2.04   4 2.06  25 2.09  38 2.66  52 2.78
  65  0.011  0.645  0.299-  28 2.25   7 2.26  18 2.26  17 2.36   8 2.36
  66  0.153  0.503  0.412-  18 2.11  19 2.11   7 2.21  25 2.29
  67  0.737  0.930  0.054-   6 2.05  26 2.13   5 2.17  20 2.19
  68  0.861  0.795  0.171-  20 2.03  27 2.25   8 2.26  17 2.26   6 2.36
  69  0.104  0.244  0.090-  29 2.06   9 2.07  12 2.16  21 2.17
  70  0.244  0.079  0.213-  29 2.18  30 2.25  22 2.26  10 2.26   9 2.36  21 2.36
  71  0.395  0.928  0.341-  11 2.03  31 2.25  23 2.26  10 2.36  22 2.36  72 2.78
  72  0.526  0.818  0.459-  24 2.05  32 2.13  23 2.14  11 2.17  71 2.78

  LATTYP: Found a base centered orthorhombic cell.
 ALAT       =    11.4527836704
 B/A-ratio  =     1.4485816945
 C/A-ratio  =     1.7901333131

  Lattice vectors:

 A1 = (  10.0797329849,   0.0000000000,   0.0000000000)
 A2 = (  -3.5732980427,  -9.4251025535,   0.0000000000)
 A3 = (   0.0000000000,   0.0000000000, -20.5020095760)

Analysis of symmetry for initial positions (statically):
 Subroutine PRICEL returns:
 Original cell was already a primitive cell.

 Routine SETGRP: Setting up the symmetry group for a
 base centered orthorhombic supercell.

 Subroutine GETGRP returns: Found  1 space group operations
 (whereof  1 operations were pure point group operations)
 out of a pool of  8 trial point group operations.

The static configuration has the point symmetry C_1 .

Analysis of symmetry for dynamics (positions and initial velocities):
 Subroutine PRICEL returns:
 Original cell was already a primitive cell.

 Routine SETGRP: Setting up the symmetry group for a
 base centered orthorhombic supercell.

 Subroutine GETGRP returns: Found  1 space group operations
 (whereof  1 operations were pure point group operations)
 out of a pool of  8 trial point group operations.

The dynamic configuration has the point symmetry C_1 .

 Subroutine INISYM returns: Found  1 space group operations
 (whereof  1 operations are pure point group operations),
 and found     1 'primitive' translations

 KPOINTS: gamma-point-only calculation. no periodi

Automatic generation of k-mesh.
Space group operators:
 irot       det(A)        alpha          n_x          n_y          n_z        tau_x        tau_y        tau_z
    1     1.000000     0.000001     1.000000     0.000000     0.000000     0.000000     0.000000     0.000000

 Subroutine IBZKPT returns following result:

 Found      1 irreducible k-points:

 Following reciprocal coordinates:
            Coordinates               Weight
  0.000000  0.000000  0.000000      1.000000

 Following cartesian coordinates:
            Coordinates               Weight
  0.000000  0.000000  0.000000      1.000000

 SYSTEM =  "Millerite NiS"
 POSCAR =  Type_036 Type_136

 Startparameter for this run:
   NWRITE =      2    write-flag & timer
   PREC   = normal    normal or accurate (medium, high low for compatibility)
   ISTART =      0    job   : 0-new  1-cont  2-samecut
   ICHARG =      2    charge: 1-file 2-atom 10-const
   ISPIN  =      1    spin polarized calculation?
   LNONCOLLINEAR =      F non collinear calculations
   LSORBIT =      F    spin-orbit coupling
   INIWAV =      1    electr: 0-lowe 1-rand  2-diag
   LASPH  =      F    aspherical Exc in radial PAW
   METAGGA=      F    non-selfconsistent MetaGGA calc.

 Electronic Relaxation 1
   ENCUT  =  450.0 eV  33.07 Ry    5.75 a.u.  17.43 17.43 35.46*2*pi/ulx,y,z
   ENINI  =  450.0     initial cutoff
   ENAUG  =  703.4 eV  augmentation charge cutoff
   NELM   =    100;   NELMIN=  2; NELMDL= -5     # of ELM steps
   EDIFF  = 0.1E-03   stopping-criterion for ELM
   LREAL  =      T    real-space projection
   NLSPLINE    = F    spline interpolate recip. space projectors
   LCOMPAT=      F    compatible to vasp.4.4
   GGA_COMPAT  = T    GGA compatible to vasp.4.4-vasp.4.6
   LMAXPAW     = -100 max onsite density
   LMAXMIX     =    2 max onsite mixed and CHGCAR
   VOSKOWN=      0    Vosko Wilk Nusair interpolation
   ROPT   =   -0.00050  -0.00050
 Ionic relaxation
   EDIFFG = 0.1E-02   stopping-criterion for IOM
   NSW    =      0    number of steps for IOM
   NBLOCK =      1;   KBLOCK =      1    inner block; outer block
   IBRION =     -1    ionic relax: 0-MD 1-quasi-New 2-CG
   NFREE  =      0    steps in history (QN), initial steepest desc. (CG)
   ISIF   =      2    stress and relaxation
   IWAVPR =     10    prediction:  0-non 1-charg 2-wave 3-comb
   ISYM   =      2    0-nonsym 1-usesym 2-fastsym
   LCORR  =      T    Harris-Foulkes like correction to forces

   POTIM  = 0.5000    time-step for ionic-motion
   TEIN   =    0.0    initial temperature
   TEBEG  =    0.0;   TEEND  =   0.0 temperature during run
   SMASS  =  -3.00    Nose mass-parameter (am)
   estimated Nose-frequenzy (Omega)   =  0.10E-29 period in steps =****** mass=  -0.232E-26a.u.
   SCALEE = 1.0000    scale energy and forces
   NPACO  =    256;   APACO  = 16.0  distance and # of slots for P.C.
   PSTRESS=    0.0 pullay stress

  Mass of Ions in am
   POMASS =  58.69 32.07
  Ionic Valenz
   ZVAL   =  16.00  6.00
  Atomic Wigner-Seitz radii
  virtual crystal weights
   VCA    =   1.00  1.00
   NELECT =     792.0000    total number of electrons
   NUPDOWN=      -1.0000    fix difference up-down

 DOS related values:
   EMIN   =  10.00;   EMAX   =-10.00  energy-range for DOS
   EFERMI =   0.00
   ISMEAR =     0;   SIGMA  =   0.20  broadening in eV -4-tet -1-fermi 0-gaus

 Electronic relaxation 2 (details)
   IALGO  =     38    algorithm
   LDIAG  =      T    sub-space diagonalisation (order eigenvalues)
   LSUBROT=      F    optimize rotation matrix (better conditioning)
   TURBO    =      0    0=normal 1=particle mesh
   IRESTART =      0    0=no restart 2=restart with 2 vectors
   NREBOOT  =      0    no. of reboots
   NMIN     =      0    reboot dimension
   EREF     =   0.00    reference energy to select bands
   IMIX   =      4    mixing-type and parameters
     AMIX     =   0.40;   BMIX     =  1.00
     AMIX_MAG =   1.60;   BMIX_MAG =  1.00
     AMIN     =   0.10
[...]
  Fock        0.00000     0.00000     0.00000     0.00000     0.00000     0.00000
  Total      73.77649    67.40661   100.77194    -5.35931     0.91301     2.77576
  in kB      60.68719    55.44744    82.89316    -4.40847     0.75103     2.28329

 VOLUME and BASIS-vectors are now :
  energy-cutoff  :      450.00
  volume of cell :     1947.74
      direct lattice vectors                 reciprocal lattice vectors
    10.079732985  0.000000000  0.000000000     0.099208977 -0.037612667  0.000000000
     3.573298043  9.425102554  0.000000000     0.000000000  0.106099641  0.000000000
     0.000000000  0.000000000 20.502009576     0.000000000  0.000000000  0.048775706

  length of vectors
    10.079732985 10.079732985 20.502009576     0.106099641  0.106099641  0.048775706

 FORCES acting on ions
    electron-ion (+dipol)            ewald-force                    non-local-force                 convergence-correction
   0.485E+03 -.627E+03 0.385E+04   -.487E+03 0.632E+03 -.385E+04   0.263E+01 -.385E+01 0.252E+01   0.427E-01 -.127E+00 0.125E-01
   0.425E+03 -.150E+03 0.453E+03   -.426E+03 0.151E+03 -.451E+03   0.691E+00 -.903E+00 -.123E+01   0.725E-02 -.731E-01 0.111E+00
   0.395E+03 -.106E+03 -.226E+04   -.397E+03 0.106E+03 0.226E+04   0.136E+01 -.824E+00 0.138E+01   -.626E-03 0.288E-01 0.122E+00
   0.220E+03 0.339E+03 -.511E+04   -.225E+03 -.339E+03 0.512E+04   0.411E+01 -.140E+00 -.407E+01   -.483E-01 0.111E+00 0.779E-01
   -.250E+03 -.249E+02 0.516E+04   0.252E+03 0.269E+02 -.517E+04   -.142E+01 -.140E+01 0.628E+01   0.105E+00 0.667E-02 0.444E-02
   -.367E+03 -.212E+03 0.281E+04   0.372E+03 0.214E+03 -.281E+04   -.369E+01 -.138E+01 -.769E+00   -.933E-01 0.230E-01 0.836E-01
   0.557E+03 -.334E+03 -.395E+04   -.560E+03 0.335E+03 0.395E+04   0.159E+01 -.717E+00 -.135E+01   0.102E-01 -.162E-01 0.116E+00
   0.367E+03 -.163E+03 -.586E+03   -.367E+03 0.164E+03 0.586E+03   0.982E+00 -.850E+00 0.444E+00   -.223E-01 -.227E-01 0.124E+00
   0.191E+03 -.116E+03 0.155E+04   -.189E+03 0.116E+03 -.154E+04   -.161E+01 -.770E+00 -.246E+01   0.115E+00 0.201E+00 0.213E+00
   0.434E+03 -.158E+03 -.155E+04   -.434E+03 0.160E+03 0.154E+04   0.523E+00 -.167E+01 0.114E+01   0.536E-01 0.338E-01 0.158E+00
   0.227E+03 -.207E+03 -.471E+04   -.226E+03 0.208E+03 0.471E+04   -.979E+00 -.877E+00 -.272E+01   -.902E-02 -.522E-01 0.857E-01
   -.127E+02 -.729E+02 0.433E+04   0.141E+02 0.746E+02 -.434E+04   -.117E+01 -.208E+01 0.520E+01   -.353E-01 0.113E+00 0.309E-01
   0.164E+03 0.794E+03 -.390E+04   -.166E+03 -.800E+03 0.390E+04   0.129E+01 0.492E+01 0.404E+00   0.218E-01 0.248E-01 0.503E-01
   -.431E+03 0.509E+03 0.541E+04   0.432E+03 -.507E+03 -.541E+04   0.392E-01 -.286E+01 0.304E+01   0.212E-01 -.485E-01 -.606E-02
   -.831E+02 0.745E+03 0.275E+04   0.825E+02 -.748E+03 -.275E+04   0.535E+00 0.255E+01 -.153E+01   -.876E-01 0.362E-01 0.106E+00
   0.173E+02 0.565E+03 -.454E+03   -.183E+02 -.566E+03 0.453E+03   0.913E+00 0.147E+01 0.108E+01   -.585E-01 0.715E-01 0.166E+00
   -.904E+01 0.418E+03 0.161E+04   0.912E+01 -.420E+03 -.161E+04   -.314E-01 0.218E+01 0.515E+00   -.887E-02 -.267E-01 0.151E+00
   0.585E+02 0.349E+03 -.143E+04   -.589E+02 -.351E+03 0.143E+04   0.501E+00 0.216E+01 0.273E+01   0.517E-01 -.253E-01 0.108E+00
   0.346E+03 0.449E+03 -.460E+04   -.348E+03 -.454E+03 0.460E+04   0.148E+01 0.390E+01 -.860E+00   0.401E-01 0.585E-01 0.946E-01
   -.281E+03 0.132E+03 0.486E+04   0.283E+03 -.130E+03 -.487E+04   -.114E+01 -.239E+01 0.337E+00   -.135E+00 -.798E-01 -.171E-01
   0.395E+03 0.359E+03 0.401E+04   -.396E+03 -.362E+03 -.401E+04   0.111E+01 0.348E+01 0.222E+01   0.207E+00 0.500E-01 0.195E-01
   -.107E+02 0.486E+03 0.497E+03   0.112E+02 -.487E+03 -.497E+03   -.563E+00 0.926E+00 0.207E+00   0.671E-01 0.169E-01 0.183E+00
   -.102E+03 0.204E+03 -.245E+04   0.101E+03 -.208E+03 0.245E+04   -.426E+00 0.420E+01 0.167E+01   -.119E-01 -.103E+00 0.202E+00
   -.523E+03 -.145E+02 -.518E+04   0.525E+03 0.144E+02 0.518E+04   -.133E+01 -.354E+00 0.170E+01   -.545E-01 -.239E-01 0.113E+00
   -.567E+03 -.266E+03 -.458E+04   0.571E+03 0.271E+03 0.458E+04   -.254E+01 -.371E+01 -.281E+01   -.579E-02 0.508E-01 0.564E-01
   -.392E+03 -.139E+03 0.457E+04   0.396E+03 0.141E+03 -.457E+04   -.399E+01 -.304E+01 0.389E+01   0.504E-01 -.333E-01 0.417E-03
   -.443E+03 -.305E+03 0.144E+04   0.442E+03 0.307E+03 -.144E+04   0.115E+01 -.120E+01 -.190E+01   -.555E-01 -.451E-01 0.109E+00
   -.496E+03 -.307E+03 -.149E+04   0.496E+03 0.309E+03 0.149E+04   0.880E-01 -.173E+01 0.109E+01   -.331E-01 0.259E-02 0.135E+00
   0.390E+03 -.116E+03 0.353E+04   -.393E+03 0.118E+03 -.354E+04   0.259E+01 -.189E+01 0.312E+01   -.289E-01 -.251E-01 0.159E+00
   -.315E+03 -.780E+02 0.362E+03   0.315E+03 0.771E+02 -.360E+03   0.232E+00 0.317E+00 -.111E+01   -.352E-01 -.240E+00 0.398E+00
   -.238E+03 -.441E+03 -.252E+04   0.240E+03 0.444E+03 0.252E+04   -.103E+01 -.301E+01 0.945E+00   0.593E-01 -.376E-01 0.143E+00
   0.511E+02 -.338E+03 -.514E+04   -.468E+02 0.341E+03 0.515E+04   -.443E+01 -.195E+01 -.348E+01   0.569E-01 0.206E-02 0.859E-01
   0.652E+03 -.161E+03 0.504E+04   -.656E+03 0.163E+03 -.505E+04   0.232E+01 -.288E+01 0.624E+01   0.174E-01 0.259E-02 -.290E-01
   -.239E+03 -.203E+03 0.242E+04   0.238E+03 0.203E+03 -.242E+04   0.448E+00 -.364E-01 -.279E+01   0.858E-01 0.525E-01 0.137E+00
   -.455E+03 -.276E+03 -.488E+03   0.455E+03 0.278E+03 0.488E+03   -.299E+00 -.186E+01 0.280E+00   0.918E-02 0.399E-01 0.104E+00
   -.510E+03 -.130E+03 -.375E+04   0.512E+03 0.132E+03 0.375E+04   -.148E+01 -.146E+01 -.180E+01   -.201E-01 -.864E-02 0.656E-01
   -.110E+03 0.821E+02 -.641E+03   0.111E+03 -.820E+02 0.636E+03   -.193E+01 -.288E+00 0.173E+01   0.395E-02 0.145E-01 0.495E-01
   -.902E+02 0.114E+03 -.186E+04   0.911E+02 -.115E+03 0.186E+04   -.164E+00 0.460E-01 -.132E+01   0.453E-02 0.519E-02 0.240E-01
   -.250E+03 0.832E+02 0.190E+04   0.252E+03 -.833E+02 -.191E+04   -.165E+01 0.122E+01 0.360E+01   -.189E-01 -.763E-02 0.313E-02
   -.636E+02 0.739E+02 0.378E+03   0.641E+02 -.749E+02 -.377E+03   -.753E+00 0.995E+00 -.440E+00   -.348E-01 0.344E-01 0.689E-01
   -.820E+02 -.174E+02 0.146E+04   0.832E+02 0.174E+02 -.147E+04   0.257E+00 0.406E+00 0.257E+01   -.212E-01 -.135E+00 0.298E-01
   -.995E+02 0.167E+02 0.100E+03   0.102E+03 -.172E+02 -.102E+03   -.198E+01 0.416E+00 0.163E+01   0.135E-01 -.958E-02 0.478E-01
   -.728E+02 0.390E+02 -.963E+03   0.748E+02 -.391E+02 0.958E+03   -.732E+00 0.552E-01 0.153E+01   0.135E-01 0.215E-01 0.720E-01
   0.765E+02 0.180E+03 -.214E+04   -.760E+02 -.183E+03 0.214E+04   -.660E+00 0.114E+01 -.194E+01   0.158E-01 0.436E-01 0.137E-01
   0.137E+03 -.312E+02 0.221E+04   -.139E+03 0.309E+02 -.222E+04   0.687E+00 0.281E+00 0.244E+01   0.201E-01 0.273E-01 -.368E-01
   -.134E+03 0.290E+02 0.705E+03   0.134E+03 -.297E+02 -.703E+03   -.259E+00 0.522E+00 -.635E+00   0.474E-01 0.176E-01 0.658E-01
   -.161E+03 0.710E+02 -.256E+03   0.163E+03 -.716E+02 0.254E+03   -.166E+01 0.576E-01 0.117E+00   0.239E-02 0.117E-03 0.247E-01
   -.365E+03 -.865E+02 -.164E+04   0.368E+03 0.868E+02 0.164E+04   -.169E+00 -.530E+00 -.121E+01   -.450E-01 -.535E-01 0.639E-01
   0.168E+03 -.103E+03 0.196E+04   -.170E+03 0.104E+03 -.197E+04   0.187E+01 -.688E+00 0.352E+01   0.344E-01 -.282E-01 -.413E-01
   0.852E+02 -.162E+03 0.649E+03   -.863E+02 0.164E+03 -.647E+03   0.348E+00 -.196E+01 0.716E+00   0.115E-01 -.361E-01 0.487E-01
   -.274E+01 -.177E+03 -.412E+03   0.279E+01 0.179E+03 0.412E+03   -.839E-01 -.284E+01 -.942E+00   -.744E-02 -.922E-02 0.526E-01
   -.171E+03 -.138E+03 -.162E+04   0.171E+03 0.142E+03 0.162E+04   0.665E+00 -.320E+01 -.188E+01   -.213E-01 0.487E-01 0.545E-01
   -.264E+03 -.549E+02 0.166E+04   0.267E+03 0.555E+02 -.166E+04   -.181E+01 -.168E+00 0.207E+01   -.111E-01 0.230E-01 0.249E-01
   0.107E+03 -.157E+03 0.414E+03   -.108E+03 0.160E+03 -.415E+03   0.596E+00 -.247E+01 0.112E+01   -.119E+00 -.117E-01 0.138E+00
   0.489E+02 -.162E+03 -.915E+03   -.493E+02 0.165E+03 0.915E+03   0.181E+00 -.304E+01 -.607E+00   0.590E-02 -.442E-02 0.214E-01
   0.190E+03 -.209E+03 -.208E+04   -.191E+03 0.211E+03 0.208E+04   0.536E+00 -.730E+00 -.152E+01   0.542E-01 -.230E-01 0.493E-01
   0.890E+02 -.191E+03 0.134E+04   -.902E+02 0.195E+03 -.134E+04   0.142E+01 -.178E+01 0.104E+01   0.120E-01 0.159E-01 0.282E-01
   0.166E+02 -.172E+03 -.647E+02   -.165E+02 0.174E+03 0.653E+02   -.691E-01 -.272E+01 -.804E+00   0.240E-01 -.122E-01 0.573E-01
   -.845E+01 -.156E+03 -.132E+04   0.910E+01 0.159E+03 0.132E+04   -.301E+00 -.161E+01 -.102E+01   -.103E-01 0.172E-01 0.846E-02
   0.171E+03 -.193E+03 0.231E+04   -.171E+03 0.194E+03 -.231E+04   -.322E+00 -.866E+00 0.861E+00   -.532E-02 -.122E-01 -.626E-01
   0.654E+02 0.106E+03 0.104E+04   -.659E+02 -.108E+03 -.103E+04   0.145E+00 0.178E+01 -.154E+01   0.282E-01 -.168E-01 0.489E-01
   0.135E+03 0.967E+02 0.389E+02   -.138E+03 -.979E+02 -.388E+02   0.241E+01 0.122E+01 0.155E+00   -.970E-02 0.785E-02 0.234E-01
   0.914E+02 0.252E+03 -.116E+04   -.939E+02 -.255E+03 0.116E+04   0.197E+01 0.113E+01 -.435E+00   0.665E-02 0.343E-01 0.338E-01
   -.269E+02 0.206E+03 -.224E+04   0.272E+02 -.208E+03 0.225E+04   -.319E+00 0.103E+01 -.303E+01   -.104E-01 0.264E-01 0.218E-01
   0.136E+03 0.359E+02 -.386E+03   -.138E+03 -.369E+02 0.386E+03   0.192E+01 0.127E+01 -.339E+00   -.148E-01 0.114E-02 0.314E-01
   0.181E+03 0.373E+02 -.163E+04   -.183E+03 -.383E+02 0.163E+04   0.342E-01 0.271E+00 -.129E+00   0.216E-02 -.129E-01 0.419E-01
   -.151E+03 0.793E+02 0.214E+04   0.151E+03 -.802E+02 -.214E+04   0.107E+00 -.435E+00 0.236E+01   0.881E-02 -.260E-02 -.177E-01
   0.121E+03 0.672E+02 0.785E+03   -.123E+03 -.684E+02 -.784E+03   0.191E+01 0.927E+00 0.168E+01   -.513E-02 0.860E-02 0.453E-01
   0.228E+03 0.286E+02 0.206E+04   -.231E+03 -.299E+02 -.206E+04   0.123E+01 0.480E+00 0.218E+01   0.491E-01 0.133E+00 -.917E-01
   0.604E+02 0.893E+02 0.331E+03   -.598E+02 -.908E+02 -.329E+03   -.245E+00 0.119E+01 -.120E+01   0.911E-01 -.359E-02 0.168E+00
   0.183E+03 0.987E+02 -.716E+03   -.186E+03 -.100E+03 0.714E+03   0.251E+01 0.635E+00 -.638E+00   0.263E-02 -.969E-02 0.531E-01
   0.107E+03 -.155E+03 -.199E+04   -.107E+03 0.155E+03 0.199E+04   -.836E-01 0.217E+00 -.173E+01   0.217E-01 -.682E-01 0.394E-01
   -.431E+01 0.259E+02 -.304E+02   -.109E-11 0.966E-12 0.819E-11   0.407E+01 -.257E+02 0.255E+02   0.417E+00 -.378E-01 0.488E+01

 POSITION                                       TOTAL-FORCE (eV/Angst)
      6.45801      7.08167      1.94264        -0.014864      1.053778      1.542398
      7.43572      5.66537      4.56814         0.070101      0.213605      0.265676
      8.41343      4.24907      7.19364        -0.057330      0.044347     -0.637256
      8.70533      3.33873      9.46253        -0.826011      0.087963      0.874885
      6.06758      1.17969      1.40416         0.351283      0.631036     -1.287901
      7.76163      0.32617      2.81780         1.027583      0.215465      2.891176
      3.21062      6.91868      8.06881        -1.281965      0.265297     -0.679666
     12.31264      8.33497      5.44331         0.194222     -0.036506      0.188449
      2.55881      2.99577      3.69297         1.111594     -0.381174      2.160735
      3.53652      1.57947      6.31847         0.396212     -0.095593     -0.181172
      4.35166      0.30409      8.66693         0.160834      0.368379      1.184213
     11.31670      4.29072      2.36546         0.255984     -0.346508     -0.674943
      0.51382      1.09100      8.43180        -0.946674     -1.213690     -1.974076
      7.79573      5.29945      0.99620         0.785820     -0.636907     -0.741966
      8.63813      3.92359      3.18079        -0.105383     -0.153838      0.118338
      9.61584      2.50729      5.80630        -0.145464     -0.204868     -0.091348
      3.43531      6.59319      4.05596         0.035032     -0.070228      0.155683
      4.41302      5.17689      6.68146         0.167306      0.201938     -1.465155
      5.22768      3.93213      8.92539        -0.646851     -1.022892      0.587225
     12.65244      7.99845      1.89934         0.112718     -0.052755     -1.676039
      3.76121      1.25399      2.30563        -0.174878      0.119283      0.428463
      8.31222      9.26279      4.93113         0.041006     -0.367260     -0.150065
      9.28993      7.84650      7.55663        -0.979460      0.716965     -2.395527
      9.95344      6.60702      9.46464         0.639408     -0.475562      1.050270
      1.64188      3.26225      8.87977         1.790383      1.967627      0.789530
      9.17938      7.47298      1.71692         0.083279     -0.801454     -0.689704
      9.84053      6.03956      3.87447        -0.147085      0.056544      0.116292
     10.81824      4.62327      6.49997         0.053824      0.037250     -0.028920
      1.09224      0.77400      2.95516        -0.572822     -0.338056     -0.279952
      4.63771      8.70917      4.74963        -0.034713     -0.798242      1.005626
      5.61542      7.29287      7.37514         0.519897     -0.000818     -1.530814
      6.79009      6.15024      9.58773        -0.060473      1.017899      0.890209
      5.03551      4.95961      1.26371        -0.916290     -0.475631     -0.186486
      4.96362      3.36996      2.99930        -0.186195     -0.275608      2.585692
      5.94133      1.95367      5.62480         0.154339      0.031253      0.193805
      6.88442      0.64860      7.97172         0.648014      0.672193      1.116318
      1.57981      2.47018      6.99321        -0.595791     -0.119774     -2.907116
      2.52444      1.29632      9.06241         0.772884     -1.040569      2.241350
      9.70412      5.30277      1.74220         0.343895      1.049764     -1.640379
     10.68183      3.88647      4.36771        -0.320019      0.102110      1.142077
      4.50130      7.97237      2.61737         1.390456      0.225366     -0.523597
      5.47901      6.55607      5.24287         0.201179     -0.083939     -0.086637
      6.45673      5.13978      7.86838         1.297283      0.037747     -3.487476
      6.91215      4.14638     10.17184        -0.115957     -1.004608      2.277610
      4.76657      2.76672      1.05562        -0.539727      0.002780     -3.433311
      5.80492      1.21687      3.49254        -0.452927     -0.226688      2.271672
     10.35593      9.22568      6.11804        -0.334126     -0.550975     -2.302999
     11.10817      8.07052      8.57750         2.549634     -0.280378      1.563099
      7.62531      8.84123      1.30379        -0.618974      0.482083     -1.822797
      8.17302      7.52069      3.50880        -0.821570     -0.111234      2.570188
      9.15074      6.10439      6.13430        -0.040719     -0.225107     -0.406640
     10.12845      4.68809      8.75980         0.320749      1.277686     -0.338973
      7.86180      2.25383      2.02883         1.671460      0.517484     -1.727542
      9.47664      0.76519      4.38397        -0.470881      0.436650      0.292163
      3.94792      8.77399      7.00947        -0.206621     -0.106802     -0.205569
      4.89523      6.99466      9.26411        -0.674025      1.756063      3.277379
      3.29611      4.85108      2.63363         0.255740      1.841166      0.202664
      4.27382      3.43479      5.25914         0.008384     -0.110839     -0.126387
      5.25153      2.01849      7.88464         0.339537      1.134610     -0.108038
      6.17737      6.20616      0.12255        -0.910511      0.552330     -3.862362
      6.64193      4.82628      2.62550        -0.349074      0.026696      2.130872
      7.61964      3.40999      5.25100        -0.090037      0.044142      0.317987
      8.59735      1.99369      7.87651        -0.490891     -1.191193     -0.653418
     10.34833      2.25892     10.08937        -0.071625     -0.400198      3.626773
      2.41682      6.07959      6.12617        -0.396464      0.279984     -0.385580
      3.33777      4.74339      8.44408        -1.127211     -0.779112      1.955291
     10.75500      8.77002      1.11545         0.621505     -1.362000     -3.246316
     11.51884      7.49589      3.50067        -0.414423     -0.291232      2.137913
      1.91919      2.30293      1.85360        -1.554403     -0.699340     -2.930265
      2.74272      0.74039      4.37584         0.412037     -0.307958      0.640279
      7.29374      8.74919      7.00134        -0.537488     -0.902614     -2.375054
      8.22607      7.71355      9.40657        -0.553661      0.074669      2.449146
    total drift:                                0.173556      0.101768      0.002540

  FREE ENERGIE OF THE ION-ELECTRON SYSTEM (eV)
  free  energy   TOTEN  =      -353.58470209 eV

  energy  without entropy=     -352.68796394  energy(sigma->0) =     -353.13633301