 vasp.5.4.4.18Apr17-6-g9f103f2a35 (build Aug 13 2019 17:33:20) gamma-only

 executed on             LinuxIFC date 2020.05.11  18:35:27

 INCAR:
 POTCAR:    PAW_PBE Ni_pv 06Sep2000
 POTCAR:    PAW_PBE S 06Sep2000
 POTCAR:    PAW_PBE Ni_pv 06Sep2000
   VRHFIN =Ni:

   TITEL  = PAW_PBE Ni_pv 06Sep2000
   POMASS =   58.690; ZVAL   =   16.000    mass and valenz
   ENMAX  =  367.986; ENMIN  =  275.989 eV

 POTCAR:    PAW_PBE S 06Sep2000
   VRHFIN =S : s2p4

   TITEL  = PAW_PBE S 06Sep2000
   POMASS =   32.066; ZVAL   =    6.000    mass and valenz
   ENMAX  =  258.689; ENMIN  =  194.016 eV

 Optimization of the real space projectors (new method)

 maximal supplied QI-value         = 18.90
 optimisation between [QCUT,QGAM] = [ 10.77, 21.73] = [ 32.49,132.25] Ry
 Optimized for a Real-space Cutoff    1.38 Angstroem

   l    n(q)    QCUT    max X(q) W(low)/X(q) W(high)/X(q)  e(spline)
   1      8    10.771     2.836    0.40E-04    0.29E-04    0.12E-06
   1      8    10.771     4.023    0.10E-03    0.48E-04    0.29E-06
   2      8    10.771    73.368    0.42E-03    0.97E-04    0.44E-06
   2      8    10.771    69.010    0.42E-03    0.99E-04    0.45E-06
   0      9    10.771    54.797    0.10E-03    0.56E-04    0.74E-07
   0      9    10.771    24.266    0.89E-04    0.49E-04    0.67E-07
 Optimization of the real space projectors (new method)

 maximal supplied QI-value         = 19.84
 optimisation between [QCUT,QGAM] = [ 10.71, 21.63] = [ 32.15,130.99] Ry
 Optimized for a Real-space Cutoff    1.19 Angstroem

   l    n(q)    QCUT    max X(q) W(low)/X(q) W(high)/X(q)  e(spline)
   0      8    10.715   187.594    0.41E-03    0.53E-04    0.66E-07
   0      8    10.715   164.243    0.41E-03    0.53E-04    0.65E-07
   1      7    10.715    67.533    0.19E-03    0.59E-03    0.68E-07
   1      7    10.715    50.729    0.19E-03    0.58E-03    0.67E-07
  PAW_PBE Ni_pv 06Sep2000               :
  PAW_PBE S 06Sep2000                   :

 POSCAR: Type_036 Type_136
  positions in cartesian coordinates
 exchange correlation table for  LEXCH =        8
   RHO(1)=    0.500       N(1)  =     2000
   RHO(2)=  100.500       N(2)  =     4000

 ion  position               nearest neighbor table
   1  0.780  0.145  0.121-  63 2.07  49 2.08  41 2.25  50 2.36  64 2.36
   2  0.796  0.146  0.286-  42 2.05  50 2.05  64 2.06
   3  0.216  0.623  0.098-  43 2.01  44 2.09  61 2.16   4 2.36  51 2.46  14 2.47
   4  0.297  0.645  0.216-  52 2.11  62 2.12  44 2.25  51 2.26  61 2.26   3 2.36  27 2.53  15 2.53

   5  0.388  0.139  0.123-  45 2.05  46 2.07  67 2.29  53 2.38   6 2.45  29 2.47
   6  0.470  0.145  0.248-  54 2.08  68 2.10  53 2.26  67 2.26  46 2.37   5 2.45  30 2.53  18 2.53

   7  0.952  0.645  0.152-  56 2.11  66 2.12  65 2.12  55 2.14  47 2.25  31 2.53  19 2.53
   8  0.125  0.145  0.184-  71 2.06  72 2.10  57 2.13  38 2.25  32 2.27   9 2.33  58 2.36  33 2.53
                            21 2.53
   9  0.069  0.182  0.314-  37 2.04  72 2.10  58 2.26   8 2.33  25 2.47  38 2.52
  10  0.570  0.657  0.159-  39 2.00  59 2.13  40 2.19  69 2.29  11 2.30
  11  0.642  0.645  0.280-  60 2.03  70 2.03  40 2.25  59 2.26  69 2.26  10 2.30  36 2.53  23 2.53

[...]

  24  0.912  0.389  0.130-  66 2.03  50 2.09  49 2.10  65 2.19  22 2.50
  25  0.941  0.285  0.271-  37 2.06  50 2.12  65 2.13  38 2.13  13 2.46   9 2.47
  26  0.444  0.854  0.053-  67 2.08  39 2.14  27 2.36  14 2.48  51 2.50
  27  0.425  0.777  0.191-  52 2.10  67 2.25  39 2.26  51 2.26  26 2.36  40 2.36  28 2.46  15 2.53
                             4 2.53
  28  0.458  0.813  0.337-  68 2.01  52 2.02  40 2.06  27 2.46
  29  0.530  0.147  0.089-  41 2.02  53 2.04  67 2.07   5 2.47  17 2.48
  30  0.597  0.277  0.223-  54 2.07  42 2.10  69 2.25  53 2.26  41 2.26   6 2.53  18 2.53
  31  0.080  0.777  0.127-  71 2.05  56 2.07  43 2.08  32 2.36  44 2.36   7 2.53  19 2.53  55 2.65

[...]

  37  0.963  0.166  0.375-   9 2.04  13 2.05  25 2.06
  38  0.991  0.145  0.182-  25 2.13  13 2.20   8 2.25  32 2.26  12 2.34   9 2.52
  39  0.474  0.645  0.087-  10 2.00  14 2.03  26 2.14  27 2.26  15 2.26
  40  0.509  0.645  0.278-  28 2.06  16 2.08  10 2.19  11 2.25  27 2.36  15 2.36
  41  0.647  0.145  0.119-  29 2.02   1 2.25  30 2.26  18 2.26  17 2.48  42 2.77
  42  0.675  0.146  0.288-   2 2.05  30 2.10  18 2.10  41 2.77
  43  0.117  0.647  0.032-   3 2.01  31 2.08  19 2.10  66 2.71
  44  0.164  0.645  0.214-  20 2.08   3 2.09   4 2.25  31 2.36  19 2.36
  45  0.281  0.144  0.063-   5 2.05  21 2.05  33 2.07
  46  0.330  0.143  0.235-  34 2.07   5 2.07  21 2.19  33 2.21   6 2.37
  47  0.819  0.645  0.151-   7 2.25  36 2.26  23 2.26  22 2.29  35 2.35
  48  0.833  0.645  0.327-  23 2.02  36 2.03  60 2.77
  49  0.830  0.300  0.047-  22 2.02   1 2.08  24 2.10  50 2.71
  50  0.829  0.314  0.214-   2 2.05  24 2.09  25 2.12  22 2.19  23 2.25   1 2.36  49 2.71
  51  0.312  0.814  0.119-  14 2.04  21 2.25   4 2.26  27 2.26   3 2.46  26 2.50
  52  0.347  0.803  0.291-  28 2.02  27 2.10   4 2.11
  53  0.484  0.314  0.151-  29 2.04  15 2.25  30 2.26   6 2.26   5 2.38
  54  0.529  0.279  0.329-  16 2.00  30 2.07   6 2.08  68 2.76
  55  0.967  0.813  0.238-  32 2.05   7 2.14  12 2.16  13 2.25  31 2.65
  56  0.976  0.797  0.061-  12 2.04  31 2.07   7 2.11  66 2.77
  57  0.141  0.325  0.109-  19 2.10  33 2.10   8 2.13  58 2.79
  58  0.174  0.314  0.278-  20 2.01  34 2.10   9 2.26   8 2.36  33 2.36  72 2.76  57 2.79
  59  0.657  0.814  0.183-  17 2.10  10 2.13  35 2.24  18 2.25  36 2.26  11 2.26
  60  0.694  0.793  0.352-  11 2.03  36 2.03  48 2.77
  61  0.312  0.477  0.119-  14 2.04   3 2.16  33 2.25   4 2.26  15 2.26
  62  0.353  0.509  0.301-  34 2.02  16 2.05   4 2.12  15 2.15
  63  0.839  0.998  0.050-  35 2.03   1 2.07  12 2.12  64 2.67
  64  0.829  0.977  0.214-   2 2.06  12 2.10  13 2.14  35 2.14  36 2.25   1 2.36  63 2.67
  65  0.991  0.473  0.224-  20 2.06   7 2.12  25 2.13  24 2.19  19 2.21
  66  0.978  0.508  0.053-  24 2.03  19 2.09   7 2.12  43 2.71  56 2.77
  67  0.484  0.977  0.151-  29 2.07  26 2.08  17 2.15  27 2.25  18 2.26   6 2.26   5 2.29
  68  0.520  0.991  0.323-  28 2.01   6 2.10  18 2.10  54 2.76
  69  0.657  0.477  0.183-  22 2.16  30 2.25  23 2.26  11 2.26  10 2.29  70 2.77
  70  0.692  0.493  0.349-  11 2.03  23 2.03  69 2.77
  71  0.138  0.965  0.116-  31 2.05   8 2.06  21 2.10  32 2.25
  72  0.154  0.028  0.290-  32 2.06   9 2.10   8 2.10  58 2.76

  LATTYP: Found a simple orthorhombic cell.
 ALAT       =     9.5784100000
 B/A-ratio  =     1.6880763216
 C/A-ratio  =     1.7627867312

  Lattice vectors:

 A1 = (   0.0000000000,   9.5784100000,   0.0000000000)
 A2 = (   0.0000000000,   0.0000000000, -16.1690871197)
 A3 = ( -16.8846940542,   0.0000000000,   0.0000000000)

Analysis of symmetry for initial positions (statically):
 Subroutine PRICEL returns:
 Original cell was already a primitive cell.

 Routine SETGRP: Setting up the symmetry group for a
 simple orthorhombic supercell.

 Subroutine GETGRP returns: Found  1 space group operations
 (whereof  1 operations were pure point group operations)
 out of a pool of  8 trial point group operations.

The static configuration has the point symmetry C_1 .

Analysis of symmetry for dynamics (positions and initial velocities):
 Subroutine PRICEL returns:
 Original cell was already a primitive cell.

 Routine SETGRP: Setting up the symmetry group for a
 simple orthorhombic supercell.

 Subroutine GETGRP returns: Found  1 space group operations
 (whereof  1 operations were pure point group operations)
 out of a pool of  8 trial point group operations.

The dynamic configuration has the point symmetry C_1 .

 Subroutine INISYM returns: Found  1 space group operations
 (whereof  1 operations are pure point group operations),
 and found     1 'primitive' translations

 KPOINTS: gamma-point-only calculation. no periodi

Automatic generation of k-mesh.
Space group operators:
 irot       det(A)        alpha          n_x          n_y          n_z        tau_x        tau_y        tau_z
    1     1.000000     0.000000     1.000000     0.000000     0.000000     0.000000     0.000000     0.000000

 Subroutine IBZKPT returns following result:

 Found      1 irreducible k-points:

 Following reciprocal coordinates:
            Coordinates               Weight
  0.000000  0.000000  0.000000      1.000000

 Following cartesian coordinates:
            Coordinates               Weight
  0.000000  0.000000  0.000000      1.000000

 SYSTEM =  "Millerite NiS"
 POSCAR =  Type_036 Type_136

 Startparameter for this run:
   NWRITE =      2    write-flag & timer
   PREC   = normal    normal or accurate (medium, high low for compatibility)
   ISTART =      0    job   : 0-new  1-cont  2-samecut
   ICHARG =      2    charge: 1-file 2-atom 10-const
   ISPIN  =      1    spin polarized calculation?
   LNONCOLLINEAR =      F non collinear calculations
   LSORBIT =      F    spin-orbit coupling
   INIWAV =      1    electr: 0-lowe 1-rand  2-diag
   LASPH  =      F    aspherical Exc in radial PAW
   METAGGA=      F    non-selfconsistent MetaGGA calc.

 Electronic Relaxation 1
   ENCUT  =  450.0 eV  33.07 Ry    5.75 a.u.  29.20 16.57 27.97*2*pi/ulx,y,z
   ENINI  =  450.0     initial cutoff
   ENAUG  =  703.4 eV  augmentation charge cutoff
   NELM   =    100;   NELMIN=  2; NELMDL= -5     # of ELM steps
   EDIFF  = 0.1E-03   stopping-criterion for ELM
   LREAL  =      T    real-space projection
   NLSPLINE    = F    spline interpolate recip. space projectors
   LCOMPAT=      F    compatible to vasp.4.4
   GGA_COMPAT  = T    GGA compatible to vasp.4.4-vasp.4.6
   LMAXPAW     = -100 max onsite density
   LMAXMIX     =    2 max onsite mixed and CHGCAR
   VOSKOWN=      0    Vosko Wilk Nusair interpolation
   ROPT   =   -0.00050  -0.00050
 Ionic relaxation
   EDIFFG = 0.1E-02   stopping-criterion for IOM
   NSW    =      0    number of steps for IOM
   NBLOCK =      1;   KBLOCK =      1    inner block; outer block
   IBRION =     -1    ionic relax: 0-MD 1-quasi-New 2-CG
   NFREE  =      0    steps in history (QN), initial steepest desc. (CG)
   ISIF   =      2    stress and relaxation
   IWAVPR =     10    prediction:  0-non 1-charg 2-wave 3-comb
   ISYM   =      2    0-nonsym 1-usesym 2-fastsym
   LCORR  =      T    Harris-Foulkes like correction to forces

   POTIM  = 0.5000    time-step for ionic-motion
   TEIN   =    0.0    initial temperature
   TEBEG  =    0.0;   TEEND  =   0.0 temperature during run
   SMASS  =  -3.00    Nose mass-parameter (am)
   estimated Nose-frequenzy (Omega)   =  0.10E-29 period in steps =****** mass=  -0.652E-26a.u.
   SCALEE = 1.0000    scale energy and forces
   NPACO  =    256;   APACO  = 16.0  distance and # of slots for P.C.
   PSTRESS=    0.0 pullay stress

  Mass of Ions in am
   POMASS =  58.69 32.07
  Ionic Valenz
   ZVAL   =  16.00  6.00
  Atomic Wigner-Seitz radii
  virtual crystal weights
   VCA    =   1.00  1.00
   NELECT =     792.0000    total number of electrons
   NUPDOWN=      -1.0000    fix difference up-down

 DOS related values:
   EMIN   =  10.00;   EMAX   =-10.00  energy-range for DOS
   EFERMI =   0.00
   ISMEAR =     0;   SIGMA  =   0.20  broadening in eV -4-tet -1-fermi 0-gaus

 Electronic relaxation 2 (details)
[...]
  Fock        0.00000     0.00000     0.00000     0.00000     0.00000     0.00000
  Total     127.04607   129.01316   145.65780    -0.76154     3.54923    -2.62296
  in kB      77.83944    79.04465    89.24260    -0.46659     2.17456    -1.60705

 VOLUME and BASIS-vectors are now :
  energy-cutoff  :      450.00
  volume of cell :     2615.00
      direct lattice vectors                 reciprocal lattice vectors
    16.884694054  0.000000000  0.000000000     0.059225237  0.000000000  0.000000000
     0.000000000  9.578410000  0.000000000     0.000000000  0.104401461  0.000000000
     0.000000000  0.000000000 16.169087120     0.000000000  0.000000000  0.061846411

  length of vectors
    16.884694054  9.578410000 16.169087120     0.059225237  0.104401461  0.061846411

 FORCES acting on ions
    electron-ion (+dipol)            ewald-force                    non-local-force                 convergence-correction
   0.187E+03 -.122E+03 0.217E+04   -.189E+03 0.123E+03 -.218E+04   0.127E+01 -.409E+00 0.620E+01   0.245E-01 0.159E-02 -.375E-01
   0.335E+03 -.607E+02 -.284E+04   -.340E+03 0.597E+02 0.284E+04   0.515E+01 0.787E+00 0.908E+00   0.294E-02 -.304E-01 0.133E-01
   0.231E+03 -.805E+01 0.256E+04   -.231E+03 0.766E+01 -.257E+04   0.676E+00 0.625E+00 0.521E+01   -.632E-01 0.126E-01 -.667E-01
   0.834E+03 -.220E+03 -.146E+04   -.837E+03 0.220E+03 0.147E+04   0.267E+01 -.713E-01 -.462E+01   -.904E-01 -.705E-02 -.358E-02
   0.288E+03 -.249E+03 0.220E+04   -.288E+03 0.251E+03 -.220E+04   0.150E+01 -.135E+01 0.698E+01   -.220E-01 0.153E-01 -.649E-01
   0.561E+03 -.542E+02 -.201E+04   -.565E+03 0.557E+02 0.201E+04   0.262E+01 -.123E+01 -.623E+01   0.667E-01 0.399E-02 0.817E-01
   0.383E+03 -.788E+02 0.725E+03   -.388E+03 0.799E+02 -.724E+03   0.369E+01 -.905E+00 -.972E+00   0.834E-02 0.738E-02 -.440E-01
   -.135E+02 -.186E+03 0.800E+03   0.130E+02 0.192E+03 -.806E+03   0.761E+00 -.354E+01 0.505E+01   -.449E-01 -.292E-01 -.392E-01
   -.454E+03 -.174E+03 -.349E+04   0.454E+03 0.175E+03 0.349E+04   0.596E+00 0.482E+00 -.733E+01   -.454E-01 -.372E-01 0.649E-01
   -.459E+03 0.535E+03 0.155E+04   0.462E+03 -.537E+03 -.156E+04   -.267E+01 0.787E+00 0.326E+01   0.798E-01 -.212E-01 -.112E-01
   0.897E+02 0.106E+03 -.241E+04   -.926E+02 -.107E+03 0.242E+04   0.201E+01 0.118E+00 -.699E+01   0.900E-01 0.765E-01 0.774E-01
   -.962E+02 -.108E+03 0.201E+04   0.985E+02 0.110E+03 -.202E+04   -.175E+01 -.117E+00 0.847E+01   0.194E-02 -.220E-01 -.874E-02
   0.195E+03 0.605E+03 -.278E+04   -.196E+03 -.604E+03 0.279E+04   0.279E-01 -.102E+01 -.849E+01   -.133E-01 -.331E-01 0.239E-01
   0.149E+03 0.408E+03 0.383E+04   -.151E+03 -.409E+03 -.384E+04   0.133E+01 0.287E+00 0.487E+01   -.660E-01 -.440E-01 -.121E+00
   -.154E+03 0.656E+03 0.365E+03   0.154E+03 -.661E+03 -.366E+03   0.608E+00 0.418E+01 -.539E+00   -.948E-02 -.939E-02 -.107E-01
   -.495E+02 0.189E+03 -.357E+04   0.522E+02 -.193E+03 0.357E+04   -.282E+01 0.443E+01 0.162E+01   0.146E-01 0.215E-01 0.106E+00
   -.674E+03 0.291E+03 0.327E+04   0.673E+03 -.291E+03 -.327E+04   0.182E+01 -.239E+00 0.133E+01   0.111E+00 -.197E-02 -.591E-01
   -.536E+03 0.173E+03 -.128E+04   0.541E+03 -.177E+03 0.129E+04   -.409E+01 0.367E+01 -.525E+01   0.112E+00 -.216E-02 0.669E-01
   -.303E+02 0.465E+03 0.179E+04   0.320E+02 -.470E+03 -.179E+04   -.137E+01 0.527E+01 0.136E+01   -.443E-01 0.539E-01 -.787E-01
   -.217E+02 -.504E+03 -.282E+04   0.257E+02 0.504E+03 0.282E+04   -.409E+01 0.498E+00 0.180E+01   -.272E-01 0.573E-01 0.262E-01
   0.158E+03 0.563E+03 0.612E+03   -.159E+03 -.566E+03 -.614E+03   0.175E+01 0.208E+01 0.268E+01   -.809E-01 -.540E-01 -.128E-01
   0.518E+03 -.256E+03 0.259E+04   -.521E+03 0.258E+03 -.260E+04   0.223E+01 -.141E+01 0.622E+01   0.461E-01 0.164E-02 -.420E-01
   -.370E+03 0.301E+03 -.180E+04   0.373E+03 -.304E+03 0.180E+04   -.249E+01 0.313E+01 -.432E+01   0.348E-01 0.275E-01 -.281E-02
   -.230E+03 0.179E+03 0.202E+04   0.232E+03 -.182E+03 -.202E+04   -.109E+01 0.839E+00 0.856E+01   0.101E-01 0.200E-01 -.448E-01
   0.104E+03 -.695E+03 -.220E+04   -.103E+03 0.697E+03 0.221E+04   -.807E+00 -.901E+00 -.574E+01   -.350E-01 -.107E-01 -.766E-02
   0.977E+02 -.284E+03 0.388E+04   -.950E+02 0.282E+03 -.388E+04   -.290E+01 0.227E+01 -.691E+00   -.138E-01 -.295E-01 -.159E+00
   0.200E+03 -.388E+03 -.317E+03   -.201E+03 0.391E+03 0.319E+03   0.102E+01 -.276E+01 -.224E+01   -.273E-01 -.345E-01 0.983E-02
   0.244E+03 -.247E+03 -.382E+04   -.244E+03 0.250E+03 0.382E+04   0.707E+00 -.317E+01 0.235E+01   0.183E-01 -.178E-01 0.133E+00
   -.202E+03 -.740E+03 0.342E+04   0.202E+03 0.741E+03 -.343E+04   -.623E+00 -.174E+01 0.569E+01   0.893E-01 0.479E-01 -.863E-01
   -.481E+03 -.592E+03 -.692E+03   0.484E+03 0.598E+03 0.692E+03   -.280E+01 -.537E+01 -.239E+01   0.774E-01 -.185E-01 0.184E-01
   -.266E+03 -.278E+03 0.160E+04   0.267E+03 0.279E+03 -.160E+04   -.319E+00 -.222E+01 0.808E+00   -.354E-01 -.324E-01 -.451E-01
   -.408E+03 0.695E+03 -.128E+04   0.411E+03 -.700E+03 0.129E+04   -.292E+01 0.469E+01 -.335E+01   -.492E-01 -.556E-01 -.343E-02
   0.115E+03 -.288E+03 0.117E+04   -.116E+03 0.292E+03 -.118E+04   0.758E+00 -.328E+01 0.333E+01   -.569E-01 0.398E-01 -.291E-01
   0.183E+03 0.135E+03 -.316E+04   -.182E+03 -.132E+03 0.316E+04   -.171E+01 -.406E+01 0.119E+01   -.312E-01 0.225E-01 0.106E+00
   0.119E+03 0.363E+03 0.255E+04   -.120E+03 -.365E+03 -.256E+04   0.396E+00 0.130E+01 0.599E+01   0.288E-01 -.895E-02 -.850E-02
   -.445E+03 -.243E+03 -.181E+04   0.448E+03 0.247E+03 0.182E+04   -.292E+01 -.275E+01 -.477E+01   -.190E-01 0.238E-01 0.516E-01
   0.787E+02 -.227E+02 -.178E+04   -.788E+02 0.228E+02 0.179E+04   -.807E+00 -.149E+00 -.147E+01   -.145E-01 -.143E-01 0.406E-01
   -.136E+02 -.154E+03 0.561E+03   0.131E+02 0.157E+03 -.568E+03   0.150E+01 -.314E+01 0.593E+01   -.234E-01 -.666E-02 -.773E-02
   -.296E+03 0.354E+03 0.129E+04   0.299E+03 -.357E+03 -.130E+04   -.199E+01 0.268E+01 0.207E+01   -.158E-04 -.285E-01 -.561E-01
   -.115E+03 0.325E+02 -.930E+03   0.115E+03 -.326E+02 0.935E+03   0.901E+00 -.714E-01 -.403E+01   0.211E-01 -.114E-01 0.354E-01
   -.271E+03 -.202E+03 0.949E+03   0.273E+03 0.204E+03 -.953E+03   -.119E+01 -.263E+01 0.185E+01   0.307E-01 0.561E-02 -.892E-02
   -.100E+03 -.243E+02 -.115E+04   0.101E+03 0.244E+02 0.115E+04   -.108E+00 -.699E-01 -.277E+01   0.738E-02 -.175E-01 0.137E-01
   0.494E+02 -.362E+02 0.167E+04   -.481E+02 0.363E+02 -.168E+04   -.891E+00 0.248E-01 0.304E+01   -.545E-02 0.383E-02 -.239E-01
   0.142E+02 -.239E+03 -.656E+03   -.152E+02 0.242E+03 0.661E+03   0.957E+00 -.205E+01 -.312E+01   -.112E-01 0.135E-01 -.150E-01
   0.155E+03 -.276E+02 0.157E+04   -.156E+03 0.277E+02 -.157E+04   0.135E+01 0.380E-01 0.228E+01   -.328E-01 -.830E-03 -.579E-01
   0.548E+02 0.223E+03 -.776E+03   -.552E+02 -.225E+03 0.782E+03   0.161E+01 0.110E+01 -.312E+01   -.271E-01 -.270E-02 0.326E-01
   -.341E+02 -.167E+02 0.650E+03   0.352E+02 0.175E+02 -.653E+03   -.134E+01 -.504E+00 0.173E+01   0.148E-01 0.251E-02 -.291E-02
   -.417E+03 0.438E+01 -.142E+04   0.421E+03 -.476E+01 0.143E+04   -.256E+01 0.439E+00 -.938E+00   -.255E-02 0.155E-01 0.137E-01
   -.610E+02 0.382E+02 0.160E+04   0.616E+02 -.378E+02 -.161E+04   -.917E-01 -.503E+00 0.380E+01   0.980E-02 0.319E-02 -.326E-01
   0.720E+02 -.541E+02 -.310E+03   -.735E+02 0.540E+02 0.313E+03   -.390E+00 0.955E+00 -.201E+01   0.127E-01 0.503E-02 -.888E-02
   0.318E+03 -.306E+03 0.701E+03   -.320E+03 0.309E+03 -.702E+03   0.162E+01 -.152E+01 0.415E-01   -.450E-01 -.167E-01 -.240E-01
   0.491E+03 -.251E+03 -.121E+04   -.494E+03 0.255E+03 0.121E+04   0.119E+01 -.206E+01 -.188E+01   -.391E-01 -.525E-02 0.431E-01
   0.364E+01 -.309E+03 0.643E+03   -.399E+01 0.312E+03 -.645E+03   -.950E+00 -.157E+01 0.217E+01   0.214E-01 0.206E-01 -.165E-01
   -.111E+03 0.620E+02 -.147E+04   0.112E+03 -.605E+02 0.148E+04   -.473E+00 -.124E+01 -.196E+01   0.162E-01 -.803E-04 0.427E-01
   0.716E+01 0.334E+03 -.858E+03   -.692E+01 -.337E+03 0.864E+03   0.586E-01 0.218E+01 -.300E+01   -.399E-02 -.198E-02 0.889E-03
   0.891E+02 -.674E+02 0.154E+04   -.899E+02 0.688E+02 -.154E+04   0.504E+00 -.765E+00 0.344E+01   0.505E-02 -.135E-01 -.156E-01
   0.111E+03 0.677E+02 0.111E+04   -.112E+03 -.688E+02 -.111E+04   -.706E-01 0.367E+00 0.369E+01   -.204E-01 0.158E-01 -.319E-01
   -.535E+02 -.525E+02 -.101E+04   0.542E+02 0.555E+02 0.101E+04   -.269E+00 -.333E+01 -.888E+00   0.173E-02 0.658E-02 0.238E-01
   -.149E+03 0.282E+02 0.160E+03   0.148E+03 -.263E+02 -.160E+03   0.811E+00 -.888E+00 -.693E+00   0.441E-01 0.833E-02 0.272E-01
   -.276E+02 -.236E+03 -.158E+04   0.263E+02 0.240E+03 0.158E+04   0.115E+01 -.201E+01 -.963E+00   0.151E-01 0.113E-01 0.222E-01
   0.485E+02 0.358E+03 0.844E+03   -.482E+02 -.361E+03 -.847E+03   -.713E+00 0.118E+01 0.274E+01   -.240E-01 0.193E-01 -.308E-01
   0.281E+03 -.825E+02 -.128E+04   -.282E+03 0.812E+02 0.128E+04   -.118E+00 0.456E+00 -.280E+01   -.171E-01 0.633E-02 0.393E-01
   -.113E+03 -.304E+02 0.159E+04   0.114E+03 0.301E+02 -.160E+04   -.100E+00 0.124E+00 0.414E+01   0.565E-02 -.454E-03 -.319E-01
   0.683E+02 0.815E+02 -.316E+03   -.701E+02 -.816E+02 0.320E+03   -.335E+00 -.424E+00 -.200E+01   0.819E-02 -.113E-01 0.843E-02
   0.564E+02 -.128E+03 -.606E+03   -.565E+02 0.131E+03 0.611E+03   -.206E+00 -.180E+01 -.247E+01   -.211E-01 0.135E-01 -.180E-01
   0.537E+02 0.935E+02 0.158E+04   -.553E+02 -.947E+02 -.159E+04   0.139E+01 0.477E+00 0.333E+01   -.496E-02 0.777E-02 -.184E-01
   0.140E+03 0.235E+02 0.284E+03   -.142E+03 -.256E+02 -.283E+03   0.410E+00 0.111E+01 -.179E+01   0.258E-01 0.342E-02 0.494E-02
   -.498E+02 -.543E+02 -.145E+04   0.502E+02 0.531E+02 0.145E+04   -.204E+00 0.102E+01 -.211E+01   0.330E-01 0.377E-02 0.381E-01
   0.801E+02 0.113E+03 0.378E+03   -.820E+02 -.116E+03 -.381E+03   0.795E+00 0.165E+01 0.163E+01   0.269E-01 -.347E-02 -.342E-02
   -.184E+02 0.253E+03 -.154E+04   0.171E+02 -.257E+03 0.155E+04   0.964E+00 0.208E+01 -.129E+01   0.143E-01 0.132E-01 0.215E-01
   -.395E+02 0.117E+01 0.106E+04   0.401E+02 -.703E+00 -.107E+04   -.391E+00 -.662E+00 0.525E+01   -.196E-01 -.231E-01 -.193E-01
   -.400E+03 0.345E+03 -.126E+04   0.403E+03 -.348E+03 0.126E+04   -.117E+01 0.188E+01 -.167E+01   -.408E-02 -.265E-01 0.313E-01
   0.281E+01 0.894E+01 -.260E+02   0.114E-11 -.341E-12 0.182E-11   -.293E+01 -.874E+01 0.262E+02   0.398E-01 -.718E-01 -.191E+00

 POSITION                                       TOTAL-FORCE (eV/Angst)
     13.17084      1.39171      1.94975        -0.480240      0.098499      1.002379
     13.43632      1.40121      4.61719         0.240139     -0.203609      0.584547
      3.65210      5.96923      1.58047         1.093425      0.243464     -0.487776
      5.02033      6.18092      3.49202        -0.433612      0.049957      0.007048
      6.55061      1.32979      1.98094         1.230017      0.087986     -0.573825
      7.93172      1.39171      4.00611        -1.353222      0.327709     -1.003437
     16.08224      6.18092      2.46384        -0.938832      0.134569     -0.376904
      2.10894      1.39171      2.97793         0.228101      2.497150     -0.742206
      1.15927      1.74119      5.07787         0.796432      0.902239      0.272931
      9.63004      6.29022      2.57259         0.570756     -0.395465     -0.547259
     10.84312      6.18092      4.52020        -0.813829     -0.246229     -0.738045
     15.65416      9.02942      2.22099         0.545086      1.295640      0.219297
     15.76299      0.27159      4.57056        -0.641360     -0.531138     -0.166974
      6.03080      6.18147      0.93652        -0.355491     -0.111039     -1.661525
      7.17375      4.91558      3.08454         0.251809     -0.174345     -1.136732
      7.91108      4.39482      5.32048        -0.161950      0.537943      0.909603
      9.97237      8.72758      1.44002         0.054271     -0.194218     -0.912512
     10.08514      0.12638      3.59863         0.700935     -0.033164     -0.276882
      1.35096      4.91558      2.05636         0.350376      0.166690      0.292980
      1.75499      4.63092      4.41161        -0.025669      0.583934      0.823283
      4.26235      0.12638      2.57045         0.188883     -0.954966      1.190453
     12.93305      4.13280      1.91817        -0.770879      0.871552      0.037071
     12.99653      4.91558      4.11272         0.226810     -0.194633     -1.436714
     15.39518      3.72626      2.09734         0.439986     -1.313212      0.401506
     15.89161      2.72568      4.38191        -0.220115      0.708253     -0.554203
      7.49758      8.18216      0.86398        -0.198536      0.429245     -0.718752
      7.17375      7.44626      3.08454         0.112369     -0.194306     -0.065465
      7.73253      7.78476      5.45565         0.367948     -0.121014      0.745554
      8.95467      1.40917      1.43430        -0.228811     -0.083991     -1.951719
     10.08514      2.65705      3.59863         0.519802      0.495470     -1.861346
      1.35096      7.44626      2.05636         0.806512     -1.047581      0.699075
      0.96313      9.13603      3.65874        -0.524139     -0.840705     -0.346117
      4.26235      2.65705      2.57045         0.038598      0.835288      0.398930
      5.01256      3.09320      4.80315        -0.613938     -0.140612      1.129425
     12.99109      8.30771      1.90168        -0.994894     -0.896313      0.004052
     12.99653      7.44626      4.11272         0.459542      0.372562     -1.568373
     16.26524      1.59032      6.05651        -0.857552     -0.035116      3.906721
     16.74052      1.39171      2.94940         0.966341      0.046358     -1.357602
      8.00634      6.18092      1.40713         1.157806     -0.415805     -3.110370
      8.59001      6.18092      4.49167         1.323905     -0.261773      1.125407
     10.91773      1.39171      1.92122         1.588011     -0.549584     -1.318016
     11.38946      1.39540      4.65526         0.861063      0.041661      2.593850
      1.96943      6.20154      0.51025         0.346357      0.119564     -3.342601
      2.76722      6.18092      3.46349        -0.039364      0.852769      2.122361
      4.74513      1.37607      1.01738         0.366624      0.146590     -3.952520
      5.56691      1.37163      3.80457         1.095560     -0.984179      2.292648
     13.82913      6.18092      2.43531        -0.236893      0.254450     -1.471855
     14.05927      6.17582      5.28641         2.065413      0.078634      3.037446
     14.01048      2.87620      0.76223         0.501840     -0.118607     -3.797288
     13.99844      3.00295      3.46826        -1.882239      0.877218      1.514905
      5.26426      7.79215      1.92599        -0.735120      1.358751     -0.816558
      5.85910      7.68722      4.70046        -1.717635      1.756994      2.046241
      8.17565      3.00295      2.44008        -1.281133      1.344908      0.032525
      8.92476      2.67035      5.31354         0.332416      0.252945      2.916699
     16.32141      7.78696      3.85572         0.291960     -1.374985      2.919240
     16.47279      7.63085      0.98033        -0.283441      0.634559     -2.972799
      2.38222      3.11569      1.76325        -0.520032     -0.658742     -2.749208
      2.93654      3.00295      4.49645         0.480985     -0.285603      1.614031
     11.08705      7.79215      2.95417        -0.089782      1.085881     -0.688514
     11.71650      7.59353      5.68375        -0.196209      1.700795      3.624546
      5.26426      4.56969      1.92599        -0.482977     -1.711348     -0.124665
      5.96842      4.87377      4.86818        -1.242044     -0.796064      1.988461
     14.16460      9.55846      0.80841         0.706591     -0.181273     -3.439850
     13.99844      9.35889      3.46826        -2.135108     -0.578006      1.672438
     16.73231      4.52996      3.62889        -0.294345      0.606129      2.491910
     16.51842      4.86829      0.85798        -0.190390     -0.733875     -3.229167
      8.17565      9.35889      2.44008        -1.075902     -0.941232     -0.436018
      8.78022      9.49032      5.22831         0.192150     -0.163080      2.753319
     11.08705      4.56969      2.95417        -1.143198     -0.815812     -0.976186
     11.68152      4.71997      5.65085        -0.307822     -1.680596      3.515007
      2.33430      9.23982      1.87810         0.098730     -0.221237     -2.393550
      2.59880      0.26808      4.68530         1.869151     -1.612896      2.417642
    total drift:                               -0.082813      0.136303      0.006763

  FREE ENERGIE OF THE ION-ELECTRON SYSTEM (eV)
  free  energy   TOTEN  =      -339.94121432 eV

  energy  without entropy=     -338.65858337  energy(sigma->0) =     -339.29989884