 vasp.5.4.4.18Apr17-6-g9f103f2a35 (build Aug 13 2019 17:33:20) gamma-only

 executed on             LinuxIFC date 2020.05.12  21:17:53

 INCAR:
 POTCAR:    PAW_PBE Ni_pv 06Sep2000
 POTCAR:    PAW_PBE S 06Sep2000
 POTCAR:    PAW_PBE Ni_pv 06Sep2000
   VRHFIN =Ni:

   TITEL  = PAW_PBE Ni_pv 06Sep2000
   POMASS =   58.690; ZVAL   =   16.000    mass and valenz
   ENMAX  =  367.986; ENMIN  =  275.989 eV

 POTCAR:    PAW_PBE S 06Sep2000
   VRHFIN =S : s2p4

   TITEL  = PAW_PBE S 06Sep2000
   POMASS =   32.066; ZVAL   =    6.000    mass and valenz
   ENMAX  =  258.689; ENMIN  =  194.016 eV

 Optimization of the real space projectors (new method)

 maximal supplied QI-value         = 18.90
 optimisation between [QCUT,QGAM] = [ 10.77, 21.73] = [ 32.49,132.25] Ry
 Optimized for a Real-space Cutoff    1.38 Angstroem

   l    n(q)    QCUT    max X(q) W(low)/X(q) W(high)/X(q)  e(spline)
   1      8    10.771     2.836    0.40E-04    0.29E-04    0.12E-06
   1      8    10.771     4.023    0.10E-03    0.48E-04    0.29E-06
   2      8    10.771    73.368    0.42E-03    0.97E-04    0.44E-06
   2      8    10.771    69.010    0.42E-03    0.99E-04    0.45E-06
   0      9    10.771    54.797    0.10E-03    0.56E-04    0.74E-07
   0      9    10.771    24.266    0.89E-04    0.49E-04    0.67E-07
 Optimization of the real space projectors (new method)

 maximal supplied QI-value         = 19.84
 optimisation between [QCUT,QGAM] = [ 10.71, 21.63] = [ 32.15,130.99] Ry
 Optimized for a Real-space Cutoff    1.19 Angstroem

   l    n(q)    QCUT    max X(q) W(low)/X(q) W(high)/X(q)  e(spline)
   0      8    10.715   187.594    0.41E-03    0.53E-04    0.66E-07
   0      8    10.715   164.243    0.41E-03    0.53E-04    0.65E-07
   1      7    10.715    67.533    0.19E-03    0.59E-03    0.68E-07
   1      7    10.715    50.729    0.19E-03    0.58E-03    0.67E-07
  PAW_PBE Ni_pv 06Sep2000               :
  PAW_PBE S 06Sep2000                   :

 POSCAR: Type_036 Type_136
  positions in cartesian coordinates
 exchange correlation table for  LEXCH =        8
   RHO(1)=    0.500       N(1)  =     2000
   RHO(2)=  100.500       N(2)  =     4000

 ion  position               nearest neighbor table
   1  0.397  0.795  0.127-  49 2.04  61 2.11  42 2.25  50 2.36  62 2.36  27 2.46
   2  0.547  0.645  0.254-  43 2.25  62 2.26  50 2.26  63 2.36  51 2.36  28 2.53  14 2.53
   3  0.698  0.494  0.381-  64 2.17  44 2.22  51 2.26  63 2.26  52 2.36  15 2.53  29 2.53
   4  0.826  0.336  0.482-  52 2.00  64 2.00  26 2.44  16 2.45
   5  0.114  0.412  0.169-  53 2.13  45 2.25  68 2.26   8 2.28  65 2.36  54 2.36  30 2.53  17 2.53

   6  0.264  0.261  0.296-  46 2.25  65 2.26  54 2.26  55 2.36  66 2.36  18 2.53  31 2.53
   7  0.414  0.111  0.423-  56 2.05  47 2.20  67 2.21  55 2.26  66 2.26  32 2.53  19 2.53
   8  0.995  0.595  0.103-  48 2.00  45 2.13  53 2.20   5 2.28  68 2.31  21 2.46
   9  0.074  0.817  0.449-  59 2.09  72 2.09  58 2.12  37 2.12  20 2.46  12 2.47
  10  0.708  0.213  0.147-  38 1.99  39 2.10  60 2.18  11 2.28  70 2.29  36 2.41
  11  0.831  0.028  0.212-  39 2.25  60 2.26  70 2.26  10 2.28  57 2.36  71 2.36  24 2.53  33 2.53

[...]

  25  0.941  0.653  0.305-  72 2.08  51 2.25  71 2.26  45 2.26  46 2.36  34 2.53  12 2.53
  26  0.026  0.165  0.425-  40 2.04  37 2.10  66 2.12  52 2.14   4 2.44
  27  0.592  0.594  0.080-  49 2.03  50 2.05  38 2.06   1 2.46
  28  0.732  0.460  0.187-  68 2.25  50 2.26  38 2.26  51 2.36  39 2.36  14 2.53   2 2.53
  29  0.882  0.310  0.314-  65 2.25  39 2.26  51 2.26  40 2.36  52 2.36   3 2.53  15 2.53
  30  0.299  0.227  0.102-  41 2.04  53 2.16  54 2.36  42 2.36  21 2.46   5 2.53  17 2.53
  31  0.449  0.076  0.229-  70 2.25  42 2.26  54 2.26  55 2.36  43 2.36  18 2.53   6 2.53
  32  0.599  0.926  0.356-  56 2.05  71 2.25  55 2.26  43 2.26   7 2.53  19 2.53
  33  0.015  0.843  0.144-  61 2.11  48 2.26  60 2.26  45 2.36  57 2.36  24 2.53  11 2.53
  34  0.166  0.693  0.271-  62 2.25  57 2.26  45 2.26  46 2.36  58 2.36  12 2.53  25 2.53
  35  0.316  0.543  0.398-  59 2.08  47 2.17  63 2.25  58 2.26  46 2.26  22 2.40  20 2.52
  36  0.768  0.002  0.081-  69 2.02  48 2.02  60 2.06  70 2.08  10 2.41  23 2.48
  37  0.979  0.024  0.488-  16 2.10  26 2.10   9 2.12  40 2.61
  38  0.586  0.406  0.117-  10 1.99  27 2.06  13 2.20  14 2.26  28 2.26
  39  0.736  0.256  0.244-  10 2.10  11 2.25  29 2.26  15 2.26  14 2.36  28 2.36
  40  0.886  0.105  0.371-  16 2.04  26 2.04  12 2.25  15 2.36  29 2.36  37 2.61
  41  0.174  0.151  0.047-  21 2.01  30 2.04  17 2.07  42 2.76
  42  0.303  0.023  0.160-   1 2.25  31 2.26  18 2.26  17 2.36  30 2.36  41 2.76
  43  0.453  0.872  0.286-   2 2.25  19 2.26  32 2.26  18 2.36  31 2.36
  44  0.524  0.685  0.418-  20 2.09  19 2.14   3 2.22  63 2.74
  45  0.019  0.639  0.202-   8 2.13   5 2.25  25 2.26  34 2.26  24 2.36  33 2.36
  46  0.170  0.489  0.329-  22 2.07   6 2.25  35 2.26  34 2.36  25 2.36  47 2.60
  47  0.300  0.342  0.428-  22 2.17  35 2.17   7 2.20  46 2.60
  48  0.869  0.789  0.075-   8 2.00  36 2.02  33 2.26  24 2.26  23 2.29
  49  0.481  0.781  0.036-  27 2.03   1 2.04  23 2.08
  50  0.636  0.692  0.160-  27 2.05  23 2.14  24 2.25  28 2.26   2 2.26   1 2.36
  51  0.787  0.542  0.287-  25 2.25   3 2.26  29 2.26  28 2.36   2 2.36
  52  0.937  0.391  0.414-   4 2.00  26 2.14  22 2.34   3 2.36  29 2.36
  53  0.215  0.452  0.085-  21 2.08   5 2.13  30 2.16  13 2.16   8 2.20
  54  0.353  0.308  0.202-  14 2.25   6 2.26  31 2.26  30 2.36   5 2.36
  55  0.503  0.158  0.329-  15 2.25   7 2.26  32 2.26   6 2.36  31 2.36  56 2.75
  56  0.629  0.020  0.440-  32 2.05   7 2.05  16 2.09  55 2.75
  57  0.070  0.925  0.245-  18 2.25  34 2.26  12 2.26  11 2.36  33 2.36
  58  0.220  0.775  0.372-   9 2.12  20 2.25  19 2.25  35 2.26  34 2.36  12 2.36
  59  0.204  0.619  0.483-  35 2.08   9 2.09  20 2.11  22 2.17
  60  0.920  0.075  0.118-  36 2.06  10 2.18  17 2.25  11 2.26  33 2.26
  61  0.213  0.759  0.097-  33 2.11   1 2.11  13 2.12  62 2.63
  62  0.350  0.641  0.203-  13 2.04  34 2.25  14 2.26   2 2.26   1 2.36  61 2.63
  63  0.501  0.491  0.330-  35 2.25   3 2.26  15 2.26   2 2.36  14 2.36  44 2.74
  64  0.644  0.345  0.441-   4 2.00  15 2.06  16 2.14   3 2.17
  65  0.067  0.258  0.245-  29 2.25   6 2.26  18 2.26   5 2.36  17 2.36
  66  0.218  0.108  0.372-  26 2.12  19 2.26   7 2.26  18 2.36   6 2.36
  67  0.371  0.946  0.481-  19 1.99   7 2.21  20 2.25
  68  0.917  0.408  0.118-  21 2.06  28 2.25  17 2.26   5 2.26   8 2.31
  69  0.620  0.990  0.018-  36 2.02  23 2.02
  70  0.634  0.025  0.160-  36 2.08  31 2.25  11 2.26  24 2.26  10 2.29  23 2.42
  71  0.784  0.874  0.287-  32 2.25  25 2.26  12 2.26  24 2.36  11 2.36
  72  0.952  0.720  0.399-  25 2.08   9 2.09  12 2.12  22 2.14

  LATTYP: Found a base centered orthorhombic cell.
 ALAT       =    11.4527836704
 B/A-ratio  =     1.4485816945
 C/A-ratio  =     1.8059804630

  Lattice vectors:

 A1 = (  10.0797329849,   0.0000000000,   0.0000000000)
 A2 = (  -3.5732980427,  -9.4251025535,   0.0000000000)
 A3 = (   0.0000000000,   0.0000000000, -20.6835035552)

Analysis of symmetry for initial positions (statically):
 Subroutine PRICEL returns:
 Original cell was already a primitive cell.

 Routine SETGRP: Setting up the symmetry group for a
 base centered orthorhombic supercell.

 Subroutine GETGRP returns: Found  1 space group operations
 (whereof  1 operations were pure point group operations)
 out of a pool of  8 trial point group operations.

The static configuration has the point symmetry C_1 .

Analysis of symmetry for dynamics (positions and initial velocities):
 Subroutine PRICEL returns:
 Original cell was already a primitive cell.

 Routine SETGRP: Setting up the symmetry group for a
 base centered orthorhombic supercell.

 Subroutine GETGRP returns: Found  1 space group operations
 (whereof  1 operations were pure point group operations)
 out of a pool of  8 trial point group operations.

The dynamic configuration has the point symmetry C_1 .

 Subroutine INISYM returns: Found  1 space group operations
 (whereof  1 operations are pure point group operations),
 and found     1 'primitive' translations

 KPOINTS: gamma-point-only calculation. no periodi

Automatic generation of k-mesh.
Space group operators:
 irot       det(A)        alpha          n_x          n_y          n_z        tau_x        tau_y        tau_z
    1     1.000000     0.000000     1.000000     0.000000     0.000000     0.000000     0.000000     0.000000

 Subroutine IBZKPT returns following result:

 Found      1 irreducible k-points:

 Following reciprocal coordinates:
            Coordinates               Weight
  0.000000  0.000000  0.000000      1.000000

 Following cartesian coordinates:
            Coordinates               Weight
  0.000000  0.000000  0.000000      1.000000

 SYSTEM =  "Millerite NiS"
 POSCAR =  Type_036 Type_136

 Startparameter for this run:
   NWRITE =      2    write-flag & timer
   PREC   = normal    normal or accurate (medium, high low for compatibility)
   ISTART =      0    job   : 0-new  1-cont  2-samecut
   ICHARG =      2    charge: 1-file 2-atom 10-const
   ISPIN  =      1    spin polarized calculation?
   LNONCOLLINEAR =      F non collinear calculations
   LSORBIT =      F    spin-orbit coupling
   INIWAV =      1    electr: 0-lowe 1-rand  2-diag
   LASPH  =      F    aspherical Exc in radial PAW
   METAGGA=      F    non-selfconsistent MetaGGA calc.

 Electronic Relaxation 1
   ENCUT  =  450.0 eV  33.07 Ry    5.75 a.u.  17.43 17.43 35.78*2*pi/ulx,y,z
   ENINI  =  450.0     initial cutoff
   ENAUG  =  703.4 eV  augmentation charge cutoff
   NELM   =    100;   NELMIN=  2; NELMDL= -5     # of ELM steps
   EDIFF  = 0.1E-03   stopping-criterion for ELM
   LREAL  =      T    real-space projection
   NLSPLINE    = F    spline interpolate recip. space projectors
   LCOMPAT=      F    compatible to vasp.4.4
   GGA_COMPAT  = T    GGA compatible to vasp.4.4-vasp.4.6
   LMAXPAW     = -100 max onsite density
   LMAXMIX     =    2 max onsite mixed and CHGCAR
   VOSKOWN=      0    Vosko Wilk Nusair interpolation
   ROPT   =   -0.00050  -0.00050
 Ionic relaxation
   EDIFFG = 0.1E-02   stopping-criterion for IOM
   NSW    =      0    number of steps for IOM
   NBLOCK =      1;   KBLOCK =      1    inner block; outer block
   IBRION =     -1    ionic relax: 0-MD 1-quasi-New 2-CG
   NFREE  =      0    steps in history (QN), initial steepest desc. (CG)
   ISIF   =      2    stress and relaxation
   IWAVPR =     10    prediction:  0-non 1-charg 2-wave 3-comb
   ISYM   =      2    0-nonsym 1-usesym 2-fastsym
   LCORR  =      T    Harris-Foulkes like correction to forces

   POTIM  = 0.5000    time-step for ionic-motion
   TEIN   =    0.0    initial temperature
   TEBEG  =    0.0;   TEEND  =   0.0 temperature during run
   SMASS  =  -3.00    Nose mass-parameter (am)
   estimated Nose-frequenzy (Omega)   =  0.10E-29 period in steps =****** mass=  -0.232E-26a.u.
   SCALEE = 1.0000    scale energy and forces
   NPACO  =    256;   APACO  = 16.0  distance and # of slots for P.C.
   PSTRESS=    0.0 pullay stress

  Mass of Ions in am
   POMASS =  58.69 32.07
  Ionic Valenz
   ZVAL   =  16.00  6.00
  Atomic Wigner-Seitz radii
[...]
  Fock        0.00000     0.00000     0.00000     0.00000     0.00000     0.00000
  Total      79.54100    81.82420   104.51576    -3.23791    -3.53008     0.47695
  in kB      64.85484    66.71648    85.21835    -2.64007    -2.87830     0.38889

 VOLUME and BASIS-vectors are now :
  energy-cutoff  :      450.00
  volume of cell :     1964.98
      direct lattice vectors                 reciprocal lattice vectors
    10.079732985  0.000000000  0.000000000     0.099208977 -0.037612667  0.000000000
     3.573298043  9.425102554  0.000000000     0.000000000  0.106099641  0.000000000
     0.000000000  0.000000000 20.683503555     0.000000000  0.000000000  0.048347708

  length of vectors
    10.079732985 10.079732985 20.683503555     0.106099641  0.106099641  0.048347708

 FORCES acting on ions
    electron-ion (+dipol)            ewald-force                    non-local-force                 convergence-correction
   0.410E+03 -.640E+03 0.332E+04   -.412E+03 0.645E+03 -.332E+04   0.227E+01 -.438E+01 0.235E+01   -.264E-01 0.530E-01 -.120E+00
   -.402E+02 -.493E+03 -.295E+03   0.392E+02 0.494E+03 0.296E+03   0.754E+00 -.161E+01 -.944E+00   0.808E-01 0.119E-01 -.384E-02
   -.183E+03 -.861E+03 -.338E+04   0.185E+03 0.863E+03 0.338E+04   -.147E+01 -.135E+01 0.108E+01   0.178E+00 -.195E+00 0.390E+00
   -.164E+03 -.668E+03 -.564E+04   0.164E+03 0.667E+03 0.564E+04   0.269E+00 0.104E+01 0.529E+01   0.612E-01 0.666E-01 0.216E+00
   -.112E+03 -.749E+02 0.161E+04   0.112E+03 0.735E+02 -.160E+04   0.305E+00 0.178E+00 -.332E+01   -.786E-01 0.550E-02 -.372E+00
   -.325E+02 -.383E+03 -.121E+04   0.323E+02 0.384E+03 0.121E+04   0.202E+00 -.923E+00 0.792E+00   -.877E-01 0.187E-01 -.509E-01
   -.856E+02 -.430E+03 -.455E+04   0.852E+02 0.432E+03 0.455E+04   -.538E+00 -.952E+00 -.414E+01   -.140E-01 0.361E-01 0.138E+00
   0.372E+02 -.264E+03 0.446E+04   -.390E+02 0.262E+03 -.446E+04   0.149E+01 0.198E+01 0.334E+01   -.750E-02 -.204E+00 -.249E+00
   0.499E+03 -.177E+03 -.494E+04   -.499E+03 0.182E+03 0.495E+04   0.316E+00 -.503E+01 -.515E+01   -.547E-01 0.577E-01 0.158E+00
   0.137E+03 -.329E+03 0.347E+04   -.138E+03 0.329E+03 -.347E+04   0.705E+00 0.683E+00 0.433E+01   0.572E-01 -.463E-01 -.172E+00
   -.181E+03 -.185E+03 0.643E+03   0.182E+03 0.184E+03 -.638E+03   -.958E+00 0.751E+00 -.285E+01   0.377E-01 -.251E-01 -.109E+00
   0.189E+03 -.425E+03 -.201E+04   -.189E+03 0.429E+03 0.201E+04   0.558E-01 -.313E+01 0.942E+00   -.110E-01 0.487E-01 0.613E-01
   0.323E+03 0.229E+03 0.423E+04   -.325E+03 -.230E+03 -.423E+04   0.247E+01 0.810E+00 0.231E+01   -.125E+00 -.489E-01 -.195E+00
   0.501E+03 0.250E+03 0.792E+03   -.503E+03 -.249E+03 -.790E+03   0.212E+01 -.991E+00 -.208E+01   0.107E-03 -.346E-01 -.960E-01
   0.562E+03 0.226E+03 -.210E+04   -.564E+03 -.228E+03 0.210E+04   0.205E+01 0.876E+00 0.989E+00   0.187E+00 0.666E-01 0.211E+00
   0.646E+03 0.462E+03 -.493E+04   -.650E+03 -.465E+03 0.494E+04   0.284E+01 0.261E+01 -.304E+01   0.313E+00 0.389E+00 0.280E+00
   0.522E+03 0.607E+03 0.314E+04   -.525E+03 -.608E+03 -.314E+04   0.147E+01 0.471E+00 0.304E+00   0.666E-01 0.147E+00 -.299E+00
   0.340E+03 0.310E+03 -.340E+02   -.342E+03 -.310E+03 0.338E+02   0.151E+01 -.586E-01 0.232E+00   -.567E-01 0.414E-01 -.713E-01
   -.148E+03 0.772E+02 -.301E+04   0.149E+03 -.763E+02 0.301E+04   -.112E+01 -.406E+00 0.206E+01   -.267E-01 -.493E-01 0.533E-01
   -.505E+03 0.206E+03 -.540E+04   0.507E+03 -.206E+03 0.540E+04   -.181E+01 0.173E+00 -.347E+01   0.670E-03 -.335E-01 0.192E+00
   0.352E+03 -.290E+02 0.585E+04   -.355E+03 0.272E+02 -.586E+04   0.168E+01 0.285E+01 0.573E+01   0.243E-01 0.210E-01 -.140E+00
   0.635E+03 0.337E+03 -.445E+04   -.640E+03 -.339E+03 0.445E+04   0.380E+01 0.208E+01 -.429E-01   -.226E+00 -.533E-01 0.184E+00
   0.306E+03 -.177E+03 0.463E+04   -.309E+03 0.178E+03 -.463E+04   0.265E+01 -.199E+01 0.578E+01   0.919E-01 -.104E-02 -.967E-01
   0.351E+03 0.289E+03 0.158E+04   -.352E+03 -.289E+03 -.157E+04   0.284E+00 0.362E+00 -.340E+01   0.690E-01 -.512E-01 -.144E+00
   0.588E+03 0.318E+03 -.130E+04   -.590E+03 -.319E+03 0.130E+04   0.249E+01 0.947E+00 0.402E+00   -.640E-01 -.286E-01 0.960E-02
   -.714E+03 0.372E+02 -.411E+04   0.720E+03 -.382E+02 0.412E+04   -.414E+01 0.102E+01 -.977E+00   -.271E+00 0.350E+00 0.325E+00
   -.180E+03 0.546E+03 0.517E+04   0.178E+03 -.547E+03 -.518E+04   0.280E+01 -.612E+00 0.362E+01   0.699E-01 -.569E-01 -.149E+00
   -.524E+03 0.125E+03 0.195E+04   0.526E+03 -.124E+03 -.195E+04   -.182E+01 -.914E+00 -.195E+01   0.152E+00 -.319E-01 -.126E+00
   -.490E+03 0.392E+02 -.109E+04   0.492E+03 -.384E+02 0.109E+04   -.148E+01 -.792E+00 0.188E+01   0.328E-01 0.368E-01 0.201E+00
   -.899E+03 0.488E+03 0.431E+04   0.900E+03 -.490E+03 -.430E+04   0.158E+01 0.398E+00 0.104E+01   -.184E+00 0.128E+00 -.264E+00
   -.335E+03 0.170E+03 0.948E+03   0.334E+03 -.170E+03 -.947E+03   0.351E+00 -.676E+00 -.226E+00   -.167E-01 0.943E-02 -.129E+00
   -.430E+03 0.523E+03 -.252E+04   0.432E+03 -.523E+03 0.252E+04   -.263E+01 -.163E+00 0.103E+01   0.620E-01 -.923E-01 0.136E-01
   -.800E+03 -.700E+02 0.329E+04   0.805E+03 0.698E+02 -.329E+04   -.500E+01 0.228E+00 0.232E+00   -.622E-01 -.310E-01 -.147E+00
   -.467E+03 0.176E+03 -.845E+02   0.468E+03 -.176E+03 0.829E+02   -.652E+00 -.671E+00 0.130E+01   -.572E-01 0.337E-01 -.732E-01
   -.454E+03 0.530E+03 -.335E+04   0.459E+03 -.532E+03 0.335E+04   -.360E+01 0.267E+01 0.980E+00   0.325E-01 -.267E-02 0.140E+00
   -.247E+03 -.523E+03 0.522E+04   0.247E+03 0.530E+03 -.523E+04   0.352E+00 -.577E+01 0.963E+01   0.688E-01 -.229E-01 -.107E+00
   -.305E+02 0.100E+03 -.216E+04   0.319E+02 -.102E+03 0.216E+04   -.103E+01 0.119E+01 -.233E+01   0.250E-02 0.973E-01 0.674E-01
   0.926E+02 0.196E+03 0.173E+04   -.929E+02 -.198E+03 -.174E+04   -.803E+00 0.250E+01 0.336E+01   0.965E-02 -.217E-01 -.775E-01
   -.247E+02 0.822E+02 0.771E+02   0.248E+02 -.836E+02 -.756E+02   0.811E-01 0.151E+01 -.237E+00   0.416E-01 -.124E-01 -.140E-01
   0.321E+02 0.158E+03 -.827E+03   -.335E+02 -.161E+03 0.822E+03   0.948E+00 0.169E+01 0.142E+01   0.446E-01 0.591E-01 0.752E-01
   0.758E+02 0.446E+03 0.219E+04   -.764E+02 -.450E+03 -.219E+04   0.282E+00 0.114E+01 0.689E+00   -.665E-02 0.151E+00 -.483E-01
   0.418E+02 0.139E+03 0.112E+04   -.418E+02 -.140E+03 -.112E+04   0.174E+00 0.163E+01 0.828E+00   -.109E-01 0.474E-01 -.696E-01
   -.190E+02 0.121E+03 -.170E+03   0.189E+02 -.124E+03 0.169E+03   0.315E+00 0.254E+01 0.984E+00   0.930E-02 0.104E-03 -.106E-01
   -.343E+03 0.950E+02 -.156E+04   0.345E+03 -.956E+02 0.156E+04   0.154E+00 -.181E+00 -.126E+01   0.522E-01 -.654E-01 0.624E-01
   -.325E+02 0.906E+02 0.450E+03   0.337E+02 -.915E+02 -.447E+03   -.993E+00 0.880E+00 -.165E+01   -.230E-01 -.800E-02 -.910E-01
   0.139E+02 0.158E+03 -.514E+03   -.140E+02 -.159E+03 0.510E+03   0.331E+00 0.154E+01 0.149E+01   -.426E-01 -.953E-02 0.336E-02
   -.449E+02 0.150E+03 -.173E+04   0.441E+02 -.151E+03 0.173E+04   0.149E+01 -.240E+00 0.332E+00   -.266E-01 0.148E-01 0.740E-01
   -.121E+03 0.991E+02 0.212E+04   0.123E+03 -.103E+03 -.212E+04   -.136E+01 0.263E+01 0.521E+01   0.257E-01 -.399E-01 -.349E-01
   0.214E+03 -.157E+03 0.230E+04   -.216E+03 0.158E+03 -.231E+04   0.221E+01 0.424E+00 0.143E+01   -.442E-02 0.618E-02 -.686E-01
   -.723E+02 -.480E+02 0.786E+03   0.742E+02 0.484E+02 -.783E+03   -.137E+01 -.135E-01 -.423E+00   0.455E-01 -.290E-02 -.405E-01
   -.122E+03 -.150E+03 -.303E+03   0.123E+03 0.152E+03 0.303E+03   -.163E+01 -.217E+01 -.102E+00   0.156E-01 -.238E-01 0.312E-01
   -.254E+03 -.282E+03 -.144E+04   0.256E+03 0.283E+03 0.144E+04   -.761E-01 -.181E+00 -.773E+00   -.166E+00 -.597E-01 0.215E+00
   -.351E+03 -.123E+03 0.189E+04   0.353E+03 0.124E+03 -.189E+04   -.670E+00 -.666E+00 0.955E+00   -.135E+00 -.552E-01 -.109E+00
   -.115E+03 -.598E+02 0.569E+03   0.117E+03 0.617E+02 -.570E+03   -.211E+01 -.221E+01 0.132E+01   -.413E-01 -.125E-01 -.804E-01
   -.877E+02 -.898E+02 -.642E+03   0.894E+02 0.922E+02 0.641E+03   -.196E+01 -.220E+01 -.115E+00   0.161E-01 -.390E-02 -.105E-01
   -.575E+02 0.202E+03 -.189E+04   0.584E+02 -.205E+03 0.189E+04   0.253E+00 0.169E+01 -.108E+01   0.423E-01 -.147E-01 0.620E-01
   -.160E+03 -.117E+03 0.203E+03   0.162E+03 0.119E+03 -.203E+03   -.209E+01 -.175E+01 0.765E+00   -.125E-01 0.147E-01 -.275E-01
   -.121E+03 -.556E+02 -.815E+03   0.123E+03 0.577E+02 0.812E+03   -.155E+01 -.150E+01 0.122E+01   -.225E-01 0.233E-01 0.334E-01
   0.100E+03 0.235E+03 -.226E+04   -.101E+03 -.237E+03 0.227E+04   0.143E+00 0.152E+01 -.329E+01   -.251E-01 0.591E-02 0.910E-01
   -.317E+03 -.106E+03 0.163E+04   0.320E+03 0.107E+03 -.164E+04   -.286E+00 -.212E+00 0.312E+01   0.668E-02 0.377E-02 -.635E-01
   0.711E+02 -.167E+03 0.181E+04   -.729E+02 0.169E+03 -.181E+04   0.131E+01 -.701E+00 0.354E+01   -.424E-01 -.358E-02 -.569E-01
   0.133E+03 -.141E+03 0.420E+03   -.135E+03 0.143E+03 -.418E+03   0.165E+01 -.142E+01 0.457E+00   -.275E-01 0.151E-01 -.455E-01
   0.142E+03 -.661E+02 -.713E+03   -.145E+03 0.668E+02 0.712E+03   0.293E+01 -.498E+00 -.321E+00   0.451E-01 -.393E-02 0.546E-01
   0.404E+03 -.199E+03 -.188E+04   -.409E+03 0.201E+03 0.188E+04   0.289E+01 -.151E+01 -.155E+01   0.235E+00 0.298E-01 0.177E+00
   0.126E+03 -.490E+02 0.837E+02   -.129E+03 0.501E+02 -.834E+02   0.230E+01 -.113E+01 -.299E+00   -.186E-01 0.112E-01 -.287E-01
   0.552E+02 -.945E+02 -.110E+04   -.579E+02 0.957E+02 0.110E+04   0.285E+01 -.126E+01 -.142E+01   -.746E-01 0.327E-01 0.321E-01
   -.135E+03 -.108E+03 -.221E+04   0.135E+03 0.110E+03 0.222E+04   -.255E+00 -.845E+00 -.157E+01   -.195E-01 -.101E-01 0.940E-01
   0.350E+03 0.403E+01 0.143E+04   -.354E+03 -.324E+01 -.144E+04   0.273E+01 0.448E-01 0.174E+01   0.107E+00 -.995E-02 -.145E+00
   0.142E+03 -.259E+03 0.223E+04   -.143E+03 0.261E+03 -.224E+04   -.796E+00 -.564E-01 0.991E+00   0.203E-01 0.129E-01 -.436E-01
   0.317E+03 -.169E+03 0.900E+03   -.321E+03 0.171E+03 -.899E+03   0.289E+01 -.186E+01 0.797E+00   0.153E-01 -.696E-02 -.587E-01
   0.198E+03 -.418E+02 -.389E+03   -.201E+03 0.426E+02 0.390E+03   0.271E+01 -.704E+00 -.850E+00   0.500E-02 -.592E-02 -.820E-02
   0.467E+03 0.144E+01 -.157E+04   -.474E+03 0.169E+00 0.157E+04   0.403E+01 -.120E+01 -.908E+00   -.206E-01 -.607E-02 0.611E-01
   -.254E+02 0.113E+02 -.359E+02   -.512E-12 -.208E-11 -.932E-11   0.253E+02 -.119E+02 0.365E+02   0.235E+00 0.663E+00 -.539E+00

 POSITION                                       TOTAL-FORCE (eV/Angst)
      6.84285      7.49250      2.62550        -0.524581      0.645217      1.849258
      7.82056      6.07621      5.25100        -0.148270     -0.299392      0.206037
      8.79827      4.65991      7.87651         0.092850      0.174808     -0.113672
      9.52753      3.16528      9.97101         0.281157     -0.065231      1.575298
      2.61774      3.87870      3.50067         0.246554     -1.248103      2.505472
      3.59545      2.46241      6.12617        -0.126158     -0.331308     -0.038732
      4.57317      1.04611      8.75167        -1.008638      0.716031     -0.664794
     12.15718      5.61142      2.12494        -0.285227     -0.222176     -0.656497
      3.66890      7.70078      9.29071        -0.104229      0.549378      0.593216
      7.89621      2.01128      3.03309        -0.268973     -0.272764     -0.664135
      8.47237      0.26490      4.37584         0.366472     -1.030474      1.300687
     13.02338      8.27371      7.00134         0.370534      0.514580     -1.141796
      5.63721      5.20552      2.33926        -0.028417     -0.620474     -1.008217
      6.61816      3.96023      4.55733        -0.183378      0.158609     -0.080221
      7.59587      2.54394      7.18283        -0.038819     -0.544563     -1.418434
      8.21834      1.18106      9.39059        -0.838615      0.186520      0.858851
      1.41534      1.76273      2.80700        -0.956164     -0.712182      1.847233
      2.39305      0.34643      5.43250         0.199548      0.184473     -0.051257
      6.94406      8.35524      8.05800         0.261187      0.438508     -3.911355
      5.99769      6.99238      9.67235        -0.118953     -0.246201      0.896275
      2.03708      3.41809      1.00244        -0.501160      1.030981     -1.722713
      2.79734      4.83353      8.74837        -1.946658     -0.829600      0.986322
      9.35729      7.93123      1.76384        -0.200561     -0.905666      0.451732
     10.84326      7.57403      3.68216         0.133505     -0.230075      0.618753
     11.82097      6.15773      6.30767        -0.289176     -0.473473     -1.384526
      0.84878      1.55874      8.79087         1.007841      0.329420      0.372859
      8.08377      5.59413      1.66090         0.559583     -1.165661     -0.710767
      9.02296      4.33443      3.86366         0.125188     -0.154981     -0.232534
     10.00068      2.91813      6.48916         0.240690      0.017187     -0.197933
      3.82015      2.13692      2.11332         1.715900     -0.842567      1.583387
      4.79786      0.72063      4.73883        -0.255739      0.017067      0.244541
      9.34887      8.72943      7.36433        -0.355875     -0.193193     -1.568616
      3.16834      7.94822      2.98849        -0.157651      0.046653      0.424702
      4.14605      6.53193      5.61399         0.368797     -0.003536     -0.378892
      5.12376      5.11563      8.23950         1.351384     -0.102168     -1.354434
      7.74623      0.01622      1.68224         1.034911      1.081441     -0.716481
      9.95205      0.22495     10.08685         0.347089     -0.458380      2.146833
      7.35546      3.82659      2.42507        -1.102651      0.443721     -1.608060
      8.33317      2.41029      5.05057         0.260294      0.077197      1.265105
      9.31088      0.99399      7.67607        -0.352182     -0.716147     -3.369887
      2.29167      1.42460      0.96749        -0.315101     -2.183660     -3.382629
      3.13035      0.21279      3.30024         0.233258      0.077752      0.200285
      7.68136      8.22159      5.92574         0.148234     -0.197702     -0.116122
      7.73155      6.45390      8.64358         2.014461     -0.858407      0.817100
      2.47854      6.02409      4.17540         0.116039     -0.093372      1.136297
      3.45626      4.60779      6.80091         0.165249      0.101309     -2.505078
      4.24903      3.22151      8.85202         0.689234     -0.908619      1.775350
     11.58056      7.44039      1.54990         0.203899     -1.461304     -2.017736
      7.63911      7.35682      0.75065        -0.472921      0.989284     -3.591584
      8.88655      6.52099      3.30837         0.507255      0.399432      2.569187
      9.86427      5.10469      5.93387         0.240425      0.132909      0.118013
     10.84198      3.68840      8.55937         1.800706      1.575522     -0.348235
      3.77986      4.26234      1.75409         1.412277      0.939296     -1.662485
      4.66145      2.90719      4.18354         0.060355     -0.343406      0.390662
      5.63916      1.49089      6.80904        -0.248179      0.162216     -1.052752
      6.40572      0.18413      9.09966         1.262075     -1.322081      2.475697
      4.00964      8.71849      5.05870         0.170102     -0.089850      0.426266
      4.98735      7.30220      7.68420         0.239980      0.614629     -1.558151
      4.26900      5.83153      9.99319        -0.265477     -0.575161      3.846929
      9.53836      0.70969      2.43320         2.420280      0.785916      0.139239
      4.85466      7.15095      2.01106        -0.516290      0.771846     -2.160932
      5.82436      6.04450      4.19167         0.352122      0.579953      2.867589
      6.80207      4.62821      6.81717         0.056266      0.241346     -1.307116
      7.71928      3.24938      9.11902        -2.161831      0.978213      2.459942
      1.59925      2.43070      5.06683        -0.076764     -0.037728     -0.045515
      2.57697      1.01441      7.69234         0.099760      0.027717     -0.915746
      7.12582      8.92042      9.95457        -0.261827      0.842985      4.128317
     10.70128      3.84700      2.44133        -0.951462      0.821896      0.103318
      9.79092      9.33147      0.37025        -1.491811      1.954859     -3.444041
      6.47617      0.23320      3.31650        -1.551532      0.638709      2.083027
     11.02718      8.24201      5.94200        -0.099854      0.091804     -0.157589
     12.17160      6.78854      8.25797        -2.950333      0.400221      1.995886
    total drift:                                0.158646      0.103442      0.048795

  FREE ENERGIE OF THE ION-ELECTRON SYSTEM (eV)
  free  energy   TOTEN  =      -350.19971677 eV

  energy  without entropy=     -349.22707295  energy(sigma->0) =     -349.71339486