 vasp.6.1.0 28Jan20 (build Mar 31 2020 17:42:31) gamma-only

 executed on             LinuxIFC date 2020.04.12  08:52:31

 INCAR:
 POTCAR:    PAW_PBE Ni_pv 06Sep2000
 POTCAR:    PAW_PBE S 06Sep2000
 POTCAR:    PAW_PBE Ni_pv 06Sep2000
   VRHFIN =Ni:

   TITEL  = PAW_PBE Ni_pv 06Sep2000
   POMASS =   58.690; ZVAL   =   16.000    mass and valenz
   ENMAX  =  367.986; ENMIN  =  275.989 eV

 POTCAR:    PAW_PBE S 06Sep2000
   VRHFIN =S : s2p4

   TITEL  = PAW_PBE S 06Sep2000
   POMASS =   32.066; ZVAL   =    6.000    mass and valenz
   ENMAX  =  258.689; ENMIN  =  194.016 eV

 Optimization of the real space projectors (new method)

 maximal supplied QI-value         = 18.90
 optimisation between [QCUT,QGAM] = [ 10.77, 21.73] = [ 32.49,132.25] Ry
 Optimized for a Real-space Cutoff    1.38 Angstroem

   l    n(q)    QCUT    max X(q) W(low)/X(q) W(high)/X(q)  e(spline)
   1      8    10.771     2.836    0.40E-04    0.29E-04    0.12E-06
   1      8    10.771     4.023    0.10E-03    0.48E-04    0.29E-06
   2      8    10.771    73.368    0.42E-03    0.97E-04    0.44E-06
   2      8    10.771    69.010    0.42E-03    0.99E-04    0.45E-06
   0      9    10.771    54.797    0.10E-03    0.56E-04    0.74E-07
   0      9    10.771    24.266    0.89E-04    0.49E-04    0.67E-07
 Optimization of the real space projectors (new method)

 maximal supplied QI-value         = 19.84
 optimisation between [QCUT,QGAM] = [ 10.71, 21.63] = [ 32.15,130.99] Ry
 Optimized for a Real-space Cutoff    1.19 Angstroem

   l    n(q)    QCUT    max X(q) W(low)/X(q) W(high)/X(q)  e(spline)
   0      8    10.715   187.594    0.41E-03    0.53E-04    0.66E-07
   0      8    10.715   164.243    0.41E-03    0.53E-04    0.65E-07
   1      7    10.715    67.533    0.19E-03    0.59E-03    0.68E-07
   1      7    10.715    50.729    0.19E-03    0.58E-03    0.67E-07
  PAW_PBE Ni_pv 06Sep2000               :
  PAW_PBE S 06Sep2000                   :

 POSCAR: Structure 10 made from -112-10.xsd file
  positions in direct lattice
 exchange correlation table for  LEXCH =        8
   RHO(1)=    0.500       N(1)  =     2000
   RHO(2)=  100.500       N(2)  =     4000

 ion  position               nearest neighbor table
   1  0.780  0.145  0.121-  41 2.25  49 2.26  63 2.26  50 2.36  64 2.36  25 2.53  13 2.53
   2  0.815  0.145  0.311-  42 2.25  50 2.26  64 2.26  26 2.53  14 2.53
   3  0.263  0.645  0.025-  43 2.25  51 2.36  61 2.36  27 2.53  15 2.53
   4  0.297  0.645  0.216-  44 2.25  51 2.26  61 2.26  52 2.36  62 2.36  28 2.53  16 2.53
   5  0.435  0.145  0.057-  45 2.25  53 2.36  67 2.36  30 2.53  18 2.53
   6  0.470  0.145  0.248-  46 2.25  53 2.26  67 2.26  54 2.36  68 2.36  31 2.53  19 2.53
   7  0.952  0.645  0.152-  47 2.25  56 2.26  66 2.26  55 2.36  65 2.36  32 2.53  20 2.53
   8  0.987  0.645  0.343-  48 2.25  55 2.26  65 2.26
   9  0.125  0.145  0.184-  38 2.25  57 2.26  71 2.26  58 2.36  72 2.36  33 2.53  21 2.53
  10  0.159  0.145  0.375-  37 2.25  58 2.26  72 2.26  34 2.53  22 2.53
  11  0.608  0.645  0.089-  39 2.25  59 2.36  69 2.36  35 2.53  23 2.53
  12  0.642  0.645  0.280-  40 2.25  59 2.26  69 2.26  60 2.36  70 2.36  36 2.53  24 2.53
  13  0.908  0.013  0.095-  56 2.25  63 2.26  64 2.36  38 2.36   1 2.53  25 2.53
  14  0.942  0.013  0.286-  55 2.25  64 2.26  38 2.26  37 2.36   2 2.53  26 2.53
  15  0.390  0.513  0.000-  39 2.36  61 2.36   3 2.53  27 2.53
  16  0.425  0.513  0.191-  53 2.25  39 2.26  61 2.26  40 2.36  62 2.36  28 2.53   4 2.53
  17  0.459  0.513  0.382-  54 2.25  40 2.26  62 2.26  29 2.53
  18  0.563  0.013  0.032-  41 2.36  67 2.36   5 2.53  30 2.53
  19  0.597  0.013  0.223-  59 2.25  67 2.26  41 2.26  68 2.36  42 2.36   6 2.53  31 2.53
  20  0.080  0.513  0.127-  57 2.25  43 2.26  66 2.26  44 2.36  65 2.36   7 2.53  32 2.53
  21  0.252  0.013  0.159-  51 2.25  45 2.26  71 2.26  46 2.36  72 2.36   9 2.53  33 2.53
  22  0.287  0.013  0.350-  52 2.25  46 2.26  72 2.26  10 2.53  34 2.53
  23  0.735  0.513  0.064-  49 2.25  69 2.36  47 2.36  11 2.53  35 2.53
  24  0.770  0.513  0.254-  50 2.25  69 2.26  47 2.26  48 2.36  70 2.36  12 2.53  36 2.53
  25  0.908  0.277  0.095-  66 2.25  49 2.26  50 2.36  38 2.36   1 2.53  13 2.53
  26  0.942  0.277  0.286-  65 2.25  50 2.26  38 2.26  37 2.36   2 2.53  14 2.53
  27  0.390  0.777  0.000-  39 2.36  51 2.36   3 2.53  15 2.53
  28  0.425  0.777  0.191-  67 2.25  39 2.26  51 2.26  40 2.36  52 2.36  16 2.53   4 2.53
  29  0.459  0.777  0.382-  68 2.25  40 2.26  52 2.26  17 2.53
  30  0.563  0.277  0.032-  41 2.36  53 2.36   5 2.53  18 2.53
  31  0.597  0.277  0.223-  69 2.25  53 2.26  41 2.26  54 2.36  42 2.36   6 2.53  19 2.53
  32  0.080  0.777  0.127-  71 2.25  43 2.26  56 2.26  44 2.36  55 2.36   7 2.53  20 2.53
  33  0.252  0.277  0.159-  61 2.25  45 2.26  57 2.26  46 2.36  58 2.36   9 2.53  21 2.53
  34  0.287  0.277  0.350-  62 2.25  46 2.26  58 2.26  10 2.53  22 2.53
  35  0.735  0.777  0.064-  63 2.25  59 2.36  47 2.36  11 2.53  23 2.53
  36  0.770  0.777  0.254-  64 2.25  59 2.26  47 2.26  48 2.36  60 2.36  12 2.53  24 2.53
  37  0.026  0.145  0.373-  10 2.25  14 2.36  26 2.36
  38  0.991  0.145  0.182-   9 2.25  14 2.26  26 2.26  25 2.36  13 2.36
  39  0.474  0.645  0.087-  11 2.25  16 2.26  28 2.26  27 2.36  15 2.36
  40  0.509  0.645  0.278-  12 2.25  17 2.26  29 2.26  28 2.36  16 2.36
  41  0.647  0.145  0.119-   1 2.25  19 2.26  31 2.26  30 2.36  18 2.36
  42  0.681  0.145  0.310-   2 2.25  19 2.36  31 2.36
  43  0.129  0.645  0.023-   3 2.25  20 2.26  32 2.26
  44  0.164  0.645  0.214-   4 2.25  20 2.36  32 2.36
  45  0.302  0.145  0.055-   5 2.25  21 2.26  33 2.26
  46  0.336  0.145  0.246-   6 2.25  22 2.26  34 2.26  33 2.36  21 2.36
  47  0.819  0.645  0.151-   7 2.25  24 2.26  36 2.26  35 2.36  23 2.36
  48  0.854  0.645  0.341-   8 2.25  24 2.36  36 2.36
  49  0.794  0.314  0.024-  23 2.25   1 2.26  25 2.26
  50  0.829  0.314  0.214-  24 2.25  26 2.26   2 2.26  25 2.36   1 2.36
  51  0.312  0.814  0.119-  21 2.25   4 2.26  28 2.26  27 2.36   3 2.36
  52  0.346  0.814  0.310-  22 2.25  29 2.26   4 2.36  28 2.36
  53  0.484  0.314  0.151-  16 2.25  31 2.26   6 2.26  30 2.36   5 2.36
  54  0.519  0.314  0.342-  17 2.25  31 2.36   6 2.36
  55  0.001  0.814  0.246-  14 2.25   8 2.26   7 2.36  32 2.36
  56  0.967  0.814  0.056-  13 2.25   7 2.26  32 2.26
  57  0.139  0.314  0.087-  20 2.25  33 2.26   9 2.26
  58  0.174  0.314  0.278-  10 2.26  34 2.26   9 2.36  33 2.36
  59  0.657  0.814  0.183-  19 2.25  36 2.26  12 2.26  35 2.36  11 2.36
  60  0.691  0.814  0.373-  36 2.36  12 2.36
  61  0.312  0.477  0.119-  33 2.25   4 2.26  16 2.26  15 2.36   3 2.36
  62  0.346  0.477  0.310-  34 2.25  17 2.26   4 2.36  16 2.36
  63  0.794  0.977  0.024-  35 2.25   1 2.26  13 2.26
  64  0.829  0.977  0.214-  36 2.25  14 2.26   2 2.26  13 2.36   1 2.36
  65  0.001  0.477  0.246-  26 2.25   8 2.26   7 2.36  20 2.36
  66  0.967  0.477  0.056-  25 2.25   7 2.26  20 2.26
  67  0.484  0.977  0.151-  28 2.25  19 2.26   6 2.26  18 2.36   5 2.36
  68  0.519  0.977  0.342-  29 2.25  19 2.36   6 2.36
  69  0.657  0.477  0.183-  31 2.25  24 2.26  12 2.26  23 2.36  11 2.36
  70  0.691  0.477  0.373-  24 2.36  12 2.36
  71  0.139  0.977  0.087-  32 2.25  21 2.26   9 2.26
  72  0.174  0.977  0.278-  10 2.26  22 2.26   9 2.36  21 2.36

  LATTYP: Found a simple orthorhombic cell.
 ALAT       =     9.5784100000
 B/A-ratio  =     1.6880763216
 C/A-ratio  =     1.7627867312

  Lattice vectors:

 A1 = (   0.0000000000,   9.5784100000,   0.0000000000)
 A2 = (   0.0000000000,   0.0000000000, -16.1690871197)
 A3 = ( -16.8846940542,   0.0000000000,   0.0000000000)

Analysis of symmetry for initial positions (statically):
 Subroutine PRICEL returns:
 Original cell was already a primitive cell.

 Routine SETGRP: Setting up the symmetry group for a
 simple orthorhombic supercell.

 Subroutine GETGRP returns: Found  2 space group operations
 (whereof  1 operations were pure point group operations)
 out of a pool of  8 trial point group operations.

The static configuration has the point symmetry C_1 .
 The point group associated with its full space group is C_1h.

Analysis of symmetry for dynamics (positions and initial velocities):
 Subroutine PRICEL returns:
 Original cell was already a primitive cell.

 Routine SETGRP: Setting up the symmetry group for a
 simple orthorhombic supercell.

 Subroutine GETGRP returns: Found  2 space group operations
 (whereof  1 operations were pure point group operations)
 out of a pool of  8 trial point group operations.

The dynamic configuration has the point symmetry C_1 .
 The point group associated with its full space group is C_1h.

 Subroutine INISYM returns: Found  2 space group operations
 (whereof  1 operations are pure point group operations),
 and found     1 'primitive' translations

                                     Primitive cell

  volume of cell :    2615.0026

  direct lattice vectors                    reciprocal lattice vectors
    16.884694054  0.000000000  0.000000000     0.059225237  0.000000000  0.000000000
     0.000000000  9.578410000  0.000000000     0.000000000  0.104401461  0.000000000
     0.000000000  0.000000000 16.169087120     0.000000000  0.000000000  0.061846411

  length of vectors
    16.884694054  9.578410000 16.169087120     0.059225237  0.104401461  0.061846411

  position of ions in fractional coordinates (direct lattice)
     0.780046307  0.145296954  0.120584992
     0.814614264  0.145296954  0.311352939
     0.262762328  0.645296954  0.025201018
     0.297330285  0.645296954  0.215968965
     0.435190321  0.145296954  0.056995676
     0.469758278  0.145296954  0.247763623
     0.952474300  0.645296954  0.152379650
     0.987042257  0.645296954  0.343147597
     0.124902293  0.145296954  0.184174308
     0.159470250  0.145296954  0.374942255
     0.607618314  0.645296954  0.088790334
     0.642186271  0.645296954  0.279558281
     0.907582776  0.013193954  0.095383974
     0.942150733  0.013193954  0.286151921
     0.390298797  0.513193954  0.000000000
     0.424866755  0.513193954  0.190767947
     0.459434712  0.513193954  0.381535895
     0.562726790  0.013193954  0.031794658
     0.597294747  0.013193954  0.222562605
     0.080010769  0.513193954  0.127178632
     0.252438762  0.013193954  0.158973289
     0.287006719  0.013193954  0.349741237
     0.735154783  0.513193954  0.063589316
     0.769722740  0.513193954  0.254357263
     0.907582776  0.277399954  0.095383974
     0.942150733  0.277399954  0.286151921
     0.390298797  0.777399954  0.000000000
     0.424866755  0.777399954  0.190767947
     0.459434712  0.777399954  0.381535895
     0.562726790  0.277399954  0.031794658
     0.597294747  0.277399954  0.222562605
     0.080010769  0.777399954  0.127178632
     0.252438762  0.277399954  0.158973289
     0.287006719  0.277399954  0.349741237
     0.735154783  0.777399954  0.063589316
     0.769722740  0.777399954  0.254357263
     0.026029163  0.145296954  0.373177651
     0.991461206  0.145296954  0.182409704
     0.474177227  0.645296954  0.087025730
     0.508745184  0.645296954  0.277793678
     0.646605220  0.145296954  0.118820388
     0.681173177  0.145296954  0.309588336
[...]
  Fock        0.00000     0.00000     0.00000     0.00000     0.00000     0.00000
  Total     -44.84816   -42.91339   -61.57379     0.00000     0.00000   -11.78619
  in kB     -27.47787   -26.29246   -37.72544     0.00000     0.00000    -7.22124

 VOLUME and BASIS-vectors are now :
  energy-cutoff  :      450.00
  volume of cell :     2615.00
      direct lattice vectors                 reciprocal lattice vectors
    16.884694054  0.000000000  0.000000000     0.059225237  0.000000000  0.000000000
     0.000000000  9.578410000  0.000000000     0.000000000  0.104401461  0.000000000
     0.000000000  0.000000000 16.169087120     0.000000000  0.000000000  0.061846411

  length of vectors
    16.884694054  9.578410000 16.169087120     0.059225237  0.104401461  0.061846411

 FORCES acting on ions
    electron-ion (+dipol)            ewald-force                    non-local-force                 convergence-correction
   0.210E+03 -.855E-03 0.138E+04   -.211E+03 -.475E-13 -.139E+04   0.141E+01 -.196E-18 0.431E+01   0.152E-02 -.307E-06 0.170E-02
   0.278E+03 -.852E-03 -.282E+04   -.280E+03 0.586E-13 0.281E+04   0.391E+00 0.485E-19 0.674E+01   0.575E-02 -.249E-06 -.686E-02
   0.959E+03 -.897E-03 0.283E+04   -.962E+03 -.103E-12 -.282E+04   0.242E+01 -.105E-18 -.190E+01   0.390E-01 -.207E-06 -.170E-01
   0.107E+04 -.804E-03 -.100E+04   -.107E+04 -.142E-13 0.100E+04   0.323E+01 -.311E-19 -.114E+01   0.651E-02 -.579E-07 -.121E-01
   0.669E+03 -.934E-03 0.258E+04   -.672E+03 0.799E-14 -.258E+04   0.240E+01 0.226E-19 -.113E+01   0.132E-01 -.942E-07 -.802E-02
   0.387E+03 -.844E-03 -.151E+04   -.388E+03 -.192E-12 0.151E+04   0.714E+00 0.684E-19 -.339E+01   -.488E-02 -.177E-06 -.129E-01
   0.202E+03 -.874E-03 0.733E+03   -.203E+03 -.604E-13 -.735E+03   0.141E+01 -.409E-19 0.188E+01   -.525E-02 0.766E-08 -.282E-01
   -.424E+03 -.921E-03 -.293E+04   0.418E+03 -.117E-12 0.291E+04   0.476E+01 -.163E-18 0.119E+02   0.988E-02 -.133E-06 -.956E-02
   0.686E+03 -.823E-03 0.347E+03   -.687E+03 -.284E-13 -.349E+03   0.139E+01 0.356E-19 0.267E+01   0.696E-02 -.246E-06 -.366E-02
   0.710E+03 -.776E-03 -.317E+04   -.709E+03 -.284E-13 0.316E+04   -.894E+00 -.346E-19 0.662E+01   0.734E-02 -.240E-06 -.884E-02
   0.226E+03 -.800E-03 0.216E+04   -.223E+03 -.195E-12 -.216E+04   -.278E+01 -.498E-19 -.878E+00   -.108E-01 -.103E-06 -.111E-01
   0.180E+03 -.805E-03 -.206E+04   -.180E+03 0.386E-13 0.207E+04   -.422E-01 0.468E-19 -.459E+01   0.438E-02 -.980E-07 0.572E-02
   -.618E+03 0.333E+03 0.218E+04   0.618E+03 -.337E+03 -.219E+04   0.132E+00 0.329E+01 0.193E+01   0.481E-02 0.823E-02 0.306E-02
   -.368E+03 0.558E+03 -.210E+04   0.370E+03 -.556E+03 0.210E+04   -.158E+01 -.144E+01 -.115E+00   -.525E-02 0.330E-01 -.756E-02
   -.277E+02 0.631E+03 0.326E+04   0.237E+02 -.621E+03 -.325E+04   0.393E+01 -.954E+01 -.639E+01   0.531E-02 0.101E-01 -.115E-01
   -.820E+02 0.452E+03 -.105E+03   0.818E+02 -.454E+03 0.105E+03   0.121E+00 0.166E+01 0.171E+00   -.523E-02 -.109E-01 -.238E-01
   -.327E+01 0.327E+03 -.330E+04   0.841E+00 -.327E+03 0.328E+04   0.225E+01 -.615E+00 0.876E+01   -.671E-02 -.623E-02 0.290E-02
   -.393E+03 0.504E+03 0.305E+04   0.388E+03 -.494E+03 -.305E+04   0.498E+01 -.901E+01 -.601E+01   -.132E-01 0.161E-01 -.507E-02
   -.453E+03 0.358E+03 -.953E+03   0.454E+03 -.359E+03 0.955E+03   -.895E+00 0.112E+01 -.223E+01   -.625E-02 0.138E-01 -.133E-01
   -.161E+03 0.422E+03 0.116E+04   0.164E+03 -.425E+03 -.116E+04   -.213E+01 0.271E+01 0.201E+01   0.101E-01 -.181E-01 -.112E-01
   0.231E+03 0.430E+03 0.873E+03   -.232E+03 -.431E+03 -.877E+03   0.124E+01 0.835E+00 0.346E+01   -.304E-02 0.165E-01 -.464E-02
   0.244E+02 0.601E+03 -.291E+04   -.283E+02 -.599E+03 0.290E+04   0.361E+01 -.259E+01 0.514E+01   -.531E-02 0.147E-01 -.600E-02
   -.445E+03 0.319E+03 0.270E+04   0.446E+03 -.321E+03 -.270E+04   -.616E+00 0.130E+01 -.182E+01   0.866E-02 -.168E-01 -.756E-02
   -.528E+03 0.450E+03 -.152E+04   0.528E+03 -.451E+03 0.153E+04   0.103E+00 0.114E+01 -.350E+01   -.505E-02 -.190E-01 -.713E-02
   -.618E+03 -.333E+03 0.218E+04   0.618E+03 0.337E+03 -.219E+04   0.132E+00 -.329E+01 0.193E+01   0.481E-02 -.823E-02 0.306E-02
   -.368E+03 -.558E+03 -.210E+04   0.370E+03 0.556E+03 0.210E+04   -.158E+01 0.144E+01 -.115E+00   -.525E-02 -.330E-01 -.756E-02
   -.277E+02 -.631E+03 0.326E+04   0.237E+02 0.621E+03 -.325E+04   0.393E+01 0.954E+01 -.639E+01   0.531E-02 -.101E-01 -.115E-01
   -.820E+02 -.452E+03 -.105E+03   0.818E+02 0.454E+03 0.105E+03   0.121E+00 -.166E+01 0.171E+00   -.523E-02 0.109E-01 -.238E-01
   -.327E+01 -.327E+03 -.330E+04   0.841E+00 0.327E+03 0.328E+04   0.225E+01 0.615E+00 0.876E+01   -.671E-02 0.623E-02 0.290E-02
   -.393E+03 -.504E+03 0.305E+04   0.388E+03 0.494E+03 -.305E+04   0.498E+01 0.901E+01 -.601E+01   -.132E-01 -.161E-01 -.507E-02
   -.453E+03 -.358E+03 -.953E+03   0.454E+03 0.359E+03 0.955E+03   -.895E+00 -.112E+01 -.223E+01   -.625E-02 -.138E-01 -.133E-01
   -.161E+03 -.422E+03 0.116E+04   0.164E+03 0.425E+03 -.116E+04   -.213E+01 -.271E+01 0.201E+01   0.101E-01 0.181E-01 -.112E-01
   0.231E+03 -.430E+03 0.873E+03   -.232E+03 0.431E+03 -.877E+03   0.124E+01 -.835E+00 0.346E+01   -.304E-02 -.165E-01 -.464E-02
   0.244E+02 -.601E+03 -.291E+04   -.283E+02 0.599E+03 0.290E+04   0.361E+01 0.259E+01 0.514E+01   -.531E-02 -.147E-01 -.600E-02
   -.445E+03 -.319E+03 0.270E+04   0.446E+03 0.321E+03 -.270E+04   -.616E+00 -.130E+01 -.182E+01   0.866E-02 0.168E-01 -.756E-02
   -.528E+03 -.450E+03 -.152E+04   0.528E+03 0.451E+03 0.153E+04   0.103E+00 -.114E+01 -.350E+01   -.505E-02 0.190E-01 -.713E-02
   0.329E+02 -.113E-04 -.123E+04   -.334E+02 0.249E-13 0.123E+04   -.576E+00 0.996E-19 -.372E+01   0.106E-02 -.296E-07 -.686E-02
   -.222E+03 -.109E-04 0.208E+03   0.225E+03 0.746E-13 -.209E+03   -.284E+01 0.108E-18 -.506E+00   0.203E-02 -.574E-07 0.220E-02
   -.194E+03 -.191E-04 0.801E+03   0.197E+03 -.422E-13 -.800E+03   -.280E+01 -.509E-19 -.206E+01   -.183E-01 -.197E-07 -.132E-01
   -.159E+03 -.199E-04 -.582E+03   0.161E+03 0.810E-13 0.581E+03   -.190E+01 0.219E-18 0.193E+01   -.381E-02 -.169E-07 -.383E-02
   -.243E+03 0.186E-04 0.591E+03   0.245E+03 -.505E-13 -.592E+03   -.253E+01 0.931E-20 -.436E+00   -.947E-02 -.175E-07 -.670E-02
   -.811E+02 0.191E-06 -.108E+04   0.805E+02 0.541E-13 0.109E+04   0.813E+00 -.137E-18 -.470E+01   0.563E-02 -.321E-07 -.209E-02
   0.139E+03 0.249E-05 0.126E+04   -.140E+03 0.417E-13 -.126E+04   0.234E+01 -.912E-19 0.534E+01   -.304E-04 0.141E-07 -.428E-02
   0.943E+02 0.520E-05 -.475E+03   -.959E+02 0.213E-13 0.480E+03   0.114E+01 -.165E-18 -.519E+01   0.255E-02 0.280E-07 -.426E-02
   0.205E+03 0.151E-04 0.119E+04   -.206E+03 -.711E-14 -.120E+04   0.266E+01 0.693E-19 0.446E+01   -.121E-02 0.171E-07 0.120E-02
   -.686E+02 0.451E-06 -.326E+03   0.708E+02 -.711E-14 0.326E+03   -.212E+01 0.318E-19 0.144E+01   -.226E-02 -.423E-07 -.231E-02
   -.278E+03 0.110E-04 0.403E+03   0.279E+03 0.108E-12 -.403E+03   -.204E+01 -.370E-19 -.322E+00   -.107E-02 0.555E-07 -.330E-02
   -.117E+03 -.127E-05 -.119E+04   0.117E+03 -.187E-13 0.119E+04   -.302E+00 -.906E-20 -.381E+01   -.183E-01 0.169E-07 -.357E-02
   -.631E+02 -.336E+02 0.131E+04   0.624E+02 0.336E+02 -.132E+04   0.701E+00 0.597E+00 0.506E+01   -.567E-03 -.188E-02 0.637E-03
   -.680E+00 -.150E+03 -.203E+03   -.700E+00 0.151E+03 0.203E+03   0.160E+01 -.168E+01 0.598E+00   0.784E-03 -.793E-02 0.341E-02
   0.263E+03 -.185E+03 0.521E+03   -.264E+03 0.187E+03 -.521E+03   0.112E+01 -.162E+01 -.126E+01   0.832E-02 0.704E-02 -.102E-01
   0.275E+03 0.196E+02 -.922E+03   -.276E+03 -.189E+02 0.923E+03   0.211E+01 -.567E+00 -.215E+00   -.116E-02 0.792E-02 -.148E-02
   0.896E+02 -.130E+03 0.299E+03   -.909E+02 0.132E+03 -.299E+03   0.132E+01 -.207E+01 -.147E+01   -.288E-03 -.402E-02 -.729E-02
   -.111E+03 0.714E+02 -.119E+04   0.112E+03 -.723E+02 0.119E+04   -.116E+01 0.683E+00 -.384E+01   -.116E-02 -.576E-02 -.389E-02
   -.151E+03 -.540E+02 -.522E+03   0.152E+03 0.549E+02 0.524E+03   -.132E+01 -.171E+01 -.701E+00   0.235E-02 0.195E-01 -.130E-01
   -.102E+02 -.358E+02 0.118E+04   0.928E+01 0.350E+02 -.118E+04   0.102E+01 0.129E+01 0.589E+01   -.108E-03 0.415E-02 -.183E-02
   0.158E+03 0.148E+02 0.102E+04   -.159E+03 -.159E+02 -.102E+04   0.693E+00 0.116E+01 0.575E+01   0.389E-02 -.662E-02 0.193E-02
   0.286E+03 -.398E+03 -.628E+03   -.290E+03 0.405E+03 0.628E+03   0.425E+01 -.654E+01 0.791E+00   0.303E-02 -.926E-02 -.388E-02
   0.799E+01 -.154E+03 0.675E+02   -.931E+01 0.156E+03 -.668E+02   0.138E+01 -.236E+01 -.135E+01   0.128E-02 0.103E-01 -.291E-03
   -.760E+02 -.166E+03 -.134E+04   0.754E+02 0.168E+03 0.134E+04   0.857E+00 -.324E+01 -.463E+01   -.311E-03 0.458E-02 0.994E-03
   0.263E+03 0.185E+03 0.521E+03   -.264E+03 -.187E+03 -.521E+03   0.112E+01 0.162E+01 -.126E+01   0.832E-02 -.704E-02 -.102E-01
   0.275E+03 -.196E+02 -.922E+03   -.276E+03 0.189E+02 0.923E+03   0.211E+01 0.567E+00 -.215E+00   -.116E-02 -.792E-02 -.148E-02
   -.631E+02 0.336E+02 0.131E+04   0.624E+02 -.336E+02 -.132E+04   0.701E+00 -.597E+00 0.506E+01   -.567E-03 0.188E-02 0.637E-03
   -.680E+00 0.150E+03 -.203E+03   -.700E+00 -.151E+03 0.203E+03   0.160E+01 0.168E+01 0.598E+00   0.784E-03 0.793E-02 0.341E-02
   -.151E+03 0.540E+02 -.522E+03   0.152E+03 -.549E+02 0.524E+03   -.132E+01 0.171E+01 -.701E+00   0.235E-02 -.195E-01 -.130E-01
   -.102E+02 0.358E+02 0.118E+04   0.928E+01 -.350E+02 -.118E+04   0.102E+01 -.129E+01 0.589E+01   -.108E-03 -.415E-02 -.183E-02
   0.896E+02 0.130E+03 0.299E+03   -.909E+02 -.132E+03 -.299E+03   0.132E+01 0.207E+01 -.147E+01   -.288E-03 0.402E-02 -.729E-02
   -.111E+03 -.714E+02 -.119E+04   0.112E+03 0.723E+02 0.119E+04   -.116E+01 -.683E+00 -.384E+01   -.116E-02 0.576E-02 -.389E-02
   0.799E+01 0.154E+03 0.675E+02   -.931E+01 -.156E+03 -.668E+02   0.138E+01 0.236E+01 -.135E+01   0.128E-02 -.103E-01 -.291E-03
   -.760E+02 0.166E+03 -.134E+04   0.754E+02 -.168E+03 0.134E+04   0.857E+00 0.324E+01 -.463E+01   -.311E-03 -.458E-02 0.994E-03
   0.158E+03 -.148E+02 0.102E+04   -.159E+03 0.159E+02 -.102E+04   0.693E+00 -.116E+01 0.575E+01   0.389E-02 0.662E-02 0.193E-02
   0.286E+03 0.398E+03 -.628E+03   -.290E+03 -.405E+03 0.628E+03   0.425E+01 0.654E+01 0.791E+00   0.303E-02 0.926E-02 -.388E-02
   -.538E+02 -.128E-01 -.252E+02   -.165E-11 -.625E-12 0.455E-11   0.537E+02 0.115E-13 0.256E+02   0.203E-01 -.165E-05 -.411E+00

 POSITION                                       TOTAL-FORCE (eV/Angst)
     13.17084      1.39171      1.94975         0.369768      0.000000     -0.347512
     13.75451      1.39171      5.03429        -1.025934      0.000000     -1.570191
      4.43666      6.18092      0.40748        -0.299385      0.000000      1.073128
      5.02033      6.18092      3.49202        -0.521739      0.000000      0.100933
      7.34806      1.39171      0.92157        -0.336017      0.000000      0.870027
      7.93172      1.39171      4.00611        -0.244801      0.000000      0.206827
     16.08224      6.18092      2.46384        -0.151839      0.000000     -0.024855
     16.66591      6.18092      5.54838        -1.213865      0.000000     -1.974901
      2.10894      1.39171      2.97793         0.196923      0.000000     -0.003052
      2.69261      1.39171      6.06247        -0.516853      0.000000     -1.852961
     10.25945      6.18092      1.43566         0.087118      0.000000      0.829467
     10.84312      6.18092      4.52020         0.110601      0.000000      0.628330
     15.32426      0.12638      1.54227        -0.248312     -0.711038      0.374592
     15.90793      0.12638      4.62682         0.570282      0.305644     -0.478859
      6.59008      4.91558      0.00000        -0.002816      0.626305      1.707888
      7.17375      4.91558      3.08454        -0.136405     -0.228263      0.093131
      7.75741      4.91558      6.16909        -0.190326     -0.404089     -2.031337
      9.50147      0.12638      0.51409        -0.250909      0.514056      1.610529
     10.08514      0.12638      3.59863         0.115814      0.007054      0.189204
      1.35096      4.91558      2.05636         0.502993     -0.169584     -0.087443
      4.26235      0.12638      2.57045         0.037371     -0.118464     -0.052011
      4.84602      0.12638      5.65500        -0.279096     -0.155233     -1.603133
     12.41286      4.91558      1.02818         0.259705     -0.391899      0.927036
     12.99653      4.91558      4.11272         0.208543     -0.080279      0.378906
     15.32426      2.65705      1.54227        -0.248312      0.711038      0.374592
     15.90793      2.65705      4.62682         0.570282     -0.305644     -0.478859
      6.59008      7.44626      0.00000        -0.002816     -0.626305      1.707888
      7.17375      7.44626      3.08454        -0.136405      0.228263      0.093131
      7.75741      7.44626      6.16909        -0.190326      0.404089     -2.031337
      9.50147      2.65705      0.51409        -0.250909     -0.514056      1.610529
     10.08514      2.65705      3.59863         0.115814     -0.007054      0.189204
      1.35096      7.44626      2.05636         0.502993      0.169584     -0.087443
      4.26235      2.65705      2.57045         0.037371      0.118464     -0.052011
      4.84602      2.65705      5.65500        -0.279096      0.155233     -1.603133
     12.41286      7.44626      1.02818         0.259705      0.391899      0.927036
     12.99653      7.44626      4.11272         0.208543      0.080279      0.378906
      0.43949      1.39171      6.03394        -1.004456      0.000000     -0.028491
     16.74052      1.39171      2.94940        -0.210149      0.000000     -1.039267
      8.00634      6.18092      1.40713         0.284343      0.000000     -1.517026
      8.59001      6.18092      4.49167        -0.101732      0.000000      1.279878
     10.91773      1.39171      1.92122        -0.488085      0.000000     -0.955149
     11.50140      1.39171      5.00576         0.232406      0.000000      0.364580
      2.18355      6.18092      0.37895         1.192843      0.000000      0.164356
      2.76722      6.18092      3.46349        -0.384753      0.000000      0.159895
      5.09494      1.39171      0.89304         1.338311      0.000000     -0.064587
      5.67861      1.39171      3.97758         0.100375      0.000000      0.962768
     13.82913      6.18092      2.43531        -0.599230      0.000000     -0.717609
     14.41279      6.18092      5.51985         0.012328      0.000000      0.125172
     13.41477      3.00295      0.38372         0.050619      0.622809      0.393789
     13.99844      3.00295      3.46826         0.222125     -0.441079      1.228477
      5.26426      7.79215      1.92599        -0.138691     -0.217178     -1.083049
      5.84793      7.79215      5.01054         0.374789      0.118965      0.806995
      8.17565      3.00295      2.44008         0.025982     -0.268482     -0.907294
      8.75932      3.00295      5.52463        -0.032198     -0.225544      0.036847
      0.02514      7.79215      3.98236        -0.025342     -0.750255      0.628068
     16.32617      7.79215      0.89781         0.047487      0.499713      0.550943
      2.35287      3.00295      1.41190        -0.081586      0.035236      0.546852
      2.93654      3.00295      4.49645         0.199222     -0.287171      0.407275
     11.08705      7.79215      2.95417         0.070169     -0.434516     -0.661736
     11.67072      7.79215      6.03872         0.287492     -0.884889     -1.310553
      5.26426      4.56969      1.92599        -0.138691      0.217178     -1.083049
      5.84793      4.56969      5.01054         0.374789     -0.118965      0.806995
     13.41477      9.35889      0.38372         0.050619     -0.622809      0.393789
     13.99844      9.35889      3.46826         0.222125      0.441079      1.228477
      0.02514      4.56969      3.98236        -0.025342      0.750255      0.628068
     16.32617      4.56969      0.89781         0.047487     -0.499713      0.550943
      8.17565      9.35889      2.44008         0.025982      0.268482     -0.907294
      8.75932      9.35889      5.52463        -0.032198      0.225544      0.036847
     11.08705      4.56969      2.95417         0.070169      0.434516     -0.661736
     11.67072      4.56969      6.03872         0.287492      0.884889     -1.310553
      2.35287      9.35889      1.41190        -0.081586     -0.035236      0.546852
      2.93654      9.35889      4.49645         0.199222      0.287171      0.407275
    total drift:                               -0.101824     -0.012779     -0.002435

  FREE ENERGIE OF THE ION-ELECTRON SYSTEM (eV)
  free  energy   TOTEN  =      -343.78347541 eV

  energy  without entropy=     -342.48973738  energy(sigma->0) =     -343.13660639