 vasp.6.1.0 28Jan20 (build Mar 31 2020 17:42:31) gamma-only

 executed on             LinuxIFC date 2020.04.13  03:26:02

 INCAR:
 POTCAR:    PAW_PBE Ni_pv 06Sep2000
 POTCAR:    PAW_PBE S 06Sep2000
 POTCAR:    PAW_PBE Ni_pv 06Sep2000
   VRHFIN =Ni:

   TITEL  = PAW_PBE Ni_pv 06Sep2000
   POMASS =   58.690; ZVAL   =   16.000    mass and valenz
   ENMAX  =  367.986; ENMIN  =  275.989 eV

 POTCAR:    PAW_PBE S 06Sep2000
   VRHFIN =S : s2p4

   TITEL  = PAW_PBE S 06Sep2000
   POMASS =   32.066; ZVAL   =    6.000    mass and valenz
   ENMAX  =  258.689; ENMIN  =  194.016 eV

 Optimization of the real space projectors (new method)

 maximal supplied QI-value         = 18.90
 optimisation between [QCUT,QGAM] = [ 10.77, 21.73] = [ 32.49,132.25] Ry
 Optimized for a Real-space Cutoff    1.38 Angstroem

   l    n(q)    QCUT    max X(q) W(low)/X(q) W(high)/X(q)  e(spline)
   1      8    10.771     2.836    0.40E-04    0.29E-04    0.12E-06
   1      8    10.771     4.023    0.10E-03    0.48E-04    0.29E-06
   2      8    10.771    73.368    0.42E-03    0.97E-04    0.44E-06
   2      8    10.771    69.010    0.42E-03    0.99E-04    0.45E-06
   0      9    10.771    54.797    0.10E-03    0.56E-04    0.74E-07
   0      9    10.771    24.266    0.89E-04    0.49E-04    0.67E-07
 Optimization of the real space projectors (new method)

 maximal supplied QI-value         = 19.84
 optimisation between [QCUT,QGAM] = [ 10.71, 21.63] = [ 32.15,130.99] Ry
 Optimized for a Real-space Cutoff    1.19 Angstroem

   l    n(q)    QCUT    max X(q) W(low)/X(q) W(high)/X(q)  e(spline)
   0      8    10.715   187.594    0.41E-03    0.53E-04    0.66E-07
   0      8    10.715   164.243    0.41E-03    0.53E-04    0.65E-07
   1      7    10.715    67.533    0.19E-03    0.59E-03    0.68E-07
   1      7    10.715    50.729    0.19E-03    0.58E-03    0.67E-07
  PAW_PBE Ni_pv 06Sep2000               :
  PAW_PBE S 06Sep2000                   :

 POSCAR: Structure 5 made from 02-1-6.xsd file
  positions in direct lattice
 exchange correlation table for  LEXCH =        8
   RHO(1)=    0.500       N(1)  =     2000
   RHO(2)=  100.500       N(2)  =     4000

 ion  position               nearest neighbor table
   1  0.580  0.074  0.349-  43 2.25  64 2.26  50 2.26  61 2.36  51 2.36  26 2.53  14 2.53
   2  0.763  0.165  0.227-  44 2.25  61 2.26  51 2.26  52 2.36  62 2.36  15 2.53  27 2.53
   3  0.398  0.983  0.472-  63 2.26  64 2.36  50 2.36  25 2.53  13 2.53
   4  0.035  0.802  0.268-  45 2.25  55 2.26  68 2.26  65 2.36  53 2.36  28 2.53  20 2.53
   5  0.217  0.893  0.146-  46 2.25  53 2.26  65 2.26  66 2.36  54 2.36  29 2.53  17 2.53
   6  0.399  0.984  0.024-  47 2.25  54 2.26  66 2.26  30 2.53
   7  0.671  0.620  0.512-  67 2.36  56 2.36  31 2.53  18 2.53
   8  0.853  0.711  0.390-  48 2.25  56 2.26  67 2.26  68 2.36  55 2.36  32 2.53  19 2.53
   9  0.126  0.347  0.431-  37 2.25  72 2.26  57 2.36  69 2.36  24 2.53  33 2.53
  10  0.308  0.438  0.309-  38 2.25  57 2.26  69 2.26  58 2.36  70 2.36  34 2.53  21 2.53
  11  0.490  0.529  0.187-  39 2.25  58 2.26  70 2.26  59 2.36  71 2.36  35 2.53  22 2.53
  12  0.672  0.620  0.065-  40 2.25  59 2.26  71 2.26  60 2.36  36 2.53  23 2.53
  13  0.230  0.031  0.407-  55 2.25  63 2.26  37 2.26  64 2.36  38 2.36   3 2.53  25 2.53
  14  0.412  0.122  0.285-  53 2.25  38 2.26  64 2.26  61 2.36  39 2.36  26 2.53   1 2.53
  15  0.595  0.214  0.163-  54 2.25  61 2.26  39 2.26  62 2.36  40 2.36   2 2.53  27 2.53
  16  0.777  0.305  0.041-  62 2.26  40 2.26
  17  0.049  0.941  0.081-  60 2.25  41 2.26  65 2.26  42 2.36  66 2.36  29 2.53   5 2.53
  18  0.503  0.668  0.448-  57 2.25  43 2.36  67 2.36   7 2.53  31 2.53
  19  0.685  0.759  0.326-  58 2.25  43 2.26  67 2.26  68 2.36  44 2.36  32 2.53   8 2.53
  20  0.867  0.850  0.203-  59 2.25  68 2.26  44 2.26  41 2.36  65 2.36   4 2.53  28 2.53
  21  0.140  0.486  0.244-  52 2.25  45 2.26  69 2.26  70 2.36  46 2.36  10 2.53  34 2.53
  22  0.322  0.577  0.122-  49 2.25  46 2.26  70 2.26  47 2.36  71 2.36  35 2.53  11 2.53
  23  0.504  0.668  0.000-  47 2.26  71 2.26  12 2.53  36 2.53
  24  0.958  0.395  0.366-  51 2.25  48 2.26  72 2.26  45 2.36  69 2.36  33 2.53   9 2.53
  25  0.398  0.248  0.472-  37 2.26  38 2.36  50 2.36   3 2.53  13 2.53
  26  0.580  0.339  0.349-  67 2.25  38 2.26  50 2.26  39 2.36  51 2.36   1 2.53  14 2.53
  27  0.763  0.430  0.227-  68 2.25  39 2.26  51 2.26  52 2.36  40 2.36  15 2.53   2 2.53
  28  0.035  0.066  0.268-  69 2.25  44 2.26  55 2.26  41 2.36  53 2.36   4 2.53  20 2.53
  29  0.217  0.157  0.146-  70 2.25  53 2.26  41 2.26  42 2.36  54 2.36   5 2.53  17 2.53
  30  0.399  0.248  0.024-  71 2.25  54 2.26  42 2.26   6 2.53
  31  0.671  0.884  0.512-  43 2.36  56 2.36   7 2.53  18 2.53
  32  0.853  0.975  0.390-  72 2.25  56 2.26  43 2.26  44 2.36  55 2.36   8 2.53  19 2.53
  33  0.126  0.611  0.431-  63 2.25  48 2.26  57 2.36  45 2.36  24 2.53   9 2.53
  34  0.308  0.702  0.309-  64 2.25  57 2.26  45 2.26  58 2.36  46 2.36  10 2.53  21 2.53
  35  0.490  0.793  0.187-  61 2.25  58 2.26  46 2.26  59 2.36  47 2.36  11 2.53  22 2.53
  36  0.672  0.884  0.065-  62 2.25  47 2.26  59 2.26  60 2.36  12 2.53  23 2.53
  37  0.184  0.177  0.481-   9 2.25  25 2.26  13 2.26
  38  0.367  0.268  0.359-  10 2.25  26 2.26  14 2.26  25 2.36  13 2.36
  39  0.549  0.359  0.237-  11 2.25  15 2.26  27 2.26  26 2.36  14 2.36
  40  0.731  0.450  0.114-  12 2.25  16 2.26  27 2.36  15 2.36
  41  0.003  0.086  0.155-  29 2.26  17 2.26  28 2.36  20 2.36
  42  0.185  0.177  0.033-  30 2.26  29 2.36  17 2.36
  43  0.639  0.904  0.399-   1 2.25  32 2.26  19 2.26  31 2.36  18 2.36
  44  0.821  0.995  0.277-   2 2.25  28 2.26  20 2.26  32 2.36  19 2.36
  45  0.094  0.631  0.318-   4 2.25  21 2.26  34 2.26  24 2.36  33 2.36
  46  0.276  0.722  0.196-   5 2.25  22 2.26  35 2.26  21 2.36  34 2.36
  47  0.458  0.814  0.074-   6 2.25  23 2.26  36 2.26  22 2.36  35 2.36
  48  0.912  0.540  0.440-   8 2.25  24 2.26  33 2.26
  49  0.127  0.480  0.074-  22 2.25
  50  0.580  0.206  0.441-   1 2.26  26 2.26   3 2.36  25 2.36
  51  0.763  0.298  0.319-  24 2.25  27 2.26   2 2.26  26 2.36   1 2.36
  52  0.945  0.389  0.197-  21 2.25   2 2.36  27 2.36
  53  0.217  0.025  0.237-  14 2.25   5 2.26  29 2.26   4 2.36  28 2.36
  54  0.399  0.116  0.115-  15 2.25   6 2.26  30 2.26  29 2.36   5 2.36
  55  0.035  0.934  0.359-  13 2.25   4 2.26  28 2.26   8 2.36  32 2.36
  56  0.853  0.843  0.481-  32 2.26   8 2.26  31 2.36   7 2.36
  57  0.308  0.570  0.400-  18 2.25  10 2.26  34 2.26   9 2.36  33 2.36
  58  0.490  0.661  0.278-  19 2.25  35 2.26  11 2.26  10 2.36  34 2.36
  59  0.672  0.752  0.156-  20 2.25  12 2.26  36 2.26  35 2.36  11 2.36
  60  0.854  0.843  0.034-  17 2.25  12 2.36  36 2.36
  61  0.549  0.022  0.237-  35 2.25  15 2.26   2 2.26   1 2.36  14 2.36
  62  0.731  0.113  0.114-  36 2.25  16 2.26  15 2.36   2 2.36
  63  0.184  0.840  0.481-  33 2.25   3 2.26  13 2.26
  64  0.367  0.931  0.359-  34 2.25   1 2.26  14 2.26   3 2.36  13 2.36
  65  0.003  0.750  0.155-   5 2.26  17 2.26   4 2.36  20 2.36
  66  0.185  0.841  0.033-   6 2.26   5 2.36  17 2.36
  67  0.639  0.568  0.399-  26 2.25   8 2.26  19 2.26   7 2.36  18 2.36
  68  0.821  0.659  0.277-  27 2.25   4 2.26  20 2.26   8 2.36  19 2.36
  69  0.094  0.295  0.318-  28 2.25  21 2.26  10 2.26   9 2.36  24 2.36
  70  0.276  0.386  0.196-  29 2.25  22 2.26  11 2.26  21 2.36  10 2.36
  71  0.458  0.477  0.074-  30 2.25  12 2.26  23 2.26  22 2.36  11 2.36
  72  0.912  0.204  0.440-  32 2.25  24 2.26   9 2.26

  Warning from LATTYP: Monoclinic adjustment (A1->A3, A2->A1, A3->A2)!
  LATTYP: Found a base centered orthorhombic cell.
 ALAT       =     9.5784100000
 B/A-ratio  =     2.1722506661
 C/A-ratio  =     2.1403095979

  Lattice vectors:

 A1 = (  10.4033537511,  -4.7892050000,   0.0000000000)
 A2 = ( -10.4033537511,  -4.7892050000,   0.0000000000)
 A3 = (   0.0000000000,   0.0000000000, -20.5007628560)

Analysis of symmetry for initial positions (statically):
 Subroutine PRICEL returns:
 Original cell was already a primitive cell.

 Routine SETGRP: Setting up the symmetry group for a
 base centered orthorhombic supercell.

 Subroutine GETGRP returns: Found  2 space group operations
 (whereof  1 operations were pure point group operations)
 out of a pool of  8 trial point group operations.

The static configuration has the point symmetry C_1 .
 The point group associated with its full space group is C_1h.

Analysis of symmetry for dynamics (positions and initial velocities):
 Subroutine PRICEL returns:
 Original cell was already a primitive cell.

 Routine SETGRP: Setting up the symmetry group for a
 base centered orthorhombic supercell.

 Subroutine GETGRP returns: Found  2 space group operations
 (whereof  1 operations were pure point group operations)
 out of a pool of  8 trial point group operations.

The dynamic configuration has the point symmetry C_1 .
 The point group associated with its full space group is C_1h.

 Subroutine INISYM returns: Found  2 space group operations
 (whereof  1 operations are pure point group operations),
 and found     1 'primitive' translations

                                     Primitive cell

  volume of cell :    2042.8516

  direct lattice vectors                    reciprocal lattice vectors
    10.403353751 -4.789205000  0.000000000     0.096122849  0.000000000  0.000000000
     0.000000000  9.578410000  0.000000000     0.048061424  0.104401461  0.000000000
     0.000000000  0.000000000 20.500762856     0.000000000  0.000000000  0.048778673

  length of vectors
    11.452783670  9.578410000 20.500762856     0.096122849  0.114932874  0.048778673

  position of ions in fractional coordinates (direct lattice)
     0.580446796  0.074375138  0.349415127
     0.762560812  0.165432146  0.227316517
     0.398332781  0.983318131  0.471513737
     0.035189473  0.801746477  0.268016054
     0.217303488  0.892803484  0.145917444
     0.399417503  0.983860492  0.023818834
     0.670961443  0.619632462  0.512213274
     0.853075458  0.710689469  0.390114664
     0.125704120  0.347003800  0.430814200
     0.307818135  0.438060808  0.308715591
     0.489932150  0.529117815  0.186616981
     0.672046165  0.620174823  0.064518371
     0.230358012  0.031433746  0.406995366
     0.412472027  0.122490754  0.284896756
     0.594586043  0.213547761  0.162798147
     0.776700058  0.304604769  0.040699537
     0.049328719  0.940919100  0.081399073
     0.502986674  0.667748077  0.447694903
     0.685100689  0.758805085  0.325596293
     0.867214704  0.849862092  0.203497683
     0.139843366  0.486176423  0.244197220
     0.321957381  0.577233431  0.122098610
     0.504071396  0.668290438  0.000000000
     0.957729351  0.395119416  0.366295830
     0.398332781  0.247524131  0.471513737
     0.580446796  0.338581138  0.349415127
     0.762560812  0.429638146  0.227316517
     0.035189473  0.065952477  0.268016054
     0.217303488  0.157009484  0.145917444
     0.399417503  0.248066492  0.023818834
     0.670961443  0.883838462  0.512213274
     0.853075458  0.974895469  0.390114664
     0.125704120  0.611209800  0.430814200
     0.307818135  0.702266808  0.308715591
[...]
  Fock        0.00000     0.00000     0.00000     0.00000     0.00000     0.00000
  Total     -36.05689   -28.36653   -27.75864    -0.00000     0.00000    14.86177
  in kB     -28.27887   -22.24743   -21.77068    -0.00000     0.00000    11.65586

 VOLUME and BASIS-vectors are now :
  energy-cutoff  :      450.00
  volume of cell :     2042.85
      direct lattice vectors                 reciprocal lattice vectors
    10.403353751 -4.789205000  0.000000000     0.096122849  0.000000000  0.000000000
     0.000000000  9.578410000  0.000000000     0.048061424  0.104401461  0.000000000
     0.000000000  0.000000000 20.500762856     0.000000000  0.000000000  0.048778673

  length of vectors
    11.452783670  9.578410000 20.500762856     0.096122849  0.114932874  0.048778673

 FORCES acting on ions
    electron-ion (+dipol)            ewald-force                    non-local-force                 convergence-correction
   -.393E+03 0.370E+03 -.212E+04   0.392E+03 -.371E+03 0.212E+04   0.125E+00 0.662E+00 -.158E+01   -.793E-01 0.854E-02 0.407E+00
   -.582E+03 0.322E+03 0.963E+03   0.585E+03 -.322E+03 -.963E+03   -.199E+01 0.249E+00 0.328E+00   0.125E+00 -.116E+00 0.234E+00
   -.174E+03 0.473E+03 -.457E+04   0.168E+03 -.469E+03 0.457E+04   0.554E+01 -.428E+01 0.255E+01   0.140E+00 0.305E+00 0.240E+00
   -.163E+03 0.552E+03 -.107E+03   0.162E+03 -.553E+03 0.107E+03   0.690E+00 0.926E+00 0.799E-02   0.187E-01 0.121E+00 -.860E-02
   0.810E+02 0.603E+03 0.249E+04   -.823E+02 -.605E+03 -.249E+04   0.146E+01 0.161E+01 0.100E+01   -.166E+00 0.216E+00 -.134E+00
   -.684E+02 0.242E+03 0.453E+04   0.616E+02 -.240E+03 -.453E+04   0.582E+01 -.258E+01 -.531E+01   -.143E+00 0.679E-01 -.266E+00
   -.161E+03 0.749E+03 -.473E+04   0.162E+03 -.738E+03 0.472E+04   0.598E+00 -.110E+02 0.832E+01   -.101E+00 -.172E-01 0.183E+00
   -.365E+03 0.587E+03 -.297E+04   0.366E+03 -.590E+03 0.297E+04   -.117E+01 0.273E+01 -.229E+01   -.131E+00 0.143E+00 0.102E+00
   0.283E+02 0.265E+03 -.407E+04   -.299E+02 -.268E+03 0.407E+04   0.133E+01 0.319E+01 -.173E+01   0.382E-01 -.271E+00 0.121E+00
   -.106E+03 0.425E+03 -.113E+04   0.105E+03 -.426E+03 0.113E+04   0.647E+00 0.979E+00 -.964E+00   0.479E-01 -.108E+00 0.647E-01
   -.222E+03 0.467E+03 0.151E+04   0.222E+03 -.467E+03 -.151E+04   0.362E+00 0.605E+00 -.143E+01   -.735E-01 -.106E+00 0.882E-01
   -.700E+03 0.615E+03 0.396E+04   0.702E+03 -.614E+03 -.396E+04   -.180E+01 -.136E+01 -.405E+00   -.824E-01 0.270E-01 -.381E+00
   0.566E+03 0.123E-02 -.299E+04   -.570E+03 0.144E-05 0.299E+04   0.302E+01 0.448E-16 -.289E+01   0.373E+00 -.151E-04 0.324E+00
   0.377E+03 0.395E-02 -.157E+03   -.378E+03 0.346E-06 0.158E+03   0.181E+01 -.195E-16 -.367E+00   -.150E+00 0.354E-05 0.288E+00
   0.289E+02 0.131E-02 0.257E+04   -.291E+02 0.373E-05 -.257E+04   0.441E+00 -.654E-17 0.163E+01   -.107E+00 0.217E-04 -.339E-01
   -.695E+03 -.348E-03 0.435E+04   0.691E+03 0.217E-05 -.433E+04   0.356E+01 0.393E-16 -.157E+02   0.329E-01 0.113E-04 -.382E+00
   0.547E+03 0.774E-03 0.420E+04   -.549E+03 -.738E-06 -.420E+04   0.134E+01 0.136E-16 0.219E+01   0.182E+00 -.197E-04 -.446E-01
   0.647E+03 -.234E-02 -.379E+04   -.646E+03 0.555E-06 0.379E+04   -.559E+00 -.232E-16 0.519E+00   0.181E+00 -.833E-05 0.305E+00
   0.305E+03 -.622E-03 -.101E+04   -.306E+03 -.192E-05 0.101E+04   0.946E+00 -.629E-17 0.312E+00   0.138E+00 -.223E-04 0.269E+00
   0.265E+03 0.211E-03 0.180E+04   -.265E+03 -.633E-06 -.180E+04   0.170E+00 -.173E-17 0.104E+01   0.230E+00 -.266E-04 0.806E-01
   0.687E+03 -.987E-03 0.106E+04   -.691E+03 0.120E-05 -.106E+04   0.372E+01 -.272E-16 0.729E+00   -.189E-01 0.316E-04 0.328E-01
   0.918E+03 -.328E-02 0.342E+04   -.925E+03 -.194E-05 -.342E+04   0.587E+01 -.836E-16 0.278E+01   -.372E-01 0.440E-05 -.196E+00
   0.360E+03 -.956E-03 0.494E+04   -.356E+03 -.121E-06 -.492E+04   -.452E+01 0.188E-15 -.138E+02   -.145E+00 -.134E-04 -.583E+00
   0.522E+03 -.263E-03 -.221E+04   -.524E+03 -.157E-05 0.221E+04   0.229E+01 0.318E-16 -.320E+01   -.305E+00 0.373E-04 -.846E-01
   -.174E+03 -.473E+03 -.457E+04   0.168E+03 0.469E+03 0.457E+04   0.554E+01 0.428E+01 0.255E+01   0.140E+00 -.305E+00 0.240E+00
   -.393E+03 -.370E+03 -.212E+04   0.392E+03 0.371E+03 0.212E+04   0.125E+00 -.662E+00 -.158E+01   -.793E-01 -.851E-02 0.407E+00
   -.582E+03 -.322E+03 0.963E+03   0.585E+03 0.322E+03 -.963E+03   -.199E+01 -.249E+00 0.328E+00   0.125E+00 0.116E+00 0.234E+00
   -.163E+03 -.552E+03 -.107E+03   0.162E+03 0.553E+03 0.107E+03   0.690E+00 -.926E+00 0.799E-02   0.187E-01 -.121E+00 -.860E-02
   0.810E+02 -.603E+03 0.249E+04   -.823E+02 0.605E+03 -.249E+04   0.146E+01 -.161E+01 0.100E+01   -.166E+00 -.216E+00 -.134E+00
   -.684E+02 -.242E+03 0.453E+04   0.616E+02 0.240E+03 -.453E+04   0.582E+01 0.258E+01 -.531E+01   -.143E+00 -.679E-01 -.266E+00
   -.161E+03 -.749E+03 -.473E+04   0.162E+03 0.738E+03 0.472E+04   0.598E+00 0.110E+02 0.832E+01   -.101E+00 0.172E-01 0.183E+00
   -.365E+03 -.587E+03 -.297E+04   0.366E+03 0.590E+03 0.297E+04   -.117E+01 -.273E+01 -.229E+01   -.131E+00 -.143E+00 0.102E+00
   0.283E+02 -.265E+03 -.407E+04   -.299E+02 0.268E+03 0.407E+04   0.133E+01 -.319E+01 -.173E+01   0.382E-01 0.271E+00 0.121E+00
   -.106E+03 -.425E+03 -.113E+04   0.105E+03 0.426E+03 0.113E+04   0.647E+00 -.979E+00 -.964E+00   0.478E-01 0.108E+00 0.647E-01
   -.222E+03 -.467E+03 0.151E+04   0.222E+03 0.467E+03 -.151E+04   0.362E+00 -.605E+00 -.143E+01   -.735E-01 0.106E+00 0.882E-01
   -.700E+03 -.615E+03 0.396E+04   0.702E+03 0.614E+03 -.396E+04   -.180E+01 0.136E+01 -.405E+00   -.824E-01 -.270E-01 -.381E+00
   0.221E+03 -.533E+02 -.181E+04   -.223E+03 0.524E+02 0.181E+04   0.346E+01 0.143E+01 -.372E+01   0.180E+00 -.151E+00 0.943E-01
   0.105E+03 -.146E+03 -.789E+03   -.107E+03 0.149E+03 0.788E+03   0.189E+01 -.250E+01 0.322E+00   0.276E-01 -.727E-01 0.186E+00
   0.413E+02 -.129E+03 0.240E+03   -.426E+02 0.131E+03 -.241E+03   0.140E+01 -.221E+01 0.842E+00   -.234E-01 0.218E-01 0.111E+00
   -.277E+03 -.310E+02 0.124E+04   0.279E+03 0.320E+02 -.124E+04   -.140E+01 -.189E+01 -.596E+00   0.628E-01 -.217E-02 -.691E-01
   0.165E+03 -.397E+03 0.105E+04   -.168E+03 0.403E+03 -.105E+04   0.278E+01 -.627E+01 0.258E+01   0.847E-01 -.919E-01 -.390E-01
   0.272E+03 -.273E+03 0.176E+04   -.274E+03 0.276E+03 -.176E+04   0.195E+01 -.305E+01 0.372E+01   0.748E-02 -.845E-01 -.375E-01
   0.645E+02 -.201E+03 -.110E+04   -.656E+02 0.203E+03 0.110E+04   0.753E+00 -.193E+01 0.174E+01   0.166E-01 -.107E-02 0.915E-01
   0.460E+02 -.190E+03 -.587E+02   -.478E+02 0.192E+03 0.583E+02   0.172E+01 -.235E+01 0.185E+00   0.211E-01 -.501E-01 0.873E-01
   0.140E+03 -.115E+03 -.423E+03   -.142E+03 0.117E+03 0.422E+03   0.165E+01 -.226E+01 0.369E+00   -.242E-01 0.485E-01 -.615E-01
   0.210E+03 -.114E+03 0.614E+03   -.212E+03 0.116E+03 -.615E+03   0.165E+01 -.209E+01 0.895E+00   -.805E-01 0.864E-01 0.964E-02
   0.133E+03 -.155E+03 0.142E+04   -.135E+03 0.158E+03 -.143E+04   0.227E+01 -.289E+01 -.937E+00   -.655E-01 0.811E-02 -.210E+00
   0.145E+03 0.679E+02 -.164E+04   -.147E+03 -.690E+02 0.164E+04   0.299E+01 0.815E+00 -.339E+01   -.142E+00 0.593E-01 0.492E-01
   0.339E+03 -.930E-04 0.153E+04   -.342E+03 -.187E-06 -.153E+04   0.329E+01 0.222E-16 0.153E+01   -.568E-02 0.457E-05 -.803E-01
   -.354E+03 -.293E-03 -.165E+04   0.360E+03 0.401E-06 0.166E+04   -.646E+01 -.379E-16 -.254E+01   -.169E+00 0.579E-05 0.151E+00
   -.169E+03 -.188E-03 -.631E+03   0.170E+03 -.389E-06 0.633E+03   -.131E+01 -.452E-16 -.219E+01   -.484E-02 0.101E-04 0.103E+00
   -.125E+03 -.154E-03 0.845E+03   0.126E+03 0.569E-06 -.850E+03   -.111E+01 -.139E-16 0.507E+01   0.466E-01 0.999E-05 0.328E-01
   -.583E+02 -.394E-05 0.981E+02   0.602E+02 0.134E-06 -.968E+02   -.185E+01 0.469E-17 -.146E+01   -.545E-01 -.705E-05 -.504E-01
   -.910E+02 -.117E-03 0.104E+04   0.926E+02 0.206E-06 -.104E+04   -.951E+00 0.159E-16 -.206E+01   -.173E+00 0.233E-05 -.117E+00
   -.105E+03 0.140E-03 -.974E+03   0.106E+03 0.643E-06 0.975E+03   -.989E+00 0.233E-16 -.962E+00   -.149E-01 -.116E-04 0.355E-01
   -.356E+03 0.136E-04 -.180E+04   0.362E+03 -.528E-07 0.181E+04   -.704E+01 0.406E-16 -.238E+01   -.644E-01 -.857E-05 0.357E-01
   -.560E+02 -.829E-04 -.133E+04   0.572E+02 0.447E-06 0.133E+04   -.138E+01 0.783E-18 0.790E-01   0.156E+00 0.353E-05 0.366E-01
   -.103E+03 0.996E-05 -.259E+03   0.104E+03 -.648E-06 0.261E+03   -.134E+01 -.289E-16 -.193E+01   0.391E-01 -.361E-05 0.133E+00
   -.196E+03 0.791E-04 0.733E+03   0.198E+03 -.374E-06 -.732E+03   -.125E+01 0.110E-16 -.184E+01   0.801E-01 -.703E-05 0.514E-01
   -.196E+03 -.107E-03 0.173E+04   0.196E+03 -.182E-06 -.173E+04   -.171E+01 0.118E-16 0.400E+01   0.146E+00 -.535E-05 -.100E+00
   0.413E+02 0.129E+03 0.240E+03   -.426E+02 -.131E+03 -.241E+03   0.140E+01 0.221E+01 0.842E+00   -.234E-01 -.218E-01 0.111E+00
   -.277E+03 0.310E+02 0.124E+04   0.279E+03 -.320E+02 -.124E+04   -.140E+01 0.189E+01 -.596E+00   0.628E-01 0.217E-02 -.691E-01
   0.221E+03 0.533E+02 -.181E+04   -.223E+03 -.524E+02 0.181E+04   0.346E+01 -.143E+01 -.372E+01   0.180E+00 0.151E+00 0.943E-01
   0.105E+03 0.146E+03 -.789E+03   -.107E+03 -.149E+03 0.788E+03   0.189E+01 0.250E+01 0.322E+00   0.276E-01 0.727E-01 0.186E+00
   0.165E+03 0.397E+03 0.105E+04   -.168E+03 -.403E+03 -.105E+04   0.278E+01 0.627E+01 0.258E+01   0.847E-01 0.919E-01 -.390E-01
   0.272E+03 0.273E+03 0.176E+04   -.274E+03 -.276E+03 -.176E+04   0.195E+01 0.305E+01 0.372E+01   0.748E-02 0.845E-01 -.375E-01
   0.645E+02 0.201E+03 -.110E+04   -.656E+02 -.203E+03 0.110E+04   0.753E+00 0.193E+01 0.174E+01   0.166E-01 0.106E-02 0.915E-01
   0.460E+02 0.190E+03 -.587E+02   -.478E+02 -.192E+03 0.583E+02   0.172E+01 0.235E+01 0.185E+00   0.211E-01 0.501E-01 0.873E-01
   0.140E+03 0.115E+03 -.423E+03   -.142E+03 -.117E+03 0.422E+03   0.165E+01 0.226E+01 0.369E+00   -.241E-01 -.484E-01 -.615E-01
   0.210E+03 0.114E+03 0.614E+03   -.212E+03 -.116E+03 -.615E+03   0.165E+01 0.209E+01 0.895E+00   -.805E-01 -.864E-01 0.963E-02
   0.133E+03 0.155E+03 0.142E+04   -.135E+03 -.158E+03 -.143E+04   0.227E+01 0.289E+01 -.937E+00   -.655E-01 -.812E-02 -.210E+00
   0.145E+03 -.679E+02 -.164E+04   -.147E+03 0.690E+02 0.164E+04   0.299E+01 -.815E+00 -.339E+01   -.142E+00 -.593E-01 0.492E-01
   -.612E+02 -.186E-02 0.284E+02   0.597E-12 -.909E-12 0.659E-11   0.614E+02 -.400E-14 -.304E+02   -.325E+00 -.665E-04 0.193E+01

 POSITION                                       TOTAL-FORCE (eV/Angst)
      6.03859     -2.06748      7.16328        -0.271817      0.128067      0.117811
      7.93319     -2.06748      4.66016         0.501924      0.319931      0.015841
      4.14400      7.51093      9.66639        -0.305556      0.162130     -1.096128
      0.36609      7.51093      5.49453        -0.004590      0.129447     -0.040349
      2.26069      7.51093      2.99142        -0.036897      0.003541     -0.313705
      4.15528      7.51093      0.48830        -1.117493     -0.182349      1.564840
      6.98025      2.72172     10.50076         0.652398      0.855868     -1.812726
      8.87485      2.72172      7.99765        -0.009779     -0.229709      0.348533
      1.30774      2.72172      8.83202        -0.281199     -0.759819     -0.402617
      3.20234      2.72172      6.32891        -0.110552     -0.102459      0.041703
      5.09694      2.72172      3.82579         0.037520      0.117147     -0.029001
      6.99153      2.72172      1.32268         0.542311      0.026800      0.662233
      2.39650     -0.80215      8.34372        -0.249113      0.000000      0.189272
      4.29109     -0.80215      5.84060         0.121104      0.000000      0.155470
      6.18569     -0.80215      3.33749         0.155990      0.000000     -0.194256
      8.08029     -0.80215      0.83437        -0.384347      0.000000      2.160642
      0.51318      8.77626      1.66874         0.080740      0.000000     -0.406351
      5.23275      3.98706      9.17809         0.447576      0.000000     -0.672091
      7.12734      3.98706      6.67497        -0.107600      0.000000      0.147349
      9.02194      3.98706      4.17186         0.556505      0.000000      0.064017
      1.45484      3.98706      5.00623        -0.049170      0.000000      0.238934
      3.34944      3.98706      2.50311        -0.545220     -0.000000     -0.814620
      5.24403      3.98706      0.00000        -0.384245      0.000000      1.866017
      9.96360     -0.80215      7.50934        -0.027317      0.000000      0.628938
      4.14400      0.46319      9.66639        -0.305556     -0.162130     -1.096128
      6.03859      0.46319      7.16328        -0.271817     -0.128067      0.117811
      7.93319      0.46319      4.66016         0.501924     -0.319931      0.015841
      0.36609      0.46319      5.49453        -0.004590     -0.129447     -0.040349
      2.26069      0.46319      2.99142        -0.036897     -0.003541     -0.313705
      4.15528      0.46319      0.48830        -1.117493      0.182349      1.564840
      6.98025      5.25240     10.50076         0.652398     -0.855868     -1.812726
      8.87485      5.25240      7.99765        -0.009779      0.229709      0.348533
      1.30774      5.25240      8.83202        -0.281199      0.759819     -0.402617
      3.20234      5.25240      6.32891        -0.110552      0.102459      0.041703
      5.09694      5.25240      3.82579         0.037520     -0.117147     -0.029001
      6.99153      5.25240      1.32268         0.542311     -0.026800      0.662233
      1.91849      0.80909      9.85483         1.046726      0.420551      0.020573
      3.81309      0.80909      7.35171         0.057603     -0.178658     -0.015070
      5.70769      0.80909      4.84860         0.042975     -0.034701     -0.245321
      7.60228      0.80909      2.34548         0.064800     -0.893426     -1.193561
      0.03518      0.80909      3.17986        -0.135308     -0.216849      0.260800
      1.92978      0.80909      0.67674         0.130461     -0.204321      0.606887
      6.64934      5.59829      8.18608        -0.371950     -0.134702      0.890367
      8.54394      5.59829      5.68297        -0.072696     -0.098689     -0.101767
      0.97684      5.59829      6.51734         0.056172     -0.325286     -0.267643
      2.87143      5.59829      4.01423        -0.142361     -0.173856     -0.085640
      4.76603      5.59829      1.51111         0.502473     -0.178070     -1.382861
      9.48560      0.80909      9.02046         0.775522     -0.215960     -0.123913
      1.31873      3.98706      1.52661         0.809661      0.000000     -0.330456
      6.03829     -0.80215      9.03596        -0.803918      0.000000      1.425739
      7.93289     -0.80215      6.53284         0.015893      0.000000     -0.004715
      9.82749     -0.80215      4.02973        -0.394270      0.000000     -0.301423
      2.26038     -0.80215      4.86410         0.063413      0.000000     -0.201457
      4.15498     -0.80215      2.36099         0.438372      0.000000     -1.110076
      0.36579      8.77626      7.36722         0.041825      0.000000      0.100129
      8.87455      3.98706      9.87033        -1.224094     -0.000000      1.189664
      3.20204      3.98706      8.20159        -0.050284      0.000000      1.666506
      5.09664      3.98706      5.69847        -0.095219      0.000000     -0.050547
      6.99123      3.98706      3.19536         0.011752      0.000000     -0.248979
      8.88583      3.98706      0.69224        -1.529409      0.000000     -0.336276
      5.70769     -2.41338      4.84860         0.042975      0.034701     -0.245321
      7.60228     -2.41338      2.34548         0.064800      0.893426     -1.193561
      1.91849      7.16503      9.85483         1.046726     -0.420551      0.020573
      3.81309      7.16503      7.35171         0.057603      0.178658     -0.015070
      0.03518      7.16503      3.17986        -0.135308      0.216849      0.260800
      1.92978      7.16503      0.67674         0.130461      0.204321      0.606887
      6.64934      2.37583      8.18608        -0.371950      0.134702      0.890367
      8.54394      2.37583      5.68297        -0.072696      0.098689     -0.101767
      0.97684      2.37583      6.51734         0.056172      0.325286     -0.267643
      2.87143      2.37583      4.01423        -0.142361      0.173856     -0.085640
      4.76603      2.37583      1.51111         0.502473      0.178070     -1.382861
      9.48560     -2.41338      9.02046         0.775522      0.215960     -0.123913
    total drift:                               -0.063041     -0.001926     -0.018118

  FREE ENERGIE OF THE ION-ELECTRON SYSTEM (eV)
  free  energy   TOTEN  =      -351.83312944 eV

  energy  without entropy=     -350.68555419  energy(sigma->0) =     -351.25934182