 vasp.5.4.4.18Apr17-6-g9f103f2a35 (build Aug 13 2019 17:33:20) gamma-only

 executed on             LinuxIFC date 2020.05.12  05:24:48

 INCAR:
 POTCAR:    PAW_PBE Ni_pv 06Sep2000
 POTCAR:    PAW_PBE S 06Sep2000
 POTCAR:    PAW_PBE Ni_pv 06Sep2000
   VRHFIN =Ni:

   TITEL  = PAW_PBE Ni_pv 06Sep2000
   POMASS =   58.690; ZVAL   =   16.000    mass and valenz
   ENMAX  =  367.986; ENMIN  =  275.989 eV

 POTCAR:    PAW_PBE S 06Sep2000
   VRHFIN =S : s2p4

   TITEL  = PAW_PBE S 06Sep2000
   POMASS =   32.066; ZVAL   =    6.000    mass and valenz
   ENMAX  =  258.689; ENMIN  =  194.016 eV

 Optimization of the real space projectors (new method)

 maximal supplied QI-value         = 18.90
 optimisation between [QCUT,QGAM] = [ 10.77, 21.73] = [ 32.49,132.25] Ry
 Optimized for a Real-space Cutoff    1.38 Angstroem

   l    n(q)    QCUT    max X(q) W(low)/X(q) W(high)/X(q)  e(spline)
   1      8    10.771     2.836    0.40E-04    0.29E-04    0.12E-06
   1      8    10.771     4.023    0.10E-03    0.48E-04    0.29E-06
   2      8    10.771    73.368    0.42E-03    0.97E-04    0.44E-06
   2      8    10.771    69.010    0.42E-03    0.99E-04    0.45E-06
   0      9    10.771    54.797    0.10E-03    0.56E-04    0.74E-07
   0      9    10.771    24.266    0.89E-04    0.49E-04    0.67E-07
 Optimization of the real space projectors (new method)

 maximal supplied QI-value         = 19.84
 optimisation between [QCUT,QGAM] = [ 10.71, 21.63] = [ 32.15,130.99] Ry
 Optimized for a Real-space Cutoff    1.19 Angstroem

   l    n(q)    QCUT    max X(q) W(low)/X(q) W(high)/X(q)  e(spline)
   0      8    10.715   187.594    0.41E-03    0.53E-04    0.66E-07
   0      8    10.715   164.243    0.41E-03    0.53E-04    0.65E-07
   1      7    10.715    67.533    0.19E-03    0.59E-03    0.68E-07
   1      7    10.715    50.729    0.19E-03    0.58E-03    0.67E-07
  PAW_PBE Ni_pv 06Sep2000               :
  PAW_PBE S 06Sep2000                   :

 POSCAR: Type_038 Type_138
  positions in cartesian coordinates
 exchange correlation table for  LEXCH =        8
   RHO(1)=    0.500       N(1)  =     2000
   RHO(2)=  100.500       N(2)  =     4000

 ion  position               nearest neighbor table
   1  0.780  0.145  0.128-  66 2.04  51 2.18  43 2.25  52 2.36  67 2.36  27 2.44
   2  0.800  0.145  0.290-  67 2.02  52 2.03  44 2.07
   3  0.216  0.636  0.103-  45 2.03  46 2.12  64 2.25  53 2.37   4 2.38  16 2.47
   4  0.297  0.645  0.222-  54 2.13  65 2.14  46 2.25  53 2.26  64 2.26   3 2.38  30 2.53  17 2.53

   5  0.394  0.162  0.135-  47 2.02  55 2.14  48 2.14   6 2.32  70 2.37
   6  0.470  0.145  0.254-  56 2.09  71 2.10  48 2.25  55 2.26  70 2.26   5 2.32  33 2.53  20 2.53

[...]

   8  0.956  0.645  0.314-  50 2.04  57 2.05  68 2.05   7 2.52
   9  0.175  0.146  0.050-  47 2.02  59 2.05  75 2.05  10 2.45
  10  0.125  0.145  0.191-  75 2.14  59 2.15  40 2.25  60 2.36  76 2.36  11 2.37   9 2.45  36 2.53
                            23 2.53
  11  0.109  0.145  0.335-  39 2.02  76 2.12  60 2.12  10 2.37
  12  0.603  0.671  0.106-  72 2.08  61 2.09  62 2.15  41 2.19  73 2.48
  13  0.642  0.645  0.285-  63 2.02  74 2.02  62 2.24  42 2.25  73 2.26  38 2.53  26 2.53
  14  0.923  0.982  0.136-  66 2.03  58 2.07  67 2.10  40 2.13  15 2.43
  15  0.943  0.016  0.282-  39 2.06  40 2.13  67 2.19  57 2.23  14 2.43  28 2.53
  16  0.358  0.647  0.066-  41 2.01  53 2.03  64 2.05   3 2.47
  17  0.425  0.513  0.197-  65 2.13  55 2.25  41 2.26  64 2.26  42 2.36  18 2.43  30 2.53   4 2.53

[...]

  74  0.693  0.496  0.355-  13 2.02  26 2.03  73 2.78
  75  0.140  0.969  0.111-   9 2.05  34 2.13  23 2.14  10 2.14
  76  0.174  0.977  0.284-  24 2.04  35 2.09  11 2.12  10 2.36  23 2.36

  LATTYP: Found a simple orthorhombic cell.
 ALAT       =     9.5784100000
 B/A-ratio  =     1.7016870630
 C/A-ratio  =     1.7627867312

  Lattice vectors:

 A1 = (   0.0000000000,   9.5784100000,   0.0000000000)
 A2 = (   0.0000000000,   0.0000000000, -16.2994563815)
 A3 = ( -16.8846940542,   0.0000000000,   0.0000000000)

Analysis of symmetry for initial positions (statically):
 Subroutine PRICEL returns:
 Original cell was already a primitive cell.

 Routine SETGRP: Setting up the symmetry group for a
 simple orthorhombic supercell.

 Subroutine GETGRP returns: Found  1 space group operations
 (whereof  1 operations were pure point group operations)
 out of a pool of  8 trial point group operations.

The static configuration has the point symmetry C_1 .

Analysis of symmetry for dynamics (positions and initial velocities):
 Subroutine PRICEL returns:
 Original cell was already a primitive cell.

 Routine SETGRP: Setting up the symmetry group for a
 simple orthorhombic supercell.

 Subroutine GETGRP returns: Found  1 space group operations
 (whereof  1 operations were pure point group operations)
 out of a pool of  8 trial point group operations.

The dynamic configuration has the point symmetry C_1 .

 Subroutine INISYM returns: Found  1 space group operations
 (whereof  1 operations are pure point group operations),
 and found     1 'primitive' translations

 KPOINTS: gamma-point-only calculation. no periodi

Automatic generation of k-mesh.
Space group operators:
 irot       det(A)        alpha          n_x          n_y          n_z        tau_x        tau_y        tau_z
    1     1.000000     0.000000     1.000000     0.000000     0.000000     0.000000     0.000000     0.000000

 Subroutine IBZKPT returns following result:

 Found      1 irreducible k-points:

 Following reciprocal coordinates:
            Coordinates               Weight
  0.000000  0.000000  0.000000      1.000000

 Following cartesian coordinates:
            Coordinates               Weight
  0.000000  0.000000  0.000000      1.000000

 SYSTEM =  "Millerite NiS"
 POSCAR =  Type_038 Type_138

 Startparameter for this run:
   NWRITE =      2    write-flag & timer
   PREC   = normal    normal or accurate (medium, high low for compatibility)
   ISTART =      0    job   : 0-new  1-cont  2-samecut
   ICHARG =      2    charge: 1-file 2-atom 10-const
   ISPIN  =      1    spin polarized calculation?
   LNONCOLLINEAR =      F non collinear calculations
   LSORBIT =      F    spin-orbit coupling
   INIWAV =      1    electr: 0-lowe 1-rand  2-diag
   LASPH  =      F    aspherical Exc in radial PAW
   METAGGA=      F    non-selfconsistent MetaGGA calc.

 Electronic Relaxation 1
   ENCUT  =  450.0 eV  33.07 Ry    5.75 a.u.  29.20 16.57 28.19*2*pi/ulx,y,z
   ENINI  =  450.0     initial cutoff
   ENAUG  =  703.4 eV  augmentation charge cutoff
   NELM   =    100;   NELMIN=  2; NELMDL= -5     # of ELM steps
   EDIFF  = 0.1E-03   stopping-criterion for ELM
   LREAL  =      T    real-space projection
   NLSPLINE    = F    spline interpolate recip. space projectors
   LCOMPAT=      F    compatible to vasp.4.4
   GGA_COMPAT  = T    GGA compatible to vasp.4.4-vasp.4.6
   LMAXPAW     = -100 max onsite density
   LMAXMIX     =    2 max onsite mixed and CHGCAR
   VOSKOWN=      0    Vosko Wilk Nusair interpolation
   ROPT   =   -0.00050  -0.00050
 Ionic relaxation
   EDIFFG = 0.1E-02   stopping-criterion for IOM
   NSW    =      0    number of steps for IOM
   NBLOCK =      1;   KBLOCK =      1    inner block; outer block
   IBRION =     -1    ionic relax: 0-MD 1-quasi-New 2-CG
   NFREE  =      0    steps in history (QN), initial steepest desc. (CG)
   ISIF   =      2    stress and relaxation
   IWAVPR =     10    prediction:  0-non 1-charg 2-wave 3-comb
   ISYM   =      2    0-nonsym 1-usesym 2-fastsym
   LCORR  =      T    Harris-Foulkes like correction to forces

   POTIM  = 0.5000    time-step for ionic-motion
   TEIN   =    0.0    initial temperature
   TEBEG  =    0.0;   TEEND  =   0.0 temperature during run
   SMASS  =  -3.00    Nose mass-parameter (am)
   estimated Nose-frequenzy (Omega)   =  0.10E-29 period in steps =****** mass=  -0.652E-26a.u.
   SCALEE = 1.0000    scale energy and forces
   NPACO  =    256;   APACO  = 16.0  distance and # of slots for P.C.
   PSTRESS=    0.0 pullay stress

  Mass of Ions in am
   POMASS =  58.69 32.07
  Ionic Valenz
   ZVAL   =  16.00  6.00
  Atomic Wigner-Seitz radii
  virtual crystal weights
   VCA    =   1.00  1.00
   NELECT =     836.0000    total number of electrons
   NUPDOWN=      -1.0000    fix difference up-down

 DOS related values:
   EMIN   =  10.00;   EMAX   =-10.00  energy-range for DOS
   EFERMI =   0.00
   ISMEAR =     0;   SIGMA  =   0.20  broadening in eV -4-tet -1-fermi 0-gaus

 Electronic relaxation 2 (details)
   IALGO  =     38    algorithm
   LDIAG  =      T    sub-space diagonalisation (order eigenvalues)
   LSUBROT=      F    optimize rotation matrix (better conditioning)
   TURBO    =      0    0=normal 1=particle mesh
   IRESTART =      0    0=no restart 2=restart with 2 vectors
   NREBOOT  =      0    no. of reboots
   NMIN     =      0    reboot dimension
   EREF     =   0.00    reference energy to select bands
   IMIX   =      4    mixing-type and parameters
     AMIX     =   0.40;   BMIX     =  1.00
     AMIX_MAG =   1.60;   BMIX_MAG =  1.00
     AMIN     =   0.10
     WC   =   100.;   INIMIX=   1;  MIXPRE=   1;  MAXMIX= -45

 Intra band minimization:
   WEIMIN = 0.0000     energy-eigenvalue tresh-hold
   EBREAK =  0.50E-07  absolut break condition
   DEPER  =   0.30     relativ break condition

   TIME   =   0.40     timestep for ELM

  volume/ion in A,a.u.               =      34.69       234.07
  Fermi-wavevector in a.u.,A,eV,Ry     =   1.116410  2.109709 16.957908  1.246371
  Thomas-Fermi vector in A             =   2.253024

 Write flags
   LWAVE        =      F    write WAVECAR
   LDOWNSAMPLE  =      F    k-point downsampling of WAVECAR
   LCHARG       =      F    write CHGCAR
   LVTOT        =      F    write LOCPOT, total local potential
   LVHAR        =      F    write LOCPOT, Hartree potential only
   LELF         =      F    write electronic localiz. function (ELF)
   LORBIT       =      0    0 simple, 1 ext, 2 COOP (PROOUT), +10 PAW based schemes

 Dipole corrections
   LMONO  =      F    monopole corrections only (constant potential shift)
   LDIPOL =      F    correct potential (dipole corrections)
   IDIPOL =      0    1-x, 2-y, 3-z, 4-all directions
   EPSILON=  1.0000000 bulk dielectric constant

 Exchange correlation treatment:
   GGA     =    --    GGA type
   VOSKOWN=      0    Vosko Wilk Nusair interpolation
   LHFCALC =     F    Hartree Fock is set to
   LHFONE  =     F    Hartree Fock one center treatment
   AEXX    =    0.0000 exact exchange contribution

 Linear response parameters
   LEPSILON=     F    determine dielectric tensor
   LRPA    =     F    only Hartree local field effects (RPA)
   LNABLA  =     F    use nabla operator in PAW spheres
   LVEL    =     F    velocity operator in full k-point grid
   LINTERFAST=   F  fast interpolation
   KINTER  =     0    interpolate to denser k-point grid
   CSHIFT  =0.1000    complex shift for real part using Kramers Kronig
   OMEGAMAX=  -1.0    maximum frequency
   DEG_THRESHOLD= 0.2000000E-02 threshold for treating states as degnerate
   RTIME   =   -0.100 relaxation time in fs
  (WPLASMAI=    0.000 imaginary part of plasma frequency in eV, 0.658/RTIME)
[...]

  length of vectors
    16.884694054  9.578410000 16.299456382     0.059225237  0.104401461  0.061351739

 FORCES acting on ions
    electron-ion (+dipol)            ewald-force                    non-local-force                 convergence-correction
   0.346E+03 0.545E+03 0.198E+04   -.351E+03 -.550E+03 -.198E+04   0.379E+01 0.439E+01 0.371E+01   -.509E-01 0.625E-01 -.323E-01
   0.381E+03 0.673E+02 -.287E+04   -.382E+03 -.677E+02 0.287E+04   0.146E+01 0.666E+00 0.148E+01   -.153E+00 0.681E-01 -.164E+00
   0.179E+03 0.377E+02 0.285E+04   -.178E+03 -.377E+02 -.286E+04   0.190E+00 0.177E+00 0.836E+01   0.675E-02 -.155E-01 -.180E+00
   0.482E+03 0.267E+02 -.122E+04   -.484E+03 -.268E+02 0.122E+04   0.218E+01 0.264E+00 -.373E+01   0.852E-01 -.338E-01 -.179E-01
   -.383E+03 -.182E+03 0.235E+04   0.386E+03 0.184E+03 -.235E+04   -.325E+01 -.236E+01 0.326E+01   0.171E+00 -.102E-01 -.108E+00
   0.695E+02 -.649E+02 -.168E+04   -.722E+02 0.658E+02 0.169E+04   0.218E+01 -.692E+00 -.484E+01   0.204E+00 -.873E-01 -.269E-01
   0.681E+03 -.213E+02 0.138E+04   -.685E+03 0.209E+02 -.139E+04   0.414E+01 -.916E-01 0.416E+01   -.191E+00 -.577E-01 -.799E-01
   0.246E+03 -.899E+01 -.323E+04   -.249E+03 0.851E+01 0.323E+04   0.420E+01 0.650E+00 0.362E+00   -.253E+00 -.295E-01 0.126E-01
   0.441E+03 -.116E+02 0.417E+04   -.445E+03 0.115E+02 -.418E+04   0.339E+01 0.159E+00 0.408E+01   -.548E-01 0.112E-01 -.703E-01
   0.733E+03 -.981E+01 0.313E+03   -.737E+03 0.970E+01 -.312E+03   0.319E+01 0.789E-01 -.576E+00   -.180E+00 0.371E-01 0.884E-01
   0.970E+02 -.247E+00 -.359E+04   -.101E+03 0.684E+00 0.359E+04   0.494E+01 -.611E+00 -.295E-01   -.137E+00 0.469E-01 0.746E-01
   -.199E+03 0.267E+03 0.217E+04   0.200E+03 -.269E+03 -.217E+04   -.858E+00 0.164E+01 0.261E+01   0.122E+00 0.110E+00 -.122E+00
   0.292E+03 -.128E+02 -.231E+04   -.298E+03 0.132E+02 0.232E+04   0.416E+01 -.124E+00 -.561E+01   0.206E+00 0.357E-01 -.403E-01
   0.895E+02 0.422E+03 0.214E+04   -.869E+02 -.428E+03 -.215E+04   -.179E+01 0.496E+01 0.664E+01   -.217E+00 0.110E+00 -.856E-01
   0.155E+03 0.501E+03 -.246E+04   -.154E+03 -.503E+03 0.246E+04   -.190E+01 0.984E+00 -.358E+01   -.145E+00 0.867E-01 -.264E-01
   0.326E+02 0.302E+03 0.387E+04   -.342E+02 -.303E+03 -.387E+04   0.995E+00 0.774E+00 0.461E+01   0.168E+00 -.719E-02 -.252E+00
   -.424E+03 0.597E+03 0.358E+03   0.427E+03 -.603E+03 -.359E+03   -.217E+01 0.506E+01 0.284E+00   0.125E+00 -.455E-01 -.166E+00
   -.249E+03 0.145E+03 -.358E+04   0.252E+03 -.147E+03 0.358E+04   -.285E+01 0.295E+01 0.195E+01   0.107E+00 -.280E-01 0.108E+00
   -.708E+03 -.469E+03 0.285E+04   0.710E+03 0.471E+03 -.286E+04   -.189E+01 -.112E+01 0.630E+01   0.141E+00 0.737E-01 -.714E-01
   -.525E+03 0.160E+03 -.112E+04   0.527E+03 -.165E+03 0.112E+04   -.175E+01 0.450E+01 -.537E+01   0.208E+00 0.256E-01 -.113E+00
   0.211E+03 0.542E+03 0.193E+04   -.212E+03 -.546E+03 -.194E+04   0.125E+01 0.296E+01 0.444E+01   -.278E+00 -.452E-01 -.130E+00
   -.602E+02 0.980E+02 -.294E+04   0.610E+02 -.101E+03 0.294E+04   -.158E+00 0.305E+01 0.363E+00   -.153E+00 -.134E+00 0.479E-01
   -.138E+03 0.564E+03 0.102E+04   0.137E+03 -.568E+03 -.102E+04   0.104E+01 0.317E+01 0.145E+01   0.124E-01 0.633E-01 -.808E-01
   -.323E+02 0.128E+03 -.334E+04   0.331E+02 -.133E+03 0.334E+04   -.693E+00 0.427E+01 0.253E+01   0.558E-01 0.724E-01 0.987E-01
   -.671E+03 -.518E+03 0.263E+04   0.678E+03 0.523E+03 -.263E+04   -.611E+01 -.371E+01 0.349E+01   0.455E-01 -.845E-01 0.357E-02
   -.348E+03 0.467E+03 -.177E+04   0.351E+03 -.472E+03 0.177E+04   -.197E+01 0.488E+01 -.341E+01   0.682E-01 -.792E-01 -.662E-01
   -.366E+03 -.325E+03 0.243E+04   0.374E+03 0.330E+03 -.244E+04   -.677E+01 -.361E+01 0.432E+01   -.234E+00 -.126E-01 -.225E-01
   0.931E+02 -.499E+03 -.223E+04   -.923E+02 0.503E+03 0.223E+04   -.147E+01 -.308E+01 -.405E+01   -.194E+00 0.394E-02 -.973E-01
   0.293E+03 -.486E+03 0.368E+04   -.291E+03 0.487E+03 -.369E+04   -.347E+01 0.636E-01 0.418E+01   0.240E+00 0.551E-01 -.144E+00
   -.210E+03 -.352E+03 -.813E+02   0.211E+03 0.355E+03 0.821E+02   -.114E+01 -.259E+01 -.139E+01   0.223E+00 0.897E-01 -.827E-01
   -.224E+03 -.114E+03 -.372E+04   0.226E+03 0.116E+03 0.372E+04   -.281E+01 -.231E+01 0.232E+01   0.203E+00 0.104E+00 0.153E+00
   0.397E+03 0.382E+03 0.300E+04   -.401E+03 -.383E+03 -.301E+04   0.315E+01 0.415E+00 0.578E+01   0.151E+00 -.135E+00 -.381E-01
   -.273E+03 -.318E+03 -.847E+03   0.273E+03 0.322E+03 0.849E+03   0.401E+00 -.320E+01 -.358E+01   0.271E+00 -.151E+00 -.892E-01
   0.153E+03 -.525E+03 0.193E+04   -.153E+03 0.528E+03 -.193E+04   0.791E+00 -.310E+01 0.373E+01   -.237E+00 0.968E-02 -.123E+00
   -.625E+02 -.926E+02 -.294E+04   0.631E+02 0.951E+02 0.294E+04   0.773E-01 -.286E+01 -.118E+00   -.174E+00 0.885E-01 0.562E-01
   -.144E+03 -.589E+03 0.104E+04   0.144E+03 0.593E+03 -.104E+04   0.540E+00 -.334E+01 0.112E+01   0.217E-01 -.140E-01 0.603E-02
   -.417E+02 -.151E+03 -.329E+04   0.429E+02 0.156E+03 0.329E+04   -.109E+01 -.448E+01 0.211E+01   -.194E-02 -.335E-01 0.106E+00
   -.300E+03 -.635E+03 -.140E+04   0.302E+03 0.641E+03 0.140E+04   -.171E+01 -.523E+01 -.151E+01   0.711E-02 0.138E-01 -.551E-01
   0.114E+03 -.238E+02 -.163E+04   -.113E+03 0.241E+02 0.163E+04   -.663E+00 -.119E+00 -.133E+01   -.152E-01 0.196E-01 0.322E-01
   -.160E+03 -.291E+02 0.324E+03   0.163E+03 0.293E+02 -.326E+03   -.485E+00 -.346E-01 0.836E+00   -.711E-01 0.475E-01 -.286E-01
   -.202E+03 0.364E+03 0.107E+04   0.203E+03 -.369E+03 -.108E+04   -.228E+00 0.240E+01 0.296E+01   0.544E-01 0.140E-01 -.889E-01
   -.240E+03 0.270E+02 -.797E+03   0.242E+03 -.273E+02 0.798E+03   -.645E+00 0.479E-01 -.129E+01   0.549E-01 0.686E-01 0.178E-01
   -.197E+02 0.579E+02 0.848E+03   0.197E+02 -.581E+02 -.854E+03   0.245E+00 -.182E+01 0.365E+01   0.721E-01 -.388E-01 -.281E-01
   -.115E+03 0.163E+02 -.111E+04   0.116E+03 -.160E+02 0.112E+04   -.456E+00 -.259E+00 -.282E+01   0.284E-01 -.163E-01 -.345E-01
   0.131E+03 -.574E+01 0.174E+04   -.131E+03 0.567E+01 -.174E+04   0.545E+00 0.228E+00 0.185E+01   -.822E-01 -.267E-02 -.660E-01
   -.857E+02 -.758E+01 -.339E+03   0.857E+02 0.770E+01 0.343E+03   0.154E+01 -.159E+00 -.366E+01   -.353E-01 0.350E-04 -.392E-01
   -.235E+03 -.106E+02 0.156E+04   0.238E+03 0.104E+02 -.156E+04   -.799E+00 0.857E-01 0.207E+01   0.704E-01 0.482E-02 -.484E-01
   -.132E+03 0.454E+01 -.632E+03   0.132E+03 -.447E+01 0.637E+03   0.638E+00 0.982E-04 -.461E+01   0.404E-01 0.452E-01 -.164E-01
   -.126E+03 -.173E+03 0.484E+03   0.125E+03 0.175E+03 -.488E+03   0.985E+00 -.144E+01 0.170E+01   -.327E-01 -.209E-01 0.547E-02
   -.459E+02 -.136E+02 -.143E+04   0.478E+02 0.132E+02 0.143E+04   -.120E+01 0.314E+00 -.313E+01   -.448E-01 -.174E-01 -.191E-01
   -.187E+03 -.605E+02 0.139E+04   0.189E+03 0.628E+02 -.140E+04   -.820E+00 -.159E+01 0.463E+01   0.346E-02 -.570E-01 0.272E-01
   0.109E+03 -.194E+03 -.291E+03   -.111E+03 0.196E+03 0.293E+03   0.133E+01 -.743E+00 0.138E+00   -.313E-01 -.262E-02 -.704E-01
   0.136E+03 -.294E+03 0.829E+03   -.136E+03 0.297E+03 -.831E+03   -.840E+00 -.160E+01 0.198E+01   0.499E-01 0.134E-01 -.803E-01
   0.187E+03 0.462E+02 -.120E+04   -.188E+03 -.456E+02 0.120E+04   0.255E-01 -.186E+00 -.276E+01   0.854E-01 -.108E-01 0.659E-01
   -.117E+03 -.117E+03 0.726E+03   0.117E+03 0.119E+03 -.730E+03   -.887E+00 -.632E+00 0.425E+01   0.673E-01 -.358E-01 -.569E-01
   -.171E+03 0.516E+02 -.144E+04   0.172E+03 -.501E+02 0.145E+04   -.390E+00 -.112E+01 -.216E+01   0.764E-01 -.662E-01 0.261E-01
   0.147E+03 -.152E+03 -.535E+03   -.147E+03 0.153E+03 0.537E+03   -.125E+01 0.748E+00 -.176E+01   -.967E-01 0.884E-03 -.316E-01
   0.210E+03 -.584E+02 0.143E+04   -.212E+03 0.588E+02 -.143E+04   0.104E+01 0.351E+00 0.344E+01   -.569E-01 -.111E-01 -.242E-01
   0.226E+03 -.187E+03 0.102E+04   -.227E+03 0.187E+03 -.102E+04   -.599E-01 0.221E+00 0.128E+01   -.653E-01 0.710E-02 0.119E-02
   0.751E+02 -.139E+03 -.894E+03   -.754E+02 0.141E+03 0.896E+03   -.275E+00 -.156E+01 -.132E+01   -.207E-01 -.802E-01 0.233E-01
[...]
   -.916E+01 -.266E+03 -.155E+04   0.814E+01 0.270E+03 0.155E+04   0.662E+00 -.226E+01 -.434E+00   0.427E-01 0.380E-01 0.775E-02
   0.569E+01 0.323E+03 0.874E+03   -.562E+01 -.326E+03 -.877E+03   -.892E+00 0.156E+01 0.272E+01   0.476E-01 -.239E-01 -.667E-01
   0.169E+03 -.435E+02 -.120E+04   -.170E+03 0.427E+02 0.121E+04   -.251E+00 0.899E-01 -.272E+01   -.129E-01 -.273E-01 0.473E-01
   -.268E+02 0.172E+03 0.164E+04   0.273E+02 -.173E+03 -.165E+04   0.162E-01 0.371E+00 0.265E+01   -.759E-01 0.533E-01 0.186E-01
   0.196E+03 0.250E+03 -.158E+03   -.198E+03 -.251E+03 0.159E+03   0.245E+00 -.335E+00 -.332E+00   -.749E-01 0.221E-01 -.493E-01
   0.139E+03 0.155E+03 -.524E+03   -.140E+03 -.157E+03 0.526E+03   -.642E+00 0.233E+00 -.188E+01   -.128E+00 -.347E-01 -.427E-01
   0.120E+03 0.605E+02 0.127E+04   -.122E+03 -.604E+02 -.127E+04   0.107E+01 -.606E+00 0.404E+01   -.851E-01 -.354E-01 -.677E-02
   0.254E+02 -.152E+03 0.438E+03   -.281E+02 0.151E+03 -.438E+03   0.154E+01 0.993E+00 -.156E+00   0.117E+00 0.164E-01 -.504E-01
   -.172E+03 -.602E+02 -.144E+04   0.173E+03 0.592E+02 0.145E+04   -.532E+00 0.959E+00 -.186E+01   0.591E-01 -.178E-01 0.175E-01
   0.680E+02 0.102E+02 0.166E+04   -.678E+02 -.103E+02 -.167E+04   -.981E+00 0.234E+00 0.273E+01   0.243E-01 -.154E-01 -.234E-01
   0.146E+03 0.678E+02 -.259E+02   -.148E+03 -.683E+02 0.295E+02   0.613E+00 0.513E+00 -.185E+01   0.851E-01 -.349E-01 -.408E-01
   0.420E+01 0.257E+03 -.157E+04   -.581E+01 -.261E+03 0.157E+04   0.907E+00 0.152E+01 -.743E+00   0.757E-01 -.306E-01 -.356E-03
   0.221E+03 0.193E+03 0.102E+04   -.222E+03 -.195E+03 -.102E+04   0.169E+00 0.293E+00 0.109E+01   -.627E-01 -.571E-02 -.593E-02
   0.778E+02 0.142E+03 -.888E+03   -.782E+02 -.144E+03 0.890E+03   -.256E+00 0.154E+01 -.129E+01   -.784E-01 0.818E-01 0.107E-01
   0.404E+01 -.225E+01 -.517E+02   -.796E-12 0.111E-11 -.796E-12   -.431E+01 0.216E+01 0.541E+02   0.248E+00 0.129E+00 -.241E+01

 POSITION                                       TOTAL-FORCE (eV/Angst)
     13.17084      1.39171      2.08012        -1.166208      0.021243      1.203353
     13.51583      1.38448      4.73162        -0.138235      0.286985      0.944048
      3.65258      6.09496      1.67253         0.832811      0.133408     -0.089099
      5.02033      6.18092      3.62239        -0.255001      0.166256     -0.280669
      6.64568      1.55577      2.20680         0.650245     -0.719078     -0.244464
      7.93172      1.39171      4.13648        -0.291928      0.141877     -0.759285
     16.08224      6.18092      2.59421         0.263092     -0.557456      1.680879
     16.14415      6.18158      5.11410         0.704446      0.140086      0.954462
      2.95964      1.39421      0.81282        -0.917113      0.049000     -1.803229
      2.10894      1.39171      3.10830        -0.912710      0.009303      0.415666
      1.84030      1.39090      5.45942         1.250164     -0.127658      0.908193
     10.17388      6.42783      1.72034         0.630229     -0.641729      0.800920
     10.84312      6.18092      4.65057        -2.012928      0.391433     -1.583846
     15.58058      9.40785      2.21219         0.599436     -0.698143      0.149677
     15.91411      0.15057      4.59437        -0.715751     -0.932874     -0.006763
      6.04890      6.19638      1.08215        -0.449842     -0.045780     -2.062233
      7.17375      4.91558      3.21491         0.528858     -0.304839     -1.097459
      7.89134      4.45199      5.48520        -0.022609      0.420413      1.139729
     10.22634      8.99201      1.52663         0.360137      0.937470      0.114639
     10.08514      0.12638      3.72900         0.329035      0.015580     -0.734310
      1.35096      4.91558      2.18673         0.041294     -0.707780      1.301915
      1.90295      4.80426      4.83640         0.494850      0.345368      0.882928
      4.26235      0.12638      2.70082         0.744569     -0.700651      0.808571
      4.91048      9.38870      5.14965         0.105414     -0.044679      0.846570
     12.55965      5.24463      1.71407         0.708298      0.485507     -0.435715
     12.99653      4.91558      4.24309         0.866254     -0.525000     -1.720657
     15.26712      2.64142      1.95341         0.878177      0.838622     -0.014127
     15.90972      2.67977      4.49098        -0.910417      0.864136      0.005956
      8.01224      8.11297      0.90238        -1.289254      0.803383     -0.473959
      7.17375      7.44626      3.21491         0.320831      0.150137     -0.714198
      7.83541      7.84487      5.54926        -0.026441     -0.279457      1.011521
     11.27425      3.28846      1.40484        -0.713807     -0.701470     -0.062614
     10.08514      2.65705      3.72900         0.418984      0.176119     -2.043539
      1.35096      7.44626      2.18673         0.257332      0.335364      1.335233
      1.90191      7.55761      4.83847         0.486022     -0.255454      0.934698
      4.26235      2.65705      2.70082         0.640718      0.732816      0.712762
      4.93055      3.01319      5.10483         0.092189     -0.013750      0.804854
     12.99653      7.44626      4.24309         0.661328      0.927641     -1.785251
     16.75864      1.46405      5.93155        -0.027716      0.136831      3.115827
     16.74052      1.39171      3.07977         2.037749      0.204383     -1.090512
      8.00634      6.18092      1.53750         1.275840     -2.219704      0.103046
      8.59001      6.18092      4.62204         1.442542     -0.128033      0.371347
     10.91773      1.39171      2.05159         0.338568     -2.036088     -1.615788
     11.44740      1.39454      4.72361         1.097008      0.005916      2.792527
      1.90015      6.17188      0.65445         0.237569      0.160763     -3.829796
      2.76722      6.18092      3.59386         1.484666     -0.032819      0.689399
      4.95275      1.38725      1.12299         1.434462     -0.092783     -3.130234
      5.67861      1.39171      4.10795         0.992513      0.115822      0.663257
     13.98600      6.23152      2.81800         0.479032      0.442916     -1.523094
     14.13957      6.18275      5.47914         0.577257     -0.034468      2.588498
     13.33092      3.31660      1.06826         1.005608      0.618294     -2.755767
     13.99844      3.00295      3.59863        -0.593352      1.792836      2.086215
      5.26426      7.79215      2.05636        -1.262977      1.405382     -0.202288
      5.89912      7.61634      4.93457        -1.080673      0.447857      1.745586
      8.17565      3.00295      2.57045        -0.273468      0.970227     -0.573038
      8.90376      2.72696      5.41363         0.079009      0.355087      2.948737
      0.02514      7.79215      4.11272        -1.058958      1.529721      0.547184
     16.38836      7.74753      1.28742        -1.050927      0.676287     -3.365554
      2.36799      3.08179      1.80681        -0.857327      0.692944     -1.319626
      2.93654      3.00295      4.62682        -0.622969     -0.100346      0.966194
      9.83252      7.67169      0.06983         0.760240      0.465365     -3.655215
     11.05426      7.79879      3.11797         0.306395      0.704275      0.525778
     11.71166      7.60031      5.79580        -0.313133      1.606679      3.517691
      5.26426      4.56969      2.05636        -0.771863     -1.320852     -0.203066
      5.94116      4.77667      4.94202        -1.403758     -0.711998      1.976038
     14.71788      1.00680      0.80074         0.428912     -1.026234     -4.082583
     13.99844      9.35889      3.59863        -1.176292     -2.066739      0.390132
      0.02514      4.56969      4.11272        -0.987922     -1.253202      0.821012
     16.32083      4.41655      1.47758        -0.638961     -0.526769     -2.736237
      8.17565      9.35889      2.57045        -0.983878      0.402420     -0.292684
      8.85392      9.56877      5.39205         0.091715     -0.083270      2.836880
     11.00438      5.06488      0.39132        -0.771252      0.105232     -3.697519
     11.08705      4.56969      3.08454        -1.103883      0.002245      1.736475
     11.69954      4.74956      5.79237        -0.630530     -1.725958      3.195709
      2.36649      9.28512      1.80776        -0.810338     -0.813769     -1.357626
      2.93654      9.35889      4.62682        -0.691376      0.215199      0.767945
    total drift:                               -0.022827      0.038606     -0.013664

  FREE ENERGIE OF THE ION-ELECTRON SYSTEM (eV)
  free  energy   TOTEN  =      -362.34715818 eV

  energy  without entropy=     -361.18292404  energy(sigma->0) =     -361.76504111