 vasp.5.4.4.18Apr17-6-g9f103f2a35 (build Aug 13 2019 17:33:20) gamma-only

 executed on             LinuxIFC date 2020.05.10  12:45:00

 INCAR:
 POTCAR:    PAW_PBE Ni_pv 06Sep2000
 POTCAR:    PAW_PBE S 06Sep2000
 POTCAR:    PAW_PBE Ni_pv 06Sep2000
   VRHFIN =Ni:

   TITEL  = PAW_PBE Ni_pv 06Sep2000
   POMASS =   58.690; ZVAL   =   16.000    mass and valenz
   ENMAX  =  367.986; ENMIN  =  275.989 eV

 POTCAR:    PAW_PBE S 06Sep2000
   VRHFIN =S : s2p4

   TITEL  = PAW_PBE S 06Sep2000
   POMASS =   32.066; ZVAL   =    6.000    mass and valenz
   ENMAX  =  258.689; ENMIN  =  194.016 eV

 Optimization of the real space projectors (new method)

 maximal supplied QI-value         = 18.90
 optimisation between [QCUT,QGAM] = [ 10.77, 21.73] = [ 32.49,132.25] Ry
 Optimized for a Real-space Cutoff    1.38 Angstroem

   l    n(q)    QCUT    max X(q) W(low)/X(q) W(high)/X(q)  e(spline)
   1      8    10.771     2.836    0.40E-04    0.29E-04    0.12E-06
   1      8    10.771     4.023    0.10E-03    0.48E-04    0.29E-06
   2      8    10.771    73.368    0.42E-03    0.97E-04    0.44E-06
   2      8    10.771    69.010    0.42E-03    0.99E-04    0.45E-06
   0      9    10.771    54.797    0.10E-03    0.56E-04    0.74E-07
   0      9    10.771    24.266    0.89E-04    0.49E-04    0.67E-07
 Optimization of the real space projectors (new method)

 maximal supplied QI-value         = 19.84
 optimisation between [QCUT,QGAM] = [ 10.71, 21.63] = [ 32.15,130.99] Ry
 Optimized for a Real-space Cutoff    1.19 Angstroem

   l    n(q)    QCUT    max X(q) W(low)/X(q) W(high)/X(q)  e(spline)
   0      8    10.715   187.594    0.41E-03    0.53E-04    0.66E-07
   0      8    10.715   164.243    0.41E-03    0.53E-04    0.65E-07
   1      7    10.715    67.533    0.19E-03    0.59E-03    0.68E-07
   1      7    10.715    50.729    0.19E-03    0.58E-03    0.67E-07
  PAW_PBE Ni_pv 06Sep2000               :
  PAW_PBE S 06Sep2000                   :

 POSCAR: Type_026 Type_126
  positions in cartesian coordinates
 exchange correlation table for  LEXCH =        8
   RHO(1)=    0.500       N(1)  =     2000
   RHO(2)=  100.500       N(2)  =     4000

 ion  position               nearest neighbor table
   1  0.439  0.464  0.163-  45 2.06  36 2.09  30 2.25  37 2.36  46 2.36   5 2.53  22 2.53
   2  0.468  0.493  0.311-  46 2.04  37 2.04  31 2.06
   3  0.117  0.035  0.130-  27 2.02  39 2.14  28 2.24  11 2.44   4 2.47  34 2.50  38 2.59
   4  0.215  0.964  0.253-  40 2.10  35 2.16  28 2.25  39 2.26  34 2.26   3 2.47  12 2.53   8 2.53

   5  0.439  0.200  0.163-  41 2.06  36 2.09  34 2.25  37 2.36  42 2.36   1 2.53  22 2.53
   6  0.468  0.170  0.311-  42 2.04  37 2.04  35 2.06
   7  0.117  0.629  0.130-  32 2.02  39 2.14  33 2.24  11 2.44   8 2.47  30 2.50  38 2.58
   8  0.215  0.700  0.253-  40 2.10  31 2.16  33 2.25  39 2.26  30 2.26   7 2.47  12 2.53   4 2.53

[...]

  22  0.631  0.332  0.139-  45 2.08  41 2.08  49 2.10  42 2.36  46 2.36   5 2.53   1 2.53
  23  0.685  0.332  0.293-  46 2.03  42 2.03  50 2.09
  24  0.952  0.831  0.096-  38 2.03  39 2.13  43 2.27  47 2.28  25 2.34
  25  0.907  0.832  0.229-  44 2.16  48 2.16  39 2.25  43 2.26  47 2.26  24 2.34  26 2.41  21 2.53
                            17 2.53
  26  0.976  0.832  0.361-  40 2.02  44 2.06  48 2.06  25 2.41
  27  0.046  0.190  0.066-   3 2.02  18 2.06   9 2.08  32 2.72
  28  0.111  0.164  0.239-  19 2.07  10 2.08   3 2.24   4 2.25   9 2.36  18 2.36
  29  0.064  0.333  0.390-  10 2.04  15 2.05  19 2.05
  30  0.336  0.664  0.149-  11 2.05   1 2.25  12 2.26   8 2.26   7 2.50
  31  0.378  0.681  0.318-   2 2.06  13 2.07  12 2.13   8 2.16
  32  0.046  0.474  0.066-   7 2.02  14 2.06   9 2.08  27 2.72
  33  0.111  0.500  0.239-  15 2.07  10 2.08   7 2.24   8 2.25   9 2.36  14 2.36
  34  0.336  1.000  0.149-  11 2.05   5 2.25  12 2.26   4 2.26   3 2.50
  35  0.378  0.983  0.318-   6 2.06  13 2.07  12 2.13   4 2.16
  36  0.313  0.332  0.112-   5 2.09   1 2.09   9 2.11  37 2.77
  37  0.368  0.332  0.269-   2 2.04   6 2.04  10 2.16   1 2.36   5 2.36  36 2.77
  38  0.103  0.831  0.031-  24 2.03  11 2.05  39 2.55   7 2.58   3 2.59
  39  0.092  0.832  0.179-  11 2.12  24 2.13   7 2.14   3 2.14  25 2.25   8 2.26   4 2.26  38 2.55

  40  0.152  0.832  0.341-  26 2.02   8 2.10   4 2.10
  41  0.551  0.183  0.068-  16 2.01   5 2.06  22 2.08
  42  0.611  0.164  0.239-  23 2.03   6 2.04  16 2.13  17 2.25  22 2.36   5 2.36
  43  0.836  0.664  0.149-  20 2.23  14 2.25  25 2.26  21 2.26  24 2.27
  44  0.884  0.668  0.313-  26 2.06  15 2.14  25 2.16  21 2.19
  45  0.551  0.481  0.068-  20 2.01   1 2.06  22 2.08
  46  0.611  0.500  0.239-  23 2.03   2 2.04  20 2.13  21 2.25  22 2.36   1 2.36
  47  0.836  1.000  0.149-  16 2.23  18 2.25  25 2.26  17 2.26  24 2.28
  48  0.884  0.997  0.313-  26 2.06  19 2.14  25 2.16  17 2.19
  49  0.813  0.332  0.112-  18 2.10  14 2.10  22 2.10  50 2.78
  50  0.868  0.332  0.269-  19 2.06  15 2.06  23 2.09  14 2.36  18 2.36  49 2.78
  51  0.592  0.832  0.179-  12 2.25  17 2.26  21 2.26  20 2.29  16 2.29
  52  0.675  0.832  0.345-  13 2.00  17 2.08  21 2.08

  LATTYP: Found a simple orthorhombic cell.
 ALAT       =     9.5784100000
 B/A-ratio  =     1.1751911892
 C/A-ratio  =     1.7949213288

  Lattice vectors:

 A1 = (   0.0000000000,  -9.5784100000,   0.0000000000)
 A2 = ( -11.2564630382,   0.0000000000,   0.0000000000)
 A3 = (   0.0000000000,   0.0000000000, -17.1924924047)

Analysis of symmetry for initial positions (statically):
 Subroutine PRICEL returns:
 Original cell was already a primitive cell.

 Routine SETGRP: Setting up the symmetry group for a
 simple orthorhombic supercell.

 Subroutine GETGRP returns: Found  1 space group operations
 (whereof  1 operations were pure point group operations)
 out of a pool of  8 trial point group operations.

The static configuration has the point symmetry C_1 .

Analysis of symmetry for dynamics (positions and initial velocities):
 Subroutine PRICEL returns:
 Original cell was already a primitive cell.

 Routine SETGRP: Setting up the symmetry group for a
 simple orthorhombic supercell.

 Subroutine GETGRP returns: Found  1 space group operations
 (whereof  1 operations were pure point group operations)
 out of a pool of  8 trial point group operations.

The dynamic configuration has the point symmetry C_1 .

 Subroutine INISYM returns: Found  1 space group operations
 (whereof  1 operations are pure point group operations),
 and found     1 'primitive' translations

 KPOINTS: gamma-point-only calculation. no periodi

Automatic generation of k-mesh.
Space group operators:
 irot       det(A)        alpha          n_x          n_y          n_z        tau_x        tau_y        tau_z
    1     1.000000     0.000000     1.000000     0.000000     0.000000     0.000000     0.000000     0.000000

 Subroutine IBZKPT returns following result:

 Found      1 irreducible k-points:

 Following reciprocal coordinates:
            Coordinates               Weight
  0.000000  0.000000  0.000000      1.000000

 Following cartesian coordinates:
            Coordinates               Weight
  0.000000  0.000000  0.000000      1.000000

 SYSTEM =  "Millerite NiS"
 POSCAR =  Type_026 Type_126

 Startparameter for this run:
   NWRITE =      2    write-flag & timer
   PREC   = normal    normal or accurate (medium, high low for compatibility)
   ISTART =      0    job   : 0-new  1-cont  2-samecut
   ICHARG =      2    charge: 1-file 2-atom 10-const
   ISPIN  =      1    spin polarized calculation?
   LNONCOLLINEAR =      F non collinear calculations
   LSORBIT =      F    spin-orbit coupling
   INIWAV =      1    electr: 0-lowe 1-rand  2-diag
   LASPH  =      F    aspherical Exc in radial PAW
   METAGGA=      F    non-selfconsistent MetaGGA calc.

 Electronic Relaxation 1
   ENCUT  =  450.0 eV  33.07 Ry    5.75 a.u.  19.47 16.57 29.74*2*pi/ulx,y,z
   ENINI  =  450.0     initial cutoff
   ENAUG  =  703.4 eV  augmentation charge cutoff
   NELM   =    100;   NELMIN=  2; NELMDL= -5     # of ELM steps
   EDIFF  = 0.1E-03   stopping-criterion for ELM
   LREAL  =      T    real-space projection
   NLSPLINE    = F    spline interpolate recip. space projectors
   LCOMPAT=      F    compatible to vasp.4.4
   GGA_COMPAT  = T    GGA compatible to vasp.4.4-vasp.4.6
   LMAXPAW     = -100 max onsite density
   LMAXMIX     =    2 max onsite mixed and CHGCAR
   VOSKOWN=      0    Vosko Wilk Nusair interpolation
   ROPT   =   -0.00050  -0.00050
 Ionic relaxation
   EDIFFG = 0.1E-02   stopping-criterion for IOM
   NSW    =      0    number of steps for IOM
   NBLOCK =      1;   KBLOCK =      1    inner block; outer block
   IBRION =     -1    ionic relax: 0-MD 1-quasi-New 2-CG
   NFREE  =      0    steps in history (QN), initial steepest desc. (CG)
   ISIF   =      2    stress and relaxation
   IWAVPR =     10    prediction:  0-non 1-charg 2-wave 3-comb
   ISYM   =      2    0-nonsym 1-usesym 2-fastsym
   LCORR  =      T    Harris-Foulkes like correction to forces

   POTIM  = 0.5000    time-step for ionic-motion
   TEIN   =    0.0    initial temperature
   TEBEG  =    0.0;   TEEND  =   0.0 temperature during run
   SMASS  =  -3.00    Nose mass-parameter (am)
   estimated Nose-frequenzy (Omega)   =  0.10E-29 period in steps =****** mass=  -0.290E-26a.u.
   SCALEE = 1.0000    scale energy and forces
   NPACO  =    256;   APACO  = 16.0  distance and # of slots for P.C.
   PSTRESS=    0.0 pullay stress

  Mass of Ions in am
   POMASS =  58.69 32.07
  Ionic Valenz
   ZVAL   =  16.00  6.00
  Atomic Wigner-Seitz radii
  virtual crystal weights
   VCA    =   1.00  1.00
   NELECT =     572.0000    total number of electrons
   NUPDOWN=      -1.0000    fix difference up-down

 DOS related values:
   EMIN   =  10.00;   EMAX   =-10.00  energy-range for DOS
   EFERMI =   0.00
   ISMEAR =     0;   SIGMA  =   0.20  broadening in eV -4-tet -1-fermi 0-gaus

 Electronic relaxation 2 (details)
   IALGO  =     38    algorithm
   LDIAG  =      T    sub-space diagonalisation (order eigenvalues)
   LSUBROT=      F    optimize rotation matrix (better conditioning)
   TURBO    =      0    0=normal 1=particle mesh
   IRESTART =      0    0=no restart 2=restart with 2 vectors
   NREBOOT  =      0    no. of reboots
   NMIN     =      0    reboot dimension
   EREF     =   0.00    reference energy to select bands
   IMIX   =      4    mixing-type and parameters
     AMIX     =   0.40;   BMIX     =  1.00
     AMIX_MAG =   1.60;   BMIX_MAG =  1.00
     AMIN     =   0.10
     WC   =   100.;   INIMIX=   1;  MIXPRE=   1;  MAXMIX= -45

 Intra band minimization:
   WEIMIN = 0.0000     energy-eigenvalue tresh-hold
   EBREAK =  0.73E-07  absolut break condition
   DEPER  =   0.30     relativ break condition

   TIME   =   0.40     timestep for ELM

  volume/ion in A,a.u.               =      35.65       240.56
  Fermi-wavevector in a.u.,A,eV,Ry     =   1.106272  2.090552 16.651337  1.223839
  Thomas-Fermi vector in A             =   2.242771

 Write flags
   LWAVE        =      F    write WAVECAR
   LDOWNSAMPLE  =      F    k-point downsampling of WAVECAR
   LCHARG       =      F    write CHGCAR
   LVTOT        =      F    write LOCPOT, total local potential
[...]
      26 -87.5500      27 -92.5497      28 -93.4505      29 -92.1433      30 -92.7841
      31 -92.8450      32 -92.5505      33 -93.4464      34 -92.7845      35 -92.8459
      36 -92.1376      37 -92.9901      38 -92.6770      39 -94.0049      40 -92.1727
      41 -92.3133      42 -93.5126      43 -92.8463      44 -92.6689      45 -92.3124
      46 -93.5119      47 -92.8462      48 -92.6682      49 -92.3919      50 -93.2149
      51 -92.7091      52 -92.0743

 E-fermi :  -0.1426     XC(G=0):  -5.3271     alpha+bet : -5.1393

 k-point     1 :       0.0000    0.0000    0.0000
  band No.  band energies     occupation
      1     -64.9308      2.00000
      2     -64.8641      2.00000
      3     -64.7654      2.00000
      4     -64.7609      2.00000
      5     -64.7417      2.00000
      6     -64.7326      2.00000
      7     -64.7184      2.00000
      8     -64.7179      2.00000
      9     -64.7038      2.00000
     10     -64.6750      2.00000
     11     -64.6622      2.00000
     12     -64.6537      2.00000
     13     -64.6420      2.00000
     14     -64.6371      2.00000
     15     -64.6292      2.00000
     16     -64.6246      2.00000
     17     -64.6024      2.00000
     18     -64.5941      2.00000
     19     -64.5924      2.00000
     20     -64.5870      2.00000
     21     -64.5712      2.00000
     22     -64.5464      2.00000
     23     -64.5451      2.00000
     24     -64.5420      2.00000
     25     -64.5369      2.00000
     26     -64.5228      2.00000
     27     -64.5123      2.00000
     28     -64.5080      2.00000
     29     -64.4949      2.00000
     30     -64.4659      2.00000
     31     -64.4611      2.00000
     32     -64.4529      2.00000
     33     -64.4527      2.00000
     34     -64.4379      2.00000
     35     -64.4217      2.00000
     36     -64.4127      2.00000
     37     -64.4080      2.00000
     38     -64.4015      2.00000
     39     -64.3996      2.00000
     40     -64.3289      2.00000
     41     -64.3098      2.00000
     42     -64.2904      2.00000
     43     -64.2892      2.00000
     44     -64.2890      2.00000
     45     -64.2807      2.00000
     46     -64.2746      2.00000
     47     -64.2632      2.00000
     48     -64.2576      2.00000
     49     -64.2526      2.00000
     50     -64.2449      2.00000
     51     -64.2320      2.00000
     52     -64.2308      2.00000
     53     -64.2195      2.00000
     54     -64.2064      2.00000
     55     -64.2040      2.00000
     56     -64.2025      2.00000
     57     -64.1818      2.00000
     58     -64.1796      2.00000
     59     -64.1443      2.00000
     60     -64.1285      2.00000
[...]
    330       4.9126      0.00000
    331       5.0208      0.00000
    332       5.1601      0.00000
    333       5.2251      0.00000
    334       5.2286      0.00000
    335       5.3383      0.00000
    336       5.3701      0.00000
    337       5.4339      0.00000
    338       5.5399      0.00000
    339       5.5700      0.00000
    340       5.6299      0.00000
    341       5.7461      0.00000
    342       5.8107      0.00000
    343       5.9154      0.00000
    344       5.9363      0.00000

 soft charge-density along one line, spin component           1
         0         1         2         3         4         5         6         7         8         9
 total charge-density along one line

------------------------ aborting loop because EDIFF is reached ----------------------------------------

  FORCE on cell =-STRESS in cart. coord.  units (eV):
  Direction    XX          YY          ZZ          XY          YZ          ZX
  Alpha Z  1046.73971  1046.73971  1046.73971
  Ewald  166967.39366169526.56911************     0.35402     3.07049  1018.79498
  Hartree191519.85186193845.55384************     0.02150     1.78974   592.47466
  E(xc)   -3650.60275 -3650.60377 -3656.55716     0.00038     0.00377     1.03516
  Local  ************************364375.18404    -0.31848    -4.72727 -1576.42400
  n-local  -418.81746  -424.27720  -426.79934     0.02192     0.03733     3.19682
  augment  4180.17482  4182.45594  4190.30970    -0.03968    -0.08609   -12.53934
  Kinetic  8016.83850  7993.90915  8085.97424    -0.06608    -0.13766   -25.42017
  Fock        0.00000     0.00000     0.00000     0.00000     0.00000     0.00000
  Total      90.83206    83.04766    97.68139    -0.02642    -0.04969     1.11811
  in kB      78.50829    71.78005    84.42833    -0.02283    -0.04295     0.96641

 VOLUME and BASIS-vectors are now :
  energy-cutoff  :      450.00
  volume of cell :     1853.68
      direct lattice vectors                 reciprocal lattice vectors
    11.256463038  0.000000000  0.000000000     0.088837852  0.000000000  0.000000000
     0.000000000  9.578410000  0.000000000     0.000000000  0.104401461  0.000000000
     0.000000000  0.000000000 17.192492405     0.000000000  0.000000000  0.058164923

  length of vectors
    11.256463038  9.578410000 17.192492405     0.088837852  0.104401461  0.058164923

 FORCES acting on ions
    electron-ion (+dipol)            ewald-force                    non-local-force                 convergence-correction
   0.379E+03 -.386E+03 0.165E+04   -.383E+03 0.387E+03 -.166E+04   0.287E+01 -.898E+00 0.410E+01   -.833E-02 0.178E-01 -.111E-01
   0.658E+01 -.348E+02 -.319E+04   -.878E+01 0.370E+02 0.319E+04   0.214E+01 -.252E+01 0.179E+01   -.252E-02 0.663E-01 0.226E-01
   -.153E+03 -.366E+03 0.261E+04   0.154E+03 0.369E+03 -.262E+04   -.768E-01 -.395E+01 0.467E+01   0.106E-02 -.813E-02 -.421E-02
   -.917E+02 -.545E+03 -.164E+04   0.920E+02 0.549E+03 0.164E+04   -.148E-01 -.277E+01 -.519E+01   0.238E-01 -.837E-02 0.519E-02
   0.379E+03 0.387E+03 0.165E+04   -.383E+03 -.388E+03 -.166E+04   0.286E+01 0.898E+00 0.411E+01   -.249E-01 -.197E-01 -.697E-02
   0.659E+01 0.348E+02 -.319E+04   -.878E+01 -.370E+02 0.319E+04   0.215E+01 0.252E+01 0.180E+01   -.118E-01 -.702E-01 0.254E-01
   -.155E+03 0.369E+03 0.261E+04   0.156E+03 -.372E+03 -.262E+04   -.780E-01 0.398E+01 0.469E+01   0.676E-02 0.276E-01 -.878E-02
   -.913E+02 0.545E+03 -.164E+04   0.916E+02 -.549E+03 0.164E+04   -.104E-01 0.278E+01 -.519E+01   0.378E-01 0.387E-01 0.273E-01
   -.624E+03 0.187E+00 0.231E+04   0.629E+03 -.140E+00 -.231E+04   -.496E+01 -.419E-02 0.313E+01   0.488E-02 -.355E-01 0.399E-03
   -.692E+03 -.119E+00 -.265E+04   0.699E+03 0.142E+00 0.265E+04   -.519E+01 -.160E-01 -.330E+01   0.157E-02 -.162E-01 0.125E-01
   -.891E+03 -.157E+01 0.355E+04   0.896E+03 0.156E+01 -.356E+04   -.411E+01 -.136E-01 0.764E+01   0.190E-02 0.314E-01 0.953E-03
   -.578E+03 -.240E+00 0.139E+02   0.585E+03 0.233E+00 -.179E+02   -.640E+01 0.371E-02 0.168E+01   0.317E-01 0.898E-02 0.951E-01
   -.164E+03 0.426E-01 -.390E+04   0.170E+03 -.451E-01 0.390E+04   -.658E+01 -.568E-02 0.188E+00   0.331E-01 0.251E-02 0.752E-01
   0.585E+03 -.239E+03 0.154E+04   -.589E+03 0.242E+03 -.154E+04   0.381E+01 -.243E+01 0.355E+01   -.263E-02 -.230E-02 -.417E-02
   0.289E+03 -.366E+03 -.324E+04   -.292E+03 0.370E+03 0.324E+04   0.219E+01 -.262E+01 -.381E+01   0.194E-02 0.501E-02 0.233E-01
   0.213E+02 0.398E+03 0.283E+04   -.212E+02 -.402E+03 -.284E+04   0.492E+00 0.219E+01 0.722E+01   -.771E-02 -.222E-01 0.108E-01
   0.196E+03 -.369E+03 -.136E+04   -.196E+03 0.370E+03 0.136E+04   0.442E+00 -.104E+01 -.368E+01   -.183E-01 -.475E-01 0.680E-01
   0.585E+03 0.240E+03 0.153E+04   -.589E+03 -.243E+03 -.154E+04   0.381E+01 0.242E+01 0.359E+01   0.259E-01 -.308E-01 -.753E-02
   0.288E+03 0.367E+03 -.324E+04   -.291E+03 -.371E+03 0.325E+04   0.220E+01 0.253E+01 -.385E+01   0.103E-01 -.200E-01 0.102E-01
   0.214E+02 -.398E+03 0.283E+04   -.213E+02 0.401E+03 -.284E+04   0.493E+00 -.219E+01 0.721E+01   -.108E-01 0.218E-01 0.128E-01
   0.196E+03 0.369E+03 -.136E+04   -.196E+03 -.370E+03 0.136E+04   0.439E+00 0.105E+01 -.365E+01   -.273E-01 0.411E-01 0.614E-01
   -.423E+03 -.462E+00 0.235E+04   0.427E+03 0.462E+00 -.235E+04   -.364E+01 -.174E-02 0.457E+01   -.188E-02 0.856E-02 -.321E-02
   -.203E+03 0.151E+00 -.279E+04   0.207E+03 -.158E+00 0.279E+04   -.326E+01 0.409E-02 0.106E+01   0.164E-01 0.181E-02 0.191E-01
   0.741E+03 -.251E+01 0.369E+04   -.744E+03 0.249E+01 -.370E+04   0.125E+01 0.131E-01 0.458E+01   0.191E-01 0.217E-01 -.638E-02
   0.503E+02 -.335E+00 -.418E+03   -.486E+02 0.306E+00 0.418E+03   -.224E+01 0.312E-01 -.117E+01   -.570E-03 0.986E-02 0.158E-01
   -.544E+02 -.171E+01 -.412E+04   0.567E+02 0.172E+01 0.412E+04   -.228E+01 0.107E-01 0.245E+01   -.255E-01 0.674E-02 0.298E-01
   0.561E+02 -.197E+02 0.178E+04   -.567E+02 0.178E+02 -.179E+04   0.557E+00 0.200E+01 0.275E+01   0.516E-02 -.126E-01 -.128E-02
   -.146E+03 0.786E+02 -.347E+03   0.148E+03 -.789E+02 0.349E+03   -.147E+01 -.146E+01 -.269E+01   0.715E-02 -.815E-02 -.474E-02
   -.982E+02 -.141E+01 -.184E+04   0.985E+02 0.143E+01 0.185E+04   -.569E-01 -.928E-02 -.672E+00   0.977E-02 -.410E-02 0.164E-01
   -.276E+03 0.183E+03 0.899E+03   0.279E+03 -.183E+03 -.903E+03   -.183E+01 -.686E+00 0.341E+01   0.643E-02 0.121E-01 0.427E-02
   0.784E+02 0.177E+03 -.125E+04   -.770E+02 -.180E+03 0.126E+04   -.112E+01 0.131E+01 -.195E+01   0.236E-01 0.498E-01 0.201E-01
   0.561E+02 0.207E+02 0.178E+04   -.567E+02 -.188E+02 -.179E+04   0.564E+00 -.200E+01 0.276E+01   0.840E-03 -.483E-02 -.140E-01
   -.146E+03 -.785E+02 -.347E+03   0.148E+03 0.788E+02 0.349E+03   -.150E+01 0.149E+01 -.269E+01   0.968E-02 -.453E-02 0.632E-02
   -.276E+03 -.183E+03 0.900E+03   0.279E+03 0.183E+03 -.903E+03   -.183E+01 0.703E+00 0.341E+01   -.757E-02 -.875E-02 0.589E-02
   0.784E+02 -.177E+03 -.125E+04   -.770E+02 0.180E+03 0.126E+04   -.112E+01 -.128E+01 -.195E+01   0.192E-01 -.463E-01 0.175E-01
   0.400E+02 0.885E-01 0.128E+04   -.407E+02 -.825E-01 -.129E+04   0.228E+00 0.125E-01 0.404E+01   -.284E-02 -.384E-02 -.347E-02
   0.149E+03 0.718E-01 -.664E+03   -.151E+03 -.730E-01 0.666E+03   0.369E+00 -.117E-03 -.975E+00   -.208E-01 -.320E-02 -.415E-02
   -.284E+02 -.555E+00 0.188E+04   0.281E+02 0.551E+00 -.189E+04   0.980E-01 -.719E-02 0.353E+01   0.499E-03 0.962E-02 -.499E-02
   0.112E+03 -.670E+00 0.197E+03   -.116E+03 0.662E+00 -.192E+03   0.254E+01 -.134E-01 -.340E+01   0.204E-02 0.181E-01 -.260E-02
   -.115E+03 0.599E+00 -.153E+04   0.115E+03 -.609E+00 0.154E+04   -.883E-01 0.111E-02 -.267E+01   0.839E-02 0.538E-02 0.727E-02
   0.724E+02 0.117E+03 0.176E+04   -.739E+02 -.119E+03 -.176E+04   0.111E+01 0.682E+00 0.219E+01   -.746E-02 -.120E-02 -.127E-01
   -.865E+02 0.882E+02 -.387E+03   0.876E+02 -.882E+02 0.391E+03   -.418E+00 -.136E+01 -.323E+01   0.508E-02 -.828E-02 0.731E-02
   0.115E+03 0.870E+02 0.904E+03   -.114E+03 -.891E+02 -.908E+03   -.910E+00 0.162E+01 0.200E+01   0.388E-03 0.109E-01 0.107E-02
   0.133E+03 0.210E+03 -.116E+04   -.133E+03 -.212E+03 0.117E+04   -.765E+00 0.598E+00 -.111E+01   -.111E-01 0.177E-01 0.132E-01
   0.721E+02 -.117E+03 0.176E+04   -.735E+02 0.119E+03 -.176E+04   0.111E+01 -.699E+00 0.220E+01   -.438E-02 0.495E-02 -.944E-02
   -.867E+02 -.880E+02 -.387E+03   0.878E+02 0.881E+02 0.391E+03   -.428E+00 0.138E+01 -.323E+01   0.749E-02 0.124E-01 0.248E-02
   0.114E+03 -.861E+02 0.905E+03   -.113E+03 0.882E+02 -.909E+03   -.893E+00 -.162E+01 0.200E+01   0.146E-01 -.597E-02 0.364E-03
   0.133E+03 -.210E+03 -.116E+04   -.132E+03 0.212E+03 0.116E+04   -.765E+00 -.592E+00 -.109E+01   -.428E-02 -.131E-01 0.118E-01
   0.122E+03 0.503E-02 0.129E+04   -.122E+03 0.242E-02 -.130E+04   -.247E+00 0.104E-01 0.415E+01   0.335E-02 -.390E-02 -.556E-02
   0.262E+03 0.600E+00 -.625E+03   -.264E+03 -.595E+00 0.625E+03   0.899E+00 0.677E-02 -.758E+00   -.744E-02 -.537E-02 0.316E-02
   0.136E+03 -.593E+00 0.656E+03   -.139E+03 0.600E+00 -.660E+03   0.169E+01 -.320E-02 0.344E+01   -.134E-01 -.462E-02 0.223E-01
   -.759E+02 -.129E+00 -.154E+04   0.773E+02 0.146E+00 0.155E+04   -.131E+01 -.319E-01 -.243E+01   -.410E-01 -.170E-02 0.262E-01
   0.192E+02 0.112E+00 -.458E+02   0.182E-11 -.230E-12 0.000E+00   -.193E+02 0.269E-01 0.452E+02   0.773E-01 0.293E-01 0.566E+00

 POSITION                                       TOTAL-FORCE (eV/Angst)
      4.94536      4.44331      2.79952        -0.666182      0.571334      1.658847
      5.26442      4.72352      5.35059        -0.061617     -0.250198      1.115817
      1.32239      0.33268      2.23870         0.625157     -0.622622     -0.320216
      2.42308      9.23251      4.34179         0.290380      0.895811     -0.540063
      4.94536      1.91264      2.79952        -0.676196     -0.575501      1.671831
      5.26451      1.63245      5.35063        -0.057532      0.261840      1.117285
      1.32210      6.02433      2.23683         0.626816      0.615450     -0.312386
      2.42308      6.70184      4.34179         0.280342     -0.894075     -0.541391
      1.47054      3.17797      2.39204         0.598994      0.003823      1.518389
      2.04306      3.17835      5.15249         1.698672     -0.011951      0.278223
      2.74912      7.96724      1.83445         0.767400      0.006721     -1.463241
      4.57649      7.96718      3.93431         0.145700      0.002282     -2.269075
      5.60322      7.96734      6.07523        -0.766271     -0.008928      1.449802
     10.57359      4.44331      2.79952        -0.557420      0.591024      1.656706
     11.02066      4.54951      5.52674        -0.534154      1.880372      0.439732
      7.24231      0.46872      2.31304         0.602060     -1.055777     -0.021112
      8.05131      9.23251      4.34179         0.143796      0.221861     -0.594483
     10.57359      1.91264      2.79952        -0.565020     -0.593387      1.667981
     11.02551      1.81367      5.53029        -0.505533     -1.891694      0.454718
      7.23993      5.88901      2.31351         0.596534      1.044693     -0.035001
      8.05131      6.70184      4.34179         0.147361     -0.210925     -0.578867
      7.09877      3.17797      2.39204         0.586624      0.002954      1.522981
      7.71404      3.17799      5.03153         0.039145     -0.004303      0.855086
     10.72058      7.96270      1.64685        -1.330255      0.014061     -0.271774
     10.20472      7.96718      3.93431        -0.557785      0.008724     -0.696621
     10.98448      7.97247      6.21029        -0.034541      0.023040      1.116425
      0.52228      1.81883      1.12911        -0.043695      0.064231     -3.615965
      1.25497      1.56674      4.10795         0.887451     -1.775459     -1.140110
      0.72236      3.18516      6.71277         0.304138     -0.002252      4.424630
      3.77725      6.35595      2.56568         1.201428     -1.429482     -0.108027
      4.25679      6.51864      5.46791         0.270530     -1.151649      1.656450
      0.52208      4.53692      1.12886        -0.037962     -0.077232     -3.605449
      1.25497      4.78920      4.10795         0.866637      1.800859     -1.143103
      3.77725      9.57841      2.56568         1.202973      1.439062     -0.113592
      4.25672      9.41585      5.46790         0.269258      1.180255      1.654754
      3.52403      3.17796      1.92401        -0.499456      0.011320     -2.532340
      4.14113      3.17797      4.62682        -1.132433     -0.007762      0.486153
      1.16138      7.96198      0.54155        -0.204063     -0.003982     -2.827460
      1.03518      7.96718      3.08454        -2.079858     -0.006534      2.299867
      1.71201      7.96715      5.85536         0.138450     -0.007535      2.590289
      6.19740      1.75253      1.17515        -0.357061     -1.031456     -3.863950
      6.88320      1.56674      4.10795         0.695837     -1.430723      0.440239
      9.40548      6.35595      2.56568         0.059556     -0.475262     -1.192407
      9.95134      6.39682      5.38883         0.012030     -1.144170      1.597098
      6.19742      4.60344      1.17517        -0.349179      1.007921     -3.860200
      6.88320      4.78920      4.10795         0.690593      1.441866      0.440422
      9.40548      9.57841      2.56568         0.079837      0.465646     -1.219037
      9.95359      9.54672      5.38125        -0.007296      1.118238      1.595484
      9.14761      3.17772      1.91983        -0.280626      0.010673     -2.177369
      9.76936      3.17797      4.62682        -1.687901      0.002357     -0.662161
      6.66341      7.96718      3.08454        -0.858673     -0.003443     -1.141273
      7.59999      7.96807      5.92473         0.023007     -0.020117      3.137462
    total drift:                                0.035260      0.168210      0.006695

  FREE ENERGIE OF THE ION-ELECTRON SYSTEM (eV)
  free  energy   TOTEN  =      -249.65896389 eV

  energy  without entropy=     -248.80630137  energy(sigma->0) =     -249.23263263