 vasp.5.4.4.18Apr17-6-g9f103f2a35 (build Aug 13 2019 17:33:20) gamma-only

 executed on             LinuxIFC date 2020.05.12  10:37:06

 INCAR:
 POTCAR:    PAW_PBE Ni_pv 06Sep2000
 POTCAR:    PAW_PBE S 06Sep2000
 POTCAR:    PAW_PBE Ni_pv 06Sep2000
   VRHFIN =Ni:

   TITEL  = PAW_PBE Ni_pv 06Sep2000
   POMASS =   58.690; ZVAL   =   16.000    mass and valenz
   ENMAX  =  367.986; ENMIN  =  275.989 eV

 POTCAR:    PAW_PBE S 06Sep2000
   VRHFIN =S : s2p4

   TITEL  = PAW_PBE S 06Sep2000
   POMASS =   32.066; ZVAL   =    6.000    mass and valenz
   ENMAX  =  258.689; ENMIN  =  194.016 eV

 Optimization of the real space projectors (new method)

 maximal supplied QI-value         = 18.90
 optimisation between [QCUT,QGAM] = [ 10.77, 21.73] = [ 32.49,132.25] Ry
 Optimized for a Real-space Cutoff    1.38 Angstroem

   l    n(q)    QCUT    max X(q) W(low)/X(q) W(high)/X(q)  e(spline)
   1      8    10.771     2.836    0.40E-04    0.29E-04    0.12E-06
   1      8    10.771     4.023    0.10E-03    0.48E-04    0.29E-06
   2      8    10.771    73.368    0.42E-03    0.97E-04    0.44E-06
   2      8    10.771    69.010    0.42E-03    0.99E-04    0.45E-06
   0      9    10.771    54.797    0.10E-03    0.56E-04    0.74E-07
   0      9    10.771    24.266    0.89E-04    0.49E-04    0.67E-07
 Optimization of the real space projectors (new method)

 maximal supplied QI-value         = 19.84
 optimisation between [QCUT,QGAM] = [ 10.71, 21.63] = [ 32.15,130.99] Ry
 Optimized for a Real-space Cutoff    1.19 Angstroem

   l    n(q)    QCUT    max X(q) W(low)/X(q) W(high)/X(q)  e(spline)
   0      8    10.715   187.594    0.41E-03    0.53E-04    0.66E-07
   0      8    10.715   164.243    0.41E-03    0.53E-04    0.65E-07
   1      7    10.715    67.533    0.19E-03    0.59E-03    0.68E-07
   1      7    10.715    50.729    0.19E-03    0.58E-03    0.67E-07
  PAW_PBE Ni_pv 06Sep2000               :
  PAW_PBE S 06Sep2000                   :

 POSCAR: Type_048 Type_148
  positions in cartesian coordinates
 exchange correlation table for  LEXCH =        8
   RHO(1)=    0.500       N(1)  =     2000
   RHO(2)=  100.500       N(2)  =     4000

 ion  position               nearest neighbor table
   1  0.256  0.016  0.152-  75 2.25  65 2.26  82 2.26  53 2.36  93 2.36   5 2.39
   2  0.256  0.016  0.481-  76 2.25  66 2.26  83 2.26  54 2.36  94 2.36  10 2.53   6 2.53
   3  0.006  0.266  0.317-  62 2.25  68 2.26  72 2.26  56 2.36  60 2.36   7 2.53  23 2.53
   4  0.013  0.262  0.638-  57 2.11  69 2.14  73 2.15  61 2.21   8 2.33  24 2.48
   5  0.288  0.017  0.071-  91 2.03  93 2.15  49 2.16  82 2.32   1 2.39  79 2.52
   6  0.256  0.016  0.394-  80 2.25  62 2.26  83 2.26  50 2.36  94 2.36   2 2.53  10 2.53
   7  0.006  0.266  0.230-  65 2.25  72 2.26  63 2.26  60 2.36  51 2.36   3 2.53  23 2.53
   8  0.006  0.266  0.558-  66 2.25  73 2.26  64 2.26   4 2.33  61 2.36  52 2.36  24 2.53
   9  0.147  0.222  0.110-  65 2.10  49 2.13  58 2.14  79 2.14  53 2.55
  10  0.190  0.215  0.438-  59 2.25  66 2.26  62 2.26  54 2.36  50 2.36   2 2.53   6 2.53
  11  0.440  0.465  0.273-  84 2.25  51 2.26  56 2.26  63 2.36  68 2.36  19 2.53  15 2.53
  12  0.440  0.465  0.602-  57 2.11  69 2.14  85 2.25  52 2.26  64 2.36  16 2.48  20 2.53
  13  0.756  0.016  0.152-  87 2.25  53 2.26  93 2.26  65 2.36  82 2.36  17 2.47  21 2.52
  14  0.756  0.016  0.481-  88 2.25  54 2.26  94 2.26  66 2.36  83 2.36  22 2.53  18 2.53
  15  0.506  0.266  0.317-  50 2.25  56 2.26  60 2.26  68 2.36  72 2.36  19 2.53  11 2.53
  16  0.515  0.262  0.638-  69 2.11  57 2.14  61 2.16  73 2.20  20 2.33  12 2.48
  17  0.700  0.032  0.069-  91 2.03  93 2.11  49 2.14  79 2.17  13 2.47  21 2.53  82 2.64
  18  0.756  0.016  0.394-  92 2.25  50 2.26  94 2.26  62 2.36  83 2.36  14 2.53  22 2.53
  19  0.506  0.266  0.230-  53 2.25  60 2.26  51 2.26  72 2.36  63 2.36  15 2.53  11 2.53
  20  0.506  0.266  0.558-  54 2.25  61 2.26  52 2.26  16 2.33  73 2.36  64 2.36  12 2.53
  21  0.677  0.222  0.115-  53 2.11  79 2.16  70 2.16  49 2.23  65 2.31  41 2.44  13 2.52  17 2.53

  22  0.690  0.215  0.438-  71 2.25  54 2.26  50 2.26  66 2.36  62 2.36  14 2.53  18 2.53
  23  0.940  0.465  0.273-  95 2.25  63 2.26  68 2.26  51 2.36  56 2.36   7 2.53   3 2.53
  24  0.940  0.465  0.602-  69 2.11  57 2.14  96 2.25  64 2.26  52 2.36   4 2.48   8 2.53
  25  0.256  0.516  0.152-  51 2.25  89 2.26  58 2.26  77 2.36  70 2.36
  26  0.256  0.516  0.481-  52 2.25  90 2.26  59 2.26  78 2.36  71 2.36  34 2.53  30 2.53
  27  0.006  0.766  0.317-  86 2.25  92 2.26  95 2.26  80 2.36  84 2.36  31 2.53  47 2.53
  28  0.044  0.764  0.637-  85 2.06  81 2.07  96 2.29  32 2.30
  29  0.324  0.369  0.063-  55 2.03  67 2.05  70 2.09  49 2.13  58 2.15
  30  0.256  0.516  0.394-  56 2.25  86 2.26  59 2.26  74 2.36  71 2.36  26 2.53  34 2.53
  31  0.006  0.766  0.230-  89 2.25  95 2.26  87 2.26  84 2.36  75 2.36  33 2.39  27 2.53  47 2.53

[...]

  44  0.506  0.766  0.558-  78 2.25  85 2.26  76 2.26  40 2.33  96 2.36  88 2.36  36 2.50
  45  0.691  0.797  0.161-  89 2.06  93 2.09  87 2.17  77 2.21  43 2.38
  46  0.690  0.715  0.438-  94 2.25  78 2.26  74 2.26  90 2.36  86 2.36  38 2.53  42 2.53
  47  0.940  0.965  0.273-  72 2.25  87 2.26  92 2.26  75 2.36  80 2.36  31 2.53  27 2.53
  48  0.959  0.974  0.591-  76 2.09  81 2.14  88 2.18  73 2.21  32 2.49
  49  0.427  0.177  0.068-   9 2.13  29 2.13  17 2.14   5 2.16  21 2.23  91 2.66
  50  0.468  0.167  0.382-  15 2.25  18 2.26  22 2.26   6 2.36  10 2.36
  51  0.218  0.417  0.218-  25 2.25  11 2.26  19 2.26  23 2.36   7 2.36
  52  0.218  0.417  0.547-  26 2.25  12 2.26  20 2.26  24 2.36   8 2.36
  53  0.468  0.167  0.164-  21 2.11  19 2.25  13 2.26   1 2.36   9 2.55
  54  0.468  0.167  0.493-  20 2.25  22 2.26  14 2.26  10 2.36   2 2.36
  55  0.077  0.361  0.019-  29 2.03  41 2.03  58 2.68
  56  0.218  0.417  0.329-  30 2.25  15 2.26  11 2.26   3 2.36  23 2.36
  57  0.218  0.391  0.642-   4 2.11  12 2.11  24 2.14  16 2.14  61 2.77
  58  0.053  0.414  0.109-  41 2.12   9 2.14  29 2.15  25 2.26  37 2.36  55 2.68
  59  0.053  0.414  0.438-  10 2.25  26 2.26  30 2.26  38 2.36  42 2.36
  60  0.303  0.164  0.273-  35 2.25  19 2.26  15 2.26   7 2.36   3 2.36
  61  0.303  0.164  0.602-  16 2.16  36 2.17   4 2.21  20 2.26   8 2.36  57 2.77
  62  0.968  0.167  0.382-   3 2.25   6 2.26  10 2.26  18 2.36  22 2.36
  63  0.718  0.417  0.218-  37 2.25  23 2.26   7 2.26  11 2.36  19 2.36
  64  0.718  0.417  0.547-  38 2.25  24 2.26   8 2.26  12 2.36  20 2.36
  65  0.968  0.167  0.164-   9 2.10   7 2.25   1 2.26  21 2.31  13 2.36
  66  0.968  0.167  0.493-   8 2.25  10 2.26   2 2.26  22 2.36  14 2.36
  67  0.577  0.371  0.019-  41 2.03  29 2.05  70 2.66
  68  0.718  0.417  0.329-  42 2.25   3 2.26  23 2.26  15 2.36  11 2.36
  69  0.718  0.392  0.642-  16 2.11  24 2.11  12 2.14   4 2.14  73 2.78
  70  0.553  0.414  0.109-  29 2.09  21 2.16  41 2.20  37 2.26  25 2.36  67 2.66
  71  0.553  0.414  0.438-  22 2.25  38 2.26  42 2.26  26 2.36  30 2.36
  72  0.803  0.164  0.273-  47 2.25   7 2.26   3 2.26  19 2.36  15 2.36
  73  0.803  0.164  0.602-   4 2.15  16 2.20  48 2.21   8 2.26  20 2.36  69 2.78
  74  0.468  0.667  0.382-  39 2.25  42 2.26  46 2.26  30 2.36  34 2.36
  75  0.218  0.917  0.218-  33 2.17   1 2.25  35 2.26  43 2.26  47 2.36  31 2.36
  76  0.218  0.917  0.547-  36 2.06  48 2.09   2 2.25  44 2.26  32 2.36  81 2.74
  77  0.468  0.667  0.164-  33 2.07  45 2.21  43 2.25  37 2.26  25 2.36
  78  0.468  0.667  0.493-  44 2.25  46 2.26  38 2.26  34 2.36  26 2.36
  79  0.924  0.156  0.065-   9 2.14  21 2.16  17 2.17  41 2.20   5 2.52
  80  0.218  0.917  0.329-   6 2.25  39 2.26  35 2.26  27 2.36  47 2.36
  81  0.206  0.908  0.640-  40 2.07  28 2.07  48 2.14  36 2.15  76 2.74
  82  0.053  0.914  0.109-  33 2.07   1 2.26   5 2.32  13 2.36  17 2.64
  83  0.053  0.914  0.438-  34 2.25   2 2.26   6 2.26  14 2.36  18 2.36
  84  0.303  0.664  0.273-  11 2.25  43 2.26  39 2.26  31 2.36  27 2.36
  85  0.303  0.664  0.602-  40 2.05  28 2.06  12 2.25  44 2.26  32 2.36
  86  0.968  0.667  0.382-  27 2.25  30 2.26  34 2.26  42 2.36  46 2.36
  87  0.718  0.917  0.218-  45 2.17  13 2.25  47 2.26  31 2.26  35 2.36  43 2.36
  88  0.718  0.917  0.547-  48 2.18  14 2.25  32 2.26  36 2.30  44 2.36
  89  0.968  0.667  0.164-  45 2.06  33 2.21  31 2.25  25 2.26  37 2.36
  90  0.968  0.667  0.493-  32 2.25  34 2.26  26 2.26  46 2.36  38 2.36
  91  0.512  0.972  0.021-   5 2.03  17 2.03  49 2.66  93 2.66
  92  0.718  0.917  0.329-  18 2.25  27 2.26  47 2.26  39 2.36  35 2.36
  93  0.553  0.914  0.109-  45 2.09  17 2.11   5 2.15  13 2.26   1 2.36  91 2.66
  94  0.553  0.914  0.438-  46 2.25  14 2.26  18 2.26   2 2.36   6 2.36
  95  0.803  0.664  0.273-  23 2.25  31 2.26  27 2.26  43 2.36  39 2.36
  96  0.803  0.664  0.602-  24 2.25  32 2.26  28 2.29  44 2.36  40 2.42

  LATTYP: Found a simple monoclinic cell.
 ALAT       =    13.8711386352
 B/A-ratio  =     2.1019774055
 C/A-ratio  =     1.3233367991
 COS(beta)  =    -0.9620914447

  Lattice vectors:

 A1 = (  -8.3714133957, -11.0601955134,   0.0000000000)
 A2 = (   0.0000000000,   0.0000000000, -29.1568200000)
 A3 = (  14.6499733957,  11.0601955134,   0.0000000000)

Analysis of symmetry for initial positions (statically):
 Subroutine PRICEL returns:
 Original cell was already a primitive cell.

 Routine SETGRP: Setting up the symmetry group for a
 simple monoclinic supercell.

 Subroutine GETGRP returns: Found  1 space group operations
 (whereof  1 operations were pure point group operations)
 out of a pool of  4 trial point group operations.

The static configuration has the point symmetry C_1 .

Analysis of symmetry for dynamics (positions and initial velocities):
 Subroutine PRICEL returns:
 Original cell was already a primitive cell.

 Routine SETGRP: Setting up the symmetry group for a
 simple monoclinic supercell.

 Subroutine GETGRP returns: Found  1 space group operations
 (whereof  1 operations were pure point group operations)
 out of a pool of  4 trial point group operations.

The dynamic configuration has the point symmetry C_1 .

 Subroutine INISYM returns: Found  1 space group operations
 (whereof  1 operations are pure point group operations),
 and found     1 'primitive' translations

 KPOINTS: gamma-point-only calculation. no periodi

Automatic generation of k-mesh.
Space group operators:
 irot       det(A)        alpha          n_x          n_y          n_z        tau_x        tau_y        tau_z
    1     1.000000     0.000000     1.000000     0.000000     0.000000     0.000000     0.000000     0.000000

 Subroutine IBZKPT returns following result:

 Found      1 irreducible k-points:

 Following reciprocal coordinates:
            Coordinates               Weight
  0.000000  0.000000  0.000000      1.000000

 Following cartesian coordinates:
            Coordinates               Weight
  0.000000  0.000000  0.000000      1.000000

 SYSTEM =  "Millerite NiS"
 POSCAR =  Type_048 Type_148

 Startparameter for this run:
   NWRITE =      2    write-flag & timer
   PREC   = normal    normal or accurate (medium, high low for compatibility)
   ISTART =      0    job   : 0-new  1-cont  2-samecut
   ICHARG =      2    charge: 1-file 2-atom 10-const
[...]
     0.000000000  0.000000000 29.156820000     0.000000000  0.000000000  0.034297293

  length of vectors
     6.278560000 11.256463038 29.156820000     0.162098538  0.090414315  0.034297293

 FORCES acting on ions
    electron-ion (+dipol)            ewald-force                    non-local-force                 convergence-correction
   -.214E+02 0.184E+03 0.440E+04   0.216E+02 -.183E+03 -.440E+04   -.107E+00 -.306E+00 0.269E+00   0.320E-02 -.279E-01 0.699E+00
   -.529E+02 0.260E+03 -.340E+04   0.519E+02 -.261E+03 0.340E+04   0.106E+01 0.758E+00 -.125E+01   0.804E-02 0.451E-01 -.162E+00
   -.419E+02 0.213E+03 0.354E+03   0.410E+02 -.213E+03 -.354E+03   0.975E+00 0.497E+00 -.105E+01   -.338E-02 0.105E+00 0.372E+00
   -.606E+01 0.478E+03 -.735E+04   0.614E+01 -.480E+03 0.735E+04   0.834E-01 0.659E+00 0.696E+00   -.226E-01 0.243E+00 -.524E+00
   0.422E+03 0.994E+03 0.712E+04   -.428E+03 -.998E+03 -.713E+04   0.336E+01 0.435E+01 0.539E+01   -.588E-01 -.306E-01 -.872E-01
   -.421E+02 0.253E+03 -.562E+03   0.413E+02 -.253E+03 0.561E+03   0.939E+00 0.725E+00 0.103E+01   0.180E-02 -.365E+00 0.915E-01
   -.513E+02 0.112E+03 0.325E+04   0.503E+02 -.112E+03 -.325E+04   0.112E+01 0.627E+00 0.154E+01   0.165E-02 0.163E+00 0.486E+00
   -.324E+02 0.225E+03 -.426E+04   0.313E+02 -.225E+03 0.426E+04   0.117E+01 0.676E+00 0.194E+01   -.270E-01 0.290E+00 -.609E-01
   -.383E+02 -.358E+03 0.533E+04   0.395E+02 0.359E+03 -.533E+04   -.108E+00 -.261E+01 -.229E+01   -.187E-01 0.399E+00 0.307E+00
   -.424E+02 -.533E+03 -.199E+04   0.417E+02 0.533E+03 0.199E+04   0.872E+00 -.896E+00 -.286E+00   0.215E-02 -.111E-01 0.284E+00
   -.399E+02 -.522E+03 0.189E+04   0.393E+02 0.522E+03 -.189E+04   0.826E+00 -.134E+01 0.350E-01   -.150E-01 0.455E+00 0.478E+00
   -.420E+02 -.713E+03 -.594E+04   0.420E+02 0.717E+03 0.594E+04   0.293E-01 -.388E+01 -.489E+00   0.146E-01 -.502E+00 -.384E+00
   -.151E+03 0.251E+03 0.444E+04   0.152E+03 -.250E+03 -.444E+04   -.535E+00 -.337E+00 -.223E+00   -.127E-01 0.430E-02 0.598E+00
   -.256E+02 0.268E+03 -.343E+04   0.246E+02 -.268E+03 0.343E+04   0.104E+01 0.865E+00 -.193E+01   -.112E-01 0.407E-01 -.161E+00
   -.407E+02 0.213E+03 0.354E+03   0.398E+02 -.213E+03 -.353E+03   0.966E+00 0.483E+00 -.110E+01   -.810E-02 0.106E+00 0.369E+00
   -.194E+02 0.527E+03 -.734E+04   0.193E+02 -.528E+03 0.734E+04   0.276E-01 0.107E+00 0.604E+00   0.215E-01 0.160E+00 -.489E+00
   -.415E+03 0.952E+03 0.713E+04   0.419E+03 -.956E+03 -.714E+04   -.243E+01 0.442E+01 0.519E+01   0.155E+00 0.555E-01 -.517E-01
   -.405E+02 0.253E+03 -.564E+03   0.395E+02 -.253E+03 0.563E+03   0.101E+01 0.682E+00 0.103E+01   0.975E-03 -.360E+00 0.421E-01
   -.290E+02 0.109E+03 0.325E+04   0.281E+02 -.110E+03 -.325E+04   0.966E+00 0.840E+00 0.151E+01   -.146E-01 0.168E+00 0.464E+00
   -.445E+02 0.262E+03 -.427E+04   0.436E+02 -.263E+03 0.427E+04   0.102E+01 0.804E+00 0.184E+01   -.394E-02 0.220E+00 -.408E-01
   0.336E+02 -.454E+03 0.515E+04   -.343E+02 0.456E+03 -.515E+04   0.481E+00 -.421E+01 -.134E+01   -.281E-01 0.339E+00 0.335E+00
   -.398E+02 -.531E+03 -.199E+04   0.390E+02 0.532E+03 0.199E+04   0.945E+00 -.896E+00 -.135E+00   0.130E-01 0.308E-01 0.248E+00
   -.425E+02 -.521E+03 0.189E+04   0.418E+02 0.522E+03 -.189E+04   0.873E+00 -.129E+01 0.391E-01   -.498E-02 0.441E+00 0.488E+00
   -.157E+02 -.757E+03 -.595E+04   0.155E+02 0.762E+03 0.595E+04   0.272E+00 -.483E+01 -.688E+00   -.222E-01 -.409E+00 -.400E+00
   -.338E+02 -.388E+03 0.513E+04   0.319E+02 0.387E+03 -.513E+04   0.193E+01 0.151E+01 -.189E+01   0.122E-01 0.431E-01 0.498E+00
   -.400E+02 0.246E+03 -.346E+04   0.392E+02 -.247E+03 0.346E+04   0.967E+00 0.497E+00 -.887E+00   -.192E-02 -.636E-01 -.202E-01
   -.412E+02 0.311E+03 0.295E+03   0.404E+02 -.311E+03 -.295E+03   0.965E+00 0.660E+00 -.709E+00   -.186E-02 -.707E-01 0.394E+00
   0.416E+03 0.194E+03 -.736E+04   -.418E+03 -.193E+03 0.735E+04   0.955E+00 -.103E+01 0.285E+01   -.748E-01 -.254E+00 -.174E+00
   -.322E+02 -.116E+04 0.672E+04   0.314E+02 0.116E+04 -.672E+04   0.425E+00 -.501E+01 0.736E+01   0.341E-01 0.251E+00 0.137E+00
   -.412E+02 0.262E+03 -.548E+03   0.403E+02 -.263E+03 0.547E+03   0.962E+00 0.483E+00 0.105E+01   0.126E-01 0.252E+00 0.250E-01
   0.983E+01 0.553E+03 0.302E+04   -.102E+02 -.555E+03 -.302E+04   0.977E-01 0.240E+01 0.613E+00   -.392E-01 -.241E+00 0.952E+00
   0.115E+03 0.298E+03 -.440E+04   -.117E+03 -.298E+03 0.440E+04   0.207E+01 0.463E+00 -.607E-01   -.625E-01 -.246E+00 -.540E+00
   -.292E+01 0.611E+03 0.560E+04   0.124E+01 -.611E+03 -.561E+04   0.155E+01 -.133E+00 0.369E+01   -.120E-01 -.423E+00 0.664E+00
   -.397E+02 -.498E+03 -.201E+04   0.390E+02 0.498E+03 0.201E+04   0.908E+00 -.121E+01 -.513E-02   0.211E-01 0.129E-01 -.232E+00
   -.382E+02 -.568E+03 0.168E+04   0.378E+02 0.569E+03 -.168E+04   0.543E+00 -.127E+01 -.471E+00   -.492E-03 -.367E+00 0.760E+00
   -.379E+03 -.463E+03 -.599E+04   0.383E+03 0.464E+03 0.599E+04   -.266E+01 -.113E+01 -.186E+01   -.173E-01 0.440E+00 -.426E+00
   -.390E+02 -.398E+03 0.515E+04   0.375E+02 0.397E+03 -.515E+04   0.160E+01 0.123E+01 -.137E+01   -.267E-01 0.705E-01 0.532E+00
   -.426E+02 0.241E+03 -.347E+04   0.417E+02 -.242E+03 0.347E+04   0.987E+00 0.400E+00 -.995E+00   0.627E-03 -.706E-01 -.183E-01
   -.408E+02 0.311E+03 0.294E+03   0.399E+02 -.311E+03 -.294E+03   0.968E+00 0.661E+00 -.743E+00   -.278E-03 -.475E-01 0.373E+00
   -.452E+03 0.197E+03 -.737E+04   0.453E+03 -.196E+03 0.737E+04   0.359E+00 -.145E+01 0.401E+01   0.486E-01 -.218E+00 -.188E+00
   -.140E+01 -.109E+04 0.679E+04   -.160E+00 0.109E+04 -.679E+04   0.108E+01 -.296E+01 0.685E+01   -.493E-01 0.156E+00 0.120E+00
   -.414E+02 0.262E+03 -.549E+03   0.405E+02 -.262E+03 0.548E+03   0.987E+00 0.471E+00 0.104E+01   -.113E-02 0.250E+00 0.472E-01
   0.193E+02 0.554E+03 0.301E+04   -.197E+02 -.556E+03 -.301E+04   0.826E-01 0.236E+01 0.621E+00   0.122E-01 -.203E+00 0.969E+00
   -.188E+03 0.306E+03 -.440E+04   0.188E+03 -.306E+03 0.440E+04   0.524E+00 0.430E+00 0.672E-01   0.423E-01 -.213E+00 -.567E+00
   -.287E+02 0.619E+03 0.558E+04   0.275E+02 -.620E+03 -.558E+04   0.866E+00 0.165E+01 0.135E+01   -.906E-03 -.354E+00 0.666E+00
   -.426E+02 -.500E+03 -.202E+04   0.419E+02 0.501E+03 0.202E+04   0.906E+00 -.114E+01 0.476E-01   -.224E-02 -.330E-01 -.226E+00
   -.405E+02 -.567E+03 0.168E+04   0.402E+02 0.568E+03 -.168E+04   0.517E+00 -.123E+01 -.583E+00   -.142E-01 -.343E+00 0.754E+00
   0.305E+03 -.447E+03 -.593E+04   -.311E+03 0.448E+03 0.594E+04   0.380E+01 -.162E+01 -.257E+01   0.236E-02 0.437E+00 -.391E+00
   -.787E+01 -.270E+02 0.268E+04   0.771E+01 0.288E+02 -.269E+04   0.141E+00 -.158E+01 0.421E+01   0.526E-01 0.149E+00 0.205E-01
   0.396E+02 -.909E+02 -.129E+03   -.403E+02 0.920E+02 0.126E+03   0.521E+00 -.131E+01 0.267E+01   -.481E-02 -.765E-01 0.922E-01
   0.398E+02 -.143E+03 0.137E+04   -.404E+02 0.145E+03 -.137E+04   0.526E+00 -.154E+01 0.258E+01   0.685E-02 0.131E+00 0.173E+00
   0.397E+02 -.110E+03 -.155E+04   -.408E+02 0.112E+03 0.154E+04   0.108E+01 -.131E+01 0.259E+01   -.272E-01 -.109E+00 0.241E-01
   0.910E+02 -.108E+03 0.144E+04   -.922E+02 0.109E+03 -.144E+04   0.582E+00 -.173E+01 -.139E+01   0.358E-01 0.129E+00 0.196E+00
   0.359E+02 -.892E+02 -.137E+04   -.366E+02 0.900E+02 0.137E+04   0.503E+00 -.121E+01 -.304E+01   -.203E-01 0.628E-01 0.756E-01
   0.496E+01 -.277E+03 0.276E+04   -.450E+01 0.278E+03 -.276E+04   -.593E+00 0.559E-01 0.163E+01   0.343E-01 0.675E-01 -.704E-01
   0.397E+02 -.874E+02 0.612E+02   -.404E+02 0.884E+02 -.591E+02   0.606E+00 -.147E+01 -.266E+01   -.109E-02 0.185E+00 0.153E+00
   0.153E+01 -.201E+03 -.281E+04   -.184E+01 0.205E+03 0.282E+04   0.384E+00 -.231E+01 -.428E+01   -.224E-01 -.940E-01 -.195E+00
   0.166E+02 -.489E+03 0.208E+04   -.168E+02 0.491E+03 -.208E+04   0.357E+00 -.131E+00 0.123E+01   0.553E-01 0.971E-01 0.144E+00
   0.397E+02 0.162E+03 -.749E+03   -.406E+02 -.164E+03 0.749E+03   0.748E+00 0.281E+01 0.148E+00   -.204E-01 0.707E-01 0.104E-01
   0.398E+02 0.135E+03 0.664E+03   -.407E+02 -.137E+03 -.664E+03   0.716E+00 0.246E+01 -.161E+00   -.359E-02 -.103E+00 0.178E+00
[...]
   0.409E+02 0.172E+03 -.749E+03   -.419E+02 -.174E+03 0.749E+03   0.806E+00 0.282E+01 0.378E+00   0.168E-01 -.599E-01 -.603E-01
   0.389E+02 0.222E+03 0.674E+03   -.397E+02 -.224E+03 -.674E+03   0.772E+00 0.270E+01 0.817E-01   0.144E-01 0.551E-01 0.271E+00
   0.184E+02 0.271E+03 -.219E+04   -.197E+02 -.273E+03 0.219E+04   0.148E+01 0.130E+01 -.219E+01   -.752E-02 -.212E+00 -.179E+00
   0.398E+02 -.753E+02 -.131E+03   -.406E+02 0.764E+02 0.129E+03   0.617E+00 -.133E+01 0.276E+01   -.310E-02 0.322E-01 -.869E-02
   0.168E+02 -.179E+03 0.118E+04   -.168E+02 0.183E+03 -.118E+04   -.152E+00 -.272E+01 0.892E+00   -.221E-01 -.101E+00 0.371E+00
   0.508E+02 -.458E+02 -.163E+04   -.524E+02 0.474E+02 0.163E+04   0.145E+01 -.136E+01 0.218E+01   -.227E-01 0.387E-01 -.188E+00
   0.254E+01 0.221E+03 0.202E+04   -.354E+01 -.222E+03 -.203E+04   0.223E+01 -.856E+00 0.260E+01   0.625E-02 -.104E+00 0.229E+00
   0.447E+02 -.792E+02 -.138E+04   -.454E+02 0.805E+02 0.139E+04   0.582E+00 -.142E+01 -.264E+01   -.155E-01 -.264E-01 -.112E+00
   -.107E+01 0.442E+03 0.278E+04   0.115E+01 -.444E+03 -.279E+04   -.630E-01 0.392E+00 0.196E+01   0.287E-01 -.700E-01 -.169E+00
   0.395E+02 -.826E+02 0.275E+02   -.404E+02 0.842E+02 -.259E+02   0.890E+00 -.170E+01 -.210E+01   -.197E-01 -.159E+00 0.122E+00
   0.268E+02 0.560E+03 0.242E+04   -.283E+02 -.566E+03 -.242E+04   0.621E+00 0.612E+01 0.137E+01   0.405E-01 -.152E+00 0.982E-01
   0.380E+02 0.172E+03 -.752E+03   -.388E+02 -.174E+03 0.752E+03   0.702E+00 0.287E+01 0.294E+00   -.181E-01 -.600E-01 -.595E-01
   0.385E+02 0.222E+03 0.673E+03   -.394E+02 -.224E+03 -.673E+03   0.793E+00 0.277E+01 -.851E-02   -.115E-01 0.602E-01 0.271E+00
   0.516E+02 0.119E+03 -.230E+04   -.526E+02 -.121E+03 0.231E+04   0.101E+01 0.303E+01 0.631E+00   0.246E-02 -.221E+00 -.153E+00
   -.667E+02 0.110E+02 -.472E+02   0.313E-12 0.966E-12 0.182E-11   0.669E+02 -.113E+02 0.380E+02   -.170E+00 0.443E+00 0.930E+01

 POSITION                                       TOTAL-FORCE (eV/Angst)
      1.64370      0.18204      4.44331         0.078001      0.640895      0.297060
      1.64370      0.18204     14.02172         0.118335      0.001104     -0.525840
      0.59727      2.94708      9.23251         0.078544      0.170100     -0.370729
      0.63066      2.89892     18.60748         0.133042     -0.676558     -0.251890
      1.83982      0.18333      2.05707        -2.480954      0.737575      0.965416
      1.64370      0.18204     11.49105         0.081762      0.203388      0.310356
      0.59727      2.94708      6.70184         0.128740      0.101948      0.529781
      0.59727      2.94708     16.28025         0.131629      0.381887     -0.958059
      1.38804      2.45212      3.20965         1.090421     -1.066671      1.672667
      1.64370      2.37366     12.75638         0.213809     -0.326267     -0.071986
      3.73655      5.13871      7.96718         0.127939     -0.417320      0.059297
      3.73655      5.13871     17.54559         0.040876      0.076706     -2.234174
      4.78298      0.18204      4.44331         0.326004      0.584047      0.042084
      4.78298      0.18204     14.02172         0.063924      0.113455     -0.582809
      3.73655      2.94708      9.23251         0.083698      0.167721     -0.372986
      3.78370      2.89922     18.60719        -0.068067     -0.795750     -0.270205
      4.45895      0.35349      1.99912         2.378278      0.587223      0.840603
      4.78298      0.18204     11.49105         0.069624      0.182622      0.321367
      3.73655      2.94708      6.70184         0.082753      0.078523      0.499908
      3.73655      2.94708     16.28025         0.086362      0.330247     -0.969951
      4.71869      2.46060      3.36623        -0.251044     -1.478492      1.011329
      4.78298      2.37366     12.75638         0.215199     -0.344529     -0.069196
      6.87583      5.13871      7.96718         0.134420     -0.431513      0.083059
      6.87583      5.13871     17.54559         0.041355     -0.057538     -2.197864
      2.69013      5.71213      4.44331         0.043812      0.304335      0.718832
      2.69013      5.71213     14.02172         0.133345      0.128906     -0.403460
      1.64370      8.47718      9.23251         0.120669      0.134555     -0.296221
      1.87751      8.44616     18.57314        -1.298037     -0.489114      0.393046
      2.80552      4.07843      1.85017        -0.403594      0.665291      0.473006
      2.69013      5.71213     11.49105         0.093505      0.155585      0.337336
      1.64370      8.47718      6.70184        -0.342673     -0.422958      1.383141
      1.64370      8.47718     16.28025        -0.071053     -0.025780     -1.374615
      2.85854      8.82321      4.67790        -0.133327     -0.276066     -0.101389
      2.69013      7.90376     12.75638         0.186563     -0.368949     -0.002164
      4.78298     10.66881      7.96718         0.151680     -0.295658      0.101324
      4.69312     10.75256     17.30481         1.190913     -0.197092      0.116066
      5.82941      5.71213      4.44331         0.018732      0.295549      0.586503
      5.82941      5.71213     14.02172         0.109120      0.103242     -0.361561
      4.78298      8.47718      9.23251         0.103740      0.136598     -0.284014
      4.59250      8.52364     18.59793         1.408352     -0.546484      0.361823
      5.95660      3.91865      1.85337        -0.533492      0.072090      0.542583
      5.82941      5.71213     11.49105         0.096642      0.168936      0.338358
      4.78298      8.47718      6.70184        -0.375741     -0.429991      1.355246
      4.78298      8.47718     16.28025         0.123124     -0.012326     -1.215354
      6.00872      8.81592      4.68847        -0.326445      0.122226     -0.205671
      5.82941      7.90376     12.75638         0.192921     -0.326753     -0.024606
      7.92226     10.66881      7.96718         0.180215     -0.287613      0.111756
      8.06147     10.77063     17.23668        -1.460159     -0.154405      0.260525
      3.05419      1.96242      1.97494         0.029661      0.434689     -1.206852
      3.28961      1.84282     11.14515        -0.118162     -0.268874      0.446021
      2.24318      4.60787      6.35595        -0.085082     -0.058917     -0.004640
      2.24318      4.60787     15.93436        -0.080673     -0.094953     -0.164734
      3.28961      1.84282      4.78920        -0.645262     -0.662290      1.103553
      3.28961      1.84282     14.36761        -0.162775     -0.360146     -0.392053
      1.24211      3.99278      0.55908        -0.099660      0.507023     -3.991309
      2.24318      4.60787      9.57841        -0.128741     -0.276174     -0.440739
      2.18485      4.32115     18.72396         0.050612      1.442364      3.953349
      1.19676      4.58218      3.17797         0.234551      1.723187      1.763062
      1.19676      4.58218     12.75638        -0.152261      0.539307      0.001827
      2.24318      1.81714      7.96718        -0.162771      0.430670     -0.070309
[...]
      2.24318     10.11228      3.17797        -0.567330      0.759025     -1.173104
      2.24318     10.11228     12.75638        -0.121500      0.579649      0.125320
      3.28961      7.34723      7.96718        -0.097443      0.575484      0.078377
      3.28961      7.34723     17.54559         0.158335     -1.135435     -0.235079
      7.47532      7.37292     11.14515        -0.148567     -0.261091      0.400212
      6.42889     10.13797      6.35595        -0.239502      0.498368      0.643290
      6.42889     10.13797     15.93436        -0.137128      0.279287      0.630446
      7.47532      7.37292      4.78920         1.234850     -1.563701     -0.451763
      7.47532      7.37292     14.36761        -0.111318     -0.133851     -0.313261
      5.24739     10.74842      0.59818         0.041197     -1.955113     -3.960707
      6.42889     10.13797      9.57841        -0.006122     -0.278300     -0.386503
      5.38246     10.11228      3.17797        -0.772971     -0.400243      0.460561
      5.38246     10.11228     12.75638        -0.158670      0.598285      0.010918
      6.42889      7.34723      7.96718        -0.112054      0.567708      0.046944
      6.42889      7.34723     17.54559         0.045959      1.398760      1.351657
    total drift:                               -0.008636      0.145172      0.132877

  FREE ENERGIE OF THE ION-ELECTRON SYSTEM (eV)
  free  energy   TOTEN  =      -477.28701514 eV

  energy  without entropy=     -476.01150008  energy(sigma->0) =     -476.64925761