 vasp.5.4.4.18Apr17-6-g9f103f2a35 (build Aug 13 2019 17:33:20) gamma-only

 executed on             LinuxIFC date 2020.05.11  02:30:32

 INCAR:
 POTCAR:    PAW_PBE Ni_pv 06Sep2000
 POTCAR:    PAW_PBE S 06Sep2000
 POTCAR:    PAW_PBE Ni_pv 06Sep2000
   VRHFIN =Ni:

   TITEL  = PAW_PBE Ni_pv 06Sep2000
   POMASS =   58.690; ZVAL   =   16.000    mass and valenz
   ENMAX  =  367.986; ENMIN  =  275.989 eV

 POTCAR:    PAW_PBE S 06Sep2000
   VRHFIN =S : s2p4

   TITEL  = PAW_PBE S 06Sep2000
   POMASS =   32.066; ZVAL   =    6.000    mass and valenz
   ENMAX  =  258.689; ENMIN  =  194.016 eV

 Optimization of the real space projectors (new method)

 maximal supplied QI-value         = 18.90
 optimisation between [QCUT,QGAM] = [ 10.77, 21.73] = [ 32.49,132.25] Ry
 Optimized for a Real-space Cutoff    1.38 Angstroem

   l    n(q)    QCUT    max X(q) W(low)/X(q) W(high)/X(q)  e(spline)
   1      8    10.771     2.836    0.40E-04    0.29E-04    0.12E-06
   1      8    10.771     4.023    0.10E-03    0.48E-04    0.29E-06
   2      8    10.771    73.368    0.42E-03    0.97E-04    0.44E-06
   2      8    10.771    69.010    0.42E-03    0.99E-04    0.45E-06
   0      9    10.771    54.797    0.10E-03    0.56E-04    0.74E-07
   0      9    10.771    24.266    0.89E-04    0.49E-04    0.67E-07
 Optimization of the real space projectors (new method)

 maximal supplied QI-value         = 19.84
 optimisation between [QCUT,QGAM] = [ 10.71, 21.63] = [ 32.15,130.99] Ry
 Optimized for a Real-space Cutoff    1.19 Angstroem

   l    n(q)    QCUT    max X(q) W(low)/X(q) W(high)/X(q)  e(spline)
   0      8    10.715   187.594    0.41E-03    0.53E-04    0.66E-07
   0      8    10.715   164.243    0.41E-03    0.53E-04    0.65E-07
   1      7    10.715    67.533    0.19E-03    0.59E-03    0.68E-07
   1      7    10.715    50.729    0.19E-03    0.58E-03    0.67E-07
  PAW_PBE Ni_pv 06Sep2000               :
  PAW_PBE S 06Sep2000                   :

 POSCAR: Type_052 Type_152
  positions in cartesian coordinates
 exchange correlation table for  LEXCH =        8
   RHO(1)=    0.500       N(1)  =     2000
   RHO(2)=  100.500       N(2)  =     4000

 ion  position               nearest neighbor table
   1  0.261  0.479  0.291-  79 2.25  63 2.26  87 2.26  59 2.36  64 2.36   7 2.53  23 2.53
   2  0.355  0.385  0.419-  71 2.05  65 2.13  80 2.25  59 2.26  64 2.26   8 2.53  24 2.53
   3  0.167  0.073  0.162-  88 2.07  60 2.16  69 2.25  61 2.36  89 2.36  39 2.53  33 2.53
   4  0.026  0.068  0.490-  83 2.00  54 2.05  78 2.07  84 2.13
   5  0.214  0.523  0.044-  55 2.01  62 2.03  86 2.07  30 2.41  40 2.43
   6  0.274  0.333  0.128-  60 2.15  62 2.26  55 2.26  56 2.36  63 2.36  12 2.53  31 2.53
   7  0.368  0.239  0.257-  61 2.25  63 2.26  56 2.26  64 2.36  66 2.36   1 2.53  23 2.53
   8  0.462  0.145  0.385-  65 2.11  85 2.25  64 2.26  66 2.26  67 2.36  18 2.52   2 2.53  24 2.53

   9  0.000  0.372  0.257-  63 2.25  69 2.26 100 2.26  53 2.36  72 2.36  14 2.53  21 2.53
  10  0.094  0.278  0.385-  58 2.06  64 2.25  53 2.26  72 2.26  54 2.36  22 2.53  15 2.53
  11  0.188  0.202  0.491-  83 2.00  54 2.04  58 2.07  65 2.11
  12  0.406  0.465  0.128-  75 2.25  55 2.26  86 2.26  40 2.32  56 2.36  87 2.36  31 2.53   6 2.53

[...]

  51  0.706  0.671  0.475-  70 2.01  93 2.07 104 2.07  97 2.15  50 2.44
  52  0.906  0.965  0.128-  88 2.10  94 2.26  73 2.26  95 2.36  74 2.36  17 2.53  46 2.53
  53  0.073  0.167  0.306-  28 2.25  10 2.26  22 2.26   9 2.36  21 2.36
  54  0.167  0.073  0.435-  11 2.04   4 2.05  29 2.25  10 2.36  22 2.36
  55  0.385  0.355  0.050-  16 1.98   5 2.01  12 2.26   6 2.26  40 2.39
  56  0.479  0.261  0.178-  16 2.12  17 2.25   7 2.26  23 2.26   6 2.36  12 2.36
  57  0.102  0.641  0.551-  32 2.00  38 2.00  80 2.78
  58  0.036  0.380  0.463-  10 2.06  11 2.07  32 2.11  15 2.25  70 2.57
  59  0.436  0.472  0.350-  35 2.25   2 2.26  24 2.26   1 2.36  23 2.36
  60  0.260  0.156  0.104-  13 2.10  39 2.12   6 2.15   3 2.16
  61  0.342  0.066  0.221-   7 2.25  28 2.26  49 2.26   3 2.36  39 2.36
  62  0.080  0.491  0.093-   5 2.03  30 2.18  26 2.25   6 2.26  31 2.26
  63  0.174  0.397  0.221-   9 2.25   7 2.26   1 2.26   6 2.36  31 2.36
  64  0.268  0.303  0.350-  10 2.25   2 2.26   8 2.26   1 2.36   7 2.36
  65  0.360  0.217  0.464-  18 2.09   8 2.11  11 2.11   2 2.13
  66  0.573  0.167  0.306-  41 2.25  24 2.26   8 2.26  23 2.36   7 2.36
  67  0.667  0.073  0.435-  25 2.03  18 2.07  42 2.25  24 2.36   8 2.36  96 2.71
  68  0.887  0.353  0.062-  19 2.03  26 2.04  20 2.04
  69  0.979  0.261  0.178-   3 2.25  21 2.26   9 2.26  20 2.36  26 2.36
  70  0.797  0.481  0.501-  51 2.01  15 2.12  93 2.52  58 2.57
  71  0.519  0.373  0.463-  25 2.04   2 2.05  24 2.06
  72  0.936  0.472  0.350-  48 2.25  15 2.26  10 2.26  14 2.36   9 2.36
  73  0.748  0.160  0.093-  27 2.05  20 2.25  17 2.26  52 2.26  16 2.27
  74  0.842  0.066  0.221-  21 2.25  41 2.26  36 2.26  17 2.36  52 2.36
  75  0.580  0.491  0.093-  19 2.06  40 2.11  43 2.11  12 2.25  20 2.26  44 2.26
  76  0.674  0.397  0.221-  23 2.25  21 2.26  14 2.26  20 2.36  44 2.36
  77  0.768  0.303  0.350-  24 2.25  15 2.26  22 2.26  14 2.36  21 2.36  78 2.75
  78  0.847  0.218  0.462-   4 2.07  22 2.12  25 2.13  15 2.16  77 2.75
  79  0.073  0.667  0.306-   1 2.25  37 2.26  48 2.26  36 2.36  47 2.36
  80  0.167  0.573  0.435-  38 2.05  32 2.06   2 2.25  37 2.36  48 2.36  57 2.78
  81  0.394  0.889  0.046-  39 2.09  45 2.12  43 2.13  13 2.15  33 2.55
  82  0.479  0.761  0.178-  43 2.14  44 2.25  34 2.26  49 2.26  33 2.36  39 2.36
  83  0.104  0.137  0.552-   4 2.00  11 2.00
  84  0.018  0.892  0.463-  38 2.07  42 2.12   4 2.13  37 2.14  98 2.76
  85  0.436  0.972  0.350-   8 2.25  29 2.26  50 2.26  28 2.36  49 2.36
  86  0.248  0.660  0.093-   5 2.07  40 2.15  33 2.25  31 2.26  12 2.26  30 2.31
  87  0.342  0.566  0.221-  34 2.25   1 2.26  23 2.26  31 2.36  12 2.36
  88  0.083  0.979  0.111-   3 2.07  33 2.07  52 2.10  89 2.72
  89  0.174  0.897  0.221-  36 2.25  34 2.26  28 2.26  33 2.36   3 2.36  88 2.72
  90  0.268  0.803  0.350-  37 2.25  29 2.26  35 2.26  28 2.36  34 2.36  91 2.69
  91  0.347  0.724  0.460-  29 2.08  35 2.09  38 2.09  90 2.69
  92  0.573  0.667  0.306-  14 2.25  50 2.26  35 2.26  49 2.36  34 2.36  93 2.60
  93  0.663  0.571  0.409-  51 2.07  35 2.10  50 2.17  15 2.25  70 2.52  92 2.60
  94  0.885  0.855  0.050-  30 1.98  27 1.99  52 2.26  46 2.26
  95  0.979  0.761  0.178-  30 2.10  31 2.25  47 2.26  36 2.26  46 2.36  52 2.36
  96  0.596  0.121  0.548-  25 2.01  18 2.01  67 2.71
  97  0.530  0.857  0.468-  50 2.08  18 2.13  51 2.15  29 2.16
  98  0.936  0.972  0.350-  22 2.25  42 2.26  37 2.26  41 2.36  36 2.36  84 2.76
  99  0.744  0.668  0.103-  19 2.07  46 2.12  44 2.14  45 2.15  26 2.27
 100  0.842  0.566  0.221-  47 2.25  14 2.26   9 2.26  44 2.36  26 2.36
 101  0.580  0.991  0.093-  45 2.06  27 2.06  13 2.09  16 2.20  39 2.25  46 2.26  17 2.26
 102  0.674  0.897  0.221-  49 2.25  47 2.26  41 2.26  46 2.36  17 2.36
 103  0.768  0.803  0.350-  50 2.25  42 2.26  48 2.26  41 2.36  47 2.36
 104  0.860  0.724  0.465-  32 2.06  51 2.07  42 2.08  48 2.13

  LATTYP: Found a base centered orthorhombic cell.
 ALAT       =    11.8257374459
 B/A-ratio  =     1.6199260857
 C/A-ratio  =     1.9350716598

  Lattice vectors:

 A1 = (  11.2564630382,   0.0000000000,   0.0000000000)
 A2 = (  -5.0445621212, -10.0628203371,   0.0000000000)
 A3 = (   0.0000000000,   0.0000000000, -22.8836493875)

Analysis of symmetry for initial positions (statically):
 Subroutine PRICEL returns:
 Original cell was already a primitive cell.

 Routine SETGRP: Setting up the symmetry group for a
 base centered orthorhombic supercell.

 Subroutine GETGRP returns: Found  1 space group operations
 (whereof  1 operations were pure point group operations)
 out of a pool of  8 trial point group operations.

The static configuration has the point symmetry C_1 .

Analysis of symmetry for dynamics (positions and initial velocities):
 Subroutine PRICEL returns:
 Original cell was already a primitive cell.

 Routine SETGRP: Setting up the symmetry group for a
 base centered orthorhombic supercell.

 Subroutine GETGRP returns: Found  1 space group operations
 (whereof  1 operations were pure point group operations)
 out of a pool of  8 trial point group operations.

The dynamic configuration has the point symmetry C_1 .

 Subroutine INISYM returns: Found  1 space group operations
 (whereof  1 operations are pure point group operations),
 and found     1 'primitive' translations

 KPOINTS: gamma-point-only calculation. no periodi

Automatic generation of k-mesh.
Space group operators:
 irot       det(A)        alpha          n_x          n_y          n_z        tau_x        tau_y        tau_z
    1     1.000000     0.000001     1.000000     0.000000     0.000000     0.000000     0.000000     0.000000

 Subroutine IBZKPT returns following result:

 Found      1 irreducible k-points:

 Following reciprocal coordinates:
            Coordinates               Weight
  0.000000  0.000000  0.000000      1.000000

 Following cartesian coordinates:
            Coordinates               Weight
  0.000000  0.000000  0.000000      1.000000

 SYSTEM =  "Millerite NiS"
 POSCAR =  Type_052 Type_152

 Startparameter for this run:
   NWRITE =      2    write-flag & timer
   PREC   = normal    normal or accurate (medium, high low for compatibility)
   ISTART =      0    job   : 0-new  1-cont  2-samecut
   ICHARG =      2    charge: 1-file 2-atom 10-const
   ISPIN  =      1    spin polarized calculation?
   LNONCOLLINEAR =      F non collinear calculations
   LSORBIT =      F    spin-orbit coupling
   INIWAV =      1    electr: 0-lowe 1-rand  2-diag
   LASPH  =      F    aspherical Exc in radial PAW
   METAGGA=      F    non-selfconsistent MetaGGA calc.

 Electronic Relaxation 1
   ENCUT  =  450.0 eV  33.07 Ry    5.75 a.u.  19.47 19.47 39.58*2*pi/ulx,y,z
   ENINI  =  450.0     initial cutoff
   ENAUG  =  703.4 eV  augmentation charge cutoff
   NELM   =    100;   NELMIN=  2; NELMDL= -5     # of ELM steps
   EDIFF  = 0.1E-03   stopping-criterion for ELM
   LREAL  =      T    real-space projection
   NLSPLINE    = F    spline interpolate recip. space projectors
   LCOMPAT=      F    compatible to vasp.4.4
   GGA_COMPAT  = T    GGA compatible to vasp.4.4-vasp.4.6
   LMAXPAW     = -100 max onsite density
   LMAXMIX     =    2 max onsite mixed and CHGCAR
   VOSKOWN=      0    Vosko Wilk Nusair interpolation
   ROPT   =   -0.00050  -0.00050
 Ionic relaxation
   EDIFFG = 0.1E-02   stopping-criterion for IOM
   NSW    =      0    number of steps for IOM
   NBLOCK =      1;   KBLOCK =      1    inner block; outer block
   IBRION =     -1    ionic relax: 0-MD 1-quasi-New 2-CG
   NFREE  =      0    steps in history (QN), initial steepest desc. (CG)
   ISIF   =      2    stress and relaxation
   IWAVPR =     10    prediction:  0-non 1-charg 2-wave 3-comb
   ISYM   =      2    0-nonsym 1-usesym 2-fastsym
   LCORR  =      T    Harris-Foulkes like correction to forces

   POTIM  = 0.5000    time-step for ionic-motion
   TEIN   =    0.0    initial temperature
   TEBEG  =    0.0;   TEEND  =   0.0 temperature during run
[...]
     0.000000000  0.000000000 22.883649388     0.000000000  0.000000000  0.043699324

  length of vectors
    11.256463038 11.256463038 22.883649388     0.099375718  0.099375718  0.043699324

 FORCES acting on ions
    electron-ion (+dipol)            ewald-force                    non-local-force                 convergence-correction
   0.241E+03 -.393E+03 -.891E+03   -.242E+03 0.394E+03 0.890E+03   0.845E+00 -.113E+01 0.631E+00   0.113E-02 0.276E-02 0.342E-01
   0.113E+03 -.547E+03 -.418E+04   -.115E+03 0.550E+03 0.418E+04   0.760E+00 -.245E+01 -.189E+01   0.115E-01 -.999E-02 0.147E-01
   0.497E+03 -.611E+03 0.281E+04   -.498E+03 0.614E+03 -.281E+04   0.151E+01 -.228E+01 0.217E+01   -.478E-02 0.682E-02 0.276E-01
   0.214E+03 0.331E+03 -.567E+04   -.216E+03 -.333E+03 0.567E+04   0.537E+00 0.138E+01 -.427E+01   -.609E-02 0.395E-02 -.192E-02
   0.647E+03 0.105E+02 0.638E+04   -.649E+03 -.921E+01 -.639E+04   0.163E+01 -.102E+01 0.566E+01   -.537E-02 -.985E-03 -.593E-02
   0.831E+03 0.439E+03 0.351E+04   -.835E+03 -.441E+03 -.351E+04   0.396E+01 0.244E+01 -.127E+01   0.236E-02 0.579E-02 0.147E-01
   0.323E+03 0.428E+03 0.180E+03   -.325E+03 -.428E+03 -.180E+03   0.141E+01 0.672E+00 0.117E+00   0.349E-02 -.372E-02 0.358E-01
   0.207E+03 0.359E+03 -.268E+04   -.208E+03 -.362E+03 0.268E+04   0.161E+01 0.258E+01 0.172E+01   0.126E-01 0.118E-01 0.214E-01
   -.496E+03 0.671E+02 0.371E+03   0.497E+03 -.663E+02 -.373E+03   -.102E+01 -.735E+00 0.124E+01   -.153E-01 0.174E-02 0.346E-01
   -.464E+03 0.170E+02 -.263E+04   0.467E+03 -.178E+02 0.263E+04   -.220E+01 0.244E+00 0.286E+01   -.270E-02 0.331E-02 0.153E-01
   -.404E+03 0.118E+02 -.565E+04   0.409E+03 -.121E+02 0.566E+04   -.235E+01 0.125E+01 -.381E+01   0.593E-02 0.640E-02 -.326E-02
   -.443E+03 0.603E+02 0.305E+04   0.444E+03 -.599E+02 -.305E+04   -.802E+00 -.928E+00 -.259E+01   0.914E-03 0.696E-03 0.232E-01
   0.621E+03 -.608E+03 0.631E+04   -.625E+03 0.610E+03 -.631E+04   0.355E+01 -.185E+01 -.861E+00   -.158E-02 0.271E-02 -.132E-01
   0.240E+03 -.318E+03 -.807E+03   -.240E+03 0.319E+03 0.806E+03   0.548E+00 -.762E+00 0.115E+01   -.580E-02 -.879E-02 0.296E-01
   0.393E+03 -.337E+03 -.403E+04   -.393E+03 0.336E+03 0.403E+04   0.213E+00 0.364E+00 -.153E+00   -.837E-02 -.407E-02 0.453E-02
   -.181E+03 -.359E+03 0.485E+04   0.184E+03 0.359E+03 -.485E+04   -.293E+01 -.155E+00 0.378E+01   -.919E-02 0.145E-01 0.125E-01
   -.138E+03 -.272E+03 0.192E+04   0.140E+03 0.272E+03 -.191E+04   -.149E+01 -.334E+00 -.441E+01   0.544E-03 0.112E-03 0.413E-01
   0.202E+03 0.396E+03 -.559E+04   -.204E+03 -.402E+03 0.559E+04   0.136E+01 0.507E+01 -.219E+01   0.941E-02 0.162E-01 -.198E-02
   -.392E+03 0.454E+03 0.634E+04   0.395E+03 -.457E+03 -.635E+04   -.259E+01 0.361E+01 0.575E+01   -.394E-03 0.276E-02 -.658E-02
   -.366E+02 0.888E+03 0.371E+04   0.355E+02 -.892E+03 -.371E+04   0.141E+00 0.293E+01 0.266E+00   -.426E-02 -.192E-02 0.322E-01
   0.178E+03 0.487E+03 0.370E+03   -.179E+03 -.487E+03 -.371E+03   0.107E+01 0.491E+00 0.985E+00   -.868E-02 0.624E-02 0.386E-01
   0.233E+03 0.404E+03 -.264E+04   -.233E+03 -.406E+03 0.263E+04   0.795E+00 0.237E+01 0.211E+01   -.100E-01 0.109E-01 0.795E-02
   -.539E+03 -.219E+02 0.127E+03   0.540E+03 0.233E+02 -.128E+03   -.123E+01 -.128E+01 0.530E+00   0.155E-01 -.152E-02 0.346E-01
   -.500E+03 -.154E+03 -.280E+04   0.502E+03 0.155E+03 0.280E+04   -.230E+01 -.798E+00 0.155E+01   -.169E-02 -.118E-02 0.228E-01
   -.335E+03 -.276E+03 -.574E+04   0.337E+03 0.277E+03 0.575E+04   -.627E+00 -.924E+00 -.394E+01   -.858E-02 0.369E-02 -.946E-02
   -.765E+03 0.403E+03 0.370E+04   0.768E+03 -.404E+03 -.370E+04   -.237E+01 0.134E+01 0.581E-01   0.775E-02 0.254E-02 0.258E-01
   -.651E+03 -.176E+03 0.642E+04   0.653E+03 0.178E+03 -.643E+04   -.235E+01 -.147E+01 0.429E+01   -.438E-02 -.101E-02 -.555E-02
   0.295E+03 -.426E+03 -.814E+03   -.295E+03 0.426E+03 0.814E+03   0.463E+00 -.964E+00 0.104E+00   -.481E-02 0.346E-02 0.335E-01
   0.228E+03 -.248E+03 -.423E+04   -.229E+03 0.250E+03 0.423E+04   0.726E+00 -.200E+01 -.381E+01   -.134E-02 -.183E-02 0.111E-01
   0.113E+03 -.265E+03 0.505E+04   -.113E+03 0.263E+03 -.506E+04   0.417E-01 0.161E+01 0.481E+01   -.176E-04 -.557E-02 0.130E-01
   0.254E+03 -.208E+03 0.198E+04   -.254E+03 0.206E+03 -.198E+04   0.418E-01 0.111E+01 -.359E+01   0.980E-03 0.195E-02 0.226E-01
   0.999E+02 0.297E+03 -.570E+04   -.998E+02 -.299E+03 0.570E+04   -.465E+00 0.138E+01 -.345E+01   0.874E-02 -.260E-02 0.610E-02
   0.702E+03 -.179E+03 0.375E+04   -.704E+03 0.179E+03 -.375E+04   0.197E+01 -.335E+00 0.142E+01   -.419E-02 -.130E-01 0.171E-01
   0.306E+03 0.404E+03 0.126E+03   -.308E+03 -.404E+03 -.126E+03   0.136E+01 0.486E+00 0.621E+00   -.104E-02 -.978E-02 0.303E-01
   0.279E+03 0.540E+03 -.320E+04   -.283E+03 -.543E+03 0.320E+04   0.303E+01 0.290E+01 -.215E+01   -.332E-03 -.128E-01 0.164E-01
   -.568E+03 -.895E+02 0.260E+03   0.569E+03 0.910E+02 -.260E+03   -.106E+01 -.141E+01 0.153E+00   -.592E-02 0.580E-02 0.298E-01
   -.537E+03 0.686E+01 -.268E+04   0.539E+03 -.677E+01 0.268E+04   -.241E+01 -.427E-01 0.212E+01   0.244E-02 0.703E-03 0.190E-01
   -.633E+03 0.630E+02 -.568E+04   0.636E+03 -.620E+02 0.569E+04   -.244E+01 -.427E+00 -.357E+01   -.489E-03 -.839E-02 0.576E-02
   0.143E+03 -.299E+03 0.312E+04   -.145E+03 0.300E+03 -.312E+04   0.182E+01 -.137E+01 -.294E+01   0.758E-02 -.153E-02 0.130E-01
   -.213E+03 -.111E+03 0.645E+04   0.213E+03 0.112E+03 -.644E+04   0.956E+00 -.128E+01 -.241E+01   -.179E-02 -.212E-02 -.372E-02
   0.194E+03 -.422E+03 -.855E+03   -.194E+03 0.423E+03 0.855E+03   0.787E+00 -.135E+01 0.688E+00   0.902E-03 0.810E-02 0.292E-01
   0.266E+03 -.463E+03 -.409E+04   -.268E+03 0.466E+03 0.409E+04   0.107E+01 -.184E+01 -.231E+01   -.174E-02 0.114E-01 0.983E-02
   0.316E+03 -.383E+02 0.476E+04   -.318E+03 0.375E+02 -.476E+04   0.205E+01 0.507E+00 0.422E+01   -.195E-02 -.589E-03 0.106E-01
   0.168E+02 -.242E+02 0.192E+04   -.169E+02 0.247E+02 -.192E+04   0.727E-01 -.440E+00 -.408E+01   -.481E-03 -.242E-02 0.383E-01
   -.312E+03 0.252E+03 0.610E+04   0.308E+03 -.257E+03 -.611E+04   0.436E+01 0.382E+01 0.215E+01   -.868E-03 -.467E-03 -.524E-02
   0.810E+00 0.485E+03 0.332E+04   0.373E+00 -.486E+03 -.331E+04   -.861E+00 0.117E+01 -.289E+01   -.313E-02 -.975E-02 0.299E-01
   0.212E+03 0.466E+03 0.197E+03   -.213E+03 -.466E+03 -.197E+03   0.155E+01 0.585E+00 0.346E+00   -.401E-02 0.224E-02 0.264E-01
   0.167E+03 0.403E+03 -.265E+04   -.168E+03 -.405E+03 0.265E+04   0.115E+01 0.193E+01 0.180E+01   -.519E-03 -.258E-02 0.154E-01
   -.458E+03 -.553E+02 0.122E+03   0.459E+03 0.570E+02 -.122E+03   -.105E+01 -.149E+01 0.194E+00   0.943E-02 -.494E-02 0.322E-01
   -.304E+03 -.846E+02 -.280E+04   0.307E+03 0.878E+02 0.280E+04   -.335E+01 -.287E+01 0.441E+00   0.215E-02 -.246E-02 0.918E-02
   0.252E+03 0.768E+01 -.569E+04   -.250E+03 -.507E+01 0.569E+04   -.218E+01 -.149E+01 -.250E+01   -.631E-03 -.600E-02 0.683E-03
   -.955E+03 -.371E+03 0.373E+04   0.960E+03 0.373E+03 -.373E+04   -.423E+01 -.187E+01 -.273E+00   0.955E-03 -.368E-02 0.326E-01
   -.689E+02 0.123E+03 -.234E+03   0.701E+02 -.125E+03 0.232E+03   -.123E+01 0.183E+01 0.157E+01   -.522E-02 0.312E-02 0.114E-01
   -.121E+03 0.225E+03 -.146E+04   0.122E+03 -.228E+03 0.145E+04   -.522E+00 0.124E+01 0.930E+00   0.458E-03 0.205E-02 0.399E-04
   0.552E+02 0.181E+03 0.241E+04   -.548E+02 -.183E+03 -.241E+04   0.154E+00 0.277E+01 0.282E+01   -.118E-02 0.205E-03 -.110E-02
   -.520E+02 0.597E+02 0.676E+03   0.529E+02 -.606E+02 -.675E+03   -.857E+00 0.119E+01 -.274E+00   0.240E-02 0.124E-02 0.782E-02
   -.623E+02 0.111E+02 -.242E+04   0.628E+02 -.114E+02 0.242E+04   -.319E+00 0.624E-01 -.958E+00   0.183E-02 -.195E-03 0.223E-03
   -.396E+01 -.116E+03 -.197E+04   0.594E+01 0.116E+03 0.197E+04   -.202E+01 0.429E+00 -.263E+00   -.107E-02 -.104E-04 -.299E-03
   -.867E+02 -.168E+03 -.813E+03   0.876E+02 0.171E+03 0.812E+03   -.110E+01 -.270E+01 0.194E+00   0.318E-02 -.481E-02 0.148E-01
   0.403E+03 -.257E+03 0.173E+04   -.406E+03 0.261E+03 -.173E+04   0.208E+01 -.225E+01 0.142E+01   0.176E-02 0.368E-02 0.572E-03
[...]
   -.784E+02 0.155E+03 -.210E+04   0.795E+02 -.156E+03 0.211E+04   -.698E+00 0.746E+00 -.197E+01   -.197E-02 -.396E-02 0.259E-02
   -.488E+02 0.122E+03 -.299E+03   0.497E+02 -.123E+03 0.297E+03   -.995E+00 0.188E+01 0.155E+01   0.230E-02 -.664E-02 0.990E-02
   0.125E+03 0.212E+03 -.140E+04   -.126E+03 -.213E+03 0.140E+04   0.924E+00 0.741E+00 0.319E+01   -.204E-02 -.593E-02 0.710E-03
   -.242E+03 0.713E+02 0.244E+04   0.244E+03 -.730E+02 -.245E+04   -.118E+01 0.133E+01 0.344E+01   0.272E-02 -.731E-02 -.208E-02
   -.797E+02 0.476E+02 0.731E+03   0.807E+02 -.486E+02 -.729E+03   -.104E+01 0.119E+01 -.301E+00   -.887E-03 -.153E-02 0.107E-01
   0.106E+02 0.624E+01 -.241E+04   -.102E+02 -.657E+01 0.242E+04   -.128E+00 0.243E+00 -.169E+01   0.106E-02 0.285E-02 -.128E-02
   0.910E+02 -.708E+01 -.218E+04   -.908E+02 0.830E+01 0.218E+04   -.160E+00 -.291E+00 -.156E+01   0.422E-04 0.177E-02 0.108E-02
   -.728E+02 -.157E+03 -.723E+03   0.740E+02 0.160E+03 0.723E+03   -.134E+01 -.294E+01 -.176E+00   -.255E-02 0.439E-02 0.700E-02
   -.282E+03 0.256E+02 0.159E+04   0.285E+03 -.248E+02 -.159E+04   -.225E+01 -.253E+00 -.506E+00   0.258E-02 0.212E-02 0.661E-02
   -.957E+02 -.947E+02 0.394E+03   0.965E+02 0.971E+02 -.395E+03   -.646E+00 -.256E+01 0.878E+00   -.247E-02 -.391E-03 0.139E-01
   0.459E+02 -.101E+02 0.155E+04   -.479E+02 0.974E+01 -.155E+04   0.135E+01 0.830E+00 -.166E+01   -.380E-02 -.153E-02 0.622E-02
   0.145E+03 -.439E+01 0.338E+03   -.148E+03 0.488E+01 -.339E+03   0.288E+01 -.358E+00 0.244E+00   0.323E-02 0.868E-05 0.122E-01
   0.162E+03 -.222E+02 -.736E+03   -.165E+03 0.226E+02 0.736E+03   0.332E+01 -.248E-01 -.117E+00   -.805E-03 0.295E-02 0.582E-02
   0.118E+03 -.157E+03 -.207E+04   -.119E+03 0.158E+03 0.207E+04   -.990E-01 -.437E+00 -.173E+01   0.208E-02 0.178E-02 0.308E-02
   -.519E+01 0.385E+01 -.130E+02   -.497E-12 -.139E-11 0.273E-11   0.497E+01 -.384E+01 0.118E+02   -.233E-01 0.877E-02 0.117E+01

 POSITION                                       TOTAL-FORCE (eV/Angst)
      5.35228      4.81788      6.64784         0.094532     -0.256643     -0.005138
      5.93595      3.87238      9.58390        -1.037036      0.545603     -0.820560
      2.24633      0.73197      3.71178         0.050130      0.349614      1.432704
      0.63871      0.68551     11.21928        -1.412728     -1.049951      0.404596
      5.04641      5.26198      1.01272        -0.393882      0.232572     -1.631226
      4.76861      3.35453      2.93606        -0.064148      0.029056      0.759086
      5.35228      2.40903      5.87212        -0.161670      0.098898     -0.043175
      5.93595      1.46353      8.80817         0.089373     -0.188715     -1.555738
      1.87746      3.73836      5.87212        -0.033584      0.003276      0.018498
      2.46113      2.79286      8.80817         0.200790     -0.593352     -1.740709
      3.13490      2.03429     11.24510         1.773985      0.932064      0.540062
      6.92203      4.68386      2.93606        -0.108490     -0.570942      1.914060
      4.97760      0.71825      0.92243         0.443359      0.626871     -1.193232
     10.98051      4.81788      6.64784         0.156823     -0.335889     -0.087743
     11.56418      3.87238      9.58390         0.046683     -0.190511     -0.671755
      7.00681      2.05147      2.05696         0.268343     -0.344194     -0.745957
      7.87456      0.73197      3.71178         0.727298     -0.499487      1.641736
      6.18018      0.43155     11.09473        -1.082921     -0.930469      0.279241
     10.79443      5.31498      1.17145        -0.202593      1.060613     -1.678588
     10.39684      3.35453      2.93606        -0.931449     -0.900877      1.536554
     10.98051      2.40903      5.87212         0.022163      0.016699     -0.038442
     11.56418      1.46353      8.80817         0.121953     -0.000096     -1.334587
      7.50570      3.73836      5.87212         0.105972      0.063106      0.057275
      8.08937      2.79286      8.80817        -0.080675     -0.462886     -1.701306
      8.62748      2.06214     11.28564         1.686742      0.339512      0.934338
     12.55026      4.68386      2.93606         1.308147      0.445844      1.590232
      8.18971      0.22820      1.01441        -0.618352      0.366822     -1.619443
      7.87456      9.84929      6.64784         0.099512     -0.195934     -0.077237
      8.45823      8.90379      9.58390        -0.326881      0.933136     -1.104999
      3.85783      7.07236      2.07411         0.110760     -0.354857     -0.710493
      4.76861      5.76338      3.71178         0.340718     -0.809422      1.607014
      3.16656      5.64568     11.23399        -0.330246     -1.381812      0.329416
      7.29089      8.38594      2.93606        -0.088777     -0.594544      0.678409
      7.87456      7.44044      5.87212        -0.085614      0.084599     -0.034567
      8.45823      6.49494      8.80817        -1.022048     -0.195463     -1.616437
      4.39975      8.76977      5.87212         0.054149      0.080002      0.037289
      4.98341      7.82427      8.80817        -0.249719      0.043029     -1.380533
      5.57399      7.19279     11.18302         1.360462      0.618887      0.458215
      9.44431      9.71527      2.93606         0.005888     -0.604970      2.968529
      7.45022      5.53796      0.84043         0.094474      0.120586     -0.891109
     13.50279      9.84929      6.64784         0.175429     -0.203093     -0.008585
     14.08646      8.90379      9.58390        -0.381505      1.083490     -1.041495
      9.09699      7.05149      2.03098         0.046161     -0.313047     -1.181953
     10.39684      5.76338      3.71178         0.036548     -0.013637      1.544105
     10.93831      8.28429      1.11596         0.808390     -0.609847     -0.676541
     12.91912      8.38594      2.93606         0.321118     -0.067439      0.492970
     13.50279      7.44044      5.87212        -0.043037     -0.028926     -0.035781
     14.08646      6.49494      8.80817         0.233701     -0.065882     -1.136533
     10.02798      8.76977      5.87212         0.025195      0.157145      0.089368
     10.61165      7.82427      8.80817         0.132145      0.282519     -2.426938
     11.33543      6.75675     10.87564        -0.489585      1.113273      0.660860
     15.07254      9.71527      2.93606         0.044679     -0.025409      0.678949
      1.66190      1.67871      7.01153        -0.001077     -0.231850     -0.071469
      2.24556      0.73321      9.94759         0.876714     -1.522066     -2.090184
      6.12279      3.56972      1.13942         0.612453      0.228796     -2.966186
      6.70646      2.62422      4.07548        -0.032618      0.267077      1.244781
      4.38170      6.44750     12.61002         0.206920     -0.210484      3.105025
      2.32220      3.82360     10.58913        -0.048545      0.853380      1.662892
      7.29013      4.74605      7.99931        -0.199670      0.156801     -0.490239
      3.71358      1.57465      2.36846        -0.972668      1.828129     -1.313891
[...]
      7.07033      8.08475      7.99931        -0.098269      0.410886     -0.838971
      7.55483      7.28233     10.52027         0.366721     -0.747194      2.622124
      9.81241      6.71012      7.01153        -0.146174      0.224514     -0.928672
     10.34117      5.74735      9.36464        -0.168913     -0.659583      0.770599
     14.27330      8.60113      1.13942         0.687989     -0.396060     -2.300078
     14.85697      7.65563      4.07548        -0.082601      0.256793      1.424275
      7.31595      1.22216     12.54995         0.283031     -0.084426      2.910707
     10.28327      8.61894     10.70366         0.064713      0.930452      2.500032
     15.44064      9.77746      7.99931        -0.184187      0.131763     -0.735022
     11.74470      6.72155      2.35089         0.830413      0.477207     -0.495517
     12.33469      5.69156      5.06325         0.187987     -0.112887      0.188891
     11.53122      9.97575      2.12720        -0.597167      0.510262      1.144176
     12.11489      9.03025      5.06325        -0.013682      0.133230     -0.055499
     12.69856      8.08475      7.99931         0.045210      0.352485     -0.584845
     13.32653      7.28283     10.63778        -1.074469      0.567957      1.421921
    total drift:                               -0.240471      0.022965     -0.052662

  FREE ENERGIE OF THE ION-ELECTRON SYSTEM (eV)
  free  energy   TOTEN  =      -511.25099119 eV

  energy  without entropy=     -509.85015779  energy(sigma->0) =     -510.55057449