 vasp.5.4.4.18Apr17-6-g9f103f2a35 (build Aug 13 2019 17:33:20) gamma-only

 executed on             LinuxIFC date 2020.05.11  20:15:59

 INCAR:
 POTCAR:    PAW_PBE Ni_pv 06Sep2000
 POTCAR:    PAW_PBE S 06Sep2000
 POTCAR:    PAW_PBE Ni_pv 06Sep2000
   VRHFIN =Ni:

   TITEL  = PAW_PBE Ni_pv 06Sep2000
   POMASS =   58.690; ZVAL   =   16.000    mass and valenz
   ENMAX  =  367.986; ENMIN  =  275.989 eV

 POTCAR:    PAW_PBE S 06Sep2000
   VRHFIN =S : s2p4

   TITEL  = PAW_PBE S 06Sep2000
   POMASS =   32.066; ZVAL   =    6.000    mass and valenz
   ENMAX  =  258.689; ENMIN  =  194.016 eV

 Optimization of the real space projectors (new method)

 maximal supplied QI-value         = 18.90
 optimisation between [QCUT,QGAM] = [ 10.77, 21.73] = [ 32.49,132.25] Ry
 Optimized for a Real-space Cutoff    1.38 Angstroem

   l    n(q)    QCUT    max X(q) W(low)/X(q) W(high)/X(q)  e(spline)
   1      8    10.771     2.836    0.40E-04    0.29E-04    0.12E-06
   1      8    10.771     4.023    0.10E-03    0.48E-04    0.29E-06
   2      8    10.771    73.368    0.42E-03    0.97E-04    0.44E-06
   2      8    10.771    69.010    0.42E-03    0.99E-04    0.45E-06
   0      9    10.771    54.797    0.10E-03    0.56E-04    0.74E-07
   0      9    10.771    24.266    0.89E-04    0.49E-04    0.67E-07
 Optimization of the real space projectors (new method)

 maximal supplied QI-value         = 19.84
 optimisation between [QCUT,QGAM] = [ 10.71, 21.63] = [ 32.15,130.99] Ry
 Optimized for a Real-space Cutoff    1.19 Angstroem

   l    n(q)    QCUT    max X(q) W(low)/X(q) W(high)/X(q)  e(spline)
   0      8    10.715   187.594    0.41E-03    0.53E-04    0.66E-07
   0      8    10.715   164.243    0.41E-03    0.53E-04    0.65E-07
   1      7    10.715    67.533    0.19E-03    0.59E-03    0.68E-07
   1      7    10.715    50.729    0.19E-03    0.58E-03    0.67E-07
  PAW_PBE Ni_pv 06Sep2000               :
  PAW_PBE S 06Sep2000                   :

 POSCAR: Type_036 Type_136
  positions in cartesian coordinates
 exchange correlation table for  LEXCH =        8
   RHO(1)=    0.500       N(1)  =     2000
   RHO(2)=  100.500       N(2)  =     4000

 ion  position               nearest neighbor table
   1  0.780  0.145  0.121-  49 2.08  63 2.13  50 2.17  41 2.25   2 2.29  64 2.36  35 2.43  26 2.48

   2  0.730  0.102  0.250-  42 2.01  64 2.13  50 2.20   1 2.29  19 2.44  41 2.58
   3  0.217  0.615  0.091-  43 2.02  44 2.05  61 2.12   4 2.45  15 2.45  51 2.53
   4  0.297  0.645  0.216-  52 2.12  62 2.12  44 2.23  51 2.26  61 2.26   3 2.45  28 2.53  16 2.53

[...]

  17  0.448  0.498  0.344-  62 2.03  54 2.04  40 2.04  16 2.51
  18  0.592  0.914  0.088-  59 2.11  67 2.18  19 2.38  41 2.45  30 2.48
  19  0.597  0.013  0.223-  42 2.11  68 2.19  59 2.25  67 2.26  41 2.26  18 2.38   2 2.44   6 2.53
                            31 2.53
  20  0.080  0.513  0.127-  43 2.06  66 2.07  57 2.09  65 2.42  21 2.42  44 2.43   7 2.53  32 2.53

[...]

  26  0.892  0.309  0.139-  66 2.06  49 2.07  38 2.07  50 2.13   1 2.48  24 2.50
  27  0.447  0.853  0.053-  67 2.08  39 2.12  28 2.38  15 2.50  51 2.55
  28  0.425  0.777  0.191-  52 2.22  67 2.25  39 2.26  51 2.26  40 2.36  27 2.38  29 2.52  16 2.53
                             4 2.53
  29  0.449  0.794  0.344-  52 2.03  68 2.04  40 2.05  28 2.52
  30  0.529  0.147  0.088-  53 2.04  41 2.04  67 2.07  18 2.48   5 2.48
  31  0.597  0.277  0.223-  42 2.07  54 2.15  69 2.25  53 2.26  41 2.26   6 2.53  19 2.53
  32  0.080  0.777  0.127-  43 2.10  56 2.12  71 2.14  44 2.15  55 2.19   7 2.53  20 2.53
  33  0.252  0.277  0.159-  45 2.05  57 2.10  61 2.25  46 2.36  58 2.36   9 2.53  22 2.53
  34  0.286  0.289  0.322-  58 2.03  46 2.04  62 2.09
  35  0.751  0.897  0.121-  63 2.01  59 2.05  64 2.15   1 2.43  36 2.47  13 2.53
  36  0.770  0.777  0.254-  60 2.05  48 2.09  64 2.25  59 2.26  47 2.26  35 2.47  12 2.53  25 2.53

[...]

  68  0.508  0.974  0.319-  29 2.04   6 2.10  19 2.19  42 2.71  67 2.74
  69  0.657  0.477  0.183-  24 2.13  31 2.25  25 2.26  12 2.26  11 2.28  70 2.71
  70  0.688  0.486  0.347-  12 2.02  25 2.05  69 2.71  48 2.73
  71  0.138  0.972  0.106-   9 2.10  32 2.14  22 2.15  72 2.59
  72  0.177  0.972  0.261-  10 2.02  23 2.04  22 2.12   9 2.25  71 2.59  37 2.77

  LATTYP: Found a simple orthorhombic cell.
 ALAT       =     9.5784100000
 B/A-ratio  =     1.6880763216
 C/A-ratio  =     1.7627867312

  Lattice vectors:

 A1 = (   0.0000000000,   9.5784100000,   0.0000000000)
 A2 = (   0.0000000000,   0.0000000000, -16.1690871197)
 A3 = ( -16.8846940542,   0.0000000000,   0.0000000000)

Analysis of symmetry for initial positions (statically):
 Subroutine PRICEL returns:
 Original cell was already a primitive cell.

 Routine SETGRP: Setting up the symmetry group for a
 simple orthorhombic supercell.

 Subroutine GETGRP returns: Found  1 space group operations
 (whereof  1 operations were pure point group operations)
 out of a pool of  8 trial point group operations.

The static configuration has the point symmetry C_1 .

Analysis of symmetry for dynamics (positions and initial velocities):
 Subroutine PRICEL returns:
 Original cell was already a primitive cell.

 Routine SETGRP: Setting up the symmetry group for a
 simple orthorhombic supercell.

 Subroutine GETGRP returns: Found  1 space group operations
 (whereof  1 operations were pure point group operations)
 out of a pool of  8 trial point group operations.

The dynamic configuration has the point symmetry C_1 .

 Subroutine INISYM returns: Found  1 space group operations
 (whereof  1 operations are pure point group operations),
 and found     1 'primitive' translations

 KPOINTS: gamma-point-only calculation. no periodi

Automatic generation of k-mesh.
Space group operators:
 irot       det(A)        alpha          n_x          n_y          n_z        tau_x        tau_y        tau_z
    1     1.000000     0.000000     1.000000     0.000000     0.000000     0.000000     0.000000     0.000000

 Subroutine IBZKPT returns following result:

 Found      1 irreducible k-points:

 Following reciprocal coordinates:
            Coordinates               Weight
  0.000000  0.000000  0.000000      1.000000

 Following cartesian coordinates:
            Coordinates               Weight
  0.000000  0.000000  0.000000      1.000000

 SYSTEM =  "Millerite NiS"
 POSCAR =  Type_036 Type_136

 Startparameter for this run:
   NWRITE =      2    write-flag & timer
   PREC   = normal    normal or accurate (medium, high low for compatibility)
   ISTART =      0    job   : 0-new  1-cont  2-samecut
   ICHARG =      2    charge: 1-file 2-atom 10-const
   ISPIN  =      1    spin polarized calculation?
   LNONCOLLINEAR =      F non collinear calculations
   LSORBIT =      F    spin-orbit coupling
   INIWAV =      1    electr: 0-lowe 1-rand  2-diag
   LASPH  =      F    aspherical Exc in radial PAW
   METAGGA=      F    non-selfconsistent MetaGGA calc.

 Electronic Relaxation 1
   ENCUT  =  450.0 eV  33.07 Ry    5.75 a.u.  29.20 16.57 27.97*2*pi/ulx,y,z
   ENINI  =  450.0     initial cutoff
   ENAUG  =  703.4 eV  augmentation charge cutoff
   NELM   =    100;   NELMIN=  2; NELMDL= -5     # of ELM steps
   EDIFF  = 0.1E-03   stopping-criterion for ELM
   LREAL  =      T    real-space projection
   NLSPLINE    = F    spline interpolate recip. space projectors
   LCOMPAT=      F    compatible to vasp.4.4
   GGA_COMPAT  = T    GGA compatible to vasp.4.4-vasp.4.6
   LMAXPAW     = -100 max onsite density
   LMAXMIX     =    2 max onsite mixed and CHGCAR
   VOSKOWN=      0    Vosko Wilk Nusair interpolation
   ROPT   =   -0.00050  -0.00050
 Ionic relaxation
   EDIFFG = 0.1E-02   stopping-criterion for IOM
   NSW    =      0    number of steps for IOM
   NBLOCK =      1;   KBLOCK =      1    inner block; outer block
   IBRION =     -1    ionic relax: 0-MD 1-quasi-New 2-CG
   NFREE  =      0    steps in history (QN), initial steepest desc. (CG)
   ISIF   =      2    stress and relaxation
   IWAVPR =     10    prediction:  0-non 1-charg 2-wave 3-comb
   ISYM   =      2    0-nonsym 1-usesym 2-fastsym
   LCORR  =      T    Harris-Foulkes like correction to forces

   POTIM  = 0.5000    time-step for ionic-motion
   TEIN   =    0.0    initial temperature
   TEBEG  =    0.0;   TEEND  =   0.0 temperature during run
   SMASS  =  -3.00    Nose mass-parameter (am)
   estimated Nose-frequenzy (Omega)   =  0.10E-29 period in steps =****** mass=  -0.652E-26a.u.
   SCALEE = 1.0000    scale energy and forces
   NPACO  =    256;   APACO  = 16.0  distance and # of slots for P.C.
   PSTRESS=    0.0 pullay stress

  Mass of Ions in am
   POMASS =  58.69 32.07
  Ionic Valenz
   ZVAL   =  16.00  6.00
  Atomic Wigner-Seitz radii
  virtual crystal weights
   VCA    =   1.00  1.00
   NELECT =     792.0000    total number of electrons
   NUPDOWN=      -1.0000    fix difference up-down

 DOS related values:
   EMIN   =  10.00;   EMAX   =-10.00  energy-range for DOS
   EFERMI =   0.00
   ISMEAR =     0;   SIGMA  =   0.20  broadening in eV -4-tet -1-fermi 0-gaus

 Electronic relaxation 2 (details)
   IALGO  =     38    algorithm
   LDIAG  =      T    sub-space diagonalisation (order eigenvalues)
   LSUBROT=      F    optimize rotation matrix (better conditioning)
   TURBO    =      0    0=normal 1=particle mesh
   IRESTART =      0    0=no restart 2=restart with 2 vectors
   NREBOOT  =      0    no. of reboots
   NMIN     =      0    reboot dimension
   EREF     =   0.00    reference energy to select bands
   IMIX   =      4    mixing-type and parameters
     AMIX     =   0.40;   BMIX     =  1.00
     AMIX_MAG =   1.60;   BMIX_MAG =  1.00
     AMIN     =   0.10
     WC   =   100.;   INIMIX=   1;  MIXPRE=   1;  MAXMIX= -45

 Intra band minimization:
   WEIMIN = 0.0000     energy-eigenvalue tresh-hold
   EBREAK =  0.53E-07  absolut break condition
   DEPER  =   0.30     relativ break condition

   TIME   =   0.40     timestep for ELM

  volume/ion in A,a.u.               =      36.32       245.10
  Fermi-wavevector in a.u.,A,eV,Ry     =   1.099409  2.077581 16.445356  1.208700
  Thomas-Fermi vector in A             =   2.235803

 Write flags
   LWAVE        =      F    write WAVECAR
   LDOWNSAMPLE  =      F    k-point downsampling of WAVECAR
   LCHARG       =      F    write CHGCAR
   LVTOT        =      F    write LOCPOT, total local potential
   LVHAR        =      F    write LOCPOT, Hartree potential only
   LELF         =      F    write electronic localiz. function (ELF)
   LORBIT       =      0    0 simple, 1 ext, 2 COOP (PROOUT), +10 PAW based schemes

 Dipole corrections
   LMONO  =      F    monopole corrections only (constant potential shift)
   LDIPOL =      F    correct potential (dipole corrections)
   IDIPOL =      0    1-x, 2-y, 3-z, 4-all directions
   EPSILON=  1.0000000 bulk dielectric constant

 Exchange correlation treatment:
   GGA     =    --    GGA type
   VOSKOWN=      0    Vosko Wilk Nusair interpolation
   LHFCALC =     F    Hartree Fock is set to
   LHFONE  =     F    Hartree Fock one center treatment
   AEXX    =    0.0000 exact exchange contribution

 Linear response parameters
   LEPSILON=     F    determine dielectric tensor
[...]
  Fock        0.00000     0.00000     0.00000     0.00000     0.00000     0.00000
  Total     139.97826   124.94550   145.01050    -2.19017    -0.03219     0.91116
  in kB      85.76282    76.55245    88.84601    -1.34189    -0.01972     0.55825

 VOLUME and BASIS-vectors are now :
  energy-cutoff  :      450.00
  volume of cell :     2615.00
      direct lattice vectors                 reciprocal lattice vectors
    16.884694054  0.000000000  0.000000000     0.059225237  0.000000000  0.000000000
     0.000000000  9.578410000  0.000000000     0.000000000  0.104401461  0.000000000
     0.000000000  0.000000000 16.169087120     0.000000000  0.000000000  0.061846411

  length of vectors
    16.884694054  9.578410000 16.169087120     0.059225237  0.104401461  0.061846411

 FORCES acting on ions
    electron-ion (+dipol)            ewald-force                    non-local-force                 convergence-correction
   -.234E+03 -.342E+03 0.208E+04   0.231E+03 0.341E+03 -.209E+04   0.286E+01 0.149E+01 0.496E+01   -.282E-01 -.310E+00 0.121E+00
   -.783E+03 -.278E+03 -.243E+04   0.783E+03 0.281E+03 0.243E+04   0.174E+00 -.226E+01 -.428E+01   0.241E+00 -.194E+00 -.179E+00
   0.422E+03 0.888E+02 0.281E+04   -.421E+03 -.898E+02 -.281E+04   0.745E+00 0.112E+01 0.587E+01   0.200E+00 0.569E-01 -.336E+00
   0.935E+03 -.213E+02 -.123E+04   -.938E+03 0.215E+02 0.124E+04   0.153E+01 0.985E-01 -.548E+01   0.234E+00 0.165E-01 -.897E-01
   0.297E+03 -.342E+03 0.232E+04   -.298E+03 0.343E+03 -.233E+04   0.170E+01 -.783E+00 0.871E+01   0.163E+00 -.668E-01 -.239E+00
   0.279E+03 -.213E+03 -.195E+04   -.284E+03 0.214E+03 0.196E+04   0.338E+01 -.327E+00 -.852E+01   -.130E+00 0.470E-02 -.167E+00
   0.258E+03 0.436E+03 0.104E+04   -.263E+03 -.440E+03 -.104E+04   0.430E+01 0.441E+01 0.282E+01   -.145E+00 -.157E-01 0.632E-01
   -.533E+03 -.214E+02 -.305E+04   0.533E+03 0.193E+02 0.305E+04   0.698E+00 0.230E+01 -.352E+01   -.133E-01 0.336E-02 -.684E-01
   0.114E+04 -.458E+02 0.619E+03   -.114E+04 0.469E+02 -.624E+03   0.620E+01 -.107E+01 0.646E+01   -.233E+00 -.467E-01 0.961E-01
   0.101E+04 0.122E+03 -.368E+04   -.101E+04 -.124E+03 0.368E+04   -.309E+01 0.181E+01 -.350E+01   -.271E-01 -.477E-01 0.299E+00
   -.533E+03 0.605E+03 0.157E+04   0.536E+03 -.607E+03 -.158E+04   -.285E+01 0.150E+01 0.415E+01   0.109E-01 0.171E+00 -.340E+00
   -.655E+02 0.209E+03 -.246E+04   0.630E+02 -.210E+03 0.247E+04   0.161E+01 0.432E+00 -.842E+01   0.780E-01 0.245E+00 -.203E+00
   -.448E+03 0.403E+02 0.224E+04   0.449E+03 -.437E+02 -.225E+04   -.824E+00 0.285E+01 0.771E+01   -.272E+00 -.483E-01 -.454E-02
   -.346E+03 -.484E+03 -.168E+04   0.350E+03 0.487E+03 0.168E+04   -.432E+01 -.351E+01 -.190E+01   -.235E+00 -.247E-02 0.390E-01
   0.191E+03 0.429E+03 0.390E+04   -.194E+03 -.429E+03 -.391E+04   0.197E+01 0.483E-01 0.526E+01   0.422E+00 0.738E-01 -.394E+00
   -.214E+03 0.744E+03 0.409E+03   0.214E+03 -.748E+03 -.409E+03   0.697E+00 0.321E+01 -.259E+00   0.745E-01 0.410E-01 -.361E+00
   -.631E+02 0.267E+03 -.378E+04   0.602E+02 -.268E+03 0.378E+04   0.329E+01 0.918E+00 0.117E+01   -.595E-01 -.628E-01 0.128E+00
   -.581E+03 0.358E+03 0.338E+04   0.580E+03 -.358E+03 -.338E+04   0.160E+01 -.283E+00 0.232E+01   0.169E+00 -.109E+00 -.221E+00
   -.358E+03 0.237E+03 -.130E+04   0.361E+03 -.241E+03 0.130E+04   -.305E+01 0.349E+01 -.358E+01   0.412E+00 -.103E+00 -.255E+00
   0.410E+03 0.729E+03 0.164E+04   -.409E+03 -.735E+03 -.164E+04   0.377E+00 0.607E+01 0.282E+01   -.461E+00 0.509E-01 -.825E-01
   0.501E+03 -.789E+02 -.266E+04   -.500E+03 0.774E+02 0.266E+04   -.887E+00 0.179E+01 0.259E+01   -.262E+00 -.111E-01 0.169E+00
   0.519E+03 0.474E+03 0.127E+04   -.520E+03 -.477E+03 -.127E+04   0.686E+00 0.205E+01 0.424E+01   0.219E+00 -.757E-01 -.441E-01
   0.252E+03 0.463E+03 -.333E+04   -.253E+03 -.464E+03 0.333E+04   0.151E+01 0.859E+00 -.447E+00   -.498E-01 0.760E-01 0.246E+00
   0.112E+03 -.373E+03 0.248E+04   -.113E+03 0.376E+03 -.248E+04   0.583E+00 -.171E+01 0.724E+01   0.166E+00 -.308E-01 -.106E+00
   -.744E+03 0.591E+03 -.186E+04   0.747E+03 -.592E+03 0.186E+04   -.339E+01 0.111E+01 -.344E+01   0.311E+00 0.112E+00 -.847E-01
   -.928E+03 -.209E+03 0.909E+03   0.934E+03 0.212E+03 -.907E+03   -.488E+01 -.335E+01 -.795E+00   -.651E-02 -.533E-01 -.227E-01
   0.929E+02 -.235E+03 0.399E+04   -.904E+02 0.233E+03 -.399E+04   -.274E+01 0.226E+01 -.682E-01   0.217E-01 -.206E+00 -.250E+00
   0.823E+02 -.284E+03 -.162E+03   -.835E+02 0.286E+03 0.165E+03   0.863E+00 -.224E+01 -.157E+01   0.100E+00 -.253E-01 -.519E+00
   -.115E+02 -.191E+03 -.389E+04   0.944E+01 0.192E+03 0.389E+04   0.250E+01 -.958E+00 0.151E+01   -.239E-01 -.684E-02 0.140E+00
   -.179E+03 -.806E+03 0.351E+04   0.178E+03 0.808E+03 -.351E+04   0.326E+00 -.171E+01 0.555E+01   -.444E-01 -.153E+00 -.263E+00
   -.512E+03 -.779E+03 -.751E+03   0.515E+03 0.785E+03 0.751E+03   -.382E+01 -.479E+01 -.125E+01   0.148E+00 -.136E+00 -.126E+00
   -.233E+02 -.666E+03 0.140E+04   0.256E+02 0.673E+03 -.140E+04   -.180E+01 -.556E+01 0.281E+00   -.364E+00 -.612E-01 -.551E-01
   0.325E+03 -.450E+03 0.129E+04   -.326E+03 0.453E+03 -.129E+04   0.182E+01 -.235E+01 0.464E+01   0.222E+00 -.103E-01 -.446E-01
   0.134E+03 -.371E+03 -.337E+04   -.135E+03 0.373E+03 0.337E+04   0.135E+01 -.160E+01 -.864E-01   0.173E-01 -.740E-01 0.260E+00
   -.131E+03 0.538E+03 0.236E+04   0.129E+03 -.541E+03 -.236E+04   0.232E+01 0.116E+01 0.847E+01   -.785E-01 0.971E-01 -.102E-01
   -.569E+03 -.225E+03 -.185E+04   0.573E+03 0.226E+03 0.185E+04   -.231E+01 -.163E+01 -.396E+01   0.135E+00 0.247E+00 -.246E+00
   0.373E+03 -.111E+03 -.986E+03   -.378E+03 0.114E+03 0.988E+03   0.225E+01 -.212E+01 -.624E+00   -.749E-01 -.468E-02 0.923E-01
   -.378E+03 -.151E+03 0.997E+03   0.384E+03 0.153E+03 -.100E+04   -.366E+01 -.104E+01 0.218E+01   -.877E-01 0.432E-01 -.282E-01
   -.302E+03 0.374E+03 0.131E+04   0.305E+03 -.377E+03 -.131E+04   -.169E+01 0.268E+01 0.258E+01   -.112E+00 0.354E-01 -.170E+00
   -.228E+03 0.733E+02 -.862E+03   0.228E+03 -.733E+02 0.866E+03   0.961E+00 0.230E+00 -.390E+01   0.423E-01 -.188E-01 -.628E-01
   -.230E+03 -.278E+03 0.100E+04   0.231E+03 0.281E+03 -.101E+04   -.305E+00 -.375E+01 0.301E+01   0.128E+00 -.109E+00 -.500E-01
   -.183E+03 -.105E+03 -.159E+04   0.185E+03 0.106E+03 0.160E+04   -.152E+01 -.523E+00 -.241E+01   0.170E+00 -.620E-01 -.143E-01
   0.137E+03 -.155E+02 0.165E+04   -.137E+03 0.150E+02 -.165E+04   -.140E+00 0.646E+00 0.230E+01   -.134E+00 0.858E-02 -.126E+00
   0.150E+03 -.251E+03 -.462E+03   -.150E+03 0.253E+03 0.467E+03   0.118E+01 -.181E+01 -.278E+01   -.117E+00 0.520E-01 0.663E-01
   0.209E+03 -.544E+02 0.161E+04   -.210E+03 0.542E+02 -.162E+04   0.131E+01 0.291E+00 0.168E+01   0.144E+00 -.212E-01 -.137E+00
   -.505E+02 -.385E+02 -.553E+03   0.512E+02 0.386E+02 0.557E+03   0.962E+00 -.213E+00 -.398E+01   0.400E-01 -.144E-01 0.278E-01
   -.803E+02 0.655E+02 0.681E+03   0.802E+02 -.652E+02 -.685E+03   -.215E+00 -.874E+00 0.299E+01   0.609E-01 0.924E-01 -.939E-02
   -.233E+03 0.143E+03 -.158E+04   0.237E+03 -.144E+03 0.158E+04   -.273E+01 0.670E+00 -.266E+01   0.117E+00 0.541E-01 -.146E-01
   -.936E+02 -.102E+03 0.163E+04   0.934E+02 0.103E+03 -.164E+04   -.232E+00 -.149E+00 0.304E+01   0.290E-01 -.618E-01 -.500E-01
   -.256E+03 -.234E+02 -.693E+03   0.258E+03 0.227E+02 0.698E+03   -.135E+01 0.472E+00 -.245E+01   0.449E-01 -.146E+00 0.190E-02
   0.356E+03 -.264E+03 0.800E+03   -.358E+03 0.267E+03 -.801E+03   0.216E+01 -.142E+01 0.454E+00   0.183E+00 -.619E-01 -.197E+00
   0.364E+03 0.110E+02 -.110E+04   -.366E+03 -.100E+02 0.110E+04   0.115E+01 -.708E+00 -.128E+01   -.456E-01 0.736E-01 0.525E-01
   -.347E+01 -.337E+03 0.658E+03   0.312E+01 0.341E+03 -.662E+03   -.892E+00 -.264E+01 0.254E+01   -.537E-01 0.181E-01 -.953E-01
   -.131E+03 -.458E+00 -.128E+04   0.131E+03 0.115E+01 0.128E+04   0.344E+00 -.802E+00 -.252E+01   -.288E-01 -.224E-02 0.380E-01
   -.262E+03 -.164E+03 -.491E+03   0.265E+03 0.164E+03 0.496E+03   -.151E+01 0.399E+00 -.260E+01   -.932E-01 -.895E-01 0.410E-01
   0.101E+02 -.387E+02 0.152E+04   -.112E+02 0.390E+02 -.152E+04   0.901E+00 0.136E+00 0.345E+01   -.605E-01 -.584E-01 -.166E-01
   0.279E+03 0.811E+02 0.102E+04   -.280E+03 -.830E+02 -.103E+04   -.150E+00 0.159E+01 0.431E+01   -.102E+00 0.277E-01 -.830E-01
   0.369E+03 -.212E+03 -.822E+03   -.370E+03 0.216E+03 0.823E+03   0.141E+01 -.299E+01 -.112E+01   -.129E-01 -.236E-01 0.130E+00
   -.139E+03 0.145E+03 0.129E+03   0.138E+03 -.143E+03 -.130E+03   -.489E-01 -.154E+01 0.793E+00   0.110E+00 0.777E-01 -.135E+00
   -.870E+02 -.232E+03 -.159E+04   0.856E+02 0.236E+03 0.159E+04   0.908E+00 -.159E+01 -.916E+00   0.752E-01 0.597E-01 -.258E-01
   0.747E+02 0.376E+03 0.858E+03   -.759E+02 -.380E+03 -.861E+03   0.568E+00 0.153E+01 0.184E+01   0.219E+00 0.705E-01 -.168E+00
   0.301E+03 0.173E+02 -.103E+04   -.303E+03 -.179E+02 0.103E+04   0.786E+00 0.394E+00 -.662E+00   0.185E-01 -.640E-01 0.616E-01
   -.124E+03 -.578E+01 0.169E+04   0.123E+03 0.499E+01 -.170E+04   0.107E+01 0.472E+00 0.356E+01   -.103E+00 -.280E-01 0.195E-01
   -.260E+03 -.888E+02 -.616E+03   0.261E+03 0.894E+02 0.622E+03   -.248E+01 -.512E+00 -.239E+01   -.153E+00 0.208E-01 -.229E-01
   0.780E+02 0.250E+03 -.941E+03   -.791E+02 -.254E+03 0.944E+03   0.497E+00 0.217E+01 -.699E+00   -.148E+00 0.559E-01 -.116E-01
   0.271E+02 0.206E+03 0.109E+04   -.282E+02 -.207E+03 -.109E+04   0.811E+00 -.113E+00 0.430E+01   -.651E-01 0.383E-01 0.143E-01
   0.107E+03 0.336E+02 0.331E+03   -.108E+03 -.368E+02 -.329E+03   0.656E+00 0.210E+01 -.241E+01   -.485E-02 -.439E-01 -.158E+00
   -.107E+03 -.514E+02 -.139E+04   0.106E+03 0.507E+02 0.139E+04   0.181E+01 0.955E+00 -.157E+01   0.274E-01 0.280E-01 0.192E-01
   0.277E+02 0.106E+03 0.352E+03   -.302E+02 -.109E+03 -.355E+03   0.713E+00 0.204E+01 0.156E+01   0.131E-02 0.520E-01 -.721E-01
   -.103E+03 0.305E+03 -.153E+04   0.102E+03 -.308E+03 0.154E+04   0.587E+00 0.141E+01 -.141E+01   0.574E-01 0.372E-02 0.279E-01
   0.228E+03 -.339E+02 0.105E+04   -.229E+03 0.348E+02 -.106E+04   0.881E+00 -.820E+00 0.448E+01   -.670E-01 -.337E-01 -.769E-01
   0.446E+03 0.451E+03 -.684E+03   -.449E+03 -.458E+03 0.686E+03   0.139E+01 0.467E+01 -.117E+01   -.183E-01 -.162E-01 0.126E+00
   -.164E+02 -.344E+01 -.391E+02   0.682E-12 0.682E-12 0.000E+00   0.155E+02 0.408E+01 0.432E+02   0.899E+00 -.703E+00 -.416E+01

 POSITION                                       TOTAL-FORCE (eV/Angst)
     13.17084      1.39171      1.94975        -0.523665      0.685137     -0.849562
     12.32736      0.97352      4.04267         0.810709      0.216534      0.406677
      3.66317      5.89047      1.47749         1.146678      0.164211     -0.725362
      5.02033      6.18092      3.49202        -0.607962      0.264595     -0.279155
      6.53788      1.29040      2.02489         0.849096      0.232393     -0.109763
      7.93172      1.39171      4.00611        -0.990679      0.571767     -0.755061
     16.08224      6.18092      2.46384        -1.133638     -0.060801     -0.986832
     15.55820      6.81414      4.63768         0.753301      0.234716      0.657656
      2.10894      1.39171      2.97793         0.217061     -0.014955      1.032361
      2.60028      1.26527      5.48153         0.496982     -0.027662      1.718554
      9.63177      6.28123      2.56671         0.585471     -0.345062     -0.474699
     10.84312      6.18092      4.52020        -0.779514     -0.229383     -0.654297
     15.20437      8.68152      1.84288         0.317537     -0.554608     -0.369490
     15.99276      0.54351      3.65784        -0.001073     -0.094783      1.006964
      6.03682      6.18747      0.93723        -0.274760     -0.152489     -1.532081
      7.17375      4.91558      3.08454         0.198968     -0.167652     -0.668288
      7.56070      4.77450      5.55957         0.365189      0.104074      0.855232
     10.00187      8.75312      1.41893         0.152501     -0.065603     -0.753397
     10.08514      0.12638      3.59863        -0.213512     -0.456319      0.348406
      1.35096      4.91558      2.05636         0.611059     -0.346791      1.085392
      2.12214      4.85832      4.35278        -0.545830      0.284879      1.228530
      4.26235      0.12638      2.57045         0.521290     -0.583832      0.274837
      4.79039      9.54779      5.14715         0.329099      0.022733      0.913445
     12.90164      4.16891      1.90914        -0.378243      1.163724     -0.222978
     12.99653      4.91558      4.11272         0.253417      0.093657     -1.062080
     15.06201      2.96240      2.24261         1.230777     -0.181458      0.790981
      7.54353      8.17460      0.85327        -0.247595      0.357638     -0.639630
      7.17375      7.44626      3.08454        -0.194487     -0.054356      0.583284
      7.58587      7.60450      5.56916         0.369801     -0.180724      0.832956
      8.93709      1.41080      1.42026        -0.272952      0.005201     -1.653290
     10.08514      2.65705      3.59863        -0.416894      1.181653     -1.201261
      1.35096      7.44626      2.05636         0.219358      0.718877      0.023578
      4.26235      2.65705      2.57045         0.688278      0.645975      1.639124
      4.82428      2.77054      5.21375         0.265146     -0.115300      0.597085
     12.68156      8.59113      1.95081        -0.325539     -1.422828      0.200091
     12.99653      7.44626      4.11272         1.349983     -0.009444     -1.622788
      0.74642      1.32420      4.57649        -2.366292      1.076061      1.624496
     15.88557      1.13588      1.71340         1.870070      0.967475     -1.811580
      8.00634      6.18092      1.40713         1.173670     -0.622278     -2.989548
      8.59001      6.18092      4.49167         1.041416      0.150201      0.595053
     10.91773      1.39171      1.92122         1.104815     -0.382853     -0.943175
     10.70865      1.42585      5.14252         0.914512      0.097635      3.284816
      1.91475      6.15147      0.50328         0.183007      0.195775     -3.669435
      2.81216      6.42901      3.26651         0.526331      0.675031      2.255242
      4.76617      1.39979      1.02742         0.363896      0.074116     -4.200107
      5.67861      1.39171      3.97758         1.705886     -0.179335      0.409386
     13.82913      6.18092      2.43531        -0.168163     -0.486452     -0.700836
     13.88893      6.16363      5.50646         0.625570     -0.355098      3.397473
     13.77409      2.88415      0.62791        -0.374097      0.702222     -3.936859
     13.37751      2.84485      3.54134         0.971906     -0.419072      2.821297
      5.26426      7.79215      1.92599        -0.367159      1.261243     -0.948730
      5.73077      7.72770      4.74867        -0.690722      0.361001      1.676653
      8.17565      3.00295      2.44008        -1.298660      1.218011     -0.671378
      8.57954      3.07660      5.07935         0.343796     -0.108183      2.446040
     16.64846      8.10723      3.41208         1.136146      0.736981      1.831100
     16.49833      7.43178      0.83966        -0.238698      0.323990     -3.529612
      2.36773      3.10863      1.79722        -1.144448     -0.234200     -2.909685
      2.93654      3.00295      4.49645         0.221747      1.442343      0.141274
     11.08705      7.79215      2.95417        -1.544240      0.203367     -0.376121
     11.61749      7.73114      5.60320        -0.447224      1.883438      3.355325
      5.26426      4.56969      1.92599        -0.420684     -1.895720     -0.513519
      5.73031      4.58539      4.70063        -0.925173     -0.287402      1.960819
     13.77203      9.50654      0.52504        -0.104855     -0.346098     -3.718726
     13.99844      9.35889      3.46826        -1.248814      0.090577      2.984826
      0.15193      5.36127      4.10925        -0.762924     -1.706126      2.756792
     16.33272      4.37731      1.44953        -0.363740     -0.840672     -2.101726
      8.17565      9.35889      2.44008        -1.136842     -1.199935     -0.828322
      8.58045      9.33311      5.15017         0.539865      0.275263      2.402624
     11.08705      4.56969      2.95417        -1.811939     -0.147014     -1.298524
     11.61968      4.65774      5.60515        -0.502218     -1.828596      3.450674
      2.33687      9.30935      1.71024        -0.692100      0.073543     -2.663614
      2.98958      9.31146      4.21615        -0.938996     -2.652953      0.782468
    total drift:                                0.023584     -0.058333     -0.002329

  FREE ENERGIE OF THE ION-ELECTRON SYSTEM (eV)
  free  energy   TOTEN  =      -337.00310871 eV

  energy  without entropy=     -335.98305545  energy(sigma->0) =     -336.49308208