 vasp.5.4.4.18Apr17-6-g9f103f2a35 (build Aug 13 2019 17:33:20) gamma-only

 executed on             LinuxIFC date 2020.05.10  12:30:16

 INCAR:
 POTCAR:    PAW_PBE Ni_pv 06Sep2000
 POTCAR:    PAW_PBE S 06Sep2000
 POTCAR:    PAW_PBE Ni_pv 06Sep2000
   VRHFIN =Ni:

   TITEL  = PAW_PBE Ni_pv 06Sep2000
   POMASS =   58.690; ZVAL   =   16.000    mass and valenz
   ENMAX  =  367.986; ENMIN  =  275.989 eV

 POTCAR:    PAW_PBE S 06Sep2000
   VRHFIN =S : s2p4

   TITEL  = PAW_PBE S 06Sep2000
   POMASS =   32.066; ZVAL   =    6.000    mass and valenz
   ENMAX  =  258.689; ENMIN  =  194.016 eV

 Optimization of the real space projectors (new method)

 maximal supplied QI-value         = 18.90
 optimisation between [QCUT,QGAM] = [ 10.77, 21.73] = [ 32.49,132.25] Ry
 Optimized for a Real-space Cutoff    1.38 Angstroem

   l    n(q)    QCUT    max X(q) W(low)/X(q) W(high)/X(q)  e(spline)
   1      8    10.771     2.836    0.40E-04    0.29E-04    0.12E-06
   1      8    10.771     4.023    0.10E-03    0.48E-04    0.29E-06
   2      8    10.771    73.368    0.42E-03    0.97E-04    0.44E-06
   2      8    10.771    69.010    0.42E-03    0.99E-04    0.45E-06
   0      9    10.771    54.797    0.10E-03    0.56E-04    0.74E-07
   0      9    10.771    24.266    0.89E-04    0.49E-04    0.67E-07
 Optimization of the real space projectors (new method)

 maximal supplied QI-value         = 19.84
 optimisation between [QCUT,QGAM] = [ 10.71, 21.63] = [ 32.15,130.99] Ry
 Optimized for a Real-space Cutoff    1.19 Angstroem

   l    n(q)    QCUT    max X(q) W(low)/X(q) W(high)/X(q)  e(spline)
   0      8    10.715   187.594    0.41E-03    0.53E-04    0.66E-07
   0      8    10.715   164.243    0.41E-03    0.53E-04    0.65E-07
   1      7    10.715    67.533    0.19E-03    0.59E-03    0.68E-07
   1      7    10.715    50.729    0.19E-03    0.58E-03    0.67E-07
  PAW_PBE Ni_pv 06Sep2000               :
  PAW_PBE S 06Sep2000                   :

 POSCAR: Type_026 Type_126
  positions in cartesian coordinates
 exchange correlation table for  LEXCH =        8
   RHO(1)=    0.500       N(1)  =     2000
   RHO(2)=  100.500       N(2)  =     4000

 ion  position               nearest neighbor table
   1  0.439  0.464  0.163-  44 2.06  35 2.08  30 2.25  36 2.36  45 2.36   5 2.53  22 2.53
   2  0.498  0.443  0.331-  46 2.06  41 2.09  36 2.10  45 2.11  23 2.35
   3  0.159  0.976  0.098-  37 2.06  27 2.08  38 2.11  33 2.19   4 2.51
   4  0.210  0.977  0.240-  28 2.10  33 2.12  34 2.12  38 2.19  12 2.38   3 2.51
   5  0.439  0.200  0.163-  39 2.07  35 2.09  33 2.25  36 2.36  40 2.36   1 2.53  22 2.53
   6  0.466  0.179  0.320-  41 2.02  36 2.03  40 2.15  34 2.18  13 2.35
   7  0.159  0.697  0.093-  37 2.05  31 2.09  38 2.10  30 2.23   8 2.47
   8  0.202  0.687  0.234-  32 2.06  38 2.08  30 2.11  12 2.40   7 2.47
   9  0.131  0.332  0.139-  27 2.07  31 2.08  35 2.11  28 2.36  32 2.36  18 2.53  14 2.53
  10  0.184  0.333  0.298-  29 2.05  32 2.06  28 2.08  36 2.12  19 2.51
  11  0.454  0.831  0.097-  50 2.05  51 2.11  30 2.27  33 2.28  12 2.37
  12  0.377  0.828  0.225-  30 2.10  34 2.15  33 2.15  13 2.34  11 2.37   4 2.38   8 2.40  51 2.54

  13  0.535  0.966  0.270-  34 2.08  51 2.12  52 2.12  40 2.15  17 2.32  12 2.34   6 2.35
  14  0.939  0.464  0.163-  31 2.07  48 2.08  42 2.25  49 2.36  32 2.36  18 2.53   9 2.53
  15  0.981  0.474  0.322-  29 2.05  32 2.06  49 2.07  43 2.11  19 2.51
  16  0.655  0.985  0.105-  39 2.07  51 2.07  50 2.09  47 2.18
  17  0.738  0.964  0.247-  47 2.04  52 2.12  13 2.32  51 2.38  40 2.39  26 2.47  25 2.52
  18  0.939  0.200  0.163-  27 2.07  48 2.08  47 2.25  49 2.36  28 2.36  14 2.53   9 2.53
  19  0.991  0.212  0.324-  29 2.03  49 2.04  28 2.05  10 2.51  15 2.51
  20  0.658  0.682  0.103-  44 2.07  50 2.07  51 2.08  42 2.16
  21  0.715  0.700  0.253-  43 2.16  52 2.16  45 2.25  51 2.26  42 2.26  25 2.48
  22  0.631  0.332  0.139-  39 2.06  44 2.06  48 2.11  40 2.36  45 2.36   5 2.53   1 2.53
  23  0.682  0.332  0.319-  46 2.05  41 2.07  49 2.25  40 2.26  45 2.26   2 2.35
  24  0.954  0.851  0.095-  37 2.03  38 2.13  47 2.17  25 2.38  42 2.43
  25  0.913  0.804  0.228-  42 2.10  43 2.11  38 2.19  24 2.38  26 2.46  47 2.48  21 2.48  17 2.52

[...]

  52  0.656  0.849  0.338-  26 2.01  13 2.12  17 2.12  21 2.16

  LATTYP: Found a simple orthorhombic cell.
 ALAT       =     9.5784100000
 B/A-ratio  =     1.1751911892
 C/A-ratio  =     1.7949213288

  Lattice vectors:

 A1 = (   0.0000000000,  -9.5784100000,   0.0000000000)
 A2 = ( -11.2564630382,   0.0000000000,   0.0000000000)
 A3 = (   0.0000000000,   0.0000000000, -17.1924924047)

Analysis of symmetry for initial positions (statically):
 Subroutine PRICEL returns:
 Original cell was already a primitive cell.

 Routine SETGRP: Setting up the symmetry group for a
 simple orthorhombic supercell.

 Subroutine GETGRP returns: Found  1 space group operations
 (whereof  1 operations were pure point group operations)
 out of a pool of  8 trial point group operations.

The static configuration has the point symmetry C_1 .

Analysis of symmetry for dynamics (positions and initial velocities):
 Subroutine PRICEL returns:
 Original cell was already a primitive cell.

 Routine SETGRP: Setting up the symmetry group for a
 simple orthorhombic supercell.

 Subroutine GETGRP returns: Found  1 space group operations
 (whereof  1 operations were pure point group operations)
 out of a pool of  8 trial point group operations.

The dynamic configuration has the point symmetry C_1 .

 Subroutine INISYM returns: Found  1 space group operations
 (whereof  1 operations are pure point group operations),
 and found     1 'primitive' translations

 KPOINTS: gamma-point-only calculation. no periodi

Automatic generation of k-mesh.
Space group operators:
 irot       det(A)        alpha          n_x          n_y          n_z        tau_x        tau_y        tau_z
    1     1.000000     0.000000     1.000000     0.000000     0.000000     0.000000     0.000000     0.000000

 Subroutine IBZKPT returns following result:

 Found      1 irreducible k-points:

 Following reciprocal coordinates:
            Coordinates               Weight
  0.000000  0.000000  0.000000      1.000000

 Following cartesian coordinates:
            Coordinates               Weight
  0.000000  0.000000  0.000000      1.000000

 SYSTEM =  "Millerite NiS"
 POSCAR =  Type_026 Type_126

 Startparameter for this run:
   NWRITE =      2    write-flag & timer
   PREC   = normal    normal or accurate (medium, high low for compatibility)
   ISTART =      0    job   : 0-new  1-cont  2-samecut
   ICHARG =      2    charge: 1-file 2-atom 10-const
   ISPIN  =      1    spin polarized calculation?
   LNONCOLLINEAR =      F non collinear calculations
   LSORBIT =      F    spin-orbit coupling
   INIWAV =      1    electr: 0-lowe 1-rand  2-diag
   LASPH  =      F    aspherical Exc in radial PAW
   METAGGA=      F    non-selfconsistent MetaGGA calc.

 Electronic Relaxation 1
   ENCUT  =  450.0 eV  33.07 Ry    5.75 a.u.  19.47 16.57 29.74*2*pi/ulx,y,z
   ENINI  =  450.0     initial cutoff
   ENAUG  =  703.4 eV  augmentation charge cutoff
   NELM   =    100;   NELMIN=  2; NELMDL= -5     # of ELM steps
   EDIFF  = 0.1E-03   stopping-criterion for ELM
   LREAL  =      T    real-space projection
   NLSPLINE    = F    spline interpolate recip. space projectors
   LCOMPAT=      F    compatible to vasp.4.4
   GGA_COMPAT  = T    GGA compatible to vasp.4.4-vasp.4.6
   LMAXPAW     = -100 max onsite density
   LMAXMIX     =    2 max onsite mixed and CHGCAR
   VOSKOWN=      0    Vosko Wilk Nusair interpolation
   ROPT   =   -0.00050  -0.00050
 Ionic relaxation
   EDIFFG = 0.1E-02   stopping-criterion for IOM
   NSW    =      0    number of steps for IOM
   NBLOCK =      1;   KBLOCK =      1    inner block; outer block
   IBRION =     -1    ionic relax: 0-MD 1-quasi-New 2-CG
   NFREE  =      0    steps in history (QN), initial steepest desc. (CG)
   ISIF   =      2    stress and relaxation
   IWAVPR =     10    prediction:  0-non 1-charg 2-wave 3-comb
   ISYM   =      2    0-nonsym 1-usesym 2-fastsym
   LCORR  =      T    Harris-Foulkes like correction to forces

   POTIM  = 0.5000    time-step for ionic-motion
   TEIN   =    0.0    initial temperature
   TEBEG  =    0.0;   TEEND  =   0.0 temperature during run
   SMASS  =  -3.00    Nose mass-parameter (am)
   estimated Nose-frequenzy (Omega)   =  0.10E-29 period in steps =****** mass=  -0.290E-26a.u.
   SCALEE = 1.0000    scale energy and forces
   NPACO  =    256;   APACO  = 16.0  distance and # of slots for P.C.
   PSTRESS=    0.0 pullay stress

  Mass of Ions in am
   POMASS =  58.69 32.07
  Ionic Valenz
   ZVAL   =  16.00  6.00
  Atomic Wigner-Seitz radii
  virtual crystal weights
   VCA    =   1.00  1.00
   NELECT =     572.0000    total number of electrons
   NUPDOWN=      -1.0000    fix difference up-down

 DOS related values:
   EMIN   =  10.00;   EMAX   =-10.00  energy-range for DOS
   EFERMI =   0.00
   ISMEAR =     0;   SIGMA  =   0.20  broadening in eV -4-tet -1-fermi 0-gaus

 Electronic relaxation 2 (details)
   IALGO  =     38    algorithm
   LDIAG  =      T    sub-space diagonalisation (order eigenvalues)
   LSUBROT=      F    optimize rotation matrix (better conditioning)
   TURBO    =      0    0=normal 1=particle mesh
   IRESTART =      0    0=no restart 2=restart with 2 vectors
   NREBOOT  =      0    no. of reboots
   NMIN     =      0    reboot dimension
   EREF     =   0.00    reference energy to select bands
   IMIX   =      4    mixing-type and parameters
     AMIX     =   0.40;   BMIX     =  1.00
     AMIX_MAG =   1.60;   BMIX_MAG =  1.00
     AMIN     =   0.10
     WC   =   100.;   INIMIX=   1;  MIXPRE=   1;  MAXMIX= -45

 Intra band minimization:
   WEIMIN = 0.0000     energy-eigenvalue tresh-hold
   EBREAK =  0.73E-07  absolut break condition
   DEPER  =   0.30     relativ break condition

   TIME   =   0.40     timestep for ELM

  volume/ion in A,a.u.               =      35.65       240.56
  Fermi-wavevector in a.u.,A,eV,Ry     =   1.106272  2.090552 16.651337  1.223839
  Thomas-Fermi vector in A             =   2.242771

 Write flags
   LWAVE        =      F    write WAVECAR
   LDOWNSAMPLE  =      F    k-point downsampling of WAVECAR
   LCHARG       =      F    write CHGCAR
   LVTOT        =      F    write LOCPOT, total local potential
   LVHAR        =      F    write LOCPOT, Hartree potential only
   LELF         =      F    write electronic localiz. function (ELF)
   LORBIT       =      0    0 simple, 1 ext, 2 COOP (PROOUT), +10 PAW based schemes

 Dipole corrections
   LMONO  =      F    monopole corrections only (constant potential shift)
   LDIPOL =      F    correct potential (dipole corrections)
   IDIPOL =      0    1-x, 2-y, 3-z, 4-all directions
   EPSILON=  1.0000000 bulk dielectric constant

 Exchange correlation treatment:
   GGA     =    --    GGA type
   VOSKOWN=      0    Vosko Wilk Nusair interpolation
   LHFCALC =     F    Hartree Fock is set to
   LHFONE  =     F    Hartree Fock one center treatment
   AEXX    =    0.0000 exact exchange contribution

 Linear response parameters
   LEPSILON=     F    determine dielectric tensor
[...]
      26 -87.0770      27 -92.3203      28 -93.3790      29 -92.3867      30 -93.0328
      31 -92.3287      32 -93.4031      33 -93.2019      34 -92.4669      35 -92.2624
      36 -93.0429      37 -92.2840      38 -93.8203      39 -92.1653      40 -93.2976
      41 -92.8496      42 -92.9676      43 -92.7461      44 -92.4234      45 -93.4008
      46 -92.5993      47 -92.9563      48 -92.3173      49 -93.1825      50 -92.3791
      51 -93.8621      52 -92.5956

 E-fermi :  -0.1314     XC(G=0):  -5.3928     alpha+bet : -5.1393

 k-point     1 :       0.0000    0.0000    0.0000
  band No.  band energies     occupation
      1     -64.8183      2.00000
      2     -64.8020      2.00000
      3     -64.7914      2.00000
      4     -64.7537      2.00000
      5     -64.7453      2.00000
      6     -64.7328      2.00000
      7     -64.7327      2.00000
      8     -64.7087      2.00000
      9     -64.7061      2.00000
     10     -64.6817      2.00000
     11     -64.6709      2.00000
     12     -64.6640      2.00000
     13     -64.6465      2.00000
     14     -64.6463      2.00000
     15     -64.6269      2.00000
     16     -64.6088      2.00000
     17     -64.6055      2.00000
     18     -64.6025      2.00000
     19     -64.5975      2.00000
     20     -64.5883      2.00000
     21     -64.5878      2.00000
     22     -64.5755      2.00000
     23     -64.5728      2.00000
     24     -64.5698      2.00000
     25     -64.5681      2.00000
     26     -64.5445      2.00000
     27     -64.5415      2.00000
     28     -64.5366      2.00000
     29     -64.5163      2.00000
     30     -64.5055      2.00000
     31     -64.5016      2.00000
     32     -64.4975      2.00000
     33     -64.4851      2.00000
     34     -64.4795      2.00000
     35     -64.4735      2.00000
     36     -64.4721      2.00000
     37     -64.4700      2.00000
     38     -64.4633      2.00000
     39     -64.4577      2.00000
     40     -64.4388      2.00000
     41     -64.4361      2.00000
     42     -64.4288      2.00000
     43     -64.4235      2.00000
     44     -64.4092      2.00000
     45     -64.3962      2.00000
     46     -64.3730      2.00000
     47     -64.3728      2.00000
     48     -64.3630      2.00000
     49     -64.3584      2.00000
     50     -64.3407      2.00000
     51     -64.3307      2.00000
     52     -64.3227      2.00000
     53     -64.3048      2.00000
     54     -64.2950      2.00000
     55     -64.2642      2.00000
     56     -64.2541      2.00000
     57     -64.2423      2.00000
     58     -64.2131      2.00000
     59     -64.2024      2.00000
     60     -64.2007      2.00000
[...]
    330       4.9826      0.00000
    331       5.0392      0.00000
    332       5.1051      0.00000
    333       5.1232      0.00000
    334       5.1802      0.00000
    335       5.2403      0.00000
    336       5.2946      0.00000
    337       5.3708      0.00000
    338       5.4244      0.00000
    339       5.5944      0.00000
    340       5.6082      0.00000
    341       5.6505      0.00000
    342       5.7164      0.00000
    343       5.7315      0.00000
    344       5.7982      0.00000

 soft charge-density along one line, spin component           1
         0         1         2         3         4         5         6         7         8         9
 total charge-density along one line

------------------------ aborting loop because EDIFF is reached ----------------------------------------

  FORCE on cell =-STRESS in cart. coord.  units (eV):
  Direction    XX          YY          ZZ          XY          YZ          ZX
  Alpha Z  1046.73971  1046.73971  1046.73971
  Ewald  159775.61078158373.71996************  -619.90643  1195.69641   225.35713
  Hartree184255.88578183323.44430************  -499.53499   936.36830   193.92267
  E(xc)   -3649.78754 -3650.46449 -3654.70319     0.02197     0.35657     0.27258
  Local  ************************342866.05922  1117.40379 -2125.87703  -412.49505
  n-local  -410.45759  -420.81549  -426.27586    -0.60274     4.03860    -1.28306
  augment  4169.87110  4190.68562  4193.56123    -0.40990    -2.66069    -2.34169
  Kinetic  7996.84498  8014.01631  8076.38602    -0.19546    -5.15693    -4.92911
  Fock        0.00000     0.00000     0.00000     0.00000     0.00000     0.00000
  Total      86.38323    84.50543    98.97209    -3.22377     2.76523    -1.49654
  in kB      74.66306    73.04004    85.54391    -2.78638     2.39005    -1.29350

 VOLUME and BASIS-vectors are now :
  energy-cutoff  :      450.00
  volume of cell :     1853.68
      direct lattice vectors                 reciprocal lattice vectors
    11.256463038  0.000000000  0.000000000     0.088837852  0.000000000  0.000000000
     0.000000000  9.578410000  0.000000000     0.000000000  0.104401461  0.000000000
     0.000000000  0.000000000 17.192492405     0.000000000  0.000000000  0.058164923

  length of vectors
    11.256463038  9.578410000 17.192492405     0.088837852  0.104401461  0.058164923

 FORCES acting on ions
    electron-ion (+dipol)            ewald-force                    non-local-force                 convergence-correction
   0.409E+03 -.423E+03 0.128E+04   -.411E+03 0.425E+03 -.129E+04   0.183E+01 -.197E+01 0.397E+01   -.196E-01 -.164E-01 -.641E-02
   0.766E+03 -.912E+03 -.315E+04   -.772E+03 0.915E+03 0.315E+04   0.368E+01 -.227E+01 -.463E-01   -.877E-01 -.227E-01 -.696E-01
   -.264E+03 -.558E+03 0.304E+04   0.266E+03 0.566E+03 -.304E+04   -.147E+01 -.711E+01 0.529E+01   0.585E-01 -.299E-01 -.107E-01
   0.406E+03 -.159E+03 -.173E+04   -.406E+03 0.160E+03 0.173E+04   -.108E+01 -.170E+01 -.271E+01   0.986E-01 0.317E-01 -.113E+00
   0.450E+03 0.850E+02 0.158E+04   -.453E+03 -.873E+02 -.158E+04   0.199E+01 0.177E+01 0.521E+01   -.486E-01 -.600E-02 -.105E-01
   0.526E+03 0.214E+03 -.323E+04   -.528E+03 -.219E+03 0.324E+04   0.193E+01 0.370E+01 -.345E+01   -.780E-01 0.687E-01 -.789E-01
   -.264E+03 0.590E+03 0.318E+04   0.264E+03 -.596E+03 -.318E+04   0.458E+00 0.593E+01 0.444E+01   0.447E-01 0.157E-01 -.430E-01
   -.294E+02 0.317E+03 -.170E+04   0.311E+02 -.318E+03 0.170E+04   -.176E+01 0.626E+00 0.464E+00   0.777E-01 0.225E-02 -.119E+00
   -.464E+03 -.314E+02 0.218E+04   0.468E+03 0.315E+02 -.219E+04   -.378E+01 0.129E+00 0.627E+01   0.832E-01 0.788E-02 -.205E-01
   -.633E+03 -.101E+03 -.256E+04   0.640E+03 0.101E+03 0.256E+04   -.502E+01 0.131E+00 -.300E+01   0.940E-01 0.146E-02 -.709E-01
   0.426E+03 0.129E+03 0.332E+04   -.429E+03 -.129E+03 -.333E+04   0.185E+01 -.224E+00 0.449E+01   -.577E-01 -.144E-01 -.170E-01
   0.369E+02 0.598E+03 -.119E+04   -.390E+02 -.601E+03 0.119E+04   0.257E+01 0.242E+01 -.282E+01   -.320E-01 0.182E-01 -.122E+00
   0.229E+03 0.234E+03 -.215E+04   -.232E+03 -.235E+03 0.215E+04   0.284E+01 0.144E+01 -.448E+01   -.217E+00 0.593E-01 -.141E+00
   0.308E+03 -.271E+03 0.149E+04   -.310E+03 0.275E+03 -.149E+04   0.236E+01 -.261E+01 0.478E+01   0.362E-01 0.368E-01 -.631E-01
   0.672E+01 -.596E+03 -.316E+04   -.836E+01 0.601E+03 0.317E+04   0.857E+00 -.296E+01 -.345E+01   0.841E-01 -.840E-01 -.818E-01
   -.326E+03 -.490E+03 0.310E+04   0.327E+03 0.497E+03 -.311E+04   -.693E+00 -.682E+01 0.613E+01   -.842E-01 -.252E-01 -.792E-01
   -.429E+03 -.691E+03 -.124E+04   0.436E+03 0.693E+03 0.124E+04   -.669E+01 -.359E+00 -.386E+01   -.203E+00 0.157E+00 -.435E+00
   0.314E+03 0.318E+03 0.135E+04   -.317E+03 -.322E+03 -.135E+04   0.210E+01 0.272E+01 0.455E+01   0.670E-01 0.313E-01 -.935E-01
   0.217E+03 0.884E+03 -.323E+04   -.218E+03 -.886E+03 0.323E+04   0.632E+00 -.302E-01 -.249E+01   0.131E+00 0.141E+00 -.812E-01
   -.246E+03 0.560E+03 0.300E+04   0.249E+03 -.568E+03 -.301E+04   -.124E+01 0.695E+01 0.625E+01   -.462E-01 -.155E-01 -.305E-01
   0.344E+03 0.654E+03 -.137E+04   -.346E+03 -.656E+03 0.137E+04   0.158E+01 0.193E+01 -.276E+01   -.203E+00 -.268E+00 -.371E+00
   -.506E+03 -.907E+02 0.216E+04   0.511E+03 0.904E+02 -.217E+04   -.371E+01 0.255E+00 0.461E+01   -.651E-01 0.137E-01 -.162E-01
   -.718E+03 0.180E+03 -.270E+04   0.726E+03 -.184E+03 0.269E+04   -.570E+01 0.226E+01 0.485E+00   -.960E-01 0.387E-01 -.912E-01
   0.447E+03 -.387E+02 0.323E+04   -.450E+03 0.390E+02 -.324E+04   0.265E+01 -.623E+00 0.470E+01   0.440E-01 -.399E-01 -.787E-01
   -.716E+03 -.804E+02 -.848E+03   0.717E+03 0.824E+02 0.853E+03   -.117E+01 -.536E+00 -.401E+01   0.185E+00 -.121E+00 -.540E+00
   -.584E+03 -.305E+03 -.422E+04   0.584E+03 0.306E+03 0.422E+04   0.115E+01 0.181E+00 0.329E+01   -.600E-01 -.882E-01 -.274E+00
   0.246E+02 -.602E+02 0.149E+04   -.256E+02 0.606E+02 -.150E+04   0.125E+01 -.311E+00 0.353E+01   0.328E-01 -.242E-02 -.121E-01
   -.626E+02 0.202E+03 -.325E+03   0.642E+02 -.204E+03 0.326E+03   -.150E+01 0.536E+00 -.149E+01   0.593E-01 0.112E-01 -.295E-01
   -.166E+03 -.391E+02 -.182E+04   0.166E+03 0.394E+02 0.183E+04   -.125E+00 -.392E+00 -.500E+00   0.327E-01 0.476E-02 -.267E-01
   -.662E+02 0.271E+03 0.670E+03   0.661E+02 -.272E+03 -.671E+03   0.976E+00 0.261E+00 0.551E+00   0.403E-02 0.199E-01 -.251E-01
   0.128E+02 0.378E+02 0.146E+04   -.140E+02 -.380E+02 -.147E+04   0.124E+01 0.441E+00 0.380E+01   0.213E-01 0.680E-02 -.884E-02
   -.154E+03 -.177E+03 -.322E+03   0.156E+03 0.180E+03 0.322E+03   -.167E+01 -.184E+01 -.148E+01   0.283E-01 -.212E-01 -.272E-01
   0.171E+00 -.213E+03 0.775E+03   0.787E+00 0.215E+03 -.778E+03   -.358E+00 -.989E+00 0.312E+00   -.621E-03 -.377E-02 -.625E-02
   0.269E+03 0.100E+03 -.143E+04   -.271E+03 -.100E+03 0.144E+04   0.630E+00 -.871E-01 -.295E+01   -.160E-01 0.164E-01 -.449E-01
   0.107E+03 -.294E+02 0.120E+04   -.107E+03 0.296E+02 -.121E+04   -.127E+01 -.695E-01 0.388E+01   -.140E-02 -.134E-01 0.563E-02
   0.265E+03 -.152E+03 -.600E+03   -.268E+03 0.152E+03 0.601E+03   0.133E+01 0.842E+00 -.176E+01   0.336E-02 -.501E-02 -.152E-01
   0.410E+01 0.815E+01 0.185E+04   -.455E+01 -.826E+01 -.186E+04   0.281E+00 -.522E-01 0.127E+01   0.704E-02 -.559E-02 0.124E-01
   0.799E+02 -.202E+02 -.224E+02   -.799E+02 0.198E+02 0.281E+02   -.139E+01 0.558E+00 -.249E+01   0.395E-01 0.395E-02 -.574E-01
   0.241E+02 -.636E+02 0.158E+04   -.248E+02 0.635E+02 -.158E+04   0.769E+00 -.115E+00 0.247E+01   -.310E-01 0.887E-02 0.407E-02
   -.239E+03 -.645E+02 -.240E+03   0.242E+03 0.646E+02 0.238E+03   -.144E+01 0.392E-01 0.216E+01   -.571E-01 0.429E-01 -.341E-01
   0.916E+00 0.120E+03 -.185E+04   -.163E+01 -.124E+03 0.185E+04   0.985E+00 0.351E+01 -.230E+01   -.386E-01 0.230E-01 -.258E-01
   -.536E+02 0.219E+03 0.805E+03   0.542E+02 -.220E+03 -.807E+03   0.349E-01 0.466E+00 0.735E+00   -.573E-02 -.630E-02 -.477E-01
   -.174E+03 0.177E+03 -.121E+04   0.175E+03 -.178E+03 0.121E+04   0.297E+00 0.770E+00 -.731E+00   0.555E-01 -.237E+00 -.146E+00
   0.329E+02 0.278E+02 0.151E+04   -.338E+02 -.277E+02 -.151E+04   0.115E+01 0.311E+00 0.318E+01   -.469E-02 0.961E-02 -.233E-02
   -.370E+02 -.160E+03 -.229E+03   0.387E+02 0.162E+03 0.226E+03   -.136E+01 -.167E+01 0.226E+01   -.279E-01 -.144E-01 -.217E-01
   -.107E+03 -.305E+03 -.160E+04   0.109E+03 0.309E+03 0.160E+04   -.171E+01 -.221E+01 -.386E+00   -.586E-01 -.568E-01 -.299E-01
   -.110E+03 -.215E+03 0.729E+03   0.110E+03 0.216E+03 -.730E+03   0.193E+01 -.298E+00 0.448E+00   0.156E-01 -.118E-01 -.749E-01
   0.869E+02 -.712E+01 0.121E+04   -.870E+02 0.717E+01 -.121E+04   -.903E+00 -.199E+00 0.430E+01   -.177E-01 0.167E-01 -.230E-01
   0.230E+03 0.526E+02 -.557E+03   -.233E+03 -.529E+02 0.557E+03   0.969E-01 -.174E+00 -.132E+01   -.236E-02 0.244E-01 -.178E-01
   -.542E+02 0.907E+01 0.183E+04   0.543E+02 -.922E+01 -.184E+04   0.547E-01 0.288E+00 0.219E+01   -.291E-01 -.140E-01 0.862E-02
   0.825E+02 0.166E+03 0.190E+03   -.836E+02 -.168E+03 -.186E+03   -.335E-01 0.103E+01 -.120E+01   -.551E-01 -.258E-01 -.628E-01
   0.302E+03 0.959E+02 -.158E+04   -.305E+03 -.977E+02 0.159E+04   0.137E+01 0.148E+01 -.236E+01   -.269E+00 -.148E-01 -.878E-01
   0.398E+01 -.496E+01 -.400E+02   -.267E-11 -.497E-12 0.182E-11   -.320E+01 0.535E+01 0.440E+02   -.610E+00 -.350E+00 -.385E+01

 POSITION                                       TOTAL-FORCE (eV/Angst)
      4.94536      4.44331      2.79952        -0.767502      0.840418      1.357865
      5.60259      4.24577      5.69065        -1.967844      1.249682     -0.202963
      1.78595      9.34931      1.68222         0.756697      0.070915     -0.027324
      2.36021      9.36209      4.12991        -0.847893     -0.289331      0.372701
      4.94536      1.91264      2.79952        -0.426628     -0.581806      1.699165
      5.24992      1.71713      5.49371        -0.597499     -1.515440      0.134698
      1.79277      6.67803      1.60558         0.669836     -0.187217     -0.345476
      2.27090      6.57657      4.02182         0.076171      0.022539      0.808198
      1.47054      3.17797      2.39204         0.706931      0.145714      2.319287
      2.07555      3.19096      5.12568         1.545137     -0.195571      0.297945
      5.11095      7.96033      1.66070        -0.850139     -0.128671     -0.199319
      4.24792      7.93182      3.87288         0.384691     -0.557721      0.513688
      6.02019      9.25209      4.63881         0.167604      0.410292      0.338236
     10.57359      4.44331      2.79952        -0.324072      0.697711      1.594166
     11.03988      4.54032      5.53030        -0.706176      1.691112      0.732102
      7.36755      9.43926      1.80786         0.788876     -0.086420     -0.321726
      8.31007      9.23510      4.24936        -0.298713      1.143160      0.040124
     10.57359      1.91264      2.79952        -0.427354     -0.847265      1.938504
     11.15736      2.03031      5.57622        -0.719122     -2.011023      0.618462
      7.40557      6.53264      1.77347         0.777590     -0.432640     -0.419291
      8.05131      6.70184      4.34179        -0.237730     -0.930981     -1.048617
      7.09877      3.17797      2.39204         0.690763     -0.057042      1.670359
      7.68244      3.17797      5.47658         2.333845     -1.545936     -1.684916
     10.74263      8.15324      1.63373        -0.860619     -0.270840      0.464893
     10.28200      7.70199      3.92509         0.261745      1.273671     -0.042410
      9.36240      8.10254      6.17251         1.013927      1.047273      0.843060
      0.74022      1.53977      1.34943         0.216983      0.083721     -3.203410
      1.25497      1.56674      4.10795         0.137341     -1.097093     -0.689790
      0.87225      3.34069      6.77824         0.710266     -0.087661      3.852852
      3.77725      6.35595      2.56568         0.912882     -1.134629     -0.664409
      0.78106      4.86125      1.38985         0.092912      0.238644     -3.134708
      1.25497      4.78920      4.10795         0.306710      1.112759     -1.296217
      3.77725      9.57841      2.56568         0.595601      0.771551     -2.166638
      4.08018      9.45904      5.37382        -1.098975     -0.303974      2.880841
      3.53406      3.18756      1.93872        -0.877657      0.095838     -2.510641
      4.14113      3.17797      4.62682        -1.655035      1.067364     -0.619512
      1.01160      8.04758      0.29300        -0.164129     -0.167494     -4.279715
      1.03518      7.96718      3.08454        -1.358822      0.088648      3.113275
      6.34721      1.59295      1.31108         0.024541     -0.230720     -3.372940
      6.88320      1.56674      4.10795         1.935996      0.202457      0.161555
      6.28291      2.70605      6.92640         0.228336     -0.534063      3.769363
      9.40548      6.35595      2.56568         0.658641     -0.779371     -1.501969
      9.85906      6.29160      5.44168         1.089169     -0.475135      1.696398
      6.36077      4.79708      1.34735         0.235082      0.442044     -2.498013
      6.88320      4.78920      4.10795         0.309114      0.501748     -0.774024
      7.35429      4.87843      6.58042         0.957543      1.916615      2.457873
      9.40548      9.57841      2.56568         1.427972      0.844393     -0.807822
      9.16523      3.17961      1.94248        -1.016388     -0.134443     -2.272038
      9.76936      3.17797      4.62682        -2.513513     -0.429699     -0.808227
      6.75615      7.98453      0.44496         0.077411      0.124692     -3.815474
      6.66341      7.96718      3.08454        -1.206845     -0.648324      2.206936
      7.38751      8.13267      5.81208        -1.167658     -0.422446      2.825044
    total drift:                                0.170032      0.037751      0.148744

  FREE ENERGIE OF THE ION-ELECTRON SYSTEM (eV)
  free  energy   TOTEN  =      -248.64921139 eV

  energy  without entropy=     -247.88014687  energy(sigma->0) =     -248.26467913