 vasp.5.4.4.18Apr17-6-g9f103f2a35 (build Aug 13 2019 17:33:20) gamma-only

 executed on             LinuxIFC date 2020.05.11  03:54:13

 INCAR:
 POTCAR:    PAW_PBE Ni_pv 06Sep2000
 POTCAR:    PAW_PBE S 06Sep2000
 POTCAR:    PAW_PBE Ni_pv 06Sep2000
   VRHFIN =Ni:

   TITEL  = PAW_PBE Ni_pv 06Sep2000
   POMASS =   58.690; ZVAL   =   16.000    mass and valenz
   ENMAX  =  367.986; ENMIN  =  275.989 eV

 POTCAR:    PAW_PBE S 06Sep2000
   VRHFIN =S : s2p4

   TITEL  = PAW_PBE S 06Sep2000
   POMASS =   32.066; ZVAL   =    6.000    mass and valenz
   ENMAX  =  258.689; ENMIN  =  194.016 eV

 Optimization of the real space projectors (new method)

 maximal supplied QI-value         = 18.90
 optimisation between [QCUT,QGAM] = [ 10.77, 21.73] = [ 32.49,132.25] Ry
 Optimized for a Real-space Cutoff    1.38 Angstroem

   l    n(q)    QCUT    max X(q) W(low)/X(q) W(high)/X(q)  e(spline)
   1      8    10.771     2.836    0.40E-04    0.29E-04    0.12E-06
   1      8    10.771     4.023    0.10E-03    0.48E-04    0.29E-06
   2      8    10.771    73.368    0.42E-03    0.97E-04    0.44E-06
   2      8    10.771    69.010    0.42E-03    0.99E-04    0.45E-06
   0      9    10.771    54.797    0.10E-03    0.56E-04    0.74E-07
   0      9    10.771    24.266    0.89E-04    0.49E-04    0.67E-07
 Optimization of the real space projectors (new method)

 maximal supplied QI-value         = 19.84
 optimisation between [QCUT,QGAM] = [ 10.71, 21.63] = [ 32.15,130.99] Ry
 Optimized for a Real-space Cutoff    1.19 Angstroem

   l    n(q)    QCUT    max X(q) W(low)/X(q) W(high)/X(q)  e(spline)
   0      8    10.715   187.594    0.41E-03    0.53E-04    0.66E-07
   0      8    10.715   164.243    0.41E-03    0.53E-04    0.65E-07
   1      7    10.715    67.533    0.19E-03    0.59E-03    0.68E-07
   1      7    10.715    50.729    0.19E-03    0.58E-03    0.67E-07
  PAW_PBE Ni_pv 06Sep2000               :
  PAW_PBE S 06Sep2000                   :

 POSCAR: Type_052 Type_152
  positions in cartesian coordinates
 exchange correlation table for  LEXCH =        8
   RHO(1)=    0.500       N(1)  =     2000
   RHO(2)=  100.500       N(2)  =     4000

 ion  position               nearest neighbor table
   1  0.261  0.479  0.291-  79 2.25  63 2.26  87 2.26  59 2.36  64 2.36   8 2.53  24 2.53
   2  0.355  0.385  0.419-  57 2.08  71 2.25  59 2.26  64 2.26  80 2.27  65 2.36   3 2.44   9 2.53
                            25 2.53
   3  0.528  0.242  0.486-  71 2.05  57 2.05  65 2.07  67 2.08  19 2.43   2 2.44  25 2.52
   4  0.004  0.192  0.093-  68 1.98  88 2.03  69 2.07   5 2.35  32 2.45  21 2.48
   5  0.167  0.073  0.162-  60 2.11  69 2.25  88 2.26   4 2.35  61 2.36  89 2.36  38 2.53  33 2.53

   6  0.034  0.054  0.491-  83 2.06  54 2.06  78 2.09  84 2.11  16 2.51
   7  0.274  0.333  0.128-  60 2.11  55 2.12  62 2.25  56 2.36  63 2.36  39 2.48  13 2.53  31 2.53

   8  0.368  0.239  0.257-  61 2.25  63 2.26  56 2.26  64 2.36  66 2.36   1 2.53  24 2.53
   9  0.462  0.145  0.385-  67 2.15  85 2.25  64 2.26  66 2.26  65 2.36   2 2.53  25 2.53
  10  0.000  0.372  0.257-  63 2.25  69 2.26 100 2.26  53 2.36  72 2.36  14 2.53  22 2.53
  11  0.094  0.278  0.385-  58 2.06  64 2.25  53 2.26  72 2.26  54 2.36  23 2.53  15 2.53
  12  0.182  0.201  0.494-  54 2.04  83 2.06  58 2.09  65 2.11  16 2.46
  13  0.406  0.465  0.128-  55 2.11  75 2.25  86 2.26  56 2.36  87 2.36  31 2.53   7 2.53
  14  0.761  0.479  0.291-  92 2.25  76 2.26 100 2.26  72 2.36  77 2.36  22 2.53  10 2.53
  15  0.855  0.385  0.419-  70 2.09  78 2.19  58 2.20  93 2.25  72 2.26  77 2.26  16 2.52  23 2.53
                            11 2.53
  16  0.944  0.294  0.518-  70 1.99  83 2.06  78 2.08  58 2.09  12 2.46   6 2.51  15 2.52
  17  0.574  0.166  0.061-  73 2.06  55 2.07 101 2.07  27 2.53
  18  0.667  0.073  0.162-  56 2.25  73 2.26 101 2.26  74 2.36 102 2.36  51 2.53  46 2.53
  19  0.541  0.021  0.481-  96 2.04  97 2.05  67 2.12  65 2.18   3 2.43
  20  0.718  0.308  0.032-  73 2.09  68 2.20  21 2.34  75 2.39  52 2.44
  21  0.774  0.333  0.128-  73 2.25  75 2.26  68 2.26  20 2.34  69 2.36  76 2.36   4 2.48  26 2.53
                            44 2.53
  22  0.868  0.239  0.257-  74 2.25  76 2.26  69 2.26  77 2.36  53 2.36  14 2.53  10 2.53
  23  0.962  0.145  0.385-  78 2.07  98 2.25  77 2.26  53 2.26  54 2.36  15 2.53  11 2.53
  24  0.500  0.372  0.257-  76 2.25  56 2.26  87 2.26  66 2.36  59 2.36   1 2.53   8 2.53
  25  0.594  0.278  0.385-  71 2.09  67 2.12  77 2.25  66 2.26  59 2.26   3 2.52   9 2.53   2 2.53

[...]

  47  0.868  0.739  0.257- 100 2.25 102 2.26  95 2.26 103 2.36  79 2.36  40 2.53  36 2.53
  48  0.962  0.645  0.385- 104 2.05  80 2.13  72 2.25 103 2.26  79 2.26  41 2.53  37 2.53
  49  0.500  0.872  0.257- 102 2.25  82 2.26  61 2.26  92 2.36  85 2.36  28 2.53  34 2.53
  50  0.594  0.778  0.385-  97 2.05  93 2.11 103 2.25  92 2.26  85 2.26  35 2.53  29 2.53
  51  0.906  0.965  0.128-  88 2.25  94 2.26  73 2.26  95 2.36  74 2.36  18 2.53  46 2.53
  52  0.716  0.525  0.044-  68 2.01  99 2.04  75 2.06  20 2.44  43 2.45
  53  0.073  0.167  0.306-  28 2.25  11 2.26  23 2.26  10 2.36  22 2.36
  54  0.167  0.073  0.435-  12 2.04   6 2.06  29 2.25  11 2.36  23 2.36
  55  0.399  0.340  0.061-  39 2.03  17 2.07  13 2.11   7 2.12
  56  0.479  0.261  0.178-  18 2.25   8 2.26  24 2.26   7 2.36  13 2.36
  57  0.371  0.420  0.507-   3 2.05   2 2.08  71 2.11  65 2.50
  58  0.031  0.380  0.463-  11 2.06  16 2.09  12 2.09  15 2.20  70 2.68
  59  0.436  0.472  0.350-  35 2.25   2 2.26  25 2.26   1 2.36  24 2.36  71 2.57
  60  0.252  0.162  0.106-  32 2.03   5 2.11   7 2.11  38 2.18
  61  0.342  0.066  0.221-   8 2.25  28 2.26  49 2.26   5 2.36  38 2.36
  62  0.075  0.497  0.102-  39 2.08  31 2.11  26 2.16   7 2.25  30 2.25
  63  0.174  0.397  0.221-  10 2.25   8 2.26   1 2.26   7 2.36  31 2.36
  64  0.268  0.303  0.350-  11 2.25   2 2.26   9 2.26   1 2.36   8 2.36
  65  0.362  0.209  0.478-   3 2.07  12 2.11  19 2.18   2 2.36   9 2.36  57 2.50
  66  0.573  0.167  0.306-  40 2.25  25 2.26   9 2.26  24 2.36   8 2.36
  67  0.648  0.094  0.428-   3 2.08  25 2.12  19 2.12   9 2.15  41 2.47  96 2.68
  68  0.885  0.355  0.050-   4 1.98  52 2.01  20 2.20  26 2.26  21 2.26
  69  0.979  0.261  0.178-   4 2.07   5 2.25  22 2.26  10 2.26  21 2.36  26 2.36
  70  0.782  0.462  0.501-  16 1.99  15 2.09  93 2.57  58 2.68  78 2.71
  71  0.527  0.412  0.454-   3 2.05  25 2.09  57 2.11   2 2.25  59 2.57
  72  0.936  0.472  0.350-  48 2.25  15 2.26  11 2.26  14 2.36  10 2.36
  73  0.748  0.160  0.093-  27 2.02  17 2.06  20 2.09  21 2.25  18 2.26  51 2.26
  74  0.842  0.066  0.221-  22 2.25  40 2.26  36 2.26  18 2.36  51 2.36
  75  0.580  0.491  0.093-  52 2.06  13 2.25  21 2.26  44 2.26  20 2.39  43 2.44
  76  0.674  0.397  0.221-  24 2.25  22 2.26  14 2.26  21 2.36  44 2.36
  77  0.768  0.303  0.350-  25 2.25  15 2.26  23 2.26  14 2.36  22 2.36
  78  0.857  0.210  0.462-  23 2.07  16 2.08   6 2.09  15 2.19  70 2.71
  79  0.073  0.667  0.306-   1 2.25  37 2.26  48 2.26  36 2.36  47 2.36  80 2.61
  80  0.164  0.577  0.410-  37 2.12  48 2.13   2 2.27  79 2.61
  81  0.375  0.858  0.054-  32 1.98  43 2.00  33 2.12  38 2.20
  82  0.479  0.761  0.178-  43 2.10  44 2.25  34 2.26  49 2.26  33 2.36  38 2.36
  83  0.097  0.135  0.558-  16 2.06   6 2.06  12 2.06
  84  0.023  0.880  0.464-  42 2.05   6 2.11  37 2.11  41 2.14
  85  0.436  0.972  0.350-   9 2.25  29 2.26  50 2.26  28 2.36  49 2.36
  86  0.248  0.660  0.093-  39 2.05  30 2.18  33 2.25  31 2.26  13 2.26
  87  0.342  0.566  0.221-  34 2.25   1 2.26  24 2.26  31 2.36  13 2.36
  88  0.080  0.991  0.093-   4 2.03  32 2.06  51 2.25  33 2.26   5 2.26
  89  0.174  0.897  0.221-  36 2.25  34 2.26  28 2.26  33 2.36   5 2.36
  90  0.268  0.803  0.350-  37 2.25  29 2.26  35 2.26  28 2.36  34 2.36  91 2.78
  91  0.371  0.721  0.461-  35 2.00  29 2.02  97 2.70  90 2.78
  92  0.573  0.667  0.306-  14 2.25  50 2.26  35 2.26  49 2.36  34 2.36  93 2.52
  93  0.668  0.574  0.405-  50 2.11  35 2.13  15 2.25  92 2.52  70 2.57
  94  0.885  0.855  0.050-  30 1.99  45 2.03  27 2.05  51 2.26  46 2.26
  95  0.979  0.761  0.178-  30 2.12  31 2.25  47 2.26  36 2.26  46 2.36  51 2.36
  96  0.706  0.969  0.532-  42 1.98  19 2.04  67 2.68
  97  0.524  0.850  0.467-  19 2.05  50 2.05  29 2.07  91 2.70
  98  0.936  0.972  0.350-  23 2.25  41 2.26  37 2.26  40 2.36  36 2.36
  99  0.748  0.660  0.093-  52 2.04  43 2.11  46 2.25  44 2.26  26 2.26
 100  0.842  0.566  0.221-  47 2.25  14 2.26  10 2.26  44 2.36  26 2.36
 101  0.580  0.991  0.093-  45 2.00  17 2.07  38 2.25  46 2.26  18 2.26
 102  0.674  0.897  0.221-  49 2.25  47 2.26  40 2.26  46 2.36  18 2.36
 103  0.768  0.803  0.350-  50 2.25  41 2.26  48 2.26  40 2.36  47 2.36
 104  0.890  0.717  0.467-  42 2.03  48 2.05  41 2.07

  LATTYP: Found a base centered orthorhombic cell.
 ALAT       =    11.8257374459
 B/A-ratio  =     1.6199260857
 C/A-ratio  =     1.9350716598

  Lattice vectors:

 A1 = (  11.2564630382,   0.0000000000,   0.0000000000)
 A2 = (  -5.0445621212, -10.0628203371,   0.0000000000)
 A3 = (   0.0000000000,   0.0000000000, -22.8836493875)

Analysis of symmetry for initial positions (statically):
 Subroutine PRICEL returns:
 Original cell was already a primitive cell.

 Routine SETGRP: Setting up the symmetry group for a
 base centered orthorhombic supercell.

 Subroutine GETGRP returns: Found  1 space group operations
 (whereof  1 operations were pure point group operations)
 out of a pool of  8 trial point group operations.

The static configuration has the point symmetry C_1 .

Analysis of symmetry for dynamics (positions and initial velocities):
 Subroutine PRICEL returns:
 Original cell was already a primitive cell.

 Routine SETGRP: Setting up the symmetry group for a
 base centered orthorhombic supercell.

 Subroutine GETGRP returns: Found  1 space group operations
 (whereof  1 operations were pure point group operations)
 out of a pool of  8 trial point group operations.

The dynamic configuration has the point symmetry C_1 .

 Subroutine INISYM returns: Found  1 space group operations
 (whereof  1 operations are pure point group operations),
 and found     1 'primitive' translations

 KPOINTS: gamma-point-only calculation. no periodi

Automatic generation of k-mesh.
Space group operators:
 irot       det(A)        alpha          n_x          n_y          n_z        tau_x        tau_y        tau_z
    1     1.000000     0.000001     1.000000     0.000000     0.000000     0.000000     0.000000     0.000000

 Subroutine IBZKPT returns following result:

 Found      1 irreducible k-points:

 Following reciprocal coordinates:
            Coordinates               Weight
  0.000000  0.000000  0.000000      1.000000

 Following cartesian coordinates:
            Coordinates               Weight
  0.000000  0.000000  0.000000      1.000000

 SYSTEM =  "Millerite NiS"
 POSCAR =  Type_052 Type_152

 Startparameter for this run:
   NWRITE =      2    write-flag & timer
   PREC   = normal    normal or accurate (medium, high low for compatibility)
   ISTART =      0    job   : 0-new  1-cont  2-samecut
   ICHARG =      2    charge: 1-file 2-atom 10-const
   ISPIN  =      1    spin polarized calculation?
[...]
     0.000000000  0.000000000 22.883649388     0.000000000  0.000000000  0.043699324

  length of vectors
    11.256463038 11.256463038 22.883649388     0.099375718  0.099375718  0.043699324

 FORCES acting on ions
    electron-ion (+dipol)            ewald-force                    non-local-force                 convergence-correction
   0.231E+03 -.444E+03 -.108E+04   -.231E+03 0.445E+03 0.107E+04   0.414E+00 -.909E+00 0.700E+00   -.355E-02 0.724E-03 0.629E-01
   0.456E+03 -.940E+03 -.406E+04   -.462E+03 0.942E+03 0.405E+04   0.526E+01 -.117E+01 0.435E+01   -.461E-02 -.127E-02 -.331E-02
   -.510E+03 -.292E+03 -.605E+04   0.515E+03 0.286E+03 0.605E+04   -.438E+01 0.446E+01 -.492E+01   0.375E-02 -.843E-02 -.273E-01
   -.265E+03 -.552E+02 0.478E+04   0.265E+03 0.525E+02 -.478E+04   -.885E-01 0.268E+01 0.385E+01   0.142E-02 0.121E-01 0.672E-01
   0.309E+02 -.215E+03 0.184E+04   -.312E+02 0.214E+03 -.184E+04   0.376E+00 0.306E+00 -.334E+01   0.283E-02 0.100E-02 0.947E-01
   0.167E+03 0.881E+03 -.544E+04   -.170E+03 -.887E+03 0.544E+04   0.102E+01 0.495E+01 -.242E+01   -.511E-02 -.133E-02 -.206E-01
   0.376E+03 0.563E+03 0.348E+04   -.378E+03 -.565E+03 -.348E+04   0.863E+00 0.187E+01 -.884E-01   -.619E-02 -.155E-01 0.853E-01
   0.254E+03 0.418E+03 0.766E+02   -.255E+03 -.419E+03 -.775E+02   0.885E+00 0.547E+00 0.991E+00   -.133E-02 -.408E-02 0.674E-01
   0.366E+03 0.401E+03 -.266E+04   -.370E+03 -.404E+03 0.265E+04   0.251E+01 0.289E+01 0.288E+01   0.609E-02 0.253E-02 0.191E-01
   -.558E+03 -.748E+02 0.291E+01   0.560E+03 0.764E+02 -.286E+01   -.103E+01 -.134E+01 -.784E-01   -.437E-02 -.554E-02 0.637E-01
   -.583E+03 -.174E+03 -.274E+04   0.585E+03 0.174E+03 0.273E+04   -.224E+01 0.184E-01 0.232E+01   -.268E-02 0.420E-02 0.151E-01
   -.772E+03 -.303E+02 -.551E+04   0.777E+03 0.293E+02 0.551E+04   -.259E+01 0.167E+01 -.302E+01   0.395E-03 -.691E-04 -.165E-01
   -.562E+03 -.153E+03 0.339E+04   0.564E+03 0.154E+03 -.339E+04   -.151E+01 -.668E+00 0.910E-01   0.801E-02 -.781E-03 0.842E-01
   0.247E+03 -.455E+03 -.110E+04   -.247E+03 0.455E+03 0.109E+04   0.237E+00 -.703E+00 0.174E+01   0.708E-02 -.977E-02 0.515E-01
   0.405E+03 -.865E+03 -.389E+04   -.406E+03 0.866E+03 0.388E+04   0.500E+00 -.108E+01 0.379E+01   -.150E-03 -.231E-02 0.260E-02
   0.329E+03 -.722E+03 -.610E+04   -.329E+03 0.721E+03 0.610E+04   -.135E+00 0.531E+00 -.724E+01   -.319E-03 -.746E-03 -.210E-01
   0.775E+03 -.427E+03 0.532E+04   -.778E+03 0.428E+03 -.533E+04   0.243E+01 -.146E+01 0.267E+01   -.236E-01 0.554E-03 0.398E-01
   0.329E+03 -.341E+03 0.186E+04   -.329E+03 0.341E+03 -.186E+04   0.773E+00 0.173E+00 -.270E+01   -.324E-02 -.521E-02 0.818E-01
   0.293E+03 0.667E+03 -.548E+04   -.297E+03 -.673E+03 0.548E+04   0.412E+01 0.641E+01 -.191E+01   0.112E-01 -.179E-02 -.183E-01
   0.301E+03 -.193E+03 0.626E+04   -.300E+03 0.192E+03 -.626E+04   -.709E+00 0.119E+01 0.793E+00   -.105E-02 0.114E-01 -.211E-02
   0.335E+03 0.221E+03 0.281E+04   -.337E+03 -.222E+03 -.281E+04   0.182E+01 0.986E-01 -.256E+01   0.113E-01 0.631E-02 0.105E+00
   0.257E+03 0.423E+03 -.419E+02   -.258E+03 -.423E+03 0.411E+02   0.136E+01 0.863E+00 0.695E+00   0.653E-02 0.132E-02 0.644E-01
   0.282E+03 0.471E+03 -.268E+04   -.283E+03 -.473E+03 0.268E+04   0.982E+00 0.200E+01 0.233E+01   -.777E-02 -.202E-03 0.161E-01
   -.480E+03 -.764E+02 0.241E+02   0.481E+03 0.769E+02 -.254E+02   -.892E+00 -.465E+00 0.128E+01   0.346E-02 -.347E-02 0.684E-01
   -.685E+03 -.190E+03 -.285E+04   0.689E+03 0.189E+03 0.285E+04   -.383E+01 0.636E+00 0.481E+01   -.903E-03 -.867E-02 0.173E-01
   -.797E+03 -.160E+03 0.343E+04   0.799E+03 0.162E+03 -.343E+04   -.171E+01 -.191E+01 -.163E+01   -.711E-03 0.188E-02 0.776E-01
   -.554E+03 0.128E+03 0.634E+04   0.549E+03 -.126E+03 -.634E+04   0.536E+01 -.185E+01 0.184E+00   0.649E-02 -.154E-01 -.779E-02
   0.234E+03 -.323E+03 -.106E+04   -.234E+03 0.324E+03 0.106E+04   0.758E+00 -.112E+01 0.320E+00   0.155E-02 0.115E-02 0.519E-01
   0.291E+03 -.324E+02 -.435E+04   -.293E+03 0.373E+02 0.435E+04   0.127E+01 -.301E+01 -.403E+01   -.866E-03 0.566E-02 0.553E-02
   -.215E+02 -.416E+02 0.498E+04   0.232E+02 0.399E+02 -.499E+04   -.161E+01 0.138E+01 0.544E+01   -.113E-01 0.144E-01 0.525E-01
   0.748E+02 -.189E+03 0.184E+04   -.731E+02 0.189E+03 -.184E+04   -.931E+00 -.776E-01 -.331E+01   -.346E-02 -.609E-03 0.914E-01
   -.170E+03 -.138E+03 0.634E+04   0.170E+03 0.142E+03 -.634E+04   0.355E-01 -.251E+01 0.473E+01   0.393E-02 -.161E-02 0.142E-01
   0.427E+03 0.588E+03 0.348E+04   -.430E+03 -.590E+03 -.348E+04   0.273E+01 0.108E+01 -.264E+00   0.413E-02 -.271E-02 0.741E-01
   0.274E+03 0.477E+03 -.418E+02   -.276E+03 -.477E+03 0.411E+02   0.174E+01 0.137E+00 0.682E+00   0.371E-02 0.349E-02 0.619E-01
   0.250E+03 0.452E+03 -.344E+04   -.253E+03 -.455E+03 0.344E+04   0.298E+01 0.272E+01 -.167E+01   -.216E-02 -.211E-02 0.190E-01
   -.536E+03 0.352E+02 -.371E+02   0.538E+03 -.343E+02 0.366E+02   -.119E+01 -.930E+00 0.518E+00   0.236E-02 -.602E-03 0.726E-01
   -.629E+03 0.242E+03 -.328E+04   0.633E+03 -.242E+03 0.328E+04   -.424E+01 0.449E+00 -.102E+01   -.182E-01 -.381E-03 0.266E-01
   -.579E+03 -.237E+03 0.338E+04   0.583E+03 0.239E+03 -.338E+04   -.292E+01 -.169E+01 0.373E+00   0.815E-02 -.364E-02 0.797E-01
   0.823E+02 0.334E+02 0.636E+04   -.829E+02 -.338E+02 -.637E+04   0.837E-01 0.511E+00 0.435E+01   -.385E-02 0.432E-02 0.105E-01
   0.252E+03 -.343E+03 -.105E+04   -.252E+03 0.344E+03 0.105E+04   0.787E+00 -.950E+00 0.639E+00   0.236E-03 -.222E-03 0.668E-01
   0.306E+03 -.199E+03 -.385E+04   -.308E+03 0.201E+03 0.385E+04   0.162E+01 -.103E+01 0.134E+01   0.462E-02 -.275E-02 0.158E-02
   -.154E+03 0.485E+03 -.600E+04   0.152E+03 -.486E+03 0.600E+04   0.245E+01 0.652E-01 0.122E+01   -.944E-02 0.464E-02 -.393E-01
   0.248E+03 -.201E+03 0.489E+04   -.246E+03 0.201E+03 -.490E+04   -.199E+01 0.380E+00 0.472E+01   0.152E-03 0.806E-02 0.529E-01
   0.188E+03 -.255E+03 0.179E+04   -.187E+03 0.253E+03 -.178E+04   -.234E+00 0.590E+00 -.318E+01   0.658E-02 -.537E-03 0.822E-01
   0.635E+03 0.483E+03 0.626E+04   -.632E+03 -.478E+03 -.626E+04   -.297E+01 -.530E+01 -.228E+01   -.152E-01 -.200E-01 0.435E-03
   0.339E+03 0.536E+03 0.311E+04   -.340E+03 -.535E+03 -.311E+04   0.169E+01 -.729E+00 -.112E+01   -.677E-02 -.563E-02 0.748E-01
   0.252E+03 0.482E+03 -.541E+02   -.254E+03 -.483E+03 0.537E+02   0.149E+01 0.417E+00 0.291E+00   -.200E-02 -.529E-02 0.683E-01
   0.232E+03 0.539E+03 -.332E+04   -.234E+03 -.543E+03 0.332E+04   0.196E+01 0.351E+01 -.868E+00   0.117E-01 0.141E-01 0.262E-01
   -.497E+03 -.415E+01 -.300E+02   0.498E+03 0.528E+01 0.292E+02   -.124E+01 -.997E+00 0.668E+00   0.747E-04 0.771E-03 0.616E-01
   -.481E+03 0.222E+03 -.332E+04   0.486E+03 -.219E+03 0.332E+04   -.488E+01 -.227E+01 -.166E+01   0.102E-01 0.526E-02 0.184E-01
   -.610E+03 0.425E+02 0.314E+04   0.611E+03 -.414E+02 -.314E+04   -.562E+00 -.111E+01 -.177E+01   -.187E-03 -.529E-02 0.818E-01
   -.158E+03 -.462E+03 0.628E+04   0.157E+03 0.464E+03 -.628E+04   0.394E+00 -.175E+01 0.523E+01   0.122E-01 0.217E-01 0.121E-01
   -.846E+02 0.123E+03 -.337E+03   0.857E+02 -.125E+03 0.335E+03   -.103E+01 0.183E+01 0.140E+01   -.295E-02 0.347E-02 0.166E-01
   -.152E+03 0.297E+03 -.143E+04   0.154E+03 -.299E+03 0.142E+04   -.559E+00 0.962E+00 -.104E+01   -.938E-03 0.147E-03 -.111E-02
   0.203E+02 0.926E+02 0.225E+04   -.195E+02 -.938E+02 -.225E+04   -.224E+00 0.160E+00 0.172E+01   0.229E-02 -.888E-02 0.125E-01
   -.306E+02 0.928E+02 0.783E+03   0.313E+02 -.943E+02 -.785E+03   -.615E+00 0.152E+01 0.222E+01   -.748E-03 -.116E-02 0.291E-01
   0.843E+02 -.474E+03 -.236E+04   -.871E+02 0.478E+03 0.237E+04   0.248E+01 -.110E+01 -.314E+01   -.146E-02 0.607E-03 -.787E-02
   -.285E+03 -.564E+03 -.190E+04   0.291E+03 0.570E+03 0.190E+04   -.399E+01 -.367E+01 0.141E+00   -.260E-03 0.171E-02 -.603E-02
   -.740E+02 -.224E+03 -.858E+03   0.751E+02 0.227E+03 0.856E+03   -.128E+01 -.289E+01 -.289E+00   -.140E-02 -.403E-02 0.137E-01
   -.188E+03 -.273E+03 0.166E+04   0.189E+03 0.276E+03 -.166E+04   -.661E+00 -.796E+00 0.939E+00   0.581E-02 0.467E-02 0.304E-01
[...]
   0.170E+03 0.192E+03 -.226E+04   -.172E+03 -.193E+03 0.227E+04   0.547E+00 0.905E+00 -.643E+00   -.187E-02 0.117E-02 -.344E-02
   -.586E+02 0.112E+03 -.394E+03   0.596E+02 -.113E+03 0.393E+03   -.111E+01 0.139E+01 0.788E+00   0.908E-03 0.202E-02 0.161E-01
   -.431E+02 0.438E+02 -.159E+04   0.432E+02 -.441E+02 0.159E+04   0.295E+00 -.238E+00 0.258E+01   0.326E-02 -.232E-02 0.447E-02
   -.196E+03 0.289E+03 0.224E+04   0.197E+03 -.291E+03 -.225E+04   -.122E+01 0.204E+01 0.248E+01   0.197E-03 -.106E-01 0.117E-01
   -.526E+02 0.966E+02 0.647E+03   0.531E+02 -.978E+02 -.646E+03   -.708E+00 0.161E+01 0.440E-01   -.300E-02 0.233E-04 0.273E-01
   0.670E+02 0.271E+02 -.227E+04   -.665E+02 -.270E+02 0.227E+04   -.872E+00 0.610E+00 -.293E+01   -.127E-02 0.100E-02 -.984E-02
   0.915E+00 0.292E+03 -.221E+04   0.644E+00 -.294E+03 0.221E+04   -.105E+01 0.198E+01 -.203E+01   0.272E-02 0.130E-02 -.433E-02
   -.720E+02 -.108E+03 -.802E+03   0.731E+02 0.111E+03 0.802E+03   -.115E+01 -.264E+01 -.579E+00   -.216E-02 -.384E-02 0.213E-01
   -.273E+03 -.135E+03 0.174E+04   0.276E+03 0.137E+03 -.174E+04   -.160E+01 -.442E+00 0.166E+01   0.425E-02 0.350E-02 0.246E-01
   -.882E+02 -.157E+03 0.298E+03   0.888E+02 0.159E+03 -.298E+03   -.589E+00 -.267E+01 0.340E+00   0.435E-04 -.244E-02 0.246E-01
   0.353E+03 -.340E+02 0.158E+04   -.356E+03 0.344E+02 -.158E+04   0.858E+00 -.458E+00 0.269E+01   -.352E-02 -.294E-02 0.260E-01
   0.177E+03 -.888E-01 0.297E+03   -.180E+03 0.527E+00 -.298E+03   0.284E+01 -.398E+00 0.119E+00   -.192E-02 -.857E-03 0.231E-01
   0.180E+03 0.506E+02 -.862E+03   -.182E+03 -.505E+02 0.862E+03   0.274E+01 0.209E+00 -.523E+00   0.585E-02 0.854E-03 0.196E-01
   0.219E+03 0.390E+03 -.207E+04   -.223E+03 -.394E+03 0.207E+04   0.277E+01 0.145E+01 -.648E+00   0.298E-02 0.515E-02 -.134E-01
   -.105E+02 0.313E+01 -.330E+02   0.682E-11 0.455E-12 -.186E-10   0.103E+02 -.311E+01 0.302E+02   0.606E-02 -.253E-01 0.273E+01

 POSITION                                       TOTAL-FORCE (eV/Angst)
      5.35228      4.81788      6.64784         0.117449     -0.327661     -0.190494
      5.93595      3.87238      9.58390        -1.274699      0.611892     -1.835621
      7.16612      2.43146     11.12459         1.429357     -1.593244      1.863238
      1.00960      1.93458      2.12230         0.599195      0.053330     -0.600505
      2.24633      0.73197      3.71178         0.147137     -0.395499      2.246191
      0.65710      0.53918     11.24456        -1.349657     -1.238632      0.264286
      4.76861      3.35453      2.93606        -0.432286     -0.496968      1.415623
      5.35228      2.40903      5.87212         0.021663      0.128978      0.122822
      5.93595      1.46353      8.80817        -0.844653      0.173428     -0.990979
      1.87746      3.73836      5.87212         0.171910      0.225180      0.034737
      2.46113      2.79286      8.80817         0.224315     -0.906069     -1.530244
      3.06015      2.02252     11.29996         1.933307      0.706251      0.483240
      6.92203      4.68386      2.93606         0.912273      0.196330      1.221118
     10.98051      4.81788      6.64784         0.147967     -0.316081     -0.064782
     11.56418      3.87238      9.58390         0.220993     -0.326907     -1.014940
     12.11417      2.96047     11.86344         0.308046     -0.518991      1.339049
      7.30168      1.66877      1.40019        -0.056321      0.253972     -1.631605
      7.87456      0.73197      3.71178        -0.066885     -0.038394      0.480084
      6.19236      0.20697     11.00652        -0.358088      0.627987      0.279515
      9.64263      3.10304      0.73576        -0.481977     -0.006006     -1.018196
     10.39684      3.35453      2.93606        -0.163184      0.025882      1.947475
     10.98051      2.40903      5.87212        -0.159286      0.037600     -0.002353
     11.56418      1.46353      8.80817         0.686846     -0.386606     -1.545140
      7.50570      3.73836      5.87212        -0.110334     -0.044550      0.002984
      8.08937      2.79286      8.80817         0.506409      0.096065     -1.902657
     12.55026      4.68386      2.93606         0.159404      0.039257      0.639024
      9.32196      0.47036      0.45532         0.291743      0.459091     -0.873294
      7.87456      9.84929      6.64784         0.254051     -0.350390     -0.094174
      8.45823      8.90379      9.58390        -0.732531      1.902957     -2.084545
      4.00237      7.13229      2.05647         0.136377     -0.344391     -0.781847
      4.76861      5.76338      3.71178         0.744290     -0.540249      2.523006
      2.64513      0.36072      1.20789        -0.282466      1.227016     -1.733586
      7.29089      8.38594      2.93606        -0.550216     -0.478087      1.088543
      7.87456      7.44044      5.87212        -0.136327      0.069113      0.053048
      8.45823      6.49494      8.80817        -0.145298     -0.460473     -2.287631
      4.39975      8.76977      5.87212        -0.012779      0.035405      0.012898
      4.98341      7.82427      8.80817         0.359246      0.394483     -1.542642
      9.44431      9.71527      2.93606         0.985368      0.032798      0.775008
      5.09330      5.11256      1.21474        -0.525349      0.118153     -1.867617
     13.50279      9.84929      6.64784         0.127767     -0.233273      0.057428
     14.08646      8.90379      9.58390        -0.479777      1.401357     -2.060855
     14.41938      8.58966     11.95415         0.547974     -0.311056      0.998894
      9.74203      7.26590      2.07700        -0.140650     -0.273750     -0.844641
     10.39684      5.76338      3.71178         0.114755     -0.828827      1.348860
     12.39169      9.07717      0.56132        -0.335436     -0.237206     -1.175445
     12.91912      8.38594      2.93606        -0.031701     -0.134610      0.892759
     13.50279      7.44044      5.87212        -0.139448     -0.079333     -0.019849
     14.08646      6.49494      8.80817        -0.071250     -0.539958     -1.791364
     10.02798      8.76977      5.87212        -0.081131      0.129631     -0.044578
     10.61165      7.82427      8.80817         0.573082      0.370766     -1.872979
     15.07254      9.71527      2.93606         0.137366     -0.039156      0.390970
     10.71150      5.28357      1.01605        -0.598789      0.581509     -1.459863
      1.66190      1.67871      7.01153         0.147905     -0.139831     -0.174921
      2.24556      0.73321      9.94759         1.002794     -1.584417     -2.316446
      6.21341      3.42493      1.39183         0.558008     -0.974882     -2.380520
      6.70646      2.62422      4.07548         0.139135      0.085609      0.739407
      6.29527      4.22206     11.60588        -0.339731      2.711415      2.925132
      2.26585      3.82094     10.58809         1.640917      2.466751      0.532665
      7.29013      4.74605      7.99931        -0.224598      0.343967     -1.655054
      3.65363      1.63250      2.42932         0.972719      1.443788     -0.777364
[...]
      7.07033      8.08475      7.99931        -0.122646      0.393221     -0.366247
      7.81482      7.25452     10.54772        -1.605343     -0.814404      3.692286
      9.81241      6.71012      7.01153        -0.133336      0.288097     -1.153234
     10.41273      5.77831      9.27704         0.395500     -0.508230      0.822335
     14.27330      8.60113      1.13942         0.298625     -0.241438     -1.961709
     14.85697      7.65563      4.07548        -0.184084      0.472029      1.243953
     12.83163      9.75457     12.16772        -0.331109      0.683316      2.464891
     10.18096      8.54957     10.67806         0.518006     -0.525015      2.975586
     15.44064      9.77746      7.99931        -0.110776      0.151784     -0.558283
     11.75102      6.63706      2.12720         2.206609      1.507065      0.263785
     12.33469      5.69156      5.06325        -0.001088      0.037391      0.093087
     11.53122      9.97575      2.12720        -2.002749     -0.106538      1.166789
     12.11489      9.03025      5.06325        -0.099316      0.039167      0.000132
     12.69856      8.08475      7.99931        -0.107921      0.314588     -0.106944
     13.63762      7.21151     10.68002        -1.959809     -2.355119      2.142752
    total drift:                               -0.204311     -0.002344     -0.069102

  FREE ENERGIE OF THE ION-ELECTRON SYSTEM (eV)
  free  energy   TOTEN  =      -505.75821314 eV

  energy  without entropy=     -504.42073429  energy(sigma->0) =     -505.08947372