 vasp.5.4.4.18Apr17-6-g9f103f2a35 (build Aug 13 2019 17:33:20) gamma-only

 executed on             LinuxIFC date 2020.05.10  11:23:28

 INCAR:
 POTCAR:    PAW_PBE Ni_pv 06Sep2000
 POTCAR:    PAW_PBE S 06Sep2000
 POTCAR:    PAW_PBE Ni_pv 06Sep2000
   VRHFIN =Ni:

   TITEL  = PAW_PBE Ni_pv 06Sep2000
   POMASS =   58.690; ZVAL   =   16.000    mass and valenz
   ENMAX  =  367.986; ENMIN  =  275.989 eV

 POTCAR:    PAW_PBE S 06Sep2000
   VRHFIN =S : s2p4

   TITEL  = PAW_PBE S 06Sep2000
   POMASS =   32.066; ZVAL   =    6.000    mass and valenz
   ENMAX  =  258.689; ENMIN  =  194.016 eV

 Optimization of the real space projectors (new method)

 maximal supplied QI-value         = 18.90
 optimisation between [QCUT,QGAM] = [ 10.77, 21.73] = [ 32.49,132.25] Ry
 Optimized for a Real-space Cutoff    1.38 Angstroem

   l    n(q)    QCUT    max X(q) W(low)/X(q) W(high)/X(q)  e(spline)
   1      8    10.771     2.836    0.40E-04    0.29E-04    0.12E-06
   1      8    10.771     4.023    0.10E-03    0.48E-04    0.29E-06
   2      8    10.771    73.368    0.42E-03    0.97E-04    0.44E-06
   2      8    10.771    69.010    0.42E-03    0.99E-04    0.45E-06
   0      9    10.771    54.797    0.10E-03    0.56E-04    0.74E-07
   0      9    10.771    24.266    0.89E-04    0.49E-04    0.67E-07
 Optimization of the real space projectors (new method)

 maximal supplied QI-value         = 19.84
 optimisation between [QCUT,QGAM] = [ 10.71, 21.63] = [ 32.15,130.99] Ry
 Optimized for a Real-space Cutoff    1.19 Angstroem

   l    n(q)    QCUT    max X(q) W(low)/X(q) W(high)/X(q)  e(spline)
   0      8    10.715   187.594    0.41E-03    0.53E-04    0.66E-07
   0      8    10.715   164.243    0.41E-03    0.53E-04    0.65E-07
   1      7    10.715    67.533    0.19E-03    0.59E-03    0.68E-07
   1      7    10.715    50.729    0.19E-03    0.58E-03    0.67E-07
  PAW_PBE Ni_pv 06Sep2000               :
  PAW_PBE S 06Sep2000                   :

 POSCAR: Type_026 Type_126
  positions in cartesian coordinates
 exchange correlation table for  LEXCH =        8
   RHO(1)=    0.500       N(1)  =     2000
   RHO(2)=  100.500       N(2)  =     4000

 ion  position               nearest neighbor table
   1  0.439  0.464  0.163-  43 2.04  34 2.25  29 2.25  35 2.36  44 2.36   5 2.53  22 2.53
   2  0.492  0.451  0.325-  45 2.02  35 2.04  44 2.05  23 2.50   6 2.50
   3  0.199  0.123  0.113-  32 2.04  27 2.07  36 2.12  34 2.18   9 2.38  28 2.41  24 2.43
   4  0.215  0.964  0.253-  38 2.12  33 2.13  28 2.25  37 2.26  32 2.26  12 2.43
   5  0.439  0.200  0.163-  39 2.09  34 2.10  32 2.25  35 2.36  40 2.36   1 2.53  22 2.53
   6  0.484  0.190  0.324-  45 2.06  40 2.06  33 2.09  35 2.11   2 2.50
   7  0.239  0.836  0.106-  32 2.05  36 2.05  37 2.09  29 2.11
   8  0.207  0.688  0.233-  38 2.04  29 2.06  30 2.10  37 2.11  26 2.43  12 2.53
   9  0.120  0.339  0.157-  30 2.09  34 2.15  27 2.15  28 2.19   3 2.38  18 2.43
  10  0.184  0.331  0.301-  31 2.05  28 2.09  30 2.11  35 2.15  15 2.54
  11  0.474  0.767  0.091-  50 2.05  29 2.10  51 2.11  20 2.46  12 2.52
  12  0.394  0.833  0.223-  32 2.14  29 2.17  33 2.26  51 2.35   4 2.43  13 2.44  11 2.52   8 2.53
                            38 2.62
  13  0.539  0.915  0.319-  52 2.01  33 2.03  17 2.34  12 2.44  51 2.60
  14  0.920  0.490  0.194-  41 2.07  49 2.07  48 2.15  30 2.29  42 2.39  15 2.47
  15  0.991  0.460  0.329-  31 2.04  30 2.10  49 2.12  42 2.13  14 2.47  10 2.54
  16  0.665  0.963  0.098-  51 2.06  50 2.08  39 2.09  46 2.14
  17  0.715  0.964  0.253-  52 2.05  40 2.25  51 2.26  46 2.26  13 2.34  25 2.53  21 2.53
  18  0.939  0.200  0.163-  27 2.03  48 2.14  46 2.25  49 2.36  28 2.36  24 2.41   9 2.43
  19  0.979  0.184  0.321-  31 2.05  28 2.06  49 2.09  47 2.12
  20  0.652  0.630  0.124-  43 2.06  50 2.12  41 2.14  51 2.25  44 2.37  21 2.41  11 2.46
  21  0.715  0.700  0.253-  52 2.06  44 2.25  51 2.26  41 2.26  42 2.33  20 2.41  25 2.53  17 2.53

  22  0.631  0.332  0.139-  43 2.08  39 2.09  48 2.13  40 2.36  44 2.36   5 2.53   1 2.53
  23  0.684  0.330  0.298-  45 2.05  40 2.07  44 2.09  49 2.13   2 2.50
  24  0.017  0.988  0.106-  36 2.05  37 2.13  46 2.17  27 2.24  18 2.41   3 2.43
  25  0.907  0.832  0.229-  47 2.10  42 2.12  37 2.25  41 2.26  46 2.26  26 2.33  17 2.53  21 2.53

[...]

  52  0.698  0.833  0.346-  13 2.01  17 2.05  21 2.06

  LATTYP: Found a simple orthorhombic cell.
 ALAT       =     9.5784100000
 B/A-ratio  =     1.1751911892
 C/A-ratio  =     1.7949213288

  Lattice vectors:

 A1 = (   0.0000000000,  -9.5784100000,   0.0000000000)
 A2 = ( -11.2564630382,   0.0000000000,   0.0000000000)
 A3 = (   0.0000000000,   0.0000000000, -17.1924924047)

Analysis of symmetry for initial positions (statically):
 Subroutine PRICEL returns:
 Original cell was already a primitive cell.

 Routine SETGRP: Setting up the symmetry group for a
 simple orthorhombic supercell.

 Subroutine GETGRP returns: Found  1 space group operations
 (whereof  1 operations were pure point group operations)
 out of a pool of  8 trial point group operations.

The static configuration has the point symmetry C_1 .

Analysis of symmetry for dynamics (positions and initial velocities):
 Subroutine PRICEL returns:
 Original cell was already a primitive cell.

 Routine SETGRP: Setting up the symmetry group for a
 simple orthorhombic supercell.

 Subroutine GETGRP returns: Found  1 space group operations
 (whereof  1 operations were pure point group operations)
 out of a pool of  8 trial point group operations.

The dynamic configuration has the point symmetry C_1 .

 Subroutine INISYM returns: Found  1 space group operations
 (whereof  1 operations are pure point group operations),
 and found     1 'primitive' translations

 KPOINTS: gamma-point-only calculation. no periodi

Automatic generation of k-mesh.
Space group operators:
 irot       det(A)        alpha          n_x          n_y          n_z        tau_x        tau_y        tau_z
    1     1.000000     0.000000     1.000000     0.000000     0.000000     0.000000     0.000000     0.000000

 Subroutine IBZKPT returns following result:

 Found      1 irreducible k-points:

 Following reciprocal coordinates:
            Coordinates               Weight
  0.000000  0.000000  0.000000      1.000000

 Following cartesian coordinates:
            Coordinates               Weight
  0.000000  0.000000  0.000000      1.000000

 SYSTEM =  "Millerite NiS"
 POSCAR =  Type_026 Type_126

 Startparameter for this run:
   NWRITE =      2    write-flag & timer
   PREC   = normal    normal or accurate (medium, high low for compatibility)
   ISTART =      0    job   : 0-new  1-cont  2-samecut
   ICHARG =      2    charge: 1-file 2-atom 10-const
   ISPIN  =      1    spin polarized calculation?
   LNONCOLLINEAR =      F non collinear calculations
   LSORBIT =      F    spin-orbit coupling
   INIWAV =      1    electr: 0-lowe 1-rand  2-diag
   LASPH  =      F    aspherical Exc in radial PAW
   METAGGA=      F    non-selfconsistent MetaGGA calc.

 Electronic Relaxation 1
   ENCUT  =  450.0 eV  33.07 Ry    5.75 a.u.  19.47 16.57 29.74*2*pi/ulx,y,z
   ENINI  =  450.0     initial cutoff
   ENAUG  =  703.4 eV  augmentation charge cutoff
   NELM   =    100;   NELMIN=  2; NELMDL= -5     # of ELM steps
   EDIFF  = 0.1E-03   stopping-criterion for ELM
   LREAL  =      T    real-space projection
   NLSPLINE    = F    spline interpolate recip. space projectors
   LCOMPAT=      F    compatible to vasp.4.4
   GGA_COMPAT  = T    GGA compatible to vasp.4.4-vasp.4.6
   LMAXPAW     = -100 max onsite density
   LMAXMIX     =    2 max onsite mixed and CHGCAR
   VOSKOWN=      0    Vosko Wilk Nusair interpolation
   ROPT   =   -0.00050  -0.00050
 Ionic relaxation
   EDIFFG = 0.1E-02   stopping-criterion for IOM
   NSW    =      0    number of steps for IOM
   NBLOCK =      1;   KBLOCK =      1    inner block; outer block
   IBRION =     -1    ionic relax: 0-MD 1-quasi-New 2-CG
   NFREE  =      0    steps in history (QN), initial steepest desc. (CG)
   ISIF   =      2    stress and relaxation
   IWAVPR =     10    prediction:  0-non 1-charg 2-wave 3-comb
   ISYM   =      2    0-nonsym 1-usesym 2-fastsym
   LCORR  =      T    Harris-Foulkes like correction to forces

   POTIM  = 0.5000    time-step for ionic-motion
   TEIN   =    0.0    initial temperature
   TEBEG  =    0.0;   TEEND  =   0.0 temperature during run
   SMASS  =  -3.00    Nose mass-parameter (am)
   estimated Nose-frequenzy (Omega)   =  0.10E-29 period in steps =****** mass=  -0.290E-26a.u.
   SCALEE = 1.0000    scale energy and forces
   NPACO  =    256;   APACO  = 16.0  distance and # of slots for P.C.
   PSTRESS=    0.0 pullay stress

  Mass of Ions in am
   POMASS =  58.69 32.07
  Ionic Valenz
   ZVAL   =  16.00  6.00
  Atomic Wigner-Seitz radii
  virtual crystal weights
   VCA    =   1.00  1.00
   NELECT =     572.0000    total number of electrons
   NUPDOWN=      -1.0000    fix difference up-down

 DOS related values:
   EMIN   =  10.00;   EMAX   =-10.00  energy-range for DOS
   EFERMI =   0.00
   ISMEAR =     0;   SIGMA  =   0.20  broadening in eV -4-tet -1-fermi 0-gaus

 Electronic relaxation 2 (details)
   IALGO  =     38    algorithm
   LDIAG  =      T    sub-space diagonalisation (order eigenvalues)
   LSUBROT=      F    optimize rotation matrix (better conditioning)
   TURBO    =      0    0=normal 1=particle mesh
   IRESTART =      0    0=no restart 2=restart with 2 vectors
   NREBOOT  =      0    no. of reboots
   NMIN     =      0    reboot dimension
   EREF     =   0.00    reference energy to select bands
   IMIX   =      4    mixing-type and parameters
     AMIX     =   0.40;   BMIX     =  1.00
     AMIX_MAG =   1.60;   BMIX_MAG =  1.00
     AMIN     =   0.10
     WC   =   100.;   INIMIX=   1;  MIXPRE=   1;  MAXMIX= -45

 Intra band minimization:
   WEIMIN = 0.0000     energy-eigenvalue tresh-hold
   EBREAK =  0.73E-07  absolut break condition
   DEPER  =   0.30     relativ break condition

   TIME   =   0.40     timestep for ELM

  volume/ion in A,a.u.               =      35.65       240.56
  Fermi-wavevector in a.u.,A,eV,Ry     =   1.106272  2.090552 16.651337  1.223839
  Thomas-Fermi vector in A             =   2.242771

 Write flags
   LWAVE        =      F    write WAVECAR
   LDOWNSAMPLE  =      F    k-point downsampling of WAVECAR
   LCHARG       =      F    write CHGCAR
   LVTOT        =      F    write LOCPOT, total local potential
   LVHAR        =      F    write LOCPOT, Hartree potential only
   LELF         =      F    write electronic localiz. function (ELF)
   LORBIT       =      0    0 simple, 1 ext, 2 COOP (PROOUT), +10 PAW based schemes

 Dipole corrections
   LMONO  =      F    monopole corrections only (constant potential shift)
   LDIPOL =      F    correct potential (dipole corrections)
   IDIPOL =      0    1-x, 2-y, 3-z, 4-all directions
   EPSILON=  1.0000000 bulk dielectric constant

 Exchange correlation treatment:
   GGA     =    --    GGA type
   VOSKOWN=      0    Vosko Wilk Nusair interpolation
   LHFCALC =     F    Hartree Fock is set to
   LHFONE  =     F    Hartree Fock one center treatment
   AEXX    =    0.0000 exact exchange contribution

 Linear response parameters
[...]
      26 -87.7739      27 -92.8776      28 -93.5950      29 -93.1717      30 -93.3997
      31 -92.2261      32 -93.3473      33 -92.8711      34 -92.6104      35 -93.2579
      36 -92.2775      37 -93.3670      38 -92.6401      39 -92.3457      40 -93.4459
      41 -92.7242      42 -93.2429      43 -92.5396      44 -93.4198      45 -92.3095
      46 -92.9414      47 -92.3544      48 -92.3998      49 -93.3671      50 -92.4518
      51 -94.0039      52 -92.1972

 E-fermi :  -0.1646     XC(G=0):  -5.3553     alpha+bet : -5.1393

 k-point     1 :       0.0000    0.0000    0.0000
  band No.  band energies     occupation
      1     -64.9296      2.00000
      2     -64.8686      2.00000
      3     -64.8460      2.00000
      4     -64.8452      2.00000
      5     -64.7820      2.00000
      6     -64.7614      2.00000
      7     -64.7567      2.00000
      8     -64.7516      2.00000
      9     -64.7502      2.00000
     10     -64.7369      2.00000
     11     -64.7163      2.00000
     12     -64.7145      2.00000
     13     -64.7062      2.00000
     14     -64.6733      2.00000
     15     -64.6718      2.00000
     16     -64.6669      2.00000
     17     -64.6603      2.00000
     18     -64.6524      2.00000
     19     -64.6481      2.00000
     20     -64.6407      2.00000
     21     -64.6395      2.00000
     22     -64.6110      2.00000
     23     -64.6107      2.00000
     24     -64.6058      2.00000
     25     -64.6022      2.00000
     26     -64.5948      2.00000
     27     -64.5737      2.00000
     28     -64.5628      2.00000
     29     -64.5510      2.00000
     30     -64.5420      2.00000
     31     -64.5415      2.00000
     32     -64.5003      2.00000
     33     -64.4521      2.00000
     34     -64.4470      2.00000
     35     -64.4427      2.00000
     36     -64.4327      2.00000
     37     -64.4232      2.00000
     38     -64.4214      2.00000
     39     -64.4151      2.00000
     40     -64.4102      2.00000
     41     -64.4060      2.00000
     42     -64.4046      2.00000
     43     -64.3863      2.00000
     44     -64.3851      2.00000
     45     -64.3788      2.00000
     46     -64.3758      2.00000
     47     -64.3720      2.00000
     48     -64.3588      2.00000
     49     -64.3586      2.00000
     50     -64.3585      2.00000
     51     -64.3430      2.00000
     52     -64.3410      2.00000
     53     -64.3240      2.00000
     54     -64.2886      2.00000
     55     -64.2851      2.00000
     56     -64.2819      2.00000
     57     -64.2812      2.00000
     58     -64.2562      2.00000
     59     -64.2414      2.00000
     60     -64.2371      2.00000
[...]
    330       4.9857      0.00000
    331       5.0128      0.00000
    332       5.0842      0.00000
    333       5.1474      0.00000
    334       5.2202      0.00000
    335       5.2684      0.00000
    336       5.3449      0.00000
    337       5.3830      0.00000
    338       5.4129      0.00000
    339       5.4901      0.00000
    340       5.5251      0.00000
    341       5.5914      0.00000
    342       5.6700      0.00000
    343       5.7780      0.00000
    344       5.8015      0.00000

 soft charge-density along one line, spin component           1
         0         1         2         3         4         5         6         7         8         9
 total charge-density along one line

------------------------ aborting loop because EDIFF is reached ----------------------------------------

  FORCE on cell =-STRESS in cart. coord.  units (eV):
  Direction    XX          YY          ZZ          XY          YZ          ZX
  Alpha Z  1046.73971  1046.73971  1046.73971
  Ewald  167380.07319165699.84858************  -950.81956   693.76099    67.24317
  Hartree191524.89475190287.44495************  -748.10092   642.76643   -66.96611
  E(xc)   -3652.26686 -3653.04967 -3657.96000    -0.25640    -0.09876     0.57217
  Local  ************************359367.80164  1692.21966 -1342.22719    17.06523
  n-local  -409.72943  -420.99652  -431.05417    -4.26041    -5.17141     3.42103
  augment  4165.70050  4183.74736  4194.66600     3.38355     4.71656    -8.06686
  Kinetic  8014.04131  8019.80643  8089.03875     5.09308     1.62952   -15.14497
  Fock        0.00000     0.00000     0.00000     0.00000     0.00000     0.00000
  Total     100.66854    95.31188   102.00568    -2.74099    -4.62385    -1.87634
  in kB      87.01020    82.38031    88.16591    -2.36911    -3.99651    -1.62176

 VOLUME and BASIS-vectors are now :
  energy-cutoff  :      450.00
  volume of cell :     1853.68
      direct lattice vectors                 reciprocal lattice vectors
    11.256463038  0.000000000  0.000000000     0.088837852  0.000000000  0.000000000
     0.000000000  9.578410000  0.000000000     0.000000000  0.104401461  0.000000000
     0.000000000  0.000000000 17.192492405     0.000000000  0.000000000  0.058164923

  length of vectors
    11.256463038  9.578410000 17.192492405     0.088837852  0.104401461  0.058164923

 FORCES acting on ions
    electron-ion (+dipol)            ewald-force                    non-local-force                 convergence-correction
   0.564E+03 -.314E+03 0.141E+04   -.566E+03 0.314E+03 -.141E+04   0.747E+00 -.683E+00 0.371E+01   -.190E-01 -.489E-01 0.720E-01
   0.427E+03 -.931E+03 -.328E+04   -.429E+03 0.931E+03 0.328E+04   0.788E+00 0.175E+01 -.288E+01   -.112E+00 -.461E-01 0.339E-01
   -.386E+03 -.320E+03 0.295E+04   0.388E+03 0.322E+03 -.296E+04   -.174E+01 -.116E+01 0.442E+01   0.299E-01 0.119E+00 0.118E-01
   0.134E+03 -.390E+03 -.171E+04   -.138E+03 0.394E+03 0.172E+04   0.299E+01 -.244E+01 -.248E+01   0.140E+00 0.421E-01 0.608E-01
   0.102E+03 0.183E+03 0.158E+04   -.101E+03 -.184E+03 -.158E+04   -.600E+00 0.120E+01 0.502E+01   -.141E-01 0.589E-01 0.111E+00
   0.283E+03 0.271E+03 -.326E+04   -.284E+03 -.274E+03 0.326E+04   -.903E-01 0.151E+01 -.408E+01   -.794E-01 -.165E-01 0.310E-01
   0.229E+03 0.670E+03 0.344E+04   -.229E+03 -.672E+03 -.346E+04   0.889E+00 0.646E+00 0.101E+02   0.350E-01 -.211E-01 0.590E-02
   -.517E+02 0.866E+03 -.623E+03   0.516E+02 -.873E+03 0.627E+03   -.452E+00 0.597E+01 -.426E+01   0.132E+00 -.637E-01 0.491E-01
   -.159E+03 -.923E+03 0.207E+04   0.160E+03 0.927E+03 -.208E+04   -.100E+01 -.387E+01 0.217E+01   0.101E+00 -.299E-01 -.239E-01
   -.696E+03 -.168E+03 -.269E+04   0.702E+03 0.168E+03 0.269E+04   -.508E+01 0.620E+00 -.376E+01   0.204E+00 0.425E-02 -.141E-01
   0.289E+03 0.806E+02 0.354E+04   -.289E+03 -.808E+02 -.354E+04   -.866E+00 0.536E+00 0.421E+01   0.424E-01 -.546E-01 0.237E-01
   -.341E+03 0.379E+03 -.764E+03   0.346E+03 -.381E+03 0.767E+03   -.372E+01 0.112E+01 -.297E+01   0.988E-01 0.153E-01 0.160E+00
   0.134E+03 0.314E+03 -.341E+04   -.133E+03 -.317E+03 0.341E+04   -.200E+01 0.297E+01 -.241E+01   -.260E-01 0.647E-01 0.297E-01
   0.167E+02 -.359E+03 0.122E+04   -.174E+02 0.363E+03 -.122E+04   0.142E+01 -.320E+01 0.606E+01   0.248E-01 -.452E-01 -.824E-01
   0.205E+03 -.472E+03 -.347E+04   -.205E+03 0.473E+03 0.348E+04   -.518E+00 0.438E+00 -.643E+01   0.101E+00 0.411E-02 0.914E-01
   -.330E+03 -.365E+03 0.330E+04   0.331E+03 0.370E+03 -.331E+04   -.137E+00 -.363E+01 0.490E+01   -.230E-01 0.159E-01 0.202E-01
   -.304E+03 -.515E+03 -.131E+04   0.305E+03 0.518E+03 0.131E+04   -.584E-01 -.172E+01 -.348E+01   -.209E+00 -.928E-02 0.799E-01
   0.685E+03 -.880E+02 0.153E+04   -.690E+03 0.875E+02 -.153E+04   0.350E+01 0.787E+00 0.295E+01   0.369E-01 -.190E-01 -.841E-01
   0.392E+03 0.481E+03 -.321E+04   -.394E+03 -.486E+03 0.322E+04   0.562E+00 0.324E+01 -.468E+01   0.574E-01 0.542E-02 0.313E-02
   -.492E+03 0.307E+03 0.262E+04   0.494E+03 -.309E+03 -.263E+04   -.208E+01 0.229E+01 0.550E+01   -.746E-01 -.285E-01 0.108E-01
   0.580E+02 0.435E+03 -.162E+04   -.585E+02 -.437E+03 0.162E+04   0.110E+01 0.749E+00 -.432E+01   -.191E+00 0.581E-01 0.412E-01
   -.542E+03 0.122E+03 0.236E+04   0.546E+03 -.124E+03 -.237E+04   -.328E+01 0.140E+01 0.562E+01   -.126E+00 0.964E-02 -.136E-01
   -.628E+03 -.440E+02 -.251E+04   0.635E+03 0.430E+02 0.252E+04   -.492E+01 0.120E+01 -.293E+01   -.227E+00 -.337E-01 0.552E-01
   0.636E+03 0.531E+03 0.316E+04   -.639E+03 -.532E+03 -.316E+04   0.150E+01 0.139E+01 0.355E+01   -.253E-01 0.755E-01 -.597E-01
   -.701E+01 0.672E+02 -.158E+03   0.431E+01 -.638E+02 0.154E+03   0.157E+01 -.279E+01 0.117E+01   -.944E-01 0.392E-01 -.222E-01
   0.332E+02 0.144E+03 -.347E+04   -.315E+02 -.143E+03 0.348E+04   -.186E+01 -.965E+00 -.613E+01   0.127E+00 -.275E-01 0.773E-01
   0.169E+03 -.282E+03 0.177E+04   -.171E+03 0.284E+03 -.177E+04   0.609E+00 -.149E+01 0.329E+01   0.624E-03 0.155E-01 -.106E-01
   -.722E+02 0.136E+03 -.380E+03   0.736E+02 -.137E+03 0.381E+03   -.762E+00 -.378E+00 -.135E+01   0.542E-01 0.341E-01 -.258E-01
   0.121E+03 0.399E+03 0.762E+03   -.122E+03 -.401E+03 -.764E+03   0.168E+01 -.644E+00 0.197E+01   0.197E-01 -.505E-01 0.333E-01
   -.146E+03 -.223E+03 -.122E+03   0.149E+03 0.224E+03 0.120E+03   -.195E+01 0.671E-01 -.177E+00   0.831E-01 -.246E-01 -.446E-02
   -.113E+03 0.413E+02 -.186E+04   0.114E+03 -.416E+02 0.186E+04   -.336E+00 0.933E-01 -.105E+01   0.610E-01 0.117E-01 0.446E-01
   -.255E+03 -.136E+03 0.753E+03   0.259E+03 0.137E+03 -.756E+03   -.466E+00 -.468E+00 0.302E+01   0.389E-01 0.453E-01 0.334E-01
   0.160E+03 -.520E+02 -.122E+04   -.159E+03 0.540E+02 0.122E+04   -.184E+01 -.202E+01 -.119E+01   0.835E-01 0.210E-01 0.293E-01
   0.170E+02 -.271E+03 0.122E+04   -.168E+02 0.273E+03 -.122E+04   -.374E+00 -.990E+00 0.456E+01   0.199E-01 0.103E-01 0.210E-01
   0.222E+03 -.107E+03 -.609E+03   -.225E+03 0.107E+03 0.610E+03   0.143E+01 -.361E-01 -.770E+00   0.386E-01 -.918E-02 0.281E-01
   0.253E+02 0.108E+03 0.188E+04   -.247E+02 -.109E+03 -.189E+04   -.188E+00 0.623E+00 0.314E+01   -.133E-01 0.199E-01 -.518E-01
   0.236E+03 0.246E+03 0.499E+03   -.238E+03 -.246E+03 -.500E+03   -.743E-01 0.958E+00 0.180E+01   0.252E-01 -.227E-02 -.416E-02
   -.242E+03 0.120E+03 -.161E+04   0.243E+03 -.122E+03 0.162E+04   -.383E+00 0.123E+01 -.298E+01   0.579E-01 -.807E-02 0.205E-01
   -.336E+02 0.505E+01 0.150E+04   0.330E+02 -.577E+01 -.151E+04   0.433E+00 0.202E+00 0.369E+01   -.250E-01 0.158E-01 0.468E-02
   -.170E+03 0.126E+03 -.176E+03   0.172E+03 -.127E+03 0.175E+03   -.470E+00 -.106E+00 0.279E+00   -.787E-01 -.382E-01 0.321E-01
   -.237E+03 0.119E+02 0.102E+04   0.240E+03 -.105E+02 -.103E+04   -.173E+01 -.539E+00 0.494E+01   -.517E-01 0.105E-01 -.393E-01
   0.139E+03 0.537E+02 -.108E+04   -.140E+03 -.542E+02 0.109E+04   0.891E+00 -.536E-01 -.355E+01   -.296E-01 0.467E-02 0.426E-01
   0.511E+02 0.686E+02 0.170E+04   -.519E+02 -.688E+02 -.171E+04   0.553E+00 0.116E+00 0.250E+01   -.176E-01 -.379E-03 0.358E-02
   -.577E+02 -.176E+03 -.344E+03   0.591E+02 0.176E+03 0.346E+03   -.854E+00 0.183E+01 -.354E+01   -.794E-01 0.216E-01 0.811E-02
   -.126E+03 -.227E+02 -.186E+04   0.127E+03 0.223E+02 0.186E+04   -.235E-01 0.139E+00 -.562E+00   -.826E-01 -.117E-01 0.118E-01
   0.489E+02 -.499E+02 0.797E+03   -.495E+02 0.512E+02 -.799E+03   0.107E+01 -.782E+00 0.214E+01   -.170E-01 0.264E-01 -.112E-01
   0.119E+03 -.907E+02 -.131E+04   -.120E+03 0.917E+02 0.132E+04   0.399E+00 0.110E+00 -.661E+00   -.162E-01 -.135E-03 0.322E-01
   -.784E+01 -.643E+02 0.122E+04   0.739E+01 0.656E+02 -.123E+04   0.758E+00 -.135E+01 0.463E+01   -.113E-01 -.274E-01 -.434E-01
   0.235E+03 0.521E+02 -.610E+03   -.238E+03 -.531E+02 0.611E+03   0.740E+00 -.303E+00 0.193E-01   -.854E-02 -.224E-01 -.121E-01
   -.228E+03 0.379E+02 0.179E+04   0.229E+03 -.375E+02 -.180E+04   -.452E+00 -.365E+00 0.294E+01   0.577E-02 -.184E-01 -.245E-01
   0.329E+02 -.196E+02 0.232E+03   -.333E+02 0.212E+02 -.231E+03   -.133E+01 -.166E+01 0.108E+01   -.614E-02 0.206E-02 0.562E-01
   -.123E+03 0.124E+03 -.168E+04   0.123E+03 -.125E+03 0.169E+04   0.220E+00 0.162E+00 -.202E+01   -.888E-01 0.279E-01 0.570E-02
   0.161E+02 -.177E+01 -.315E+02   -.153E-11 -.142E-13 -.182E-11   -.158E+02 0.170E+01 0.307E+02   -.128E+00 0.121E+00 0.848E+00

 POSITION                                       TOTAL-FORCE (eV/Angst)
      4.94536      4.44331      2.79952        -1.219284     -0.027707      1.903317
      5.53717      4.31683      5.58707        -0.836669      1.936033      0.346462
      2.24116      1.18088      1.93844         0.342031      0.586391     -0.131731
      2.42308      9.23251      4.34179        -0.892078      0.911646     -1.050673
      4.94536      1.91264      2.79952         0.303002     -0.218297      1.600377
      5.45159      1.81611      5.56679        -0.884874     -1.083860      0.520955
      2.69074      8.00749      1.81748         0.372895     -1.611521     -1.264838
      2.33332      6.59186      4.01025        -0.404729     -1.074133     -0.300852
      1.34969      3.24773      2.70489        -0.004808      0.613866     -0.192260
      2.06658      3.17085      5.18247         1.422802      0.175769      0.197381
      5.33489      7.35036      1.56777        -1.006850      0.248591     -0.369707
      4.43885      7.98273      3.83402         1.262240     -0.636181      0.178024
      6.06290      8.76344      5.48181        -0.734439      0.212715      0.001050
     10.36033      4.69037      3.33763         0.750072      0.022705     -0.315643
     11.15467      4.40186      5.66122        -0.570976      1.018171      0.459720
      7.49066      9.21998      1.68080         0.549509      0.904180     -0.607957
      8.05131      9.23251      4.34179         1.042634      1.432964     -1.367358
     10.57359      1.91264      2.79952        -1.572095      0.234773      2.294092
     11.02522      1.76285      5.52560        -0.955856     -1.595643      0.443894
      7.33364      6.03551      2.13863         0.419086     -0.328014      0.164493
      8.05131      6.70184      4.34179         0.438877     -0.965793     -0.366250
      7.09877      3.17797      2.39204         0.709695      0.281201      1.607772
      7.70473      3.16446      5.13059         1.780442      0.090463      0.320636
      0.18607      9.46527      1.83039        -1.448207      0.073132      0.086093
     10.20472      7.96718      3.93431        -1.225191      0.639083     -2.383311
      0.63875      7.52737      5.48373        -0.012887     -0.356537      0.371485
      0.50965      2.00337      1.16015        -0.812638      0.828506     -3.082013
      1.25497      1.56674      4.10795         0.608533     -1.536481     -0.609134
      3.77725      6.35595      2.56568         1.209394     -2.606391     -0.653026
      1.25497      4.78920      4.10795         1.064870      1.110416     -1.349053
      0.82089      2.97788      6.79624         0.649182     -0.260814      4.357819
      3.77725      9.57841      2.56568         3.013052      0.988108     -0.227820
      4.26753      0.10821      5.30954        -0.866616     -0.062068      2.027106
      3.37230      3.04593      2.00033        -0.186869      1.381773     -2.485216
      4.14113      3.17797      4.62682        -1.764873      0.364261     -0.253851
      1.74575      9.27506      0.50986         0.343700     -0.609433     -3.941169
      1.03518      7.96718      3.08454        -2.078804      0.161275      0.452706
      2.66340      7.64896      5.72783         1.356816     -0.512460      3.525588
      6.45707      1.44130      1.43174        -0.166563     -0.502314     -2.634740
      6.88320      1.56674      4.10795         1.196547     -1.654232     -1.066346
      9.40548      6.35595      2.56568         0.865855      0.878179     -1.481058
     10.18732      6.22887      5.15304        -0.745939     -0.542389      1.993672
      6.19069      4.61040      1.19496        -0.248756     -0.129806     -3.480951
      6.88320      4.78920      4.10795         0.433860      1.785729     -0.813604
      6.52971      3.04909      6.80806         0.628521     -0.297924      3.833809
      9.40548      9.57841      2.56568         0.383271      0.561668     -0.148900
     10.71674      9.24408      5.51942        -0.767960      1.125461      2.298302
      9.19270      3.38133      2.08617         0.295353     -0.008721     -2.257723
      9.76936      3.17797      4.62682        -1.613144     -1.369440      0.701592
      7.13288      7.47924      0.59277         0.714672      0.067626     -3.277284
      6.66341      7.96718      3.08454        -1.661040     -0.031710      2.688575
      7.85603      7.97463      5.94693         0.525236     -0.612811      3.737550
    total drift:                                0.184748      0.051710      0.054452

  FREE ENERGIE OF THE ION-ELECTRON SYSTEM (eV)
  free  energy   TOTEN  =      -248.11117272 eV

  energy  without entropy=     -247.34242054  energy(sigma->0) =     -247.72679663