 vasp.5.4.4.18Apr17-6-g9f103f2a35 (build Aug 13 2019 17:33:20) gamma-only

 executed on             LinuxIFC date 2020.05.10  21:07:50

 INCAR:
 POTCAR:    PAW_PBE Ni_pv 06Sep2000
 POTCAR:    PAW_PBE S 06Sep2000
 POTCAR:    PAW_PBE Ni_pv 06Sep2000
   VRHFIN =Ni:

   TITEL  = PAW_PBE Ni_pv 06Sep2000
   POMASS =   58.690; ZVAL   =   16.000    mass and valenz
   ENMAX  =  367.986; ENMIN  =  275.989 eV

 POTCAR:    PAW_PBE S 06Sep2000
   VRHFIN =S : s2p4

   TITEL  = PAW_PBE S 06Sep2000
   POMASS =   32.066; ZVAL   =    6.000    mass and valenz
   ENMAX  =  258.689; ENMIN  =  194.016 eV

 Optimization of the real space projectors (new method)

 maximal supplied QI-value         = 18.90
 optimisation between [QCUT,QGAM] = [ 10.77, 21.73] = [ 32.49,132.25] Ry
 Optimized for a Real-space Cutoff    1.38 Angstroem

   l    n(q)    QCUT    max X(q) W(low)/X(q) W(high)/X(q)  e(spline)
   1      8    10.771     2.836    0.40E-04    0.29E-04    0.12E-06
   1      8    10.771     4.023    0.10E-03    0.48E-04    0.29E-06
   2      8    10.771    73.368    0.42E-03    0.97E-04    0.44E-06
   2      8    10.771    69.010    0.42E-03    0.99E-04    0.45E-06
   0      9    10.771    54.797    0.10E-03    0.56E-04    0.74E-07
   0      9    10.771    24.266    0.89E-04    0.49E-04    0.67E-07
 Optimization of the real space projectors (new method)

 maximal supplied QI-value         = 19.84
 optimisation between [QCUT,QGAM] = [ 10.71, 21.63] = [ 32.15,130.99] Ry
 Optimized for a Real-space Cutoff    1.19 Angstroem

   l    n(q)    QCUT    max X(q) W(low)/X(q) W(high)/X(q)  e(spline)
   0      8    10.715   187.594    0.41E-03    0.53E-04    0.66E-07
   0      8    10.715   164.243    0.41E-03    0.53E-04    0.65E-07
   1      7    10.715    67.533    0.19E-03    0.59E-03    0.68E-07
   1      7    10.715    50.729    0.19E-03    0.58E-03    0.67E-07
  PAW_PBE Ni_pv 06Sep2000               :
  PAW_PBE S 06Sep2000                   :

 POSCAR: Type_048 Type_148
  positions in cartesian coordinates
 exchange correlation table for  LEXCH =        8
   RHO(1)=    0.500       N(1)  =     2000
   RHO(2)=  100.500       N(2)  =     4000

 ion  position               nearest neighbor table
   1  0.261  0.479  0.253-  73 2.25  57 2.26  81 2.26  54 2.36  58 2.36   7 2.53  21 2.53
   2  0.355  0.385  0.388-  74 2.25  54 2.26  58 2.26   3 2.36  59 2.36  65 2.36   8 2.53  22 2.53

   3  0.370  0.370  0.497-  52 2.04  65 2.10  59 2.10   2 2.36
   4  0.167  0.073  0.118-  55 2.04  82 2.09  63 2.25  56 2.36  83 2.36  36 2.46  30 2.53
   5  0.049  0.054  0.472-  50 2.05  77 2.08  72 2.10  78 2.14
   6  0.298  0.232  0.118-  55 2.02  56 2.18  57 2.21  51 2.24   7 2.31
   7  0.368  0.239  0.218-  56 2.25  57 2.26  51 2.26   6 2.31  58 2.36  60 2.36   1 2.53  21 2.53

[...]

  44  0.962  0.645  0.353-  66 2.25  95 2.26  73 2.26  96 2.36  74 2.36  38 2.53  34 2.53
  45  0.500  0.872  0.218-  94 2.25  76 2.26  56 2.26  86 2.36  79 2.36  25 2.53  31 2.53
  46  0.594  0.778  0.353-  95 2.25  86 2.26  79 2.26  90 2.36  87 2.36  32 2.53  26 2.53
  47  0.685  0.691  0.472-  87 2.05  64 2.08  90 2.10  96 2.14
  48  0.916  0.961  0.102-  68 2.03  82 2.08  67 2.12  88 2.16
  49  0.073  0.167  0.270-  25 2.25  10 2.26  20 2.26   9 2.36  19 2.36
  50  0.167  0.073  0.405-   5 2.05  11 2.05  26 2.25  10 2.36  20 2.36  77 2.71
  51  0.479  0.261  0.135-  16 2.15  12 2.16   6 2.24   7 2.26  21 2.26
  52  0.208  0.532  0.528-   3 2.04  29 2.08  35 2.08  74 2.71
  53  0.030  0.378  0.451-  11 2.10  15 2.10  29 2.14  10 2.36  14 2.36
  54  0.436  0.472  0.315-  32 2.25   2 2.26  22 2.26   1 2.36  21 2.36
  55  0.266  0.123  0.052-   6 2.02   4 2.04  36 2.10  75 2.64
  56  0.342  0.066  0.180-  36 2.10   6 2.18   7 2.25  25 2.26  45 2.26   4 2.36
  57  0.174  0.397  0.180-   6 2.21  28 2.24   9 2.25   7 2.26   1 2.26
  58  0.268  0.303  0.315-  10 2.25   2 2.26   8 2.26   7 2.36   1 2.36
  59  0.362  0.209  0.451-  17 2.10   3 2.10  11 2.14   8 2.36   2 2.36
  60  0.573  0.167  0.270-  37 2.25  22 2.26   8 2.26  21 2.36   7 2.36
  61  0.667  0.073  0.405-  23 2.05  17 2.05  38 2.25  22 2.36   8 2.36  89 2.71
  62  0.883  0.370  0.021-  18 1.99  24 2.03  92 2.64  63 2.77
  63  0.979  0.261  0.135-  24 2.13   4 2.25  19 2.26   9 2.26  18 2.36  62 2.77
  64  0.708  0.532  0.528-  15 2.04  47 2.08  41 2.08  87 2.71
  65  0.530  0.378  0.451-  23 2.10   3 2.10  41 2.14  22 2.36   2 2.36
  66  0.936  0.472  0.315-  44 2.25  14 2.26  10 2.26  13 2.36   9 2.36
  67  0.762  0.147  0.074-  48 2.12  16 2.13  18 2.17  68 2.50
  68  0.842  0.066  0.180-  48 2.03  16 2.05  19 2.25  37 2.26  33 2.26  67 2.50
  69  0.581  0.475  0.066-  18 2.07  12 2.08  40 2.09  70 2.68
  70  0.674  0.397  0.180-  21 2.25  19 2.26  13 2.26  18 2.36  40 2.36  69 2.68
  71  0.768  0.303  0.315-  22 2.25  14 2.26  20 2.26  19 2.36  13 2.36
  72  0.862  0.209  0.451-   5 2.10  15 2.10  23 2.14  20 2.36  14 2.36
  73  0.073  0.667  0.270-   1 2.25  34 2.26  44 2.26  33 2.36  43 2.36
  74  0.167  0.573  0.405-  35 2.05  29 2.05   2 2.25  34 2.36  44 2.36  52 2.71
  75  0.383  0.870  0.021-  30 1.99  36 2.03  55 2.64  76 2.77
  76  0.479  0.761  0.135-  36 2.13  40 2.25  31 2.26  45 2.26  30 2.36  75 2.77
  77  0.208  0.032  0.528-  27 2.04  11 2.08   5 2.08  50 2.71
  78  0.030  0.878  0.451-  35 2.10  39 2.10   5 2.14  34 2.36  38 2.36
  79  0.436  0.972  0.315-   8 2.25  26 2.26  46 2.26  25 2.36  45 2.36
  80  0.262  0.647  0.074-  12 2.12  28 2.13  30 2.17  81 2.50
  81  0.342  0.566  0.180-  12 2.03  28 2.05  31 2.25   1 2.26  21 2.26  80 2.50
  82  0.081  0.975  0.066-  30 2.07  48 2.08   4 2.09  83 2.68
  83  0.174  0.897  0.180-  33 2.25  31 2.26  25 2.26  30 2.36   4 2.36  82 2.68
  84  0.268  0.803  0.315-  34 2.25  26 2.26  32 2.26  31 2.36  25 2.36
  85  0.362  0.709  0.451-  41 2.10  27 2.10  35 2.14  32 2.36  26 2.36
  86  0.573  0.667  0.270-  13 2.25  46 2.26  32 2.26  45 2.36  31 2.36
  87  0.667  0.573  0.405-  41 2.05  47 2.05  14 2.25  46 2.36  32 2.36  64 2.71
  88  0.979  0.761  0.135-  28 2.15  48 2.16  42 2.24  43 2.26  33 2.26
  89  0.708  0.032  0.528-  39 2.04  17 2.08  23 2.08  61 2.71
  90  0.530  0.878  0.451-  47 2.10  27 2.10  17 2.14  46 2.36  26 2.36
  91  0.936  0.972  0.315-  20 2.25  38 2.26  34 2.26  37 2.36  33 2.36
  92  0.766  0.623  0.052-  42 2.02  40 2.04  24 2.10  62 2.64
  93  0.842  0.566  0.180-  24 2.10  42 2.18  43 2.25  13 2.26   9 2.26  40 2.36
  94  0.674  0.897  0.180-  42 2.21  16 2.24  45 2.25  43 2.26  37 2.26
  95  0.768  0.803  0.315-  46 2.25  38 2.26  44 2.26  43 2.36  37 2.36
  96  0.862  0.709  0.451-  29 2.10  39 2.10  47 2.14  44 2.36  38 2.36

  LATTYP: Found a base centered orthorhombic cell.
 ALAT       =    11.8257374459
 B/A-ratio  =     1.6199260857
 C/A-ratio  =     1.8387210052

  Lattice vectors:

 A1 = (  11.2564630382,   0.0000000000,   0.0000000000)
 A2 = (  -5.0445621212, -10.0628203371,   0.0000000000)
 A3 = (   0.0000000000,   0.0000000000, -21.7442318436)

Analysis of symmetry for initial positions (statically):
 Subroutine PRICEL returns following result:

  LATTYP: Found a simple orthorhombic cell.
 ALAT       =     5.9128687230
 B/A-ratio  =     1.6199260857
 C/A-ratio  =     3.6774420103

[...]

   2 primitive cells build up your supercell.

 Routine SETGRP: Setting up the symmetry group for a
 base centered orthorhombic supercell.

 Subroutine GETGRP returns: Found  1 space group operations
 (whereof  1 operations were pure point group operations)
 out of a pool of  8 trial point group operations.

The static configuration has the point symmetry C_1 .

Analysis of symmetry for dynamics (positions and initial velocities):
 Subroutine PRICEL returns following result:

  LATTYP: Found a simple orthorhombic cell.
 ALAT       =     5.9128687230
 B/A-ratio  =     1.6199260857
 C/A-ratio  =     3.6774420103

  Lattice vectors:

 A1 = (   3.1059504585,  -5.0314101686,   0.0000000000)
 A2 = (  -8.1505125797,  -5.0314101685,   0.0000000000)
 A3 = (   0.0000000000,   0.0000000000, -21.7442318436)

   2 primitive cells build up your supercell.

 Routine SETGRP: Setting up the symmetry group for a
 base centered orthorhombic supercell.

 Subroutine GETGRP returns: Found  1 space group operations
 (whereof  1 operations were pure point group operations)
 out of a pool of  8 trial point group operations.

The dynamic configuration has the point symmetry C_1 .

 Subroutine INISYM returns: Found  1 space group operations
 (whereof  1 operations are pure point group operations),
 and found     2 'primitive' translations

 KPOINTS: gamma-point-only calculation. no periodi

Automatic generation of k-mesh.
Space group operators:
 irot       det(A)        alpha          n_x          n_y          n_z        tau_x        tau_y        tau_z
    1     1.000000     0.000000     1.000000     0.000000     0.000000     0.000000     0.000000     0.000000

 Subroutine IBZKPT returns following result:

 Found      1 irreducible k-points:

 Following reciprocal coordinates:
            Coordinates               Weight
  0.000000  0.000000  0.000000      1.000000

 Following cartesian coordinates:
            Coordinates               Weight
  0.000000  0.000000  0.000000      1.000000

 SYSTEM =  "Millerite NiS"
 POSCAR =  Type_048 Type_148

 Startparameter for this run:
   NWRITE =      2    write-flag & timer
   PREC   = normal    normal or accurate (medium, high low for compatibility)
   ISTART =      0    job   : 0-new  1-cont  2-samecut
   ICHARG =      2    charge: 1-file 2-atom 10-const
   ISPIN  =      1    spin polarized calculation?
   LNONCOLLINEAR =      F non collinear calculations
   LSORBIT =      F    spin-orbit coupling
   INIWAV =      1    electr: 0-lowe 1-rand  2-diag
   LASPH  =      F    aspherical Exc in radial PAW
   METAGGA=      F    non-selfconsistent MetaGGA calc.

 Electronic Relaxation 1
   ENCUT  =  450.0 eV  33.07 Ry    5.75 a.u.  19.47 19.47 37.61*2*pi/ulx,y,z
   ENINI  =  450.0     initial cutoff
   ENAUG  =  703.4 eV  augmentation charge cutoff
   NELM   =    100;   NELMIN=  2; NELMDL= -5     # of ELM steps
   EDIFF  = 0.1E-03   stopping-criterion for ELM
   LREAL  =      T    real-space projection
   NLSPLINE    = F    spline interpolate recip. space projectors
   LCOMPAT=      F    compatible to vasp.4.4
   GGA_COMPAT  = T    GGA compatible to vasp.4.4-vasp.4.6
   LMAXPAW     = -100 max onsite density
   LMAXMIX     =    2 max onsite mixed and CHGCAR
   VOSKOWN=      0    Vosko Wilk Nusair interpolation
   ROPT   =   -0.00050  -0.00050
 Ionic relaxation
   EDIFFG = 0.1E-02   stopping-criterion for IOM
   NSW    =      0    number of steps for IOM
   NBLOCK =      1;   KBLOCK =      1    inner block; outer block
   IBRION =     -1    ionic relax: 0-MD 1-quasi-New 2-CG
   NFREE  =      0    steps in history (QN), initial steepest desc. (CG)
   ISIF   =      2    stress and relaxation
   IWAVPR =     10    prediction:  0-non 1-charg 2-wave 3-comb
   ISYM   =      2    0-nonsym 1-usesym 2-fastsym
   LCORR  =      T    Harris-Foulkes like correction to forces

   POTIM  = 0.5000    time-step for ionic-motion
   TEIN   =    0.0    initial temperature
[...]
     0.000000000  0.000000000 21.744231844     0.000000000  0.000000000  0.045989208

  length of vectors
    11.256463038 11.256463038 21.744231844     0.099375718  0.099375718  0.045989208

 FORCES acting on ions
    electron-ion (+dipol)            ewald-force                    non-local-force                 convergence-correction
   0.234E+03 -.343E+03 0.674E+03   -.235E+03 0.343E+03 -.672E+03   0.338E+00 -.429E+00 -.140E+01   0.480E-01 -.171E-02 -.915E-01
   0.225E+03 -.369E+03 -.232E+04   -.226E+03 0.370E+03 0.232E+04   0.566E+00 -.888E+00 -.100E+00   0.285E-01 -.577E-01 -.853E-01
   -.237E+02 0.378E+02 -.557E+04   0.214E+02 -.341E+02 0.557E+04   0.275E+01 -.448E+01 0.760E+00   -.158E-01 -.905E-02 0.138E+00
   0.440E+03 -.463E+03 0.414E+04   -.444E+03 0.466E+03 -.414E+04   0.279E+01 -.290E+01 0.308E+01   -.310E-01 -.396E-01 0.485E-01
   0.304E+03 0.217E+03 -.484E+04   -.308E+03 -.220E+03 0.485E+04   0.359E+01 0.326E+01 -.239E+01   0.290E-01 -.430E-03 0.701E-01
   -.109E+03 -.431E+03 0.490E+04   0.108E+03 0.435E+03 -.491E+04   0.673E+00 -.263E+01 0.318E+01   0.604E-01 0.212E-01 0.480E-01
   0.121E+03 0.360E+03 0.167E+04   -.120E+03 -.360E+03 -.167E+04   -.622E+00 -.218E+00 -.133E+01   0.592E-01 0.530E-01 -.524E-01
   0.253E+03 0.433E+03 -.135E+04   -.254E+03 -.433E+03 0.135E+04   0.108E+01 0.291E+00 0.205E+01   0.339E-01 0.410E-01 -.114E+00
   -.550E+03 0.520E+01 0.180E+04   0.553E+03 -.606E+01 -.180E+04   -.209E+01 0.800E+00 -.656E+00   -.183E-01 0.202E-01 -.396E-01
   -.497E+03 -.331E+02 -.134E+04   0.498E+03 0.338E+02 0.134E+04   -.697E+00 -.795E+00 0.215E+01   0.383E-01 0.510E-02 -.561E-01
   -.330E+03 -.174E+03 -.484E+04   0.334E+03 0.176E+03 0.485E+04   -.445E+01 -.171E+01 -.241E+01   0.428E-02 -.780E-02 0.689E-01
   0.897E+02 0.196E+03 0.520E+04   -.850E+02 -.199E+03 -.520E+04   -.473E+01 0.162E+01 0.395E+01   0.386E-02 -.162E-01 0.514E-01
   0.272E+03 -.378E+03 0.678E+03   -.273E+03 0.378E+03 -.677E+03   0.913E+00 -.153E+00 -.960E+00   -.419E-01 -.172E-01 -.957E-01
   0.229E+03 -.366E+03 -.232E+04   -.229E+03 0.367E+03 0.232E+04   0.524E+00 -.101E+01 0.151E+00   -.425E-03 0.101E-01 -.165E-01
   -.232E+02 0.383E+02 -.557E+04   0.209E+02 -.345E+02 0.557E+04   0.280E+01 -.462E+01 0.724E+00   0.709E-02 0.244E-01 0.169E+00
   0.402E+03 -.559E+02 0.416E+04   -.408E+03 0.574E+02 -.416E+04   0.456E+01 -.178E+01 0.174E+01   0.499E-01 0.182E-01 0.305E-01
   0.304E+03 0.217E+03 -.484E+04   -.308E+03 -.220E+03 0.485E+04   0.341E+01 0.328E+01 -.228E+01   -.312E-01 -.123E-01 0.262E-01
   0.390E+03 0.548E+03 0.513E+04   -.394E+03 -.553E+03 -.513E+04   0.221E+01 0.309E+01 0.483E+01   -.110E+00 -.281E-01 0.807E-01
   0.239E+03 0.459E+03 0.183E+04   -.239E+03 -.459E+03 -.183E+04   0.374E+00 -.521E+00 0.805E+00   -.819E-01 -.863E-02 -.547E-01
   0.255E+03 0.434E+03 -.134E+04   -.255E+03 -.434E+03 0.134E+04   0.933E+00 0.249E+00 0.220E+01   -.291E-01 -.304E-01 -.970E-01
   -.507E+03 -.808E+01 0.182E+04   0.508E+03 0.812E+01 -.182E+04   -.115E+01 0.738E-02 -.659E+00   -.243E-01 -.113E-02 -.447E-01
   -.504E+03 -.381E+02 -.134E+04   0.505E+03 0.387E+02 0.134E+04   -.818E+00 -.723E+00 0.191E+01   -.430E-01 -.713E-02 -.151E+00
   -.331E+03 -.175E+03 -.484E+04   0.335E+03 0.177E+03 0.485E+04   -.441E+01 -.167E+01 -.227E+01   -.145E-03 0.580E-02 0.229E-01
   -.956E+03 0.311E+02 0.493E+04   0.960E+03 -.324E+02 -.493E+04   -.194E+01 0.136E+01 0.287E+01   -.822E-02 0.478E-01 0.639E-01
   0.272E+03 -.378E+03 0.678E+03   -.273E+03 0.378E+03 -.677E+03   0.913E+00 -.153E+00 -.960E+00   -.424E-01 -.168E-01 -.966E-01
   0.229E+03 -.366E+03 -.232E+04   -.229E+03 0.367E+03 0.232E+04   0.524E+00 -.101E+01 0.151E+00   -.594E-03 0.102E-01 -.168E-01
   -.232E+02 0.383E+02 -.557E+04   0.209E+02 -.345E+02 0.557E+04   0.280E+01 -.462E+01 0.724E+00   0.738E-02 0.240E-01 0.168E+00
   0.402E+03 -.559E+02 0.416E+04   -.408E+03 0.574E+02 -.416E+04   0.456E+01 -.178E+01 0.174E+01   0.500E-01 0.186E-01 0.306E-01
   0.304E+03 0.217E+03 -.484E+04   -.308E+03 -.220E+03 0.485E+04   0.341E+01 0.328E+01 -.228E+01   -.324E-01 -.120E-01 0.257E-01
   0.390E+03 0.548E+03 0.513E+04   -.394E+03 -.553E+03 -.513E+04   0.221E+01 0.309E+01 0.483E+01   -.110E+00 -.266E-01 0.799E-01
   0.239E+03 0.459E+03 0.183E+04   -.239E+03 -.459E+03 -.183E+04   0.374E+00 -.521E+00 0.805E+00   -.822E-01 -.785E-02 -.551E-01
   0.255E+03 0.434E+03 -.134E+04   -.255E+03 -.434E+03 0.134E+04   0.933E+00 0.249E+00 0.220E+01   -.289E-01 -.308E-01 -.973E-01
   -.507E+03 -.808E+01 0.182E+04   0.508E+03 0.812E+01 -.182E+04   -.115E+01 0.738E-02 -.659E+00   -.241E-01 -.785E-03 -.449E-01
   -.504E+03 -.381E+02 -.134E+04   0.505E+03 0.387E+02 0.134E+04   -.818E+00 -.723E+00 0.191E+01   -.438E-01 -.669E-02 -.150E+00
   -.331E+03 -.175E+03 -.484E+04   0.335E+03 0.177E+03 0.485E+04   -.441E+01 -.167E+01 -.227E+01   -.161E-02 0.621E-02 0.228E-01
   -.956E+03 0.311E+02 0.493E+04   0.960E+03 -.324E+02 -.493E+04   -.194E+01 0.136E+01 0.287E+01   -.921E-02 0.480E-01 0.627E-01
   0.234E+03 -.343E+03 0.674E+03   -.235E+03 0.343E+03 -.672E+03   0.338E+00 -.429E+00 -.140E+01   0.483E-01 -.157E-02 -.915E-01
   0.225E+03 -.369E+03 -.232E+04   -.226E+03 0.370E+03 0.232E+04   0.566E+00 -.888E+00 -.100E+00   0.290E-01 -.577E-01 -.847E-01
   -.237E+02 0.378E+02 -.557E+04   0.214E+02 -.341E+02 0.557E+04   0.275E+01 -.448E+01 0.760E+00   -.158E-01 -.908E-02 0.138E+00
   0.440E+03 -.463E+03 0.414E+04   -.444E+03 0.466E+03 -.414E+04   0.279E+01 -.290E+01 0.308E+01   -.308E-01 -.384E-01 0.492E-01
   0.304E+03 0.217E+03 -.484E+04   -.308E+03 -.220E+03 0.485E+04   0.359E+01 0.326E+01 -.239E+01   0.309E-01 -.843E-03 0.706E-01
   -.109E+03 -.431E+03 0.490E+04   0.108E+03 0.435E+03 -.491E+04   0.673E+00 -.263E+01 0.318E+01   0.611E-01 0.222E-01 0.482E-01
   0.121E+03 0.360E+03 0.167E+04   -.120E+03 -.360E+03 -.167E+04   -.622E+00 -.218E+00 -.133E+01   0.595E-01 0.533E-01 -.525E-01
   0.253E+03 0.433E+03 -.135E+04   -.254E+03 -.433E+03 0.135E+04   0.108E+01 0.291E+00 0.205E+01   0.339E-01 0.407E-01 -.114E+00
   -.550E+03 0.520E+01 0.180E+04   0.553E+03 -.606E+01 -.180E+04   -.209E+01 0.800E+00 -.656E+00   -.186E-01 0.207E-01 -.404E-01
   -.497E+03 -.331E+02 -.134E+04   0.498E+03 0.338E+02 0.134E+04   -.697E+00 -.795E+00 0.215E+01   0.390E-01 0.463E-02 -.562E-01
   -.330E+03 -.174E+03 -.484E+04   0.334E+03 0.176E+03 0.485E+04   -.445E+01 -.171E+01 -.241E+01   0.527E-02 -.914E-02 0.695E-01
   0.897E+02 0.196E+03 0.520E+04   -.850E+02 -.199E+03 -.520E+04   -.473E+01 0.162E+01 0.395E+01   0.496E-02 -.165E-01 0.509E-01
   -.662E+02 0.120E+03 0.294E+03   0.676E+02 -.122E+03 -.296E+03   -.136E+01 0.190E+01 0.254E+01   -.346E-02 -.232E-01 -.373E-01
   -.750E+02 0.123E+03 -.887E+03   0.760E+02 -.125E+03 0.882E+03   -.466E+00 0.113E+01 0.945E+00   0.394E-02 0.406E-02 -.389E-02
   -.681E+02 0.110E+03 0.176E+04   0.689E+02 -.112E+03 -.176E+04   -.129E+01 0.113E+01 0.227E+01   0.128E-02 0.193E-01 0.143E-01
   -.106E+01 0.158E+01 -.234E+04   0.156E+01 -.241E+01 0.235E+04   -.385E+00 0.603E+00 -.200E+01   0.113E-01 -.364E-01 0.677E-01
   -.120E+03 -.104E+03 -.156E+04   0.121E+03 0.106E+03 0.156E+04   -.169E+01 -.554E+00 -.156E+01   -.105E-01 -.690E-02 0.243E-01
   -.775E+02 -.153E+03 -.189E+03   0.789E+02 0.156E+03 0.190E+03   -.146E+01 -.246E+01 -.437E+00   -.575E-02 -.257E-01 -.608E-01
   -.663E+02 -.240E+03 0.240E+04   0.654E+02 0.244E+03 -.240E+04   0.122E+01 -.231E+01 0.894E+00   0.137E-01 0.216E-01 0.756E-02
   -.732E+02 -.833E+02 0.900E+03   0.742E+02 0.836E+02 -.898E+03   -.873E+00 0.113E+00 0.349E+00   -.482E-02 0.205E-01 -.301E-02
   0.159E+03 -.838E+02 0.116E+04   -.163E+03 0.843E+02 -.117E+04   0.235E+01 -.256E+00 0.142E+01   0.401E-01 0.441E-03 -.327E-02
   0.170E+03 -.425E+01 -.194E+03   -.173E+03 0.432E+01 0.194E+03   0.300E+01 -.923E-01 0.128E+00   0.286E-01 -.196E-02 -.419E-01
   0.147E+03 0.602E+02 -.156E+04   -.149E+03 -.612E+02 0.156E+04   0.127E+01 0.144E+01 -.178E+01   -.125E-03 0.134E-01 0.324E-02
   -.696E+02 0.112E+03 0.276E+03   0.705E+02 -.114E+03 -.278E+03   -.847E+00 0.172E+01 0.204E+01   0.628E-02 0.161E-01 -.194E-01
[...]
   0.175E+03 0.594E+01 0.101E+04   -.178E+03 -.626E+01 -.101E+04   0.269E+01 0.956E-01 0.103E+01   -.175E-01 -.989E-02 0.771E-03
   0.170E+03 -.204E+01 -.188E+03   -.173E+03 0.193E+01 0.189E+03   0.298E+01 0.120E+00 -.319E+00   -.328E-01 -.209E-02 -.569E-01
   0.147E+03 0.605E+02 -.156E+04   -.149E+03 -.613E+02 0.156E+04   0.123E+01 0.127E+01 -.159E+01   0.196E-01 0.123E-01 0.195E-01
   -.662E+02 0.120E+03 0.294E+03   0.676E+02 -.122E+03 -.296E+03   -.136E+01 0.190E+01 0.254E+01   -.341E-02 -.232E-01 -.372E-01
   -.750E+02 0.123E+03 -.887E+03   0.760E+02 -.125E+03 0.882E+03   -.466E+00 0.113E+01 0.945E+00   0.428E-02 0.387E-02 -.365E-02
   -.681E+02 0.110E+03 0.176E+04   0.689E+02 -.112E+03 -.176E+04   -.129E+01 0.113E+01 0.227E+01   0.151E-02 0.196E-01 0.142E-01
   -.106E+01 0.158E+01 -.234E+04   0.156E+01 -.241E+01 0.235E+04   -.385E+00 0.603E+00 -.200E+01   0.117E-01 -.366E-01 0.676E-01
   -.120E+03 -.104E+03 -.156E+04   0.121E+03 0.106E+03 0.156E+04   -.169E+01 -.554E+00 -.156E+01   -.102E-01 -.711E-02 0.243E-01
   -.775E+02 -.153E+03 -.189E+03   0.789E+02 0.156E+03 0.190E+03   -.146E+01 -.246E+01 -.437E+00   -.572E-02 -.256E-01 -.608E-01
   -.663E+02 -.240E+03 0.240E+04   0.654E+02 0.244E+03 -.240E+04   0.122E+01 -.231E+01 0.894E+00   0.138E-01 0.222E-01 0.751E-02
   -.732E+02 -.833E+02 0.900E+03   0.742E+02 0.836E+02 -.898E+03   -.873E+00 0.113E+00 0.349E+00   -.462E-02 0.205E-01 -.273E-02
   0.159E+03 -.838E+02 0.116E+04   -.163E+03 0.843E+02 -.117E+04   0.235E+01 -.256E+00 0.142E+01   0.402E-01 0.606E-03 -.334E-02
   0.170E+03 -.425E+01 -.194E+03   -.173E+03 0.432E+01 0.194E+03   0.300E+01 -.923E-01 0.128E+00   0.287E-01 -.200E-02 -.417E-01
   0.147E+03 0.602E+02 -.156E+04   -.149E+03 -.612E+02 0.156E+04   0.127E+01 0.144E+01 -.178E+01   -.122E-03 0.133E-01 0.345E-02
   -.183E+02 0.195E+02 -.561E+02   -.284E-12 -.966E-12 0.887E-11   0.183E+02 -.195E+02 0.565E+02   -.179E+00 -.266E-01 -.355E+00

 POSITION                                       TOTAL-FORCE (eV/Angst)
      5.35228      4.81788      5.50842         0.026507     -0.068186      0.202408
      5.93595      3.87238      8.44448        -0.160569      0.098927     -1.027687
      6.03070      3.71890     10.80103         0.479043     -0.768214      0.709014
      2.24633      0.73197      2.57236        -1.276519      0.309620      1.891000
      0.82262      0.54570     10.26885        -0.493920      0.001465      0.419140
      4.51877      2.33287      2.57450         0.649495      0.766760     -0.224634
      5.35228      2.40903      4.73270         0.503888      0.263329      1.431978
      5.93595      1.46353      7.66876        -0.014472     -0.074283      0.046046
      1.87746      3.73836      4.73270         0.219070     -0.043537      0.181287
      2.46113      2.79286      7.66876        -0.041091     -0.059934     -0.073627
      3.05085      1.92121     10.26891         0.275435      0.461065      0.443596
      7.00819      4.63534      2.21390         0.048580     -0.673537     -1.147120
     10.98051      4.81788      5.50842        -0.140313     -0.086491      0.013174
     11.56418      3.87238      8.44448        -0.093669      0.147961     -0.995323
     11.65885      3.71902     10.80092         0.461216     -0.804648      0.693692
      7.93938      0.86656      3.11985        -0.740970     -0.228393     -0.855174
      6.45091      0.54570     10.26910        -0.499685     -0.041892      0.470979
     10.39684      3.35453      1.79664        -1.247186     -1.836173      2.409555
     10.98051      2.40903      4.73270         0.166381      0.169806      0.261626
     11.56418      1.46353      7.66876         0.049107     -0.051250     -0.055168
      7.50570      3.73836      4.73270         0.044835      0.052713      0.308232
      8.08937      2.79286      7.66876         0.013773     -0.131470     -0.062771
      8.67912      1.92120     10.26904         0.264569      0.484197      0.437008
     12.51325      4.58755      2.14066         1.578434      0.071011      0.483723
      7.87456      9.84929      5.50842        -0.140313     -0.086491      0.013174
      8.45823      8.90379      8.44448        -0.093669      0.147961     -0.995323
      8.55290      8.75043     10.80092         0.461216     -0.804648      0.693692
      4.83343      5.89797      3.11985        -0.740970     -0.228393     -0.855174
      3.34496      5.57711     10.26910        -0.499685     -0.041892      0.470979
      7.29089      8.38594      1.79664        -1.247186     -1.836173      2.409555
      7.87456      7.44044      4.73270         0.166381      0.169806      0.261626
      8.45823      6.49494      7.66876         0.049107     -0.051250     -0.055168
      4.39975      8.76977      4.73270         0.044835      0.052713      0.308232
      4.98341      7.82427      7.66876         0.013773     -0.131470     -0.062771
      5.57317      6.95261     10.26904         0.264569      0.484197      0.437008
      9.40730      9.61896      2.14066         1.578434      0.071011      0.483723
     13.50279      9.84929      5.50842         0.026507     -0.068186      0.202408
     14.08646      8.90379      8.44448        -0.160569      0.098927     -1.027687
     14.18121      8.75031     10.80103         0.479043     -0.768214      0.709014
     10.39684      5.76338      2.57236        -1.276519      0.309620      1.891000
      8.97314      5.57711     10.26885        -0.493920      0.001465      0.419140
     12.66929      7.36428      2.57450         0.649495      0.766760     -0.224634
     13.50279      7.44044      4.73270         0.503888      0.263329      1.431978
     14.08646      6.49494      7.66876        -0.014472     -0.074283      0.046046
     10.02798      8.76977      4.73270         0.219070     -0.043537      0.181287
     10.61165      7.82427      7.66876        -0.041091     -0.059934     -0.073627
     11.20136      6.95262     10.26891         0.275435      0.461065      0.443596
     15.15870      9.66675      2.21390         0.048580     -0.673537     -1.147120
      1.66190      1.67871      5.87212         0.041934     -0.093696      0.151353
      2.24556      0.73321      8.80817         0.474856     -0.749290     -3.087186
      6.70646      2.62422      2.93606        -0.441566     -0.571716     -0.437502
      5.02119      5.35429     11.47533         0.131438     -0.267439      2.790435
      2.24556      3.80055      9.79595        -0.039446      0.954350     -0.041322
      7.29013      4.74605      6.85989        -0.022559      0.058036     -0.119403
      3.61394      1.23829      1.14005         0.313810      1.182279     -3.684470
      4.18418      0.66015      3.92384         0.130139      0.425014      1.986252
      3.96438      3.99884      3.92384        -0.976171      0.200582     -0.108196
      4.54805      3.05334      6.85989         0.078926     -0.028925     -0.033820
      5.13172      2.10784      9.79595        -0.797644      0.477508     -0.049179
      7.29013      1.67871      5.87212        -0.000847      0.016557      0.229617
[...]
      5.83202      9.81424      1.44279        -0.979056      0.432721     -2.439694
      6.48666      9.03025      3.92384         0.069308     -0.234914      0.953639
      7.07033      8.08475      6.85989         0.021038      0.012649     -0.068704
      7.65400      7.13925      9.79595        -0.842538      0.464097     -0.062439
      9.81241      6.71012      5.87212         0.041934     -0.093696      0.151353
     10.39608      5.76462      8.80817         0.474856     -0.749290     -3.087186
     14.85697      7.65563      2.93606        -0.441566     -0.571716     -0.437502
      8.12714      0.32288     11.47533         0.131438     -0.267439      2.790435
     10.39608      8.83196      9.79595        -0.039446      0.954350     -0.041322
     15.44064      9.77746      6.85989        -0.022559      0.058036     -0.119403
     11.76445      6.26970      1.14005         0.313810      1.182279     -3.684470
     12.33469      5.69156      3.92384         0.130139      0.425014      1.986252
     12.11489      9.03025      3.92384        -0.976171      0.200582     -0.108196
     12.69856      8.08475      6.85989         0.078926     -0.028925     -0.033820
     13.28223      7.13925      9.79595        -0.797644      0.477508     -0.049179
    total drift:                               -0.183906     -0.030618      0.047013

  FREE ENERGIE OF THE ION-ELECTRON SYSTEM (eV)
  free  energy   TOTEN  =      -476.75128758 eV

  energy  without entropy=     -475.51472811  energy(sigma->0) =     -476.13300784