 vasp.5.4.4.18Apr17-6-g9f103f2a35 (build Aug 13 2019 17:33:20) gamma-only

 executed on             LinuxIFC date 2020.05.10  20:48:02

 INCAR:
 POTCAR:    PAW_PBE Ni_pv 06Sep2000
 POTCAR:    PAW_PBE S 06Sep2000
 POTCAR:    PAW_PBE Ni_pv 06Sep2000
   VRHFIN =Ni:

   TITEL  = PAW_PBE Ni_pv 06Sep2000
   POMASS =   58.690; ZVAL   =   16.000    mass and valenz
   ENMAX  =  367.986; ENMIN  =  275.989 eV

 POTCAR:    PAW_PBE S 06Sep2000
   VRHFIN =S : s2p4

   TITEL  = PAW_PBE S 06Sep2000
   POMASS =   32.066; ZVAL   =    6.000    mass and valenz
   ENMAX  =  258.689; ENMIN  =  194.016 eV

 Optimization of the real space projectors (new method)

 maximal supplied QI-value         = 18.90
 optimisation between [QCUT,QGAM] = [ 10.77, 21.73] = [ 32.49,132.25] Ry
 Optimized for a Real-space Cutoff    1.38 Angstroem

   l    n(q)    QCUT    max X(q) W(low)/X(q) W(high)/X(q)  e(spline)
   1      8    10.771     2.836    0.40E-04    0.29E-04    0.12E-06
   1      8    10.771     4.023    0.10E-03    0.48E-04    0.29E-06
   2      8    10.771    73.368    0.42E-03    0.97E-04    0.44E-06
   2      8    10.771    69.010    0.42E-03    0.99E-04    0.45E-06
   0      9    10.771    54.797    0.10E-03    0.56E-04    0.74E-07
   0      9    10.771    24.266    0.89E-04    0.49E-04    0.67E-07
 Optimization of the real space projectors (new method)

 maximal supplied QI-value         = 19.84
 optimisation between [QCUT,QGAM] = [ 10.71, 21.63] = [ 32.15,130.99] Ry
 Optimized for a Real-space Cutoff    1.19 Angstroem

   l    n(q)    QCUT    max X(q) W(low)/X(q) W(high)/X(q)  e(spline)
   0      8    10.715   187.594    0.41E-03    0.53E-04    0.66E-07
   0      8    10.715   164.243    0.41E-03    0.53E-04    0.65E-07
   1      7    10.715    67.533    0.19E-03    0.59E-03    0.68E-07
   1      7    10.715    50.729    0.19E-03    0.58E-03    0.67E-07
  PAW_PBE Ni_pv 06Sep2000               :
  PAW_PBE S 06Sep2000                   :

 POSCAR: Type_048 Type_148
  positions in cartesian coordinates
 exchange correlation table for  LEXCH =        8
   RHO(1)=    0.500       N(1)  =     2000
   RHO(2)=  100.500       N(2)  =     4000

 ion  position               nearest neighbor table
   1  0.261  0.479  0.253-  75 2.25  59 2.26  82 2.26  55 2.36  60 2.36   7 2.53  21 2.53
   2  0.355  0.385  0.388-  76 2.25  55 2.26  60 2.26  61 2.36  67 2.36   3 2.38   8 2.53  22 2.53

   3  0.374  0.366  0.497-  53 2.04  61 2.09  67 2.09   2 2.38
   4  0.141  0.129  0.176-  65 1.97  57 2.05  49 2.16  56 2.19  25 2.34  36 2.40  83 2.47
   5  0.049  0.054  0.472-  50 2.05  78 2.08  74 2.10  79 2.15
   6  0.274  0.333  0.083-  51 1.97  58 2.07  52 2.36  59 2.36  56 2.40  12 2.53  28 2.53
   7  0.368  0.239  0.218-  57 2.25  59 2.26  52 2.26  60 2.36  62 2.36   1 2.53  21 2.53
   8  0.462  0.145  0.353-  80 2.25  60 2.26  62 2.26  61 2.36  63 2.36   2 2.53  22 2.53
   9  0.000  0.372  0.218-  59 2.25  65 2.26  93 2.26  49 2.36  68 2.36  13 2.53  19 2.53
  10  0.094  0.278  0.353-  60 2.25  49 2.26  68 2.26  54 2.36  50 2.36  20 2.53  14 2.53
  11  0.185  0.191  0.472-  50 2.05  78 2.08  54 2.10  61 2.15
  12  0.406  0.465  0.083-  51 2.01  81 2.07  71 2.10  52 2.36  82 2.36  28 2.53   6 2.53
  13  0.761  0.479  0.253-  86 2.25  72 2.26  93 2.26  68 2.36  73 2.36  19 2.53   9 2.53
  14  0.855  0.385  0.388-  87 2.25  68 2.26  73 2.26  74 2.36  54 2.36  15 2.38  20 2.53  10 2.53

[...]

  44  0.962  0.645  0.353-  68 2.25  95 2.26  75 2.26  96 2.36  76 2.36  38 2.53  34 2.53
  45  0.500  0.872  0.218-  94 2.25  77 2.26  57 2.26  86 2.36  80 2.36  25 2.53  31 2.53
  46  0.594  0.778  0.353-  95 2.25  86 2.26  80 2.26  90 2.36  87 2.36  32 2.53  26 2.53
  47  0.685  0.691  0.472-  87 2.05  66 2.08  90 2.10  96 2.15
  48  0.807  0.938  0.125-  70 2.04  88 2.07  94 2.12  69 2.20  16 2.40  42 2.48
  49  0.073  0.167  0.270-   4 2.16  25 2.25  10 2.26  20 2.26   9 2.36  19 2.36
  50  0.167  0.073  0.405-   5 2.05  11 2.05  26 2.25  10 2.36  20 2.36  78 2.69
  51  0.372  0.364  0.014-   6 1.97  12 2.01
  52  0.479  0.261  0.135-  16 1.97   7 2.26  21 2.26   6 2.36  12 2.36  69 2.76
  53  0.210  0.529  0.527-   3 2.04  35 2.08  29 2.08  76 2.69
  54  0.030  0.378  0.451-  15 2.09  11 2.10  29 2.15  10 2.36  14 2.36
  55  0.436  0.472  0.315-  32 2.25   2 2.26  22 2.26   1 2.36  21 2.36
  56  0.236  0.141  0.090-   4 2.19  36 2.20  57 2.27   6 2.40  65 2.76
  57  0.342  0.066  0.180-  36 2.04   4 2.05   7 2.25  25 2.26  45 2.26  56 2.27
  58  0.084  0.477  0.063-   6 2.07  28 2.09  24 2.10  59 2.74
  59  0.174  0.397  0.180-   9 2.25   7 2.26   1 2.26   6 2.36  28 2.36  58 2.74
  60  0.268  0.303  0.315-  10 2.25   2 2.26   8 2.26   7 2.36   1 2.36
  61  0.362  0.209  0.451-   3 2.09  17 2.10  11 2.15   8 2.36   2 2.36
  62  0.573  0.167  0.270-  16 2.16  37 2.25  22 2.26   8 2.26  21 2.36   7 2.36
  63  0.667  0.073  0.405-  17 2.05  23 2.05  38 2.25  22 2.36   8 2.36  89 2.69
  64  0.872  0.364  0.014-  18 1.97  24 2.01
  65  0.979  0.261  0.135-   4 1.97  19 2.26   9 2.26  18 2.36  24 2.36  56 2.76
  66  0.710  0.529  0.527-  15 2.04  47 2.08  41 2.08  87 2.69
  67  0.530  0.378  0.451-   3 2.09  23 2.10  41 2.15  22 2.36   2 2.36
  68  0.936  0.472  0.315-  44 2.25  14 2.26  10 2.26  13 2.36   9 2.36
  69  0.736  0.141  0.090-  16 2.19  48 2.20  70 2.27  18 2.40  52 2.76
  70  0.842  0.066  0.180-  48 2.04  16 2.05  19 2.25  37 2.26  33 2.26  69 2.27
  71  0.584  0.477  0.063-  18 2.07  40 2.09  12 2.10  72 2.74
  72  0.674  0.397  0.180-  21 2.25  19 2.26  13 2.26  18 2.36  40 2.36  71 2.74
  73  0.768  0.303  0.315-  22 2.25  14 2.26  20 2.26  19 2.36  13 2.36
  74  0.862  0.209  0.451-  15 2.09   5 2.10  23 2.15  20 2.36  14 2.36
  75  0.073  0.667  0.270-   1 2.25  34 2.26  44 2.26  33 2.36  43 2.36
  76  0.167  0.573  0.405-  35 2.05  29 2.05   2 2.25  34 2.36  44 2.36  53 2.69
  77  0.479  0.761  0.135-  36 2.07  30 2.22  40 2.25  31 2.26  45 2.26
  78  0.210  0.029  0.527-  27 2.04  11 2.08   5 2.08  50 2.69
  79  0.030  0.878  0.451-  39 2.09  35 2.10   5 2.15  34 2.36  38 2.36
  80  0.436  0.972  0.315-   8 2.25  26 2.26  46 2.26  25 2.36  45 2.36
  81  0.249  0.633  0.048-  30 2.03  28 2.05  12 2.07
  82  0.342  0.566  0.180-  30 2.11  31 2.25   1 2.26  21 2.26  28 2.36  12 2.36
  83  0.174  0.897  0.180-  36 2.12  33 2.25  31 2.26  25 2.26  30 2.37   4 2.47
  84  0.268  0.803  0.315-  34 2.25  26 2.26  32 2.26  31 2.36  25 2.36
  85  0.362  0.709  0.451-  27 2.09  41 2.10  35 2.15  32 2.36  26 2.36
  86  0.573  0.667  0.270-  13 2.25  46 2.26  32 2.26  45 2.36  31 2.36
  87  0.667  0.573  0.405-  47 2.05  41 2.05  14 2.25  46 2.36  32 2.36  66 2.69
  88  0.979  0.761  0.135-  48 2.07  42 2.22  28 2.25  43 2.26  33 2.26
  89  0.710  0.029  0.527-  39 2.04  23 2.08  17 2.08  63 2.69
  90  0.530  0.878  0.451-  27 2.09  47 2.10  17 2.15  46 2.36  26 2.36
  91  0.936  0.972  0.315-  20 2.25  38 2.26  34 2.26  37 2.36  33 2.36
  92  0.749  0.633  0.048-  42 2.03  40 2.05  24 2.07
  93  0.842  0.566  0.180-  42 2.11  43 2.25  13 2.26   9 2.26  40 2.36  24 2.36
  94  0.674  0.897  0.180-  48 2.12  45 2.25  43 2.26  37 2.26  42 2.37  16 2.47
  95  0.768  0.803  0.315-  46 2.25  38 2.26  44 2.26  43 2.36  37 2.36
  96  0.862  0.709  0.451-  39 2.09  29 2.10  47 2.15  44 2.36  38 2.36

  LATTYP: Found a base centered orthorhombic cell.
 ALAT       =    11.8257374459
 B/A-ratio  =     1.6199260857
 C/A-ratio  =     1.8387210052

  Lattice vectors:

 A1 = (  11.2564630382,   0.0000000000,   0.0000000000)
 A2 = (  -5.0445621212, -10.0628203371,   0.0000000000)
 A3 = (   0.0000000000,   0.0000000000, -21.7442318436)

Analysis of symmetry for initial positions (statically):
 Subroutine PRICEL returns following result:

  LATTYP: Found a simple monoclinic cell.
 ALAT       =    11.2564630382
 B/A-ratio  =     1.9317108553
 C/A-ratio  =     1.3031301026
 COS(beta)  =    -0.9393337087

[...]

   2 primitive cells build up your supercell.

 Routine SETGRP: Setting up the symmetry group for a
 base centered orthorhombic supercell.

 Subroutine GETGRP returns: Found  1 space group operations
 (whereof  1 operations were pure point group operations)
 out of a pool of  8 trial point group operations.

The static configuration has the point symmetry C_1 .

Analysis of symmetry for dynamics (positions and initial velocities):
 Subroutine PRICEL returns following result:

  LATTYP: Found a simple monoclinic cell.
 ALAT       =    11.2564630382
 B/A-ratio  =     1.9317108553
 C/A-ratio  =     1.3031301026
 COS(beta)  =    -0.9393337087

  Lattice vectors:

 A1 = (  -5.0445621212, -10.0628203371,   0.0000000000)
 A2 = (   0.0000000000,   0.0000000000, -21.7442318436)
 A3 = (  10.6727936403,  10.0628203371,   0.0000000000)

   2 primitive cells build up your supercell.

 Routine SETGRP: Setting up the symmetry group for a
 base centered orthorhombic supercell.

 Subroutine GETGRP returns: Found  1 space group operations
 (whereof  1 operations were pure point group operations)
 out of a pool of  8 trial point group operations.

The dynamic configuration has the point symmetry C_1 .

 Subroutine INISYM returns: Found  1 space group operations
 (whereof  1 operations are pure point group operations),
 and found     2 'primitive' translations

 KPOINTS: gamma-point-only calculation. no periodi

Automatic generation of k-mesh.
Space group operators:
 irot       det(A)        alpha          n_x          n_y          n_z        tau_x        tau_y        tau_z
    1     1.000000     0.000000     1.000000     0.000000     0.000000     0.000000     0.000000     0.000000

 Subroutine IBZKPT returns following result:

 Found      1 irreducible k-points:

 Following reciprocal coordinates:
            Coordinates               Weight
  0.000000  0.000000  0.000000      1.000000

 Following cartesian coordinates:
            Coordinates               Weight
  0.000000  0.000000  0.000000      1.000000

 SYSTEM =  "Millerite NiS"
 POSCAR =  Type_048 Type_148

 Startparameter for this run:
   NWRITE =      2    write-flag & timer
   PREC   = normal    normal or accurate (medium, high low for compatibility)
   ISTART =      0    job   : 0-new  1-cont  2-samecut
   ICHARG =      2    charge: 1-file 2-atom 10-const
   ISPIN  =      1    spin polarized calculation?
   LNONCOLLINEAR =      F non collinear calculations
   LSORBIT =      F    spin-orbit coupling
   INIWAV =      1    electr: 0-lowe 1-rand  2-diag
   LASPH  =      F    aspherical Exc in radial PAW
   METAGGA=      F    non-selfconsistent MetaGGA calc.

 Electronic Relaxation 1
   ENCUT  =  450.0 eV  33.07 Ry    5.75 a.u.  19.47 19.47 37.61*2*pi/ulx,y,z
   ENINI  =  450.0     initial cutoff
   ENAUG  =  703.4 eV  augmentation charge cutoff
   NELM   =    100;   NELMIN=  2; NELMDL= -5     # of ELM steps
   EDIFF  = 0.1E-03   stopping-criterion for ELM
   LREAL  =      T    real-space projection
   NLSPLINE    = F    spline interpolate recip. space projectors
   LCOMPAT=      F    compatible to vasp.4.4
   GGA_COMPAT  = T    GGA compatible to vasp.4.4-vasp.4.6
   LMAXPAW     = -100 max onsite density
   LMAXMIX     =    2 max onsite mixed and CHGCAR
   VOSKOWN=      0    Vosko Wilk Nusair interpolation
[...]
     0.000000000  0.000000000 21.744231844     0.000000000  0.000000000  0.045989208

  length of vectors
    11.256463038 11.256463038 21.744231844     0.099375718  0.099375718  0.045989208

 FORCES acting on ions
    electron-ion (+dipol)            ewald-force                    non-local-force                 convergence-correction
   0.267E+03 -.411E+03 0.721E+03   -.269E+03 0.411E+03 -.719E+03   0.112E+01 -.311E+00 -.129E+01   0.390E-02 -.651E-02 -.513E-02
   0.235E+03 -.388E+03 -.236E+04   -.235E+03 0.389E+03 0.236E+04   0.482E+00 -.916E+00 0.159E+00   -.107E-02 -.870E-03 -.482E-01
   -.146E+02 0.212E+02 -.561E+04   0.120E+02 -.172E+02 0.561E+04   0.302E+01 -.472E+01 0.644E+00   0.102E-02 -.577E-02 -.180E-01
   0.239E+03 -.410E+02 0.347E+04   -.241E+03 0.405E+02 -.347E+04   0.233E+01 -.176E+00 -.402E+00   0.396E-04 0.410E-03 0.136E-01
   0.304E+03 0.231E+03 -.488E+04   -.308E+03 -.235E+03 0.488E+04   0.354E+01 0.338E+01 -.223E+01   0.595E-02 0.713E-03 -.221E-01
   0.288E+03 0.873E+03 0.513E+04   -.291E+03 -.876E+03 -.514E+04   0.129E+01 0.120E+01 0.554E+01   0.915E-02 -.764E-02 0.425E-02
   0.309E+03 0.462E+03 0.199E+04   -.311E+03 -.460E+03 -.199E+04   0.135E+01 -.227E+01 0.297E+00   0.319E-02 0.195E-02 0.491E-02
   0.271E+03 0.440E+03 -.139E+04   -.273E+03 -.441E+03 0.139E+04   0.188E+01 0.266E+00 0.876E+00   0.110E-02 0.639E-03 -.300E-01
   -.465E+03 -.203E+03 0.183E+04   0.466E+03 0.205E+03 -.183E+04   -.125E+01 -.133E+01 -.502E-02   -.483E-02 -.519E-03 0.716E-02
   -.505E+03 -.600E+02 -.141E+04   0.507E+03 0.613E+02 0.140E+04   -.120E+01 -.131E+01 0.119E+01   -.251E-03 -.224E-02 -.280E-01
   -.340E+03 -.169E+03 -.488E+04   0.344E+03 0.171E+03 0.489E+04   -.450E+01 -.180E+01 -.227E+01   -.961E-03 -.538E-02 -.222E-01
   -.501E+03 0.208E+03 0.511E+04   0.506E+03 -.210E+03 -.511E+04   -.403E+01 0.151E+01 0.410E+01   -.244E-02 -.117E-01 0.582E-02
   0.267E+03 -.411E+03 0.721E+03   -.269E+03 0.411E+03 -.719E+03   0.112E+01 -.311E+00 -.129E+01   0.338E-02 -.630E-02 -.383E-02
   0.235E+03 -.388E+03 -.236E+04   -.235E+03 0.389E+03 0.236E+04   0.482E+00 -.916E+00 0.159E+00   -.113E-02 -.896E-03 -.479E-01
   -.146E+02 0.212E+02 -.561E+04   0.120E+02 -.172E+02 0.561E+04   0.302E+01 -.472E+01 0.644E+00   0.941E-03 -.577E-02 -.179E-01
   0.239E+03 -.410E+02 0.347E+04   -.241E+03 0.405E+02 -.347E+04   0.233E+01 -.176E+00 -.402E+00   -.282E-02 0.203E-02 0.132E-01
   0.304E+03 0.231E+03 -.488E+04   -.308E+03 -.235E+03 0.488E+04   0.354E+01 0.338E+01 -.223E+01   0.590E-02 0.688E-03 -.220E-01
   0.288E+03 0.873E+03 0.513E+04   -.291E+03 -.876E+03 -.514E+04   0.129E+01 0.120E+01 0.554E+01   0.238E-02 -.804E-02 0.923E-02
   0.309E+03 0.462E+03 0.199E+04   -.311E+03 -.460E+03 -.199E+04   0.135E+01 -.227E+01 0.297E+00   0.296E-02 0.173E-02 0.708E-02
   0.271E+03 0.440E+03 -.139E+04   -.273E+03 -.441E+03 0.139E+04   0.188E+01 0.266E+00 0.876E+00   0.128E-02 0.371E-03 -.297E-01
   -.465E+03 -.203E+03 0.183E+04   0.466E+03 0.205E+03 -.183E+04   -.125E+01 -.133E+01 -.502E-02   -.635E-02 -.217E-03 0.552E-02
   -.505E+03 -.600E+02 -.141E+04   0.507E+03 0.613E+02 0.140E+04   -.120E+01 -.131E+01 0.119E+01   -.546E-03 -.204E-02 -.280E-01
   -.340E+03 -.169E+03 -.488E+04   0.344E+03 0.171E+03 0.489E+04   -.450E+01 -.180E+01 -.227E+01   -.874E-03 -.535E-02 -.222E-01
   -.501E+03 0.208E+03 0.511E+04   0.506E+03 -.210E+03 -.511E+04   -.403E+01 0.151E+01 0.410E+01   0.303E-02 -.838E-02 0.106E-01
   0.164E+03 -.161E+03 0.522E+03   -.164E+03 0.159E+03 -.517E+03   0.389E-01 0.892E+00 -.398E+01   0.315E-02 -.545E-02 -.857E-02
   0.226E+03 -.360E+03 -.236E+04   -.227E+03 0.361E+03 0.236E+04   0.677E+00 -.107E+01 -.283E-01   -.164E-02 0.420E-02 -.389E-01
   -.151E+02 0.268E+02 -.561E+04   0.126E+02 -.227E+02 0.561E+04   0.294E+01 -.487E+01 0.823E+00   -.196E-02 0.571E-02 -.104E-01
   0.411E+03 -.544E+03 0.415E+04   -.414E+03 0.546E+03 -.415E+04   0.290E+01 -.188E+01 0.225E+01   -.171E-02 0.445E-02 0.145E-01
   0.302E+03 0.224E+03 -.487E+04   -.306E+03 -.228E+03 0.487E+04   0.350E+01 0.330E+01 -.235E+01   -.284E-02 0.136E-02 -.256E-01
   0.105E+03 -.496E+03 0.494E+04   -.105E+03 0.500E+03 -.494E+04   0.134E+00 -.248E+01 0.604E+01   0.409E-02 0.904E-02 0.189E-01
   0.129E+03 0.415E+03 0.162E+04   -.129E+03 -.417E+03 -.162E+04   -.238E+00 0.159E+01 -.207E+01   0.385E-02 0.628E-02 0.407E-02
   0.250E+03 0.431E+03 -.136E+04   -.251E+03 -.432E+03 0.135E+04   0.104E+01 0.513E+00 0.208E+01   -.117E-02 -.269E-02 -.308E-01
   -.634E+03 -.577E+02 0.210E+04   0.636E+03 0.564E+02 -.210E+04   -.161E+01 0.117E+01 -.923E+00   -.103E-02 0.218E-03 -.109E-02
   -.501E+03 -.271E+02 -.135E+04   0.501E+03 0.276E+02 0.134E+04   -.464E+00 -.639E+00 0.187E+01   0.146E-02 0.312E-04 -.322E-01
   -.339E+03 -.168E+03 -.487E+04   0.344E+03 0.171E+03 0.487E+04   -.454E+01 -.164E+01 -.227E+01   -.334E-03 0.452E-02 -.247E-01
   -.147E+03 -.169E+03 0.533E+04   0.145E+03 0.166E+03 -.534E+04   0.179E+01 0.270E+01 0.761E+01   0.467E-02 -.152E-02 0.123E-01
   0.164E+03 -.161E+03 0.522E+03   -.164E+03 0.159E+03 -.517E+03   0.389E-01 0.892E+00 -.398E+01   0.278E-02 -.531E-02 -.795E-02
   0.226E+03 -.360E+03 -.236E+04   -.227E+03 0.361E+03 0.236E+04   0.677E+00 -.107E+01 -.283E-01   -.153E-02 0.420E-02 -.388E-01
   -.151E+02 0.268E+02 -.561E+04   0.126E+02 -.227E+02 0.561E+04   0.294E+01 -.487E+01 0.823E+00   -.189E-02 0.567E-02 -.105E-01
   0.411E+03 -.544E+03 0.415E+04   -.414E+03 0.546E+03 -.415E+04   0.290E+01 -.188E+01 0.225E+01   -.536E-02 0.675E-02 0.170E-01
   0.302E+03 0.224E+03 -.487E+04   -.306E+03 -.228E+03 0.487E+04   0.350E+01 0.330E+01 -.235E+01   -.280E-02 0.141E-02 -.255E-01
   0.105E+03 -.496E+03 0.494E+04   -.105E+03 0.500E+03 -.494E+04   0.134E+00 -.248E+01 0.604E+01   0.522E-02 0.108E-01 0.201E-01
   0.129E+03 0.415E+03 0.162E+04   -.129E+03 -.417E+03 -.162E+04   -.238E+00 0.159E+01 -.207E+01   0.435E-02 0.624E-02 0.501E-02
   0.250E+03 0.431E+03 -.136E+04   -.251E+03 -.432E+03 0.135E+04   0.104E+01 0.513E+00 0.208E+01   -.104E-02 -.277E-02 -.307E-01
   -.634E+03 -.577E+02 0.210E+04   0.636E+03 0.564E+02 -.210E+04   -.161E+01 0.117E+01 -.923E+00   -.201E-02 0.974E-03 -.146E-02
   -.501E+03 -.271E+02 -.135E+04   0.501E+03 0.276E+02 0.134E+04   -.464E+00 -.639E+00 0.187E+01   0.118E-02 0.522E-04 -.321E-01
   -.339E+03 -.168E+03 -.487E+04   0.344E+03 0.171E+03 0.487E+04   -.454E+01 -.164E+01 -.227E+01   -.467E-03 0.444E-02 -.246E-01
   -.147E+03 -.169E+03 0.533E+04   0.145E+03 0.166E+03 -.534E+04   0.179E+01 0.270E+01 0.761E+01   0.403E-02 -.174E-02 0.124E-01
   -.112E+02 0.975E+02 0.154E+03   0.114E+02 -.988E+02 -.152E+03   -.491E+00 0.138E+01 -.357E+00   -.171E-02 0.229E-02 -.367E-02
   -.768E+02 0.128E+03 -.905E+03   0.779E+02 -.130E+03 0.901E+03   -.614E+00 0.113E+01 0.138E+01   -.975E-04 0.346E-02 -.910E-02
   -.719E+02 0.241E+03 0.235E+04   0.723E+02 -.244E+03 -.236E+04   0.122E+00 0.165E+01 0.586E+00   -.695E-04 -.864E-03 -.383E-03
   0.186E+02 0.217E+03 0.178E+04   -.196E+02 -.218E+03 -.178E+04   -.136E+01 0.277E+01 0.207E+01   -.179E-02 0.156E-02 0.741E-02
   -.405E+01 0.572E+01 -.234E+04   0.457E+01 -.658E+01 0.235E+04   -.348E+00 0.565E+00 -.210E+01   -.464E-02 0.546E-02 -.706E-03
   -.125E+03 -.112E+03 -.157E+04   0.126E+03 0.114E+03 0.157E+04   -.154E+01 -.658E+00 -.147E+01   0.729E-02 -.314E-02 -.135E-01
   -.734E+02 -.163E+03 -.200E+03   0.744E+02 0.166E+03 0.200E+03   -.100E+01 -.279E+01 0.315E-01   -.244E-03 -.116E-02 -.102E-01
   -.365E+02 0.685E+02 0.218E+04   0.358E+02 -.670E+02 -.218E+04   0.134E+01 -.108E+01 0.434E+01   0.134E-02 -.222E-02 0.426E-02
   -.333E+03 -.993E+02 0.124E+04   0.338E+03 0.101E+03 -.124E+04   -.223E+01 -.996E+00 -.163E+01   0.238E-02 -.176E-02 0.432E-02
   0.981E+02 -.550E+02 0.217E+04   -.989E+02 0.570E+02 -.218E+04   0.228E-01 -.156E+01 0.377E+01   0.745E-03 -.109E-02 0.152E-02
   0.137E+03 -.851E+01 0.105E+04   -.139E+03 0.823E+01 -.105E+04   0.219E+01 0.395E+00 0.114E+01   -.290E-03 -.292E-02 0.803E-02
   0.164E+03 -.132E+02 -.201E+03   -.167E+03 0.130E+02 0.201E+03   0.275E+01 0.145E+00 -.171E-01   0.937E-03 -.482E-03 -.971E-02
[...]
   0.343E+03 -.679E+02 0.123E+04   -.348E+03 0.688E+02 -.123E+04   0.291E+01 -.135E+01 0.127E+01   -.107E-03 -.418E-03 0.511E-02
   0.175E+03 0.591E+01 -.199E+03   -.178E+03 -.604E+01 0.199E+03   0.335E+01 0.139E+00 -.251E+00   0.123E-03 -.549E-03 -.103E-01
   0.154E+03 0.626E+02 -.157E+04   -.156E+03 -.633E+02 0.157E+04   0.113E+01 0.109E+01 -.172E+01   -.560E-03 -.341E-02 -.118E-01
   -.802E+02 0.113E+03 0.303E+03   0.813E+02 -.115E+03 -.305E+03   -.108E+01 0.200E+01 0.258E+01   -.725E-03 0.122E-02 -.466E-02
   -.771E+02 0.123E+03 -.894E+03   0.783E+02 -.125E+03 0.890E+03   -.689E+00 0.125E+01 0.865E+00   -.173E-02 0.141E-03 -.138E-01
   -.259E+03 -.262E+02 0.177E+04   0.262E+03 0.258E+02 -.177E+04   -.220E+01 -.939E+00 0.262E+01   0.340E-03 0.472E-02 0.861E-02
   -.423E+01 0.760E+01 -.235E+04   0.468E+01 -.847E+01 0.235E+04   -.314E+00 0.579E+00 -.212E+01   -.167E-02 0.605E-02 -.277E-02
   -.125E+03 -.108E+03 -.157E+04   0.126E+03 0.110E+03 0.157E+04   -.142E+01 -.542E+00 -.172E+01   0.409E-02 0.191E-02 -.109E-01
   -.833E+02 -.139E+03 -.190E+03   0.847E+02 0.142E+03 0.191E+03   -.152E+01 -.250E+01 -.809E+00   0.730E-03 0.668E-03 -.103E-01
   0.919E+02 -.363E+03 0.241E+04   -.929E+02 0.367E+03 -.241E+04   0.887E+00 -.203E+01 0.147E+01   -.921E-03 0.125E-02 -.127E-02
   -.252E+02 -.443E+02 0.918E+03   0.260E+02 0.439E+02 -.916E+03   -.813E+00 -.366E-01 -.937E+00   0.232E-02 -.239E-02 0.925E-02
   0.343E+03 -.679E+02 0.123E+04   -.348E+03 0.688E+02 -.123E+04   0.291E+01 -.135E+01 0.127E+01   -.519E-03 -.136E-04 0.523E-02
   0.175E+03 0.591E+01 -.199E+03   -.178E+03 -.604E+01 0.199E+03   0.335E+01 0.139E+00 -.251E+00   0.115E-03 -.536E-03 -.102E-01
   0.154E+03 0.626E+02 -.157E+04   -.156E+03 -.633E+02 0.157E+04   0.113E+01 0.109E+01 -.172E+01   -.586E-03 -.342E-02 -.118E-01
   -.211E+02 0.182E+02 -.453E+02   -.227E-11 0.469E-12 0.323E-10   0.209E+02 -.182E+02 0.460E+02   0.273E-01 -.104E-01 -.658E+00

 POSITION                                       TOTAL-FORCE (eV/Angst)
      5.35228      4.81788      5.50842        -0.210861      0.029791      0.046647
      5.93595      3.87238      8.44448        -0.065159      0.035388     -0.988652
      6.05493      3.67960     10.81167         0.467919     -0.758100      0.773242
      2.23454      1.30157      3.82703        -0.348668     -0.725352     -0.002356
      0.82554      0.54812     10.27259        -0.490779     -0.009337      0.502411
      4.76861      3.35453      1.79664        -1.474823     -2.073426      2.297698
      5.35228      2.40903      4.73270         0.124522      0.301320      0.332761
      5.93595      1.46353      7.66876        -0.142553     -0.138185      0.037199
      1.87746      3.73836      4.73270         0.215887      0.185505      0.230410
      2.46113      2.79286      7.66876         0.156742     -0.010050     -0.053923
      3.04745      1.91971     10.27259         0.274978      0.477341      0.487702
      6.92203      4.68386      1.79664         1.321610     -0.174356      2.264532
     10.98051      4.81788      5.50842        -0.210861      0.029791      0.046647
     11.56418      3.87238      8.44448        -0.065159      0.035388     -0.988652
     11.68316      3.67960     10.81167         0.467919     -0.758100      0.773242
      7.86277      1.30157      3.82703        -0.348668     -0.725352     -0.002356
      6.45378      0.54812     10.27259        -0.490779     -0.009337      0.502411
     10.39684      3.35453      1.79664        -1.474823     -2.073426      2.297698
     10.98051      2.40903      4.73270         0.124522      0.301320      0.332761
     11.56418      1.46353      7.66876        -0.142553     -0.138185      0.037199
      7.50570      3.73836      4.73270         0.215887      0.185505      0.230410
      8.08937      2.79286      7.66876         0.156742     -0.010050     -0.053923
      8.67569      1.91971     10.27259         0.274978      0.477341      0.487702
     12.55026      4.68386      1.79664         1.321610     -0.174356      2.264532
      7.87456      9.84929      5.50842         0.107878     -0.840484      1.220140
      8.45823      8.90379      8.44448        -0.147068      0.083664     -0.914502
      8.57751      8.71062     10.81181         0.442689     -0.729218      0.805622
      4.76861      5.76338      2.57236        -0.467511      0.230204      2.058995
      3.34767      5.57954     10.27148        -0.542610     -0.011688      0.445809
      7.09497      7.21624      2.51867         0.111427      0.900153     -0.153958
      7.87456      7.44044      4.73270         0.144992     -0.122157      1.138391
      8.45823      6.49494      7.66876         0.073681     -0.079314      0.001216
      4.39975      8.76977      4.73270         0.198356     -0.126898      0.204523
      4.98341      7.82427      7.66876        -0.037638     -0.110679     -0.093555
      5.56969      6.95123     10.27153         0.266960      0.518756      0.470784
      8.18943      9.43427      2.72544        -0.093009     -0.336132     -1.870376
     13.50279      9.84929      5.50842         0.107878     -0.840484      1.220140
     14.08646      8.90379      8.44448        -0.147068      0.083664     -0.914502
     14.20574      8.71062     10.81181         0.442689     -0.729218      0.805622
     10.39684      5.76338      2.57236        -0.467511      0.230204      2.058995
      8.97590      5.57954     10.27148        -0.542610     -0.011688      0.445809
     12.72320      7.21624      2.51867         0.111427      0.900153     -0.153958
     13.50279      7.44044      4.73270         0.144992     -0.122157      1.138391
     14.08646      6.49494      7.66876         0.073681     -0.079314      0.001216
     10.02798      8.76977      4.73270         0.198356     -0.126898      0.204523
     10.61165      7.82427      7.66876        -0.037638     -0.110679     -0.093555
     11.19793      6.95123     10.27153         0.266960      0.518756      0.470784
     13.81766      9.43427      2.72544        -0.093009     -0.336132     -1.870376
      1.66190      1.67871      5.87212        -0.204706      0.117023      0.926526
      2.24556      0.73321      8.80817         0.479054     -0.764413     -3.130120
      6.02706      3.66667      0.30738         0.464052     -0.728606     -4.245817
      6.70646      2.62422      2.93606        -2.377499      1.840877     -1.096539
      5.03825      5.32650     11.45119         0.171274     -0.292929      2.769896
      2.24556      3.80055      9.79595         0.078709      1.029144     -0.054724
      7.29013      4.74605      6.85989        -0.001545      0.077971     -0.046140
      3.36115      1.41514      1.95196         0.659721      0.410373     -1.615964
      4.18418      0.66015      3.92384         3.296614      0.976459      1.899935
      3.35206      4.79898      1.37730        -0.747854      0.411792     -2.295624
      3.96438      3.99884      3.92384         0.105294      0.106234      0.663396
      4.54805      3.05334      6.85989        -0.020710     -0.028056     -0.060486
[...]
      6.70646      5.69156      3.92384         0.031594     -0.388184      1.219691
      6.48666      9.03025      3.92384        -1.689395     -0.442273      0.152360
      7.07033      8.08475      6.85989         0.186444      0.006642      0.007166
      7.65400      7.13925      9.79595        -0.953338      0.359788     -0.154476
      9.81241      6.71012      5.87212         0.045516     -0.047426      0.160470
     10.39608      5.76462      8.80817         0.479894     -0.703938     -3.108813
     14.85697      7.65563      2.93606         1.011874     -1.309791     -0.296128
      8.14453      0.29468     11.45157         0.141345     -0.290040      2.735606
     10.39608      8.83196      9.79595         0.149112      1.002355     -0.152555
     15.44064      9.77746      6.85989        -0.070726      0.057115     -0.118145
     11.61780      6.36739      1.04379        -0.144733      1.672252     -3.320636
     12.33469      5.69156      3.92384         0.031594     -0.388184      1.219691
     12.11489      9.03025      3.92384        -1.689395     -0.442273      0.152360
     12.69856      8.08475      6.85989         0.186444      0.006642      0.007166
     13.28223      7.13925      9.79595        -0.953338      0.359788     -0.154476
    total drift:                               -0.213807      0.002509      0.092048

  FREE ENERGIE OF THE ION-ELECTRON SYSTEM (eV)
  free  energy   TOTEN  =      -472.66429749 eV

  energy  without entropy=     -471.44911131  energy(sigma->0) =     -472.05670440