 vasp.5.4.4.18Apr17-6-g9f103f2a35 (build Aug 13 2019 17:33:20) gamma-only

 executed on             LinuxIFC date 2020.05.11  17:10:11

 INCAR:
 POTCAR:    PAW_PBE Ni_pv 06Sep2000
 POTCAR:    PAW_PBE S 06Sep2000
 POTCAR:    PAW_PBE Ni_pv 06Sep2000
   VRHFIN =Ni:

   TITEL  = PAW_PBE Ni_pv 06Sep2000
   POMASS =   58.690; ZVAL   =   16.000    mass and valenz
   ENMAX  =  367.986; ENMIN  =  275.989 eV

 POTCAR:    PAW_PBE S 06Sep2000
   VRHFIN =S : s2p4

   TITEL  = PAW_PBE S 06Sep2000
   POMASS =   32.066; ZVAL   =    6.000    mass and valenz
   ENMAX  =  258.689; ENMIN  =  194.016 eV

 Optimization of the real space projectors (new method)

 maximal supplied QI-value         = 18.90
 optimisation between [QCUT,QGAM] = [ 10.77, 21.73] = [ 32.49,132.25] Ry
 Optimized for a Real-space Cutoff    1.38 Angstroem

   l    n(q)    QCUT    max X(q) W(low)/X(q) W(high)/X(q)  e(spline)
   1      8    10.771     2.836    0.40E-04    0.29E-04    0.12E-06
   1      8    10.771     4.023    0.10E-03    0.48E-04    0.29E-06
   2      8    10.771    73.368    0.42E-03    0.97E-04    0.44E-06
   2      8    10.771    69.010    0.42E-03    0.99E-04    0.45E-06
   0      9    10.771    54.797    0.10E-03    0.56E-04    0.74E-07
   0      9    10.771    24.266    0.89E-04    0.49E-04    0.67E-07
 Optimization of the real space projectors (new method)

 maximal supplied QI-value         = 19.84
 optimisation between [QCUT,QGAM] = [ 10.71, 21.63] = [ 32.15,130.99] Ry
 Optimized for a Real-space Cutoff    1.19 Angstroem

   l    n(q)    QCUT    max X(q) W(low)/X(q) W(high)/X(q)  e(spline)
   0      8    10.715   187.594    0.41E-03    0.53E-04    0.66E-07
   0      8    10.715   164.243    0.41E-03    0.53E-04    0.65E-07
   1      7    10.715    67.533    0.19E-03    0.59E-03    0.68E-07
   1      7    10.715    50.729    0.19E-03    0.58E-03    0.67E-07
  PAW_PBE Ni_pv 06Sep2000               :
  PAW_PBE S 06Sep2000                   :

 POSCAR: Type_036 Type_136
  positions in cartesian coordinates
 exchange correlation table for  LEXCH =        8
   RHO(1)=    0.500       N(1)  =     2000
   RHO(2)=  100.500       N(2)  =     4000

 ion  position               nearest neighbor table
   1  0.780  0.145  0.121-  49 2.08  63 2.08  41 2.14  50 2.36  64 2.36
   2  0.787  0.145  0.279-  42 2.04  50 2.05  64 2.05
   3  0.215  0.620  0.095-  43 2.03  44 2.12  61 2.16   4 2.40  15 2.50  51 2.50
   4  0.297  0.645  0.216-  62 2.09  44 2.25  51 2.26  61 2.26  52 2.30   3 2.40  28 2.53  16 2.53

   5  0.388  0.127  0.126-  45 2.05  46 2.13  67 2.21  53 2.23   6 2.42
   6  0.470  0.145  0.248-  54 2.05  68 2.08  53 2.15  46 2.25  67 2.26   5 2.42  30 2.53  18 2.53

[...]

  25  0.910  0.286  0.117-  49 2.06  66 2.10  50 2.10  38 2.20
  26  0.945  0.278  0.271-  37 2.06  38 2.08  65 2.17  50 2.18
  27  0.413  0.888  0.060-  67 2.08  51 2.08  28 2.38  15 2.51  39 2.59
  28  0.425  0.777  0.191-  52 2.09  67 2.25  39 2.26  51 2.26  40 2.33  27 2.38  29 2.38  16 2.53
                             4 2.53
  29  0.491  0.816  0.319-  68 2.00  40 2.05  52 2.12  28 2.38
  30  0.597  0.277  0.223-  54 2.02  42 2.09  41 2.16  69 2.25  53 2.48  17 2.51   6 2.53  18 2.53

[...]

  37  0.986  0.145  0.361-  10 2.01  14 2.06  26 2.06
  38  0.991  0.145  0.182-  26 2.08  14 2.08  13 2.19  25 2.20   9 2.25
  39  0.474  0.645  0.087-  15 2.01  11 2.04  28 2.26  16 2.26  27 2.59
  40  0.513  0.631  0.259-  29 2.05  11 2.09  16 2.18  12 2.20  28 2.33
  41  0.654  0.146  0.131-  17 2.05   1 2.14  30 2.16  18 2.17  42 2.69
  42  0.667  0.148  0.297-   2 2.04  30 2.09  18 2.13  41 2.69  68 2.74
  43  0.112  0.646  0.033-   3 2.03  31 2.06  19 2.06
  44  0.164  0.645  0.214-  20 2.05  32 2.05   3 2.12   4 2.25  31 2.36  19 2.36
  45  0.283  0.145  0.063-   5 2.05  33 2.07  21 2.07
  46  0.336  0.145  0.246-  34 2.06  22 2.10   5 2.13   6 2.25  33 2.36  21 2.36
  47  0.819  0.645  0.151-  35 2.22   7 2.25  23 2.26  36 2.26  24 2.26  48 2.78
  48  0.847  0.645  0.320-   8 2.05  36 2.10  24 2.10  47 2.78
  49  0.816  0.294  0.035-  23 2.01  25 2.06   1 2.08
  50  0.829  0.314  0.214-   2 2.05  25 2.10  23 2.14  26 2.18  24 2.25   1 2.36
  51  0.312  0.814  0.119-  15 2.05  27 2.08  21 2.25   4 2.26  28 2.26   3 2.50
  52  0.368  0.785  0.305-  22 2.03  28 2.09  29 2.12   4 2.30  62 2.77
  53  0.467  0.307  0.155-  17 2.05   6 2.15  16 2.18   5 2.23  30 2.48  54 2.72
  54  0.518  0.306  0.315-  30 2.02   6 2.05  53 2.72
  55  0.001  0.814  0.246-  32 2.03   8 2.03  14 2.17   7 2.36  31 2.36  56 2.76
  56  0.968  0.822  0.079-   7 2.08  31 2.09  13 2.10  55 2.76
  57  0.141  0.323  0.110-  33 2.09   9 2.10  19 2.11  58 2.78
  58  0.174  0.314  0.278-  34 2.03  20 2.08  10 2.18   9 2.36  33 2.36  57 2.78
  59  0.657  0.814  0.183-  11 2.13  18 2.25  36 2.26  12 2.26  35 2.31  60 2.79
  60  0.693  0.794  0.351-  36 2.03  12 2.03  59 2.79
  61  0.312  0.477  0.119-  15 2.04   3 2.16  33 2.25   4 2.26  16 2.26
  62  0.351  0.498  0.293-  34 2.01  16 2.07   4 2.09  52 2.77
  63  0.817  0.997  0.035-  35 2.02  13 2.06   1 2.08
  64  0.829  0.977  0.214-   2 2.05  13 2.10  35 2.14  14 2.19  36 2.25   1 2.36
  65  0.001  0.477  0.246-  20 2.03   8 2.03  26 2.17   7 2.36  19 2.36  66 2.76
  66  0.967  0.469  0.079-   7 2.08  19 2.10  25 2.10  65 2.76
  67  0.484  0.977  0.151-  17 2.06  27 2.08   5 2.21  28 2.25  18 2.26   6 2.26
  68  0.528  0.014  0.330-  29 2.00   6 2.08  18 2.10  42 2.74
  69  0.657  0.477  0.183-  11 2.16  30 2.25  24 2.26  12 2.26  23 2.26
  70  0.695  0.498  0.351-  24 2.02  12 2.02
  71  0.140  0.969  0.110-   9 2.09  21 2.11  31 2.11  72 2.77
  72  0.174  0.977  0.278-  32 2.08  22 2.09  10 2.17   9 2.36  21 2.36  71 2.77

  LATTYP: Found a simple orthorhombic cell.
 ALAT       =     9.5784100000
 B/A-ratio  =     1.6880763216
 C/A-ratio  =     1.7627867312

  Lattice vectors:

 A1 = (   0.0000000000,   9.5784100000,   0.0000000000)
 A2 = (   0.0000000000,   0.0000000000, -16.1690871197)
 A3 = ( -16.8846940542,   0.0000000000,   0.0000000000)

Analysis of symmetry for initial positions (statically):
 Subroutine PRICEL returns:
 Original cell was already a primitive cell.

 Routine SETGRP: Setting up the symmetry group for a
 simple orthorhombic supercell.

 Subroutine GETGRP returns: Found  1 space group operations
 (whereof  1 operations were pure point group operations)
 out of a pool of  8 trial point group operations.

The static configuration has the point symmetry C_1 .

Analysis of symmetry for dynamics (positions and initial velocities):
 Subroutine PRICEL returns:
 Original cell was already a primitive cell.

 Routine SETGRP: Setting up the symmetry group for a
 simple orthorhombic supercell.

 Subroutine GETGRP returns: Found  1 space group operations
 (whereof  1 operations were pure point group operations)
 out of a pool of  8 trial point group operations.

The dynamic configuration has the point symmetry C_1 .

 Subroutine INISYM returns: Found  1 space group operations
 (whereof  1 operations are pure point group operations),
 and found     1 'primitive' translations

 KPOINTS: gamma-point-only calculation. no periodi

Automatic generation of k-mesh.
Space group operators:
 irot       det(A)        alpha          n_x          n_y          n_z        tau_x        tau_y        tau_z
    1     1.000000     0.000000     1.000000     0.000000     0.000000     0.000000     0.000000     0.000000

 Subroutine IBZKPT returns following result:

 Found      1 irreducible k-points:

 Following reciprocal coordinates:
            Coordinates               Weight
  0.000000  0.000000  0.000000      1.000000

 Following cartesian coordinates:
            Coordinates               Weight
  0.000000  0.000000  0.000000      1.000000

 SYSTEM =  "Millerite NiS"
 POSCAR =  Type_036 Type_136

 Startparameter for this run:
   NWRITE =      2    write-flag & timer
   PREC   = normal    normal or accurate (medium, high low for compatibility)
   ISTART =      0    job   : 0-new  1-cont  2-samecut
   ICHARG =      2    charge: 1-file 2-atom 10-const
   ISPIN  =      1    spin polarized calculation?
   LNONCOLLINEAR =      F non collinear calculations
   LSORBIT =      F    spin-orbit coupling
   INIWAV =      1    electr: 0-lowe 1-rand  2-diag
   LASPH  =      F    aspherical Exc in radial PAW
   METAGGA=      F    non-selfconsistent MetaGGA calc.

 Electronic Relaxation 1
   ENCUT  =  450.0 eV  33.07 Ry    5.75 a.u.  29.20 16.57 27.97*2*pi/ulx,y,z
   ENINI  =  450.0     initial cutoff
   ENAUG  =  703.4 eV  augmentation charge cutoff
   NELM   =    100;   NELMIN=  2; NELMDL= -5     # of ELM steps
   EDIFF  = 0.1E-03   stopping-criterion for ELM
   LREAL  =      T    real-space projection
   NLSPLINE    = F    spline interpolate recip. space projectors
   LCOMPAT=      F    compatible to vasp.4.4
   GGA_COMPAT  = T    GGA compatible to vasp.4.4-vasp.4.6
   LMAXPAW     = -100 max onsite density
   LMAXMIX     =    2 max onsite mixed and CHGCAR
   VOSKOWN=      0    Vosko Wilk Nusair interpolation
   ROPT   =   -0.00050  -0.00050
 Ionic relaxation
   EDIFFG = 0.1E-02   stopping-criterion for IOM
   NSW    =      0    number of steps for IOM
   NBLOCK =      1;   KBLOCK =      1    inner block; outer block
   IBRION =     -1    ionic relax: 0-MD 1-quasi-New 2-CG
   NFREE  =      0    steps in history (QN), initial steepest desc. (CG)
   ISIF   =      2    stress and relaxation
   IWAVPR =     10    prediction:  0-non 1-charg 2-wave 3-comb
   ISYM   =      2    0-nonsym 1-usesym 2-fastsym
   LCORR  =      T    Harris-Foulkes like correction to forces

   POTIM  = 0.5000    time-step for ionic-motion
   TEIN   =    0.0    initial temperature
   TEBEG  =    0.0;   TEEND  =   0.0 temperature during run
   SMASS  =  -3.00    Nose mass-parameter (am)
   estimated Nose-frequenzy (Omega)   =  0.10E-29 period in steps =****** mass=  -0.652E-26a.u.
   SCALEE = 1.0000    scale energy and forces
   NPACO  =    256;   APACO  = 16.0  distance and # of slots for P.C.
   PSTRESS=    0.0 pullay stress

  Mass of Ions in am
   POMASS =  58.69 32.07
  Ionic Valenz
   ZVAL   =  16.00  6.00
  Atomic Wigner-Seitz radii
  virtual crystal weights
   VCA    =   1.00  1.00
   NELECT =     792.0000    total number of electrons
   NUPDOWN=      -1.0000    fix difference up-down

 DOS related values:
   EMIN   =  10.00;   EMAX   =-10.00  energy-range for DOS
   EFERMI =   0.00
   ISMEAR =     0;   SIGMA  =   0.20  broadening in eV -4-tet -1-fermi 0-gaus

 Electronic relaxation 2 (details)
   IALGO  =     38    algorithm
   LDIAG  =      T    sub-space diagonalisation (order eigenvalues)
   LSUBROT=      F    optimize rotation matrix (better conditioning)
   TURBO    =      0    0=normal 1=particle mesh
   IRESTART =      0    0=no restart 2=restart with 2 vectors
   NREBOOT  =      0    no. of reboots
   NMIN     =      0    reboot dimension
   EREF     =   0.00    reference energy to select bands
   IMIX   =      4    mixing-type and parameters
     AMIX     =   0.40;   BMIX     =  1.00
     AMIX_MAG =   1.60;   BMIX_MAG =  1.00
     AMIN     =   0.10
     WC   =   100.;   INIMIX=   1;  MIXPRE=   1;  MAXMIX= -45

 Intra band minimization:
[...]
  Fock        0.00000     0.00000     0.00000     0.00000     0.00000     0.00000
  Total     115.43709   115.78764   140.18729    -1.35864     0.01720    -2.79530
  in kB      70.72677    70.94155    85.89089    -0.83242     0.01054    -1.71264

 VOLUME and BASIS-vectors are now :
  energy-cutoff  :      450.00
  volume of cell :     2615.00
      direct lattice vectors                 reciprocal lattice vectors
    16.884694054  0.000000000  0.000000000     0.059225237  0.000000000  0.000000000
     0.000000000  9.578410000  0.000000000     0.000000000  0.104401461  0.000000000
     0.000000000  0.000000000 16.169087120     0.000000000  0.000000000  0.061846411

  length of vectors
    16.884694054  9.578410000 16.169087120     0.059225237  0.104401461  0.061846411

 FORCES acting on ions
    electron-ion (+dipol)            ewald-force                    non-local-force                 convergence-correction
   0.735E+03 -.654E+01 0.215E+04   -.739E+03 0.655E+01 -.216E+04   0.395E+01 -.332E-02 0.490E+01   0.146E-01 0.565E-02 -.761E-02
   0.341E+03 -.184E+02 -.275E+04   -.347E+03 0.184E+02 0.275E+04   0.638E+01 -.340E-01 0.187E+01   0.901E-02 0.267E-02 -.613E-02
   0.991E+02 0.120E+03 0.286E+04   -.991E+02 -.121E+03 -.287E+04   0.101E+01 0.788E+00 0.764E+01   -.103E-01 0.272E-02 -.115E-01
   0.318E+03 0.952E+02 -.128E+04   -.321E+03 -.961E+02 0.129E+04   0.218E+01 0.150E+01 -.509E+01   0.452E-02 0.378E-02 0.724E-02
   -.769E+02 -.449E+03 0.227E+04   0.754E+02 0.450E+03 -.228E+04   0.187E+01 -.330E+00 0.812E+01   0.178E-01 -.213E-02 -.785E-03
   0.166E+03 -.285E+03 -.198E+04   -.169E+03 0.284E+03 0.199E+04   0.188E+01 0.684E+00 -.802E+01   0.120E-02 -.104E-02 -.418E-02
   0.663E+03 0.649E+01 0.137E+04   -.669E+03 -.652E+01 -.138E+04   0.492E+01 0.288E-01 0.423E+01   -.401E-03 0.105E-02 -.230E-02
   0.308E+03 0.410E+01 -.330E+04   -.310E+03 -.428E+01 0.330E+04   0.166E+01 0.165E+00 0.427E+00   -.972E-02 0.128E-02 -.526E-02
   0.459E+03 -.182E+02 0.844E+03   -.463E+03 0.183E+02 -.847E+03   0.378E+01 0.440E-01 0.301E+01   -.189E-01 -.147E-02 -.230E-02
   -.954E+02 -.285E+01 -.342E+04   0.935E+02 0.300E+01 0.342E+04   0.346E+01 -.110E+00 -.216E+01   0.324E-02 0.454E-03 -.572E-02
   -.394E+03 0.201E+03 0.205E+04   0.396E+03 -.200E+03 -.205E+04   -.147E+01 -.666E+00 0.323E+01   -.491E-03 -.116E-02 0.605E-02
   0.323E+03 0.177E+03 -.229E+04   -.325E+03 -.178E+03 0.229E+04   0.140E+01 0.121E+00 -.691E+01   -.249E-02 -.659E-02 0.832E-02
   -.450E+03 0.196E+03 0.245E+04   0.457E+03 -.198E+03 -.245E+04   -.544E+01 0.289E+01 0.554E+01   0.163E-01 0.655E-02 0.149E-02
   0.142E+03 0.452E+03 -.225E+04   -.141E+03 -.456E+03 0.225E+04   -.268E+01 0.238E+01 -.406E+01   0.662E-02 -.358E-02 -.163E-01
   -.224E+03 0.480E+03 0.389E+04   0.222E+03 -.481E+03 -.390E+04   0.834E+00 0.752E+00 0.554E+01   0.119E-01 0.566E-02 -.100E-01
   -.563E+03 0.719E+03 -.185E+01   0.564E+03 -.722E+03 0.315E+01   -.973E-01 0.341E+01 -.249E+01   0.138E-01 -.407E-02 0.946E-03
   -.500E+03 -.321E+03 0.334E+04   0.503E+03 0.322E+03 -.334E+04   -.234E+01 -.997E+00 0.362E+01   -.165E-02 0.685E-04 -.314E-02
   -.565E+03 0.439E+03 -.645E+03   0.569E+03 -.445E+03 0.646E+03   -.369E+01 0.517E+01 -.229E+01   -.120E-01 -.240E-02 -.596E-02
   0.132E+03 0.633E+03 0.201E+04   -.132E+03 -.639E+03 -.201E+04   0.591E+00 0.463E+01 0.425E+01   -.139E-01 -.688E-02 -.409E-02
   -.217E+03 0.161E+03 -.286E+04   0.217E+03 -.163E+03 0.286E+04   0.129E+00 0.269E+01 -.190E+00   -.514E-02 -.741E-02 -.172E-02
   0.256E+03 0.288E+03 0.128E+04   -.258E+03 -.291E+03 -.128E+04   0.188E+01 0.220E+01 0.294E+01   -.495E-02 -.337E-03 0.127E-02
   -.408E+02 0.854E+02 -.313E+04   0.429E+02 -.874E+02 0.313E+04   -.272E+01 0.234E+01 0.337E+00   0.550E-02 0.731E-02 0.795E-02
   0.564E+03 -.415E+03 0.256E+04   -.566E+03 0.418E+03 -.257E+04   0.154E+01 -.163E+01 0.732E+01   0.604E-02 -.135E-02 -.703E-03
   -.781E+02 0.351E+03 -.167E+04   0.805E+02 -.354E+03 0.167E+04   -.179E+01 0.277E+01 -.523E+01   -.230E-02 0.155E-02 0.665E-02
   -.439E+03 -.214E+03 0.245E+04   0.446E+03 0.216E+03 -.245E+04   -.517E+01 -.299E+01 0.520E+01   0.110E-01 -.427E-02 -.789E-03
   0.145E+03 -.460E+03 -.224E+04   -.143E+03 0.463E+03 0.225E+04   -.269E+01 -.258E+01 -.415E+01   0.459E-02 0.132E-02 -.174E-01
   -.456E+03 -.264E+03 0.385E+04   0.454E+03 0.265E+03 -.385E+04   0.207E+01 -.116E+01 -.235E+01   0.794E-02 0.142E-02 -.125E-02
   -.405E+03 -.104E+03 -.612E+02   0.405E+03 0.106E+03 0.623E+02   -.245E-01 -.250E+01 -.189E+01   0.157E-01 0.119E-01 0.260E-02
   -.241E+03 0.110E+03 -.346E+04   0.240E+03 -.106E+03 0.346E+04   0.982E+00 -.519E+01 0.339E+00   0.262E-02 -.143E-02 0.307E-02
   -.348E+03 -.729E+03 -.724E+03   0.351E+03 0.736E+03 0.726E+03   -.261E+01 -.566E+01 -.283E+01   -.654E-02 0.601E-02 -.710E-02
   0.446E+02 -.623E+03 0.203E+04   -.445E+02 0.628E+03 -.204E+04   0.242E+00 -.452E+01 0.452E+01   -.111E-01 0.104E-01 -.421E-02
   -.204E+03 -.148E+03 -.285E+04   0.204E+03 0.150E+03 0.285E+04   0.137E+00 -.300E+01 -.494E+00   -.778E-02 0.647E-02 -.425E-02
   -.437E+02 -.431E+03 0.131E+04   0.424E+02 0.434E+03 -.131E+04   0.170E+01 -.242E+01 0.393E+01   -.476E-02 -.315E-02 0.710E-02
   -.284E+03 -.171E+03 -.325E+04   0.285E+03 0.175E+03 0.325E+04   -.987E+00 -.451E+01 0.225E+01   0.144E-02 -.725E-02 0.106E-01
   0.531E+03 0.422E+03 0.259E+04   -.533E+03 -.425E+03 -.259E+04   0.148E+01 0.174E+01 0.777E+01   0.861E-02 -.431E-03 0.372E-03
   -.118E+03 -.316E+03 -.166E+04   0.121E+03 0.319E+03 0.167E+04   -.176E+01 -.279E+01 -.514E+01   0.391E-02 -.791E-02 0.652E-02
   0.133E+03 -.251E+01 -.164E+04   -.133E+03 0.261E+01 0.164E+04   -.105E+01 -.383E-01 -.114E+01   0.228E-02 -.868E-03 -.402E-02
   -.224E+03 -.302E+01 0.390E+03   0.226E+03 0.293E+01 -.393E+03   0.238E+00 0.157E+00 0.838E+00   -.237E-02 -.731E-03 -.428E-02
   -.414E+03 0.190E+03 0.130E+04   0.418E+03 -.192E+03 -.131E+04   -.220E+01 0.267E+01 0.291E+01   -.501E-03 0.224E-02 -.805E-03
   -.622E+02 0.297E+03 -.827E+03   0.614E+02 -.299E+03 0.833E+03   0.921E+00 0.145E+01 -.362E+01   0.230E-02 0.418E-02 0.467E-02
   -.126E+03 -.204E+02 0.906E+03   0.126E+03 0.201E+02 -.910E+03   0.435E+00 0.155E+00 0.198E+01   -.855E-02 0.205E-02 -.234E-02
   -.503E+02 -.372E+02 -.122E+04   0.523E+02 0.373E+02 0.122E+04   -.107E+01 -.284E+00 -.308E+01   -.637E-02 0.224E-02 -.660E-03
   0.103E+03 -.279E+02 0.173E+04   -.103E+03 0.281E+02 -.174E+04   0.299E+00 -.272E-01 0.180E+01   -.559E-02 0.152E-02 -.335E-02
   -.129E+03 -.162E+02 -.314E+03   0.129E+03 0.164E+02 0.318E+03   0.123E+01 -.405E-01 -.342E+01   -.590E-02 0.107E-02 0.638E-03
   0.110E+03 -.955E+02 0.163E+04   -.111E+03 0.958E+02 -.163E+04   0.161E+01 -.251E+00 0.200E+01   0.828E-03 -.923E-03 -.513E-02
   -.108E+03 -.795E+02 -.710E+03   0.109E+03 0.796E+02 0.716E+03   0.173E+00 -.796E+00 -.412E+01   0.226E-02 0.152E-02 0.588E-02
   0.223E+02 0.153E+02 0.718E+03   -.214E+02 -.153E+02 -.722E+03   -.500E+00 -.473E-01 0.220E+01   0.133E-02 -.238E-02 0.292E-03
   -.209E+02 0.455E+01 -.130E+04   0.228E+02 -.457E+01 0.131E+04   -.812E+00 -.325E-01 -.283E+01   -.992E-04 -.640E-03 0.370E-03
   0.116E+03 -.987E+02 0.169E+04   -.116E+03 0.999E+02 -.170E+04   -.373E+00 -.323E+00 0.253E+01   0.540E-02 0.745E-03 0.182E-02
   0.100E+03 -.140E+03 -.361E+03   -.100E+03 0.141E+03 0.365E+03   -.664E+00 0.901E+00 -.221E+01   0.642E-02 0.378E-02 -.562E-02
   0.272E+03 -.176E+03 0.780E+03   -.274E+03 0.178E+03 -.781E+03   0.604E+00 -.879E+00 0.815E+00   0.528E-02 0.242E-02 -.402E-02
   0.932E+02 0.131E+03 -.136E+04   -.951E+02 -.130E+03 0.137E+04   0.969E+00 -.869E+00 -.221E+01   0.819E-02 0.421E-02 0.369E-02
   -.563E+02 -.349E+03 0.569E+03   0.548E+02 0.351E+03 -.571E+03   0.120E+01 -.738E+00 0.164E+01   0.611E-02 -.548E-02 -.164E-02
   0.206E+02 -.273E+03 -.138E+04   -.208E+02 0.276E+03 0.138E+04   -.411E+00 -.121E+01 -.154E+01   0.842E-03 0.109E-02 -.117E-02
   0.138E+03 -.162E+03 -.482E+03   -.138E+03 0.164E+03 0.484E+03   -.623E+00 -.751E+00 -.130E+01   -.322E-02 0.439E-02 -.261E-02
   0.963E+02 -.677E+02 0.135E+04   -.979E+02 0.672E+02 -.135E+04   0.119E+01 0.119E+01 0.393E+01   0.175E-03 0.539E-02 0.577E-03
   0.127E+03 0.587E+02 0.112E+04   -.128E+03 -.602E+02 -.113E+04   0.462E+00 0.120E+01 0.432E+01   -.725E-02 -.336E-02 -.102E-02
   0.206E+02 -.886E+02 -.871E+03   -.213E+02 0.902E+02 0.874E+03   -.389E+00 -.216E+01 -.152E+01   0.790E-03 -.315E-02 0.288E-02
   0.358E+02 -.100E+03 0.403E+03   -.379E+02 0.102E+03 -.406E+03   0.242E+01 -.987E+00 0.148E+01   -.338E-02 -.530E-03 0.191E-02
   0.258E+02 -.228E+03 -.153E+04   -.264E+02 0.231E+03 0.154E+04   0.216E+00 -.182E+01 -.118E+01   -.285E-02 -.332E-02 0.104E-02
   -.511E+02 0.370E+03 0.861E+03   0.512E+02 -.374E+03 -.864E+03   -.942E+00 0.167E+01 0.286E+01   0.423E-02 -.214E-02 -.425E-02
   -.128E+03 0.138E+02 -.126E+04   0.129E+03 -.146E+02 0.126E+04   -.955E+00 0.475E+00 -.251E+01   0.162E-02 -.666E-02 0.663E-02
   0.115E+03 0.889E+02 0.170E+04   -.115E+03 -.900E+02 -.170E+04   -.406E+00 0.266E+00 0.259E+01   0.636E-02 0.189E-02 -.376E-03
   0.967E+02 0.132E+03 -.361E+03   -.969E+02 -.132E+03 0.365E+03   -.421E+00 -.122E+01 -.222E+01   0.901E-02 -.210E-02 -.317E-02
   0.141E+03 0.164E+03 -.483E+03   -.141E+03 -.166E+03 0.485E+03   -.701E+00 0.712E+00 -.123E+01   -.331E-02 -.329E-02 -.217E-02
   0.103E+03 0.693E+02 0.134E+04   -.104E+03 -.688E+02 -.135E+04   0.135E+01 -.121E+01 0.372E+01   -.211E-02 -.597E-02 0.450E-04
   -.254E+03 0.160E+03 0.512E+03   0.256E+03 -.163E+03 -.513E+03   -.188E+01 0.127E+01 0.157E+00   0.236E-02 0.253E-02 -.140E-02
   -.105E+03 -.107E+03 -.151E+04   0.105E+03 0.106E+03 0.151E+04   -.340E+00 0.113E+01 -.189E+01   -.328E-02 -.532E-02 -.545E-03
   0.116E+03 0.123E+03 0.377E+03   -.118E+03 -.125E+03 -.380E+03   0.224E+01 0.120E+01 0.191E+01   -.136E-02 -.177E-02 0.214E-02
   0.861E+02 0.259E+03 -.153E+04   -.870E+02 -.262E+03 0.153E+04   0.441E+00 0.194E+01 -.966E+00   -.229E-02 0.121E-02 0.609E-03
   0.140E+03 -.368E+02 0.112E+04   -.141E+03 0.380E+02 -.113E+04   0.500E+00 -.115E+01 0.406E+01   -.711E-02 0.149E-02 -.917E-03
   0.215E+02 0.723E+02 -.894E+03   -.220E+02 -.733E+02 0.897E+03   0.112E+00 0.163E+01 -.203E+01   -.198E-02 0.328E-02 0.125E-02
   -.136E+02 0.352E+01 -.364E+02   -.108E-11 -.196E-11 -.296E-11   0.135E+02 -.362E+01 0.364E+02   0.521E-01 0.121E-01 -.676E-01

 POSITION                                       TOTAL-FORCE (eV/Angst)
     13.17084      1.39171      1.94975         0.382438      0.016910      0.864880
     13.28631      1.39236      4.51341         0.386475      0.010810      1.075232
      3.63419      5.93441      1.54319         0.942707      0.292993     -0.240120
      5.02033      6.18092      3.49202        -0.193605      0.602482     -0.080804
      6.54433      1.22122      2.03393         0.401925      0.147924     -0.668127
      7.93172      1.39171      4.00611        -1.053844     -0.164251     -0.459700
     16.08224      6.18092      2.46384        -0.499087     -0.003306      1.982299
     16.34984      6.18097      5.08479         0.100704     -0.019770      0.677264
      2.10894      1.39171      2.97793        -0.440513      0.172573      0.407836
      1.68966      1.38453      5.26081         1.615616      0.045997      0.583641
      9.77206      6.19588      2.42954         0.678127     -0.025019     -0.936724
     10.84312      6.18092      4.52020        -0.941813     -0.138460     -1.417987
     15.36934      0.04598      1.89430         0.873351      0.718845     -0.019370
     15.95206      0.11568      4.38903        -1.013830     -0.780994     -0.225031
      6.04780      6.17832      0.94322        -0.479778     -0.165551     -1.686104
      7.17375      4.91558      3.08454         0.435545     -0.091753     -1.188368
      9.04177      1.47726      1.64817         0.084219      0.251362     -1.801767
     10.08514      0.12638      3.59863         0.884181     -0.747182     -0.901522
      1.35096      4.91558      2.05636         0.065676     -0.532570      1.547322
      1.90510      4.80095      4.70774         0.269051      0.562297      1.127479
      4.26235      0.12638      2.57045         0.057252     -0.748062      0.564743
      4.99964      9.15198      4.77775        -0.548222      0.358811      0.793297
     13.04835      4.12750      1.91682        -0.717873      0.940128      0.259327
     12.99653      4.91558      4.11272         0.591069     -0.096994     -1.416650
     15.36421      2.73801      1.89252         1.013674     -0.690042     -0.077853
     15.95036      2.66734      4.38817        -0.969675      0.751219     -0.243124
      6.97116      8.50964      0.96820         0.268797      0.138014     -0.731633
      7.17375      7.44626      3.08454         0.695985     -0.490717     -0.787536
      8.28850      7.81828      5.15691        -0.091481     -0.932907      1.011669
     10.08514      2.65705      3.59863         0.873666      1.042607     -1.541637
      1.35096      7.44626      2.05636         0.316346      0.530713      1.742417
      1.90621      7.56471      4.70750         0.303148     -0.578022      1.092691
      4.26235      2.65705      2.57045         0.313771      0.574349      0.894872
      4.92122      3.04316      4.93834         0.128871     -0.366580      0.562821
     13.10287      8.20898      1.90667        -0.894180     -0.910187      0.376641
     12.99653      7.44626      4.11272         0.451482      0.128227     -1.340393
     16.65096      1.39239      5.84156        -0.512572      0.060153      3.731655
     16.74052      1.39171      2.94940         1.815140      0.060175     -2.399171
      8.00634      6.18092      1.40713         1.365511      0.308887     -2.624265
      8.66726      6.04550      4.19378         0.122380     -0.979528      1.966078
     11.03892      1.40185      2.12423         0.420081     -0.152704     -1.700513
     11.26977      1.41974      4.79954         0.842531     -0.146688      2.395305
      1.89665      6.18341      0.52670         0.035317      0.137211     -3.910017
      2.76722      6.18092      3.46349         1.579849      0.139510      0.616042
      4.77114      1.39243      1.01766         0.277045      0.044573     -3.572848
      5.67861      1.39171      3.97758         0.575050     -0.695960      1.806456
     13.82913      6.18092      2.43531         0.372227     -0.121288     -1.716359
     14.29716      6.18223      5.17137         1.045908     -0.050362      2.670482
     13.78359      2.82063      0.57117        -0.322578      0.857196     -3.936438
     13.99844      3.00295      3.46826        -0.580870      1.278742      1.876734
      5.26426      7.79215      1.92599        -1.839917      1.157462     -0.226038
      6.20605      7.52234      4.93312        -0.904807      0.472008      2.162428
      7.88039      2.93883      2.50695        -0.224582      1.297473     -1.000101
      8.74313      2.92961      5.08766        -0.519810      1.885721      3.064923
      0.02514      7.79215      3.98236        -0.825080      1.215182      0.484014
     16.33781      7.86871      1.28182        -0.400885      0.683050     -2.795703
      2.37825      3.09833      1.77665        -0.801601     -0.296716     -2.684238
      2.93654      3.00295      4.49645        -1.100542     -0.581111      1.334474
     11.08705      7.79215      2.95417         0.281553      1.367481     -1.115288
     11.70940      7.60923      5.66881        -0.402898      1.538184      3.810010
      5.26426      4.56969      1.92599        -0.827442     -1.605920     -0.370012
      5.92588      4.77053      4.73533        -0.029862     -0.291666      2.719975
     13.79232      9.54856      0.56738        -0.317457     -0.833886     -3.991323
     13.99844      9.35889      3.46826        -0.585515     -1.261336      1.921471
      0.02514      4.56969      3.98236        -0.825358     -1.260795      0.615582
     16.33527      4.49241      1.28205        -0.465408     -0.670665     -2.804664
      8.17565      9.35889      2.44008        -0.122269     -1.285981     -0.383123
      8.91317      0.13071      5.33777        -0.074945      0.042476      2.836029
     11.08705      4.56969      2.95417         0.006222     -1.291814     -1.062471
     11.72727      4.77294      5.67554        -0.433414     -1.475389      3.912507
      2.35638      9.27722      1.78520        -0.586063      0.022786     -2.730636
      2.93654      9.35889      4.49645        -0.325118      0.629646      1.299063
    total drift:                               -0.047784     -0.085238     -0.052954

  FREE ENERGIE OF THE ION-ELECTRON SYSTEM (eV)
  free  energy   TOTEN  =      -342.47935675 eV

  energy  without entropy=     -341.38162828  energy(sigma->0) =     -341.93049251