 vasp.5.4.4.18Apr17-6-g9f103f2a35 (build Aug 13 2019 17:33:20) gamma-only

 executed on             LinuxIFC date 2020.05.12  21:13:35

 INCAR:
 POTCAR:    PAW_PBE Ni_pv 06Sep2000
 POTCAR:    PAW_PBE S 06Sep2000
 POTCAR:    PAW_PBE Ni_pv 06Sep2000
   VRHFIN =Ni:

   TITEL  = PAW_PBE Ni_pv 06Sep2000
   POMASS =   58.690; ZVAL   =   16.000    mass and valenz
   ENMAX  =  367.986; ENMIN  =  275.989 eV

 POTCAR:    PAW_PBE S 06Sep2000
   VRHFIN =S : s2p4

   TITEL  = PAW_PBE S 06Sep2000
   POMASS =   32.066; ZVAL   =    6.000    mass and valenz
   ENMAX  =  258.689; ENMIN  =  194.016 eV

 Optimization of the real space projectors (new method)

 maximal supplied QI-value         = 18.90
 optimisation between [QCUT,QGAM] = [ 10.77, 21.73] = [ 32.49,132.25] Ry
 Optimized for a Real-space Cutoff    1.38 Angstroem

   l    n(q)    QCUT    max X(q) W(low)/X(q) W(high)/X(q)  e(spline)
   1      8    10.771     2.836    0.40E-04    0.29E-04    0.12E-06
   1      8    10.771     4.023    0.10E-03    0.48E-04    0.29E-06
   2      8    10.771    73.368    0.42E-03    0.97E-04    0.44E-06
   2      8    10.771    69.010    0.42E-03    0.99E-04    0.45E-06
   0      9    10.771    54.797    0.10E-03    0.56E-04    0.74E-07
   0      9    10.771    24.266    0.89E-04    0.49E-04    0.67E-07
 Optimization of the real space projectors (new method)

 maximal supplied QI-value         = 19.84
 optimisation between [QCUT,QGAM] = [ 10.71, 21.63] = [ 32.15,130.99] Ry
 Optimized for a Real-space Cutoff    1.19 Angstroem

   l    n(q)    QCUT    max X(q) W(low)/X(q) W(high)/X(q)  e(spline)
   0      8    10.715   187.594    0.41E-03    0.53E-04    0.66E-07
   0      8    10.715   164.243    0.41E-03    0.53E-04    0.65E-07
   1      7    10.715    67.533    0.19E-03    0.59E-03    0.68E-07
   1      7    10.715    50.729    0.19E-03    0.58E-03    0.67E-07
  PAW_PBE Ni_pv 06Sep2000               :
  PAW_PBE S 06Sep2000                   :

 POSCAR: Type_036 Type_136
  positions in cartesian coordinates
 exchange correlation table for  LEXCH =        8
   RHO(1)=    0.500       N(1)  =     2000
   RHO(2)=  100.500       N(2)  =     4000

 ion  position               nearest neighbor table
   1  0.288  0.993  0.058-  69 2.08  41 2.12  42 2.13  61 2.14  49 2.26   2 2.38
   2  0.397  0.795  0.127-  49 2.05  61 2.10  42 2.25  50 2.36  62 2.36   1 2.38  26 2.38  23 2.39

   3  0.547  0.645  0.254-  43 2.25  62 2.26  50 2.26  63 2.36  51 2.36  27 2.53  14 2.53
   4  0.698  0.494  0.381-  64 2.07  52 2.17  44 2.25  51 2.26  63 2.26  15 2.53  28 2.53
   5  0.879  0.211  0.425-  64 2.04  40 2.09  52 2.13  37 2.21  28 2.51  16 2.53
   6  0.114  0.412  0.169-  53 2.05  68 2.19  45 2.25  65 2.36  54 2.36  29 2.53  17 2.53
   7  0.264  0.261  0.296-  66 2.10  46 2.25  65 2.26  54 2.26  55 2.36  18 2.53  30 2.53
   8  0.414  0.111  0.423-  56 2.03  66 2.14  67 2.16  55 2.26  47 2.34  31 2.53  19 2.53
   9  0.108  0.763  0.451-  58 2.03  72 2.07  59 2.07  37 2.14
  10  0.715  0.213  0.143-  38 1.99  60 2.11  39 2.16  11 2.31  70 2.35  36 2.51
  11  0.831  0.028  0.212-  39 2.25  60 2.26  70 2.26  10 2.31  57 2.36  71 2.36  24 2.53  33 2.53

  12  0.981  0.878  0.338-  40 2.16  57 2.26  71 2.26  58 2.36  72 2.36  16 2.40  37 2.49  34 2.53
                            25 2.53
  13  0.348  0.475  0.135-  53 2.02  54 2.17  62 2.19  38 2.28  14 2.32
  14  0.508  0.420  0.220-  54 2.25  62 2.26  38 2.26  13 2.32  39 2.36  63 2.36  27 2.53   3 2.53

[...]

  20  0.440  0.733  0.478-  59 2.02  67 2.07  44 2.09  19 2.34
  21  0.896  0.255  0.060-  68 2.08  60 2.11  41 2.18  17 2.30
  22  0.077  0.505  0.416-  46 2.01  47 2.13  72 2.17  52 2.22
  23  0.575  0.889  0.096-  49 2.10  69 2.11  70 2.13  50 2.28   2 2.39
  24  0.791  0.804  0.178-  48 2.07  50 2.25  70 2.26  71 2.36  45 2.36  11 2.53  33 2.53
  25  0.941  0.653  0.305-  51 2.25  71 2.26  45 2.26  46 2.36  72 2.36  34 2.53  12 2.53
  26  0.582  0.599  0.081-  50 2.05  38 2.07  49 2.10   2 2.38
  27  0.732  0.460  0.187-  68 2.13  50 2.26  38 2.26  51 2.36  39 2.36  14 2.53   3 2.53
  28  0.882  0.310  0.314-  40 2.11  52 2.13  65 2.25  39 2.26  51 2.26   5 2.51   4 2.53  15 2.53

  29  0.299  0.227  0.102-  53 2.05  69 2.08  41 2.33  54 2.36  42 2.36   6 2.53  17 2.53
  30  0.449  0.076  0.229-  70 2.25  42 2.26  54 2.26  55 2.36  43 2.36  18 2.53   7 2.53
  31  0.599  0.926  0.356-  71 2.25  55 2.26  43 2.26  56 2.33  44 2.36  32 2.52  16 2.53   8 2.53
                            19 2.53
  32  0.736  0.808  0.455-  44 2.03  56 2.03  72 2.05  31 2.52  16 2.52
  33  0.015  0.843  0.144-  48 2.08  61 2.12  60 2.26  45 2.36  57 2.36  24 2.53  11 2.53
  34  0.166  0.693  0.271-  62 2.25  57 2.26  45 2.26  46 2.36  58 2.36  12 2.53  25 2.53
  35  0.316  0.543  0.398-  59 2.05  47 2.13  63 2.25  58 2.26  46 2.26
  36  0.780  0.979  0.086-  48 2.02  70 2.07  60 2.08  10 2.51
  37  0.978  0.983  0.448-  16 2.09   9 2.14   5 2.21  12 2.49  40 2.62
  38  0.586  0.406  0.117-  10 1.99  26 2.07  14 2.26  27 2.26  13 2.28
  39  0.736  0.256  0.244-  10 2.16  11 2.25  28 2.26  15 2.26  14 2.36  27 2.36  40 2.56
  40  0.882  0.107  0.337-   5 2.09  16 2.10  28 2.11  12 2.16  15 2.28  39 2.56  37 2.62
  41  0.122  0.189  0.040-  17 2.03   1 2.12  21 2.18  29 2.33
  42  0.303  0.023  0.160-   1 2.13   2 2.25  30 2.26  18 2.26  17 2.36  29 2.36
  43  0.453  0.872  0.286-   3 2.25  19 2.26  31 2.26  18 2.36  30 2.36
  44  0.603  0.722  0.413-  32 2.03  20 2.09   4 2.25  31 2.36  19 2.36
  45  0.019  0.639  0.202-   6 2.25  25 2.26  34 2.26  24 2.36  33 2.36  48 2.79
  46  0.170  0.489  0.329-  22 2.01   7 2.25  35 2.26  34 2.36  25 2.36  47 2.55
  47  0.286  0.355  0.431-  35 2.13  22 2.13   8 2.34  46 2.55
  48  0.887  0.767  0.088-  36 2.02  24 2.07  33 2.08  45 2.79
  49  0.471  0.792  0.035-   2 2.05  23 2.10  26 2.10   1 2.26  69 2.79
  50  0.636  0.692  0.160-  26 2.05  24 2.25  27 2.26   3 2.26  23 2.28   2 2.36
  51  0.787  0.542  0.287-  25 2.25   4 2.26  28 2.26  27 2.36   3 2.36
  52  0.922  0.397  0.402-  28 2.13   5 2.13   4 2.17  22 2.22
  53  0.197  0.437  0.082-  13 2.02   6 2.05  29 2.05
  54  0.353  0.308  0.202-  13 2.17  14 2.25   7 2.26  30 2.26  29 2.36   6 2.36
  55  0.503  0.158  0.329-  15 2.25   8 2.26  31 2.26   7 2.36  30 2.36
  56  0.614  0.017  0.458-  32 2.03   8 2.03  16 2.03  31 2.33  67 2.75
  57  0.070  0.925  0.245-  18 2.25  34 2.26  12 2.26  11 2.36  33 2.36
  58  0.220  0.775  0.372-   9 2.03  19 2.25  35 2.26  34 2.36  12 2.36  59 2.79
  59  0.300  0.632  0.489-  20 2.02  35 2.05   9 2.07  58 2.79
  60  0.920  0.075  0.118-  36 2.08  10 2.11  21 2.11  17 2.25  11 2.26  33 2.26
  61  0.191  0.847  0.090-   2 2.10  33 2.12   1 2.14
  62  0.350  0.641  0.203-  13 2.19  34 2.25  14 2.26   3 2.26   2 2.36
  63  0.501  0.491  0.330-  35 2.25   4 2.26  15 2.26   3 2.36  14 2.36
  64  0.673  0.339  0.440-   5 2.04  15 2.06   4 2.07
  65  0.067  0.258  0.245-  28 2.25   7 2.26  18 2.26   6 2.36  17 2.36
  66  0.257  0.097  0.357-   7 2.10  18 2.11   8 2.14  19 2.14
  67  0.376  0.952  0.482-  19 2.02  20 2.07   8 2.16  56 2.75
  68  0.920  0.394  0.129-  21 2.08  17 2.12  27 2.13   6 2.19
  69  0.449  0.075  0.047-   1 2.08  29 2.08  23 2.11  49 2.79
  70  0.634  0.025  0.160-  36 2.07  23 2.13  30 2.25  11 2.26  24 2.26  10 2.35
  71  0.784  0.874  0.287-  31 2.25  25 2.26  12 2.26  24 2.36  11 2.36
  72  0.934  0.724  0.414-  32 2.05   9 2.07  22 2.17  12 2.36  25 2.36

  LATTYP: Found a base centered orthorhombic cell.
 ALAT       =    11.4527836704
 B/A-ratio  =     1.4485816945
 C/A-ratio  =     1.8059804630

  Lattice vectors:

 A1 = (  10.0797329849,   0.0000000000,   0.0000000000)
 A2 = (  -3.5732980427,  -9.4251025535,   0.0000000000)
 A3 = (   0.0000000000,   0.0000000000, -20.6835035552)

Analysis of symmetry for initial positions (statically):
 Subroutine PRICEL returns:
 Original cell was already a primitive cell.

 Routine SETGRP: Setting up the symmetry group for a
 base centered orthorhombic supercell.

 Subroutine GETGRP returns: Found  1 space group operations
 (whereof  1 operations were pure point group operations)
 out of a pool of  8 trial point group operations.

The static configuration has the point symmetry C_1 .

Analysis of symmetry for dynamics (positions and initial velocities):
 Subroutine PRICEL returns:
 Original cell was already a primitive cell.

 Routine SETGRP: Setting up the symmetry group for a
 base centered orthorhombic supercell.

 Subroutine GETGRP returns: Found  1 space group operations
 (whereof  1 operations were pure point group operations)
 out of a pool of  8 trial point group operations.

The dynamic configuration has the point symmetry C_1 .

 Subroutine INISYM returns: Found  1 space group operations
 (whereof  1 operations are pure point group operations),
 and found     1 'primitive' translations

 KPOINTS: gamma-point-only calculation. no periodi

Automatic generation of k-mesh.
Space group operators:
 irot       det(A)        alpha          n_x          n_y          n_z        tau_x        tau_y        tau_z
    1     1.000000     0.000000     1.000000     0.000000     0.000000     0.000000     0.000000     0.000000

 Subroutine IBZKPT returns following result:

 Found      1 irreducible k-points:

 Following reciprocal coordinates:
            Coordinates               Weight
  0.000000  0.000000  0.000000      1.000000

 Following cartesian coordinates:
            Coordinates               Weight
  0.000000  0.000000  0.000000      1.000000

 SYSTEM =  "Millerite NiS"
 POSCAR =  Type_036 Type_136

 Startparameter for this run:
   NWRITE =      2    write-flag & timer
   PREC   = normal    normal or accurate (medium, high low for compatibility)
   ISTART =      0    job   : 0-new  1-cont  2-samecut
   ICHARG =      2    charge: 1-file 2-atom 10-const
   ISPIN  =      1    spin polarized calculation?
   LNONCOLLINEAR =      F non collinear calculations
   LSORBIT =      F    spin-orbit coupling
   INIWAV =      1    electr: 0-lowe 1-rand  2-diag
   LASPH  =      F    aspherical Exc in radial PAW
   METAGGA=      F    non-selfconsistent MetaGGA calc.

 Electronic Relaxation 1
   ENCUT  =  450.0 eV  33.07 Ry    5.75 a.u.  17.43 17.43 35.78*2*pi/ulx,y,z
   ENINI  =  450.0     initial cutoff
   ENAUG  =  703.4 eV  augmentation charge cutoff
   NELM   =    100;   NELMIN=  2; NELMDL= -5     # of ELM steps
   EDIFF  = 0.1E-03   stopping-criterion for ELM
   LREAL  =      T    real-space projection
   NLSPLINE    = F    spline interpolate recip. space projectors
   LCOMPAT=      F    compatible to vasp.4.4
   GGA_COMPAT  = T    GGA compatible to vasp.4.4-vasp.4.6
   LMAXPAW     = -100 max onsite density
   LMAXMIX     =    2 max onsite mixed and CHGCAR
   VOSKOWN=      0    Vosko Wilk Nusair interpolation
   ROPT   =   -0.00050  -0.00050
 Ionic relaxation
   EDIFFG = 0.1E-02   stopping-criterion for IOM
   NSW    =      0    number of steps for IOM
   NBLOCK =      1;   KBLOCK =      1    inner block; outer block
   IBRION =     -1    ionic relax: 0-MD 1-quasi-New 2-CG
   NFREE  =      0    steps in history (QN), initial steepest desc. (CG)
   ISIF   =      2    stress and relaxation
[...]
  Fock        0.00000     0.00000     0.00000     0.00000     0.00000     0.00000
  Total      96.08063    99.00495   114.44780    -7.29933    -3.29489    -1.26562
  in kB      78.34066    80.72504    93.31658    -5.95161    -2.68654    -1.03194

 VOLUME and BASIS-vectors are now :
  energy-cutoff  :      450.00
  volume of cell :     1964.98
      direct lattice vectors                 reciprocal lattice vectors
    10.079732985  0.000000000  0.000000000     0.099208977 -0.037612667  0.000000000
     3.573298043  9.425102554  0.000000000     0.000000000  0.106099641  0.000000000
     0.000000000  0.000000000 20.683503555     0.000000000  0.000000000  0.048347708

  length of vectors
    10.079732985 10.079732985 20.683503555     0.106099641  0.106099641  0.048347708

 FORCES acting on ions
    electron-ion (+dipol)            ewald-force                    non-local-force                 convergence-correction
   0.411E+03 0.125E+03 0.543E+04   -.416E+03 -.124E+03 -.544E+04   0.328E+01 -.172E+01 0.775E+01   -.259E-01 0.591E-01 -.118E+00
   0.590E+03 0.368E+03 0.303E+04   -.594E+03 -.372E+03 -.303E+04   0.305E+01 0.313E+01 -.170E+01   -.275E-01 0.284E-01 0.935E-01
   0.213E+02 -.400E+03 -.209E+03   -.221E+02 0.402E+03 0.209E+03   0.664E+00 -.143E+01 -.526E+00   0.185E-03 -.624E-01 0.192E+00
   -.535E+02 -.466E+03 -.362E+04   0.538E+02 0.470E+03 0.362E+04   -.303E+00 -.319E+01 -.391E+01   -.867E-02 -.231E-01 0.619E-01
   -.748E+03 -.762E+02 -.508E+04   0.751E+03 0.776E+02 0.508E+04   -.220E+01 -.270E+01 -.640E+01   -.104E-02 0.223E-01 0.622E-01
   0.198E+03 -.721E+03 0.225E+04   -.201E+03 0.723E+03 -.225E+04   0.189E+01 -.261E+01 0.523E+00   -.628E-01 0.467E-02 0.129E+00
   0.898E+02 -.531E+03 -.138E+04   -.899E+02 0.533E+03 0.138E+04   0.535E+00 -.250E+01 -.291E+00   0.117E-01 0.352E-01 0.195E+00
   0.271E+03 -.876E+03 -.467E+04   -.271E+03 0.879E+03 0.467E+04   -.748E-01 -.201E+01 -.254E+01   -.410E-02 0.829E-02 0.868E-01
   -.179E+01 -.165E+03 -.522E+04   0.265E+01 0.165E+03 0.522E+04   -.129E+01 -.339E-01 -.399E+01   0.250E-01 -.402E-01 0.721E-01
   0.349E+03 -.333E+03 0.345E+04   -.351E+03 0.333E+03 -.346E+04   0.144E+01 -.258E+00 0.406E+01   0.832E-02 0.202E-01 0.710E-01
   -.167E+03 -.762E+02 0.725E+03   0.167E+03 0.745E+02 -.721E+03   -.428E+00 0.744E+00 -.312E+01   -.223E-02 0.514E-01 0.153E+00
   -.398E+03 -.166E+03 -.199E+04   0.399E+03 0.163E+03 0.198E+04   -.408E+00 0.200E+01 0.338E+01   -.387E-02 0.137E-01 0.159E+00
   0.211E+03 -.423E+03 0.392E+04   -.213E+03 0.427E+03 -.392E+04   0.228E+01 -.353E+01 0.355E+01   0.634E-01 -.390E-01 0.103E+00
   0.373E+03 0.119E+03 0.683E+03   -.373E+03 -.117E+03 -.680E+03   0.503E+00 -.166E+01 -.197E+01   0.767E-01 -.222E-01 0.229E+00
   0.651E+03 -.921E+02 -.239E+04   -.657E+03 0.916E+02 0.239E+04   0.542E+01 0.843E-01 -.168E+01   0.648E-02 0.196E-01 0.802E-01
   0.174E+02 -.269E+03 -.408E+04   -.210E+02 0.268E+03 0.409E+04   0.336E+01 0.275E+00 -.522E+01   -.809E-02 0.348E-01 0.699E-01
   0.173E+03 0.839E+02 0.287E+04   -.172E+03 -.843E+02 -.286E+04   0.233E+00 -.623E+00 -.184E+01   -.584E-01 -.606E-03 0.348E-01
   0.464E+03 0.279E+03 -.263E+03   -.466E+03 -.280E+03 0.262E+03   0.275E+01 0.404E+00 0.256E+00   -.880E-02 0.228E-02 0.183E+00
   0.553E+03 0.956E+01 -.311E+04   -.556E+03 -.119E+02 0.311E+04   0.245E+01 0.201E+01 -.867E+00   0.573E-02 -.274E-01 0.126E+00
   -.105E+03 0.443E+03 -.540E+04   0.101E+03 -.445E+03 0.540E+04   0.482E+01 0.110E+01 -.556E+00   -.263E-01 -.324E-02 0.735E-01
   0.304E+03 -.465E+03 0.563E+04   -.303E+03 0.467E+03 -.563E+04   -.255E+01 -.189E+01 -.173E+01   -.727E-02 -.191E-01 -.108E+00
   0.402E+03 0.607E+03 -.450E+04   -.406E+03 -.609E+03 0.450E+04   0.230E+01 0.149E+01 -.131E+01   0.146E-01 -.228E-01 0.952E-01
   -.373E+03 0.114E+03 0.444E+04   0.375E+03 -.111E+03 -.445E+04   -.212E+00 -.323E+01 0.386E+01   0.796E-01 0.631E-01 -.341E-01
   0.204E+03 0.764E+03 0.196E+04   -.204E+03 -.766E+03 -.196E+04   -.282E+00 0.189E+01 -.145E+01   -.246E-02 0.325E-02 0.109E+00
   0.391E+03 0.496E+03 -.107E+04   -.393E+03 -.496E+03 0.106E+04   0.158E+01 0.283E+00 0.184E+01   -.189E-01 -.361E-01 0.190E+00
   -.176E+03 0.515E+03 0.519E+04   0.174E+03 -.515E+03 -.519E+04   0.249E+01 -.190E+00 0.324E+00   0.340E-01 -.790E-01 -.399E-01
   -.625E+03 -.146E+03 0.202E+04   0.628E+03 0.146E+03 -.202E+04   -.361E+01 0.351E+00 -.677E+00   -.200E-01 -.409E-01 0.187E+00
   -.725E+03 -.190E+02 -.123E+04   0.731E+03 0.225E+02 0.123E+04   -.521E+01 -.246E+01 0.187E+01   -.316E-01 0.961E-02 0.134E+00
   -.519E+03 -.409E+03 0.437E+04   0.523E+03 0.410E+03 -.437E+04   -.428E+01 -.861E+00 0.314E+01   0.121E-01 -.374E-01 -.351E-01
   -.324E+03 0.802E+02 0.788E+03   0.325E+03 -.806E+02 -.789E+03   -.115E+01 0.321E+00 0.195E+00   0.264E-01 0.182E-01 0.176E+00
   0.783E+01 0.202E+03 -.205E+04   -.669E+01 -.203E+03 0.205E+04   -.105E+01 0.538E+00 0.204E+01   -.163E-01 0.341E-02 0.113E+00
   -.892E+02 0.581E+03 -.535E+04   0.884E+02 -.584E+03 0.535E+04   0.167E+01 0.290E+01 0.119E+01   -.196E-01 -.484E-02 0.513E-01
   -.609E+03 0.656E+03 0.339E+04   0.613E+03 -.659E+03 -.339E+04   -.302E+01 0.278E+01 0.165E+01   -.185E-01 0.403E-01 0.295E-01
   -.451E+03 0.247E+03 -.252E+02   0.452E+03 -.247E+03 0.232E+02   -.951E+00 0.196E+00 0.167E+01   0.179E-01 -.180E-01 0.210E+00
   -.375E+03 0.494E+03 -.353E+04   0.379E+03 -.497E+03 0.353E+04   -.428E+01 0.271E+01 -.157E+01   -.181E-01 -.113E-01 0.121E+00
   -.303E+02 0.641E+01 0.547E+04   0.298E+02 -.935E+01 -.548E+04   0.202E+00 0.364E+01 0.616E+01   0.150E-01 0.414E-01 -.829E-01
   -.283E+03 -.148E+03 -.203E+04   0.286E+03 0.149E+03 0.203E+04   -.211E+01 0.122E-01 -.221E+01   0.439E-02 0.193E-02 0.325E-01
   0.128E+03 0.278E+02 0.177E+04   -.130E+03 -.291E+02 -.178E+04   -.244E+00 0.219E+01 0.303E+01   0.166E-01 -.269E-01 0.326E-01
   -.136E+02 0.254E+02 0.889E+02   0.141E+02 -.257E+02 -.869E+02   -.797E+00 0.688E+00 -.206E+01   -.233E-02 0.258E-01 0.773E-01
   -.238E+03 0.519E+02 -.614E+03   0.238E+03 -.533E+02 0.608E+03   0.428E+00 0.109E+01 0.496E+01   -.346E-02 0.216E-01 0.447E-01
   0.224E+02 -.185E+03 0.230E+04   -.218E+02 0.188E+03 -.230E+04   -.630E+00 -.151E+01 0.256E+01   -.182E-01 0.708E-02 -.689E-01
   0.644E+02 0.808E+02 0.816E+03   -.640E+02 -.812E+02 -.813E+03   -.365E+00 0.863E+00 -.104E+01   -.534E-02 0.844E-02 0.412E-01
   0.504E+02 0.147E+03 -.166E+03   -.506E+02 -.150E+03 0.164E+03   0.500E+00 0.158E+01 0.811E+00   0.617E-02 -.168E-01 0.758E-01
   -.301E+02 0.268E+03 -.141E+04   0.311E+02 -.270E+03 0.141E+04   -.110E+01 0.271E+00 -.960E+00   -.214E-01 0.596E-02 0.296E-01
   0.130E+02 0.170E+03 0.762E+03   -.124E+02 -.172E+03 -.763E+03   -.418E+00 0.142E+01 0.181E+01   -.165E-01 -.513E-02 0.548E-01
   -.189E+02 0.169E+03 -.537E+03   0.188E+02 -.170E+03 0.532E+03   0.690E+00 0.172E+01 0.147E+01   -.657E-02 -.129E-01 0.864E-01
   0.835E+01 0.197E+03 -.183E+04   -.816E+01 -.197E+03 0.183E+04   0.164E+00 -.376E+00 -.630E+00   -.130E-01 0.170E-01 0.323E-01
   -.801E+02 0.512E+03 0.205E+04   0.801E+02 -.516E+03 -.206E+04   -.249E+00 0.196E+01 0.111E+01   -.187E-02 0.969E-02 -.435E-01
   0.298E+02 0.189E+03 0.238E+04   -.290E+02 -.191E+03 -.239E+04   -.443E+00 0.718E+00 0.287E+01   0.446E-02 0.114E-01 -.956E-01
   -.198E+03 0.356E+02 0.903E+03   0.200E+03 -.358E+02 -.901E+03   -.112E+01 0.850E+00 -.565E+00   0.159E-01 -.221E-01 0.741E-01
   -.143E+03 -.107E+03 -.239E+03   0.145E+03 0.109E+03 0.238E+03   -.221E+01 -.156E+01 0.649E+00   -.119E-01 -.188E-01 0.539E-01
   -.266E+03 -.261E+02 -.164E+04   0.268E+03 0.265E+02 0.165E+04   -.141E+00 -.139E-01 -.470E+00   0.174E-01 -.392E-03 0.274E-01
   0.873E+02 -.385E+03 0.211E+04   -.878E+02 0.388E+03 -.211E+04   0.337E+00 -.108E+01 0.106E+01   -.253E-01 0.441E-02 -.634E-01
   -.428E+02 -.589E+02 0.484E+03   0.443E+02 0.578E+02 -.482E+03   -.119E+01 0.625E+00 -.124E+01   0.281E-01 -.688E-02 0.866E-01
   -.327E+02 -.198E+03 -.673E+03   0.343E+02 0.200E+03 0.673E+03   -.117E+01 -.244E+01 -.188E+00   0.137E-01 0.105E-01 0.583E-01
   0.879E+01 -.285E+03 -.219E+04   -.687E+01 0.286E+03 0.220E+04   -.160E+01 -.961E+00 -.284E+01   -.636E-02 0.126E-01 0.249E-01
   -.177E+03 -.532E+02 0.178E+03   0.178E+03 0.553E+02 -.179E+03   -.116E+01 -.224E+01 0.542E+00   -.147E-02 0.170E-01 0.692E-01
   -.172E+03 -.958E+02 -.951E+03   0.175E+03 0.984E+02 0.949E+03   -.122E+01 -.292E+01 -.197E+00   0.688E-02 -.577E-02 0.600E-01
   0.169E+02 0.248E+03 -.220E+04   -.167E+02 -.249E+03 0.221E+04   -.787E-02 0.436E+00 -.177E+01   0.517E-02 -.232E-02 0.291E-01
   -.206E+03 0.997E+02 0.152E+04   0.208E+03 -.996E+02 -.152E+04   -.149E+01 -.143E+00 -.220E+00   -.137E-01 0.235E-02 -.115E-01
   0.268E+03 0.248E+03 0.178E+04   -.269E+03 -.251E+03 -.179E+04   0.406E+00 0.191E+01 0.272E+01   -.258E-01 0.148E-01 -.259E-01
   0.165E+03 -.152E+03 0.552E+03   -.167E+03 0.154E+03 -.553E+03   0.224E+01 -.161E+01 0.108E+01   0.271E-01 -.145E-01 0.899E-01
   0.171E+03 -.700E+02 -.771E+03   -.174E+03 0.716E+02 0.771E+03   0.280E+01 -.114E+01 -.641E+00   0.285E-02 -.125E-01 0.342E-01
   0.229E+03 -.110E+03 -.216E+04   -.232E+03 0.111E+03 0.217E+04   0.151E+01 -.603E+00 -.166E+01   -.400E-02 -.659E-02 0.263E-01
   0.105E+03 -.109E+03 0.304E+02   -.107E+03 0.110E+03 -.304E+02   0.262E+01 -.140E+01 0.113E+00   -.234E-01 0.789E-02 0.806E-01
   0.315E+03 -.162E+03 -.119E+04   -.322E+03 0.165E+03 0.120E+04   0.420E+01 -.263E+01 -.143E+01   0.169E-02 0.408E-02 0.583E-01
   0.161E+03 -.289E+03 -.223E+04   -.164E+03 0.290E+03 0.223E+04   0.147E+01 0.230E+00 -.164E+01   -.615E-02 -.946E-02 0.313E-01
   -.533E+02 -.397E+03 0.138E+04   0.523E+02 0.402E+03 -.138E+04   0.608E+00 -.213E+01 0.104E+01   -.256E-01 0.160E-02 0.160E-01
   -.313E+03 -.218E+03 0.217E+04   0.316E+03 0.221E+03 -.218E+04   -.577E+00 -.164E+01 0.303E+01   0.191E-01 0.119E-01 -.573E-01
   0.193E+03 -.168E+03 0.888E+03   -.196E+03 0.170E+03 -.887E+03   0.209E+01 -.119E+01 0.640E+00   0.171E-01 0.129E-01 0.208E-01
   0.168E+03 0.345E+02 -.220E+03   -.170E+03 -.338E+02 0.219E+03   0.251E+01 -.111E+01 0.177E+00   -.785E-02 0.781E-02 0.748E-01
   0.136E+03 0.174E+03 -.159E+04   -.139E+03 -.175E+03 0.160E+04   0.111E+01 -.981E+00 -.218E+01   0.175E-01 -.243E-01 0.313E-01
   -.150E+02 0.152E+02 -.141E+02   0.341E-12 -.426E-12 -.143E-10   0.151E+02 -.152E+02 0.986E+01   -.293E-01 0.230E-01 0.426E+01

 POSITION                                       TOTAL-FORCE (eV/Angst)
      6.45690      9.36184      1.20123        -1.493469     -0.655487     -1.509527
      6.84285      7.49250      2.62550        -1.301287     -0.904019      3.140573
      7.82056      6.07621      5.25100        -0.117026     -0.058760      0.178579
      8.79827      4.65991      7.87651        -0.028299      1.500151     -1.260842
      9.61127      1.99033      8.78799         0.952569     -1.297734      1.301273
      2.61774      3.87870      3.50067        -0.315381      0.023983      1.304004
      3.59545      2.46241      6.12617         0.481699      0.383163     -1.008289
      4.57317      1.04611      8.75167        -0.561195      1.203087     -0.633203
      3.81018      7.19020      9.33437        -0.407269      0.034121      1.100646
      7.96534      2.01153      2.95699        -0.669097     -0.404122     -0.763298
      8.47237      0.26490      4.37584         0.172323     -0.879931      1.491072
     13.02338      8.27371      7.00134         0.564192     -1.286069      0.226972
      5.20617      4.47971      2.78742         0.912873      0.253321     -0.392828
      6.61816      3.96023      4.55733         0.607741     -0.126907      0.990794
      7.59587      2.54394      7.18283        -1.050052     -0.446727     -1.302718
      7.94400      0.14287      8.35663        -0.206587     -0.078249     -0.301586
      1.41534      1.76273      2.80700         1.200539     -0.998163      3.601997
      2.39305      0.34643      5.43250        -0.125624     -0.516310     -1.043777
      6.94406      8.35524      8.05800        -0.511495     -0.374348     -2.862251
      7.05489      6.90560      9.89489         1.055365     -0.449847      0.675185
      9.93924      2.40028      1.23936        -0.906799     -0.032407     -1.126029
      2.58663      4.76313      8.61108        -1.394189     -0.239509      1.081011
      8.97267      8.38194      1.98762         1.740735     -0.206444     -0.569709
     10.84326      7.57403      3.68216        -0.441229     -0.449070      1.573741
     11.82097      6.15773      6.30767         0.117480     -0.017005      0.014066
      8.00884      5.64262      1.67909         0.156486     -0.915208     -0.883037
      9.02296      4.33443      3.86366        -0.200289      0.075924      0.389452
     10.00068      2.91813      6.48916         0.958582      1.120578     -1.809498
      3.82015      2.13692      2.11332        -0.360798      0.080339      0.995863
      4.79786      0.72063      4.73883         0.065951     -0.023472      0.187380
      9.34887      8.72943      7.36433         0.072277      0.233855     -0.820283
     10.30724      7.61884      9.41033         0.774217     -0.208033      0.524192
      3.16834      7.94822      2.98849         1.108574     -0.134062      1.257828
      4.14605      6.53193      5.61399         0.177789      0.117325     -0.070864
      5.12376      5.11563      8.23950         0.123103      0.152612     -1.966661
     11.36431      9.22577      1.77492        -0.254787      0.744128     -1.578901
     13.37050      9.26017      9.26345         1.204625      1.017726      2.064660
      7.35546      3.82659      2.42507        -1.531272      0.864746     -1.722661
      8.33317      2.41029      5.05057        -0.320005      0.430540      0.050901
      9.27071      1.00552      6.97996         0.497097     -0.366256     -0.931655
      1.91027      1.78272      0.83524         0.015326      0.695405     -3.364636
      3.13035      0.21279      3.30024         0.026530      0.440504      2.308635
      7.68136      8.22159      5.92574         0.331943     -0.740019     -0.440930
      8.65907      6.80530      8.55124        -0.089588     -1.457711      0.079581
      2.47854      6.02409      4.17540         0.122222     -0.159348      0.671136
      3.45626      4.60779      6.80091         0.551053      0.290208     -2.783784
      4.15096      3.34336      8.90676         0.342111     -1.181689      2.167929
     11.68657      7.23139      1.82031        -0.235014     -2.003877     -3.191843
      7.57986      7.46405      0.71606         0.364843     -0.900265     -3.699884
      8.88655      6.52099      3.30837         0.845695      0.570390      1.583997
      9.86427      5.10469      5.93387        -0.142253      0.482633     -0.238155
     10.71496      3.74411      8.31238         1.277843      0.314535      2.177024
      3.54424      4.12317      1.68972        -0.237459      2.138535     -3.099758
      4.66145      2.90719      4.18354         0.272701     -0.531301      0.571552
      5.63916      1.49089      6.80904         0.381454      0.330799     -0.452491
      6.24947      0.16350      9.48054         0.314563      0.758262      2.628396
      4.00964      8.71849      5.05870         0.406079     -0.178281     -0.209381
      4.98735      7.30220      7.68420         1.494682     -0.309569     -2.183778
      5.28264      5.95721     10.10683         0.184182     -0.751775      3.551378
      9.53836      0.70969      2.43320         1.072559     -0.019787     -0.515443
      4.95461      7.98356      1.85392        -1.463064     -1.318645     -1.620389
      5.82436      6.04450      4.19167        -0.212226      0.491646      0.540717
      6.80207      4.62821      6.81717         0.101105      0.495809     -0.377029
      7.99469      3.19348      9.09565        -1.544128      0.499665      3.281043
      1.59925      2.43070      5.06683        -0.000041      0.122457      0.136398
      2.93638      0.91769      7.38505        -2.895400      0.925810      1.493709
      7.18742      8.96945      9.96706        -1.391317      1.340700      3.308538
     10.67843      3.70936      2.67280        -0.402490      2.315768     -0.721297
      4.79664      0.70543      0.96431         2.172362      1.002840     -2.232959
      6.47617      0.23320      3.31650        -0.927766      1.190796      1.882618
     11.02718      8.24201      5.94200        -0.174553     -0.392069     -0.495538
     12.00489      6.82571      8.56750        -1.310021     -1.629889     -0.347922
    total drift:                                0.071319      0.044254      0.013212

  FREE ENERGIE OF THE ION-ELECTRON SYSTEM (eV)
  free  energy   TOTEN  =      -348.45486443 eV

  energy  without entropy=     -347.47574406  energy(sigma->0) =     -347.96530425