 vasp.5.4.4.18Apr17-6-g9f103f2a35 (build Aug 13 2019 17:33:20) gamma-only

 executed on             LinuxIFC date 2020.05.12  11:10:41

 INCAR:
 POTCAR:    PAW_PBE Ni_pv 06Sep2000
 POTCAR:    PAW_PBE S 06Sep2000
 POTCAR:    PAW_PBE Ni_pv 06Sep2000
   VRHFIN =Ni:

   TITEL  = PAW_PBE Ni_pv 06Sep2000
   POMASS =   58.690; ZVAL   =   16.000    mass and valenz
   ENMAX  =  367.986; ENMIN  =  275.989 eV

 POTCAR:    PAW_PBE S 06Sep2000
   VRHFIN =S : s2p4

   TITEL  = PAW_PBE S 06Sep2000
   POMASS =   32.066; ZVAL   =    6.000    mass and valenz
   ENMAX  =  258.689; ENMIN  =  194.016 eV

 Optimization of the real space projectors (new method)

 maximal supplied QI-value         = 18.90
 optimisation between [QCUT,QGAM] = [ 10.77, 21.73] = [ 32.49,132.25] Ry
 Optimized for a Real-space Cutoff    1.38 Angstroem

   l    n(q)    QCUT    max X(q) W(low)/X(q) W(high)/X(q)  e(spline)
   1      8    10.771     2.836    0.40E-04    0.29E-04    0.12E-06
   1      8    10.771     4.023    0.10E-03    0.48E-04    0.29E-06
   2      8    10.771    73.368    0.42E-03    0.97E-04    0.44E-06
   2      8    10.771    69.010    0.42E-03    0.99E-04    0.45E-06
   0      9    10.771    54.797    0.10E-03    0.56E-04    0.74E-07
   0      9    10.771    24.266    0.89E-04    0.49E-04    0.67E-07
 Optimization of the real space projectors (new method)

 maximal supplied QI-value         = 19.84
 optimisation between [QCUT,QGAM] = [ 10.71, 21.63] = [ 32.15,130.99] Ry
 Optimized for a Real-space Cutoff    1.19 Angstroem

   l    n(q)    QCUT    max X(q) W(low)/X(q) W(high)/X(q)  e(spline)
   0      8    10.715   187.594    0.41E-03    0.53E-04    0.66E-07
   0      8    10.715   164.243    0.41E-03    0.53E-04    0.65E-07
   1      7    10.715    67.533    0.19E-03    0.59E-03    0.68E-07
   1      7    10.715    50.729    0.19E-03    0.58E-03    0.67E-07
  PAW_PBE Ni_pv 06Sep2000               :
  PAW_PBE S 06Sep2000                   :

 POSCAR: Type_048 Type_148
  positions in cartesian coordinates
 exchange correlation table for  LEXCH =        8
   RHO(1)=    0.500       N(1)  =     2000
   RHO(2)=  100.500       N(2)  =     4000

 ion  position               nearest neighbor table
   1  0.256  0.016  0.152-  74 2.25  65 2.26  81 2.26  53 2.36  93 2.36   5 2.53   9 2.53
   2  0.256  0.016  0.481-  75 2.25  66 2.26  82 2.26  54 2.36  94 2.36  10 2.53   6 2.53
   3  0.006  0.266  0.317-  62 2.25  68 2.26  71 2.26  56 2.36  59 2.36   7 2.53  23 2.53
   4  0.090  0.104  0.643-  60 2.00  72 2.16  80 2.22  48 2.30
   5  0.256  0.016  0.066-  90 2.06  78 2.07  81 2.26  49 2.28  61 2.30  93 2.36   9 2.53   1 2.53

   6  0.256  0.016  0.394-  79 2.25  62 2.26  82 2.26  50 2.36  94 2.36   2 2.53  10 2.53
   7  0.006  0.266  0.230-  65 2.25  71 2.26  63 2.26  59 2.36  51 2.36   3 2.53  23 2.53
   8  0.006  0.266  0.558-  66 2.25  72 2.26  64 2.26  60 2.36  52 2.36
   9  0.190  0.215  0.109-  49 2.10  61 2.13  57 2.25  65 2.26  53 2.36  29 2.44   5 2.53   1 2.53

[...]

  49  0.453  0.167  0.064-   9 2.10  21 2.13  29 2.20   5 2.28  17 2.30  90 2.54
  50  0.468  0.167  0.382-  15 2.25  18 2.26  22 2.26   6 2.36  10 2.36
  51  0.218  0.417  0.218-  25 2.25  11 2.26  19 2.26  23 2.36   7 2.36
  52  0.218  0.417  0.547-  24 2.06  12 2.21  26 2.25  20 2.26   8 2.36
  53  0.468  0.167  0.164-  19 2.25  13 2.26  21 2.26   1 2.36   9 2.36
  54  0.468  0.167  0.493-  20 2.25  22 2.26  14 2.26  10 2.36   2 2.36
  55  0.078  0.379  0.019-  29 2.03  41 2.04  57 2.64
  56  0.218  0.417  0.329-  30 2.25  15 2.26  11 2.26   3 2.36  23 2.36
  57  0.053  0.414  0.109-  41 2.08  29 2.20   9 2.25  25 2.26  37 2.36  55 2.64
  58  0.053  0.414  0.438-  10 2.25  26 2.26  30 2.26  38 2.36  42 2.36
  59  0.303  0.164  0.273-  35 2.25  19 2.26  15 2.26   7 2.36   3 2.36
  60  0.303  0.164  0.602-   4 2.00  16 2.16  36 2.25  20 2.26   8 2.36
  61  0.953  0.167  0.064-  21 2.10   9 2.13  41 2.20  17 2.28   5 2.30  78 2.54
  62  0.968  0.167  0.382-   3 2.25   6 2.26  10 2.26  18 2.36  22 2.36
  63  0.718  0.417  0.218-  37 2.25  23 2.26   7 2.26  11 2.36  19 2.36
  64  0.718  0.417  0.547-  12 2.06  24 2.21  38 2.25   8 2.26  20 2.36
  65  0.968  0.167  0.164-   7 2.25   1 2.26   9 2.26  13 2.36  21 2.36
  66  0.968  0.167  0.493-   8 2.25  10 2.26   2 2.26  22 2.36  14 2.36
  67  0.578  0.379  0.019-  41 2.03  29 2.04  69 2.64
  68  0.718  0.417  0.329-  42 2.25   3 2.26  23 2.26  15 2.36  11 2.36
  69  0.553  0.414  0.109-  29 2.08  41 2.20  21 2.25  37 2.26  25 2.36  67 2.64
  70  0.553  0.414  0.438-  22 2.25  38 2.26  42 2.26  26 2.36  30 2.36
  71  0.803  0.164  0.273-  47 2.25   7 2.26   3 2.26  19 2.36  15 2.36
  72  0.803  0.164  0.602-  16 2.00   4 2.16  48 2.25   8 2.26  20 2.36
  73  0.468  0.667  0.382-  39 2.25  42 2.26  46 2.26  30 2.36  34 2.36
  74  0.218  0.917  0.218-  33 2.17   1 2.25  35 2.26  43 2.26  47 2.36  31 2.36
  75  0.218  0.917  0.547-   2 2.25  36 2.26  44 2.26  48 2.36  32 2.36
  76  0.468  0.667  0.164-  33 2.07  45 2.21  43 2.25  37 2.26  25 2.36
  77  0.468  0.667  0.493-  12 2.17  44 2.25  46 2.26  38 2.26  34 2.36  26 2.36
  78  0.024  0.962  0.024-  17 2.06   5 2.07  81 2.53  61 2.54
  79  0.218  0.917  0.329-   6 2.25  39 2.26  35 2.26  27 2.36  47 2.36
  80  0.208  0.906  0.647-  48 2.14  36 2.16  28 2.17   4 2.22  40 2.23
  81  0.053  0.914  0.109-  33 2.08   5 2.26   1 2.26  17 2.36  13 2.36  78 2.53
  82  0.053  0.914  0.438-  34 2.25   2 2.26   6 2.26  14 2.36  18 2.36
  83  0.303  0.664  0.273-  11 2.25  43 2.26  39 2.26  31 2.36  27 2.36
  84  0.303  0.664  0.602-  12 2.08  40 2.19  28 2.25  44 2.26  32 2.36
  85  0.968  0.667  0.382-  27 2.25  30 2.26  34 2.26  42 2.36  46 2.36
  86  0.718  0.917  0.218-  45 2.17  13 2.25  47 2.26  31 2.26  35 2.36  43 2.36
  87  0.718  0.917  0.547-  14 2.25  48 2.26  32 2.26  36 2.36  44 2.36
  88  0.968  0.667  0.164-  45 2.07  33 2.21  31 2.25  25 2.26  37 2.36
  89  0.968  0.667  0.493-  24 2.17  32 2.25  34 2.26  26 2.26  46 2.36  38 2.36
  90  0.524  0.962  0.024-   5 2.06  17 2.07  93 2.53  49 2.54
  91  0.718  0.917  0.329-  18 2.25  27 2.26  47 2.26  39 2.36  35 2.36
  92  0.708  0.906  0.647-  36 2.14  48 2.16  40 2.17  16 2.22  28 2.23
  93  0.553  0.914  0.109-  45 2.08  17 2.26  13 2.26   5 2.36   1 2.36  90 2.53
  94  0.553  0.914  0.438-  46 2.25  14 2.26  18 2.26   2 2.36   6 2.36
  95  0.803  0.664  0.273-  23 2.25  31 2.26  27 2.26  43 2.36  39 2.36
  96  0.803  0.664  0.602-  24 2.08  28 2.19  40 2.25  32 2.26  44 2.36

  LATTYP: Found a simple monoclinic cell.
 ALAT       =    13.8711386352
 B/A-ratio  =     2.1019774055
 C/A-ratio  =     1.3233367991
 COS(beta)  =    -0.9620914447

  Lattice vectors:

 A1 = (  -8.3714133957, -11.0601955134,   0.0000000000)
 A2 = (   0.0000000000,   0.0000000000, -29.1568200000)
 A3 = (  14.6499733957,  11.0601955134,   0.0000000000)

Analysis of symmetry for initial positions (statically):
 Subroutine PRICEL returns following result:

[...]

   2 primitive cells build up your supercell.

 Routine SETGRP: Setting up the symmetry group for a
 simple monoclinic supercell.

 Subroutine GETGRP returns: Found  1 space group operations
 (whereof  1 operations were pure point group operations)
 out of a pool of  4 trial point group operations.

The static configuration has the point symmetry C_1 .

Analysis of symmetry for dynamics (positions and initial velocities):
 Subroutine PRICEL returns following result:

  LATTYP: Found a simple monoclinic cell.
 ALAT       =    11.2564630382
 B/A-ratio  =     2.5902292666
 C/A-ratio  =     1.0869598738
 COS(beta)  =    -0.9677007951

  Lattice vectors:

 A1 = (  -2.0928533957, -11.0601955134,   0.0000000000)
 A2 = (   0.0000000000,   0.0000000000, -29.1568200000)
 A3 = (   5.2321333957,  11.0601955134,   0.0000000000)

   2 primitive cells build up your supercell.

 Routine SETGRP: Setting up the symmetry group for a
 simple monoclinic supercell.

 Subroutine GETGRP returns: Found  1 space group operations
 (whereof  1 operations were pure point group operations)
 out of a pool of  4 trial point group operations.

The dynamic configuration has the point symmetry C_1 .

 Subroutine INISYM returns: Found  1 space group operations
 (whereof  1 operations are pure point group operations),
 and found     2 'primitive' translations

 KPOINTS: gamma-point-only calculation. no periodi

Automatic generation of k-mesh.
Space group operators:
 irot       det(A)        alpha          n_x          n_y          n_z        tau_x        tau_y        tau_z
    1     1.000000     0.000000     1.000000     0.000000     0.000000     0.000000     0.000000     0.000000

 Subroutine IBZKPT returns following result:

 Found      1 irreducible k-points:

 Following reciprocal coordinates:
            Coordinates               Weight
  0.000000  0.000000  0.000000      1.000000

 Following cartesian coordinates:
            Coordinates               Weight
  0.000000  0.000000  0.000000      1.000000

 SYSTEM =  "Millerite NiS"
 POSCAR =  Type_048 Type_148

 Startparameter for this run:
   NWRITE =      2    write-flag & timer
   PREC   = normal    normal or accurate (medium, high low for compatibility)
   ISTART =      0    job   : 0-new  1-cont  2-samecut
   ICHARG =      2    charge: 1-file 2-atom 10-const
   ISPIN  =      1    spin polarized calculation?
   LNONCOLLINEAR =      F non collinear calculations
   LSORBIT =      F    spin-orbit coupling
   INIWAV =      1    electr: 0-lowe 1-rand  2-diag
   LASPH  =      F    aspherical Exc in radial PAW
   METAGGA=      F    non-selfconsistent MetaGGA calc.

 Electronic Relaxation 1
   ENCUT  =  450.0 eV  33.07 Ry    5.75 a.u.  10.86 19.47 50.43*2*pi/ulx,y,z
   ENINI  =  450.0     initial cutoff
   ENAUG  =  703.4 eV  augmentation charge cutoff
   NELM   =    100;   NELMIN=  2; NELMDL= -5     # of ELM steps
   EDIFF  = 0.1E-03   stopping-criterion for ELM
   LREAL  =      T    real-space projection
   NLSPLINE    = F    spline interpolate recip. space projectors
   LCOMPAT=      F    compatible to vasp.4.4
   GGA_COMPAT  = T    GGA compatible to vasp.4.4-vasp.4.6
   LMAXPAW     = -100 max onsite density
   LMAXMIX     =    2 max onsite mixed and CHGCAR
   VOSKOWN=      0    Vosko Wilk Nusair interpolation
   ROPT   =   -0.00050  -0.00050
 Ionic relaxation
   EDIFFG = 0.1E-02   stopping-criterion for IOM
   NSW    =      0    number of steps for IOM
   NBLOCK =      1;   KBLOCK =      1    inner block; outer block
   IBRION =     -1    ionic relax: 0-MD 1-quasi-New 2-CG
   NFREE  =      0    steps in history (QN), initial steepest desc. (CG)
   ISIF   =      2    stress and relaxation
   IWAVPR =     10    prediction:  0-non 1-charg 2-wave 3-comb
   ISYM   =      2    0-nonsym 1-usesym 2-fastsym
   LCORR  =      T    Harris-Foulkes like correction to forces

   POTIM  = 0.5000    time-step for ionic-motion
   TEIN   =    0.0    initial temperature
   TEBEG  =    0.0;   TEEND  =   0.0 temperature during run
   SMASS  =  -3.00    Nose mass-parameter (am)
   estimated Nose-frequenzy (Omega)   =  0.10E-29 period in steps =****** mass=  -0.901E-27a.u.
   SCALEE = 1.0000    scale energy and forces
[...]
     0.000000000  0.000000000 29.156820000     0.000000000  0.000000000  0.034297293

  length of vectors
     6.278560000 11.256463038 29.156820000     0.162098538  0.090414315  0.034297293

 FORCES acting on ions
    electron-ion (+dipol)            ewald-force                    non-local-force                 convergence-correction
   -.757E+02 0.152E+03 0.434E+04   0.758E+02 -.150E+03 -.434E+04   0.400E-01 -.528E+00 -.872E+00   0.672E-02 0.446E-01 -.191E+00
   -.414E+02 0.989E+02 -.354E+04   0.406E+02 -.991E+02 0.354E+04   0.972E+00 0.471E+00 -.121E+01   -.446E-02 -.185E+00 -.916E-01
   -.413E+02 0.222E+03 0.305E+03   0.404E+02 -.222E+03 -.306E+03   0.962E+00 0.486E+00 -.113E+01   -.554E-02 0.119E+00 0.153E+01
   -.304E+02 -.117E+04 -.722E+04   0.289E+02 0.117E+04 0.722E+04   0.909E+00 0.839E-01 0.568E+00   -.187E-01 -.209E+00 0.418E-02
   -.891E+01 0.895E+03 0.695E+04   0.927E+01 -.897E+03 -.695E+04   -.270E+00 0.272E+01 0.392E+01   -.109E-02 0.843E-01 -.376E+00
   -.413E+02 0.201E+03 -.638E+03   0.404E+02 -.202E+03 0.635E+03   0.978E+00 0.611E+00 0.128E+01   -.579E-02 0.189E+00 0.163E+01
   -.415E+02 0.109E+03 0.324E+04   0.405E+02 -.110E+03 -.324E+04   0.103E+01 0.475E+00 0.114E+01   -.298E-02 0.438E+00 -.251E+00
   -.349E+02 -.340E+03 -.542E+04   0.330E+02 0.339E+03 0.542E+04   0.198E+01 0.628E+00 0.233E+01   0.406E-02 0.458E+00 -.104E+01
   0.240E+02 -.458E+03 0.524E+04   -.241E+02 0.459E+03 -.523E+04   -.327E+00 -.289E+01 -.166E+01   0.257E-01 0.112E+01 -.420E+00
   -.411E+02 -.519E+03 -.216E+04   0.405E+02 0.520E+03 0.216E+04   0.780E+00 -.123E+01 -.143E+00   0.104E-03 0.285E+00 0.603E+00
   -.413E+02 -.502E+03 0.186E+04   0.405E+02 0.502E+03 -.186E+04   0.836E+00 -.132E+01 -.263E-01   -.663E-02 0.312E+00 0.355E+00
   -.147E+02 0.640E+03 -.581E+04   0.132E+02 -.642E+03 0.581E+04   0.881E+00 0.665E+00 -.218E+01   -.216E-02 0.503E+00 -.809E+00
   -.757E+02 0.152E+03 0.434E+04   0.758E+02 -.150E+03 -.434E+04   0.400E-01 -.528E+00 -.872E+00   0.802E-02 0.463E-01 -.187E+00
   -.414E+02 0.989E+02 -.354E+04   0.406E+02 -.991E+02 0.354E+04   0.972E+00 0.471E+00 -.121E+01   -.335E-02 -.184E+00 -.916E-01
   -.413E+02 0.222E+03 0.305E+03   0.404E+02 -.222E+03 -.306E+03   0.962E+00 0.486E+00 -.113E+01   -.536E-02 0.120E+00 0.153E+01
   -.304E+02 -.117E+04 -.722E+04   0.289E+02 0.117E+04 0.722E+04   0.909E+00 0.839E-01 0.568E+00   -.218E-01 -.207E+00 0.530E-02
   -.891E+01 0.895E+03 0.695E+04   0.927E+01 -.897E+03 -.695E+04   -.270E+00 0.272E+01 0.392E+01   0.817E-03 0.831E-01 -.377E+00
   -.413E+02 0.201E+03 -.638E+03   0.404E+02 -.202E+03 0.635E+03   0.978E+00 0.611E+00 0.128E+01   -.563E-02 0.189E+00 0.163E+01
   -.415E+02 0.109E+03 0.324E+04   0.405E+02 -.110E+03 -.324E+04   0.103E+01 0.475E+00 0.114E+01   -.221E-02 0.437E+00 -.250E+00
   -.349E+02 -.340E+03 -.542E+04   0.330E+02 0.339E+03 0.542E+04   0.198E+01 0.628E+00 0.233E+01   0.461E-02 0.457E+00 -.104E+01
   0.240E+02 -.458E+03 0.524E+04   -.241E+02 0.459E+03 -.523E+04   -.327E+00 -.289E+01 -.166E+01   0.250E-01 0.112E+01 -.419E+00
   -.411E+02 -.519E+03 -.216E+04   0.405E+02 0.520E+03 0.216E+04   0.780E+00 -.123E+01 -.143E+00   -.395E-03 0.284E+00 0.604E+00
   -.413E+02 -.502E+03 0.186E+04   0.405E+02 0.502E+03 -.186E+04   0.836E+00 -.132E+01 -.263E-01   -.687E-02 0.311E+00 0.353E+00
   -.147E+02 0.640E+03 -.581E+04   0.132E+02 -.642E+03 0.581E+04   0.881E+00 0.665E+00 -.218E+01   -.411E-02 0.502E+00 -.809E+00
   -.358E+02 -.335E+03 0.509E+04   0.340E+02 0.335E+03 -.509E+04   0.184E+01 0.116E+01 -.175E+01   0.103E-01 -.121E+00 -.651E+00
   0.147E+02 0.566E+03 -.326E+04   -.151E+02 -.569E+03 0.326E+04   0.488E-01 0.222E+01 -.314E+00   0.173E-01 0.510E+00 -.322E-01
   -.410E+02 0.301E+03 0.263E+03   0.402E+02 -.301E+03 -.264E+03   0.973E+00 0.735E+00 -.947E+00   -.391E-02 -.442E+00 0.153E+01
   -.882E+01 0.105E+04 -.749E+04   0.876E+01 -.105E+04 0.749E+04   0.121E+00 -.676E+00 0.268E+01   0.154E-02 -.465E+00 -.470E+00
   -.208E+02 -.113E+04 0.670E+04   0.191E+02 0.113E+04 -.671E+04   0.904E+00 -.304E+01 0.668E+01   -.114E-01 0.776E+00 0.388E-01
   -.410E+02 0.321E+03 -.542E+03   0.402E+02 -.322E+03 0.540E+03   0.981E+00 0.665E+00 0.676E+00   -.666E-02 0.195E+00 0.170E+01
   0.150E+02 0.557E+03 0.296E+04   -.154E+02 -.559E+03 -.296E+04   0.869E-01 0.236E+01 0.561E+00   -.808E-02 -.713E+00 -.364E+00
   -.725E+02 0.174E+03 -.458E+04   0.727E+02 -.171E+03 0.458E+04   0.968E-01 -.122E+01 0.534E+00   -.190E-01 -.445E+00 -.797E+00
   -.161E+02 0.627E+03 0.550E+04   0.144E+02 -.627E+03 -.550E+04   0.148E+01 0.882E+00 0.191E+01   0.159E-01 -.870E+00 -.492E+00
   -.394E+02 -.568E+03 -.194E+04   0.390E+02 0.569E+03 0.194E+04   0.513E+00 -.129E+01 0.648E+00   0.222E-02 -.255E+00 0.102E+01
   -.393E+02 -.587E+03 0.164E+04   0.390E+02 0.587E+03 -.164E+04   0.557E+00 -.122E+01 -.579E+00   -.658E-02 0.237E+00 0.654E+00
   0.442E+02 -.494E+03 -.560E+04   -.447E+02 0.496E+03 0.560E+04   -.345E+00 -.257E+01 0.144E+01   -.273E-01 -.903E+00 -.851E+00
   -.358E+02 -.335E+03 0.509E+04   0.340E+02 0.335E+03 -.509E+04   0.184E+01 0.116E+01 -.175E+01   0.738E-02 -.120E+00 -.655E+00
   0.147E+02 0.566E+03 -.326E+04   -.151E+02 -.569E+03 0.326E+04   0.488E-01 0.222E+01 -.314E+00   0.161E-01 0.510E+00 -.298E-01
   -.410E+02 0.301E+03 0.263E+03   0.402E+02 -.301E+03 -.264E+03   0.973E+00 0.735E+00 -.947E+00   -.386E-02 -.442E+00 0.153E+01
   -.882E+01 0.105E+04 -.749E+04   0.876E+01 -.105E+04 0.749E+04   0.121E+00 -.676E+00 0.268E+01   -.139E-02 -.463E+00 -.468E+00
   -.208E+02 -.113E+04 0.670E+04   0.191E+02 0.113E+04 -.671E+04   0.904E+00 -.304E+01 0.668E+01   -.880E-02 0.776E+00 0.384E-01
   -.410E+02 0.321E+03 -.542E+03   0.402E+02 -.322E+03 0.540E+03   0.981E+00 0.665E+00 0.676E+00   -.752E-02 0.195E+00 0.170E+01
   0.150E+02 0.557E+03 0.296E+04   -.154E+02 -.559E+03 -.296E+04   0.869E-01 0.236E+01 0.561E+00   -.736E-02 -.714E+00 -.364E+00
   -.725E+02 0.174E+03 -.458E+04   0.727E+02 -.171E+03 0.458E+04   0.968E-01 -.122E+01 0.534E+00   -.190E-01 -.446E+00 -.797E+00
   -.161E+02 0.627E+03 0.550E+04   0.144E+02 -.627E+03 -.550E+04   0.148E+01 0.882E+00 0.191E+01   0.192E-01 -.870E+00 -.494E+00
   -.394E+02 -.568E+03 -.194E+04   0.390E+02 0.569E+03 0.194E+04   0.513E+00 -.129E+01 0.648E+00   0.121E-02 -.254E+00 0.102E+01
   -.393E+02 -.587E+03 0.164E+04   0.390E+02 0.587E+03 -.164E+04   0.557E+00 -.122E+01 -.579E+00   -.639E-02 0.235E+00 0.653E+00
   0.442E+02 -.494E+03 -.560E+04   -.447E+02 0.496E+03 0.560E+04   -.345E+00 -.257E+01 0.144E+01   -.274E-01 -.904E+00 -.852E+00
   -.211E+02 0.234E+02 0.272E+04   0.217E+02 -.218E+02 -.272E+04   -.738E+00 -.140E+01 0.585E+01   -.356E-02 0.389E+00 -.157E+00
   0.397E+02 -.932E+02 -.163E+03   -.404E+02 0.940E+02 0.160E+03   0.558E+00 -.131E+01 0.275E+01   -.691E-02 0.147E+00 0.726E+00
   0.398E+02 -.135E+03 0.136E+04   -.405E+02 0.136E+03 -.136E+04   0.614E+00 -.143E+01 0.257E+01   0.871E-02 0.308E+00 -.464E+00
   0.499E+01 0.239E+03 -.211E+04   -.606E+01 -.239E+03 0.212E+04   0.237E+01 -.141E+01 -.241E+01   -.874E-02 0.479E+00 -.349E+00
   0.387E+02 -.130E+03 0.143E+04   -.397E+02 0.131E+03 -.143E+04   0.926E+00 -.184E+01 -.212E+01   -.941E-02 0.199E+00 -.190E+00
   0.398E+02 -.139E+03 -.147E+04   -.405E+02 0.141E+03 0.148E+04   0.490E+00 -.160E+01 -.331E+01   -.496E-02 -.169E-01 -.397E+00
   0.128E+01 -.346E+03 0.275E+04   -.985E+00 0.347E+03 -.275E+04   -.340E+00 0.289E+00 0.164E+01   0.222E-02 0.121E+00 0.132E+00
   0.396E+02 -.773E+02 0.476E+02   -.404E+02 0.785E+02 -.459E+02   0.724E+00 -.152E+01 -.274E+01   -.108E-01 0.880E-01 0.629E+00
   0.976E+01 -.442E+03 0.205E+04   -.970E+01 0.443E+03 -.205E+04   0.107E+01 -.305E+00 0.259E+00   -.741E-03 0.330E+00 -.618E-01
   0.385E+02 0.225E+03 -.769E+03   -.396E+02 -.228E+03 0.768E+03   0.913E+00 0.272E+01 0.780E-01   0.129E-01 0.352E-01 0.316E+00
   0.395E+02 0.131E+03 0.649E+03   -.404E+02 -.133E+03 -.649E+03   0.714E+00 0.257E+01 -.149E+00   -.181E-01 0.498E-01 0.270E+00
   -.164E+01 -.467E+03 -.221E+04   0.975E+00 0.467E+03 0.222E+04   0.204E+01 0.403E+00 -.168E+01   -.347E-02 -.411E-01 -.198E+00
[...]
   0.388E+02 0.225E+03 0.660E+03   -.396E+02 -.227E+03 -.660E+03   0.734E+00 0.274E+01 0.114E-01   -.197E-01 -.210E+00 0.116E+00
   0.568E+02 0.505E+03 -.258E+04   -.576E+02 -.509E+03 0.258E+04   0.177E+00 0.481E+01 -.127E+01   0.135E-01 -.665E-01 -.287E+00
   0.394E+02 -.766E+02 -.126E+03   -.404E+02 0.780E+02 0.123E+03   0.920E+00 -.157E+01 0.237E+01   -.842E-02 -.663E-01 0.843E+00
   0.181E+02 -.187E+03 0.116E+04   -.182E+02 0.191E+03 -.116E+04   -.218E+00 -.281E+01 0.531E+00   -.315E-02 -.288E-01 -.140E+00
   0.389E+02 -.135E+03 -.154E+04   -.393E+02 0.137E+03 0.154E+04   0.513E+00 -.161E+01 0.151E+01   -.101E-02 -.218E+00 -.324E+00
   0.561E+01 0.235E+03 0.200E+04   -.625E+01 -.236E+03 -.200E+04   0.190E+01 -.643E+00 0.230E+01   0.501E-02 -.558E+00 -.293E+00
   0.184E+02 -.181E+03 -.127E+04   -.184E+02 0.185E+03 0.127E+04   -.192E+00 -.272E+01 -.994E+00   -.979E-03 -.655E-01 -.123E+00
   -.102E+00 0.447E+03 0.275E+04   -.190E+00 -.449E+03 -.276E+04   0.406E+00 0.823E+00 0.252E+01   -.821E-03 -.690E-01 -.230E+00
   0.394E+02 -.921E+02 0.112E+02   -.404E+02 0.936E+02 -.100E+02   0.982E+00 -.173E+01 -.222E+01   -.174E-01 0.322E-01 0.650E+00
   -.241E+02 0.382E+02 -.287E+04   0.242E+02 -.378E+02 0.288E+04   0.288E-01 -.569E-01 -.323E+01   0.144E-02 -.298E+00 -.104E+00
   0.573E+02 0.485E+03 0.241E+04   -.592E+02 -.489E+03 -.241E+04   0.123E+01 0.473E+01 0.164E+01   -.955E-02 -.177E+00 -.971E-01
   0.395E+02 0.131E+03 -.768E+03   -.404E+02 -.133E+03 0.767E+03   0.700E+00 0.244E+01 0.626E-01   0.924E-02 -.228E+00 0.401E+00
   0.388E+02 0.225E+03 0.660E+03   -.396E+02 -.227E+03 -.660E+03   0.734E+00 0.274E+01 0.114E-01   -.194E-01 -.210E+00 0.116E+00
   0.568E+02 0.505E+03 -.258E+04   -.576E+02 -.509E+03 0.258E+04   0.177E+00 0.481E+01 -.127E+01   0.129E-01 -.667E-01 -.287E+00
   -.648E+02 0.312E+01 -.407E+02   0.256E-12 0.193E-11 -.682E-11   0.651E+02 -.455E+01 0.350E+02   -.249E+00 0.159E+01 0.579E+01

 POSITION                                       TOTAL-FORCE (eV/Angst)
      1.64370      0.18204      4.44331         0.130070      0.675407      0.149942
      1.64370      0.18204     14.02172         0.130165      0.080694     -0.435955
      0.59727      2.94708      9.23251         0.102122      0.177181     -0.369187
      0.78189      1.14863     18.73702        -0.599868      0.555490      1.043927
      1.64370      0.18204      1.91264         0.086041      0.643827      2.229422
      1.64370      0.18204     11.49105         0.080939      0.132540      0.349013
      0.59727      2.94708      6.70184         0.108811      0.108526      0.454401
      0.59727      2.94708     16.28025         0.103741      0.044167     -0.274124
      1.64370      2.37366      3.17797        -0.435408     -0.456198      2.857775
      1.64370      2.37366     12.75638         0.200780     -0.385298     -0.065579
      3.73655      5.13871      7.96718         0.114441     -0.420350      0.041890
      3.91151      6.05347     16.03796        -0.598930     -0.196823      0.279698
      4.78298      0.18204      4.44331         0.130070      0.675407      0.149942
      4.78298      0.18204     14.02172         0.130165      0.080694     -0.435955
      3.73655      2.94708      9.23251         0.102122      0.177181     -0.369187
      3.92117      1.14863     18.73702        -0.599868      0.555490      1.043927
      4.78298      0.18204      1.91264         0.086041      0.643827      2.229422
      4.78298      0.18204     11.49105         0.080939      0.132540      0.349013
      3.73655      2.94708      6.70184         0.108811      0.108526      0.454401
      3.73655      2.94708     16.28025         0.103741      0.044167     -0.274124
      4.78298      2.37366      3.17797        -0.435408     -0.456198      2.857775
      4.78298      2.37366     12.75638         0.200780     -0.385298     -0.065579
      6.87583      5.13871      7.96718         0.114441     -0.420350      0.041890
      7.05079      6.05347     16.03796        -0.598930     -0.196823      0.279698
      2.69013      5.71213      4.44331         0.074858      0.272166      0.639911
      2.69013      5.71213     14.02172        -0.335213     -0.456817     -1.360406
      1.64370      8.47718      9.23251         0.089494      0.138593     -0.331838
      1.67371      8.50014     18.61465         0.061671     -0.132853     -0.053631
      2.85027      4.02175      1.84166        -0.760095      0.313423      0.578075
      2.69013      5.71213     11.49105         0.128996      0.138504      0.212772
      1.64370      8.47718      6.70184        -0.352084     -0.414602      1.467591
      1.64370      8.47718     16.28025         0.317710      0.639564     -0.814460
      2.86455      8.81926      4.68711        -0.259153      0.075175     -0.069628
      2.69013      7.90376     12.75638         0.138749     -0.269516     -0.103985
      4.78298     10.66881      7.96718         0.209941     -0.301648      0.085513
      4.78298     10.66881     17.54559        -0.881991     -0.871815     -2.778179
      5.82941      5.71213      4.44331         0.074858      0.272166      0.639911
      5.82941      5.71213     14.02172        -0.335213     -0.456817     -1.360406
      4.78298      8.47718      9.23251         0.089494      0.138593     -0.331838
      4.81299      8.50014     18.61465         0.061671     -0.132853     -0.053631
      5.98955      4.02175      1.84166        -0.760095      0.313423      0.578075
      5.82941      5.71213     11.49105         0.128996      0.138504      0.212772
      4.78298      8.47718      6.70184        -0.352084     -0.414602      1.467591
      4.78298      8.47718     16.28025         0.317710      0.639564     -0.814460
      6.00383      8.81926      4.68711        -0.259153      0.075175     -0.069628
      5.82941      7.90376     12.75638         0.138749     -0.269516     -0.103985
      7.92226     10.66881      7.96718         0.209941     -0.301648      0.085513
      7.92226     10.66881     17.54559        -0.881991     -0.871815     -2.778179
      3.19340      1.84884      1.86812        -0.165701      0.516956     -2.449611
      3.28961      1.84282     11.14515        -0.175218     -0.275129      0.446330
      2.24318      4.60787      6.35595        -0.087606     -0.017700      0.007789
      2.24318      4.60787     15.93436         1.284363     -1.207660      0.331547
      3.28961      1.84282      4.78920        -0.014921     -0.320107      0.261628
      3.28961      1.84282     14.36761        -0.231182     -0.154913     -0.278454
      1.28508      4.19715      0.56276        -0.040789      0.830132     -3.501216
      2.24318      4.60787      9.57841        -0.128860     -0.253517     -0.417070
      1.19676      4.58218      3.17797         1.122030      0.837489      1.719683
      1.19676      4.58218     12.75638        -0.117373      0.549023     -0.075121
      2.24318      1.81714      7.96718        -0.184414      0.442137     -0.071395
      2.24318      1.81714     17.54559         1.370143      0.985330     -0.109678
[...]
      2.24318     10.11228     12.75638        -0.170709      0.398530      0.053639
      3.28961      7.34723      7.96718        -0.106742      0.565065      0.043303
      3.28961      7.34723     17.54559        -0.652362      0.486444      1.358869
      7.47532      7.37292     11.14515        -0.043377     -0.269201      0.403896
      6.42889     10.13797      6.35595        -0.284527      0.451419      0.605096
      6.42889     10.13797     15.93436         0.037172     -0.342755     -0.059228
      7.47532      7.37292      4.78920         1.257280     -1.610938     -0.514776
      7.47532      7.37292     14.36761        -0.202007      0.484545     -0.638070
      5.30435     10.64528      0.70952         0.113344     -1.963465     -3.686341
      6.42889     10.13797      9.57841         0.013954     -0.243036     -0.377403
      6.34385     10.02206     18.86591         0.146851      0.059768      3.178486
      5.38246     10.11228      3.17797        -0.595134     -0.037752      0.035142
      5.38246     10.11228     12.75638        -0.170709      0.398530      0.053639
      6.42889      7.34723      7.96718        -0.106742      0.565065      0.043303
      6.42889      7.34723     17.54559        -0.652362      0.486444      1.358869
    total drift:                                0.060395      0.161354      0.153586

  FREE ENERGIE OF THE ION-ELECTRON SYSTEM (eV)
  free  energy   TOTEN  =      -474.26259462 eV

  energy  without entropy=     -472.90904415  energy(sigma->0) =     -473.58581939