 vasp.5.4.4.18Apr17-6-g9f103f2a35 (build Aug 13 2019 17:33:20) gamma-only

 executed on             LinuxIFC date 2020.05.10  11:34:33

 INCAR:
 POTCAR:    PAW_PBE Ni_pv 06Sep2000
 POTCAR:    PAW_PBE S 06Sep2000
 POTCAR:    PAW_PBE Ni_pv 06Sep2000
   VRHFIN =Ni:

   TITEL  = PAW_PBE Ni_pv 06Sep2000
   POMASS =   58.690; ZVAL   =   16.000    mass and valenz
   ENMAX  =  367.986; ENMIN  =  275.989 eV

 POTCAR:    PAW_PBE S 06Sep2000
   VRHFIN =S : s2p4

   TITEL  = PAW_PBE S 06Sep2000
   POMASS =   32.066; ZVAL   =    6.000    mass and valenz
   ENMAX  =  258.689; ENMIN  =  194.016 eV

 Optimization of the real space projectors (new method)

 maximal supplied QI-value         = 18.90
 optimisation between [QCUT,QGAM] = [ 10.77, 21.73] = [ 32.49,132.25] Ry
 Optimized for a Real-space Cutoff    1.38 Angstroem

   l    n(q)    QCUT    max X(q) W(low)/X(q) W(high)/X(q)  e(spline)
   1      8    10.771     2.836    0.40E-04    0.29E-04    0.12E-06
   1      8    10.771     4.023    0.10E-03    0.48E-04    0.29E-06
   2      8    10.771    73.368    0.42E-03    0.97E-04    0.44E-06
   2      8    10.771    69.010    0.42E-03    0.99E-04    0.45E-06
   0      9    10.771    54.797    0.10E-03    0.56E-04    0.74E-07
   0      9    10.771    24.266    0.89E-04    0.49E-04    0.67E-07
 Optimization of the real space projectors (new method)

 maximal supplied QI-value         = 19.84
 optimisation between [QCUT,QGAM] = [ 10.71, 21.63] = [ 32.15,130.99] Ry
 Optimized for a Real-space Cutoff    1.19 Angstroem

   l    n(q)    QCUT    max X(q) W(low)/X(q) W(high)/X(q)  e(spline)
   0      8    10.715   187.594    0.41E-03    0.53E-04    0.66E-07
   0      8    10.715   164.243    0.41E-03    0.53E-04    0.65E-07
   1      7    10.715    67.533    0.19E-03    0.59E-03    0.68E-07
   1      7    10.715    50.729    0.19E-03    0.58E-03    0.67E-07
  PAW_PBE Ni_pv 06Sep2000               :
  PAW_PBE S 06Sep2000                   :

 POSCAR: Type_026 Type_126
  positions in cartesian coordinates
 exchange correlation table for  LEXCH =        8
   RHO(1)=    0.500       N(1)  =     2000
   RHO(2)=  100.500       N(2)  =     4000

 ion  position               nearest neighbor table
   1  0.439  0.464  0.163-  44 2.04  36 2.12  30 2.25  37 2.36  45 2.36  11 2.39  22 2.46
   2  0.474  0.472  0.327-  41 2.05  37 2.05  45 2.18  31 2.35  13 2.37   6 2.50
   3  0.167  0.974  0.095-  38 2.05  27 2.09  35 2.13  39 2.16   4 2.43  24 2.47
   4  0.204  0.979  0.235-  28 2.06  35 2.10  39 2.11  12 2.41   3 2.43
   5  0.423  0.191  0.184-  37 2.08  36 2.09  35 2.16  40 2.33
   6  0.493  0.212  0.326-  41 2.03  40 2.06  37 2.06  23 2.48   2 2.50
   7  0.157  0.693  0.096-  38 2.05  32 2.08  39 2.09  30 2.22   8 2.53
   8  0.208  0.688  0.239-  31 2.08  33 2.10  30 2.13  39 2.16  12 2.42   7 2.53
   9  0.131  0.332  0.139-  32 2.06  27 2.10  36 2.10  28 2.36  33 2.36  18 2.53  14 2.53
  10  0.182  0.332  0.319-  29 2.02  34 2.02  37 2.25  28 2.26  33 2.26
  11  0.522  0.672  0.109-  50 2.06  51 2.10  30 2.21  44 2.25   1 2.39  20 2.43
  12  0.378  0.836  0.217-  35 2.01  30 2.08  13 2.26  31 2.32   4 2.41   8 2.42  51 2.49
  13  0.516  0.686  0.263-  31 2.04  45 2.12  51 2.18  52 2.22  21 2.26  12 2.26   2 2.37
  14  0.939  0.464  0.163-  32 2.08  48 2.10  42 2.25  49 2.36  33 2.36  18 2.53   9 2.53
  15  0.982  0.472  0.322-  34 2.01  33 2.06  49 2.07  43 2.15
  16  0.739  0.828  0.108-  42 2.05  50 2.06  51 2.06  46 2.10
  17  0.715  0.964  0.253-  47 2.14  52 2.17  40 2.25  51 2.26  46 2.26  26 2.50  25 2.53  21 2.53

  18  0.939  0.200  0.163-  27 2.06  48 2.21  46 2.25  49 2.36  28 2.36  14 2.53   9 2.53
  19  0.981  0.191  0.322-  29 2.01  28 2.06  49 2.07  47 2.15
  20  0.704  0.537  0.108-  42 2.04  44 2.07  50 2.11  48 2.17  22 2.40  11 2.43  45 2.51
  21  0.715  0.700  0.253-  52 2.10  43 2.19  45 2.25  13 2.26  51 2.26  42 2.26  26 2.50  25 2.53
                            17 2.53
  22  0.622  0.324  0.157-  40 2.08  44 2.15  48 2.17  45 2.20  20 2.40   1 2.46
  23  0.685  0.331  0.302-  41 2.05  40 2.10  45 2.11  49 2.14   6 2.48
  24  0.964  0.876  0.092-  38 2.05  46 2.12  39 2.12   3 2.47  25 2.47
  25  0.907  0.832  0.229-  43 2.17  47 2.17  39 2.25  42 2.26  46 2.26  24 2.47  17 2.53  21 2.53

  26  0.804  0.832  0.364-  47 2.04  43 2.04  52 2.05  17 2.50  21 2.50
  27  0.066  0.155  0.080-  18 2.06   3 2.09   9 2.10  28 2.77
  28  0.111  0.164  0.239-  19 2.06   4 2.06  10 2.26   9 2.36  18 2.36  29 2.75  27 2.77
  29  0.116  0.197  0.398-  19 2.01  10 2.02  34 2.59  28 2.75
  30  0.336  0.664  0.149-  12 2.08   8 2.13  11 2.21   7 2.22   1 2.25
  31  0.353  0.670  0.314-  13 2.04   8 2.08  12 2.32   2 2.35
  32  0.069  0.504  0.080-   9 2.06  14 2.08   7 2.08  33 2.78
  33  0.111  0.500  0.239-  15 2.06   8 2.10  10 2.26   9 2.36  14 2.36  34 2.76  32 2.78
  34  0.117  0.467  0.398-  15 2.01  10 2.02  29 2.59  33 2.76
  35  0.336  1.000  0.149-  12 2.01   4 2.10   3 2.13   5 2.16
  36  0.314  0.320  0.117-   5 2.09   9 2.10   1 2.12  37 2.69
  37  0.368  0.332  0.269-   2 2.05   6 2.06   5 2.08  10 2.25   1 2.36  36 2.69
  38  0.099  0.836  0.016-  24 2.05   7 2.05   3 2.05
  39  0.092  0.832  0.179-   7 2.09   4 2.11  24 2.12   3 2.16   8 2.16  25 2.25
  40  0.611  0.164  0.239-   6 2.06  22 2.08  23 2.10  17 2.25   5 2.33
  41  0.576  0.349  0.397-   6 2.03   2 2.05  23 2.05
  42  0.836  0.664  0.149-  20 2.04  16 2.05  14 2.25  25 2.26  21 2.26
  43  0.884  0.664  0.312-  26 2.04  15 2.15  25 2.17  21 2.19
  44  0.547  0.452  0.067-   1 2.04  20 2.07  22 2.15  11 2.25  50 2.73
  45  0.611  0.500  0.239-  23 2.11  13 2.12   2 2.18  22 2.20  21 2.25   1 2.36  20 2.51
  46  0.836  1.000  0.149-  16 2.10  24 2.12  18 2.25  25 2.26  17 2.26
  47  0.880  0.001  0.311-  26 2.04  17 2.14  19 2.15  25 2.17
  48  0.803  0.342  0.115-  14 2.10  22 2.17  20 2.17  18 2.21  49 2.76
  49  0.868  0.332  0.269-  19 2.07  15 2.07  23 2.14  14 2.36  18 2.36  48 2.76
  50  0.657  0.696  0.029-  16 2.06  11 2.06  20 2.11  44 2.73
  51  0.592  0.832  0.179-  16 2.06  11 2.10  13 2.18  17 2.26  21 2.26  12 2.49  52 2.70
  52  0.628  0.825  0.335-  26 2.05  21 2.10  17 2.17  13 2.22  51 2.70

  LATTYP: Found a simple orthorhombic cell.
 ALAT       =     9.5784100000
 B/A-ratio  =     1.1751911892
 C/A-ratio  =     1.7949213288

  Lattice vectors:

 A1 = (   0.0000000000,  -9.5784100000,   0.0000000000)
 A2 = ( -11.2564630382,   0.0000000000,   0.0000000000)
 A3 = (   0.0000000000,   0.0000000000, -17.1924924047)

Analysis of symmetry for initial positions (statically):
 Subroutine PRICEL returns:
 Original cell was already a primitive cell.

 Routine SETGRP: Setting up the symmetry group for a
 simple orthorhombic supercell.

 Subroutine GETGRP returns: Found  1 space group operations
 (whereof  1 operations were pure point group operations)
 out of a pool of  8 trial point group operations.

The static configuration has the point symmetry C_1 .

Analysis of symmetry for dynamics (positions and initial velocities):
 Subroutine PRICEL returns:
 Original cell was already a primitive cell.

 Routine SETGRP: Setting up the symmetry group for a
 simple orthorhombic supercell.

 Subroutine GETGRP returns: Found  1 space group operations
 (whereof  1 operations were pure point group operations)
 out of a pool of  8 trial point group operations.

The dynamic configuration has the point symmetry C_1 .

 Subroutine INISYM returns: Found  1 space group operations
 (whereof  1 operations are pure point group operations),
 and found     1 'primitive' translations

 KPOINTS: gamma-point-only calculation. no periodi

Automatic generation of k-mesh.
Space group operators:
 irot       det(A)        alpha          n_x          n_y          n_z        tau_x        tau_y        tau_z
    1     1.000000     0.000000     1.000000     0.000000     0.000000     0.000000     0.000000     0.000000

 Subroutine IBZKPT returns following result:

 Found      1 irreducible k-points:

 Following reciprocal coordinates:
            Coordinates               Weight
  0.000000  0.000000  0.000000      1.000000

 Following cartesian coordinates:
            Coordinates               Weight
  0.000000  0.000000  0.000000      1.000000

 SYSTEM =  "Millerite NiS"
 POSCAR =  Type_026 Type_126

 Startparameter for this run:
   NWRITE =      2    write-flag & timer
   PREC   = normal    normal or accurate (medium, high low for compatibility)
   ISTART =      0    job   : 0-new  1-cont  2-samecut
   ICHARG =      2    charge: 1-file 2-atom 10-const
   ISPIN  =      1    spin polarized calculation?
   LNONCOLLINEAR =      F non collinear calculations
   LSORBIT =      F    spin-orbit coupling
   INIWAV =      1    electr: 0-lowe 1-rand  2-diag
   LASPH  =      F    aspherical Exc in radial PAW
   METAGGA=      F    non-selfconsistent MetaGGA calc.

 Electronic Relaxation 1
   ENCUT  =  450.0 eV  33.07 Ry    5.75 a.u.  19.47 16.57 29.74*2*pi/ulx,y,z
   ENINI  =  450.0     initial cutoff
   ENAUG  =  703.4 eV  augmentation charge cutoff
   NELM   =    100;   NELMIN=  2; NELMDL= -5     # of ELM steps
   EDIFF  = 0.1E-03   stopping-criterion for ELM
   LREAL  =      T    real-space projection
   NLSPLINE    = F    spline interpolate recip. space projectors
   LCOMPAT=      F    compatible to vasp.4.4
   GGA_COMPAT  = T    GGA compatible to vasp.4.4-vasp.4.6
   LMAXPAW     = -100 max onsite density
   LMAXMIX     =    2 max onsite mixed and CHGCAR
   VOSKOWN=      0    Vosko Wilk Nusair interpolation
   ROPT   =   -0.00050  -0.00050
 Ionic relaxation
   EDIFFG = 0.1E-02   stopping-criterion for IOM
   NSW    =      0    number of steps for IOM
   NBLOCK =      1;   KBLOCK =      1    inner block; outer block
   IBRION =     -1    ionic relax: 0-MD 1-quasi-New 2-CG
   NFREE  =      0    steps in history (QN), initial steepest desc. (CG)
   ISIF   =      2    stress and relaxation
   IWAVPR =     10    prediction:  0-non 1-charg 2-wave 3-comb
   ISYM   =      2    0-nonsym 1-usesym 2-fastsym
   LCORR  =      T    Harris-Foulkes like correction to forces

   POTIM  = 0.5000    time-step for ionic-motion
   TEIN   =    0.0    initial temperature
   TEBEG  =    0.0;   TEEND  =   0.0 temperature during run
   SMASS  =  -3.00    Nose mass-parameter (am)
   estimated Nose-frequenzy (Omega)   =  0.10E-29 period in steps =****** mass=  -0.290E-26a.u.
   SCALEE = 1.0000    scale energy and forces
   NPACO  =    256;   APACO  = 16.0  distance and # of slots for P.C.
   PSTRESS=    0.0 pullay stress

  Mass of Ions in am
   POMASS =  58.69 32.07
  Ionic Valenz
   ZVAL   =  16.00  6.00
  Atomic Wigner-Seitz radii
  virtual crystal weights
   VCA    =   1.00  1.00
   NELECT =     572.0000    total number of electrons
   NUPDOWN=      -1.0000    fix difference up-down

 DOS related values:
   EMIN   =  10.00;   EMAX   =-10.00  energy-range for DOS
   EFERMI =   0.00
   ISMEAR =     0;   SIGMA  =   0.20  broadening in eV -4-tet -1-fermi 0-gaus

 Electronic relaxation 2 (details)
   IALGO  =     38    algorithm
   LDIAG  =      T    sub-space diagonalisation (order eigenvalues)
   LSUBROT=      F    optimize rotation matrix (better conditioning)
[...]
      26 -87.6935      27 -92.4968      28 -93.3732      29 -92.1918      30 -93.3612
      31 -92.4312      32 -92.4083      33 -93.3483      34 -92.2231      35 -92.7670
      36 -92.5167      37 -93.3300      38 -92.3238      39 -93.8681      40 -93.2459
      41 -92.2722      42 -93.4577      43 -92.8481      44 -92.8224      45 -93.8696
      46 -93.0902      47 -92.7873      48 -92.5205      49 -93.0624      50 -92.3639
      51 -93.5786      52 -92.7959

 E-fermi :  -0.1998     XC(G=0):  -5.4199     alpha+bet : -5.1393

 k-point     1 :       0.0000    0.0000    0.0000
  band No.  band energies     occupation
      1     -64.9974      2.00000
      2     -64.9387      2.00000
      3     -64.8736      2.00000
      4     -64.8639      2.00000
      5     -64.8369      2.00000
      6     -64.8351      2.00000
      7     -64.8093      2.00000
      8     -64.8063      2.00000
      9     -64.7930      2.00000
     10     -64.7566      2.00000
     11     -64.7380      2.00000
     12     -64.7346      2.00000
     13     -64.7153      2.00000
     14     -64.7052      2.00000
     15     -64.6963      2.00000
     16     -64.6891      2.00000
     17     -64.6848      2.00000
     18     -64.6843      2.00000
     19     -64.6672      2.00000
     20     -64.6527      2.00000
     21     -64.6366      2.00000
     22     -64.6193      2.00000
     23     -64.5999      2.00000
     24     -64.5960      2.00000
     25     -64.5838      2.00000
     26     -64.5806      2.00000
     27     -64.5781      2.00000
     28     -64.5732      2.00000
     29     -64.5637      2.00000
     30     -64.5531      2.00000
     31     -64.5475      2.00000
     32     -64.5235      2.00000
     33     -64.5187      2.00000
     34     -64.5180      2.00000
     35     -64.5069      2.00000
     36     -64.4956      2.00000
     37     -64.4931      2.00000
     38     -64.4791      2.00000
     39     -64.4683      2.00000
     40     -64.4622      2.00000
     41     -64.4536      2.00000
     42     -64.4485      2.00000
     43     -64.4383      2.00000
     44     -64.4337      2.00000
     45     -64.4122      2.00000
     46     -64.4042      2.00000
     47     -64.3980      2.00000
     48     -64.3724      2.00000
     49     -64.3702      2.00000
     50     -64.3616      2.00000
     51     -64.3551      2.00000
     52     -64.3513      2.00000
     53     -64.3400      2.00000
     54     -64.3372      2.00000
     55     -64.3298      2.00000
     56     -64.3221      2.00000
     57     -64.3113      2.00000
     58     -64.3052      2.00000
     59     -64.3052      2.00000
     60     -64.3034      2.00000
[...]
    330       4.8908      0.00000
    331       4.9647      0.00000
    332       5.0275      0.00000
    333       5.0697      0.00000
    334       5.1451      0.00000
    335       5.2307      0.00000
    336       5.2968      0.00000
    337       5.4110      0.00000
    338       5.4703      0.00000
    339       5.5160      0.00000
    340       5.5715      0.00000
    341       5.6154      0.00000
    342       5.6358      0.00000
    343       5.6645      0.00000
    344       5.7066      0.00000

 soft charge-density along one line, spin component           1
         0         1         2         3         4         5         6         7         8         9
 total charge-density along one line

------------------------ aborting loop because EDIFF is reached ----------------------------------------

  FORCE on cell =-STRESS in cart. coord.  units (eV):
  Direction    XX          YY          ZZ          XY          YZ          ZX
  Alpha Z  1046.73971  1046.73971  1046.73971
  Ewald  163034.74762159872.50931************  1448.75839 -1296.50275   174.93895
  Hartree187308.32500184767.83245************  1250.24509 -1141.08178    32.82229
  E(xc)   -3651.66453 -3652.18581 -3657.12815     0.18544    -0.05725     0.72907
  Local  ************************345280.01639 -2698.14208  2437.69495  -194.48768
  n-local  -405.74312  -420.99472  -430.15189    -1.92092     4.81074     4.18060
  augment  4164.15999  4184.74102  4200.56991     1.74172    -2.67939    -6.37023
  Kinetic  8008.24944  8012.39146  8092.92662    -0.63915     3.35728   -10.81124
  Fock        0.00000     0.00000     0.00000     0.00000     0.00000     0.00000
  Total      99.44752    89.81501   105.41795     0.22849     5.54181     1.00176
  in kB      85.95484    77.62923    91.11522     0.19749     4.78991     0.86585

 VOLUME and BASIS-vectors are now :
  energy-cutoff  :      450.00
  volume of cell :     1853.68
      direct lattice vectors                 reciprocal lattice vectors
    11.256463038  0.000000000  0.000000000     0.088837852  0.000000000  0.000000000
     0.000000000  9.578410000  0.000000000     0.000000000  0.104401461  0.000000000
     0.000000000  0.000000000 17.192492405     0.000000000  0.000000000  0.058164923

  length of vectors
    11.256463038  9.578410000 17.192492405     0.088837852  0.104401461  0.058164923

 FORCES acting on ions
    electron-ion (+dipol)            ewald-force                    non-local-force                 convergence-correction
   0.776E+03 0.279E+03 0.161E+04   -.780E+03 -.279E+03 -.161E+04   0.287E+01 0.245E-01 0.310E+01   -.264E+00 0.143E+00 -.663E-02
   0.488E+03 -.249E+03 -.351E+04   -.489E+03 0.252E+03 0.351E+04   0.103E+00 -.185E+01 -.399E+01   -.912E-01 0.598E-01 0.218E+00
   -.639E+03 -.566E+03 0.322E+04   0.641E+03 0.572E+03 -.322E+04   -.208E+01 -.573E+01 0.355E+01   0.264E+00 0.646E-01 0.125E+00
   -.133E+03 -.259E+03 -.159E+04   0.135E+03 0.260E+03 0.159E+04   -.197E+01 -.202E+01 0.187E+01   -.509E-01 -.278E-01 0.142E+00
   0.111E+03 0.780E+03 0.120E+04   -.112E+03 -.785E+03 -.120E+04   0.197E+01 0.394E+01 0.275E+01   -.253E+00 -.112E+00 0.618E-01
   0.436E+03 0.111E+04 -.326E+04   -.436E+03 -.112E+04 0.326E+04   -.148E+00 0.223E+00 -.543E+00   -.939E-01 -.171E+00 0.328E+00
   -.333E+03 0.479E+03 0.318E+04   0.334E+03 -.485E+03 -.319E+04   0.578E-01 0.573E+01 0.539E+01   0.152E+00 -.173E+00 0.987E-01
   0.277E+03 0.579E+02 -.152E+04   -.277E+03 -.605E+02 0.152E+04   0.229E+00 0.294E+01 -.419E+01   -.121E+00 0.428E-01 0.389E-01
   -.550E+03 0.663E+02 0.221E+04   0.555E+03 -.665E+02 -.222E+04   -.358E+01 -.151E+00 0.420E+01   -.120E+00 0.846E-01 0.840E-01
   -.625E+03 0.132E+03 -.269E+04   0.633E+03 -.132E+03 0.269E+04   -.571E+01 0.542E-01 -.192E+01   -.236E+00 -.480E-01 -.329E-01
   0.629E+03 -.602E+03 0.330E+04   -.631E+03 0.603E+03 -.330E+04   0.113E+01 -.114E+01 0.482E+01   -.255E+00 0.267E-01 -.144E-01
   -.144E+03 -.814E+03 -.417E+03   0.142E+03 0.818E+03 0.419E+03   0.311E+01 -.329E+01 -.129E+01   -.298E+00 0.645E-01 0.116E+00
   0.382E+03 -.454E+03 -.201E+04   -.385E+03 0.455E+03 0.201E+04   0.385E+01 -.175E+01 -.541E+01   0.511E-01 0.125E+00 0.180E+00
   0.506E+01 -.160E+03 0.146E+04   -.403E+01 0.161E+03 -.147E+04   -.125E+01 -.795E+00 0.401E+01   0.325E+00 -.137E+00 0.154E+00
   0.181E+03 -.433E+03 -.311E+04   -.184E+03 0.436E+03 0.311E+04   0.993E+00 -.197E+01 -.412E+01   0.138E-01 -.309E-01 0.142E-01
   0.299E+03 -.822E+03 0.332E+04   -.299E+03 0.825E+03 -.333E+04   0.705E+00 -.168E+01 0.921E+01   -.185E+00 -.259E-01 0.855E-01
   0.565E+03 -.957E+03 -.107E+04   -.567E+03 0.964E+03 0.107E+04   0.161E+01 -.486E+01 -.318E+01   0.948E-01 -.155E+00 0.540E+00
   0.388E+03 0.326E+03 0.154E+04   -.389E+03 -.328E+03 -.155E+04   0.621E+00 0.181E+01 0.338E+01   0.287E+00 0.272E+00 0.191E+00
   0.203E+03 0.528E+03 -.306E+04   -.206E+03 -.530E+03 0.307E+04   0.355E+00 0.182E+01 -.430E+01   0.683E-01 0.358E-01 0.750E-01
   -.449E+03 0.380E+03 0.313E+04   0.450E+03 -.382E+03 -.313E+04   -.891E+00 0.153E+01 0.482E+01   0.112E+00 -.954E-01 0.321E-01
   -.155E+03 0.358E+03 -.144E+04   0.159E+03 -.362E+03 0.144E+04   -.223E+01 0.328E+01 -.295E+01   0.184E+00 0.517E-01 0.533E+00
   -.183E+03 0.105E+04 0.204E+04   0.184E+03 -.106E+04 -.204E+04   -.820E+00 0.412E+01 0.282E+01   0.108E+00 0.196E-02 -.361E-01
   -.637E+03 0.265E+03 -.267E+04   0.643E+03 -.265E+03 0.267E+04   -.473E+01 -.768E-01 -.381E+01   0.207E+00 -.285E-02 0.239E+00
   0.277E+03 -.214E+03 0.336E+04   -.279E+03 0.214E+03 -.336E+04   0.883E+00 -.914E+00 0.535E+01   0.376E+00 -.265E-02 0.250E-02
   -.793E+03 -.100E+03 -.813E+03   0.799E+03 0.101E+03 0.815E+03   -.476E+01 -.182E+00 -.347E+01   0.246E-01 -.124E+00 0.705E+00
   -.260E+03 -.135E+03 -.441E+04   0.263E+03 0.135E+03 0.442E+04   -.228E+01 0.177E+00 -.409E+01   0.467E-02 -.589E-01 0.474E-01
   -.130E+02 -.693E+02 0.149E+04   0.125E+02 0.700E+02 -.150E+04   0.803E+00 -.721E+00 0.316E+01   0.785E-01 0.109E+00 0.320E-01
   -.169E+03 0.132E+03 -.280E+03   0.172E+03 -.135E+03 0.278E+03   -.162E+01 0.306E+01 0.830E+00   -.127E-01 0.687E-02 0.373E-01
   -.172E+03 0.306E+03 -.169E+04   0.173E+03 -.310E+03 0.169E+04   0.285E+00 0.297E+01 -.703E+00   -.564E-01 -.338E-01 -.245E-02
   0.875E+02 0.618E+02 0.857E+03   -.883E+02 -.622E+02 -.861E+03   0.110E+01 -.778E+00 0.964E+00   -.124E+00 0.226E-01 0.383E-02
   0.237E+03 -.132E+03 -.142E+04   -.239E+03 0.132E+03 0.142E+04   0.118E+01 -.175E+00 -.266E+01   -.896E-01 0.495E-01 0.441E-01
   -.286E+02 0.449E+02 0.150E+04   0.279E+02 -.450E+02 -.151E+04   0.603E+00 0.577E+00 0.343E+01   0.560E-01 -.578E-01 0.585E-01
   -.143E+03 -.111E+03 -.256E+03   0.145E+03 0.113E+03 0.254E+03   -.118E+01 -.216E+01 0.120E+01   -.422E-01 -.215E-01 -.139E-01
   -.144E+03 -.264E+03 -.170E+04   0.145E+03 0.268E+03 0.171E+04   -.106E+00 -.316E+01 -.703E+00   -.569E-01 0.154E-01 0.763E-02
   -.303E+03 -.165E+03 0.866E+03   0.305E+03 0.164E+03 -.868E+03   -.696E+00 0.246E+01 0.142E+01   -.128E+00 -.718E-01 0.204E-01
   0.491E+02 0.107E+03 0.122E+04   -.490E+02 -.108E+03 -.123E+04   -.164E+00 0.702E+00 0.434E+01   -.179E+00 0.418E-01 -.494E-01
   0.321E+03 0.920E+02 -.585E+03   -.324E+03 -.916E+02 0.586E+03   0.489E+00 -.394E+00 -.264E+00   -.105E+00 0.124E-01 0.833E-01
   -.714E+02 0.221E+02 0.187E+04   0.708E+02 -.224E+02 -.187E+04   0.437E+00 -.126E+00 0.132E+01   0.156E+00 -.457E-01 -.760E-01
   0.405E+02 0.127E+02 0.164E+02   -.409E+02 -.132E+02 -.117E+02   -.108E+01 0.505E+00 -.202E+01   0.205E+00 -.281E-01 0.114E+00
   -.458E+02 0.382E+03 -.129E+03   0.470E+02 -.383E+03 0.128E+03   -.107E+01 -.158E+01 -.406E+00   0.268E-01 -.725E-01 0.102E+00
   -.104E+03 0.265E+02 -.187E+04   0.105E+03 -.261E+02 0.187E+04   -.196E+00 -.269E+00 -.475E+00   -.796E-02 -.222E-01 0.133E+00
   -.280E+03 0.123E+03 0.705E+03   0.283E+03 -.125E+03 -.707E+03   0.825E-01 0.168E+01 0.182E+01   0.584E-01 -.151E+00 0.130E+00
   -.247E+03 0.154E+03 -.117E+04   0.249E+03 -.154E+03 0.117E+04   -.938E+00 -.226E+00 -.739E+00   -.496E-01 0.454E-01 0.134E+00
   0.174E+03 0.301E+03 0.178E+04   -.176E+03 -.304E+03 -.178E+04   0.631E+00 0.140E+01 0.347E+01   -.533E-01 -.516E-02 -.105E+00
   -.149E+03 0.486E+02 -.358E+03   0.152E+03 -.496E+02 0.359E+03   -.183E+01 0.128E+01 -.322E+00   0.511E-01 0.940E-01 0.675E-01
   0.165E+03 -.406E+03 0.771E+03   -.166E+03 0.409E+03 -.774E+03   0.129E+01 -.717E+00 0.239E+01   -.212E-02 0.156E+00 0.953E-01
   -.186E+03 -.206E+03 -.112E+04   0.187E+03 0.206E+03 0.113E+04   -.486E+00 0.252E+00 0.205E+00   0.848E-02 -.408E-01 0.182E+00
   0.973E+01 0.296E+03 0.123E+04   -.103E+02 -.299E+03 -.124E+04   -.397E-01 0.121E+01 0.434E+01   0.133E+00 0.458E-02 0.282E-02
   0.172E+03 0.602E+02 -.592E+03   -.175E+03 -.603E+02 0.595E+03   0.476E+00 0.150E+00 -.308E+01   0.166E+00 0.127E-01 0.542E-01
   0.373E+02 -.136E+03 0.189E+04   -.367E+02 0.137E+03 -.189E+04   -.414E+00 -.100E+01 0.293E+01   -.600E-01 -.245E-01 -.143E+00
   0.255E+03 -.516E+03 0.450E+03   -.259E+03 0.521E+03 -.451E+03   0.129E+01 -.312E+01 0.225E+01   -.544E-01 -.716E-02 0.107E+00
   0.405E+03 -.218E+03 -.152E+04   -.408E+03 0.221E+03 0.152E+04   0.101E+01 -.222E+01 -.338E+01   0.161E+00 -.123E-01 0.114E+00
   0.120E+02 0.146E+01 -.364E+02   -.284E-12 -.711E-12 -.227E-12   -.121E+02 -.120E+01 0.313E+02   0.384E+00 -.215E+00 0.505E+01

 POSITION                                       TOTAL-FORCE (eV/Angst)
      4.94536      4.44331      2.79952        -1.867890     -0.246331      2.131545
      5.33819      4.51684      5.61532        -0.883034      1.832436      0.553099
      1.88295      9.32529      1.63608         0.121655     -0.001789     -0.706183
      2.29709      9.37283      4.03449         0.032404     -0.524010      1.007646
      4.76153      1.82971      3.16927         0.899844     -1.040558     -0.230095
      5.54554      2.02838      5.60885        -0.811749     -1.175800      0.578289
      1.77264      6.64008      1.65077         0.834136     -0.345296     -0.321416
      2.33962      6.58725      4.11486        -0.368188      0.398883      0.368495
      1.47054      3.17797      2.39204         0.482615     -0.270597      1.387603
      2.05421      3.17797      5.47658         1.577214      0.112257     -2.574571
      5.87354      6.44076      1.87830        -1.448707     -0.216771     -0.213060
      4.25704      8.01190      3.73101         0.308140      0.306777      0.860031
      5.80408      6.56958      4.52301         0.916057     -0.012658     -0.337989
     10.57359      4.44331      2.79952         0.098050      0.204973      1.649727
     11.05349      4.52233      5.53639        -1.556767      0.528205     -0.172970
      8.31677      7.93340      1.84829         0.489649      1.582481     -1.318188
      8.05131      9.23251      4.34179        -0.830942      1.359155     -0.935373
     10.57359      1.91264      2.79952        -0.743594      0.138298      1.403860
     11.04695      1.82540      5.52911        -1.823057     -0.584207     -0.163666
      7.92789      5.14167      1.85827         0.544448     -0.832536     -0.210057
      8.05131      6.70184      4.34179         1.451995     -1.094314     -1.294183
      7.00605      3.09903      2.70532         0.159750     -0.547163     -0.645878
      7.70663      3.17215      5.18999         1.520813      0.144629      0.276456
     10.85327      8.38714      1.58305        -0.776888     -0.253016     -0.035095
     10.20472      7.96718      3.93431         0.800369     -0.025451     -0.561846
      9.05299      7.96953      6.25075         0.365932      0.056093      1.797035
      0.74478      1.48306      1.38396         0.301224      0.062319     -2.654610
      1.25497      1.56674      4.10795         0.786174      0.406766     -0.691490
      1.30750      1.88522      6.83989         1.167875     -1.110196      3.703652
      3.77725      6.35595      2.56568         0.235150     -1.152013     -2.300811
      3.97272      6.41799      5.39854        -0.927471      0.339730      2.963484
      0.77797      4.83048      1.37255         0.014985      0.361607     -2.720475
      1.25497      4.78920      4.10795         0.823601     -0.304446     -0.745431
      1.31649      4.47211      6.84447         1.071199      0.986048      3.655507
      3.77725      9.57841      2.56568         1.471644      1.770364     -0.934809
      3.53626      3.06450      2.01022        -0.277754     -0.165478     -2.082532
      4.14113      3.17797      4.62682        -2.649521     -0.040668      0.453194
      1.11570      8.00318      0.26852        -0.027815     -0.467594     -4.057004
      1.03518      7.96718      3.08454        -1.244082      0.016873      2.824044
      6.88320      1.56674      4.10795         0.097504     -2.624253     -0.955887
      6.48896      3.33995      6.83191         0.748749      0.106924      3.850974
      9.40548      6.35595      2.56568         3.104667     -0.586368      0.496283
      9.95486      6.36270      5.36817         0.892273     -0.839642      1.332877
      6.15460      4.32673      1.16014        -0.676918     -0.878239     -3.183106
      6.88320      4.78920      4.10795         0.977991      0.438277      0.174294
      9.40548      9.57841      2.56568         0.172403      2.101186     -0.315018
      9.90731      0.01127      5.34667         0.903226      0.838809      1.775037
      9.03691      3.27649      1.97262        -0.456331     -1.511561     -2.593209
      9.76936      3.17797      4.62682        -1.780765      0.092849     -0.131456
      7.39748      6.66701      0.50715         0.131600      0.458100     -3.674712
      6.66341      7.96718      3.08454        -2.198704      1.529264      0.781774
      7.06785      7.90674      5.75780        -2.153163      0.677652      2.736213
    total drift:                                0.293408      0.048602     -0.009888

  FREE ENERGIE OF THE ION-ELECTRON SYSTEM (eV)
  free  energy   TOTEN  =      -248.14364216 eV

  energy  without entropy=     -247.30785670  energy(sigma->0) =     -247.72574943