 vasp.5.4.4.18Apr17-6-g9f103f2a35 (build Aug 13 2019 17:33:20) gamma-only

 executed on             LinuxIFC date 2020.05.10  15:49:57

 INCAR:
 POTCAR:    PAW_PBE Ni_pv 06Sep2000
 POTCAR:    PAW_PBE S 06Sep2000
 POTCAR:    PAW_PBE Ni_pv 06Sep2000
   VRHFIN =Ni:

   TITEL  = PAW_PBE Ni_pv 06Sep2000
   POMASS =   58.690; ZVAL   =   16.000    mass and valenz
   ENMAX  =  367.986; ENMIN  =  275.989 eV

 POTCAR:    PAW_PBE S 06Sep2000
   VRHFIN =S : s2p4

   TITEL  = PAW_PBE S 06Sep2000
   POMASS =   32.066; ZVAL   =    6.000    mass and valenz
   ENMAX  =  258.689; ENMIN  =  194.016 eV

 Optimization of the real space projectors (new method)

 maximal supplied QI-value         = 18.90
 optimisation between [QCUT,QGAM] = [ 10.77, 21.73] = [ 32.49,132.25] Ry
 Optimized for a Real-space Cutoff    1.38 Angstroem

   l    n(q)    QCUT    max X(q) W(low)/X(q) W(high)/X(q)  e(spline)
   1      8    10.771     2.836    0.40E-04    0.29E-04    0.12E-06
   1      8    10.771     4.023    0.10E-03    0.48E-04    0.29E-06
   2      8    10.771    73.368    0.42E-03    0.97E-04    0.44E-06
   2      8    10.771    69.010    0.42E-03    0.99E-04    0.45E-06
   0      9    10.771    54.797    0.10E-03    0.56E-04    0.74E-07
   0      9    10.771    24.266    0.89E-04    0.49E-04    0.67E-07
 Optimization of the real space projectors (new method)

 maximal supplied QI-value         = 19.84
 optimisation between [QCUT,QGAM] = [ 10.71, 21.63] = [ 32.15,130.99] Ry
 Optimized for a Real-space Cutoff    1.19 Angstroem

   l    n(q)    QCUT    max X(q) W(low)/X(q) W(high)/X(q)  e(spline)
   0      8    10.715   187.594    0.41E-03    0.53E-04    0.66E-07
   0      8    10.715   164.243    0.41E-03    0.53E-04    0.65E-07
   1      7    10.715    67.533    0.19E-03    0.59E-03    0.68E-07
   1      7    10.715    50.729    0.19E-03    0.58E-03    0.67E-07
  PAW_PBE Ni_pv 06Sep2000               :
  PAW_PBE S 06Sep2000                   :

 POSCAR: Type_048 Type_148
  positions in cartesian coordinates
 exchange correlation table for  LEXCH =        8
   RHO(1)=    0.500       N(1)  =     2000
   RHO(2)=  100.500       N(2)  =     4000

 ion  position               nearest neighbor table
   1  0.261  0.479  0.253-  73 2.25  58 2.26  81 2.26  54 2.36  59 2.36   7 2.53  21 2.53
   2  0.355  0.385  0.388-  74 2.25  54 2.26  59 2.26  60 2.36  66 2.36   8 2.53  22 2.53
   3  0.454  0.286  0.505-  60 2.00  66 2.00  23 2.49  17 2.49
   4  0.167  0.073  0.118-  82 2.05  55 2.07  64 2.25  56 2.36  83 2.36  36 2.44  30 2.53
   5  0.049  0.055  0.473-  50 2.05  77 2.08  72 2.10  78 2.15
   6  0.274  0.333  0.083-  51 1.99  57 2.08  55 2.10  52 2.36  58 2.36  12 2.53  28 2.53
   7  0.368  0.239  0.218-  56 2.25  58 2.26  52 2.26  59 2.36  61 2.36   1 2.53  21 2.53
   8  0.462  0.145  0.353-  79 2.25  59 2.26  61 2.26  60 2.36  62 2.36   2 2.53  22 2.53
   9  0.000  0.372  0.218-  58 2.25  64 2.26  93 2.26  49 2.36  67 2.36  13 2.53  19 2.53
  10  0.094  0.278  0.353-  59 2.25  49 2.26  67 2.26  53 2.36  50 2.36  20 2.53  14 2.53
  11  0.185  0.190  0.473-  50 2.05  77 2.08  53 2.10  60 2.15
  12  0.406  0.465  0.083-  51 1.99  80 2.08  69 2.10  52 2.36  81 2.36  28 2.53   6 2.53
  13  0.761  0.479  0.253-  86 2.25  70 2.26  93 2.26  67 2.36  71 2.36  19 2.53   9 2.53
  14  0.855  0.385  0.388-  87 2.25  67 2.26  71 2.26  72 2.36  53 2.36  15 2.38  20 2.53  10 2.53

  15  0.874  0.366  0.497-  65 2.04  72 2.09  53 2.09  14 2.38
  16  0.659  0.080  0.151-  88 2.08  94 2.09  68 2.09  52 2.16  37 2.53
  17  0.543  0.053  0.467-  62 2.02  60 2.04  90 2.08   3 2.49
  18  0.782  0.333  0.100-  63 2.01  70 2.06  64 2.12  69 2.14  40 2.44  24 2.48
  19  0.868  0.239  0.218-  68 2.25  70 2.26  64 2.26  71 2.36  49 2.36  13 2.53   9 2.53
  20  0.962  0.145  0.353-  91 2.25  71 2.26  49 2.26  72 2.36  50 2.36  14 2.53  10 2.53
  21  0.500  0.372  0.218-  70 2.25  52 2.26  81 2.26  61 2.36  54 2.36   1 2.53   7 2.53
  22  0.594  0.278  0.353-  71 2.25  61 2.26  54 2.26  66 2.36  62 2.36   8 2.53   2 2.53
  23  0.687  0.196  0.467-  62 2.02  66 2.04  72 2.08   3 2.49
  24  0.906  0.465  0.083-  63 2.00  92 2.07  57 2.10  64 2.36  93 2.36  18 2.48  40 2.53
  25  0.261  0.979  0.253-  49 2.25  83 2.26  56 2.26  79 2.36  84 2.36  31 2.53  45 2.53
  26  0.355  0.885  0.388-  50 2.25  79 2.26  84 2.26  85 2.36  90 2.36  27 2.38  32 2.53  46 2.53

[...]

  38  0.855  0.885  0.388-  62 2.25  91 2.26  95 2.26  96 2.36  78 2.36  44 2.53  34 2.53
  39  0.954  0.786  0.505-  96 2.00  78 2.00  35 2.49  29 2.49
  40  0.667  0.573  0.118-  92 2.05  69 2.07  76 2.25  93 2.36  70 2.36  18 2.44  24 2.53
  41  0.549  0.555  0.473-  87 2.05  65 2.08  85 2.10  66 2.15
  42  0.790  0.797  0.106-  94 2.06  89 2.07  88 2.07  92 2.08
  43  0.868  0.739  0.218-  93 2.25  94 2.26  89 2.26  95 2.36  73 2.36  37 2.53  33 2.53
  44  0.962  0.645  0.353-  67 2.25  95 2.26  73 2.26  96 2.36  74 2.36  38 2.53  34 2.53
  45  0.500  0.872  0.218-  94 2.25  76 2.26  56 2.26  86 2.36  79 2.36  25 2.53  31 2.53
  46  0.594  0.778  0.353-  95 2.25  86 2.26  79 2.26  90 2.36  87 2.36  32 2.53  26 2.53
  47  0.685  0.690  0.473-  87 2.05  65 2.08  90 2.10  96 2.15
  48  0.943  0.949  0.106-  68 2.06  89 2.07  88 2.07  82 2.08
  49  0.073  0.167  0.270-  25 2.25  10 2.26  20 2.26   9 2.36  19 2.36
  50  0.167  0.073  0.405-  11 2.05   5 2.05  26 2.25  10 2.36  20 2.36  77 2.71
  51  0.352  0.388  0.012-  12 1.99   6 1.99
  52  0.479  0.261  0.135-  16 2.16   7 2.26  21 2.26   6 2.36  12 2.36
  53  0.030  0.378  0.451-  29 2.08  15 2.09  11 2.10  10 2.36  14 2.36
  54  0.436  0.472  0.315-  32 2.25   2 2.26  22 2.26   1 2.36  21 2.36
  55  0.272  0.150  0.067-   4 2.07   6 2.10  36 2.14  56 2.63
  56  0.342  0.066  0.180-  36 2.06   7 2.25  25 2.26  45 2.26   4 2.36  55 2.63
  57  0.083  0.479  0.064-  28 2.07   6 2.08  24 2.10  58 2.73
  58  0.174  0.397  0.180-   9 2.25   7 2.26   1 2.26   6 2.36  28 2.36  57 2.73
  59  0.268  0.303  0.315-  10 2.25   2 2.26   8 2.26   7 2.36   1 2.36
  60  0.362  0.209  0.451-   3 2.00  17 2.04  11 2.15   8 2.36   2 2.36
  61  0.573  0.167  0.270-  37 2.25  22 2.26   8 2.26  21 2.36   7 2.36
  62  0.667  0.073  0.405-  23 2.02  17 2.02  38 2.25  22 2.36   8 2.36
  63  0.848  0.372  0.020-  24 2.00  18 2.01
  64  0.979  0.261  0.135-  18 2.12   4 2.25  19 2.26   9 2.26  24 2.36
  65  0.710  0.530  0.527-  15 2.04  41 2.08  47 2.08  87 2.71
  66  0.530  0.378  0.451-   3 2.00  23 2.04  41 2.15  22 2.36   2 2.36
  67  0.936  0.472  0.315-  44 2.25  14 2.26  10 2.26  13 2.36   9 2.36
  68  0.842  0.066  0.180-  48 2.06  16 2.09  19 2.25  37 2.26  33 2.26
  69  0.590  0.468  0.067-  40 2.07  12 2.10  18 2.14  70 2.63
  70  0.674  0.397  0.180-  18 2.06  21 2.25  19 2.26  13 2.26  40 2.36  69 2.63
  71  0.768  0.303  0.315-  22 2.25  14 2.26  20 2.26  19 2.36  13 2.36
  72  0.862  0.209  0.451-  23 2.08  15 2.09   5 2.10  20 2.36  14 2.36
  73  0.073  0.667  0.270-   1 2.25  34 2.26  44 2.26  33 2.36  43 2.36
  74  0.167  0.573  0.405-  35 2.02  29 2.02   2 2.25  34 2.36  44 2.36
  75  0.368  0.892  0.020-  30 2.00  36 2.01
  76  0.479  0.761  0.135-  36 2.12  40 2.25  31 2.26  45 2.26  30 2.36
  77  0.210  0.030  0.527-  27 2.04  11 2.08   5 2.08  50 2.71
  78  0.030  0.878  0.451-  39 2.00  35 2.04   5 2.15  34 2.36  38 2.36
  79  0.436  0.972  0.315-   8 2.25  26 2.26  46 2.26  25 2.36  45 2.36
  80  0.261  0.657  0.064-  28 2.07  12 2.08  30 2.10  81 2.73
  81  0.342  0.566  0.180-  31 2.25   1 2.26  21 2.26  28 2.36  12 2.36  80 2.73
  82  0.088  0.982  0.061-   4 2.05  30 2.07  48 2.08  83 2.79
  83  0.174  0.897  0.180-  33 2.25  31 2.26  25 2.26  30 2.36   4 2.36  82 2.79
  84  0.268  0.803  0.315-  34 2.25  26 2.26  32 2.26  31 2.36  25 2.36
  85  0.362  0.709  0.451-  35 2.08  27 2.09  41 2.10  32 2.36  26 2.36
  86  0.573  0.667  0.270-  13 2.25  46 2.26  32 2.26  45 2.36  31 2.36
  87  0.667  0.573  0.405-  41 2.05  47 2.05  14 2.25  46 2.36  32 2.36  65 2.71
  88  0.759  0.980  0.072-  48 2.07  42 2.07  16 2.08
  89  0.979  0.761  0.135-  42 2.07  48 2.07  28 2.25  43 2.26  33 2.26
  90  0.530  0.878  0.451-  17 2.08  27 2.09  47 2.10  46 2.36  26 2.36
  91  0.936  0.972  0.315-  20 2.25  38 2.26  34 2.26  37 2.36  33 2.36
  92  0.758  0.652  0.061-  40 2.05  24 2.07  42 2.08  93 2.79
  93  0.842  0.566  0.180-  43 2.25  13 2.26   9 2.26  40 2.36  24 2.36  92 2.79
  94  0.674  0.897  0.180-  42 2.06  16 2.09  45 2.25  43 2.26  37 2.26
  95  0.768  0.803  0.315-  46 2.25  38 2.26  44 2.26  43 2.36  37 2.36
  96  0.862  0.709  0.451-  39 2.00  29 2.04  47 2.15  44 2.36  38 2.36

  LATTYP: Found a base centered orthorhombic cell.
 ALAT       =    11.8257374459
 B/A-ratio  =     1.6199260857
 C/A-ratio  =     1.8387210052

  Lattice vectors:

 A1 = (  11.2564630382,   0.0000000000,   0.0000000000)
 A2 = (  -5.0445621212, -10.0628203371,   0.0000000000)
 A3 = (   0.0000000000,   0.0000000000, -21.7442318436)

Analysis of symmetry for initial positions (statically):
 Subroutine PRICEL returns:
 Original cell was already a primitive cell.

 Routine SETGRP: Setting up the symmetry group for a
 base centered orthorhombic supercell.

 Subroutine GETGRP returns: Found  1 space group operations
 (whereof  1 operations were pure point group operations)
 out of a pool of  8 trial point group operations.

The static configuration has the point symmetry C_1 .

Analysis of symmetry for dynamics (positions and initial velocities):
 Subroutine PRICEL returns:
 Original cell was already a primitive cell.

 Routine SETGRP: Setting up the symmetry group for a
 base centered orthorhombic supercell.

 Subroutine GETGRP returns: Found  1 space group operations
 (whereof  1 operations were pure point group operations)
 out of a pool of  8 trial point group operations.

The dynamic configuration has the point symmetry C_1 .

 Subroutine INISYM returns: Found  1 space group operations
 (whereof  1 operations are pure point group operations),
 and found     1 'primitive' translations

 KPOINTS: gamma-point-only calculation. no periodi

Automatic generation of k-mesh.
Space group operators:
 irot       det(A)        alpha          n_x          n_y          n_z        tau_x        tau_y        tau_z
    1     1.000000     0.000000     1.000000     0.000000     0.000000     0.000000     0.000000     0.000000

 Subroutine IBZKPT returns following result:

 Found      1 irreducible k-points:

 Following reciprocal coordinates:
            Coordinates               Weight
  0.000000  0.000000  0.000000      1.000000

 Following cartesian coordinates:
            Coordinates               Weight
  0.000000  0.000000  0.000000      1.000000

 SYSTEM =  "Millerite NiS"
 POSCAR =  Type_048 Type_148

 Startparameter for this run:
   NWRITE =      2    write-flag & timer
   PREC   = normal    normal or accurate (medium, high low for compatibility)
   ISTART =      0    job   : 0-new  1-cont  2-samecut
   ICHARG =      2    charge: 1-file 2-atom 10-const
   ISPIN  =      1    spin polarized calculation?
   LNONCOLLINEAR =      F non collinear calculations
   LSORBIT =      F    spin-orbit coupling
   INIWAV =      1    electr: 0-lowe 1-rand  2-diag
[...]
     0.000000000  0.000000000 21.744231844     0.000000000  0.000000000  0.045989208

  length of vectors
    11.256463038 11.256463038 21.744231844     0.099375718  0.099375718  0.045989208

 FORCES acting on ions
    electron-ion (+dipol)            ewald-force                    non-local-force                 convergence-correction
   0.238E+03 -.385E+03 0.585E+03   -.238E+03 0.386E+03 -.585E+03   0.612E+00 -.103E+01 -.265E+00   -.240E-02 0.622E-03 -.294E-01
   0.294E+03 -.476E+03 -.272E+04   -.294E+03 0.477E+03 0.272E+04   0.553E+00 -.920E+00 0.149E+01   0.200E-02 -.609E-02 -.457E-01
   0.250E+03 -.405E+03 -.584E+04   -.247E+03 0.400E+03 0.583E+04   -.320E+01 0.515E+01 0.413E+01   -.252E-02 0.272E-02 -.317E-02
   0.299E+03 -.539E+03 0.399E+04   -.303E+03 0.544E+03 -.399E+04   0.287E+01 -.350E+01 0.311E+01   0.106E-01 -.151E-02 0.951E-02
   0.410E+03 0.235E+03 -.490E+04   -.414E+03 -.238E+03 0.490E+04   0.236E+01 0.317E+01 -.164E+01   -.457E-02 -.222E-02 -.219E-01
   0.178E+03 0.544E+03 0.485E+04   -.180E+03 -.548E+03 -.485E+04   0.138E+01 0.282E+01 0.445E+01   0.909E-02 0.788E-02 -.241E-02
   0.272E+03 0.405E+03 0.173E+04   -.273E+03 -.405E+03 -.173E+04   0.496E+00 0.256E+00 0.103E+01   -.912E-04 -.522E-02 -.200E-01
   0.265E+03 0.394E+03 -.143E+04   -.266E+03 -.395E+03 0.143E+04   0.110E+01 0.372E+00 0.209E+01   0.121E-02 -.357E-02 -.479E-01
   -.546E+03 0.127E+01 0.169E+04   0.547E+03 -.776E+00 -.169E+04   -.630E+00 -.422E+00 0.910E+00   -.591E-02 0.196E-02 -.112E-01
   -.533E+03 -.424E+02 -.145E+04   0.534E+03 0.430E+02 0.145E+04   -.838E+00 -.776E+00 0.217E+01   -.483E-02 -.637E-02 -.484E-01
   -.395E+03 -.264E+03 -.490E+04   0.400E+03 0.265E+03 0.490E+04   -.396E+01 -.669E+00 -.173E+01   -.309E-02 -.850E-02 -.202E-01
   -.566E+03 0.846E+02 0.485E+04   0.570E+03 -.847E+02 -.485E+04   -.314E+01 0.292E-01 0.445E+01   -.160E-01 -.339E-02 -.334E-02
   0.253E+03 -.405E+03 0.568E+03   -.253E+03 0.406E+03 -.568E+03   0.407E+00 -.883E+00 -.335E+00   0.185E-02 -.485E-03 -.204E-01
   0.224E+03 -.368E+03 -.241E+04   -.225E+03 0.369E+03 0.241E+04   0.659E+00 -.967E+00 0.178E+00   -.520E-02 0.546E-03 -.555E-01
   -.277E+02 0.438E+02 -.560E+04   0.249E+02 -.392E+02 0.560E+04   0.327E+01 -.531E+01 -.269E+00   -.373E-02 -.763E-03 -.116E-01
   0.252E+03 -.409E+03 0.381E+04   -.255E+03 0.413E+03 -.381E+04   0.192E+01 -.312E+01 0.455E+01   -.645E-02 -.216E-02 0.642E-02
   -.552E+02 0.513E+03 -.490E+04   0.544E+02 -.514E+03 0.490E+04   0.106E+01 0.872E+00 -.347E+00   0.139E-02 -.599E-02 -.256E-01
   0.469E+03 0.742E+03 0.474E+04   -.470E+03 -.746E+03 -.474E+04   0.363E+00 0.237E+01 0.443E+01   -.278E-02 0.229E-03 0.133E-01
   0.219E+03 0.468E+03 0.166E+04   -.219E+03 -.469E+03 -.166E+04   -.287E-01 0.101E+01 -.882E+00   -.105E-02 -.158E-02 -.650E-03
   0.263E+03 0.449E+03 -.146E+04   -.264E+03 -.449E+03 0.146E+04   0.107E+01 0.341E+00 0.207E+01   -.356E-02 -.556E-02 -.455E-01
   -.484E+03 -.619E+02 0.173E+04   0.485E+03 0.623E+02 -.173E+04   -.449E+00 -.341E+00 0.104E+01   -.142E-02 -.321E-02 -.177E-01
   -.471E+03 -.600E+02 -.143E+04   0.472E+03 0.609E+02 0.143E+04   -.852E+00 -.830E+00 0.209E+01   0.244E-02 -.461E-02 -.469E-01
   -.434E+03 0.279E+03 -.490E+04   0.435E+03 -.279E+03 0.490E+04   -.127E+01 -.567E+00 -.350E+00   0.553E-02 -.467E-02 -.257E-01
   -.514E+03 -.602E+01 0.495E+04   0.519E+03 0.590E+01 -.495E+04   -.381E+01 -.233E+00 0.434E+01   0.163E-01 0.816E-02 0.818E-02
   0.249E+03 -.407E+03 0.568E+03   -.249E+03 0.408E+03 -.568E+03   0.574E+00 -.780E+00 -.335E+00   0.422E-02 -.519E-03 -.233E-01
   0.228E+03 -.365E+03 -.241E+04   -.229E+03 0.366E+03 0.241E+04   0.547E+00 -.104E+01 0.178E+00   -.384E-03 0.100E-01 -.555E-01
   -.267E+02 0.444E+02 -.560E+04   0.239E+02 -.398E+02 0.560E+04   0.328E+01 -.531E+01 -.270E+00   0.126E-02 0.560E-02 -.108E-01
   0.268E+03 -.434E+03 0.392E+04   -.270E+03 0.438E+03 -.392E+04   0.221E+01 -.360E+01 0.158E+01   0.154E-02 -.584E-02 -.465E-02
   -.589E+02 0.516E+03 -.489E+04   0.581E+02 -.517E+03 0.490E+04   0.110E+01 0.841E+00 -.406E+00   -.756E-02 0.201E-02 -.239E-01
   0.236E+03 0.457E+03 0.495E+04   -.238E+03 -.462E+03 -.495E+04   0.192E+01 0.330E+01 0.434E+01   0.513E-02 -.584E-02 0.716E-02
   0.244E+03 0.489E+03 0.169E+04   -.244E+03 -.489E+03 -.169E+04   0.650E+00 0.382E+00 0.903E+00   0.529E-02 0.983E-02 -.150E-01
   0.277E+03 0.457E+03 -.145E+04   -.278E+03 -.458E+03 0.145E+04   0.104E+01 0.384E+00 0.217E+01   0.635E-02 0.142E-02 -.494E-01
   -.554E+03 0.444E+02 0.155E+04   0.555E+03 -.448E+02 -.154E+04   -.105E+01 0.314E+00 -.936E+00   -.679E-02 0.257E-02 -.736E-02
   -.484E+03 -.330E+02 -.143E+04   0.485E+03 0.337E+02 0.142E+04   -.827E+00 -.723E+00 0.244E+01   -.689E-02 0.127E-01 -.498E-01
   -.435E+03 0.284E+03 -.489E+04   0.436E+03 -.284E+03 0.490E+04   -.126E+01 -.615E+00 -.410E+00   -.629E-04 0.810E-02 -.239E-01
   -.874E+03 -.864E+02 0.474E+04   0.877E+03 0.856E+02 -.474E+04   -.228E+01 0.738E+00 0.442E+01   0.117E-01 0.820E-03 0.115E-01
   0.207E+03 -.336E+03 0.410E+03   -.208E+03 0.336E+03 -.408E+03   0.126E+00 -.240E+00 -.175E+01   0.109E-03 -.303E-02 -.236E-01
   0.288E+03 -.466E+03 -.274E+04   -.289E+03 0.468E+03 0.274E+04   0.659E+00 -.109E+01 0.157E+01   -.156E-02 0.416E-02 -.480E-01
   0.248E+03 -.402E+03 -.584E+04   -.245E+03 0.397E+03 0.583E+04   -.321E+01 0.516E+01 0.429E+01   -.936E-02 0.154E-01 -.614E-02
   0.348E+03 -.509E+03 0.399E+04   -.350E+03 0.514E+03 -.399E+04   0.184E+01 -.414E+01 0.311E+01   0.120E-03 0.131E-01 0.104E-01
   0.413E+03 0.235E+03 -.490E+04   -.416E+03 -.238E+03 0.490E+04   0.239E+01 0.322E+01 -.173E+01   0.919E-02 -.309E-02 -.180E-01
   0.255E+03 0.122E+02 0.492E+04   -.260E+03 -.159E+02 -.493E+04   0.419E+01 0.329E+01 0.633E+01   -.225E-02 0.151E-02 0.111E-01
   0.209E+03 0.515E+03 0.155E+04   -.209E+03 -.516E+03 -.154E+04   0.180E+00 0.109E+01 -.943E+00   -.162E-02 0.671E-02 -.919E-02
   0.247E+03 0.418E+03 -.143E+04   -.248E+03 -.419E+03 0.142E+04   0.989E+00 0.398E+00 0.244E+01   -.756E-02 0.106E-01 -.500E-01
   -.516E+03 0.137E+02 0.166E+04   0.517E+03 -.142E+02 -.166E+04   -.889E+00 0.467E+00 -.874E+00   0.404E-03 0.524E-02 -.154E-01
   -.519E+03 -.339E+02 -.146E+04   0.520E+03 0.345E+02 0.146E+04   -.810E+00 -.817E+00 0.207E+01   0.862E-02 0.275E-02 -.476E-01
   -.394E+03 -.262E+03 -.490E+04   0.398E+03 0.263E+03 0.490E+04   -.390E+01 -.666E+00 -.164E+01   0.623E-02 0.235E-02 -.202E-01
   -.125E+03 -.223E+03 0.492E+04   0.131E+03 0.225E+03 -.493E+04   -.482E+01 -.226E+01 0.633E+01   -.452E-02 -.417E-02 0.119E-01
   -.798E+02 0.115E+03 0.252E+03   0.811E+02 -.117E+03 -.255E+03   -.123E+01 0.194E+01 0.226E+01   -.175E-02 -.347E-02 -.104E-01
   -.742E+02 0.118E+03 -.915E+03   0.754E+02 -.120E+03 0.911E+03   -.779E+00 0.132E+01 0.107E+01   -.397E-02 -.199E-02 -.165E-01
   -.747E+02 0.121E+03 0.234E+04   0.752E+02 -.122E+03 -.235E+04   -.227E+00 0.402E+00 0.529E+00   -.143E-02 0.108E-02 0.545E-02
   -.980E+02 0.159E+03 0.159E+04   0.993E+02 -.161E+03 -.160E+04   -.136E+01 0.220E+01 0.201E+01   -.178E-02 -.139E-02 -.256E-02
   -.163E+03 -.918E+02 -.160E+04   0.165E+03 0.943E+02 0.160E+04   -.157E+01 -.191E+01 -.174E+01   -.361E-03 -.209E-02 -.135E-01
   -.629E+02 -.155E+03 -.241E+03   0.642E+02 0.157E+03 0.241E+03   -.129E+01 -.246E+01 -.150E+00   -.695E-03 -.241E-02 -.148E-01
   -.654E+02 -.984E+02 0.209E+04   0.642E+02 0.995E+02 -.210E+04   0.163E+01 -.569E+00 0.318E+01   0.593E-02 0.364E-03 0.287E-02
   -.815E+02 -.211E+03 0.916E+03   0.831E+02 0.214E+03 -.916E+03   -.151E+01 -.139E+01 0.180E+01   0.225E-02 -.497E-02 -.166E-02
   0.118E+03 -.845E+02 0.209E+04   -.119E+03 0.872E+02 -.209E+04   -.289E-02 -.210E+01 0.286E+01   0.588E-02 0.181E-04 0.284E-02
   0.158E+03 0.523E+01 0.950E+03   -.160E+03 -.552E+01 -.950E+03   0.209E+01 0.161E+00 0.817E+00   0.196E-02 0.142E-02 -.557E-02
   0.167E+03 -.132E+02 -.241E+03   -.169E+03 0.131E+02 0.241E+03   0.277E+01 0.610E-01 -.130E+00   0.123E-02 -.111E-02 -.149E-01
   0.230E+03 -.644E+02 -.156E+04   -.232E+03 0.648E+02 0.157E+04   0.273E+00 0.270E+00 -.159E+01   -.217E-03 0.930E-03 -.125E-01
[...]
   0.142E+03 0.396E+01 0.932E+03   -.144E+03 -.423E+01 -.932E+03   0.199E+01 -.694E-01 0.126E+01   0.599E-03 0.415E-03 0.298E-02
   0.170E+03 0.494E+01 -.229E+03   -.173E+03 -.502E+01 0.229E+03   0.305E+01 0.127E+00 -.421E+00   -.391E-03 0.552E-02 -.169E-01
   0.155E+03 0.105E+03 -.160E+04   -.158E+03 -.105E+03 0.160E+04   0.241E+01 0.549E+00 -.173E+01   0.106E-02 -.157E-03 -.128E-01
   -.674E+02 0.123E+03 0.252E+03   0.686E+02 -.125E+03 -.255E+03   -.117E+01 0.198E+01 0.226E+01   0.454E-02 0.945E-03 -.130E-01
   -.725E+02 0.119E+03 -.915E+03   0.737E+02 -.121E+03 0.911E+03   -.813E+00 0.130E+01 0.107E+01   0.481E-02 0.108E-02 -.162E-01
   0.117E+03 -.189E+03 0.228E+04   -.118E+03 0.191E+03 -.228E+04   0.508E+00 -.809E+00 0.378E+01   -.344E-02 0.200E-02 0.495E-02
   -.114E+03 0.185E+03 0.154E+04   0.116E+03 -.188E+03 -.154E+04   0.101E+00 -.175E+00 0.172E+01   0.976E-03 -.293E-02 0.290E-02
   -.162E+03 -.917E+02 -.160E+04   0.163E+03 0.942E+02 0.160E+04   -.157E+01 -.188E+01 -.181E+01   0.548E-02 -.308E-02 -.134E-01
   -.726E+02 -.152E+03 -.257E+03   0.740E+02 0.154E+03 0.258E+03   -.145E+01 -.266E+01 -.462E+00   -.263E-02 0.634E-03 -.146E-01
   0.273E+02 -.236E+03 0.221E+04   -.282E+02 0.239E+03 -.221E+04   0.917E+00 -.130E+01 0.219E+01   0.483E-03 0.154E-02 0.268E-02
   -.673E+02 -.125E+03 0.932E+03   0.683E+02 0.127E+03 -.932E+03   -.835E+00 -.181E+01 0.125E+01   -.242E-03 0.176E-02 0.157E-02
   0.245E+03 -.137E+02 0.998E+03   -.249E+03 0.133E+02 -.998E+03   0.141E+01 -.222E+00 0.205E+01   -.106E-02 0.286E-02 0.161E-02
   0.168E+03 -.305E+01 -.257E+03   -.171E+03 0.298E+01 0.258E+03   0.302E+01 0.112E+00 -.442E+00   0.133E-02 0.293E-02 -.156E-01
   0.229E+03 -.624E+02 -.157E+04   -.231E+03 0.627E+02 0.157E+04   0.403E+00 0.311E+00 -.151E+01   -.591E-02 0.594E-02 -.127E-01
   -.100E+02 0.162E+02 -.977E+02   -.125E-11 -.455E-12 0.280E-10   0.967E+01 -.162E+02 0.990E+02   0.158E-02 0.581E-01 -.123E+01

 POSITION                                       TOTAL-FORCE (eV/Angst)
      5.35228      4.81788      5.50842         0.022155     -0.066033     -0.121797
      5.93595      3.87238      8.44448        -0.057403      0.074284     -0.003386
      6.55232      2.87390     10.98121         0.032265     -0.076906      1.185442
      2.24633      0.73197      2.57236        -0.586839      0.610053      2.089114
      0.83193      0.55070     10.27815        -0.905595      0.065789      0.566472
      4.76861      3.35453      1.79664        -0.524392     -1.284529      2.683491
      5.35228      2.40903      4.73270         0.025445      0.219808      0.145071
      5.93595      1.46353      7.66876        -0.095762     -0.087742     -0.207783
      1.87746      3.73836      4.73270        -0.080556      0.071659      0.228531
      2.46113      2.79286      7.66876        -0.020084     -0.177421     -0.017524
      3.04229      1.91517     10.27808         0.337166      0.889075      0.537148
      6.92203      4.68386      1.79664         1.389579     -0.101977      2.682536
     10.98051      4.81788      5.50842         0.192108     -0.131708     -0.100449
     11.56418      3.87238      8.44448        -0.095665      0.116872     -0.994514
     11.68045      3.68400     10.81043         0.475906     -0.754306      0.792645
      7.82638      0.81002      3.28230        -0.791718      1.276081     -0.188383
      6.38444      0.53317     10.15868         0.319681     -0.288461      1.033498
     10.48770      3.35311      2.18095        -0.686426     -1.336258      0.275356
     10.98051      2.40903      4.73270         0.040977     -0.093599      0.075572
     11.56418      1.46353      7.66876         0.155588     -0.032435     -0.045466
      7.50570      3.73836      4.73270        -0.200313      0.066695      0.152678
      8.08937      2.79286      7.66876         0.097516      0.031837     -0.214521
      8.72008      1.97499     10.15868         0.106991     -0.418954      1.029765
     12.55026      4.68386      1.79664         1.539527     -0.348280      2.254861
      7.87456      9.84929      5.50842         0.004457     -0.247569     -0.100414
      8.45823      8.90379      8.44448        -0.078185      0.127572     -0.994560
      8.57453      8.71543     10.81043         0.462557     -0.762475      0.792697
      4.76861      5.76338      2.57236        -0.267270      0.426376      2.006845
      3.27811      5.56446     10.15844         0.320872     -0.272272      1.007710
      7.29089      8.38594      1.79664        -0.370847     -1.529092      2.255910
      7.87456      7.44044      4.73270        -0.032573      0.114951      0.220946
      8.45823      6.49494      7.66876         0.144076     -0.076386     -0.010757
      4.39975      8.76977      4.73270         0.162178     -0.086051      0.463087
      4.98341      7.82427      7.66876        -0.003220     -0.029380     -0.221252
      5.61441      7.00669     10.15844         0.092416     -0.412698      1.003890
      9.40486      9.63341      2.18095         1.507223      0.018245      0.273173
     13.50279      9.84929      5.50842         0.073851     -0.149926      0.390343
     14.08646      8.90379      8.44448        -0.043757      0.052129      0.002637
     14.70300      7.90505     10.98113         0.037843     -0.085838      1.112515
     10.39684      5.76338      2.57236        -0.288296      0.794488      2.089035
      8.98240      5.58208     10.27808        -0.925157      0.085890      0.539246
     12.91732      8.01843      2.31279        -0.440943     -0.451632     -1.156977
     13.50279      7.44044      4.73270        -0.000347     -0.172503      0.455441
     14.08646      6.49494      7.66876         0.004099     -0.025016     -0.214554
     10.02798      8.76977      4.73270         0.072928     -0.087566      0.083207
     10.61165      7.82427      7.66876        -0.064674     -0.168017     -0.052164
     11.19275      6.94656     10.27815         0.346371      0.862725      0.564104
     15.40189      9.55219      2.31279         0.602995      0.212822     -1.154273
      1.66190      1.67871      5.87212         0.080894     -0.057429      0.091429
      2.24556      0.73321      8.80817         0.398813     -0.692083     -3.045042
      5.91708      3.90295      0.26817         0.241260     -0.351709     -4.487753
      6.70646      2.62422      2.93606         0.004539     -0.012229     -0.209249
      2.24556      3.80055      9.79595         0.060963      0.574100     -0.225509
      7.29013      4.74605      6.85989         0.018993      0.047178      0.079387
      3.81940      1.50781      1.46440         0.452902      0.504906     -2.302344
      4.18418      0.66015      3.92384         0.048271      0.961222      2.262404
      3.34991      4.82098      1.39466        -1.028371      0.602041     -2.277374
      3.96438      3.99884      3.92384        -0.025457     -0.133486      0.752034
      4.54805      3.05334      6.85989        -0.051326      0.013323      0.098778
      5.13172      2.10784      9.79595        -1.940719      0.609356     -0.521143
[...]
      5.94201      9.87752      1.32418        -1.702003      0.825033     -2.657468
      6.48666      9.03025      3.92384         0.232148     -0.345580      0.856587
      7.07033      8.08475      6.85989        -0.041813      0.050678     -0.137034
      7.65400      7.13925      9.79595        -0.538932      0.209169     -0.216123
      9.81241      6.71012      5.87212         0.034835     -0.085871      0.091422
     10.39608      5.76462      8.80817         0.463322     -0.652285     -3.045052
     13.49242      9.86610      1.57433        -0.691061      1.139728     -3.209478
     14.85697      7.65563      2.93606         1.445266     -2.346352      0.910129
     10.39608      8.83196      9.79595         0.086366      0.581855     -0.272256
     15.44064      9.77746      6.85989        -0.036474      0.005657      0.028983
     11.82135      6.55815      1.32418         0.026685      1.899336     -2.656350
     12.33469      5.69156      3.92384         0.205109     -0.359079      0.853667
     12.11489      9.03025      3.92384        -1.787552     -0.572565      2.091347
     12.69856      8.08475      6.85989         0.010689      0.044301      0.048325
     13.28223      7.13925      9.79595        -1.970200      0.586550     -0.467214
    total drift:                               -0.339858     -0.001908      0.045890

  FREE ENERGIE OF THE ION-ELECTRON SYSTEM (eV)
  free  energy   TOTEN  =      -473.85783976 eV

  energy  without entropy=     -472.66435797  energy(sigma->0) =     -473.26109886