 vasp.5.4.4.18Apr17-6-g9f103f2a35 (build Aug 13 2019 17:33:20) gamma-only

 executed on             LinuxIFC date 2020.05.10  12:15:39

 INCAR:
 POTCAR:    PAW_PBE Ni_pv 06Sep2000
 POTCAR:    PAW_PBE S 06Sep2000
 POTCAR:    PAW_PBE Ni_pv 06Sep2000
   VRHFIN =Ni:

   TITEL  = PAW_PBE Ni_pv 06Sep2000
   POMASS =   58.690; ZVAL   =   16.000    mass and valenz
   ENMAX  =  367.986; ENMIN  =  275.989 eV

 POTCAR:    PAW_PBE S 06Sep2000
   VRHFIN =S : s2p4

   TITEL  = PAW_PBE S 06Sep2000
   POMASS =   32.066; ZVAL   =    6.000    mass and valenz
   ENMAX  =  258.689; ENMIN  =  194.016 eV

 Optimization of the real space projectors (new method)

 maximal supplied QI-value         = 18.90
 optimisation between [QCUT,QGAM] = [ 10.77, 21.73] = [ 32.49,132.25] Ry
 Optimized for a Real-space Cutoff    1.38 Angstroem

   l    n(q)    QCUT    max X(q) W(low)/X(q) W(high)/X(q)  e(spline)
   1      8    10.771     2.836    0.40E-04    0.29E-04    0.12E-06
   1      8    10.771     4.023    0.10E-03    0.48E-04    0.29E-06
   2      8    10.771    73.368    0.42E-03    0.97E-04    0.44E-06
   2      8    10.771    69.010    0.42E-03    0.99E-04    0.45E-06
   0      9    10.771    54.797    0.10E-03    0.56E-04    0.74E-07
   0      9    10.771    24.266    0.89E-04    0.49E-04    0.67E-07
 Optimization of the real space projectors (new method)

 maximal supplied QI-value         = 19.84
 optimisation between [QCUT,QGAM] = [ 10.71, 21.63] = [ 32.15,130.99] Ry
 Optimized for a Real-space Cutoff    1.19 Angstroem

   l    n(q)    QCUT    max X(q) W(low)/X(q) W(high)/X(q)  e(spline)
   0      8    10.715   187.594    0.41E-03    0.53E-04    0.66E-07
   0      8    10.715   164.243    0.41E-03    0.53E-04    0.65E-07
   1      7    10.715    67.533    0.19E-03    0.59E-03    0.68E-07
   1      7    10.715    50.729    0.19E-03    0.58E-03    0.67E-07
  PAW_PBE Ni_pv 06Sep2000               :
  PAW_PBE S 06Sep2000                   :

 POSCAR: Type_026 Type_126
  positions in cartesian coordinates
 exchange correlation table for  LEXCH =        8
   RHO(1)=    0.500       N(1)  =     2000
   RHO(2)=  100.500       N(2)  =     4000

 ion  position               nearest neighbor table
   1  0.439  0.464  0.163-  34 2.08  44 2.08  29 2.25  35 2.36  45 2.36   5 2.53  22 2.53
   2  0.485  0.467  0.321-  41 2.03  45 2.03  35 2.05   6 2.50
   3  0.152  0.981  0.099-  36 2.06  27 2.07  37 2.10  33 2.25
   4  0.222  0.962  0.241-  33 2.06  38 2.07  37 2.19  28 2.30  26 2.47
   5  0.439  0.200  0.163-  39 2.07  34 2.10  33 2.25  35 2.36  40 2.36  13 2.37   1 2.53  22 2.53

   6  0.489  0.206  0.325-  41 2.04  35 2.06  40 2.06   2 2.50
   7  0.156  0.696  0.093-  36 2.05  30 2.08  37 2.11  29 2.26   8 2.52
   8  0.205  0.685  0.235-  31 2.07  38 2.07  29 2.09  37 2.13  12 2.41  26 2.44   7 2.52
   9  0.131  0.332  0.139-  27 2.06  30 2.08  34 2.11  28 2.36  31 2.36  18 2.53  14 2.53
  10  0.182  0.331  0.299-  32 2.05  28 2.07  31 2.07  35 2.15
  11  0.446  0.837  0.106-  51 2.08  50 2.09  33 2.13  29 2.20
  12  0.408  0.762  0.246-  29 2.08  38 2.14  13 2.39   8 2.41  51 2.45
  13  0.487  0.993  0.231-  51 2.13  40 2.16  33 2.21   5 2.37  12 2.39
  14  0.939  0.464  0.163-  30 2.07  48 2.08  42 2.25  49 2.36  31 2.36  18 2.53   9 2.53
  15  0.984  0.469  0.323-  32 2.05  31 2.06  49 2.07  43 2.10
  16  0.638  0.015  0.118-  39 2.06  51 2.11  50 2.12  46 2.29  17 2.51  40 2.54
  17  0.715  0.964  0.253-  52 2.00  40 2.25  51 2.26  46 2.26  16 2.51  25 2.53  21 2.53
  18  0.939  0.200  0.163-  27 2.06  48 2.08  46 2.25  49 2.36  28 2.36  14 2.53   9 2.53
  19  0.983  0.193  0.322-  32 2.05  28 2.05  49 2.07  47 2.10
  20  0.664  0.699  0.098-  51 2.06  50 2.09  44 2.09  42 2.15
  21  0.715  0.700  0.253-  52 1.99  45 2.25  51 2.26  42 2.26  25 2.53  17 2.53
  22  0.631  0.332  0.139-  39 2.05  44 2.09  48 2.12  40 2.36  45 2.36   5 2.53   1 2.53
  23  0.684  0.334  0.299-  41 2.05  45 2.06  40 2.10  49 2.13
  24  0.949  0.833  0.095-  36 2.03  37 2.17  46 2.25  42 2.27  25 2.35
  25  0.907  0.832  0.229-  43 2.11  47 2.11  37 2.25  42 2.26  46 2.26  24 2.35  26 2.43  21 2.53
                            17 2.53
  26  0.075  0.826  0.317-  47 2.08  43 2.09  38 2.15  37 2.37  25 2.43   8 2.44   4 2.47
  27  0.064  0.165  0.077-  18 2.06   9 2.06   3 2.07
  28  0.111  0.164  0.239-  19 2.05  10 2.07   4 2.30   9 2.36  18 2.36
  29  0.336  0.664  0.149-  12 2.08   8 2.09  11 2.20   1 2.25   7 2.26
  30  0.068  0.506  0.080-  14 2.07   9 2.08   7 2.08  31 2.78
  31  0.111  0.500  0.239-  15 2.06   8 2.07  10 2.07   9 2.36  14 2.36  30 2.78
  32  0.071  0.330  0.393-  19 2.05  15 2.05  10 2.05
  33  0.336  1.000  0.149-   4 2.06  11 2.13  13 2.21   3 2.25   5 2.25
  34  0.313  0.334  0.112-   1 2.08   5 2.10   9 2.11  35 2.77
  35  0.368  0.332  0.269-   2 2.05   6 2.06  10 2.15   1 2.36   5 2.36  34 2.77
  36  0.086  0.842  0.018-  24 2.03   7 2.05   3 2.06  37 2.78
  37  0.092  0.832  0.179-   3 2.10   7 2.11   8 2.13  24 2.17   4 2.19  25 2.25  26 2.37  36 2.78

  38  0.266  0.813  0.324-   8 2.07   4 2.07  12 2.14  26 2.15
  39  0.554  0.184  0.069-  22 2.05  16 2.06   5 2.07
  40  0.611  0.164  0.239-   6 2.06  23 2.10  13 2.16  17 2.25  22 2.36   5 2.36  16 2.54
  41  0.577  0.342  0.395-   2 2.03   6 2.04  23 2.05
  42  0.836  0.664  0.149-  20 2.15  14 2.25  25 2.26  21 2.26  24 2.27
  43  0.936  0.681  0.316-  26 2.09  15 2.10  25 2.11
  44  0.572  0.512  0.083-   1 2.08  20 2.09  22 2.09  45 2.73
  45  0.611  0.500  0.239-   2 2.03  23 2.06  21 2.25  22 2.36   1 2.36  44 2.73
  46  0.836  1.000  0.149-  24 2.25  18 2.25  25 2.26  17 2.26  16 2.29
  47  0.943  0.979  0.317-  26 2.08  19 2.10  25 2.11
  48  0.814  0.332  0.113-  14 2.08  18 2.08  22 2.12  49 2.76
  49  0.868  0.332  0.269-  15 2.07  19 2.07  23 2.13  14 2.36  18 2.36  48 2.76
  50  0.592  0.863  0.033-  11 2.09  20 2.09  16 2.12  51 2.53
  51  0.592  0.832  0.179-  20 2.06  11 2.08  16 2.11  13 2.13  17 2.26  21 2.26  12 2.45  50 2.53

  52  0.710  0.831  0.342-  21 1.99  17 2.00

  LATTYP: Found a simple orthorhombic cell.
 ALAT       =     9.5784100000
 B/A-ratio  =     1.1751911892
 C/A-ratio  =     1.7949213288

  Lattice vectors:

 A1 = (   0.0000000000,  -9.5784100000,   0.0000000000)
 A2 = ( -11.2564630382,   0.0000000000,   0.0000000000)
 A3 = (   0.0000000000,   0.0000000000, -17.1924924047)

Analysis of symmetry for initial positions (statically):
 Subroutine PRICEL returns:
 Original cell was already a primitive cell.

 Routine SETGRP: Setting up the symmetry group for a
 simple orthorhombic supercell.

 Subroutine GETGRP returns: Found  1 space group operations
 (whereof  1 operations were pure point group operations)
 out of a pool of  8 trial point group operations.

The static configuration has the point symmetry C_1 .

Analysis of symmetry for dynamics (positions and initial velocities):
 Subroutine PRICEL returns:
 Original cell was already a primitive cell.

 Routine SETGRP: Setting up the symmetry group for a
 simple orthorhombic supercell.

 Subroutine GETGRP returns: Found  1 space group operations
 (whereof  1 operations were pure point group operations)
 out of a pool of  8 trial point group operations.

The dynamic configuration has the point symmetry C_1 .

 Subroutine INISYM returns: Found  1 space group operations
 (whereof  1 operations are pure point group operations),
 and found     1 'primitive' translations

 KPOINTS: gamma-point-only calculation. no periodi

Automatic generation of k-mesh.
Space group operators:
 irot       det(A)        alpha          n_x          n_y          n_z        tau_x        tau_y        tau_z
    1     1.000000     0.000000     1.000000     0.000000     0.000000     0.000000     0.000000     0.000000

 Subroutine IBZKPT returns following result:

 Found      1 irreducible k-points:

 Following reciprocal coordinates:
            Coordinates               Weight
  0.000000  0.000000  0.000000      1.000000

 Following cartesian coordinates:
            Coordinates               Weight
  0.000000  0.000000  0.000000      1.000000

 SYSTEM =  "Millerite NiS"
 POSCAR =  Type_026 Type_126

 Startparameter for this run:
   NWRITE =      2    write-flag & timer
   PREC   = normal    normal or accurate (medium, high low for compatibility)
   ISTART =      0    job   : 0-new  1-cont  2-samecut
   ICHARG =      2    charge: 1-file 2-atom 10-const
   ISPIN  =      1    spin polarized calculation?
   LNONCOLLINEAR =      F non collinear calculations
   LSORBIT =      F    spin-orbit coupling
   INIWAV =      1    electr: 0-lowe 1-rand  2-diag
   LASPH  =      F    aspherical Exc in radial PAW
   METAGGA=      F    non-selfconsistent MetaGGA calc.

 Electronic Relaxation 1
   ENCUT  =  450.0 eV  33.07 Ry    5.75 a.u.  19.47 16.57 29.74*2*pi/ulx,y,z
   ENINI  =  450.0     initial cutoff
   ENAUG  =  703.4 eV  augmentation charge cutoff
   NELM   =    100;   NELMIN=  2; NELMDL= -5     # of ELM steps
   EDIFF  = 0.1E-03   stopping-criterion for ELM
   LREAL  =      T    real-space projection
   NLSPLINE    = F    spline interpolate recip. space projectors
   LCOMPAT=      F    compatible to vasp.4.4
   GGA_COMPAT  = T    GGA compatible to vasp.4.4-vasp.4.6
   LMAXPAW     = -100 max onsite density
   LMAXMIX     =    2 max onsite mixed and CHGCAR
   VOSKOWN=      0    Vosko Wilk Nusair interpolation
   ROPT   =   -0.00050  -0.00050
 Ionic relaxation
   EDIFFG = 0.1E-02   stopping-criterion for IOM
   NSW    =      0    number of steps for IOM
   NBLOCK =      1;   KBLOCK =      1    inner block; outer block
   IBRION =     -1    ionic relax: 0-MD 1-quasi-New 2-CG
   NFREE  =      0    steps in history (QN), initial steepest desc. (CG)
   ISIF   =      2    stress and relaxation
   IWAVPR =     10    prediction:  0-non 1-charg 2-wave 3-comb
   ISYM   =      2    0-nonsym 1-usesym 2-fastsym
   LCORR  =      T    Harris-Foulkes like correction to forces

   POTIM  = 0.5000    time-step for ionic-motion
   TEIN   =    0.0    initial temperature
   TEBEG  =    0.0;   TEEND  =   0.0 temperature during run
   SMASS  =  -3.00    Nose mass-parameter (am)
   estimated Nose-frequenzy (Omega)   =  0.10E-29 period in steps =****** mass=  -0.290E-26a.u.
   SCALEE = 1.0000    scale energy and forces
   NPACO  =    256;   APACO  = 16.0  distance and # of slots for P.C.
   PSTRESS=    0.0 pullay stress

  Mass of Ions in am
   POMASS =  58.69 32.07
  Ionic Valenz
   ZVAL   =  16.00  6.00
  Atomic Wigner-Seitz radii
  virtual crystal weights
   VCA    =   1.00  1.00
   NELECT =     572.0000    total number of electrons
   NUPDOWN=      -1.0000    fix difference up-down

 DOS related values:
   EMIN   =  10.00;   EMAX   =-10.00  energy-range for DOS
   EFERMI =   0.00
   ISMEAR =     0;   SIGMA  =   0.20  broadening in eV -4-tet -1-fermi 0-gaus

 Electronic relaxation 2 (details)
   IALGO  =     38    algorithm
   LDIAG  =      T    sub-space diagonalisation (order eigenvalues)
   LSUBROT=      F    optimize rotation matrix (better conditioning)
   TURBO    =      0    0=normal 1=particle mesh
   IRESTART =      0    0=no restart 2=restart with 2 vectors
   NREBOOT  =      0    no. of reboots
[...]
      26 -87.9022      27 -92.3019      28 -93.4681      29 -93.3137      30 -92.3397
      31 -93.5457      32 -92.3815      33 -93.3420      34 -92.4454      35 -93.2937
      36 -92.3263      37 -94.0572      38 -92.6900      39 -92.4203      40 -93.7804
      41 -92.3990      42 -93.0637      43 -92.7135      44 -92.4035      45 -93.5320
      46 -92.8874      47 -92.6457      48 -92.3024      49 -93.2739      50 -92.4267
      51 -94.1724      52 -92.0919

 E-fermi :  -0.2242     XC(G=0):  -5.4016     alpha+bet : -5.1393

 k-point     1 :       0.0000    0.0000    0.0000
  band No.  band energies     occupation
      1     -64.9648      2.00000
      2     -64.9636      2.00000
      3     -64.9352      2.00000
      4     -64.9031      2.00000
      5     -64.8991      2.00000
      6     -64.8971      2.00000
      7     -64.8941      2.00000
      8     -64.8753      2.00000
      9     -64.8523      2.00000
     10     -64.8297      2.00000
     11     -64.8240      2.00000
     12     -64.8106      2.00000
     13     -64.8034      2.00000
     14     -64.7865      2.00000
     15     -64.7740      2.00000
     16     -64.7605      2.00000
     17     -64.7591      2.00000
     18     -64.7181      2.00000
     19     -64.6983      2.00000
     20     -64.6953      2.00000
     21     -64.6889      2.00000
     22     -64.6805      2.00000
     23     -64.6692      2.00000
     24     -64.6630      2.00000
     25     -64.6608      2.00000
     26     -64.6548      2.00000
     27     -64.6525      2.00000
     28     -64.6489      2.00000
     29     -64.6385      2.00000
     30     -64.6364      2.00000
     31     -64.6351      2.00000
     32     -64.6280      2.00000
     33     -64.6262      2.00000
     34     -64.6248      2.00000
     35     -64.6065      2.00000
     36     -64.6005      2.00000
     37     -64.5929      2.00000
     38     -64.5913      2.00000
     39     -64.5676      2.00000
     40     -64.5650      2.00000
     41     -64.5605      2.00000
     42     -64.5465      2.00000
     43     -64.5447      2.00000
     44     -64.5124      2.00000
     45     -64.5069      2.00000
     46     -64.4965      2.00000
     47     -64.4918      2.00000
     48     -64.4774      2.00000
     49     -64.4321      2.00000
     50     -64.4294      2.00000
     51     -64.4113      2.00000
     52     -64.4044      2.00000
     53     -64.4032      2.00000
     54     -64.3366      2.00000
     55     -64.3148      2.00000
     56     -64.2942      2.00000
     57     -64.2859      2.00000
     58     -64.2811      2.00000
     59     -64.2694      2.00000
     60     -64.2609      2.00000
[...]
    330       4.9639      0.00000
    331       5.0616      0.00000
    332       5.0910      0.00000
    333       5.1139      0.00000
    334       5.1802      0.00000
    335       5.2020      0.00000
    336       5.2578      0.00000
    337       5.3931      0.00000
    338       5.4495      0.00000
    339       5.4767      0.00000
    340       5.5822      0.00000
    341       5.6779      0.00000
    342       5.6945      0.00000
    343       5.7223      0.00000
    344       5.7823      0.00000

 soft charge-density along one line, spin component           1
         0         1         2         3         4         5         6         7         8         9
 total charge-density along one line

------------------------ aborting loop because EDIFF is reached ----------------------------------------

  FORCE on cell =-STRESS in cart. coord.  units (eV):
  Direction    XX          YY          ZZ          XY          YZ          ZX
  Alpha Z  1046.73971  1046.73971  1046.73971
  Ewald  165985.88173165895.15493************    -3.26059   391.83092  -340.18867
  Hartree190506.93898190363.06160************   -19.84848   344.70924  -326.19611
  E(xc)   -3650.25523 -3649.98069 -3654.76830     0.03529    -0.05528     0.15818
  Local  ************************359190.56191    27.29652  -737.16226   673.43614
  n-local  -419.47852  -416.11853  -421.58375     0.83208    -1.54732    -1.03856
  augment  4177.92899  4183.22442  4191.89169    -1.89237     1.78848    -3.14018
  Kinetic  8005.25974  8000.37569  8079.21251    -2.55067     1.69075    -5.11044
  Fock        0.00000     0.00000     0.00000     0.00000     0.00000     0.00000
  Total      77.94577    88.73253   105.35680     0.61177     1.25453    -2.07964
  in kB      67.37037    76.69362    91.06236     0.52877     1.08432    -1.79748

 VOLUME and BASIS-vectors are now :
  energy-cutoff  :      450.00
  volume of cell :     1853.68
      direct lattice vectors                 reciprocal lattice vectors
    11.256463038  0.000000000  0.000000000     0.088837852  0.000000000  0.000000000
     0.000000000  9.578410000  0.000000000     0.000000000  0.104401461  0.000000000
     0.000000000  0.000000000 17.192492405     0.000000000  0.000000000  0.058164923

  length of vectors
    11.256463038  9.578410000 17.192492405     0.088837852  0.104401461  0.058164923

 FORCES acting on ions
    electron-ion (+dipol)            ewald-force                    non-local-force                 convergence-correction
   0.323E+03 -.342E+03 0.144E+04   -.325E+03 0.345E+03 -.144E+04   0.214E+01 -.218E+01 0.482E+01   0.488E-01 0.126E+00 0.109E+00
   0.348E+03 -.839E+03 -.332E+04   -.349E+03 0.841E+03 0.332E+04   0.310E+00 -.448E+00 -.210E+01   -.589E-01 0.219E+00 -.617E-01
   -.259E+03 -.587E+03 0.311E+04   0.259E+03 0.594E+03 -.312E+04   0.124E+01 -.683E+01 0.614E+01   0.129E+00 0.327E+00 0.269E-01
   -.183E+03 -.653E+03 -.144E+04   0.183E+03 0.658E+03 0.144E+04   -.165E+01 -.286E+01 -.395E+01   0.306E+00 -.163E+00 0.244E+00
   0.558E+03 -.103E+03 0.152E+04   -.561E+03 0.102E+03 -.153E+04   0.216E+01 0.742E+00 0.498E+01   0.159E-01 0.133E-01 0.379E-01
   0.392E+03 0.598E+03 -.360E+04   -.394E+03 -.600E+03 0.360E+04   0.113E+01 -.290E+00 -.264E+01   0.587E-02 -.664E-01 0.434E-02
   -.308E+03 0.582E+03 0.334E+04   0.308E+03 -.588E+03 -.335E+04   0.128E+01 0.577E+01 0.566E+01   0.178E+00 -.138E+00 0.638E-01
   -.142E+03 0.666E+03 -.114E+04   0.142E+03 -.672E+03 0.114E+04   -.438E+00 0.449E+01 -.358E+01   0.558E+00 0.915E-01 0.439E+00
   -.458E+03 -.121E+02 0.221E+04   0.462E+03 0.122E+02 -.221E+04   -.337E+01 0.150E+00 0.588E+01   -.308E-01 -.892E-01 0.639E-01
   -.672E+03 0.166E+02 -.264E+04   0.679E+03 -.168E+02 0.264E+04   -.444E+01 0.338E+00 -.268E+01   0.744E-02 0.311E-01 0.452E-01
   0.362E+03 0.230E+03 0.326E+04   -.367E+03 -.230E+03 -.326E+04   0.357E+01 -.466E+00 0.635E+01   0.734E-01 -.980E-01 0.467E+00
   -.381E+03 0.401E+03 -.190E+04   0.381E+03 -.400E+03 0.191E+04   0.847E+00 -.794E+00 -.225E+01   0.137E+00 -.440E-02 0.202E+00
   0.207E+03 0.761E+02 -.148E+04   -.210E+03 -.752E+02 0.149E+04   0.245E+01 -.360E+00 -.495E+01   -.139E+00 -.455E+00 0.141E+00
   0.418E+03 -.280E+03 0.145E+04   -.420E+03 0.283E+03 -.145E+04   0.210E+01 -.209E+01 0.505E+01   -.940E-01 -.215E+00 0.923E-01
   0.342E+03 -.452E+03 -.329E+04   -.343E+03 0.456E+03 0.330E+04   0.105E+01 -.301E+01 -.440E+01   -.613E-03 -.131E-01 0.538E-01
   -.502E+03 -.352E+03 0.289E+04   0.505E+03 0.357E+03 -.290E+04   -.214E+01 -.499E+01 0.825E+01   -.680E-01 0.111E-01 0.969E-01
   -.194E+03 -.364E+03 -.192E+04   0.195E+03 0.365E+03 0.193E+04   -.103E+01 -.943E-01 -.464E+01   -.131E+00 0.507E-01 0.614E-01
   0.379E+03 0.261E+03 0.143E+04   -.382E+03 -.264E+03 -.143E+04   0.242E+01 0.286E+01 0.510E+01   -.437E-01 0.123E+00 0.433E-01
   0.317E+03 0.472E+03 -.328E+04   -.319E+03 -.476E+03 0.328E+04   0.913E+00 0.327E+01 -.446E+01   -.227E-01 0.231E-01 0.188E-01
   -.278E+03 0.496E+03 0.317E+04   0.280E+03 -.502E+03 -.317E+04   -.611E+00 0.546E+01 0.554E+01   -.163E+00 -.686E-01 0.488E-01
   0.154E+03 0.571E+03 -.177E+04   -.155E+03 -.574E+03 0.177E+04   0.145E+01 0.106E+01 -.438E+01   -.232E+00 -.256E-02 0.341E-01
   -.548E+03 -.195E+03 0.221E+04   0.552E+03 0.196E+03 -.222E+04   -.359E+01 -.353E+00 0.615E+01   -.494E-02 0.397E-01 0.247E-01
   -.669E+03 -.836E+02 -.264E+04   0.676E+03 0.851E+02 0.265E+04   -.491E+01 -.168E+01 -.369E+01   0.243E-01 0.191E-02 -.991E-02
   0.536E+03 0.939E+01 0.337E+04   -.538E+03 -.924E+01 -.337E+04   0.175E+01 -.412E+00 0.538E+01   -.244E+00 0.994E-01 0.691E-01
   0.130E+03 0.239E+01 -.818E+03   -.133E+03 -.189E+01 0.816E+03   0.125E+01 -.508E+00 0.929E+00   -.463E-01 0.643E-01 0.312E+00
   -.104E+02 -.363E+02 -.369E+04   0.119E+02 0.363E+02 0.370E+04   -.854E+00 0.485E-01 -.520E+01   0.457E-01 -.112E-01 0.231E+00
   0.354E+02 -.597E+02 0.154E+04   -.364E+02 0.598E+02 -.154E+04   0.124E+01 -.418E+00 0.381E+01   -.245E-01 0.807E-01 0.183E-01
   -.140E+03 0.149E+03 -.297E+03   0.142E+03 -.151E+03 0.296E+03   -.573E+00 0.688E+00 -.603E+00   -.242E-01 0.467E-01 0.651E-02
   -.519E+02 0.248E+03 0.805E+03   0.522E+02 -.248E+03 -.808E+03   0.169E+00 -.830E+00 0.111E+00   0.248E+00 0.626E-01 0.267E+00
   0.243E+02 0.553E+02 0.150E+04   -.253E+02 -.554E+02 -.150E+04   0.116E+01 0.410E+00 0.386E+01   -.618E-01 -.179E+00 0.650E-02
   -.112E+03 -.858E+02 -.291E+03   0.114E+03 0.880E+02 0.290E+03   -.161E+01 -.177E+01 -.832E+00   -.101E-01 -.588E-01 0.607E-01
   -.116E+03 0.655E+01 -.185E+04   0.118E+03 -.654E+01 0.185E+04   -.484E+00 -.453E-01 -.891E+00   0.550E-02 0.139E-01 0.415E-01
   0.869E+02 -.184E+03 0.779E+03   -.874E+02 0.185E+03 -.782E+03   0.840E+00 0.657E+00 0.166E+01   0.104E+00 -.239E-01 0.787E-01
   0.103E+03 -.236E+02 0.122E+04   -.103E+03 0.239E+02 -.123E+04   -.565E+00 -.446E+00 0.463E+01   0.206E-01 -.886E-02 0.206E-01
   0.261E+03 -.241E+02 -.659E+03   -.264E+03 0.240E+02 0.659E+03   0.145E+01 0.117E+00 -.749E+00   -.207E-02 0.293E-01 -.127E-01
   0.163E+01 -.221E+02 0.188E+04   -.216E+01 0.220E+02 -.188E+04   0.487E+00 0.616E-01 0.147E+01   0.138E-01 0.933E-01 -.192E+00
   0.898E+02 -.195E+02 0.218E+03   -.901E+02 0.195E+02 -.216E+03   -.102E+01 0.123E+00 -.529E+00   0.571E-02 0.647E-01 0.200E+00
   -.233E+03 -.217E+01 -.165E+04   0.234E+03 0.185E+01 0.165E+04   -.416E+00 0.303E+00 -.281E+01   0.196E+00 -.614E-01 -.346E-01
   0.298E+02 -.805E+02 0.171E+04   -.307E+02 0.803E+02 -.171E+04   0.780E+00 -.142E-01 0.235E+01   -.898E-02 0.282E-01 0.702E-03
   -.246E+03 0.867E+01 -.389E+03   0.249E+03 -.783E+01 0.390E+03   -.225E+01 -.239E+01 -.195E+01   -.811E-03 -.186E-01 0.475E-03
   -.114E+03 -.408E+02 -.187E+04   0.114E+03 0.409E+02 0.187E+04   -.287E+00 0.223E+00 -.314E+00   0.103E-01 0.127E-01 0.494E-01
   0.266E+01 0.232E+03 0.711E+03   -.289E+01 -.234E+03 -.713E+03   0.883E+00 0.162E+01 0.156E+01   -.747E-01 -.834E-01 0.338E-01
   0.182E+03 0.101E+03 -.129E+04   -.182E+03 -.103E+03 0.130E+04   -.399E+00 0.121E+01 -.750E+00   0.384E-01 0.565E-02 0.586E-01
   -.149E+01 0.530E+01 0.146E+04   0.700E+00 -.484E+01 -.147E+04   0.915E+00 -.156E+00 0.370E+01   -.940E-02 0.207E-02 0.221E-01
   -.134E+03 -.223E+03 -.293E+03   0.136E+03 0.224E+03 0.293E+03   -.888E+00 0.270E+00 -.817E+00   -.582E-01 0.240E-01 -.841E-02
   -.138E+02 -.190E+03 0.752E+03   0.144E+02 0.191E+03 -.755E+03   -.245E+00 -.116E+01 0.241E+01   -.495E-01 0.970E-01 0.639E-01
   0.151E+03 -.102E+03 -.131E+04   -.152E+03 0.104E+03 0.131E+04   0.538E+00 -.869E+00 -.853E+00   0.177E-01 -.175E-01 0.429E-01
   0.896E+02 -.213E+02 0.122E+04   -.896E+02 0.212E+02 -.123E+04   -.756E+00 0.130E+00 0.437E+01   0.101E-01 -.117E-01 0.277E-01
   0.236E+03 -.757E+01 -.626E+03   -.238E+03 0.729E+01 0.626E+03   0.444E+00 0.224E+00 -.148E+01   0.353E-02 -.144E-02 -.148E-01
   -.524E+02 -.302E+02 0.182E+04   0.526E+02 0.302E+02 -.183E+04   -.195E+00 0.446E+00 0.336E+01   -.227E-02 -.167E-01 -.220E-01
   -.416E+02 0.206E+03 0.126E+03   0.421E+02 -.209E+03 -.122E+03   -.680E+00 0.129E+01 -.655E-01   -.162E+00 -.431E-01 0.113E+00
   0.100E+03 0.268E+02 -.170E+04   -.102E+03 -.266E+02 0.171E+04   0.133E+01 -.551E-01 -.986E+00   -.579E-01 0.254E-01 0.365E-01
   -.302E+01 0.371E+01 -.447E+02   -.125E-11 0.263E-12 0.159E-11   0.289E+01 -.357E+01 0.410E+02   0.378E+00 -.404E-01 0.372E+01

 POSITION                                       TOTAL-FORCE (eV/Angst)
      4.94536      4.44331      2.79952        -0.501427      0.967489      1.760177
      5.45769      4.47393      5.52427        -0.945584      1.957198      0.493344
      1.71178      9.39175      1.70309         1.128696      0.111799      0.135206
      2.49608      9.21036      4.14032        -0.653974      1.451393      0.058047
      4.94536      1.91264      2.79952        -1.297539      0.266801      1.074314
      5.50214      1.97241      5.58719        -0.856007     -1.929784      0.479938
      1.75720      6.67015      1.59072         1.110138     -0.304241      0.089049
      2.31301      6.56388      4.04160        -0.350937     -0.904057     -0.213094
      1.47054      3.17797      2.39204         0.723213      0.131841      2.291794
      2.04879      3.17269      5.13732         1.781429      0.095579      0.392513
      5.01645      8.01695      1.82293        -0.998464     -0.484885     -0.445336
      4.59496      7.30323      4.22474         0.570614      0.208737      0.650341
      5.48596      9.50713      3.96833        -0.348823      0.080696      0.921575
     10.57359      4.44331      2.79952        -0.238207      0.671413      1.730500
     11.07393      4.49209      5.55277        -0.846868      1.155502      0.402510
      7.18604      0.13911      2.03251         1.021402      0.260970      0.061153
      8.05131      9.23251      4.34179         0.064648      1.436580     -1.072957
     10.57359      1.91264      2.79952        -0.358252     -0.606146      1.905189
     11.06796      1.84726      5.54244        -0.851760     -1.179751      0.461476
      7.47516      6.69624      1.67649         0.666093     -0.779147     -0.611556
      8.05131      6.70184      4.34179         0.090985     -1.728980     -1.467859
      7.09877      3.17797      2.39204         0.825880      0.248040      1.847823
      7.70108      3.20390      5.14407         2.008849     -0.209501      0.456269
     10.68287      7.97969      1.63166        -1.055276     -0.170503      0.192271
     10.20472      7.96718      3.93431        -1.222713      0.053447     -1.092621
      0.84602      7.91386      5.44461         0.695454      0.078342      0.568036
      0.71494      1.58504      1.32009         0.225097     -0.220510     -3.340290
      1.25497      1.56674      4.10795         1.082955     -1.498544     -1.548707
      3.77725      6.35595      2.56568         0.713469     -1.344110     -1.766506
      0.76505      4.85007      1.37424         0.143239      0.085432     -3.153227
      1.25497      4.78920      4.10795         0.420081      0.384029     -1.473667
      0.79933      3.16222      6.75786         0.777623     -0.024222      4.398547
      3.77725      9.57841      2.56568         0.371257      1.365481     -1.194824
      3.52664      3.19949      1.92950        -0.643324     -0.164054     -2.465945
      4.14113      3.17797      4.62682        -1.805911      0.068900     -0.563576
      0.96992      8.06853      0.31123        -0.041660      0.077053     -4.100537
      1.03518      7.96718      3.08454        -1.238493      0.257146      1.029618
      2.99295      7.78964      5.56545         1.428066     -0.084004      3.629533
      6.23398      1.76106      1.18578        -0.074170     -0.171349     -3.511143
      6.88320      1.56674      4.10795         1.247087     -1.566451     -0.647502
      6.49141      3.27756      6.79582         0.478987      0.307830      3.838763
      9.40548      6.35595      2.56568         0.580191     -0.505024     -0.609874
     10.54138      6.51920      5.42969        -0.785464     -1.007001      2.308415
      6.43657      4.90524      1.41967         0.114116      0.301369     -2.896074
      6.88320      4.78920      4.10795         0.835424      2.005942     -0.798593
      9.40548      9.57841      2.56568         0.266340      0.708194     -0.599988
     10.61925      9.37657      5.45461        -0.574338      1.041351      2.301538
      9.16751      3.17840      1.93535        -0.772677      0.004282     -2.670628
      9.76936      3.17797      4.62682        -2.123743     -0.059671     -0.955465
      6.66514      8.26951      0.57180         0.026790      0.371999     -3.532741
      6.66341      7.96718      3.08454        -0.346517     -1.285462      3.332246
      7.98678      7.96300      5.88183        -0.465997      0.072565      3.922524
    total drift:                                0.245670      0.100421     -0.020080

  FREE ENERGIE OF THE ION-ELECTRON SYSTEM (eV)
  free  energy   TOTEN  =      -249.17504250 eV

  energy  without entropy=     -248.36864929  energy(sigma->0) =     -248.77184589