 vasp.5.4.4.18Apr17-6-g9f103f2a35 (build Aug 13 2019 17:33:20) gamma-only

 executed on             LinuxIFC date 2020.05.11  18:29:25

 INCAR:
 POTCAR:    PAW_PBE Ni_pv 06Sep2000
 POTCAR:    PAW_PBE S 06Sep2000
 POTCAR:    PAW_PBE Ni_pv 06Sep2000
   VRHFIN =Ni:

   TITEL  = PAW_PBE Ni_pv 06Sep2000
   POMASS =   58.690; ZVAL   =   16.000    mass and valenz
   ENMAX  =  367.986; ENMIN  =  275.989 eV

 POTCAR:    PAW_PBE S 06Sep2000
   VRHFIN =S : s2p4

   TITEL  = PAW_PBE S 06Sep2000
   POMASS =   32.066; ZVAL   =    6.000    mass and valenz
   ENMAX  =  258.689; ENMIN  =  194.016 eV

 Optimization of the real space projectors (new method)

 maximal supplied QI-value         = 18.90
 optimisation between [QCUT,QGAM] = [ 10.77, 21.73] = [ 32.49,132.25] Ry
 Optimized for a Real-space Cutoff    1.38 Angstroem

   l    n(q)    QCUT    max X(q) W(low)/X(q) W(high)/X(q)  e(spline)
   1      8    10.771     2.836    0.40E-04    0.29E-04    0.12E-06
   1      8    10.771     4.023    0.10E-03    0.48E-04    0.29E-06
   2      8    10.771    73.368    0.42E-03    0.97E-04    0.44E-06
   2      8    10.771    69.010    0.42E-03    0.99E-04    0.45E-06
   0      9    10.771    54.797    0.10E-03    0.56E-04    0.74E-07
   0      9    10.771    24.266    0.89E-04    0.49E-04    0.67E-07
 Optimization of the real space projectors (new method)

 maximal supplied QI-value         = 19.84
 optimisation between [QCUT,QGAM] = [ 10.71, 21.63] = [ 32.15,130.99] Ry
 Optimized for a Real-space Cutoff    1.19 Angstroem

   l    n(q)    QCUT    max X(q) W(low)/X(q) W(high)/X(q)  e(spline)
   0      8    10.715   187.594    0.41E-03    0.53E-04    0.66E-07
   0      8    10.715   164.243    0.41E-03    0.53E-04    0.65E-07
   1      7    10.715    67.533    0.19E-03    0.59E-03    0.68E-07
   1      7    10.715    50.729    0.19E-03    0.58E-03    0.67E-07
  PAW_PBE Ni_pv 06Sep2000               :
  PAW_PBE S 06Sep2000                   :

 POSCAR: Type_036 Type_136
  positions in cartesian coordinates
 exchange correlation table for  LEXCH =        8
   RHO(1)=    0.500       N(1)  =     2000
   RHO(2)=  100.500       N(2)  =     4000

 ion  position               nearest neighbor table
   1  0.780  0.145  0.121-  49 2.12  63 2.12  64 2.23  50 2.23  38 2.23  41 2.25   2 2.30
   2  0.722  0.145  0.250-  42 2.00  50 2.12  64 2.12   1 2.30  41 2.47  30 2.50  18 2.50
   3  0.225  0.645  0.093-  43 2.01  44 2.22  61 2.22  51 2.22   4 2.33
   4  0.297  0.645  0.216-  62 2.12  52 2.12  44 2.25  51 2.26  61 2.26   3 2.33  27 2.53  15 2.53

   5  0.394  0.145  0.125-  45 2.03  46 2.19  67 2.25  53 2.25   6 2.36
   6  0.470  0.145  0.248-  54 2.10  68 2.10  46 2.25  53 2.26  67 2.26   5 2.36  30 2.53  18 2.53

[...]

  37  0.045  0.145  0.279-  10 2.02   9 2.04  58 2.70  72 2.70
  38  0.911  0.145  0.136-  13 2.10  25 2.10   1 2.23  49 2.64  63 2.64  50 2.75  64 2.75
  39  0.474  0.645  0.087-  11 2.01  14 2.01  26 2.01  27 2.26  15 2.26
  40  0.509  0.645  0.278-  16 2.04  28 2.04  11 2.17  12 2.25  27 2.36  15 2.36
  41  0.647  0.145  0.119-  17 2.02  29 2.02   1 2.25  30 2.26  18 2.26   2 2.47
  42  0.626  0.145  0.321-   2 2.00  18 2.09  30 2.09  68 2.64  54 2.64
  43  0.120  0.645  0.034-   3 2.01  31 2.07  19 2.07
  44  0.164  0.645  0.214-  32 2.07  20 2.07   3 2.22   4 2.25  31 2.36  19 2.36
  45  0.288  0.145  0.066-   5 2.03  33 2.05  21 2.05
  46  0.336  0.145  0.246-  22 2.04  34 2.04   5 2.19   6 2.25  33 2.36  21 2.36
  47  0.819  0.645  0.151-   7 2.25  36 2.26  24 2.26  35 2.31  23 2.31  48 2.68
  48  0.854  0.645  0.312-   8 2.07  24 2.13  36 2.13  47 2.68
  49  0.822  0.306  0.042-  23 2.01  25 2.10   1 2.12  38 2.64
  50  0.801  0.308  0.216-  24 2.12   2 2.12  23 2.14  25 2.16   1 2.23  38 2.75
  51  0.312  0.814  0.119-  26 1.99   3 2.22  21 2.25   4 2.26  27 2.26
  52  0.339  0.811  0.291-  28 2.03  22 2.10   4 2.12  27 2.20
  53  0.484  0.314  0.151-  29 1.99   5 2.25  15 2.25  30 2.26   6 2.26  54 2.67
  54  0.506  0.322  0.314-  16 2.04   6 2.10  30 2.18  42 2.64  53 2.67
  55  0.988  0.825  0.224-  32 2.07   8 2.10   7 2.16  31 2.25  13 2.27  56 2.62
  56  0.972  0.802  0.064-  13 2.08   7 2.10  31 2.10  55 2.62
  57  0.140  0.322  0.111-   9 2.08  33 2.10  19 2.11  58 2.76
  58  0.174  0.314  0.278-  10 2.02  34 2.03  20 2.13   9 2.36  33 2.36  37 2.70  57 2.76
  59  0.657  0.814  0.183-  35 2.10  11 2.20  18 2.25  36 2.26  12 2.26
  60  0.696  0.789  0.353-  36 2.02  12 2.03  70 2.75
  61  0.312  0.477  0.119-  14 1.99   3 2.22  33 2.25   4 2.26  15 2.26
  62  0.339  0.479  0.291-  16 2.03  34 2.10   4 2.12  15 2.20
  63  0.822  0.985  0.042-  35 2.01  13 2.10   1 2.12  38 2.64
  64  0.801  0.982  0.216-  36 2.12   2 2.12  35 2.14  13 2.16   1 2.23  38 2.75
  65  0.988  0.466  0.224-  20 2.07   8 2.10   7 2.16  19 2.25  25 2.27  66 2.62
  66  0.972  0.488  0.064-  25 2.08   7 2.10  19 2.10  65 2.62
  67  0.484  0.977  0.151-  17 1.99   5 2.25  27 2.25  18 2.26   6 2.26  68 2.67
  68  0.506  0.968  0.314-  28 2.04   6 2.10  18 2.18  42 2.64  67 2.67
  69  0.657  0.477  0.183-  23 2.10  11 2.20  30 2.25  24 2.26  12 2.26
  70  0.696  0.502  0.353-  24 2.02  12 2.03  60 2.75
  71  0.140  0.969  0.111-   9 2.08  21 2.10  31 2.11  72 2.76
  72  0.174  0.977  0.278-  10 2.02  22 2.03  32 2.13   9 2.36  21 2.36  37 2.70  71 2.76

  LATTYP: Found a simple orthorhombic cell.
 ALAT       =     9.5784100000
 B/A-ratio  =     1.6880763216
 C/A-ratio  =     1.7627867312

  Lattice vectors:

 A1 = (   0.0000000000,   9.5784100000,   0.0000000000)
 A2 = (   0.0000000000,   0.0000000000, -16.1690871197)
 A3 = ( -16.8846940542,   0.0000000000,   0.0000000000)

Analysis of symmetry for initial positions (statically):
 Subroutine PRICEL returns:
 Original cell was already a primitive cell.

 Routine SETGRP: Setting up the symmetry group for a
 simple orthorhombic supercell.

 Subroutine GETGRP returns: Found  2 space group operations
 (whereof  1 operations were pure point group operations)
 out of a pool of  8 trial point group operations.

The static configuration has the point symmetry C_1 .
 The point group associated with its full space group is C_1h.

Analysis of symmetry for dynamics (positions and initial velocities):
 Subroutine PRICEL returns:
 Original cell was already a primitive cell.

 Routine SETGRP: Setting up the symmetry group for a
 simple orthorhombic supercell.

 Subroutine GETGRP returns: Found  2 space group operations
 (whereof  1 operations were pure point group operations)
 out of a pool of  8 trial point group operations.

The dynamic configuration has the point symmetry C_1 .
 The point group associated with its full space group is C_1h.

 Subroutine INISYM returns: Found  2 space group operations
 (whereof  1 operations are pure point group operations),
 and found     1 'primitive' translations

 KPOINTS: gamma-point-only calculation. no periodi

Automatic generation of k-mesh.
Space group operators:
 irot       det(A)        alpha          n_x          n_y          n_z        tau_x        tau_y        tau_z
    1     1.000000     0.000000     1.000000     0.000000     0.000000     0.000000     0.000000     0.000000
    2    -1.000000   180.000000     0.000000     1.000000     0.000000    -0.000000     0.290594     0.000000

 Subroutine IBZKPT returns following result:

 Found      1 irreducible k-points:

 Following reciprocal coordinates:
            Coordinates               Weight
  0.000000  0.000000  0.000000      1.000000

 Following cartesian coordinates:
            Coordinates               Weight
  0.000000  0.000000  0.000000      1.000000

 SYSTEM =  "Millerite NiS"
 POSCAR =  Type_036 Type_136

 Startparameter for this run:
   NWRITE =      2    write-flag & timer
   PREC   = normal    normal or accurate (medium, high low for compatibility)
   ISTART =      0    job   : 0-new  1-cont  2-samecut
   ICHARG =      2    charge: 1-file 2-atom 10-const
   ISPIN  =      1    spin polarized calculation?
   LNONCOLLINEAR =      F non collinear calculations
   LSORBIT =      F    spin-orbit coupling
   INIWAV =      1    electr: 0-lowe 1-rand  2-diag
   LASPH  =      F    aspherical Exc in radial PAW
   METAGGA=      F    non-selfconsistent MetaGGA calc.

 Electronic Relaxation 1
   ENCUT  =  450.0 eV  33.07 Ry    5.75 a.u.  29.20 16.57 27.97*2*pi/ulx,y,z
   ENINI  =  450.0     initial cutoff
   ENAUG  =  703.4 eV  augmentation charge cutoff
   NELM   =    100;   NELMIN=  2; NELMDL= -5     # of ELM steps
   EDIFF  = 0.1E-03   stopping-criterion for ELM
   LREAL  =      T    real-space projection
   NLSPLINE    = F    spline interpolate recip. space projectors
   LCOMPAT=      F    compatible to vasp.4.4
   GGA_COMPAT  = T    GGA compatible to vasp.4.4-vasp.4.6
   LMAXPAW     = -100 max onsite density
   LMAXMIX     =    2 max onsite mixed and CHGCAR
   VOSKOWN=      0    Vosko Wilk Nusair interpolation
   ROPT   =   -0.00050  -0.00050
 Ionic relaxation
   EDIFFG = 0.1E-02   stopping-criterion for IOM
   NSW    =      0    number of steps for IOM
   NBLOCK =      1;   KBLOCK =      1    inner block; outer block
   IBRION =     -1    ionic relax: 0-MD 1-quasi-New 2-CG
   NFREE  =      0    steps in history (QN), initial steepest desc. (CG)
   ISIF   =      2    stress and relaxation
   IWAVPR =     10    prediction:  0-non 1-charg 2-wave 3-comb
   ISYM   =      2    0-nonsym 1-usesym 2-fastsym
   LCORR  =      T    Harris-Foulkes like correction to forces

   POTIM  = 0.5000    time-step for ionic-motion
   TEIN   =    0.0    initial temperature
   TEBEG  =    0.0;   TEEND  =   0.0 temperature during run
   SMASS  =  -3.00    Nose mass-parameter (am)
   estimated Nose-frequenzy (Omega)   =  0.10E-29 period in steps =****** mass=  -0.652E-26a.u.
   SCALEE = 1.0000    scale energy and forces
   NPACO  =    256;   APACO  = 16.0  distance and # of slots for P.C.
   PSTRESS=    0.0 pullay stress

  Mass of Ions in am
   POMASS =  58.69 32.07
  Ionic Valenz
   ZVAL   =  16.00  6.00
  Atomic Wigner-Seitz radii
  virtual crystal weights
   VCA    =   1.00  1.00
   NELECT =     792.0000    total number of electrons
   NUPDOWN=      -1.0000    fix difference up-down

 DOS related values:
   EMIN   =  10.00;   EMAX   =-10.00  energy-range for DOS
   EFERMI =   0.00
   ISMEAR =     0;   SIGMA  =   0.20  broadening in eV -4-tet -1-fermi 0-gaus

 Electronic relaxation 2 (details)
   IALGO  =     38    algorithm
   LDIAG  =      T    sub-space diagonalisation (order eigenvalues)
   LSUBROT=      F    optimize rotation matrix (better conditioning)
   TURBO    =      0    0=normal 1=particle mesh
   IRESTART =      0    0=no restart 2=restart with 2 vectors
   NREBOOT  =      0    no. of reboots
   NMIN     =      0    reboot dimension
   EREF     =   0.00    reference energy to select bands
   IMIX   =      4    mixing-type and parameters
     AMIX     =   0.40;   BMIX     =  1.00
     AMIX_MAG =   1.60;   BMIX_MAG =  1.00
     AMIN     =   0.10
     WC   =   100.;   INIMIX=   1;  MIXPRE=   1;  MAXMIX= -45

 Intra band minimization:
   WEIMIN = 0.0000     energy-eigenvalue tresh-hold
   EBREAK =  0.53E-07  absolut break condition
   DEPER  =   0.30     relativ break condition

[...]
  Fock        0.00000     0.00000     0.00000     0.00000     0.00000     0.00000
  Total     127.75327   116.99582   137.82163     0.00000     0.00000    -0.92351
  in kB      78.27273    71.68179    84.44148     0.00000     0.00000    -0.56582

 VOLUME and BASIS-vectors are now :
  energy-cutoff  :      450.00
  volume of cell :     2615.00
      direct lattice vectors                 reciprocal lattice vectors
    16.884694054  0.000000000  0.000000000     0.059225237  0.000000000  0.000000000
     0.000000000  9.578410000  0.000000000     0.000000000  0.104401461  0.000000000
     0.000000000  0.000000000 16.169087120     0.000000000  0.000000000  0.061846411

  length of vectors
    16.884694054  9.578410000 16.169087120     0.059225237  0.104401461  0.061846411

 FORCES acting on ions
    electron-ion (+dipol)            ewald-force                    non-local-force                 convergence-correction
   -.449E+03 -.626E-03 0.197E+04   0.446E+03 -.762E-06 -.198E+04   0.415E+01 0.000E+00 0.667E+01   -.222E-01 0.668E-07 -.112E-01
   -.993E+03 -.585E-03 -.231E+04   0.993E+03 -.472E-06 0.232E+04   0.128E+00 0.000E+00 -.573E+01   -.277E-01 -.842E-07 0.106E-01
   0.364E+03 -.802E-03 0.285E+04   -.365E+03 0.842E-07 -.285E+04   0.180E+01 0.000E+00 0.653E+01   0.344E-01 0.577E-07 0.341E-01
   0.739E+03 -.816E-03 -.110E+04   -.740E+03 -.223E-06 0.111E+04   0.117E+01 0.000E+00 -.437E+01   0.136E-01 0.155E-08 -.505E-03
   0.914E+02 -.597E-03 0.234E+04   -.920E+02 0.193E-05 -.235E+04   0.149E+01 0.000E+00 0.706E+01   0.860E-02 -.151E-06 0.162E-01
   0.158E+03 -.849E-03 -.183E+04   -.162E+03 0.347E-06 0.183E+04   0.300E+01 0.000E+00 -.634E+01   -.149E-01 -.216E-06 -.228E-01
   0.592E+03 -.911E-03 0.119E+04   -.596E+03 0.229E-07 -.119E+04   0.316E+01 0.000E+00 0.207E+01   -.662E-03 -.144E-06 -.483E-02
   0.420E+03 -.723E-03 -.330E+04   -.418E+03 -.647E-09 0.330E+04   -.188E+01 0.000E+00 -.130E+01   0.102E-01 -.531E-07 0.509E-02
   0.133E+04 -.763E-03 0.712E+03   -.134E+04 0.644E-08 -.718E+03   0.713E+01 0.000E+00 0.674E+01   0.348E-01 -.187E-06 0.731E-02
   0.101E+04 -.898E-03 -.366E+04   -.101E+04 -.109E-07 0.366E+04   0.190E+01 0.000E+00 -.177E+01   0.351E-01 -.230E-06 0.256E-01
   -.596E+03 -.758E-03 0.159E+04   0.600E+03 0.800E-06 -.160E+04   -.344E+01 0.000E+00 0.529E+01   -.146E-01 -.372E-07 0.161E-01
   -.987E+02 -.810E-03 -.241E+04   0.957E+02 0.354E-06 0.242E+04   0.208E+01 0.000E+00 -.627E+01   0.812E-03 0.290E-07 0.913E-02
   -.641E+03 -.458E+03 0.108E+04   0.646E+03 0.456E+03 -.108E+04   -.452E+01 0.168E+01 0.276E+01   0.263E-02 -.131E-01 -.224E-02
   -.143E+02 0.619E+03 0.391E+04   0.123E+02 -.615E+03 -.391E+04   0.220E+01 -.388E+01 -.216E+01   -.681E-02 -.593E-02 0.244E-01
   -.190E+03 0.526E+03 0.151E+03   0.190E+03 -.530E+03 -.151E+03   0.317E+00 0.316E+01 0.183E+00   -.314E-01 0.129E-01 0.364E-02
   -.133E+03 0.253E+03 -.379E+04   0.131E+03 -.253E+03 0.380E+04   0.301E+01 0.331E+00 0.631E+00   -.203E-01 -.577E-03 -.185E-01
   -.275E+03 0.563E+03 0.355E+04   0.273E+03 -.558E+03 -.355E+04   0.169E+01 -.493E+01 -.162E+01   -.191E-01 0.112E-01 0.208E-02
   -.467E+03 0.582E+03 -.985E+03   0.470E+03 -.588E+03 0.985E+03   -.343E+01 0.530E+01 -.150E+01   -.228E-01 -.202E-02 -.628E-02
   0.185E+03 0.802E+03 0.194E+04   -.184E+03 -.807E+03 -.194E+04   -.107E+01 0.466E+01 0.333E+01   0.279E-01 0.315E-02 0.234E-02
   0.229E+03 0.436E+03 -.265E+04   -.228E+03 -.435E+03 0.265E+04   -.271E+00 0.970E-01 -.139E+01   0.354E-01 0.693E-02 0.103E-01
   0.383E+03 0.383E+03 0.129E+04   -.384E+03 -.386E+03 -.129E+04   0.133E+01 0.253E+01 0.532E+01   0.376E-01 -.190E-01 0.134E-01
   0.884E+02 0.348E+03 -.330E+04   -.888E+02 -.349E+03 0.330E+04   0.624E+00 0.107E+01 -.546E+00   0.330E-03 -.479E-02 -.106E-02
   0.779E+02 -.328E+03 0.249E+04   -.794E+02 0.330E+03 -.250E+04   0.101E+01 -.973E+00 0.679E+01   -.235E-01 0.125E-01 0.217E-02
   -.671E+03 0.450E+03 -.195E+04   0.673E+03 -.452E+03 0.196E+04   -.207E+01 0.214E+01 -.639E+01   -.272E-01 0.158E-01 0.190E-01
   -.641E+03 0.458E+03 0.108E+04   0.646E+03 -.456E+03 -.108E+04   -.452E+01 -.168E+01 0.276E+01   0.263E-02 0.131E-01 -.224E-02
   -.143E+02 -.619E+03 0.391E+04   0.123E+02 0.615E+03 -.391E+04   0.220E+01 0.388E+01 -.216E+01   -.681E-02 0.593E-02 0.244E-01
   -.190E+03 -.526E+03 0.151E+03   0.190E+03 0.530E+03 -.151E+03   0.317E+00 -.316E+01 0.183E+00   -.314E-01 -.129E-01 0.364E-02
   -.133E+03 -.253E+03 -.379E+04   0.131E+03 0.253E+03 0.380E+04   0.301E+01 -.331E+00 0.631E+00   -.203E-01 0.578E-03 -.185E-01
   -.275E+03 -.563E+03 0.355E+04   0.273E+03 0.558E+03 -.355E+04   0.169E+01 0.493E+01 -.162E+01   -.191E-01 -.112E-01 0.208E-02
   -.467E+03 -.582E+03 -.985E+03   0.470E+03 0.588E+03 0.985E+03   -.343E+01 -.530E+01 -.150E+01   -.228E-01 0.202E-02 -.628E-02
   0.185E+03 -.802E+03 0.194E+04   -.184E+03 0.807E+03 -.194E+04   -.107E+01 -.466E+01 0.333E+01   0.279E-01 -.315E-02 0.234E-02
   0.229E+03 -.436E+03 -.265E+04   -.228E+03 0.435E+03 0.265E+04   -.271E+00 -.970E-01 -.139E+01   0.354E-01 -.693E-02 0.103E-01
   0.383E+03 -.383E+03 0.129E+04   -.384E+03 0.386E+03 -.129E+04   0.133E+01 -.253E+01 0.532E+01   0.376E-01 0.190E-01 0.134E-01
   0.884E+02 -.348E+03 -.330E+04   -.888E+02 0.349E+03 0.330E+04   0.624E+00 -.107E+01 -.546E+00   0.330E-03 0.479E-02 -.106E-02
   0.779E+02 0.328E+03 0.249E+04   -.794E+02 -.330E+03 -.250E+04   0.101E+01 0.973E+00 0.679E+01   -.235E-01 -.125E-01 0.217E-02
   -.671E+03 -.450E+03 -.195E+04   0.673E+03 0.452E+03 0.196E+04   -.207E+01 -.214E+01 -.639E+01   -.272E-01 -.158E-01 0.190E-01
   0.691E+03 -.431E-05 -.772E+03   -.697E+03 -.774E-08 0.773E+03   0.155E+01 0.000E+00 0.392E-01   0.376E-02 -.288E-07 0.159E-01
   -.425E+03 0.160E-03 0.376E+03   0.432E+03 -.443E-07 -.376E+03   -.439E+01 0.000E+00 -.151E+00   0.190E-02 0.577E-07 -.708E-03
   -.413E+03 -.583E-05 0.117E+04   0.416E+03 -.105E-05 -.117E+04   -.183E+01 0.000E+00 0.225E+01   -.682E-02 0.147E-07 0.114E-01
   -.270E+03 -.209E-04 -.841E+03   0.270E+03 0.272E-07 0.845E+03   0.110E+01 0.000E+00 -.381E+01   -.358E-02 0.335E-07 -.761E-02
   -.326E+03 0.595E-04 0.858E+03   0.328E+03 -.140E-05 -.862E+03   0.685E-01 0.000E+00 0.369E+01   -.178E-01 0.156E-07 -.341E-02
   -.186E+03 0.469E-05 -.161E+04   0.189E+03 -.847E-07 0.161E+04   -.234E+01 0.000E+00 -.306E+01   -.858E-02 -.438E-07 -.442E-03
   0.133E+03 0.257E-05 0.166E+04   -.133E+03 0.550E-07 -.167E+04   -.195E+00 0.000E+00 0.173E+01   0.971E-02 0.353E-07 -.234E-02
   -.525E+02 0.160E-04 -.377E+03   0.525E+02 0.192E-07 0.380E+03   0.862E+00 0.000E+00 -.242E+01   0.227E-01 0.327E-07 0.494E-02
   0.193E+03 0.502E-05 0.158E+04   -.193E+03 0.420E-06 -.158E+04   0.828E+00 0.000E+00 0.160E+01   0.119E-01 -.415E-07 0.814E-02
   -.791E+02 -.112E-04 -.504E+03   0.792E+02 0.224E-06 0.508E+03   0.144E+01 0.000E+00 -.371E+01   0.131E-02 -.520E-07 -.793E-03
   -.839E+02 0.483E-04 0.629E+03   0.860E+02 -.487E-07 -.633E+03   -.270E+01 0.000E+00 0.219E+01   -.405E-02 0.938E-09 0.400E-02
   -.154E+03 -.174E-04 -.130E+04   0.156E+03 0.555E-08 0.131E+04   -.940E+00 0.000E+00 -.331E+01   -.101E-01 0.683E-08 0.305E-02
   -.164E+03 0.233E+02 0.157E+04   0.164E+03 -.227E+02 -.157E+04   -.945E-01 -.168E+00 0.344E+01   -.469E-02 0.138E-02 -.884E-02
   -.360E+03 0.137E+03 -.641E+03   0.361E+03 -.138E+03 0.646E+03   -.119E+01 0.867E+00 -.314E+01   -.638E-02 0.637E-02 0.697E-02
   0.244E+03 -.252E+03 0.767E+03   -.245E+03 0.255E+03 -.770E+03   -.406E+00 -.164E+01 0.285E+01   0.255E-02 -.780E-02 0.155E-01
   0.286E+03 -.205E+02 -.102E+04   -.288E+03 0.209E+02 0.103E+04   0.913E+00 -.155E+00 -.885E+00   -.655E-02 -.742E-02 -.127E-01
   0.494E+02 -.152E+03 0.498E+03   -.510E+02 0.155E+03 -.500E+03   -.313E+00 -.212E+01 0.203E+01   -.638E-02 -.295E-02 -.832E-03
   -.150E+03 0.230E+02 -.129E+04   0.149E+03 -.222E+02 0.129E+04   0.137E+01 -.902E+00 -.147E+01   -.346E-02 -.164E-02 -.549E-02
   0.222E+03 -.512E+03 -.504E+03   -.223E+03 0.515E+03 0.507E+03   0.343E+00 -.107E+01 -.205E+01   0.603E-02 -.210E-02 0.421E-02
   0.643E+02 -.194E+03 0.143E+04   -.655E+02 0.195E+03 -.144E+04   0.107E+01 -.416E+00 0.368E+01   0.311E-02 -.474E-02 -.550E-02
   0.285E+03 0.988E+02 0.105E+04   -.286E+03 -.100E+03 -.106E+04   0.220E+00 0.132E+01 0.365E+01   0.135E-01 0.112E-01 -.369E-02
   0.303E+03 -.210E+03 -.756E+03   -.304E+03 0.213E+03 0.756E+03   -.512E-02 -.166E+01 -.461E+00   0.164E-01 0.585E-02 0.101E-01
   -.280E+02 -.348E+02 0.270E+03   0.256E+02 0.375E+02 -.272E+03   0.789E+00 -.248E+01 0.108E+01   -.882E-02 -.239E-02 0.639E-02
   -.133E+03 -.263E+03 -.157E+04   0.132E+03 0.266E+03 0.158E+04   0.373E+00 -.249E+01 -.761E+00   -.533E-02 -.623E-02 -.136E-02
   0.244E+03 0.252E+03 0.767E+03   -.245E+03 -.255E+03 -.770E+03   -.406E+00 0.164E+01 0.285E+01   0.255E-02 0.780E-02 0.155E-01
   0.286E+03 0.205E+02 -.102E+04   -.288E+03 -.209E+02 0.103E+04   0.913E+00 0.155E+00 -.885E+00   -.655E-02 0.742E-02 -.127E-01
   -.164E+03 -.233E+02 0.157E+04   0.164E+03 0.227E+02 -.157E+04   -.945E-01 0.168E+00 0.344E+01   -.469E-02 -.138E-02 -.884E-02
   -.360E+03 -.137E+03 -.641E+03   0.361E+03 0.138E+03 0.646E+03   -.119E+01 -.867E+00 -.314E+01   -.638E-02 -.637E-02 0.697E-02
   0.222E+03 0.512E+03 -.504E+03   -.223E+03 -.515E+03 0.507E+03   0.343E+00 0.107E+01 -.205E+01   0.603E-02 0.210E-02 0.421E-02
   0.643E+02 0.194E+03 0.143E+04   -.655E+02 -.195E+03 -.144E+04   0.107E+01 0.416E+00 0.368E+01   0.311E-02 0.474E-02 -.550E-02
   0.494E+02 0.152E+03 0.498E+03   -.510E+02 -.155E+03 -.500E+03   -.313E+00 0.212E+01 0.203E+01   -.638E-02 0.295E-02 -.832E-03
   -.150E+03 -.230E+02 -.129E+04   0.149E+03 0.222E+02 0.129E+04   0.137E+01 0.902E+00 -.147E+01   -.346E-02 0.164E-02 -.549E-02
   -.280E+02 0.348E+02 0.270E+03   0.256E+02 -.375E+02 -.272E+03   0.789E+00 0.248E+01 0.108E+01   -.882E-02 0.239E-02 0.639E-02
   -.133E+03 0.263E+03 -.157E+04   0.132E+03 -.266E+03 0.158E+04   0.373E+00 0.249E+01 -.761E+00   -.533E-02 0.623E-02 -.136E-02
   0.285E+03 -.988E+02 0.105E+04   -.286E+03 0.100E+03 -.106E+04   0.220E+00 -.132E+01 0.365E+01   0.135E-01 -.112E-01 -.369E-02
   0.303E+03 0.210E+03 -.756E+03   -.304E+03 -.213E+03 0.756E+03   -.512E-02 0.166E+01 -.461E+00   0.164E-01 -.585E-02 0.101E-01
   -.178E+02 -.124E-01 -.307E+02   0.171E-11 0.162E-11 -.568E-12   0.179E+02 -.355E-14 0.304E+02   -.371E-01 -.234E-06 0.225E+00

 POSITION                                       TOTAL-FORCE (eV/Angst)
     13.17084      1.39171      1.94975         0.147901      0.000000     -0.850316
     12.19621      1.39171      4.03777         0.604213      0.000000      0.419140
      3.80206      6.18092      1.50492         1.137877      0.000000     -0.096680
      5.02033      6.18092      3.49202        -0.144903      0.000000     -0.108199
      6.66091      1.39171      2.02066         0.853030      0.000000     -0.290918
      7.93172      1.39171      4.00611        -0.512317      0.000000     -0.624141
     16.08224      6.18092      2.46384        -0.806456      0.000000     -0.646770
     16.48596      6.18092      4.81722         0.134372      0.000000      0.792218
      2.10894      1.39171      2.97793         0.629286      0.000000      1.041237
      2.46257      1.39171      5.61066         0.874297      0.000000      2.125128
      9.63192      6.18092      2.58629         0.466638      0.000000     -0.191920
     10.84312      6.18092      4.52020        -0.897960      0.000000     -1.174369
     15.19731      8.87689      2.22290         0.964615     -0.417152      1.139199
      6.65751      4.95321      0.55579         0.214261     -0.457800     -1.117012
      7.17375      4.91558      3.08454         0.037080     -0.255507     -0.446102
      7.54484      4.79771      5.57396         0.371680      0.037095      1.027184
      9.55997      0.16398      1.05659         0.091871     -0.482855     -1.029297
     10.08514      0.12638      3.59863        -0.326803     -0.857365     -0.842845
      1.35096      4.91558      2.05636         0.238668     -0.308995      0.875104
      1.68206      4.72734      4.46847         0.561213      0.337594      1.179842
      4.26235      0.12638      2.57045         0.468440     -0.962917      1.456967
      4.82298      0.01701      5.21199         0.202656     -0.095965      0.746835
     12.84599      4.16621      1.87699        -0.555677      1.407569     -0.310421
     12.99653      4.91558      4.11272         0.467506      0.916091     -0.960459
     15.19731      3.48495      2.22290         0.964615      0.417152      1.139199
      6.65751      7.40863      0.55579         0.214261      0.457800     -1.117012
      7.17375      7.44626      3.08454         0.037080      0.255507     -0.446102
      7.54484      7.56413      5.57396         0.371680     -0.037095      1.027184
      9.55997      2.61945      1.05659         0.091871      0.482855     -1.029297
     10.08514      2.65705      3.59863        -0.326803      0.857365     -0.842845
      1.35096      7.44626      2.05636         0.238668      0.308995      0.875104
      1.68206      7.63450      4.46847         0.561213     -0.337594      1.179842
      4.26235      2.65705      2.57045         0.468440      0.962917      1.456967
      4.82298      2.76641      5.21199         0.202656      0.095965      0.746835
     12.84599      8.19562      1.87699        -0.555677     -1.407569     -0.310421
     12.99653      7.44626      4.11272         0.467506     -0.916091     -0.960459
      0.76548      1.39171      4.51543        -4.172436      0.000000      0.765882
     15.38857      1.39171      2.19881         2.319530      0.000000      0.067265
      8.00634      6.18092      1.40713         1.488191      0.000000     -1.902708
      8.59001      6.18092      4.49167         1.098519      0.000000      0.385821
     10.91773      1.39171      1.92122         1.948621      0.000000     -0.767885
     10.56950      1.39171      5.19363         0.634335      0.000000      3.773653
      2.02532      6.18092      0.55675         0.137359      0.000000     -4.026258
      2.76722      6.18092      3.46349         0.898008      0.000000      1.272643
      4.86800      1.39171      1.06949         0.410803      0.000000     -4.215056
      5.67861      1.39171      3.97758         1.511144      0.000000     -0.131314
     13.82913      6.18092      2.43531        -0.598406      0.000000     -1.417759
     14.42595      6.18092      5.04888         0.915785      0.000000      2.529639
     13.88118      2.92876      0.67845        -0.099886      0.387938     -4.017591
     13.53021      2.95453      3.49795         0.232126     -0.090050      2.433171
      5.26426      7.79215      1.92599        -1.649976      0.894231     -0.382412
      5.72077      7.77002      4.70898        -0.883513      0.198292      1.835744
      8.17565      3.00295      2.44008        -1.912508      0.937987     -0.777258
      8.54516      3.08806      5.08310         0.622301     -0.118413      2.370735
     16.69039      7.89891      3.62808        -0.320788      1.818331      1.451490
     16.41402      7.68540      1.03145        -0.081214      0.639790     -3.118579
      2.36218      3.08415      1.79473        -0.777768     -0.250862     -3.022530
      2.93654      3.00295      4.49645        -0.416225      1.976897     -0.010527
     11.08705      7.79215      2.95417        -1.566784      0.245729     -0.730721
     11.75400      7.55619      5.70202        -0.419990      1.180789      3.885318
      5.26426      4.56969      1.92599        -1.649976     -0.894231     -0.382412
      5.72077      4.59181      4.70898        -0.883513     -0.198292      1.835744
     13.88118      9.43308      0.67845        -0.099886     -0.387938     -4.017591
     13.53021      9.40730      3.49795         0.232126      0.090050      2.433171
     16.69039      4.46292      3.62808        -0.320788     -1.818331      1.451490
     16.41402      4.67643      1.03145        -0.081214     -0.639790     -3.118579
      8.17565      9.35889      2.44008        -1.912508     -0.937987     -0.777258
      8.54516      9.27378      5.08310         0.622301      0.118413      2.370735
     11.08705      4.56969      2.95417        -1.566784     -0.245729     -0.730721
     11.75400      4.80564      5.70202        -0.419990     -1.180789      3.885318
      2.36218      9.27769      1.79473        -0.777768      0.250862     -3.022530
      2.93654      9.35889      4.49645        -0.416225     -1.976897     -0.010527
    total drift:                                0.024372     -0.012383     -0.049212

  FREE ENERGIE OF THE ION-ELECTRON SYSTEM (eV)
  free  energy   TOTEN  =      -336.18479698 eV

  energy  without entropy=     -335.05042344  energy(sigma->0) =     -335.61761021