 vasp.5.4.4.18Apr17-6-g9f103f2a35 (build Aug 13 2019 17:33:20) gamma-only

 executed on             LinuxIFC date 2020.05.11  15:05:56

 INCAR:
 POTCAR:    PAW_PBE Ni_pv 06Sep2000
 POTCAR:    PAW_PBE S 06Sep2000
 POTCAR:    PAW_PBE Ni_pv 06Sep2000
   VRHFIN =Ni:

   TITEL  = PAW_PBE Ni_pv 06Sep2000
   POMASS =   58.690; ZVAL   =   16.000    mass and valenz
   ENMAX  =  367.986; ENMIN  =  275.989 eV

 POTCAR:    PAW_PBE S 06Sep2000
   VRHFIN =S : s2p4

   TITEL  = PAW_PBE S 06Sep2000
   POMASS =   32.066; ZVAL   =    6.000    mass and valenz
   ENMAX  =  258.689; ENMIN  =  194.016 eV

 Optimization of the real space projectors (new method)

 maximal supplied QI-value         = 18.90
 optimisation between [QCUT,QGAM] = [ 10.77, 21.73] = [ 32.49,132.25] Ry
 Optimized for a Real-space Cutoff    1.38 Angstroem

   l    n(q)    QCUT    max X(q) W(low)/X(q) W(high)/X(q)  e(spline)
   1      8    10.771     2.836    0.40E-04    0.29E-04    0.12E-06
   1      8    10.771     4.023    0.10E-03    0.48E-04    0.29E-06
   2      8    10.771    73.368    0.42E-03    0.97E-04    0.44E-06
   2      8    10.771    69.010    0.42E-03    0.99E-04    0.45E-06
   0      9    10.771    54.797    0.10E-03    0.56E-04    0.74E-07
   0      9    10.771    24.266    0.89E-04    0.49E-04    0.67E-07
 Optimization of the real space projectors (new method)

 maximal supplied QI-value         = 19.84
 optimisation between [QCUT,QGAM] = [ 10.71, 21.63] = [ 32.15,130.99] Ry
 Optimized for a Real-space Cutoff    1.19 Angstroem

   l    n(q)    QCUT    max X(q) W(low)/X(q) W(high)/X(q)  e(spline)
   0      8    10.715   187.594    0.41E-03    0.53E-04    0.66E-07
   0      8    10.715   164.243    0.41E-03    0.53E-04    0.65E-07
   1      7    10.715    67.533    0.19E-03    0.59E-03    0.68E-07
   1      7    10.715    50.729    0.19E-03    0.58E-03    0.67E-07
  PAW_PBE Ni_pv 06Sep2000               :
  PAW_PBE S 06Sep2000                   :

 POSCAR: Type_048 Type_148
  positions in cartesian coordinates
 exchange correlation table for  LEXCH =        8
   RHO(1)=    0.500       N(1)  =     2000
   RHO(2)=  100.500       N(2)  =     4000

 ion  position               nearest neighbor table
   1  0.261  0.479  0.295-  73 2.25  58 2.26  80 2.26  59 2.36  54 2.36   7 2.53  20 2.53
   2  0.355  0.385  0.426-  60 2.08  65 2.20  74 2.25  54 2.26  59 2.26   8 2.53  21 2.53
   3  0.991  0.192  0.094-  63 2.00  81 2.02  64 2.09  17 2.38   4 2.42  29 2.47
   4  0.167  0.073  0.165-  55 2.13  64 2.25  81 2.26  56 2.36  82 2.36   3 2.42  36 2.53  30 2.53
                            29 2.53
   5  0.104  0.954  0.451-  50 2.05  77 2.05  72 2.11  19 2.43  34 2.44
   6  0.274  0.333  0.130-  51 1.99  55 2.08  57 2.27  52 2.36  58 2.36  11 2.53  27 2.53
   7  0.368  0.239  0.261-  56 2.25  58 2.26  52 2.26  59 2.36  61 2.36   1 2.53  20 2.53
   8  0.462  0.145  0.391-  60 2.09  78 2.25  59 2.26  61 2.26  62 2.36  15 2.44   2 2.53  21 2.53

   9  0.000  0.372  0.261-  58 2.25  64 2.26  92 2.26  49 2.36  66 2.36  18 2.53  12 2.53
  10  0.094  0.278  0.391-  53 2.07  50 2.12  59 2.25  49 2.26  66 2.26  13 2.53  19 2.53
  11  0.406  0.465  0.130-  51 1.98  69 2.25  79 2.26  52 2.36  80 2.36  27 2.53   6 2.53
  12  0.761  0.479  0.295-  85 2.25  70 2.26  92 2.26  71 2.36  66 2.36  18 2.53   9 2.53
  13  0.855  0.385  0.426-  53 2.04  86 2.25  66 2.26  71 2.26  19 2.53  10 2.53
  14  0.667  0.073  0.165-  93 2.06  67 2.11  52 2.25  68 2.36  94 2.36  48 2.53  42 2.53
  15  0.520  0.075  0.494-  60 2.01  62 2.02  89 2.08   8 2.44
  16  0.718  0.532  0.052-  63 1.98  69 2.04  91 2.06  39 2.41
  17  0.774  0.333  0.130-  67 2.09  69 2.26  63 2.29  64 2.36  70 2.36   3 2.38  23 2.53  40 2.53

[...]

  33  0.000  0.872  0.261-  82 2.25  88 2.26  68 2.26  73 2.36  90 2.36  43 2.53  37 2.53
  34  0.094  0.778  0.391-  77 2.11  83 2.25  73 2.26  90 2.26  35 2.34  74 2.36   5 2.44  38 2.53
                            44 2.53
  35  0.240  0.703  0.472-  84 2.03  74 2.09  77 2.15  34 2.34
  36  0.406  0.965  0.130-  93 2.11  75 2.14  55 2.14  76 2.36  56 2.36   4 2.53  30 2.53
  37  0.761  0.979  0.295-  61 2.25  94 2.26  68 2.26  95 2.36  90 2.36  43 2.53  33 2.53
  38  0.855  0.885  0.426-  77 2.16  96 2.16  62 2.25  90 2.26  95 2.26  44 2.53  34 2.53
  39  0.515  0.701  0.093-  75 2.01  76 2.08  69 2.14  40 2.34  16 2.41  91 2.46
  40  0.667  0.573  0.165-  91 2.10  76 2.25  69 2.26  39 2.34  92 2.36  70 2.36  23 2.53  17 2.53

[...]

  47  0.672  0.721  0.492-  86 2.04  89 2.04  96 2.06  46 2.42
  48  0.906  0.965  0.130-  87 2.05  67 2.08  81 2.25  88 2.36  68 2.36  14 2.53  42 2.53
  49  0.073  0.167  0.311-  24 2.25  10 2.26  19 2.26   9 2.36  18 2.36  50 2.70
  50  0.180  0.077  0.419-   5 2.05  10 2.12  25 2.18  19 2.30  49 2.70
  51  0.361  0.379  0.063-  11 1.98   6 1.99
  52  0.479  0.261  0.181-  14 2.25   7 2.26  20 2.26  11 2.36   6 2.36
  53  0.017  0.368  0.472-  28 2.02  13 2.04  10 2.07
  54  0.436  0.472  0.355-  32 2.25   2 2.26  21 2.26   1 2.36  20 2.36
  55  0.258  0.162  0.109-  29 2.04   6 2.08   4 2.13  36 2.14
  56  0.342  0.066  0.225-   7 2.25  24 2.26  45 2.26   4 2.36  36 2.36
  57  0.074  0.503  0.105-  27 2.06  23 2.19  26 2.20   6 2.27
  58  0.174  0.397  0.225-   9 2.25   1 2.26   7 2.26   6 2.36  27 2.36
  59  0.268  0.303  0.355-  10 2.25   8 2.26   2 2.26   7 2.36   1 2.36  60 2.68
  60  0.346  0.224  0.467-  15 2.01   2 2.08   8 2.09  59 2.68  65 2.75
  61  0.573  0.167  0.311-  37 2.25  21 2.26   8 2.26  20 2.36   7 2.36
  62  0.667  0.073  0.442-  15 2.02  22 2.18  38 2.25  21 2.36   8 2.36  65 2.60
  63  0.889  0.368  0.054-  16 1.98   3 2.00  23 2.10  17 2.29
  64  0.979  0.261  0.181-   3 2.09   4 2.25  18 2.26   9 2.26  23 2.36  17 2.36
  65  0.534  0.314  0.481-  41 2.02  21 2.12  22 2.17   2 2.20  62 2.60  60 2.75
  66  0.936  0.472  0.355-  44 2.25  13 2.26  10 2.26  12 2.36   9 2.36
  67  0.763  0.157  0.112-  48 2.08  17 2.09  14 2.11  68 2.75
  68  0.842  0.066  0.225-  18 2.25  37 2.26  33 2.26  14 2.36  48 2.36  67 2.75
  69  0.580  0.491  0.094-  16 2.04  39 2.14  11 2.25  17 2.26  40 2.26
  70  0.674  0.397  0.225-  20 2.25  12 2.26  18 2.26  17 2.36  40 2.36
  71  0.768  0.303  0.355-  21 2.25  19 2.26  13 2.26  18 2.36  12 2.36
  72  0.945  0.130  0.482-  22 2.01  19 2.06   5 2.11
  73  0.073  0.667  0.311-   1 2.25  34 2.26  44 2.26  33 2.36  43 2.36
  74  0.167  0.573  0.442-  28 2.07  35 2.09   2 2.25  34 2.36  44 2.36  77 2.72
  75  0.374  0.867  0.056-  29 2.00  39 2.01  36 2.14  30 2.15
  76  0.479  0.761  0.181-  39 2.08  40 2.25  31 2.26  45 2.26  36 2.36  30 2.36
  77  0.030  0.828  0.480-   5 2.05  34 2.11  35 2.15  38 2.16  74 2.72
  78  0.436  0.972  0.355-   8 2.25  25 2.26  46 2.26  24 2.36  45 2.36  89 2.73
  79  0.240  0.665  0.106-  27 2.07  30 2.17  26 2.21  11 2.26
  80  0.342  0.566  0.225-  31 2.25   1 2.26  20 2.26  27 2.36  11 2.36
  81  0.080  0.991  0.094-   3 2.02  29 2.05  48 2.25  30 2.26   4 2.26
  82  0.174  0.897  0.225-  33 2.25  24 2.26  31 2.26  30 2.36   4 2.36
  83  0.268  0.803  0.355-  34 2.25  32 2.26  25 2.26  31 2.36  24 2.36
  84  0.420  0.702  0.480-  35 2.03  32 2.09  25 2.22  41 2.23  86 2.64
  85  0.573  0.667  0.311-  12 2.25  46 2.26  32 2.26  45 2.36  31 2.36
  86  0.667  0.573  0.442-  47 2.04  41 2.08  13 2.25  46 2.36  32 2.36  84 2.64
  87  0.868  0.872  0.060-  26 2.03  48 2.05  42 2.05
  88  0.979  0.761  0.181-  26 2.10  27 2.25  43 2.26  33 2.26  48 2.36  42 2.36
  89  0.517  0.899  0.470-  47 2.04  15 2.08  25 2.14  46 2.16  78 2.73
  90  0.936  0.972  0.355-  19 2.25  38 2.26  34 2.26  37 2.36  33 2.36
  91  0.745  0.665  0.106-  16 2.06  40 2.10  42 2.13  23 2.23  39 2.46
  92  0.842  0.566  0.225-  43 2.25  12 2.26   9 2.26  40 2.36  23 2.36
  93  0.583  0.981  0.112-  14 2.06  42 2.09  36 2.11  94 2.74
  94  0.674  0.897  0.225-  45 2.25  37 2.26  43 2.26  42 2.36  14 2.36  93 2.74
  95  0.768  0.803  0.355-  46 2.25  44 2.26  38 2.26  43 2.36  37 2.36  96 2.79
  96  0.852  0.717  0.471-  47 2.06  28 2.06  44 2.12  38 2.16  95 2.79

  LATTYP: Found a base centered orthorhombic cell.
 ALAT       =    11.8257374459
 B/A-ratio  =     1.6199260857
 C/A-ratio  =     1.9043172636

  Lattice vectors:

 A1 = (  11.2564630382,   0.0000000000,   0.0000000000)
 A2 = (  -5.0445621212, -10.0628203371,   0.0000000000)
 A3 = (   0.0000000000,   0.0000000000, -22.5199559732)

Analysis of symmetry for initial positions (statically):
 Subroutine PRICEL returns:
 Original cell was already a primitive cell.

 Routine SETGRP: Setting up the symmetry group for a
 base centered orthorhombic supercell.

 Subroutine GETGRP returns: Found  1 space group operations
 (whereof  1 operations were pure point group operations)
 out of a pool of  8 trial point group operations.

The static configuration has the point symmetry C_1 .

Analysis of symmetry for dynamics (positions and initial velocities):
 Subroutine PRICEL returns:
 Original cell was already a primitive cell.

 Routine SETGRP: Setting up the symmetry group for a
 base centered orthorhombic supercell.

 Subroutine GETGRP returns: Found  1 space group operations
 (whereof  1 operations were pure point group operations)
 out of a pool of  8 trial point group operations.

The dynamic configuration has the point symmetry C_1 .

 Subroutine INISYM returns: Found  1 space group operations
 (whereof  1 operations are pure point group operations),
 and found     1 'primitive' translations

 KPOINTS: gamma-point-only calculation. no periodi

Automatic generation of k-mesh.
Space group operators:
 irot       det(A)        alpha          n_x          n_y          n_z        tau_x        tau_y        tau_z
    1     1.000000     0.000000     1.000000     0.000000     0.000000     0.000000     0.000000     0.000000

 Subroutine IBZKPT returns following result:

 Found      1 irreducible k-points:

 Following reciprocal coordinates:
            Coordinates               Weight
  0.000000  0.000000  0.000000      1.000000

 Following cartesian coordinates:
            Coordinates               Weight
  0.000000  0.000000  0.000000      1.000000

 SYSTEM =  "Millerite NiS"
 POSCAR =  Type_048 Type_148

 Startparameter for this run:
   NWRITE =      2    write-flag & timer
   PREC   = normal    normal or accurate (medium, high low for compatibility)
   ISTART =      0    job   : 0-new  1-cont  2-samecut
   ICHARG =      2    charge: 1-file 2-atom 10-const
   ISPIN  =      1    spin polarized calculation?
   LNONCOLLINEAR =      F non collinear calculations
   LSORBIT =      F    spin-orbit coupling
   INIWAV =      1    electr: 0-lowe 1-rand  2-diag
   LASPH  =      F    aspherical Exc in radial PAW
   METAGGA=      F    non-selfconsistent MetaGGA calc.

 Electronic Relaxation 1
   ENCUT  =  450.0 eV  33.07 Ry    5.75 a.u.  19.47 19.47 38.95*2*pi/ulx,y,z
   ENINI  =  450.0     initial cutoff
   ENAUG  =  703.4 eV  augmentation charge cutoff
   NELM   =    100;   NELMIN=  2; NELMDL= -5     # of ELM steps
   EDIFF  = 0.1E-03   stopping-criterion for ELM
   LREAL  =      T    real-space projection
   NLSPLINE    = F    spline interpolate recip. space projectors
   LCOMPAT=      F    compatible to vasp.4.4
[...]
     0.000000000  0.000000000 22.519955973     0.000000000  0.000000000  0.044405060

  length of vectors
    11.256463038 11.256463038 22.519955973     0.099375718  0.099375718  0.044405060

 FORCES acting on ions
    electron-ion (+dipol)            ewald-force                    non-local-force                 convergence-correction
   0.277E+03 -.310E+03 -.528E+03   -.277E+03 0.311E+03 0.528E+03   0.790E+00 -.109E+01 0.323E+00   -.549E-02 -.201E-01 -.242E+00
   0.512E+03 -.318E+03 -.424E+04   -.515E+03 0.322E+03 0.424E+04   0.240E+01 -.267E+01 -.136E+01   0.658E-01 -.735E-01 0.249E+00
   0.182E+03 -.553E+01 0.529E+04   -.183E+03 0.387E+01 -.530E+04   0.420E+00 0.131E+01 0.498E+01   0.154E+00 0.161E+00 -.408E+00
   0.456E+02 -.308E+03 0.241E+04   -.457E+02 0.307E+03 -.241E+04   0.536E+00 -.119E+00 -.275E+01   -.428E+00 0.333E+00 -.972E+00
   -.229E+03 -.347E+03 -.517E+04   0.228E+03 0.345E+03 0.517E+04   0.161E+01 0.161E+01 -.301E+01   0.170E+00 -.178E-01 0.310E+00
   0.344E+02 0.434E+03 0.434E+04   -.356E+02 -.434E+03 -.434E+04   0.553E+00 0.102E+01 0.325E+01   -.389E+00 -.979E-01 -.349E+00
   0.203E+03 0.443E+03 0.655E+03   -.203E+03 -.443E+03 -.655E+03   0.708E+00 0.389E+00 0.862E+00   -.118E+00 -.610E-02 -.238E+00
   0.343E+03 0.386E+03 -.269E+04   -.344E+03 -.388E+03 0.268E+04   0.154E+01 0.265E+01 0.180E+01   0.217E-01 -.191E+00 0.278E+00
   -.580E+03 -.356E+02 0.500E+03   0.581E+03 0.370E+02 -.499E+03   -.109E+01 -.114E+01 -.136E+00   -.948E-01 -.602E-01 -.574E+00
   -.591E+03 0.123E+02 -.313E+04   0.594E+03 -.100E+02 0.313E+04   -.326E+01 -.180E+01 -.110E+01   0.963E-01 0.132E+00 0.401E-01
   -.398E+03 0.236E+03 0.431E+04   0.400E+03 -.235E+03 -.431E+04   -.151E+01 0.518E-01 0.324E+01   0.300E+00 0.192E+00 -.355E+00
   0.204E+03 -.387E+03 -.595E+03   -.204E+03 0.388E+03 0.594E+03   0.563E+00 -.125E+01 0.790E+00   -.258E-01 0.898E-01 -.363E+00
   0.393E+02 -.294E+03 -.433E+04   -.404E+02 0.297E+03 0.433E+04   -.366E+00 -.314E+01 -.143E+01   -.475E-01 0.361E+00 0.258E+00
   0.374E+03 -.559E+03 0.324E+04   -.377E+03 0.563E+03 -.324E+04   0.212E+01 -.334E+01 0.200E+01   0.550E-01 0.291E+00 -.227E+00
   0.138E+03 0.109E+03 -.604E+04   -.139E+03 -.110E+03 0.604E+04   0.140E+01 0.946E-01 0.219E+01   -.282E-01 -.242E+00 0.412E+00
   -.433E+01 -.689E+02 0.645E+04   0.359E+01 0.710E+02 -.646E+04   0.315E+00 -.110E+01 0.483E+01   0.296E-01 -.148E+00 -.161E+00
   0.796E+03 0.455E+03 0.397E+04   -.801E+03 -.456E+03 -.397E+04   0.357E+01 0.232E+01 -.289E+00   0.825E+00 0.837E-01 -.852E+00
   0.292E+03 0.433E+03 0.528E+03   -.293E+03 -.434E+03 -.528E+03   0.861E+00 0.504E+00 0.496E+00   0.140E+00 0.933E-01 -.632E+00
   0.712E+02 0.959E+02 -.279E+04   -.739E+02 -.954E+02 0.279E+04   0.258E+01 -.125E+00 0.109E+01   -.172E-01 0.117E+00 -.586E-01
   -.446E+03 0.572E+02 0.708E+03   0.447E+03 -.569E+02 -.709E+03   -.837E+00 -.421E+00 0.936E+00   0.571E-01 0.979E-01 -.254E+00
   -.220E+03 0.754E+02 -.250E+04   0.222E+03 -.743E+02 0.249E+04   -.167E+01 -.986E+00 0.314E+01   -.434E-01 0.423E-01 0.153E+00
   -.228E+03 0.177E+03 -.556E+04   0.230E+03 -.181E+03 0.556E+04   -.194E+01 0.428E+01 -.135E+01   -.237E+00 0.109E+00 0.325E+00
   -.825E+03 -.125E+03 0.394E+04   0.831E+03 0.127E+03 -.394E+04   -.456E+01 -.136E+01 0.892E+00   -.552E+00 -.471E+00 -.752E+00
   0.158E+03 -.456E+03 -.547E+03   -.158E+03 0.456E+03 0.546E+03   0.670E+00 -.884E+00 0.134E+01   0.697E-01 -.436E-01 -.402E+00
   -.176E+02 -.590E+03 -.430E+04   0.166E+02 0.590E+03 0.430E+04   0.989E-01 -.671E+00 -.129E+01   0.411E+00 -.685E-01 0.267E+00
   -.650E+02 0.142E+03 0.563E+04   0.648E+02 -.142E+03 -.564E+04   0.507E+00 -.871E+00 0.828E+01   0.158E+00 -.179E+00 -.422E+00
   0.509E+02 -.221E+02 0.279E+04   -.503E+02 0.209E+02 -.278E+04   -.179E+00 0.409E+00 -.162E+01   -.596E-01 0.520E-01 -.369E+00
   -.725E+02 0.401E+03 -.590E+04   0.719E+02 -.404E+03 0.590E+04   0.101E+01 0.267E+01 0.297E+01   -.250E+00 0.916E-01 0.416E+00
   -.208E+03 -.246E+03 0.642E+04   0.208E+03 0.250E+03 -.643E+04   0.467E+00 -.305E+01 0.417E+01   -.582E+00 0.429E+00 0.310E-01
   0.518E+03 0.523E+03 0.396E+04   -.523E+03 -.526E+03 -.396E+04   0.397E+01 0.300E+01 0.421E+00   0.153E+00 0.254E+00 -.436E+00
   0.251E+03 0.473E+03 0.565E+03   -.253E+03 -.474E+03 -.565E+03   0.141E+01 0.562E+00 0.408E+00   0.123E+00 0.753E-01 -.438E+00
   0.100E+03 0.263E+03 -.255E+04   -.102E+03 -.264E+03 0.254E+04   0.189E+01 0.105E+01 0.292E+01   0.246E+00 -.167E-02 0.204E+00
   -.447E+03 -.213E+02 0.594E+03   0.448E+03 0.224E+02 -.594E+03   -.134E+01 -.951E+00 -.808E-01   0.167E+00 0.601E-01 -.338E+00
   -.121E+03 0.164E+03 -.248E+04   0.122E+03 -.164E+03 0.248E+04   -.156E+01 -.434E+00 0.290E+01   -.128E+00 -.952E-01 -.358E-01
   -.458E+02 0.327E+03 -.573E+04   0.499E+02 -.327E+03 0.573E+04   -.462E+01 0.891E+00 -.193E+01   0.252E+00 -.168E+00 0.414E+00
   -.919E+03 -.313E+03 0.402E+04   0.925E+03 0.314E+03 -.402E+04   -.516E+01 -.115E+01 0.541E+00   -.538E+00 -.106E+00 -.423E+00
   0.308E+03 -.415E+03 -.516E+03   -.309E+03 0.416E+03 0.516E+03   0.625E+00 -.100E+01 -.156E+00   -.420E-01 0.174E-01 -.664E-01
   0.358E+03 -.423E+03 -.425E+04   -.359E+03 0.427E+03 0.425E+04   0.121E+01 -.346E+01 -.735E+00   -.412E+00 -.924E-01 0.290E+00
   0.179E+03 -.123E+03 0.534E+04   -.179E+03 0.121E+03 -.534E+04   0.147E+00 0.251E+01 0.598E+01   0.245E+00 -.413E+00 -.341E+00
   0.178E+03 -.188E+03 0.238E+04   -.179E+03 0.186E+03 -.237E+04   0.345E+00 0.657E+00 -.323E+01   -.122E-02 -.145E+00 -.861E+00
   -.107E+03 0.880E+02 -.550E+04   0.107E+03 -.894E+02 0.550E+04   0.791E-01 0.170E+01 -.267E+01   0.147E+00 0.602E-01 0.342E+00
   0.395E+03 0.824E+02 0.424E+04   -.398E+03 -.823E+02 -.424E+04   0.243E+01 -.339E+00 0.343E+01   -.171E+00 -.390E+00 -.453E+00
   0.264E+03 0.429E+03 0.554E+03   -.265E+03 -.429E+03 -.554E+03   0.132E+01 0.634E+00 -.599E+00   -.726E-01 -.123E+00 -.146E+00
   0.229E+03 0.432E+03 -.265E+04   -.230E+03 -.435E+03 0.265E+04   0.113E+01 0.282E+01 0.209E+01   -.263E+00 -.572E-01 0.295E+00
   -.578E+03 -.965E+02 0.546E+03   0.579E+03 0.978E+02 -.545E+03   -.125E+01 -.109E+01 -.282E+00   -.196E+00 -.101E+00 -.278E+00
   -.490E+03 -.620E+02 -.265E+04   0.493E+03 0.620E+02 0.264E+04   -.310E+01 0.290E+00 0.223E+01   0.407E-01 -.824E-03 0.471E+00
   -.157E+03 0.111E+03 -.600E+04   0.158E+03 -.110E+03 0.600E+04   -.636E+00 -.321E+00 0.256E+01   -.458E-01 0.887E-01 0.380E+00
   -.198E+03 -.222E+03 0.420E+04   0.199E+03 0.224E+03 -.420E+04   -.782E+00 -.198E+01 0.320E+01   0.716E+00 0.339E+00 -.484E+00
   -.975E+02 0.805E+02 -.202E+03   0.985E+02 -.819E+02 0.200E+03   -.133E+01 0.182E+01 0.632E+00   0.496E-01 -.175E-01 -.190E+00
   -.251E+03 -.134E+03 -.157E+04   0.254E+03 0.134E+03 0.157E+04   -.146E+01 0.340E+00 0.806E+00   0.131E+00 -.405E-01 0.487E-01
   -.844E+02 0.162E+03 0.244E+04   0.850E+02 -.163E+03 -.245E+04   -.229E+00 -.638E-01 0.694E+00   -.889E-02 0.950E-02 -.175E+00
   -.842E+02 0.146E+03 0.120E+04   0.851E+02 -.148E+03 -.120E+04   -.615E+00 0.122E+01 0.144E+01   -.113E-01 0.395E-01 -.883E-01
   -.954E+02 0.174E+03 -.223E+04   0.961E+02 -.176E+03 0.224E+04   0.421E-01 0.478E+00 -.184E+01   0.192E-01 0.131E+00 0.160E+00
   -.178E+02 -.118E+03 -.626E+03   0.183E+02 0.120E+03 0.625E+03   -.522E+00 -.246E+01 0.259E+00   0.255E-01 0.316E-02 -.171E-01
   -.290E+03 -.297E+03 0.181E+04   0.292E+03 0.300E+03 -.181E+04   -.653E+00 -.102E+01 0.977E+00   -.334E+00 -.581E-01 -.165E+00
   -.128E+03 -.185E+03 0.540E+03   0.129E+03 0.187E+03 -.540E+03   -.910E+00 -.248E+01 0.960E+00   -.119E+00 -.252E-01 -.159E+00
   0.636E+02 0.119E+03 0.200E+04   -.653E+02 -.120E+03 -.200E+04   0.374E+00 0.871E-01 0.345E+01   -.147E+00 -.497E-01 -.149E+00
   0.133E+03 0.129E+02 0.564E+03   -.136E+03 -.129E+02 -.564E+03   0.271E+01 -.196E+00 0.763E+00   -.543E-01 -.214E-01 -.132E+00
   0.190E+03 0.363E+01 -.735E+03   -.194E+03 -.335E+01 0.734E+03   0.293E+01 0.182E-01 -.296E+00   0.600E-02 -.190E-02 -.415E-01
   0.411E+03 -.759E+02 -.213E+04   -.417E+03 0.760E+02 0.213E+04   0.244E+01 0.261E+00 -.111E+01   0.661E-01 -.978E-01 0.171E+00
[...]
   0.115E+03 0.776E+01 -.604E+03   -.117E+03 -.754E+01 0.602E+03   0.211E+01 -.501E+00 0.943E+00   0.118E+00 0.152E-01 -.871E-01
   -.821E+02 -.684E+02 -.237E+04   0.826E+02 0.700E+02 0.237E+04   -.138E+01 -.152E+01 -.345E+01   0.188E+00 -.125E-01 0.138E+00
   -.932E+02 0.114E+03 -.184E+03   0.944E+02 -.116E+03 0.182E+03   -.101E+01 0.210E+01 0.146E+01   0.905E-02 0.576E-02 -.962E-01
   -.168E+03 0.137E+03 -.165E+04   0.171E+03 -.139E+03 0.165E+04   -.158E+01 -.280E-01 -.176E+01   0.388E-01 0.115E+00 0.205E+00
   0.115E+03 -.153E+03 0.252E+04   -.116E+03 0.154E+03 -.252E+04   0.387E+00 -.801E+00 0.175E+01   0.125E+00 -.464E-01 -.253E+00
   -.332E+02 0.723E+02 0.914E+03   0.337E+02 -.731E+02 -.912E+03   -.826E+00 0.137E+01 -.439E+00   0.122E+00 -.824E-01 -.133E+00
   0.476E+02 -.174E+03 -.207E+04   -.476E+02 0.175E+03 0.207E+04   0.153E+00 -.408E+00 -.134E+01   0.879E-01 -.780E-01 0.177E+00
   -.215E+01 -.156E+03 -.645E+03   0.313E+01 0.159E+03 0.645E+03   -.131E+01 -.245E+01 0.473E-01   -.687E-01 -.157E-02 -.755E-01
   -.229E+03 -.292E+03 0.183E+04   0.232E+03 0.295E+03 -.183E+04   -.183E+01 -.930E+00 0.595E+00   -.288E+00 -.364E+00 -.238E+00
   -.959E+02 -.154E+03 0.514E+03   0.971E+02 0.157E+03 -.514E+03   -.986E+00 -.267E+01 0.870E+00   -.124E+00 -.919E-01 -.237E+00
   0.408E+02 -.198E+03 0.197E+04   -.412E+02 0.200E+03 -.198E+04   -.483E+00 -.134E+01 0.401E+01   -.197E+00 0.325E-02 -.190E+00
   0.159E+03 -.475E+02 0.566E+03   -.161E+03 0.478E+02 -.566E+03   0.255E+01 -.431E+00 0.687E+00   -.109E+00 -.327E-01 0.206E-02
   0.167E+03 -.154E+02 -.689E+03   -.170E+03 0.156E+02 0.688E+03   0.307E+01 0.237E-01 -.387E+00   -.544E-01 -.161E-01 0.802E-01
   0.611E+02 -.768E+02 -.210E+04   -.618E+02 0.768E+02 0.211E+04   0.450E+00 0.107E+00 -.188E+01   -.169E+00 -.368E-01 0.161E+00
   -.106E+02 0.158E+02 -.598E+02   0.203E-11 -.233E-11 0.109E-10   0.106E+02 -.160E+02 0.695E+02   -.173E+00 0.154E+00 -.951E+01

 POSITION                                       TOTAL-FORCE (eV/Angst)
      5.35228      4.81788      6.64784         0.083012     -0.174014     -0.049107
      5.93595      3.87238      9.58390         0.225900      1.145734     -0.975187
     12.12234      1.93193      2.12005         0.196671     -0.187763     -0.843662
      2.24633      0.73197      3.71178        -0.024001     -0.078821      1.925092
      5.98182      9.59979     10.15086         0.591433      0.078835      0.690558
      4.76861      3.35453      2.93606        -1.005105      0.130706      2.100349
      5.35228      2.40903      5.87212        -0.018575      0.009629      0.011756
      5.93595      1.46353      8.80817         0.171469      0.073271     -2.093768
      1.87746      3.73836      5.87212         0.135827      0.176627      0.073153
      2.46113      2.79286      8.80817         0.031151      0.563417     -1.652857
      6.92203      4.68386      2.93606         1.129419      0.989602      1.958742
     10.98051      4.81788      6.64784         0.073796     -0.196002      0.010299
     11.56418      3.87238      9.58390        -1.478689      0.139380     -1.286944
      7.87456      0.73197      3.71178        -0.069626      0.667877      1.887177
      6.22915      0.75823     11.12201        -0.029184     -0.795930      1.617346
     10.76659      5.35200      1.17739        -0.400592      0.844233     -1.834632
     10.39684      3.35453      2.93606        -0.394074      0.536252      1.045842
     10.98051      2.40903      5.87212        -0.049030      0.067440     -0.059326
     11.56418      1.46353      8.80817        -0.082678      0.421474     -1.926128
      7.50570      3.73836      5.87212        -0.079903      0.027252     -0.088195
      8.08937      2.79286      8.80817        -0.417441      0.182899     -2.019542
      9.47123      2.10321     10.50826        -0.249452      0.166139      0.238352
     12.55026      4.68386      2.93606         1.100436      0.411154      1.830902
      7.87456      9.84929      6.64784         0.196438     -0.220860     -0.108534
      8.45823      8.90379      9.58390        -0.492018     -0.184224     -0.553847
      3.91414      7.16581      2.05679         0.431749     -0.759365     -0.724714
      4.76861      5.76338      3.71178         0.440218     -0.663210      3.184211
      2.97770      5.46107     10.94620         0.177589      0.158386      1.233953
      2.61739      0.43956      1.22279        -0.230520      1.158264     -1.651469
      7.29089      8.38594      2.93606        -0.458548     -0.395302      1.145092
      7.87456      7.44044      5.87212        -0.114165      0.039926     -0.070949
      8.45823      6.49494      8.80817         0.146867      0.257723     -1.911758
      4.39975      8.76977      5.87212         0.078741      0.140927     -0.017905
      4.98341      7.82427      8.80817        -0.528574     -0.492707     -2.418735
      6.25088      7.07166     10.62555        -0.263984      0.187802      0.740890
      9.44431      9.71527      2.93606         0.853187     -0.286248      1.605825
     13.50279      9.84929      6.64784         0.081281     -0.213290     -0.188084
     14.08646      8.90379      9.58390        -0.552174      0.312410     -0.858492
      9.33277      7.05894      2.08315         0.433998     -0.123289     -0.707769
     10.39684      5.76338      3.71178        -0.196466     -0.689540      2.336353
      8.59324      4.88288     10.48406         0.101701      0.319788      0.267836
     12.91912      8.38594      2.93606        -0.516807     -0.706205      1.777786
     13.50279      7.44044      5.87212        -0.160860     -0.001018     -0.081223
     14.08646      6.49494      8.80817        -0.101633      0.228267     -2.082795
     10.02798      8.76977      5.87212         0.103226      0.092874      0.101443
     10.61165      7.82427      8.80817        -0.164070      0.250809     -1.751917
     11.20471      7.25365     11.08260         0.614186      0.024439      1.250674
     15.07254      9.71527      2.93606         1.133642     -0.012382      1.813160
      1.66190      1.67871      7.01153        -0.308574      0.385353     -1.121002
      2.41056      0.77093      9.44484         1.550198     -0.045287      0.913375
      5.97902      3.81644      1.42826         0.455300     -0.837737     -4.252862
      6.70646      2.62422      4.07548         0.250345      0.042380      0.040088
      2.05099      3.69983     10.62355         0.787822     -0.530824      2.863136
      7.29013      4.74605      7.99931        -0.008126      0.095562     -0.337559
      3.71710      1.62682      2.46202         0.632527      1.408725     -1.054063
      4.18418      0.66015      5.06325        -0.060943     -0.220719      0.861624
      3.37492      5.05991      2.36928        -1.522986     -1.087381     -2.146548
      3.96438      3.99884      5.06325        -0.116403     -0.194510      0.454946
      4.54805      3.05334      7.99931        -0.111135      0.300275     -0.959522
      5.02381      2.25077     10.51508        -2.718669      0.335483      2.079566
[...]
      6.48666      9.03025      5.06325        -0.026527     -0.039942      0.109959
      7.07033      8.08475      7.99931        -0.061169     -0.264177     -0.502763
      8.26759      7.06370     10.80918        -0.720677     -0.005748      2.829238
      9.81241      6.71012      7.01153         0.125550     -0.023312     -0.274627
     10.39608      5.76462      9.94759         1.445636     -1.764707     -0.274716
     14.16647      8.77877      1.35626        -0.148823      0.252262     -4.049420
     14.85697      7.65563      4.07548        -0.220560      0.468890      1.321898
     10.35494      9.04156     10.57429         0.234001      0.521081      2.160308
     15.44064      9.77746      7.99931        -0.394912      0.084801     -0.403857
     11.74056      6.69219      2.39333         0.809678      1.112495     -1.237302
     12.33469      5.69156      5.06325         0.077573     -0.126284      0.519241
     11.50973      9.87340      2.52287        -1.088112      0.742200     -2.273184
     12.11489      9.03025      5.06325        -0.081432     -0.184752      0.818409
     12.69856      8.08475      7.99931        -0.118391      0.191442     -0.857099
     13.20613      7.21383     10.59682        -0.447652      0.041758      2.166489
    total drift:                               -0.208142     -0.035968      0.126357

  FREE ENERGIE OF THE ION-ELECTRON SYSTEM (eV)
  free  energy   TOTEN  =      -471.60548194 eV

  energy  without entropy=     -470.25564469  energy(sigma->0) =     -470.93056332