 vasp.6.1.0 28Jan20 (build Mar 31 2020 17:42:31) gamma-only

 executed on             LinuxIFC date 2020.04.13  01:34:43

 INCAR:
 POTCAR:    PAW_PBE Ni_pv 06Sep2000
 POTCAR:    PAW_PBE S 06Sep2000
 POTCAR:    PAW_PBE Ni_pv 06Sep2000
   VRHFIN =Ni:

   TITEL  = PAW_PBE Ni_pv 06Sep2000
   POMASS =   58.690; ZVAL   =   16.000    mass and valenz
   ENMAX  =  367.986; ENMIN  =  275.989 eV

 POTCAR:    PAW_PBE S 06Sep2000
   VRHFIN =S : s2p4

   TITEL  = PAW_PBE S 06Sep2000
   POMASS =   32.066; ZVAL   =    6.000    mass and valenz
   ENMAX  =  258.689; ENMIN  =  194.016 eV

 Optimization of the real space projectors (new method)

 maximal supplied QI-value         = 18.90
 optimisation between [QCUT,QGAM] = [ 10.77, 21.73] = [ 32.49,132.25] Ry
 Optimized for a Real-space Cutoff    1.38 Angstroem

   l    n(q)    QCUT    max X(q) W(low)/X(q) W(high)/X(q)  e(spline)
   1      8    10.771     2.836    0.40E-04    0.29E-04    0.12E-06
   1      8    10.771     4.023    0.10E-03    0.48E-04    0.29E-06
   2      8    10.771    73.368    0.42E-03    0.97E-04    0.44E-06
   2      8    10.771    69.010    0.42E-03    0.99E-04    0.45E-06
   0      9    10.771    54.797    0.10E-03    0.56E-04    0.74E-07
   0      9    10.771    24.266    0.89E-04    0.49E-04    0.67E-07
 Optimization of the real space projectors (new method)

 maximal supplied QI-value         = 19.84
 optimisation between [QCUT,QGAM] = [ 10.71, 21.63] = [ 32.15,130.99] Ry
 Optimized for a Real-space Cutoff    1.19 Angstroem

   l    n(q)    QCUT    max X(q) W(low)/X(q) W(high)/X(q)  e(spline)
   0      8    10.715   187.594    0.41E-03    0.53E-04    0.66E-07
   0      8    10.715   164.243    0.41E-03    0.53E-04    0.65E-07
   1      7    10.715    67.533    0.19E-03    0.59E-03    0.68E-07
   1      7    10.715    50.729    0.19E-03    0.58E-03    0.67E-07
  PAW_PBE Ni_pv 06Sep2000               :
  PAW_PBE S 06Sep2000                   :

 POSCAR: Structure 10 made from 011-3.xsd file
  positions in direct lattice
 exchange correlation table for  LEXCH =        8
   RHO(1)=    0.500       N(1)  =     2000
   RHO(2)=  100.500       N(2)  =     4000

 ion  position               nearest neighbor table
   1  0.645  0.915  0.103-  31 2.25  37 2.26  38 2.36  46 2.36  19 2.53  10 2.53
   2  0.583  0.790  0.257-  32 2.25  46 2.26  38 2.26  39 2.36  47 2.36  11 2.53  20 2.53
   3  0.520  0.665  0.412-  33 2.25  47 2.26  39 2.26  48 2.36  21 2.53  12 2.53
   4  0.270  0.165  0.206-  35 2.25  49 2.26  40 2.26  50 2.36  41 2.36  14 2.53  22 2.53
   5  0.208  0.040  0.360-  36 2.25  50 2.26  41 2.26  42 2.36  51 2.36  23 2.53  15 2.53
   6  0.020  0.665  0.000-  43 2.36  52 2.36  24 2.53
   7  0.958  0.540  0.154-  28 2.25  52 2.26  43 2.26  44 2.36  53 2.36  25 2.53  17 2.53
   8  0.895  0.415  0.309-  29 2.25  53 2.26  44 2.26  45 2.36  54 2.36  18 2.53  26 2.53
   9  0.832  0.290  0.463-  30 2.25  54 2.26  45 2.26  27 2.53
  10  0.662  0.684  0.062-  46 2.36  28 2.36  19 2.53   1 2.53
  11  0.599  0.559  0.217-  40 2.25  46 2.26  28 2.26  47 2.36  29 2.36   2 2.53  20 2.53
  12  0.537  0.434  0.371-  41 2.25  29 2.26  47 2.26  30 2.36  48 2.36  21 2.53   3 2.53
  13  0.349  0.059  0.011-  31 2.36  49 2.36
  14  0.287  0.934  0.165-  43 2.25  31 2.26  49 2.26  50 2.36  32 2.36   4 2.53  22 2.53
  15  0.224  0.809  0.320-  44 2.25  50 2.26  32 2.26  51 2.36  33 2.36  23 2.53   5 2.53
  16  0.161  0.683  0.474-  45 2.25  51 2.26  33 2.26
  17  0.974  0.309  0.114-  37 2.25  34 2.26  52 2.26  35 2.36  53 2.36  25 2.53   7 2.53
  18  0.912  0.184  0.268-  38 2.25  53 2.26  35 2.26  36 2.36  54 2.36   8 2.53  26 2.53
  19  0.909  0.915  0.103-  49 2.25  37 2.26  38 2.36  28 2.36   1 2.53  10 2.53
  20  0.847  0.790  0.257-  50 2.25  28 2.26  38 2.26  29 2.36  39 2.36   2 2.53  11 2.53
  21  0.784  0.665  0.412-  51 2.25  29 2.26  39 2.26  30 2.36   3 2.53  12 2.53
  22  0.534  0.165  0.206-  53 2.25  31 2.26  40 2.26  41 2.36  32 2.36  14 2.53   4 2.53
  23  0.472  0.040  0.360-  54 2.25  41 2.26  32 2.26  42 2.36  33 2.36   5 2.53  15 2.53
  24  0.285  0.665  0.000-  34 2.36  43 2.36   6 2.53
  25  0.222  0.540  0.154-  46 2.25  34 2.26  43 2.26  44 2.36  35 2.36   7 2.53  17 2.53
  26  0.159  0.415  0.309-  47 2.25  35 2.26  44 2.26  45 2.36  36 2.36  18 2.53   8 2.53
  27  0.097  0.290  0.463-  48 2.25  36 2.26  45 2.26   9 2.53
  28  0.825  0.674  0.153-   7 2.25  20 2.26  11 2.26  10 2.36  19 2.36
  29  0.763  0.549  0.307-   8 2.25  21 2.26  12 2.26  20 2.36  11 2.36
  30  0.700  0.424  0.462-   9 2.25  12 2.36  21 2.36
  31  0.513  0.050  0.102-   1 2.25  22 2.26  14 2.26  13 2.36
  32  0.450  0.924  0.256-   2 2.25  23 2.26  15 2.26  22 2.36  14 2.36
  33  0.387  0.799  0.410-   3 2.25  16 2.26  15 2.36  23 2.36
  34  0.200  0.425  0.050-  25 2.26  17 2.26  24 2.36
  35  0.138  0.299  0.204-   4 2.25  26 2.26  18 2.26  17 2.36  25 2.36
  36  0.075  0.174  0.359-   5 2.25  27 2.26  18 2.36  26 2.36
  37  0.867  0.094  0.051-  17 2.25  19 2.26   1 2.26
  38  0.804  0.969  0.205-  18 2.25   2 2.26  20 2.26  19 2.36   1 2.36
  39  0.741  0.843  0.359-  21 2.26   3 2.26   2 2.36  20 2.36
  40  0.492  0.344  0.153-  11 2.25   4 2.26  22 2.26
  41  0.429  0.219  0.308-  12 2.25  23 2.26   5 2.26  22 2.36   4 2.36
  42  0.366  0.093  0.462-  23 2.36   5 2.36
  43  0.179  0.719  0.102-  14 2.25  25 2.26   7 2.26   6 2.36  24 2.36
  44  0.117  0.594  0.256-  15 2.25  26 2.26   8 2.26  25 2.36   7 2.36
  45  0.054  0.468  0.411-  16 2.25   9 2.26  27 2.26   8 2.36  26 2.36
  46  0.489  0.674  0.153-  25 2.25  11 2.26   2 2.26  10 2.36   1 2.36
  47  0.426  0.549  0.307-  26 2.25   3 2.26  12 2.26   2 2.36  11 2.36
  48  0.363  0.424  0.462-  27 2.25   3 2.36  12 2.36
  49  0.176  0.050  0.102-  19 2.25   4 2.26  14 2.26  13 2.36
  50  0.114  0.924  0.256-  20 2.25   5 2.26  15 2.26   4 2.36  14 2.36
  51  0.051  0.799  0.410-  21 2.25  16 2.26  15 2.36   5 2.36
  52  0.864  0.425  0.050-   7 2.26  17 2.26   6 2.36
  53  0.801  0.299  0.204-  22 2.25   8 2.26  18 2.26   7 2.36  17 2.36
  54  0.739  0.174  0.359-  23 2.25   9 2.26  18 2.36   8 2.36

  LATTYP: Found a base centered orthorhombic cell.
 ALAT       =     9.5784100000
 B/A-ratio  =     1.8519363485
 C/A-ratio  =     1.9847903504

  Lattice vectors:

 A1 = (   8.4281814759,   5.5287226424,   0.0000000000)
 A2 = (   0.0000000000, -10.0797329849,   0.0000000000)
 A3 = (   0.0000000000,   0.0000000000, -19.0111357400)

Analysis of symmetry for initial positions (statically):
 Subroutine PRICEL returns:
 Original cell was already a primitive cell.

 Routine SETGRP: Setting up the symmetry group for a
 base centered orthorhombic supercell.

 Subroutine GETGRP returns: Found  2 space group operations
 (whereof  1 operations were pure point group operations)
 out of a pool of  8 trial point group operations.

The static configuration has the point symmetry C_1 .
 The point group associated with its full space group is C_1h.

Analysis of symmetry for dynamics (positions and initial velocities):
 Subroutine PRICEL returns:
 Original cell was already a primitive cell.

 Routine SETGRP: Setting up the symmetry group for a
 base centered orthorhombic supercell.

 Subroutine GETGRP returns: Found  2 space group operations
 (whereof  1 operations were pure point group operations)
 out of a pool of  8 trial point group operations.

The dynamic configuration has the point symmetry C_1 .
 The point group associated with its full space group is C_1h.

 Subroutine INISYM returns: Found  2 space group operations
 (whereof  1 operations are pure point group operations),
 and found     1 'primitive' translations

                                     Primitive cell

  volume of cell :    1615.0686

  direct lattice vectors                    reciprocal lattice vectors
     8.428181476 -4.551010342  0.000000000     0.118649557  0.000000000  0.000000000
     0.000000000 10.079732985  0.000000000     0.053570403  0.099208977  0.000000000
     0.000000000  0.000000000 19.011135740     0.000000000  0.000000000  0.052600750

  length of vectors
     9.578410000 10.079732985 19.011135740     0.118649557  0.112748434  0.052600750

  position of ions in fractional coordinates (direct lattice)
     0.645270229  0.915243159  0.102959234
     0.582630317  0.789963333  0.257398085
     0.519990404  0.664683508  0.411836936
     0.270176954  0.165056608  0.205918468
     0.207537041  0.039776783  0.360357319
     0.020363505  0.665429709  0.000000000
     0.957723592  0.540149884  0.154438851
     0.895083679  0.414870058  0.308877702
     0.832443766  0.289590232  0.463316553
     0.661820070  0.684136840  0.062155563
     0.599180157  0.558857015  0.216594414
     0.536540245  0.433577189  0.371033265
     0.349366708  0.059230116  0.010675946
     0.286726795  0.933950290  0.165114797
     0.224086882  0.808670464  0.319553648
     0.161446969  0.683390639  0.473992499
     0.974273433  0.309043565  0.113635180
     0.911633520  0.183763740  0.268074031
     0.909476229  0.915243159  0.102959234
     0.846836317  0.789963333  0.257398085
     0.784196404  0.664683508  0.411836936
     0.534382954  0.165056608  0.205918468
     0.471743041  0.039776783  0.360357319
     0.284569505  0.665429709  0.000000000
     0.221929592  0.540149884  0.154438851
     0.159289679  0.414870058  0.308877702
     0.096649766  0.289590232  0.463316553
     0.825181678  0.674430055  0.153010292
     0.762541765  0.549150230  0.307449143
     0.699901852  0.423870404  0.461887994
     0.512728315  0.049523331  0.101530675
     0.450088403  0.924243505  0.255969526
     0.387448490  0.798963679  0.410408377
     0.200274953  0.424616606  0.050051058
     0.137635040  0.299336780  0.204489909
     0.074995127  0.174056954  0.358928760
     0.866747645  0.093991989  0.050529303
     0.804107732  0.968712164  0.204968154
     0.741467819  0.843432338  0.359407005
     0.491654369  0.343805439  0.153488537
     0.429014457  0.218525613  0.307927388
     0.366374544  0.093245787  0.462366239
     0.179201007  0.718898714  0.102008920
     0.116561094  0.593618888  0.256447771
     0.053921181  0.468339063  0.410886622
     0.488751678  0.674430055  0.153010292
     0.426111765  0.549150230  0.307449143
     0.363471852  0.423870404  0.461887994
     0.176298315  0.049523331  0.101530675
     0.113658403  0.924243505  0.255969526
     0.051018490  0.798963679  0.410408377
     0.863844953  0.424616606  0.050051058
     0.801205040  0.299336780  0.204489909
     0.738565127  0.174056954  0.358928760

  ion indices of the primitive-cell ions
   primitive index   ion index
                 1           1
                 2           2
                 3           3
                 4           4
                 5           5
                 6           6
                 7           7
                 8           8
                 9           9
                10          10
                11          11
                12          12
                13          13
                14          14
                15          15
                16          16
                17          17
                18          18
[...]
      51 -91.2789      52 -90.8806      53 -91.7062      54 -91.2467

 E-fermi :   0.9918     XC(G=0):  -6.6146     alpha+bet : -6.1254

 k-point     1 :       0.0000    0.0000    0.0000
  band No.  band energies     occupation
      1     -63.1640      2.00000
      2     -63.1546      2.00000
      3     -63.1440      2.00000
      4     -63.1421      2.00000
      5     -63.1383      2.00000
      6     -63.1349      2.00000
      7     -63.1300      2.00000
      8     -63.1269      2.00000
      9     -63.1259      2.00000
     10     -63.1227      2.00000
     11     -63.1196      2.00000
     12     -63.1188      2.00000
     13     -63.1165      2.00000
     14     -63.1156      2.00000
     15     -63.1151      2.00000
     16     -63.1125      2.00000
     17     -63.1098      2.00000
     18     -63.1086      2.00000
     19     -63.1027      2.00000
     20     -63.0889      2.00000
     21     -63.0870      2.00000
     22     -63.0829      2.00000
     23     -63.0749      2.00000
     24     -63.0740      2.00000
     25     -63.0693      2.00000
     26     -63.0647      2.00000
     27     -63.0635      2.00000
     28     -63.0457      2.00000
     29     -63.0433      2.00000
     30     -63.0413      2.00000
     31     -63.0274      2.00000
     32     -63.0140      2.00000
     33     -63.0077      2.00000
     34     -62.9966      2.00000
     35     -62.9953      2.00000
     36     -62.9855      2.00000
     37     -62.9662      2.00000
     38     -62.9550      2.00000
     39     -62.9422      2.00000
     40     -62.9358      2.00000
     41     -62.9349      2.00000
     42     -62.9313      2.00000
     43     -62.8980      2.00000
     44     -62.8841      2.00000
     45     -62.8840      2.00000
     46     -62.8795      2.00000
     47     -62.8690      2.00000
     48     -62.8520      2.00000
     49     -62.8141      2.00000
     50     -62.8046      2.00000
     51     -62.7703      2.00000
     52     -62.7631      2.00000
     53     -62.7476      2.00000
     54     -62.7387      2.00000
     55     -62.6973      2.00000
     56     -62.6592      2.00000
     57     -62.6049      2.00000
     58     -62.5918      2.00000
     59     -62.5106      2.00000
     60     -62.4735      2.00000
[...]
    346       6.0187      0.00000
    347       6.0479      0.00000
    348       6.0946      0.00000
    349       6.2295      0.00000
    350       6.2336      0.00000
    351       6.3678      0.00000
    352       6.4656      0.00000
    353       6.5232      0.00000
    354       6.5525      0.00000
    355       6.6389      0.00000
    356       6.6714      0.00000
    357       6.7131      0.00000
    358       6.7915      0.00000
    359       6.8092      0.00000
    360       6.9204      0.00000

 soft charge-density along one line, spin component           1
         0         1         2         3         4         5         6         7         8         9
 total charge-density along one line

------------------------ aborting loop because EDIFF is reached ----------------------------------------

  FORCE on cell =-STRESS in cart. coord.  units (eV):
  Direction    XX          YY          ZZ          XY          YZ          ZX
  Alpha Z  1295.57566  1295.57566  1295.57566
  Ewald  139156.39747137371.87222************ -1360.19690  -744.43601  -401.97710
  Hartree166827.18442165295.33981************ -1167.59970  -506.58157  -273.54220
  E(xc)   -3767.99466 -3768.39400 -3770.77410    -0.30872    -0.84443    -0.45611
  Local  ************************302167.21458  2524.31154  1226.48521   662.27249
  n-local  -526.85274  -528.82710  -526.60197    -1.52867    -4.75839    -2.55858
  augment  4341.06424  4343.81835  4340.61373     2.12223    12.57663     6.79054
  Kinetic  8223.74869  8225.73711  8233.36898     1.51080    28.03982    15.14126
  Fock        0.00000     0.00000     0.00000     0.00000     0.00000     0.00000
  Total     -23.62764   -25.82318   -28.87251    -1.67348    10.48572     5.66203
  in kB     -23.43905   -25.61706   -28.64206    -1.66012    10.40202     5.61683

 VOLUME and BASIS-vectors are now :
  energy-cutoff  :      450.00
  volume of cell :     1615.07
      direct lattice vectors                 reciprocal lattice vectors
     8.428181476 -4.551010342  0.000000000     0.118649557  0.000000000  0.000000000
     0.000000000 10.079732985  0.000000000     0.053570403  0.099208977  0.000000000
     0.000000000  0.000000000 19.011135740     0.000000000  0.000000000  0.052600750

  length of vectors
     9.578410000 10.079732985 19.011135740     0.118649557  0.112748434  0.052600750

 FORCES acting on ions
    electron-ion (+dipol)            ewald-force                    non-local-force                 convergence-correction
   0.198E+03 -.466E+03 0.312E+04   -.196E+03 0.467E+03 -.312E+04   -.176E+01 -.167E+01 0.283E+01   -.167E+00 0.325E+00 -.137E+00
   0.197E+03 -.458E+03 -.422E+03   -.196E+03 0.459E+03 0.422E+03   -.706E+00 -.133E+01 0.267E+00   -.584E-01 0.142E+00 0.631E-02
   0.205E+02 -.524E+03 -.372E+04   -.223E+02 0.524E+03 0.371E+04   0.110E+01 0.186E+00 0.126E+01   0.271E-01 0.727E-01 0.103E+00
   0.168E+03 -.508E+03 0.106E+04   -.166E+03 0.510E+03 -.106E+04   -.115E+01 -.228E+01 0.210E+01   0.218E-01 -.286E-01 -.315E-01
   0.399E+03 -.418E+03 -.276E+04   -.398E+03 0.419E+03 0.276E+04   -.150E+00 -.159E+01 -.318E+01   0.821E-01 -.446E-01 0.157E-01
   0.473E+03 -.280E+03 0.412E+04   -.469E+03 0.269E+03 -.411E+04   -.322E+01 0.955E+01 -.675E+01   0.289E+00 -.258E+00 -.293E+00
   0.480E+03 -.322E+03 0.189E+04   -.481E+03 0.323E+03 -.190E+04   0.132E+01 -.885E+00 0.254E+01   0.774E-01 0.731E-01 -.355E+00
   0.360E+03 -.294E+03 -.141E+04   -.362E+03 0.294E+03 0.141E+04   0.166E+01 -.390E+00 0.635E+00   -.396E-01 -.104E+00 -.105E+00
   0.482E+03 0.282E+03 -.409E+04   -.480E+03 -.279E+03 0.408E+04   -.159E+01 -.170E+01 0.836E+01   -.516E-01 -.864E-01 0.154E+00
   0.321E+03 0.594E+03 0.405E+04   -.317E+03 -.586E+03 -.404E+04   -.436E+01 -.807E+01 -.968E+01   0.246E-02 0.457E-02 -.215E+00
   0.296E+03 0.548E+03 0.974E+03   -.298E+03 -.551E+03 -.976E+03   0.186E+01 0.345E+01 0.107E+01   -.114E+00 -.211E+00 0.167E-01
   0.257E+03 0.476E+03 -.259E+04   -.258E+03 -.477E+03 0.260E+04   0.872E+00 0.161E+01 -.198E+01   -.521E-01 -.965E-01 -.302E-01
   -.238E+03 -.441E+03 0.407E+04   0.237E+03 0.439E+03 -.405E+04   0.619E+00 0.115E+01 -.134E+02   -.101E+00 -.188E+00 -.194E+00
   0.117E+03 0.216E+03 0.192E+04   -.117E+03 -.216E+03 -.192E+04   0.769E-01 0.142E+00 0.272E+01   -.435E-02 -.809E-02 -.146E+00
   0.176E+03 0.325E+03 -.151E+04   -.176E+03 -.326E+03 0.151E+04   0.677E+00 0.125E+01 -.829E-01   0.575E-01 0.107E+00 -.132E-01
   -.886E+02 -.164E+03 -.424E+04   0.902E+02 0.167E+03 0.423E+04   -.159E+01 -.294E+01 0.116E+02   0.564E-01 0.105E+00 0.136E+00
   0.280E+03 0.518E+03 0.309E+04   -.281E+03 -.521E+03 -.310E+04   0.135E+01 0.249E+01 0.384E+01   0.773E-01 0.143E+00 -.268E+00
   0.300E+03 0.556E+03 -.488E+03   -.301E+03 -.557E+03 0.489E+03   0.850E+00 0.157E+01 -.103E+01   -.258E-01 -.478E-01 -.432E-01
   -.498E+03 -.894E+02 0.312E+04   0.498E+03 0.922E+02 -.312E+04   -.431E+00 -.239E+01 0.283E+01   0.364E+00 0.385E-01 -.137E+00
   -.491E+03 -.869E+02 -.422E+03   0.491E+03 0.883E+02 0.422E+03   -.723E+00 -.132E+01 0.267E+00   0.151E+00 0.291E-01 0.632E-02
   -.449E+03 -.270E+03 -.372E+04   0.450E+03 0.269E+03 0.371E+04   -.445E+00 0.102E+01 0.126E+01   0.459E-01 0.625E-01 0.103E+00
   -.516E+03 -.138E+03 0.106E+04   0.518E+03 0.141E+03 -.106E+04   -.128E+01 -.222E+01 0.210E+01   -.358E-01 0.253E-02 -.315E-01
   -.568E+03 0.104E+03 -.276E+04   0.569E+03 -.103E+03 0.276E+04   -.124E+01 -.995E+00 -.318E+01   -.823E-01 0.441E-01 0.157E-01
   -.493E+03 0.242E+03 0.412E+04   0.482E+03 -.245E+03 -.411E+04   0.975E+01 0.255E+01 -.675E+01   -.374E+00 0.100E+00 -.293E+00
   -.532E+03 0.225E+03 0.189E+04   0.534E+03 -.225E+03 -.190E+04   -.146E+01 0.616E+00 0.254E+01   0.187E-01 0.105E+00 -.355E+00
   -.443E+03 0.140E+03 -.141E+04   0.445E+03 -.141E+03 0.141E+04   -.124E+01 0.117E+01 0.635E+00   -.655E-01 -.904E-01 -.105E+00
   -.286E+02 0.558E+03 -.409E+04   0.299E+02 -.555E+03 0.408E+04   -.549E+00 -.226E+01 0.836E+01   -.439E-01 -.905E-01 0.154E+00
   -.377E+02 0.143E+03 0.853E+03   0.384E+02 -.145E+03 -.853E+03   -.772E+00 0.226E+01 -.105E+01   0.121E+00 -.896E-01 -.224E-01
   -.775E+02 0.113E+03 -.407E+03   0.792E+02 -.116E+03 0.406E+03   -.202E+01 0.229E+01 0.149E+01   -.106E-01 -.296E-01 -.136E-02
   0.848E+02 0.370E+02 -.161E+04   -.860E+02 -.372E+02 0.162E+04   0.960E+00 0.700E+00 -.337E+01   -.227E-01 -.778E-02 0.660E-01
   -.190E+03 -.107E+03 0.128E+04   0.192E+03 0.108E+03 -.128E+04   -.274E+01 -.118E+01 0.538E+00   -.257E-01 -.593E-02 -.493E-01
   -.130E+03 0.100E+03 -.224E+02   0.132E+03 -.102E+03 0.215E+02   -.158E+01 0.229E+01 0.102E+01   -.219E-01 0.678E-01 -.631E-02
   -.185E+03 -.126E+02 -.134E+04   0.186E+03 0.123E+02 0.134E+04   -.147E+01 0.353E+00 -.150E+01   0.101E-01 0.510E-01 0.268E-01
   -.144E+03 0.356E+03 0.155E+04   0.147E+03 -.360E+03 -.155E+04   -.177E+01 0.547E+01 0.170E+01   0.411E-01 0.146E+00 -.206E+00
   -.125E+03 0.170E+03 0.472E+03   0.125E+03 -.172E+03 -.472E+03   -.103E+01 0.148E+01 0.154E+00   -.703E-02 -.571E-01 0.809E-02
   0.106E+03 0.190E+03 -.943E+03   -.108E+03 -.192E+03 0.944E+03   0.942E+00 0.199E+01 -.270E+00   -.214E-01 -.316E-01 -.390E-01
   -.630E+02 -.117E+03 0.163E+04   0.631E+02 0.117E+03 -.163E+04   -.638E+00 -.118E+01 0.440E+01   0.862E-02 0.160E-01 -.132E+00
   -.914E+02 -.169E+03 0.303E+03   0.924E+02 0.171E+03 -.303E+03   -.128E+01 -.237E+01 0.449E-01   0.584E-01 0.108E+00 0.120E-01
   -.181E+03 -.335E+03 -.108E+04   0.184E+03 0.341E+03 0.108E+04   -.329E+01 -.609E+01 -.229E+01   0.220E-01 0.407E-01 0.611E-01
   -.432E+02 -.800E+02 0.107E+04   0.435E+02 0.806E+02 -.108E+04   -.314E+00 -.582E+00 0.543E+01   -.326E-01 -.604E-01 -.119E-01
   -.739E+02 -.137E+03 -.500E+03   0.752E+02 0.139E+03 0.501E+03   -.141E+01 -.261E+01 -.113E+01   -.218E-01 -.405E-01 -.221E-01
   -.223E+02 -.414E+02 -.170E+04   0.227E+02 0.420E+02 0.170E+04   -.418E+00 -.774E+00 -.511E+01   -.107E-01 -.198E-01 0.458E-01
   -.778E+02 -.144E+03 0.107E+04   0.787E+02 0.146E+03 -.106E+04   -.900E+00 -.167E+01 -.229E+01   -.173E-01 -.320E-01 -.309E+00
   -.761E+02 -.141E+03 -.890E+02   0.774E+02 0.143E+03 0.898E+02   -.129E+01 -.240E+01 -.792E+00   0.174E-01 0.322E-01 -.289E-01
   -.563E+02 -.104E+03 -.122E+04   0.573E+02 0.106E+03 0.122E+04   -.128E+01 -.237E+01 0.100E+01   0.392E-02 0.726E-02 0.221E-01
   0.140E+03 0.470E+02 0.853E+03   -.142E+03 -.474E+02 -.853E+03   0.231E+01 0.592E+00 -.105E+01   -.141E+00 0.522E-01 -.224E-01
   0.137E+03 -.272E+01 -.407E+03   -.140E+03 0.283E+01 0.406E+03   0.302E+01 -.435E+00 0.149E+01   -.189E-01 -.252E-01 -.137E-02
   -.156E+02 0.912E+02 -.161E+04   0.160E+02 -.923E+02 0.162E+04   0.587E-01 0.119E+01 -.337E+01   0.594E-02 -.232E-01 0.660E-01
   0.149E+02 -.217E+03 0.128E+04   -.154E+02 0.220E+03 -.128E+04   0.520E+00 -.294E+01 0.538E+00   0.916E-02 -.248E-01 -.493E-01
   0.155E+03 -.540E+02 -.224E+02   -.158E+03 0.541E+02 0.215E+02   0.278E+01 -.619E-01 0.102E+01   0.687E-01 0.188E-01 -.631E-02
   0.907E+02 -.161E+03 -.134E+04   -.916E+02 0.162E+03 0.134E+04   0.110E+01 -.103E+01 -.150E+01   0.371E-01 0.364E-01 0.268E-01
   0.377E+03 0.745E+02 0.155E+04   -.382E+03 -.749E+02 -.155E+04   0.555E+01 0.152E+01 0.170E+01   0.998E-01 0.115E+00 -.206E+00
   0.211E+03 -.108E+02 0.472E+03   -.212E+03 0.107E+02 -.472E+03   0.180E+01 -.505E-01 0.154E+00   -.439E-01 -.372E-01 0.809E-02
   0.101E+03 0.193E+03 -.943E+03   -.102E+03 -.195E+03 0.944E+03   0.115E+01 0.188E+01 -.270E+00   -.147E-01 -.353E-01 -.390E-01
   0.361E+01 0.668E+01 -.297E+01   0.597E-12 0.881E-12 -.455E-12   -.378E+01 -.699E+01 0.588E+01   0.146E+00 0.271E+00 -.285E+01

 POSITION                                       TOTAL-FORCE (eV/Angst)
      5.43845      6.28878      1.95737         0.268820      0.330950      0.157702
      4.91051      5.31106      4.89343         0.256426     -0.220244      0.109855
      4.38257      4.33335      7.82949        -0.683697      0.026537     -0.679469
      2.27710      0.43415      3.91474         0.437981      0.277479     -0.347864
      1.74916     -0.54356      6.85080         0.284604     -0.045992      0.619827
      0.17163      6.61468      0.00000         0.254932     -1.355110      1.888584
      8.07187      1.08596      2.93606        -0.063875     -0.110825     -0.432028
      7.54393      0.10824      5.87212        -0.189048     -0.055121      0.212921
      7.01599     -0.86947      8.80817         0.314474      1.094002     -1.747603
      5.57794      3.88397      1.18165         0.020138      0.037294      1.696571
      5.05000      2.90625      4.11771        -0.070206     -0.130017     -0.207058
      4.52206      1.92854      7.05376         0.178767      0.331066      0.626517
      2.94453     -0.99295      0.20296        -0.182397     -0.337788      2.276247
      2.41659      8.10907      3.13902         0.032003      0.059267     -0.182735
      1.88864      7.13136      6.07508         0.029424      0.054491      0.261428
      1.36070      6.15365      9.01114         0.043486      0.080533     -1.977721
      8.21135     -1.31885      2.16033         0.168134      0.311374     -0.772626
      7.68341     -2.29656      5.09639        -0.080056     -0.148258      0.337908
      7.66523      5.08637      1.95737         0.129277      0.406299      0.157702
      7.13729      4.10866      4.89343        -0.324807      0.093607      0.109855
      6.60935      3.13095      7.82949         0.397196     -0.557118     -0.679469
      4.50388     -0.76826      3.91474        -0.008218      0.518416     -0.347864
      3.97594     -1.74597      6.85080        -0.194561      0.212745      0.619827
      2.39840      5.41228      0.00000        -1.272907     -0.530115      1.888584
      1.87046      4.43456      2.93606        -0.057631     -0.114197     -0.432028
      1.34252      3.45685      5.87212         0.057603     -0.188306      0.212921
      0.81458      2.47914      8.80817         0.742262      0.863006     -1.747603
      6.95478      3.04266      2.90890         0.006587      0.367810     -1.174757
      6.42684      2.06495      5.84496        -0.396628     -0.024229     -0.179488
      5.89890      1.08724      8.78102        -0.255484      0.460423      0.151027
      4.32137     -1.83425      1.93021        -0.631842     -0.422427     -1.294592
      3.79343      7.26777      4.86627         0.011171      0.047663      0.123808
      3.26549      6.29006      7.80233        -0.395912      0.095623      0.807960
      1.68795      3.36857      0.95153         0.741192      1.072321     -0.492193
      1.16001      2.39086      3.88759        -0.235840     -0.071136     -0.031765
      0.63207      1.41314      6.82364        -0.247736      0.260712      0.673404
      7.30511     -2.99716      0.96062        -0.507610     -0.940062      0.666456
      6.77717      6.10486      3.89668        -0.180220     -0.333755      0.292193
      6.24923      5.12715      6.83274        -0.117234     -0.217110      0.559885
      4.14375      1.22794      2.91799        -0.000211     -0.000391      0.620359
      3.61581      0.25023      5.85405        -0.183871     -0.340517      0.212080
      3.08787     -0.72748      8.79011        -0.078731     -0.145804     -1.410461
      1.51034      6.43076      1.93931         0.043977      0.081442     -1.205002
      0.98240      5.45305      4.87536        -0.042792     -0.079247     -0.034264
      0.45446      4.47534      7.81142        -0.281306     -0.520960      1.509567
      4.11929      4.57376      2.90890         0.303932      0.207251     -1.174757
      3.59135      3.59605      5.84496         0.197291     -0.344930     -0.179488
      3.06341      2.61834      8.78102         0.525116      0.038918      0.151027
      1.48587     -0.30315      1.93021        -0.006648     -0.760016     -1.294592
      0.95793      8.79887      4.86627         0.033726      0.035484      0.123808
      0.42999      7.82115      7.80233         0.297113     -0.278593      0.807960
      7.28064      0.34865      0.95153         0.490080      1.207916     -0.492193
      6.75270     -0.62906      3.88759         0.069877     -0.236216     -0.031765
      6.22476     -1.60677      6.82364         0.353878     -0.064145      0.673404
    total drift:                               -0.021452     -0.039111      0.060500

  FREE ENERGIE OF THE ION-ELECTRON SYSTEM (eV)
  free  energy   TOTEN  =      -261.85409961 eV

  energy  without entropy=     -260.99722362  energy(sigma->0) =     -261.42566162