 vasp.6.1.0 28Jan20 (build Mar 31 2020 17:42:31) gamma-only

 executed on             LinuxIFC date 2020.04.11  22:31:41

 INCAR:
 POTCAR:    PAW_PBE Ni_pv 06Sep2000
 POTCAR:    PAW_PBE S 06Sep2000
 POTCAR:    PAW_PBE Ni_pv 06Sep2000
   VRHFIN =Ni:

   TITEL  = PAW_PBE Ni_pv 06Sep2000
   POMASS =   58.690; ZVAL   =   16.000    mass and valenz
   ENMAX  =  367.986; ENMIN  =  275.989 eV

 POTCAR:    PAW_PBE S 06Sep2000
   VRHFIN =S : s2p4

   TITEL  = PAW_PBE S 06Sep2000
   POMASS =   32.066; ZVAL   =    6.000    mass and valenz
   ENMAX  =  258.689; ENMIN  =  194.016 eV

 Optimization of the real space projectors (new method)

 maximal supplied QI-value         = 18.90
 optimisation between [QCUT,QGAM] = [ 10.77, 21.73] = [ 32.49,132.25] Ry
 Optimized for a Real-space Cutoff    1.38 Angstroem

   l    n(q)    QCUT    max X(q) W(low)/X(q) W(high)/X(q)  e(spline)
   1      8    10.771     2.836    0.40E-04    0.29E-04    0.12E-06
   1      8    10.771     4.023    0.10E-03    0.48E-04    0.29E-06
   2      8    10.771    73.368    0.42E-03    0.97E-04    0.44E-06
   2      8    10.771    69.010    0.42E-03    0.99E-04    0.45E-06
   0      9    10.771    54.797    0.10E-03    0.56E-04    0.74E-07
   0      9    10.771    24.266    0.89E-04    0.49E-04    0.67E-07
 Optimization of the real space projectors (new method)

 maximal supplied QI-value         = 19.84
 optimisation between [QCUT,QGAM] = [ 10.71, 21.63] = [ 32.15,130.99] Ry
 Optimized for a Real-space Cutoff    1.19 Angstroem

   l    n(q)    QCUT    max X(q) W(low)/X(q) W(high)/X(q)  e(spline)
   0      8    10.715   187.594    0.41E-03    0.53E-04    0.66E-07
   0      8    10.715   164.243    0.41E-03    0.53E-04    0.65E-07
   1      7    10.715    67.533    0.19E-03    0.59E-03    0.68E-07
   1      7    10.715    50.729    0.19E-03    0.58E-03    0.67E-07
  PAW_PBE Ni_pv 06Sep2000               :
  PAW_PBE S 06Sep2000                   :

 POSCAR: Structure 19 made from -111-5.xsd file
  positions in direct lattice
 exchange correlation table for  LEXCH =        8
   RHO(1)=    0.500       N(1)  =     2000
   RHO(2)=  100.500       N(2)  =     4000

 ion  position               nearest neighbor table
   1  0.261  0.479  0.253-  73 2.25  57 2.26  79 2.26  55 2.36  58 2.36   7 2.53  21 2.53
   2  0.355  0.385  0.388-  74 2.25  55 2.26  58 2.26  59 2.36  65 2.36   8 2.53  22 2.53
   3  0.449  0.291  0.523-  53 2.25  59 2.26  65 2.26  17 2.53  23 2.53
   4  0.167  0.073  0.118-  63 2.25  80 2.26  56 2.36  81 2.36  36 2.53  30 2.53
   5  0.056  0.051  0.488-  76 2.25  50 2.26  72 2.26  11 2.53  15 2.53
   6  0.274  0.333  0.083-  51 2.26  52 2.36  57 2.36  12 2.53  28 2.53
   7  0.368  0.239  0.218-  56 2.25  57 2.26  52 2.26  58 2.36  60 2.36   1 2.53  21 2.53
   8  0.462  0.145  0.353-  77 2.25  58 2.26  60 2.26  59 2.36  61 2.36   2 2.53  22 2.53
   9  0.000  0.372  0.218-  57 2.25  63 2.26  92 2.26  49 2.36  66 2.36  13 2.53  19 2.53
  10  0.094  0.278  0.353-  58 2.25  49 2.26  66 2.26  54 2.36  50 2.36  20 2.53  14 2.53
  11  0.188  0.184  0.488-  59 2.25  54 2.26  50 2.26   5 2.53  15 2.53
  12  0.406  0.465  0.083-  69 2.25  51 2.26  78 2.26  52 2.36  79 2.36  28 2.53   6 2.53
  13  0.761  0.479  0.253-  84 2.25  70 2.26  92 2.26  66 2.36  71 2.36  19 2.53   9 2.53
  14  0.855  0.385  0.388-  85 2.25  66 2.26  71 2.26  72 2.36  54 2.36  20 2.53  10 2.53
  15  0.949  0.291  0.523-  64 2.25  72 2.26  54 2.26   5 2.53  11 2.53
  16  0.667  0.073  0.118-  52 2.25  67 2.26  93 2.26  68 2.36  94 2.36  48 2.53  42 2.53
  17  0.556  0.051  0.488-  89 2.25  61 2.26  59 2.26  88 2.36  23 2.53   3 2.53
  18  0.774  0.333  0.083-  67 2.25  69 2.26  62 2.26  63 2.36  70 2.36  24 2.53  40 2.53
  19  0.868  0.239  0.218-  68 2.25  70 2.26  63 2.26  71 2.36  49 2.36  13 2.53   9 2.53
  20  0.962  0.145  0.353-  90 2.25  71 2.26  49 2.26  72 2.36  50 2.36  14 2.53  10 2.53
  21  0.500  0.372  0.218-  70 2.25  52 2.26  79 2.26  60 2.36  55 2.36   1 2.53   7 2.53
  22  0.594  0.278  0.353-  71 2.25  60 2.26  55 2.26  65 2.36  61 2.36   8 2.53   2 2.53
  23  0.688  0.184  0.488-  72 2.25  65 2.26  61 2.26  88 2.36  17 2.53   3 2.53
  24  0.906  0.465  0.083-  62 2.26  91 2.26  63 2.36  92 2.36  40 2.53  18 2.53
  25  0.261  0.979  0.253-  49 2.25  81 2.26  56 2.26  77 2.36  82 2.36  31 2.53  45 2.53
  26  0.355  0.885  0.388-  50 2.25  77 2.26  82 2.26  83 2.36  89 2.36  32 2.53  46 2.53
  27  0.449  0.791  0.523-  83 2.26  89 2.26  41 2.53  47 2.53
  28  0.167  0.573  0.118-  87 2.25  78 2.26  79 2.36  57 2.36  12 2.53   6 2.53
  29  0.056  0.551  0.488-  54 2.25  74 2.26  96 2.26  53 2.36  35 2.53  39 2.53
  30  0.274  0.833  0.083-  78 2.25  80 2.26  75 2.36  81 2.36  36 2.53   4 2.53
  31  0.368  0.739  0.218-  79 2.25  81 2.26  75 2.26  82 2.36  84 2.36  25 2.53  45 2.53
  32  0.462  0.645  0.353-  55 2.25  82 2.26  84 2.26  83 2.36  85 2.36  26 2.53  46 2.53
  33  0.000  0.872  0.218-  81 2.25  87 2.26  68 2.26  73 2.36  90 2.36  37 2.53  43 2.53
  34  0.094  0.778  0.353-  82 2.25  73 2.26  90 2.26  76 2.36  74 2.36  44 2.53  38 2.53
  35  0.188  0.684  0.488-  83 2.25  76 2.26  74 2.26  53 2.36  29 2.53  39 2.53
  36  0.406  0.965  0.083-  93 2.25  75 2.36  56 2.36   4 2.53  30 2.53
  37  0.761  0.979  0.253-  60 2.25  94 2.26  68 2.26  90 2.36  95 2.36  43 2.53  33 2.53
  38  0.855  0.885  0.388-  61 2.25  90 2.26  95 2.26  96 2.36  76 2.36  44 2.53  34 2.53
  39  0.949  0.791  0.523-  88 2.25  96 2.26  76 2.26  29 2.53  35 2.53
  40  0.667  0.573  0.118-  75 2.25  91 2.26  69 2.26  92 2.36  70 2.36  24 2.53  18 2.53
  41  0.556  0.551  0.488-  65 2.25  85 2.26  83 2.26  64 2.36  47 2.53  27 2.53
  42  0.774  0.833  0.083-  91 2.25  93 2.26  86 2.26  87 2.36  94 2.36  48 2.53  16 2.53
  43  0.868  0.739  0.218-  92 2.25  94 2.26  87 2.26  95 2.36  73 2.36  37 2.53  33 2.53
  44  0.962  0.645  0.353-  66 2.25  95 2.26  73 2.26  96 2.36  74 2.36  38 2.53  34 2.53
  45  0.500  0.872  0.218-  94 2.25  75 2.26  56 2.26  84 2.36  77 2.36  25 2.53  31 2.53
  46  0.594  0.778  0.353-  95 2.25  84 2.26  77 2.26  89 2.36  85 2.36  32 2.53  26 2.53
  47  0.688  0.684  0.488-  96 2.25  89 2.26  85 2.26  64 2.36  41 2.53  27 2.53
  48  0.906  0.965  0.083-  80 2.25  86 2.26  67 2.26  87 2.36  68 2.36  16 2.53  42 2.53
  49  0.073  0.167  0.270-  25 2.25  10 2.26  20 2.26   9 2.36  19 2.36
  50  0.167  0.073  0.405-  26 2.25  11 2.26   5 2.26  10 2.36  20 2.36
  51  0.385  0.355  0.000-  12 2.26   6 2.26
  52  0.479  0.261  0.135-  16 2.25   7 2.26  21 2.26   6 2.36  12 2.36
  53  0.261  0.479  0.540-   3 2.25  29 2.36  35 2.36
  54  0.030  0.378  0.451-  29 2.25  11 2.26  15 2.26  10 2.36  14 2.36
  55  0.436  0.472  0.315-  32 2.25   2 2.26  22 2.26   1 2.36  21 2.36
  56  0.342  0.066  0.180-   7 2.25  25 2.26  45 2.26   4 2.36  36 2.36
  57  0.174  0.397  0.180-   9 2.25   7 2.26   1 2.26   6 2.36  28 2.36
  58  0.268  0.303  0.315-  10 2.25   2 2.26   8 2.26   7 2.36   1 2.36
  59  0.362  0.209  0.451-  11 2.25   3 2.26  17 2.26   8 2.36   2 2.36
  60  0.573  0.167  0.270-  37 2.25  22 2.26   8 2.26  21 2.36   7 2.36
[...]
  82  0.268  0.803  0.315-  34 2.25  26 2.26  32 2.26  31 2.36  25 2.36
  83  0.362  0.709  0.451-  35 2.25  27 2.26  41 2.26  32 2.36  26 2.36
  84  0.573  0.667  0.270-  13 2.25  46 2.26  32 2.26  45 2.36  31 2.36
  85  0.667  0.573  0.405-  14 2.25  47 2.26  41 2.26  46 2.36  32 2.36
  86  0.885  0.855  0.000-  48 2.26  42 2.26
  87  0.979  0.761  0.135-  28 2.25  43 2.26  33 2.26  42 2.36  48 2.36
  88  0.761  0.979  0.540-  39 2.25  17 2.36  23 2.36
  89  0.530  0.878  0.451-  17 2.25  47 2.26  27 2.26  46 2.36  26 2.36
  90  0.936  0.972  0.315-  20 2.25  38 2.26  34 2.26  37 2.36  33 2.36
  91  0.748  0.660  0.045-  42 2.25  40 2.26  24 2.26
  92  0.842  0.566  0.180-  43 2.25  13 2.26   9 2.26  40 2.36  24 2.36
  93  0.580  0.991  0.045-  36 2.25  42 2.26  16 2.26
  94  0.674  0.897  0.180-  45 2.25  43 2.26  37 2.26  42 2.36  16 2.36
  95  0.768  0.803  0.315-  46 2.25  38 2.26  44 2.26  43 2.36  37 2.36
  96  0.862  0.709  0.451-  47 2.25  39 2.26  29 2.26  44 2.36  38 2.36

  LATTYP: Found a base centered orthorhombic cell.
 ALAT       =    11.8257374459
 B/A-ratio  =     1.6199260857
 C/A-ratio  =     1.8387210052

  Lattice vectors:

 A1 = (  10.0628203371,   5.0445621212,   0.0000000000)
 A2 = (   0.0000000000, -11.2564630382,   0.0000000000)
 A3 = (   0.0000000000,   0.0000000000, -21.7442318436)

Analysis of symmetry for initial positions (statically):
 Subroutine PRICEL returns:
 Original cell was already a primitive cell.

 Routine SETGRP: Setting up the symmetry group for a
 base centered orthorhombic supercell.

 Subroutine GETGRP returns: Found  1 space group operations
 (whereof  1 operations were pure point group operations)
 out of a pool of  8 trial point group operations.

The static configuration has the point symmetry C_1 .

Analysis of symmetry for dynamics (positions and initial velocities):
 Subroutine PRICEL returns:
 Original cell was already a primitive cell.

 Routine SETGRP: Setting up the symmetry group for a
 base centered orthorhombic supercell.

 Subroutine GETGRP returns: Found  1 space group operations
 (whereof  1 operations were pure point group operations)
 out of a pool of  8 trial point group operations.

The dynamic configuration has the point symmetry C_1 .

 Subroutine INISYM returns: Found  1 space group operations
 (whereof  1 operations are pure point group operations),
 and found     1 'primitive' translations

                                     Primitive cell

  volume of cell :    2463.0075

  direct lattice vectors                    reciprocal lattice vectors
    10.062820337  5.044562121  0.000000000     0.099375718  0.000000000  0.000000000
     0.000000000 11.256463038  0.000000000    -0.044535036  0.088837852  0.000000000
     0.000000000  0.000000000 21.744231844     0.000000000  0.000000000  0.045989208

  length of vectors
    11.256463038 11.256463038 21.744231844     0.099375718  0.099375718  0.045989208

  position of ions in fractional coordinates (direct lattice)
     0.260920696  0.478780360  0.253327988
     0.354880562  0.384820493  0.388354968
     0.448840428  0.290860627  0.523381948
     0.166960829  0.072740241  0.118301008
     0.056118679  0.051479395  0.487707010
     0.274239065  0.333358994  0.082626070
     0.368198931  0.239399128  0.217653050
     0.462158798  0.145439262  0.352680030
     0.000301942  0.371502124  0.217653050
     0.094261809  0.277542258  0.352680030
     0.188221675  0.183582391  0.487707010
     0.406342061  0.465461991  0.082626070
     0.760920696  0.478780360  0.253327988
     0.854880562  0.384820493  0.388354968
     0.948840428  0.290860627  0.523381948
     0.666960829  0.072740241  0.118301008
     0.556118679  0.051479395  0.487707010
     0.774239065  0.333358994  0.082626070
     0.868198931  0.239399128  0.217653050
     0.962158798  0.145439262  0.352680030
     0.500301942  0.371502124  0.217653050
     0.594261809  0.277542258  0.352680030
     0.688221675  0.183582391  0.487707010
     0.906342061  0.465461991  0.082626070
     0.260920696  0.978780360  0.253327988
[...]
     0.000000000  0.000000000 21.744231844     0.000000000  0.000000000  0.045989208

  length of vectors
    11.256463038 11.256463038 21.744231844     0.099375718  0.099375718  0.045989208

 FORCES acting on ions
    electron-ion (+dipol)            ewald-force                    non-local-force                 convergence-correction
   0.413E+03 -.230E+03 0.623E+03   -.414E+03 0.231E+03 -.623E+03   0.845E+00 -.849E+00 0.224E+00   -.119E+00 0.109E+00 -.301E+00
   0.406E+03 -.237E+03 -.247E+04   -.407E+03 0.238E+03 0.247E+04   0.124E+01 -.916E+00 0.707E+00   -.456E-01 0.847E-01 0.106E+00
   0.278E+03 -.133E+03 -.527E+04   -.280E+03 0.135E+03 0.526E+04   0.125E+01 -.945E+00 0.572E+01   -.139E+00 0.711E-01 0.327E+00
   0.297E+03 -.431E+03 0.391E+04   -.298E+03 0.430E+03 -.391E+04   0.601E+00 0.118E+01 0.313E+01   0.172E+00 -.202E+00 -.188E+00
   -.186E+03 0.492E+03 -.463E+04   0.184E+03 -.488E+03 0.463E+04   0.109E+01 -.472E+01 0.377E+01   0.207E+00 -.836E-01 0.145E+00
   0.302E+03 0.659E+03 0.472E+04   -.297E+03 -.651E+03 -.472E+04   -.362E+01 -.767E+01 0.312E+01   -.159E+00 -.130E+00 0.455E-01
   0.552E+02 0.536E+03 0.173E+04   -.554E+02 -.537E+03 -.173E+04   0.219E+00 0.119E+01 0.120E+01   -.106E+00 -.116E+00 -.385E+00
   0.329E+02 0.532E+03 -.140E+04   -.331E+02 -.533E+03 0.140E+04   0.299E+00 0.930E+00 0.145E+01   -.435E-01 -.833E-01 -.956E-01
   -.494E+03 -.253E+03 0.173E+04   0.495E+03 0.254E+03 -.173E+04   -.107E+01 -.106E+01 0.149E+01   -.903E-01 -.603E-01 -.410E+00
   -.469E+03 -.229E+03 -.140E+04   0.470E+03 0.230E+03 0.140E+04   -.543E+00 -.924E+00 0.132E+01   0.174E-01 0.186E-01 -.292E+00
   -.524E+03 -.563E+02 -.463E+04   0.519E+03 0.555E+02 0.463E+04   0.474E+01 0.119E+01 0.375E+01   0.206E+00 0.599E-02 0.166E+00
   -.314E+03 -.229E+03 0.456E+04   0.316E+03 0.231E+03 -.457E+04   -.129E+01 -.149E+01 0.554E+01   -.267E-01 0.180E+00 0.833E-01
   0.386E+03 -.254E+03 0.599E+03   -.387E+03 0.254E+03 -.599E+03   0.836E+00 -.530E+00 0.332E+00   0.911E-01 0.304E-01 -.421E+00
   0.384E+03 -.241E+03 -.247E+04   -.385E+03 0.241E+03 0.247E+04   0.104E+01 -.632E+00 0.355E+00   -.113E+00 0.118E+00 -.191E+00
   0.193E+03 -.120E+03 -.528E+04   -.195E+03 0.121E+03 0.527E+04   0.400E+00 -.281E+00 0.540E+01   0.272E-01 0.616E-01 0.227E+00
   0.482E+03 -.240E+03 0.369E+04   -.484E+03 0.242E+03 -.369E+04   0.166E+01 -.936E+00 0.378E+01   0.725E-01 -.107E+00 -.132E+00
   0.768E+02 0.551E+03 -.454E+04   -.741E+02 -.550E+03 0.454E+04   -.188E+01 -.120E+01 -.414E+00   -.237E+00 -.383E-01 0.263E+00
   -.774E+00 0.443E+03 0.454E+04   -.105E+00 -.446E+03 -.455E+04   0.645E+00 0.222E+01 0.554E+01   0.698E-01 0.776E-01 0.105E+00
   -.161E+02 0.499E+03 0.168E+04   0.155E+02 -.500E+03 -.168E+04   0.455E+00 0.953E+00 0.106E+01   0.122E+00 0.900E-01 -.401E+00
   -.108E+02 0.514E+03 -.141E+04   0.103E+02 -.515E+03 0.141E+04   0.565E+00 0.851E+00 0.139E+01   0.491E-01 -.395E-02 -.352E+00
   -.428E+03 -.234E+03 0.168E+04   0.428E+03 0.235E+03 -.168E+04   -.288E+00 -.895E+00 0.163E+01   0.708E-01 0.180E+00 -.351E+00
   -.448E+03 -.241E+03 -.140E+04   0.449E+03 0.242E+03 0.139E+04   -.662E+00 -.639E+00 0.127E+01   -.236E-01 0.991E-01 -.147E+00
   -.452E+03 -.244E+03 -.452E+04   0.452E+03 0.242E+03 0.452E+04   0.172E+00 0.198E+01 -.182E+00   -.310E+00 0.458E-01 0.225E+00
   -.668E+03 -.370E+03 0.463E+04   0.662E+03 0.368E+03 -.464E+04   0.479E+01 0.126E+01 0.603E+01   0.751E-02 -.598E-02 0.131E+00
   0.397E+03 -.263E+03 0.618E+03   -.399E+03 0.263E+03 -.618E+03   0.123E+01 -.522E+00 0.502E+00   -.184E-02 -.253E-01 -.524E+00
   0.428E+03 -.265E+03 -.255E+04   -.429E+03 0.266E+03 0.255E+04   0.111E+01 -.689E+00 0.953E+00   0.863E-01 -.777E-01 0.320E-01
   0.491E+03 -.303E+03 -.532E+04   -.484E+03 0.299E+03 0.530E+04   -.683E+01 0.425E+01 0.119E+02   0.647E-01 -.972E-01 0.239E+00
   0.517E+03 -.930E+02 0.387E+04   -.517E+03 0.953E+02 -.387E+04   0.225E+00 -.177E+01 0.203E+01   0.369E-02 0.453E-02 -.102E+00
   0.152E+02 0.514E+03 -.452E+04   -.129E+02 -.513E+03 0.452E+04   -.168E+01 -.107E+01 -.119E+00   0.133E+00 0.177E-01 0.155E+00
   -.625E+02 0.326E+03 0.475E+04   0.593E+02 -.328E+03 -.475E+04   0.242E+01 0.136E+01 0.235E+01   0.195E-01 0.278E+00 -.669E-02
   0.249E+02 0.494E+03 0.169E+04   -.255E+02 -.495E+03 -.170E+04   0.551E+00 0.823E+00 0.162E+01   -.477E-01 0.207E+00 -.468E+00
   0.305E+02 0.498E+03 -.141E+04   -.305E+02 -.499E+03 0.141E+04   0.112E+00 0.936E+00 0.165E+01   0.233E-01 0.152E-01 -.506E-01
   -.472E+03 -.239E+03 0.168E+04   0.473E+03 0.240E+03 -.168E+04   -.645E+00 -.674E+00 0.826E+00   0.583E-01 0.370E-01 -.393E+00
   -.464E+03 -.259E+03 -.141E+04   0.465E+03 0.260E+03 0.140E+04   -.769E+00 -.683E+00 0.144E+01   0.906E-01 0.779E-02 -.229E+00
   -.459E+03 -.314E+03 -.454E+04   0.458E+03 0.311E+03 0.454E+04   0.219E+00 0.221E+01 -.398E+00   0.262E+00 0.258E-01 0.189E+00
   -.187E+03 -.279E+03 0.483E+04   0.191E+03 0.280E+03 -.482E+04   -.288E+01 -.870E+00 -.213E+01   -.247E+00 -.256E+00 0.137E-01
   0.402E+03 -.240E+03 0.589E+03   -.403E+03 0.240E+03 -.589E+03   0.111E+01 -.665E+00 0.468E+00   0.117E+00 -.101E+00 -.432E+00
   0.393E+03 -.252E+03 -.248E+04   -.394E+03 0.252E+03 0.247E+04   0.125E+01 -.708E+00 0.549E+00   -.196E-01 -.458E-01 -.147E+00
   0.243E+03 -.187E+03 -.527E+04   -.245E+03 0.189E+03 0.526E+04   0.139E+01 -.746E+00 0.584E+01   0.996E-01 -.633E-01 0.208E+00
   0.436E+03 -.304E+03 0.371E+04   -.438E+03 0.305E+03 -.372E+04   0.186E+01 -.127E+01 0.405E+01   0.522E-01 0.621E-01 -.115E+00
   0.526E+02 0.479E+03 -.453E+04   -.499E+02 -.479E+03 0.453E+04   -.185E+01 -.759E+00 -.178E+00   -.196E+00 0.252E+00 0.241E+00
   0.458E+02 0.532E+03 0.456E+04   -.467E+02 -.534E+03 -.456E+04   0.840E+00 0.230E+01 0.549E+01   -.113E+00 -.116E+00 0.144E+00
   -.257E+01 0.533E+03 0.169E+04   0.216E+01 -.534E+03 -.169E+04   0.374E+00 0.100E+01 0.157E+01   -.180E-01 -.440E-01 -.376E+00
   0.105E+02 0.516E+03 -.139E+04   -.107E+02 -.517E+03 0.139E+04   0.280E+00 0.937E+00 0.130E+01   -.786E-02 -.463E-01 -.256E+00
   -.423E+03 -.253E+03 0.170E+04   0.424E+03 0.254E+03 -.171E+04   -.898E+00 -.702E+00 0.141E+01   -.551E-01 -.431E-01 -.428E+00
   -.432E+03 -.250E+03 -.141E+04   0.433E+03 0.250E+03 0.141E+04   -.777E+00 -.541E+00 0.169E+01   -.585E-02 -.644E-01 -.144E+00
   -.405E+03 -.262E+03 -.453E+04   0.406E+03 0.259E+03 0.453E+04   -.152E+00 0.195E+01 -.136E+00   -.343E+00 -.694E-01 0.215E+00
   -.453E+03 -.252E+03 0.454E+04   0.455E+03 0.254E+03 -.455E+04   -.147E+01 -.155E+01 0.533E+01   0.130E+00 0.116E+00 0.145E+00
   -.129E+03 0.716E+02 0.266E+03   0.131E+03 -.725E+02 -.267E+03   -.178E+01 0.888E+00 0.118E+01   0.649E-02 -.100E-01 -.203E+00
   -.134E+03 0.817E+02 -.934E+03   0.136E+03 -.829E+02 0.932E+03   -.159E+01 0.111E+01 0.261E+01   0.395E-01 -.119E-01 -.141E-01
   -.384E+02 0.928E+02 0.205E+04   0.388E+02 -.937E+02 -.206E+04   -.114E+01 0.432E+00 0.535E+01   -.339E-01 -.862E-02 0.778E-01
   -.991E+02 0.101E+03 0.141E+04   0.101E+03 -.102E+03 -.141E+04   -.197E+01 0.521E+00 0.127E+01   -.492E-02 0.637E-02 -.119E+00
   -.254E+02 0.157E+02 -.201E+04   0.254E+02 -.159E+02 0.201E+04   -.900E+00 0.664E+00 -.359E+01   0.106E+00 -.112E-01 0.715E-01
   -.162E+02 -.161E+03 -.137E+04   0.159E+02 0.164E+03 0.137E+04   0.543E+00 -.305E+01 0.137E+01   0.296E-01 0.446E-01 0.109E-01
   0.605E+01 -.172E+03 -.216E+03   -.611E+01 0.174E+03 0.216E+03   -.268E-01 -.270E+01 0.454E-01   -.161E-01 0.438E-01 -.692E-01
   0.233E+02 -.177E+03 0.977E+03   -.229E+02 0.180E+03 -.977E+03   -.560E+00 -.239E+01 -.109E+01   -.460E-01 -.168E+00 -.184E+00
   0.162E+03 0.829E+02 0.981E+03   -.164E+03 -.843E+02 -.981E+03   0.207E+01 0.152E+01 -.834E+00   -.915E-01 -.207E-01 -.145E+00
   0.156E+03 0.798E+02 -.212E+03   -.158E+03 -.809E+02 0.212E+03   0.262E+01 0.111E+01 0.928E-01   -.486E-01 0.220E-02 -.616E-01
   0.161E+03 0.107E+03 -.138E+04   -.164E+03 -.108E+03 0.138E+04   0.303E+01 0.856E+00 0.123E+01   0.117E-01 0.526E-01 0.117E+00
   -.114E+03 0.778E+02 0.260E+03   0.116E+03 -.791E+02 -.262E+03   -.161E+01 0.127E+01 0.182E+01   0.484E-01 -.155E-01 -.114E+00
[...]
   0.165E+03 0.530E+02 -.138E+04   -.168E+03 -.542E+02 0.138E+04   0.274E+01 0.121E+01 0.144E+01   0.644E-01 0.181E-01 0.143E+00
   -.117E+03 0.709E+02 0.259E+03   0.119E+03 -.720E+02 -.262E+03   -.202E+01 0.108E+01 0.250E+01   0.199E-01 0.331E-01 -.150E+00
   -.114E+03 0.701E+02 -.898E+03   0.116E+03 -.713E+02 0.896E+03   -.195E+01 0.123E+01 0.214E+01   -.545E-01 0.291E-01 0.474E-01
   -.110E+03 0.801E+02 0.207E+04   0.112E+03 -.810E+02 -.207E+04   -.147E+01 0.111E+01 0.533E+01   -.546E-02 0.260E-02 0.561E-01
   -.151E+03 0.110E+03 0.142E+04   0.153E+03 -.112E+03 -.142E+04   -.129E+01 0.834E+00 0.126E+01   -.161E-01 0.146E-01 -.779E-02
   -.251E+02 0.159E+02 -.201E+04   0.254E+02 -.158E+02 0.201E+04   -.103E+01 0.499E+00 -.361E+01   -.457E-01 -.342E-01 0.128E+00
   0.270E+02 -.172E+03 -.138E+04   -.271E+02 0.174E+03 0.138E+04   0.763E-01 -.302E+01 0.144E+01   -.226E-01 -.110E+00 0.126E+00
   -.313E+01 -.173E+03 -.220E+03   0.297E+01 0.176E+03 0.220E+03   0.164E+00 -.278E+01 -.115E+00   0.290E-01 -.713E-03 -.158E+00
   0.718E+02 -.722E+02 0.203E+04   -.736E+02 0.720E+02 -.203E+04   0.255E+01 0.135E+00 0.635E+01   -.179E-01 -.155E-01 0.662E-01
   -.148E+02 -.171E+03 0.944E+03   0.147E+02 0.174E+03 -.944E+03   0.268E+00 -.308E+01 0.452E+00   0.102E-01 -.186E-01 -.107E+00
   0.164E+03 -.164E+02 0.203E+04   -.166E+03 0.175E+02 -.204E+04   0.130E+01 -.163E+01 0.499E+01   -.590E-01 -.875E-01 0.497E-01
   0.165E+03 0.778E+02 0.932E+03   -.167E+03 -.790E+02 -.932E+03   0.257E+01 0.123E+01 0.456E+00   -.585E-02 -.742E-01 -.112E+00
   0.155E+03 0.755E+02 -.216E+03   -.158E+03 -.766E+02 0.217E+03   0.241E+01 0.110E+01 0.238E-01   -.119E-01 -.303E-01 -.148E+00
   0.154E+03 0.821E+02 -.136E+04   -.157E+03 -.832E+02 0.136E+04   0.294E+01 0.962E+00 0.132E+01   -.557E-01 -.542E-01 0.289E-01
   -.216E+02 0.178E+02 -.172E+03   0.117E-11 0.938E-12 -.909E-12   0.217E+02 -.186E+02 0.177E+03   -.210E+00 0.505E+00 -.554E+01

 POSITION                                       TOTAL-FORCE (eV/Angst)
      2.62560      6.70560      5.50842         0.161165      0.008749     -0.182139
      3.57110      6.12193      8.44448         0.133651     -0.048672      0.049441
      4.51660      5.53827     11.38054        -1.024852      0.640315     -1.314485
      1.68010      1.66104      2.57236        -0.357196     -0.505423     -0.026271
      0.56471      0.86257     10.60481        -0.439606      0.098849     -1.474363
      2.75962      5.13586      1.79664         0.875054      0.592682      0.042799
      3.70512      4.55219      4.73270        -0.043575      0.134708     -0.181930
      4.65062      3.96852      7.66876         0.079375     -0.065044      0.063724
      0.00304      4.18332      4.73270        -0.219792     -0.104914      0.053559
      0.94854      3.59965      7.66876         0.217325     -0.033309      0.158003
      1.89404      3.01598     10.60481        -0.290507      0.360923     -1.489762
      4.08895      7.28927      1.79664         0.086163      0.304308     -0.617662
      7.65701      9.22789      5.50842         0.082054     -0.139416     -0.072581
      8.60251      8.64422      8.44448         0.016935     -0.024767      0.078483
      9.54801      8.06055     11.38054        -0.812524      0.497886     -1.452814
      6.71151      4.18332      2.57236        -0.094767      0.214208     -0.395116
      5.59612      3.38485     10.60481         0.614257     -0.051495     -0.496383
      7.79103      7.65814      1.79664        -0.162802     -0.511862     -0.568777
      8.73653      7.07447      4.73270         0.017332      0.123296      0.065519
      9.68203      6.49080      7.66876         0.130796     -0.221851      0.148034
      5.03445      6.70560      4.73270        -0.026465      0.001411      0.028232
      5.97995      6.12193      7.66876         0.142407     -0.103466     -0.019483
      6.92545      5.53827     10.60481         0.312591     -0.645166     -0.505740
      9.12036      9.81155      1.79664        -0.607457     -0.366017     -0.170962
      2.62560     12.33384      5.50842        -0.102899      0.010657     -0.168753
      3.57110     11.75017      8.44448        -0.014175      0.032969      0.150009
      4.51660     11.16650     11.38054         0.174795     -0.108393     -1.746634
      1.68010      7.28927      2.57236         0.128193      0.538326      0.002874
      0.56471      6.49080     10.60481         0.736990     -0.003935     -0.526517
      2.75962     10.76409      1.79664        -0.732737     -0.416724      0.388339
      3.70512     10.18042      4.73270        -0.026393     -0.029985     -0.145635
      4.65062      9.59675      7.66876         0.171553     -0.017406     -0.002218
      0.00304      9.81155      4.73270         0.035479      0.025249     -0.025086
      0.94854      9.22789      7.66876         0.114351     -0.063855      0.040137
      1.89404      8.64422     10.60481         0.290937     -0.527431     -0.505596
      4.08895     12.91750      1.79664         0.989966      0.341659      0.934637
      7.65701     14.85612      5.50842         0.103535     -0.111504     -0.063680
      8.60251     14.27245      8.44448         0.086850     -0.117343      0.019162
      9.54801     13.68878     11.38054        -1.022753      0.626780     -1.290120
      6.71151      9.81155      2.57236        -0.257658      0.055955     -0.373944
      5.59612      9.01308     10.60481         0.679670     -0.033541     -0.579359
      7.79103     13.28637      1.79664        -0.121549     -0.318165     -0.666915
      8.73653     12.70270      4.73270        -0.057089      0.183222      0.065930
      9.68203     12.11903      7.66876         0.089890     -0.124339      0.002665
      5.03445     12.33384      4.73270        -0.157489      0.039458     -0.206146
      5.97995     11.75017      7.66876         0.067039     -0.147298      0.019116
      6.92545     11.16650     10.60481         0.350049     -0.590195     -0.577946
      9.12036     15.43979      1.79664         0.194845      0.255599     -0.568498
      0.73335      2.24548      5.87212         0.024518      0.013736      0.023827
      1.67886      1.66181      8.80817         0.188673     -0.093353      0.964969
      3.87376      5.93510      0.00000        -0.746884     -0.408352      1.520094
      4.81926      5.35143      2.93606        -0.149324     -0.013530     -0.241171
      2.62436      6.70637     11.74423        -0.800786      0.453851      0.028990
      0.30423      4.40389      9.79595         0.216162     -0.185374      1.060100
      4.39014      7.50984      6.85989        -0.102581      0.031145      0.158474
      3.44464      2.46527      3.92384        -0.225461     -0.020028     -0.997487
      1.75192      5.35143      3.92384        -0.324916      0.066968     -1.005383
      2.69743      4.76776      6.85989         0.005299     -0.023097     -0.009312
      3.64293      4.18409      9.79595         0.146132     -0.324866      1.143427
      5.76476      4.76776      5.87212         0.083400     -0.078911      0.040777
[...]
      2.69743     10.39599      6.85989        -0.131532     -0.051994      0.190561
      3.64293      9.81232      9.79595         0.138065      0.052430      1.454489
      5.76476     10.39599      5.87212        -0.003484     -0.005778      0.042772
      6.71027      9.81232      8.80817        -0.137309      0.071303      0.107470
      8.90517     14.08561      0.00000        -0.174611      0.142554      1.115822
      9.85067     13.50194      2.93606         0.251530     -0.351239     -0.507868
      7.65577     14.85688     11.74423        -0.774563      0.520771      0.018641
      5.33564     12.55440      9.79595         0.027568     -0.155368      1.452547
      9.42155     15.66035      6.85989         0.038523      0.015101      0.033905
      7.53055     11.19946      0.98778         0.713425     -0.103072      0.440173
      8.47605     10.61579      3.92384         0.152024      0.064542     -0.279856
      5.83783     14.08561      0.98778        -0.769386     -0.575601      0.521977
      6.78333     13.50194      3.92384         0.062684     -0.008023     -0.136446
      7.72884     12.91827      6.85989        -0.010245      0.011272      0.124173
      8.67434     12.33460      9.79595         0.276683     -0.173063      1.109419
    total drift:                               -0.147789     -0.278362      0.095534

  FREE ENERGIE OF THE ION-ELECTRON SYSTEM (eV)
  free  energy   TOTEN  =      -479.10688949 eV

  energy  without entropy=     -477.82411118  energy(sigma->0) =     -478.46550034