 vasp.5.4.4.18Apr17-6-g9f103f2a35 (build Aug 13 2019 17:33:20) gamma-only

 executed on             LinuxIFC date 2020.05.10  12:27:50

 INCAR:
 POTCAR:    PAW_PBE Ni_pv 06Sep2000
 POTCAR:    PAW_PBE S 06Sep2000
 POTCAR:    PAW_PBE Ni_pv 06Sep2000
   VRHFIN =Ni:

   TITEL  = PAW_PBE Ni_pv 06Sep2000
   POMASS =   58.690; ZVAL   =   16.000    mass and valenz
   ENMAX  =  367.986; ENMIN  =  275.989 eV

 POTCAR:    PAW_PBE S 06Sep2000
   VRHFIN =S : s2p4

   TITEL  = PAW_PBE S 06Sep2000
   POMASS =   32.066; ZVAL   =    6.000    mass and valenz
   ENMAX  =  258.689; ENMIN  =  194.016 eV

 Optimization of the real space projectors (new method)

 maximal supplied QI-value         = 18.90
 optimisation between [QCUT,QGAM] = [ 10.77, 21.73] = [ 32.49,132.25] Ry
 Optimized for a Real-space Cutoff    1.38 Angstroem

   l    n(q)    QCUT    max X(q) W(low)/X(q) W(high)/X(q)  e(spline)
   1      8    10.771     2.836    0.40E-04    0.29E-04    0.12E-06
   1      8    10.771     4.023    0.10E-03    0.48E-04    0.29E-06
   2      8    10.771    73.368    0.42E-03    0.97E-04    0.44E-06
   2      8    10.771    69.010    0.42E-03    0.99E-04    0.45E-06
   0      9    10.771    54.797    0.10E-03    0.56E-04    0.74E-07
   0      9    10.771    24.266    0.89E-04    0.49E-04    0.67E-07
 Optimization of the real space projectors (new method)

 maximal supplied QI-value         = 19.84
 optimisation between [QCUT,QGAM] = [ 10.71, 21.63] = [ 32.15,130.99] Ry
 Optimized for a Real-space Cutoff    1.19 Angstroem

   l    n(q)    QCUT    max X(q) W(low)/X(q) W(high)/X(q)  e(spline)
   0      8    10.715   187.594    0.41E-03    0.53E-04    0.66E-07
   0      8    10.715   164.243    0.41E-03    0.53E-04    0.65E-07
   1      7    10.715    67.533    0.19E-03    0.59E-03    0.68E-07
   1      7    10.715    50.729    0.19E-03    0.58E-03    0.67E-07
  PAW_PBE Ni_pv 06Sep2000               :
  PAW_PBE S 06Sep2000                   :

 POSCAR: Type_026 Type_126
  positions in cartesian coordinates
 exchange correlation table for  LEXCH =        8
   RHO(1)=    0.500       N(1)  =     2000
   RHO(2)=  100.500       N(2)  =     4000

 ion  position               nearest neighbor table
   1  0.439  0.464  0.163-  35 2.06  44 2.08  29 2.25  36 2.36  45 2.36   5 2.53  22 2.53
   2  0.492  0.451  0.324-  41 2.02  36 2.04  45 2.05  23 2.49   6 2.53
   3  0.235  0.828  0.104-  38 2.07  37 2.07  29 2.08  33 2.15
   4  0.207  0.974  0.237-  34 2.10  27 2.11  33 2.11  38 2.12  12 2.41
   5  0.439  0.200  0.163-  39 2.07  35 2.09  33 2.25  36 2.36  40 2.36   1 2.53  22 2.53
   6  0.474  0.188  0.322-  36 2.04  41 2.06  40 2.12  34 2.28  13 2.38   2 2.53
   7  0.158  0.575  0.118-  30 2.06  37 2.08  29 2.23  31 2.26   8 2.40  24 2.44   9 2.48
   8  0.203  0.694  0.238-  38 2.07  31 2.13  29 2.15   7 2.40  12 2.42
   9  0.155  0.331  0.166-  30 2.07  27 2.09  35 2.09  31 2.11   7 2.48
  10  0.182  0.332  0.319-  28 2.08  32 2.10  36 2.25  27 2.26  31 2.26  19 2.48
  11  0.462  0.860  0.092-  50 2.05  51 2.11  33 2.19  12 2.43  29 2.56
  12  0.382  0.832  0.222-  33 2.11  29 2.11  34 2.25  13 2.32   4 2.41   8 2.42  11 2.43  51 2.48

  13  0.524  0.953  0.292-  34 2.02  52 2.07  17 2.25  12 2.32   6 2.38  51 2.38  40 2.42
  14  0.939  0.464  0.163-  30 2.05  48 2.11  42 2.25  49 2.36  31 2.36
  15  0.976  0.481  0.319-  32 2.05  49 2.06  31 2.07  43 2.12
  16  0.656  0.998  0.110-  39 2.07  50 2.09  51 2.11  46 2.13
  17  0.715  0.964  0.253-  52 2.16  47 2.20  40 2.25  13 2.25  51 2.26  46 2.26  26 2.50  25 2.53
                            21 2.53
  18  0.921  0.177  0.193-  49 2.07  46 2.09  48 2.14  27 2.29  47 2.37  19 2.52
  19  0.992  0.204  0.331-  28 2.10  32 2.10  27 2.11  49 2.14  47 2.16  10 2.48  18 2.52
  20  0.661  0.691  0.100-  50 2.06  51 2.08  44 2.08  42 2.16
  21  0.715  0.700  0.253-  52 2.13  43 2.15  45 2.25  51 2.26  42 2.26  25 2.53  17 2.53
  22  0.631  0.332  0.139-  39 2.07  44 2.07  48 2.12  40 2.36  45 2.36   5 2.53   1 2.53
  23  0.683  0.331  0.299-  41 2.06  40 2.07  45 2.08  49 2.14   2 2.49
  24  0.989  0.730  0.097-  37 2.03  42 2.05  38 2.07   7 2.44
  25  0.907  0.832  0.229-  43 2.15  47 2.18  38 2.25  42 2.26  46 2.26  26 2.48  17 2.53  21 2.53

  26  0.828  0.856  0.363-  52 2.03  43 2.04  47 2.07  25 2.48  17 2.50
  27  0.111  0.164  0.239-   9 2.09   4 2.11  19 2.11  10 2.26  18 2.29  28 2.76
  28  0.146  0.173  0.398-  10 2.08  32 2.09  19 2.10  27 2.76
  29  0.336  0.664  0.149-   3 2.08  12 2.11   8 2.15   7 2.23   1 2.25  11 2.56
  30  0.056  0.414  0.076-  14 2.05   7 2.06   9 2.07
  31  0.111  0.500  0.239-  15 2.07   9 2.11   8 2.13   7 2.26  10 2.26  14 2.36
  32  0.053  0.363  0.405-  15 2.05  28 2.09  10 2.10  19 2.10
  33  0.336  1.000  0.149-   4 2.11  12 2.11   3 2.15  11 2.19   5 2.25
  34  0.352  0.999  0.312-  13 2.02   4 2.10  12 2.25   6 2.28
  35  0.319  0.334  0.109-   1 2.06   5 2.09   9 2.09
  36  0.368  0.332  0.269-   2 2.04   6 2.04  10 2.25   1 2.36   5 2.36
  37  0.133  0.713  0.027-  24 2.03   3 2.07   7 2.08
  38  0.092  0.832  0.179-   3 2.07   8 2.07  24 2.07   4 2.12  25 2.25
  39  0.560  0.170  0.074-   5 2.07  22 2.07  16 2.07
  40  0.611  0.164  0.239-  23 2.07   6 2.12  17 2.25  22 2.36   5 2.36  13 2.42
  41  0.575  0.313  0.394-   2 2.02   6 2.06  23 2.06
  42  0.836  0.664  0.149-  24 2.05  20 2.16  14 2.25  25 2.26  21 2.26
  43  0.879  0.671  0.314-  26 2.04  15 2.12  21 2.15  25 2.15
  44  0.569  0.506  0.080-  22 2.07  20 2.08   1 2.08  45 2.77
  45  0.611  0.500  0.239-   2 2.05  23 2.08  21 2.25  22 2.36   1 2.36  44 2.77
  46  0.836  1.000  0.149-  18 2.09  16 2.13  25 2.26  17 2.26  47 2.65
  47  0.891  0.022  0.298-  26 2.07  19 2.16  25 2.18  17 2.20  18 2.37  46 2.65
  48  0.817  0.314  0.122-  14 2.11  22 2.12  18 2.14  49 2.60
  49  0.868  0.332  0.269-  15 2.06  18 2.07  19 2.14  23 2.14  14 2.36  48 2.60
  50  0.613  0.850  0.025-  11 2.05  20 2.06  16 2.09  51 2.67
  51  0.592  0.832  0.179-  20 2.08  16 2.11  11 2.11  17 2.26  21 2.26  13 2.38  12 2.48  50 2.67

  52  0.652  0.828  0.344-  26 2.03  13 2.07  21 2.13  17 2.16

  LATTYP: Found a simple orthorhombic cell.
 ALAT       =     9.5784100000
 B/A-ratio  =     1.1751911892
 C/A-ratio  =     1.7949213288

  Lattice vectors:

 A1 = (   0.0000000000,  -9.5784100000,   0.0000000000)
 A2 = ( -11.2564630382,   0.0000000000,   0.0000000000)
 A3 = (   0.0000000000,   0.0000000000, -17.1924924047)

Analysis of symmetry for initial positions (statically):
 Subroutine PRICEL returns:
 Original cell was already a primitive cell.

 Routine SETGRP: Setting up the symmetry group for a
 simple orthorhombic supercell.

 Subroutine GETGRP returns: Found  1 space group operations
 (whereof  1 operations were pure point group operations)
 out of a pool of  8 trial point group operations.

The static configuration has the point symmetry C_1 .

Analysis of symmetry for dynamics (positions and initial velocities):
 Subroutine PRICEL returns:
 Original cell was already a primitive cell.

 Routine SETGRP: Setting up the symmetry group for a
 simple orthorhombic supercell.

 Subroutine GETGRP returns: Found  1 space group operations
 (whereof  1 operations were pure point group operations)
 out of a pool of  8 trial point group operations.

The dynamic configuration has the point symmetry C_1 .

 Subroutine INISYM returns: Found  1 space group operations
 (whereof  1 operations are pure point group operations),
 and found     1 'primitive' translations

 KPOINTS: gamma-point-only calculation. no periodi

Automatic generation of k-mesh.
Space group operators:
 irot       det(A)        alpha          n_x          n_y          n_z        tau_x        tau_y        tau_z
    1     1.000000     0.000000     1.000000     0.000000     0.000000     0.000000     0.000000     0.000000

 Subroutine IBZKPT returns following result:

 Found      1 irreducible k-points:

 Following reciprocal coordinates:
            Coordinates               Weight
  0.000000  0.000000  0.000000      1.000000

 Following cartesian coordinates:
            Coordinates               Weight
  0.000000  0.000000  0.000000      1.000000

 SYSTEM =  "Millerite NiS"
 POSCAR =  Type_026 Type_126

 Startparameter for this run:
   NWRITE =      2    write-flag & timer
   PREC   = normal    normal or accurate (medium, high low for compatibility)
   ISTART =      0    job   : 0-new  1-cont  2-samecut
   ICHARG =      2    charge: 1-file 2-atom 10-const
   ISPIN  =      1    spin polarized calculation?
   LNONCOLLINEAR =      F non collinear calculations
   LSORBIT =      F    spin-orbit coupling
   INIWAV =      1    electr: 0-lowe 1-rand  2-diag
   LASPH  =      F    aspherical Exc in radial PAW
   METAGGA=      F    non-selfconsistent MetaGGA calc.

 Electronic Relaxation 1
   ENCUT  =  450.0 eV  33.07 Ry    5.75 a.u.  19.47 16.57 29.74*2*pi/ulx,y,z
   ENINI  =  450.0     initial cutoff
   ENAUG  =  703.4 eV  augmentation charge cutoff
   NELM   =    100;   NELMIN=  2; NELMDL= -5     # of ELM steps
   EDIFF  = 0.1E-03   stopping-criterion for ELM
   LREAL  =      T    real-space projection
   NLSPLINE    = F    spline interpolate recip. space projectors
   LCOMPAT=      F    compatible to vasp.4.4
   GGA_COMPAT  = T    GGA compatible to vasp.4.4-vasp.4.6
   LMAXPAW     = -100 max onsite density
   LMAXMIX     =    2 max onsite mixed and CHGCAR
   VOSKOWN=      0    Vosko Wilk Nusair interpolation
   ROPT   =   -0.00050  -0.00050
 Ionic relaxation
   EDIFFG = 0.1E-02   stopping-criterion for IOM
   NSW    =      0    number of steps for IOM
   NBLOCK =      1;   KBLOCK =      1    inner block; outer block
   IBRION =     -1    ionic relax: 0-MD 1-quasi-New 2-CG
   NFREE  =      0    steps in history (QN), initial steepest desc. (CG)
   ISIF   =      2    stress and relaxation
   IWAVPR =     10    prediction:  0-non 1-charg 2-wave 3-comb
   ISYM   =      2    0-nonsym 1-usesym 2-fastsym
   LCORR  =      T    Harris-Foulkes like correction to forces

   POTIM  = 0.5000    time-step for ionic-motion
   TEIN   =    0.0    initial temperature
   TEBEG  =    0.0;   TEEND  =   0.0 temperature during run
   SMASS  =  -3.00    Nose mass-parameter (am)
   estimated Nose-frequenzy (Omega)   =  0.10E-29 period in steps =****** mass=  -0.290E-26a.u.
   SCALEE = 1.0000    scale energy and forces
   NPACO  =    256;   APACO  = 16.0  distance and # of slots for P.C.
   PSTRESS=    0.0 pullay stress

  Mass of Ions in am
   POMASS =  58.69 32.07
  Ionic Valenz
   ZVAL   =  16.00  6.00
  Atomic Wigner-Seitz radii
  virtual crystal weights
   VCA    =   1.00  1.00
   NELECT =     572.0000    total number of electrons
   NUPDOWN=      -1.0000    fix difference up-down

 DOS related values:
   EMIN   =  10.00;   EMAX   =-10.00  energy-range for DOS
   EFERMI =   0.00
   ISMEAR =     0;   SIGMA  =   0.20  broadening in eV -4-tet -1-fermi 0-gaus

 Electronic relaxation 2 (details)
   IALGO  =     38    algorithm
   LDIAG  =      T    sub-space diagonalisation (order eigenvalues)
   LSUBROT=      F    optimize rotation matrix (better conditioning)
   TURBO    =      0    0=normal 1=particle mesh
   IRESTART =      0    0=no restart 2=restart with 2 vectors
[...]
      26 -87.4231      27 -93.1966      28 -93.0805      29 -93.1541      30 -92.5157
      31 -93.3541      32 -93.4502      33 -93.0458      34 -92.3088      35 -92.2845
      36 -93.1190      37 -92.0251      38 -93.5123      39 -92.2434      40 -93.4277
      41 -92.4162      42 -92.9691      43 -92.5014      44 -92.2848      45 -93.2216
      46 -92.7965      47 -93.0616      48 -92.3436      49 -93.3777      50 -92.3529
      51 -93.7625      52 -92.5957

 E-fermi :  -0.0511     XC(G=0):  -5.4139     alpha+bet : -5.1393

 k-point     1 :       0.0000    0.0000    0.0000
  band No.  band energies     occupation
      1     -65.1237      2.00000
      2     -64.8618      2.00000
      3     -64.8537      2.00000
      4     -64.8103      2.00000
      5     -64.6585      2.00000
      6     -64.6488      2.00000
      7     -64.6333      2.00000
      8     -64.6318      2.00000
      9     -64.5853      2.00000
     10     -64.5764      2.00000
     11     -64.5628      2.00000
     12     -64.5609      2.00000
     13     -64.5523      2.00000
     14     -64.5482      2.00000
     15     -64.5343      2.00000
     16     -64.5322      2.00000
     17     -64.5205      2.00000
     18     -64.5133      2.00000
     19     -64.5071      2.00000
     20     -64.5044      2.00000
     21     -64.4857      2.00000
     22     -64.4852      2.00000
     23     -64.4768      2.00000
     24     -64.4734      2.00000
     25     -64.4693      2.00000
     26     -64.4687      2.00000
     27     -64.4598      2.00000
     28     -64.4591      2.00000
     29     -64.4552      2.00000
     30     -64.4529      2.00000
     31     -64.4469      2.00000
     32     -64.4254      2.00000
     33     -64.4209      2.00000
     34     -64.4032      2.00000
     35     -64.3968      2.00000
     36     -64.3908      2.00000
     37     -64.3868      2.00000
     38     -64.3707      2.00000
     39     -64.3676      2.00000
     40     -64.3625      2.00000
     41     -64.3303      2.00000
     42     -64.3272      2.00000
     43     -64.3239      2.00000
     44     -64.3051      2.00000
     45     -64.3042      2.00000
     46     -64.2869      2.00000
     47     -64.2839      2.00000
     48     -64.2701      2.00000
     49     -64.2677      2.00000
     50     -64.2390      2.00000
     51     -64.2188      2.00000
     52     -64.2123      2.00000
     53     -64.1925      2.00000
     54     -64.1862      2.00000
     55     -64.1766      2.00000
     56     -64.1739      2.00000
     57     -64.1718      2.00000
     58     -64.1636      2.00000
     59     -64.1519      2.00000
     60     -64.1442      2.00000
[...]
    330       5.0043      0.00000
    331       5.0754      0.00000
    332       5.0980      0.00000
    333       5.1302      0.00000
    334       5.1669      0.00000
    335       5.2355      0.00000
    336       5.2918      0.00000
    337       5.4140      0.00000
    338       5.4507      0.00000
    339       5.4862      0.00000
    340       5.5100      0.00000
    341       5.5178      0.00000
    342       5.6373      0.00000
    343       5.6555      0.00000
    344       5.7100      0.00000

 soft charge-density along one line, spin component           1
         0         1         2         3         4         5         6         7         8         9
 total charge-density along one line

------------------------ aborting loop because EDIFF is reached ----------------------------------------

  FORCE on cell =-STRESS in cart. coord.  units (eV):
  Direction    XX          YY          ZZ          XY          YZ          ZX
  Alpha Z  1046.73971  1046.73971  1046.73971
  Ewald  163019.28908160335.04253************   614.68691   347.48014   745.85184
  Hartree187401.82080185353.23516************   439.40752   246.81464   562.00726
  E(xc)   -3652.66926 -3653.52050 -3657.74599     0.18260     0.12480     0.52770
  Local  ************************347056.69750 -1052.12866  -589.27511 -1289.05457
  n-local  -412.43773  -427.21968  -432.40107     2.11117    -0.94178     0.94928
  augment  4168.59032  4185.79031  4188.80654    -3.88215     0.37974    -7.63150
  Kinetic  8018.64837  8024.57860  8086.01892    -1.85863    -2.48163   -14.51126
  Fock        0.00000     0.00000     0.00000     0.00000     0.00000     0.00000
  Total     100.92457    92.87183   102.88942    -1.48124     2.10079    -1.86126
  in kB      87.23149    80.27131    88.92975    -1.28027     1.81577    -1.60873

 VOLUME and BASIS-vectors are now :
  energy-cutoff  :      450.00
  volume of cell :     1853.68
      direct lattice vectors                 reciprocal lattice vectors
    11.256463038  0.000000000  0.000000000     0.088837852  0.000000000  0.000000000
     0.000000000  9.578410000  0.000000000     0.000000000  0.104401461  0.000000000
     0.000000000  0.000000000 17.192492405     0.000000000  0.000000000  0.058164923

  length of vectors
    11.256463038  9.578410000 17.192492405     0.088837852  0.104401461  0.058164923

 FORCES acting on ions
    electron-ion (+dipol)            ewald-force                    non-local-force                 convergence-correction
   0.262E+03 -.399E+03 0.139E+04   -.263E+03 0.401E+03 -.140E+04   0.159E+01 -.122E+01 0.452E+01   0.391E-01 0.938E-01 0.327E+00
   0.454E+03 -.101E+04 -.322E+04   -.454E+03 0.101E+04 0.322E+04   -.595E+00 -.466E+00 -.136E+01   0.308E-01 0.132E+00 0.216E+00
   0.228E+03 -.654E+03 0.337E+04   -.227E+03 0.658E+03 -.338E+04   -.419E+00 -.215E+01 0.107E+02   0.972E-01 -.135E-01 0.106E+00
   0.547E+03 -.341E+03 -.109E+04   -.549E+03 0.344E+03 0.110E+04   0.919E+00 -.324E+01 -.291E+01   0.516E-02 -.122E+00 0.216E+00
   0.535E+03 0.176E+03 0.166E+04   -.536E+03 -.177E+03 -.166E+04   0.149E+01 0.964E+00 0.509E+01   0.598E-01 0.185E-01 0.199E+00
   0.434E+03 0.179E+03 -.326E+04   -.436E+03 -.185E+03 0.326E+04   0.780E+00 0.331E+01 -.373E+01   0.135E+00 0.116E+00 0.200E+00
   -.252E+03 0.420E+03 0.275E+04   0.252E+03 -.422E+03 -.276E+04   -.104E+00 0.821E+00 0.608E+01   0.130E+00 -.484E-01 0.195E+00
   0.144E+02 0.153E+03 -.197E+04   -.140E+02 -.153E+03 0.197E+04   -.429E+00 -.581E-01 -.166E+01   0.866E-01 -.217E-01 0.298E+00
   -.186E+03 0.684E+03 0.172E+04   0.190E+03 -.689E+03 -.173E+04   -.405E+01 0.459E+01 0.483E+01   -.264E-01 0.188E-01 0.117E+00
   -.704E+03 -.264E+03 -.282E+04   0.713E+03 0.266E+03 0.281E+04   -.760E+01 -.431E+00 0.131E+01   0.956E-01 0.128E+00 0.186E+00
   0.273E+03 -.361E+01 0.352E+04   -.274E+03 0.448E+01 -.353E+04   0.545E+00 -.111E+01 0.527E+01   0.497E-02 -.946E-02 0.523E-01
   -.856E+02 0.496E+03 -.104E+04   0.867E+02 -.499E+03 0.105E+04   -.711E+00 0.209E+01 -.590E+01   0.579E-01 -.918E-01 0.313E+00
   0.337E+03 0.325E+03 -.273E+04   -.338E+03 -.326E+03 0.274E+04   0.155E+01 0.146E+01 -.321E+01   0.857E-01 -.700E-01 0.207E+00
   0.443E+03 0.666E+02 0.163E+04   -.447E+03 -.644E+02 -.163E+04   0.325E+01 -.192E+01 0.514E+01   -.105E+00 -.138E-01 0.206E+00
   0.137E+03 -.634E+03 -.304E+04   -.142E+03 0.640E+03 0.304E+04   0.409E+01 -.526E+01 -.759E+00   -.698E-01 0.924E-01 0.149E+00
   -.528E+03 -.461E+03 0.310E+04   0.531E+03 0.468E+03 -.310E+04   -.152E+01 -.631E+01 0.608E+01   0.117E-01 0.264E-01 0.965E-01
   -.221E+03 -.473E+03 -.111E+04   0.222E+03 0.476E+03 0.111E+04   -.614E-01 -.194E+01 -.228E+01   -.105E+00 -.114E+00 0.322E+00
   -.182E+03 0.308E+03 0.130E+04   0.181E+03 -.312E+03 -.131E+04   0.155E+01 0.354E+01 0.567E+01   -.513E-01 0.468E-01 0.142E+00
   0.241E+03 0.559E+03 -.318E+04   -.246E+03 -.564E+03 0.318E+04   0.401E+01 0.394E+01 -.208E+01   -.110E+00 0.167E-01 0.189E+00
   -.299E+03 0.504E+03 0.316E+04   0.301E+03 -.510E+03 -.316E+04   -.403E+00 0.590E+01 0.580E+01   0.305E-01 -.373E-01 0.113E+00
   0.286E+03 0.752E+03 -.129E+04   -.288E+03 -.757E+03 0.129E+04   0.162E+01 0.339E+01 -.409E+01   -.213E-01 -.108E-01 0.307E+00
   -.535E+03 -.126E+03 0.238E+04   0.539E+03 0.126E+03 -.238E+04   -.313E+01 0.164E+00 0.617E+01   0.543E-01 0.520E-01 0.180E+00
   -.587E+03 -.168E+03 -.247E+04   0.593E+03 0.167E+03 0.247E+04   -.386E+01 0.281E+00 -.307E+01   -.146E+00 0.144E+00 0.239E+00
   0.517E+03 -.427E+03 0.335E+04   -.517E+03 0.426E+03 -.336E+04   -.933E+00 0.982E+00 0.466E+01   -.112E+00 -.736E-01 0.417E-01
   -.749E+03 -.109E+03 -.304E+03   0.751E+03 0.108E+03 0.303E+03   -.139E+01 0.332E+00 -.683E+00   -.162E+00 -.605E-01 0.409E+00
   -.426E+03 0.273E+02 -.430E+04   0.427E+03 -.291E+02 0.431E+04   -.540E-01 0.244E+01 -.366E+01   -.410E-01 -.910E-01 0.738E-01
   -.840E+02 0.247E+03 -.801E+02   0.855E+02 -.249E+03 0.770E+02   -.890E+00 0.909E+00 0.741E+00   -.784E-02 -.164E-01 0.709E-01
   -.204E+03 0.334E+03 -.163E+04   0.208E+03 -.339E+03 0.164E+04   -.247E+01 0.383E+01 -.102E+01   -.737E-03 -.110E-01 0.829E-01
   -.225E+03 0.269E+03 0.667E+03   0.228E+03 -.271E+03 -.669E+03   -.637E+00 0.189E+00 0.169E+01   0.112E-02 -.706E-02 0.107E+00
   0.108E+03 0.313E+03 0.167E+04   -.109E+03 -.315E+03 -.168E+04   0.798E+00 0.482E+00 0.256E+01   -.337E-01 -.270E-01 -.313E-01
   -.103E+03 -.139E+03 -.446E+03   0.103E+03 0.142E+03 0.447E+03   0.388E+00 -.888E+00 -.471E+00   0.648E-02 0.599E-01 0.997E-01
   -.238E+02 -.179E+03 -.182E+04   0.208E+02 0.184E+03 0.183E+04   0.257E+01 -.410E+01 -.395E+01   -.185E-01 0.341E-01 0.697E-01
   0.171E+03 -.383E+03 0.839E+03   -.171E+03 0.386E+03 -.841E+03   0.173E+00 -.861E+00 -.620E-01   0.388E-02 -.215E-01 0.574E-01
   0.276E+03 0.539E+02 -.133E+04   -.277E+03 -.532E+02 0.133E+04   0.318E-02 -.705E+00 -.174E+01   0.581E-01 -.336E-01 0.709E-01
   0.135E+03 0.104E+03 0.135E+04   -.135E+03 -.105E+03 -.136E+04   -.786E-01 -.125E+00 0.378E+01   0.546E-02 0.176E-01 -.806E-02
   0.268E+03 -.102E+03 -.569E+03   -.270E+03 0.102E+03 0.569E+03   -.191E-01 0.845E+00 -.591E+00   0.102E+00 0.951E-01 0.152E+00
   0.815E+01 -.560E+02 0.187E+04   -.777E+01 0.557E+02 -.188E+04   -.182E+00 0.260E+00 0.160E+01   0.473E-01 -.441E-02 -.107E+00
   0.210E+03 -.291E+03 0.231E+03   -.211E+03 0.294E+03 -.228E+03   -.132E+01 -.147E+01 -.129E+01   0.623E-01 -.121E-02 0.150E+00
   0.235E+02 -.685E+02 0.164E+04   -.243E+02 0.687E+02 -.165E+04   0.595E+00 -.356E-01 0.282E+01   0.219E-01 -.502E-02 -.393E-01
   -.148E+03 0.749E+01 -.189E+03   0.150E+03 -.741E+01 0.188E+03   -.207E+01 -.193E+01 0.298E+00   0.974E-02 0.145E-01 0.139E+00
   -.101E+03 -.232E+02 -.185E+04   0.102E+03 0.228E+02 0.185E+04   -.297E+00 0.270E+00 -.661E+00   -.324E-01 0.872E-01 -.379E-01
   0.414E+02 0.138E+03 0.767E+03   -.412E+02 -.140E+03 -.770E+03   -.900E+00 0.461E+00 0.235E+01   -.557E-01 -.434E-01 0.111E+00
   -.168E+03 0.192E+03 -.117E+04   0.169E+03 -.194E+03 0.117E+04   -.324E+00 0.100E+00 0.136E+00   -.476E-01 0.374E-01 0.837E-01
   -.450E-01 0.169E+02 0.150E+04   -.420E+00 -.166E+02 -.151E+04   0.504E+00 0.600E-01 0.380E+01   -.451E-03 -.984E-02 -.250E-02
   -.640E+02 -.231E+03 -.241E+03   0.652E+02 0.233E+03 0.241E+03   -.776E+00 0.849E-01 -.105E+01   -.442E-01 -.190E-01 0.197E+00
   -.273E+03 -.857E+02 0.101E+04   0.276E+03 0.847E+02 -.101E+04   -.175E+01 0.497E+00 0.396E+01   -.313E-01 0.662E-02 0.459E-01
   -.204E+03 -.104E+03 -.941E+03   0.205E+03 0.103E+03 0.943E+03   -.102E+01 0.504E+00 -.119E+01   -.467E-01 -.513E-01 0.109E+00
   -.236E+02 0.603E+02 0.122E+04   0.230E+02 -.620E+02 -.123E+04   0.431E+00 0.135E+01 0.385E+01   0.405E-02 0.185E-01 0.170E-01
   0.201E+03 -.579E+02 -.563E+03   -.204E+03 0.587E+02 0.565E+03   0.158E+01 0.344E+00 -.714E+00   -.530E-01 0.364E-01 0.833E-01
   -.135E+03 -.118E+02 0.185E+04   0.136E+03 0.114E+02 -.185E+04   -.111E+00 0.474E+00 0.226E+01   0.597E-02 0.168E-01 -.691E-01
   0.767E+02 0.170E+03 0.225E+03   -.784E+02 -.173E+03 -.222E+03   -.555E-01 0.193E+01 -.394E+00   0.465E-02 0.122E-02 0.141E+00
   0.291E+03 0.228E+03 -.160E+04   -.294E+03 -.230E+03 0.160E+04   0.154E+01 0.140E+01 -.218E+01   0.211E-01 -.508E-02 0.318E-01
   0.837E+01 -.142E+02 -.570E+02   0.108E-11 0.398E-12 -.205E-11   -.820E+01 0.140E+02 0.504E+02   -.431E-01 0.276E+00 0.663E+01

 POSITION                                       TOTAL-FORCE (eV/Angst)
      4.94536      4.44331      2.79952         0.110985      0.900963      1.985014
      5.53264      4.32460      5.57550        -0.790781      1.627403      0.767747
      2.64872      7.92646      1.78753         0.291515      1.518318     -1.248690
      2.32735      9.33337      4.07354        -0.756379     -0.094112      0.294745
      4.94536      1.91264      2.79952        -0.064053     -0.234737      1.619873
      5.33754      1.80185      5.54313        -0.820367     -1.752884      0.709096
      1.78238      5.51008      2.03239         0.451724     -1.180454     -0.053659
      2.28589      6.65176      4.08424         0.079395      0.110675      1.092927
      1.74589      3.16685      2.85624        -0.109487     -0.690055     -0.137313
      2.05421      3.17797      5.47658         1.555427      1.260724     -1.917995
      5.20432      8.24059      1.58386        -0.958653     -0.257068     -0.247167
      4.29839      7.96837      3.82248         0.449675     -0.883259      0.532744
      5.90297      9.13228      5.01830         0.187732      0.018671      0.785764
     10.57359      4.44331      2.79952        -0.727254      0.277714      1.193419
     10.98163      4.60740      5.48941        -0.566905      1.170169     -0.015472
      7.38057      9.55489      1.89417         0.603286     -0.051415     -0.166285
      8.05131      9.23251      4.34179         1.099947      1.624263     -1.511269
     10.36701      1.69644      3.31438         0.842642      0.069295     -0.638211
     11.16491      1.95659      5.68959        -1.402832     -0.902216      0.299109
      7.44149      6.61927      1.71213         0.795293     -0.509692     -0.371812
      8.05131      6.70184      4.34179        -0.268924     -1.235236     -1.174528
      7.09877      3.17797      2.39204         0.852910      0.225301      1.915973
      7.69021      3.17248      5.13325         1.734831      0.109706      0.453412
     11.13588      6.99602      1.66187        -0.834029      0.771511      0.213644
     10.20472      7.96718      3.93431         0.711450      0.147778     -1.611975
      9.31712      8.19693      6.23662         0.773768      0.490658      1.680371
      1.25497      1.56674      4.10795         0.572011     -1.177226     -2.281930
      1.63870      1.66065      6.83623         1.475047     -1.760739      2.620487
      3.77725      6.35595      2.56568         2.288236     -1.921632      0.273883
      0.63044      3.96433      1.30179        -0.108105     -0.804823     -3.101064
      1.25497      4.78920      4.10795         1.000492      1.889835      0.542307
      0.60198      3.47588      6.96187        -0.433845      1.232967      4.216992
      3.77725      9.57841      2.56568         0.800385      2.000938     -2.311597
      3.96532      9.57130      5.36989        -0.753928     -0.041351      2.689492
      3.58906      3.20391      1.86565        -0.763268     -0.575075     -2.470844
      4.14113      3.17797      4.62682        -2.141222      0.671076     -0.787595
      1.49978      6.83030      0.45561         0.247594      0.008081     -4.076797
      1.03518      7.96718      3.08454        -2.218261      0.872976      2.296740
      6.30915      1.63086      1.27399        -0.149818      0.208923     -3.193665
      6.88320      1.56674      4.10795         0.076912     -1.839006     -0.676519
      6.46792      2.99498      6.77950         0.528101     -0.067822      3.241653
      9.40548      6.35595      2.56568        -0.678194     -1.236433     -0.538794
      9.89841      6.42828      5.39835         1.153613     -1.291602      2.037460
      6.40906      4.84879      1.38272         0.036383      0.362420     -2.813080
      6.88320      4.78920      4.10795         0.374066      1.701204     -0.733269
      9.40548      9.57841      2.56568         0.557003     -0.554982     -1.536922
     10.03252      0.20955      5.12932         0.255372     -0.131406      1.643783
      9.19328      3.01086      2.09243        -0.176426     -0.370248     -2.228815
      9.76936      3.17797      4.62682        -1.829856      1.143334      0.980969
      6.89508      8.14530      0.43443         0.386179      0.142019     -3.644092
      6.66341      7.96718      3.08454        -1.781115     -0.324286      3.034676
      7.33388      7.93483      5.91905        -1.958272     -0.669164      2.367078
    total drift:                                0.131243      0.102246      0.071014

  FREE ENERGIE OF THE ION-ELECTRON SYSTEM (eV)
  free  energy   TOTEN  =      -247.16409020 eV

  energy  without entropy=     -246.32671669  energy(sigma->0) =     -246.74540344