 vasp.5.4.4.18Apr17-6-g9f103f2a35 (build Aug 13 2019 17:33:20) gamma-only

 executed on             LinuxIFC date 2020.05.10  11:55:20

 INCAR:
 POTCAR:    PAW_PBE Ni_pv 06Sep2000
 POTCAR:    PAW_PBE S 06Sep2000
 POTCAR:    PAW_PBE Ni_pv 06Sep2000
   VRHFIN =Ni:

   TITEL  = PAW_PBE Ni_pv 06Sep2000
   POMASS =   58.690; ZVAL   =   16.000    mass and valenz
   ENMAX  =  367.986; ENMIN  =  275.989 eV

 POTCAR:    PAW_PBE S 06Sep2000
   VRHFIN =S : s2p4

   TITEL  = PAW_PBE S 06Sep2000
   POMASS =   32.066; ZVAL   =    6.000    mass and valenz
   ENMAX  =  258.689; ENMIN  =  194.016 eV

 Optimization of the real space projectors (new method)

 maximal supplied QI-value         = 18.90
 optimisation between [QCUT,QGAM] = [ 10.77, 21.73] = [ 32.49,132.25] Ry
 Optimized for a Real-space Cutoff    1.38 Angstroem

   l    n(q)    QCUT    max X(q) W(low)/X(q) W(high)/X(q)  e(spline)
   1      8    10.771     2.836    0.40E-04    0.29E-04    0.12E-06
   1      8    10.771     4.023    0.10E-03    0.48E-04    0.29E-06
   2      8    10.771    73.368    0.42E-03    0.97E-04    0.44E-06
   2      8    10.771    69.010    0.42E-03    0.99E-04    0.45E-06
   0      9    10.771    54.797    0.10E-03    0.56E-04    0.74E-07
   0      9    10.771    24.266    0.89E-04    0.49E-04    0.67E-07
 Optimization of the real space projectors (new method)

 maximal supplied QI-value         = 19.84
 optimisation between [QCUT,QGAM] = [ 10.71, 21.63] = [ 32.15,130.99] Ry
 Optimized for a Real-space Cutoff    1.19 Angstroem

   l    n(q)    QCUT    max X(q) W(low)/X(q) W(high)/X(q)  e(spline)
   0      8    10.715   187.594    0.41E-03    0.53E-04    0.66E-07
   0      8    10.715   164.243    0.41E-03    0.53E-04    0.65E-07
   1      7    10.715    67.533    0.19E-03    0.59E-03    0.68E-07
   1      7    10.715    50.729    0.19E-03    0.58E-03    0.67E-07
  PAW_PBE Ni_pv 06Sep2000               :
  PAW_PBE S 06Sep2000                   :

 POSCAR: Type_026 Type_126
  positions in cartesian coordinates
 exchange correlation table for  LEXCH =        8
   RHO(1)=    0.500       N(1)  =     2000
   RHO(2)=  100.500       N(2)  =     4000

 ion  position               nearest neighbor table
   1  0.421  0.538  0.233-  31 2.07  30 2.10  35 2.16  44 2.18   2 2.49
   2  0.488  0.412  0.351-  41 2.07  45 2.08  35 2.10  23 2.39  13 2.41   6 2.45   1 2.49  44 2.53

   3  0.126  0.054  0.125-  27 2.05  36 2.07  28 2.22  37 2.36   4 2.40  34 2.44  24 2.51   7 2.51

   4  0.214  0.963  0.242-  38 2.03  34 2.14  37 2.15  28 2.24   3 2.40   8 2.53
   5  0.461  0.170  0.167-  39 2.07  40 2.09  34 2.18  16 2.50   6 2.51  35 2.57
   6  0.466  0.167  0.313-  41 2.01  35 2.07  40 2.08   2 2.45   5 2.51
   7  0.240  0.831  0.106-  30 2.07  34 2.08  36 2.08  37 2.10   3 2.51
   8  0.215  0.700  0.253-  31 2.14  38 2.16  32 2.25  37 2.26  30 2.26  12 2.51  26 2.52   4 2.53

   9  0.120  0.333  0.164-  27 2.04  32 2.05  28 2.07  18 2.40
  10  0.182  0.332  0.319-  29 2.01  35 2.25  28 2.26  32 2.26  15 2.47
  11  0.488  0.926  0.093-  50 2.04  34 2.09  51 2.09  16 2.47
  12  0.407  0.820  0.218-  30 2.07  31 2.15  51 2.19  34 2.24   8 2.51
  13  0.556  0.649  0.334-  45 2.05  31 2.06  52 2.09  44 2.26  21 2.33   2 2.41
  14  0.927  0.495  0.198-  49 2.09  42 2.09  48 2.10  32 2.20  43 2.29  15 2.48
  15  0.995  0.461  0.334-  33 2.06  29 2.07  32 2.13  43 2.17  49 2.20  10 2.47  14 2.48
  16  0.659  0.076  0.126-  39 2.07  50 2.08  46 2.16  40 2.18  11 2.47   5 2.50  17 2.51  20 2.53
                            51 2.62
  17  0.715  0.964  0.253-  52 2.08  40 2.25  51 2.26  46 2.26  16 2.51  25 2.53  21 2.53
  18  0.939  0.200  0.163-  48 2.08  27 2.10  46 2.25  49 2.36  28 2.36   9 2.40
  19  0.970  0.168  0.316-  29 2.04  28 2.07  49 2.11  47 2.13
  20  0.739  0.832  0.107-  51 2.07  46 2.08  50 2.08  42 2.08  16 2.53
  21  0.715  0.700  0.253-  52 2.06  43 2.16  44 2.25  51 2.26  42 2.26  13 2.33  25 2.53  17 2.53

  22  0.712  0.322  0.178-  48 2.06  39 2.11  40 2.17  44 2.30  49 2.35  23 2.44
  23  0.682  0.332  0.319-  41 2.09  45 2.11  49 2.25  40 2.26  44 2.26   2 2.39  22 2.44
  24  0.968  0.880  0.092-  36 2.05  37 2.10  46 2.13  25 2.49   3 2.51
  25  0.907  0.832  0.229-  47 2.08  43 2.24  37 2.25  42 2.26  46 2.26  26 2.45  24 2.49  21 2.53
                            17 2.53
  26  0.035  0.752  0.335-  38 2.04  33 2.06  43 2.09  47 2.16  25 2.45   8 2.52
  27  0.058  0.226  0.070-   9 2.04   3 2.05  18 2.10  48 2.74
  28  0.111  0.164  0.239-  19 2.07   9 2.07   3 2.22   4 2.24  10 2.26  18 2.36
  29  0.054  0.290  0.396-  10 2.01  19 2.04  15 2.07
  30  0.336  0.664  0.149-   7 2.07  12 2.07   1 2.10   8 2.26
  31  0.378  0.685  0.316-  13 2.06   1 2.07   8 2.14  12 2.15  38 2.67
  32  0.111  0.500  0.239-   9 2.05  15 2.13  14 2.20   8 2.25  10 2.26  33 2.60
  33  0.125  0.585  0.382-  15 2.06  26 2.06  32 2.60  38 2.77
  34  0.336  1.000  0.149-   7 2.08  11 2.09   4 2.14   5 2.18  12 2.24   3 2.44
  35  0.368  0.332  0.269-   6 2.07   2 2.10   1 2.16  10 2.25   5 2.57
  36  0.119  0.922  0.030-  24 2.05   3 2.07   7 2.08  37 2.73
  37  0.092  0.832  0.179-   7 2.10  24 2.10   4 2.15  25 2.25   8 2.26   3 2.36  36 2.73
  38  0.194  0.854  0.343-   4 2.03  26 2.04   8 2.16  31 2.67  33 2.77
  39  0.583  0.265  0.095-   5 2.07  16 2.07  22 2.11  40 2.68
  40  0.611  0.164  0.239-   6 2.08   5 2.09  22 2.17  16 2.18  17 2.25  23 2.26  39 2.68
  41  0.569  0.239  0.400-   6 2.01   2 2.07  23 2.09  45 2.61
  42  0.836  0.664  0.149-  20 2.08  14 2.09  25 2.26  21 2.26  43 2.68
  43  0.885  0.638  0.301-  26 2.09  21 2.16  15 2.17  25 2.24  14 2.29  42 2.68
  44  0.611  0.500  0.239-   1 2.18  21 2.25  23 2.26  13 2.26  22 2.30   2 2.53  45 2.72
  45  0.644  0.497  0.396-  13 2.05   2 2.08  23 2.11  41 2.61  44 2.72
  46  0.836  1.000  0.149-  20 2.08  24 2.13  16 2.16  18 2.25  25 2.26  17 2.26
  47  0.942  0.949  0.328-  25 2.08  19 2.13  26 2.16
  48  0.856  0.369  0.109-  22 2.06  18 2.08  14 2.10  27 2.74  49 2.77
  49  0.868  0.332  0.269-  14 2.09  19 2.11  15 2.20  23 2.25  22 2.35  18 2.36  48 2.77
  50  0.638  0.949  0.029-  11 2.04  16 2.08  20 2.08
  51  0.592  0.832  0.179-  20 2.07  11 2.09  12 2.19  17 2.26  21 2.26  16 2.62
  52  0.660  0.830  0.340-  21 2.06  17 2.08  13 2.09

  LATTYP: Found a simple orthorhombic cell.
 ALAT       =     9.5784100000
 B/A-ratio  =     1.1751911892
 C/A-ratio  =     1.7949213288

  Lattice vectors:

 A1 = (   0.0000000000,  -9.5784100000,   0.0000000000)
 A2 = ( -11.2564630382,   0.0000000000,   0.0000000000)
 A3 = (   0.0000000000,   0.0000000000, -17.1924924047)

Analysis of symmetry for initial positions (statically):
 Subroutine PRICEL returns:
 Original cell was already a primitive cell.

 Routine SETGRP: Setting up the symmetry group for a
 simple orthorhombic supercell.

 Subroutine GETGRP returns: Found  1 space group operations
 (whereof  1 operations were pure point group operations)
 out of a pool of  8 trial point group operations.

The static configuration has the point symmetry C_1 .

Analysis of symmetry for dynamics (positions and initial velocities):
 Subroutine PRICEL returns:
 Original cell was already a primitive cell.

 Routine SETGRP: Setting up the symmetry group for a
 simple orthorhombic supercell.

 Subroutine GETGRP returns: Found  1 space group operations
 (whereof  1 operations were pure point group operations)
 out of a pool of  8 trial point group operations.

The dynamic configuration has the point symmetry C_1 .

 Subroutine INISYM returns: Found  1 space group operations
 (whereof  1 operations are pure point group operations),
 and found     1 'primitive' translations

 KPOINTS: gamma-point-only calculation. no periodi

Automatic generation of k-mesh.
Space group operators:
 irot       det(A)        alpha          n_x          n_y          n_z        tau_x        tau_y        tau_z
    1     1.000000     0.000000     1.000000     0.000000     0.000000     0.000000     0.000000     0.000000

 Subroutine IBZKPT returns following result:

 Found      1 irreducible k-points:

 Following reciprocal coordinates:
            Coordinates               Weight
  0.000000  0.000000  0.000000      1.000000

 Following cartesian coordinates:
            Coordinates               Weight
  0.000000  0.000000  0.000000      1.000000

 SYSTEM =  "Millerite NiS"
 POSCAR =  Type_026 Type_126

 Startparameter for this run:
   NWRITE =      2    write-flag & timer
   PREC   = normal    normal or accurate (medium, high low for compatibility)
   ISTART =      0    job   : 0-new  1-cont  2-samecut
   ICHARG =      2    charge: 1-file 2-atom 10-const
   ISPIN  =      1    spin polarized calculation?
   LNONCOLLINEAR =      F non collinear calculations
   LSORBIT =      F    spin-orbit coupling
   INIWAV =      1    electr: 0-lowe 1-rand  2-diag
   LASPH  =      F    aspherical Exc in radial PAW
   METAGGA=      F    non-selfconsistent MetaGGA calc.

 Electronic Relaxation 1
   ENCUT  =  450.0 eV  33.07 Ry    5.75 a.u.  19.47 16.57 29.74*2*pi/ulx,y,z
   ENINI  =  450.0     initial cutoff
   ENAUG  =  703.4 eV  augmentation charge cutoff
   NELM   =    100;   NELMIN=  2; NELMDL= -5     # of ELM steps
   EDIFF  = 0.1E-03   stopping-criterion for ELM
   LREAL  =      T    real-space projection
   NLSPLINE    = F    spline interpolate recip. space projectors
   LCOMPAT=      F    compatible to vasp.4.4
   GGA_COMPAT  = T    GGA compatible to vasp.4.4-vasp.4.6
   LMAXPAW     = -100 max onsite density
   LMAXMIX     =    2 max onsite mixed and CHGCAR
   VOSKOWN=      0    Vosko Wilk Nusair interpolation
   ROPT   =   -0.00050  -0.00050
 Ionic relaxation
   EDIFFG = 0.1E-02   stopping-criterion for IOM
   NSW    =      0    number of steps for IOM
   NBLOCK =      1;   KBLOCK =      1    inner block; outer block
   IBRION =     -1    ionic relax: 0-MD 1-quasi-New 2-CG
   NFREE  =      0    steps in history (QN), initial steepest desc. (CG)
   ISIF   =      2    stress and relaxation
   IWAVPR =     10    prediction:  0-non 1-charg 2-wave 3-comb
   ISYM   =      2    0-nonsym 1-usesym 2-fastsym
   LCORR  =      T    Harris-Foulkes like correction to forces

   POTIM  = 0.5000    time-step for ionic-motion
   TEIN   =    0.0    initial temperature
   TEBEG  =    0.0;   TEEND  =   0.0 temperature during run
   SMASS  =  -3.00    Nose mass-parameter (am)
   estimated Nose-frequenzy (Omega)   =  0.10E-29 period in steps =****** mass=  -0.290E-26a.u.
   SCALEE = 1.0000    scale energy and forces
   NPACO  =    256;   APACO  = 16.0  distance and # of slots for P.C.
   PSTRESS=    0.0 pullay stress

  Mass of Ions in am
   POMASS =  58.69 32.07
  Ionic Valenz
   ZVAL   =  16.00  6.00
  Atomic Wigner-Seitz radii
  virtual crystal weights
   VCA    =   1.00  1.00
   NELECT =     572.0000    total number of electrons
   NUPDOWN=      -1.0000    fix difference up-down

 DOS related values:
   EMIN   =  10.00;   EMAX   =-10.00  energy-range for DOS
   EFERMI =   0.00
   ISMEAR =     0;   SIGMA  =   0.20  broadening in eV -4-tet -1-fermi 0-gaus

 Electronic relaxation 2 (details)
   IALGO  =     38    algorithm
   LDIAG  =      T    sub-space diagonalisation (order eigenvalues)
[...]
      26 -88.0512      27 -92.4779      28 -93.7095      29 -92.2867      30 -92.8270
      31 -92.9916      32 -93.4453      33 -92.6216      34 -93.4431      35 -92.7621
      36 -92.3402      37 -93.7317      38 -92.6514      39 -92.3607      40 -93.7351
      41 -92.5251      42 -92.9540      43 -93.2124      44 -93.3792      45 -92.7140
      46 -93.5285      47 -92.2352      48 -92.6569      49 -93.4220      50 -92.2210
      51 -93.5160      52 -92.0282

 E-fermi :  -0.1685     XC(G=0):  -5.4031     alpha+bet : -5.1393

 k-point     1 :       0.0000    0.0000    0.0000
  band No.  band energies     occupation
      1     -65.0692      2.00000
      2     -65.0366      2.00000
      3     -64.9820      2.00000
      4     -64.8489      2.00000
      5     -64.8276      2.00000
      6     -64.8260      2.00000
      7     -64.7826      2.00000
      8     -64.7620      2.00000
      9     -64.7553      2.00000
     10     -64.7542      2.00000
     11     -64.7505      2.00000
     12     -64.7428      2.00000
     13     -64.7139      2.00000
     14     -64.7094      2.00000
     15     -64.6905      2.00000
     16     -64.6891      2.00000
     17     -64.6830      2.00000
     18     -64.6613      2.00000
     19     -64.6522      2.00000
     20     -64.6463      2.00000
     21     -64.6281      2.00000
     22     -64.6277      2.00000
     23     -64.6101      2.00000
     24     -64.5879      2.00000
     25     -64.5845      2.00000
     26     -64.5795      2.00000
     27     -64.5697      2.00000
     28     -64.5618      2.00000
     29     -64.5613      2.00000
     30     -64.5490      2.00000
     31     -64.5450      2.00000
     32     -64.5318      2.00000
     33     -64.5283      2.00000
     34     -64.5032      2.00000
     35     -64.4869      2.00000
     36     -64.4746      2.00000
     37     -64.4685      2.00000
     38     -64.4633      2.00000
     39     -64.4528      2.00000
     40     -64.4340      2.00000
     41     -64.4191      2.00000
     42     -64.4156      2.00000
     43     -64.4081      2.00000
     44     -64.3918      2.00000
     45     -64.3907      2.00000
     46     -64.3808      2.00000
     47     -64.3729      2.00000
     48     -64.3713      2.00000
     49     -64.3400      2.00000
     50     -64.3266      2.00000
     51     -64.3103      2.00000
     52     -64.2942      2.00000
     53     -64.2845      2.00000
     54     -64.2838      2.00000
     55     -64.2523      2.00000
     56     -64.2367      2.00000
     57     -64.2365      2.00000
     58     -64.2157      2.00000
     59     -64.2059      2.00000
     60     -64.1868      2.00000
[...]
    330       4.9234      0.00000
    331       4.9783      0.00000
    332       5.0428      0.00000
    333       5.0895      0.00000
    334       5.1254      0.00000
    335       5.2109      0.00000
    336       5.2655      0.00000
    337       5.3774      0.00000
    338       5.4093      0.00000
    339       5.4356      0.00000
    340       5.5076      0.00000
    341       5.5484      0.00000
    342       5.5840      0.00000
    343       5.6396      0.00000
    344       5.7477      0.00000

 soft charge-density along one line, spin component           1
         0         1         2         3         4         5         6         7         8         9
 total charge-density along one line

------------------------ aborting loop because EDIFF is reached ----------------------------------------

  FORCE on cell =-STRESS in cart. coord.  units (eV):
  Direction    XX          YY          ZZ          XY          YZ          ZX
  Alpha Z  1046.73971  1046.73971  1046.73971
  Ewald  165453.88890160257.30160************  -673.66651  -867.27186   441.83292
  Hartree189943.68545185219.40647************  -434.23081  -573.31214   147.01452
  E(xc)   -3654.10222 -3653.91882 -3657.32805    -0.68000    -0.79882     0.83359
  Local  ************************347929.96464  1088.10151  1416.23187  -557.23057
  n-local  -420.59655  -427.84855  -425.58972    -0.52543    -4.54681     6.15947
  augment  4182.59707  4182.44285  4172.59449     6.69534    10.70903   -13.58653
  Kinetic  8048.62691  8026.00532  8062.99190    15.28698    16.16396   -21.62946
  Fock        0.00000     0.00000     0.00000     0.00000     0.00000     0.00000
  Total     102.65559   101.14859   105.41090     0.98108    -2.82477     3.39395
  in kB      88.72765    87.42511    91.10913     0.84797    -2.44152     2.93347

 VOLUME and BASIS-vectors are now :
  energy-cutoff  :      450.00
  volume of cell :     1853.68
      direct lattice vectors                 reciprocal lattice vectors
    11.256463038  0.000000000  0.000000000     0.088837852  0.000000000  0.000000000
     0.000000000  9.578410000  0.000000000     0.000000000  0.104401461  0.000000000
     0.000000000  0.000000000 17.192492405     0.000000000  0.000000000  0.058164923

  length of vectors
    11.256463038  9.578410000 17.192492405     0.088837852  0.104401461  0.058164923

 FORCES acting on ions
    electron-ion (+dipol)            ewald-force                    non-local-force                 convergence-correction
   0.225E+03 0.415E+03 0.800E+03   -.225E+03 -.419E+03 -.803E+03   0.617E+00 0.322E+01 0.251E+01   0.653E-01 0.336E-01 0.177E+00
   0.669E+03 -.798E+00 -.340E+04   -.674E+03 0.123E+01 0.341E+04   0.320E+01 0.736E+00 -.187E+01   0.132E+00 -.272E-01 0.121E+00
   -.417E+03 -.572E+03 0.276E+04   0.416E+03 0.575E+03 -.277E+04   0.108E+01 -.245E+01 0.603E+01   0.145E-01 0.566E-02 0.148E-01
   -.330E+03 -.571E+03 -.133E+04   0.332E+03 0.574E+03 0.133E+04   -.490E+00 -.215E+01 -.722E+01   0.183E-01 -.862E-01 0.132E+00
   0.777E+03 -.714E+03 0.178E+04   -.780E+03 0.715E+03 -.179E+04   0.803E+00 -.136E+01 0.351E+01   -.189E-01 0.617E-01 0.192E+00
   0.545E+03 0.816E+03 -.261E+04   -.545E+03 -.818E+03 0.261E+04   -.176E+01 0.609E+00 -.127E+01   0.105E+00 0.502E-01 0.259E+00
   -.236E+03 0.807E+03 0.360E+04   0.236E+03 -.811E+03 -.361E+04   0.633E+00 0.282E+01 0.942E+01   -.177E-02 -.639E-01 0.202E-01
   -.420E+02 0.589E+03 -.720E+03   0.401E+02 -.593E+03 0.718E+03   0.175E+01 0.318E+01 0.265E-01   0.156E-01 0.798E-02 0.147E+00
   -.960E+03 -.679E+03 0.227E+04   0.961E+03 0.682E+03 -.227E+04   -.511E+00 -.208E+01 0.386E+01   -.396E-02 0.466E-01 -.271E-01
   -.794E+03 0.216E+03 -.255E+04   0.800E+03 -.218E+03 0.255E+04   -.466E+01 0.172E+01 -.324E+01   0.321E-01 0.524E-01 0.117E+00
   0.391E+03 0.331E+03 0.367E+04   -.389E+03 -.330E+03 -.367E+04   -.306E+01 -.135E+01 0.523E+01   -.842E-01 -.741E-01 0.238E-01
   -.397E+03 -.731E+02 -.226E+03   0.400E+03 0.746E+02 0.230E+03   -.267E+01 -.311E+00 -.340E+01   -.134E-01 -.747E-01 0.202E+00
   0.155E+03 -.599E+03 -.318E+04   -.153E+03 0.603E+03 0.318E+04   -.227E+01 -.355E+01 -.422E+01   0.106E-01 -.681E-01 0.144E+00
   -.238E+02 -.324E+03 0.143E+04   0.255E+02 0.325E+03 -.143E+04   -.110E+01 -.669E+00 0.510E+01   -.634E-02 0.337E-01 0.133E+00
   0.274E+03 -.986E+02 -.320E+04   -.276E+03 0.969E+02 0.321E+04   0.111E+01 0.154E+01 -.722E+01   -.933E-01 0.121E+00 0.133E+00
   -.536E+02 -.507E+03 0.282E+04   0.529E+02 0.510E+03 -.283E+04   0.120E+01 -.250E+01 0.736E+01   0.492E-01 0.638E-01 0.102E+00
   0.176E+03 -.364E+03 -.169E+04   -.178E+03 0.365E+03 0.170E+04   0.207E+01 -.171E+00 -.406E+01   -.237E-02 -.878E-02 0.253E+00
   0.283E+03 -.620E+02 0.187E+04   -.286E+03 0.597E+02 -.187E+04   0.224E+01 0.156E+01 0.350E+01   0.639E-02 0.170E-01 0.784E-01
   0.215E+03 0.470E+03 -.291E+04   -.216E+03 -.476E+03 0.291E+04   -.541E-01 0.417E+01 -.467E+01   -.110E+00 -.500E-01 0.132E+00
   0.143E+03 0.892E+03 0.352E+04   -.143E+03 -.895E+03 -.353E+04   0.511E+00 0.227E+01 0.998E+01   0.302E-01 -.723E-01 0.717E-01
   0.123E+03 0.412E+03 -.696E+03   -.123E+03 -.415E+03 0.697E+03   0.934E+00 0.193E+01 -.300E+01   -.308E-01 -.481E-01 0.243E+00
   0.237E+03 -.595E+03 0.178E+04   -.238E+03 0.599E+03 -.179E+04   0.488E+00 -.364E+01 0.676E+01   -.159E-01 0.598E-01 0.201E+00
   -.513E+03 0.255E+03 -.262E+04   0.518E+03 -.256E+03 0.263E+04   -.389E+01 0.495E+00 -.407E+01   -.101E+00 0.272E-01 0.209E+00
   0.822E+02 0.514E+03 0.376E+04   -.813E+02 -.514E+03 -.377E+04   -.200E+01 -.164E+01 0.632E+01   0.731E-01 -.259E-01 0.383E-01
   -.169E+03 0.536E+02 -.356E+03   0.169E+03 -.507E+02 0.357E+03   -.598E+00 -.351E+01 -.252E+01   0.340E-01 -.363E-01 0.232E+00
   0.398E+02 -.237E+03 -.338E+04   -.405E+02 0.239E+03 0.338E+04   -.144E+00 -.869E+00 -.390E+01   -.133E-01 -.169E-01 0.123E+00
   -.897E+02 -.289E+03 0.177E+04   0.900E+02 0.291E+03 -.178E+04   -.144E+00 -.760E+00 0.222E+01   0.124E-01 0.175E-01 -.319E-01
   -.252E+03 0.494E+02 -.306E+03   0.254E+03 -.503E+02 0.307E+03   -.351E+00 -.260E+00 -.891E+00   -.220E-01 -.265E-01 0.132E-01
   -.470E+02 0.179E+03 -.180E+04   0.480E+02 -.181E+03 0.181E+04   -.119E+01 0.806E+00 -.119E+01   -.495E-01 -.118E-02 0.900E-01
   -.593E+02 0.488E+03 0.117E+04   0.596E+02 -.493E+03 -.117E+04   -.375E+00 0.102E+01 0.330E+01   -.612E-03 -.394E-02 0.248E-01
   0.120E+03 -.126E+03 -.125E+04   -.120E+03 0.127E+03 0.126E+04   0.387E+00 -.182E+00 -.384E+01   0.276E-01 0.947E-03 0.482E-01
   -.262E+03 -.135E+03 0.115E+03   0.264E+03 0.136E+03 -.119E+03   -.175E-01 -.833E+00 0.331E+01   -.137E-01 0.507E-01 0.260E-01
   -.276E+03 -.183E+02 -.162E+04   0.279E+03 0.186E+02 0.162E+04   -.192E+01 -.524E+00 -.196E+01   -.115E-01 0.454E-01 0.522E-01
   -.309E+02 -.335E+03 0.781E+03   0.333E+02 0.339E+03 -.781E+03   -.167E+01 -.929E+00 0.901E+00   -.370E-01 -.297E-01 0.326E-01
   0.241E+03 0.464E+02 -.184E+03   -.244E+03 -.454E+02 0.181E+03   0.494E+00 -.115E+01 0.854E+00   0.848E-01 0.467E-02 0.768E-01
   -.845E+02 0.594E+02 0.188E+04   0.847E+02 -.592E+02 -.189E+04   -.159E+00 -.509E+00 0.257E+01   0.250E-01 -.644E-02 -.460E-01
   0.634E+02 0.284E+03 0.433E+03   -.658E+02 -.288E+03 -.431E+03   0.775E+00 0.318E+01 -.143E+01   0.356E-02 -.195E-01 0.512E-01
   -.226E+03 -.219E+03 -.154E+04   0.228E+03 0.222E+03 0.155E+04   -.974E+00 -.157E+01 -.276E+01   -.506E-02 -.296E-01 0.618E-01
   0.205E+03 -.475E+03 0.155E+04   -.207E+03 0.478E+03 -.155E+04   0.146E+01 -.112E+01 0.287E+01   0.410E-02 0.508E-01 -.338E-01
   0.982E+01 0.487E+02 -.324E+03   -.923E+01 -.510E+02 0.326E+03   0.837E+00 0.662E+00 -.431E+00   -.157E-02 0.282E-01 0.141E+00
   -.698E+02 0.337E+03 -.177E+04   0.708E+02 -.341E+03 0.177E+04   -.339E+00 0.224E+01 -.203E+01   -.411E-02 0.180E-01 0.573E-02
   0.161E+02 0.332E+03 0.108E+04   -.170E+02 -.335E+03 -.108E+04   0.122E+01 0.228E+01 0.340E+01   0.183E-01 -.280E-01 0.499E-01
   0.169E+03 0.418E+02 -.964E+03   -.172E+03 -.434E+02 0.969E+03   0.128E+01 0.155E+01 -.357E+01   0.236E-02 0.123E-01 0.584E-01
   0.420E+01 -.158E+02 0.277E+03   -.309E+01 0.165E+02 -.282E+03   -.457E+00 -.378E+00 0.435E+01   -.956E-02 -.633E-02 0.102E+00
   -.272E+03 -.120E+03 -.172E+04   0.275E+03 0.122E+03 0.172E+04   -.169E+01 -.221E+01 -.191E+01   -.221E-01 -.217E-01 0.168E-01
   -.845E+02 -.220E+03 0.767E+03   0.874E+02 0.224E+03 -.768E+03   -.129E+01 -.164E+01 0.200E+01   0.246E-01 0.164E-01 0.634E-01
   0.722E+02 -.125E+03 -.134E+04   -.746E+02 0.126E+03 0.134E+04   0.105E+01 -.120E+00 -.150E+01   -.812E-02 -.309E-01 0.487E-01
   0.674E+02 -.238E+03 0.155E+04   -.687E+02 0.240E+03 -.156E+04   0.116E+01 -.957E+00 0.341E+01   0.960E-02 0.148E-01 -.114E-01
   0.151E+03 0.379E+02 -.562E+03   -.151E+03 -.384E+02 0.564E+03   -.148E+01 -.124E+01 -.142E+01   -.391E-01 0.117E-01 0.714E-01
   0.427E+01 0.276E+02 0.190E+04   -.361E+01 -.269E+02 -.190E+04   -.473E+00 -.737E+00 0.156E+01   0.166E-04 0.589E-02 -.871E-01
   0.174E+03 0.267E+03 0.396E+03   -.178E+03 -.271E+03 -.393E+03   0.232E+01 0.329E+01 -.113E+01   -.266E-01 -.358E-01 0.985E-01
   0.651E+02 -.255E+03 -.151E+04   -.649E+02 0.257E+03 0.152E+04   -.473E+00 -.507E+00 -.168E+01   -.142E-01 -.181E-01 0.616E-01
   0.861E+01 0.269E+01 -.283E+02   0.867E-12 -.284E-12 -.455E-12   -.858E+01 -.259E+01 0.240E+02   0.390E-01 -.518E-01 0.446E+01

 POSITION                                       TOTAL-FORCE (eV/Angst)
      4.74181      5.15522      3.99997         0.459720     -0.885991     -0.721145
      5.49346      3.95025      6.04205        -1.037358      1.136468      0.480465
      1.42345      0.52015      2.15700         0.585521      0.538428      0.939184
      2.40436      9.22814      4.16788         0.735640      0.848071     -0.046639
      5.19145      1.62371      2.87472        -1.771526      0.101467      0.352773
      5.24184      1.60336      5.38542        -1.021219     -1.239374     -0.307216
      2.70650      7.96384      1.81883         0.629126     -0.951301     -1.256793
      2.42308      6.70184      4.34179        -0.124583     -0.496766     -0.868872
      1.35200      3.18798      2.82500         1.288994      0.724574     -0.254871
      2.05421      3.17797      5.47658         1.874879      0.040007     -1.717609
      5.48991      8.86728      1.60737        -1.073390     -0.530246     -0.082344
      4.57824      7.85443      3.75108         0.200359      1.154416      0.269908
      6.25724      6.21785      5.74880        -0.457750      0.507515      0.185408
     10.43062      4.73669      3.40751         0.580093      0.643322     -0.228124
     11.19486      4.42023      5.74498        -0.629776     -0.027967      0.135755
      7.41492      0.72963      2.16695         0.532092      0.247396      0.572760
      8.05131      9.23251      4.34179         0.117499      0.127528     -0.473052
     10.57359      1.91264      2.79952        -0.635004     -0.706474      1.109134
     10.91835      1.60632      5.42800        -0.761709     -1.594380     -0.213479
      8.31603      7.97172      1.83176         0.074775     -0.968100     -1.031253
      8.05131      6.70184      4.34179         0.993854     -0.602343     -2.310242
      8.01726      3.08652      3.06271        -0.508182      0.312781      0.416413
      7.68244      3.17797      5.47658         1.456016      0.095027     -1.166800
     10.89906      8.42784      1.58425        -1.008985     -0.915046     -0.159472
     10.20472      7.96718      3.93431        -0.240861     -0.588499     -1.004692
      0.39347      7.20468      5.75326        -0.780030      1.103987      0.876145
      0.65769      2.16210      1.20839         0.133786      0.658656     -3.430313
      1.25497      1.56674      4.10795         1.289886     -1.126529      0.634654
      0.60533      2.77334      6.81345        -0.183797     -0.781919      4.370252
      3.77725      6.35595      2.56568        -0.119929     -3.084827     -2.103927
      4.25241      6.55695      5.43798        -0.196520      0.975882      2.779536
      1.25497      4.78920      4.10795         1.473329      0.375853     -1.565884
      1.40347      5.60669      6.57161         1.321694     -0.205145      2.281619
      3.77725      9.57841      2.56568         0.728511      2.979839      0.316040
      4.14113      3.17797      4.62682        -2.522120     -0.182713     -1.322603
      1.33920      8.83459      0.51473         0.083975     -0.265056     -3.852255
      1.03518      7.96718      3.08454        -1.668004     -0.819430      0.634558
      2.17994      8.18051      5.89111         1.234526      1.602764      2.628010
      6.56743      2.54221      1.63672        -0.636164      1.886330     -2.853502
      6.88320      1.56674      4.10795         1.426149     -1.638057      1.876352
      6.40887      2.29190      6.87559         0.574830     -1.898635      3.416794
      9.40548      6.35595      2.56568         0.375955     -0.337629     -1.561136
      9.96071      6.11392      5.17576        -1.352629     -0.079951      1.403243
      6.88320      4.78920      4.10795         0.641927      0.338385     -1.324285
      7.25279      4.76397      6.80233         1.444414      0.127614      3.033729
      9.40548      9.57841      2.56568         1.617269      2.359715      0.434056
     10.60269      9.08888      5.63405        -1.323970      1.151371      1.652454
      9.63832      3.53175      1.88006        -0.064966      0.931196     -3.014108
      9.76936      3.17797      4.62682        -2.317563     -1.780044      1.345116
      7.18166      9.09426      0.49749         0.186288     -0.084205     -3.991543
      6.66341      7.96718      3.08454        -1.344299     -0.506459      1.357624
      7.42420      7.94881      5.85093        -0.280774      1.328495      3.360179
    total drift:                                0.069716      0.041468      0.086665

  FREE ENERGIE OF THE ION-ELECTRON SYSTEM (eV)
  free  energy   TOTEN  =      -245.02062050 eV

  energy  without entropy=     -244.21214620  energy(sigma->0) =     -244.61638335