 vasp.5.4.4.18Apr17-6-g9f103f2a35 (build Aug 13 2019 17:33:20) gamma-only

 executed on             LinuxIFC date 2020.05.10  22:33:02

 INCAR:
 POTCAR:    PAW_PBE Ni_pv 06Sep2000
 POTCAR:    PAW_PBE S 06Sep2000
 POTCAR:    PAW_PBE Ni_pv 06Sep2000
   VRHFIN =Ni:

   TITEL  = PAW_PBE Ni_pv 06Sep2000
   POMASS =   58.690; ZVAL   =   16.000    mass and valenz
   ENMAX  =  367.986; ENMIN  =  275.989 eV

 POTCAR:    PAW_PBE S 06Sep2000
   VRHFIN =S : s2p4

   TITEL  = PAW_PBE S 06Sep2000
   POMASS =   32.066; ZVAL   =    6.000    mass and valenz
   ENMAX  =  258.689; ENMIN  =  194.016 eV

 Optimization of the real space projectors (new method)

 maximal supplied QI-value         = 18.90
 optimisation between [QCUT,QGAM] = [ 10.77, 21.73] = [ 32.49,132.25] Ry
 Optimized for a Real-space Cutoff    1.38 Angstroem

   l    n(q)    QCUT    max X(q) W(low)/X(q) W(high)/X(q)  e(spline)
   1      8    10.771     2.836    0.40E-04    0.29E-04    0.12E-06
   1      8    10.771     4.023    0.10E-03    0.48E-04    0.29E-06
   2      8    10.771    73.368    0.42E-03    0.97E-04    0.44E-06
   2      8    10.771    69.010    0.42E-03    0.99E-04    0.45E-06
   0      9    10.771    54.797    0.10E-03    0.56E-04    0.74E-07
   0      9    10.771    24.266    0.89E-04    0.49E-04    0.67E-07
 Optimization of the real space projectors (new method)

 maximal supplied QI-value         = 19.84
 optimisation between [QCUT,QGAM] = [ 10.71, 21.63] = [ 32.15,130.99] Ry
 Optimized for a Real-space Cutoff    1.19 Angstroem

   l    n(q)    QCUT    max X(q) W(low)/X(q) W(high)/X(q)  e(spline)
   0      8    10.715   187.594    0.41E-03    0.53E-04    0.66E-07
   0      8    10.715   164.243    0.41E-03    0.53E-04    0.65E-07
   1      7    10.715    67.533    0.19E-03    0.59E-03    0.68E-07
   1      7    10.715    50.729    0.19E-03    0.58E-03    0.67E-07
  PAW_PBE Ni_pv 06Sep2000               :
  PAW_PBE S 06Sep2000                   :

 POSCAR: Type_052 Type_152
  positions in cartesian coordinates
 exchange correlation table for  LEXCH =        8
   RHO(1)=    0.500       N(1)  =     2000
   RHO(2)=  100.500       N(2)  =     4000

 ion  position               nearest neighbor table
   1  0.261  0.479  0.291-  79 2.25  63 2.26  87 2.26  59 2.36  64 2.36   8 2.53  24 2.53
   2  0.355  0.385  0.419-  71 2.07  80 2.25  59 2.26  64 2.26   3 2.31  65 2.36   9 2.53  25 2.53

   3  0.305  0.405  0.517-  57 2.02  71 2.11  65 2.19   2 2.31  31 2.54  80 2.63
   4  0.167  0.073  0.162-  88 2.12  60 2.19  69 2.25  61 2.36  89 2.36  14 2.48  38 2.53  32 2.53

[...]

  43  0.545  0.551  0.495-  93 2.03  71 2.11  91 2.12  70 2.12
  44  0.699  0.041  0.058-  94 2.01 101 2.05  73 2.05  18 2.41
  45  0.774  0.833  0.128- 101 2.11  94 2.13  99 2.18  95 2.36 102 2.36  51 2.53  18 2.53
  46  0.868  0.739  0.257- 100 2.25 102 2.26  95 2.26 103 2.36  79 2.36  40 2.53  35 2.53
  47  0.962  0.645  0.385- 104 2.05  72 2.25 103 2.26  79 2.26  80 2.36  41 2.53  36 2.53
  48  0.500  0.872  0.257- 102 2.25  82 2.26  61 2.26  92 2.36  85 2.36  27 2.53  33 2.53
  49  0.594  0.778  0.385-  97 2.09 103 2.25  92 2.26  85 2.26  93 2.36  34 2.53  28 2.53
  50  0.697  0.684  0.497-  93 2.02 104 2.11  97 2.12  70 2.12
  51  0.906  0.965  0.128-  94 2.11  73 2.12  88 2.15  95 2.36  74 2.36  18 2.53  45 2.53
  52  0.925  0.529  0.034-  62 2.10  68 2.14  99 2.20  26 2.32  20 2.52
  53  0.073  0.167  0.306-  27 2.25  11 2.26  23 2.26  10 2.36  22 2.36
  54  0.167  0.073  0.435-   5 2.05  12 2.06  28 2.25  11 2.36  23 2.36
  55  0.377  0.334  0.055-  39 2.01   7 2.04   6 2.25  13 2.36
  56  0.479  0.261  0.178-  18 2.25   8 2.26  24 2.26   7 2.36  13 2.36
  57  0.185  0.578  0.556-   3 2.02  31 2.06  37 2.06
  58  0.030  0.378  0.478-  12 2.04  17 2.08  31 2.13  11 2.36  16 2.36
  59  0.436  0.472  0.350-  34 2.25   2 2.26  25 2.26   1 2.36  24 2.36
  60  0.252  0.162  0.100-  14 2.05   6 2.13   7 2.14   4 2.19  38 2.21
  61  0.342  0.066  0.221-   8 2.25  27 2.26  48 2.26   4 2.36  38 2.36
  62  0.080  0.491  0.093-  39 2.07  52 2.10   6 2.15  29 2.21  26 2.25   7 2.26  30 2.26
  63  0.174  0.397  0.221-  10 2.25   8 2.26   1 2.26   7 2.36  30 2.36
  64  0.268  0.303  0.350-  11 2.25   2 2.26   9 2.26   1 2.36   8 2.36
  65  0.362  0.209  0.478-  12 2.14   3 2.19  19 2.22   2 2.36   9 2.36
  66  0.573  0.167  0.306-  40 2.25  25 2.26   9 2.26  24 2.36   8 2.36  67 2.67
  67  0.658  0.085  0.415-  25 2.07  19 2.09   9 2.11  41 2.35  96 2.50  66 2.67
  68  0.890  0.363  0.055-  20 2.04  26 2.08  52 2.14  21 2.23
  69  0.979  0.261  0.178-   4 2.25  22 2.26  10 2.26  21 2.36  26 2.36
  70  0.727  0.505  0.539-  43 2.12  50 2.12  17 2.12  93 2.50
  71  0.475  0.408  0.481-   2 2.07  43 2.11   3 2.11  25 2.65
  72  0.936  0.472  0.350-  47 2.25  16 2.26  11 2.26  15 2.36  10 2.36
  73  0.758  0.159  0.107-  44 2.05  21 2.11  51 2.12  18 2.12
  74  0.842  0.066  0.221-  22 2.25  40 2.26  35 2.26  18 2.36  51 2.36
  75  0.581  0.481  0.108-  20 2.06  13 2.10  42 2.11  21 2.12
  76  0.674  0.397  0.221-  24 2.25  22 2.26  15 2.26  21 2.36  42 2.36
  77  0.768  0.303  0.350-  25 2.25  16 2.26  23 2.26  15 2.36  22 2.36  78 2.76
  78  0.851  0.222  0.462-   5 2.07  17 2.08  16 2.11  23 2.11  77 2.76
  79  0.073  0.667  0.306-   1 2.25  36 2.26  47 2.26  35 2.36  46 2.36
  80  0.167  0.573  0.435-  37 2.04  31 2.05   2 2.25  36 2.36  47 2.36   3 2.63
  81  0.386  0.854  0.062-  14 2.01  32 2.06  38 2.06
  82  0.479  0.761  0.178-  42 2.25  33 2.26  48 2.26  32 2.36  38 2.36
  83  0.063  0.164  0.557-   5 2.04  17 2.05  12 2.06
  84  0.027  0.879  0.464-  36 2.10  37 2.12  41 2.17   5 2.18
  85  0.436  0.972  0.350-   9 2.25  28 2.26  49 2.26  27 2.36  48 2.36
  86  0.248  0.660  0.093-  39 2.02  32 2.25  30 2.26  13 2.26  29 2.34
  87  0.342  0.566  0.221-  33 2.25   1 2.26  24 2.26  30 2.36  13 2.36
  88  0.083  0.982  0.105-  14 2.06   4 2.12  32 2.12  51 2.15
  89  0.174  0.897  0.221-  35 2.25  33 2.26  27 2.26  32 2.36   4 2.36
  90  0.268  0.803  0.350-  36 2.25  28 2.26  34 2.26  27 2.36  33 2.36
  91  0.368  0.713  0.466-  34 2.10  43 2.12  37 2.12  28 2.16
  92  0.573  0.667  0.306-  15 2.25  49 2.26  34 2.26  48 2.36  33 2.36
  93  0.667  0.573  0.435-  50 2.02  43 2.03  16 2.25  49 2.36  34 2.36  70 2.50
  94  0.869  0.872  0.055-  44 2.01  29 2.05  51 2.11  45 2.13
  95  0.979  0.761  0.178-  29 2.14  30 2.25  46 2.26  35 2.26  45 2.36  51 2.36
  96  0.746  0.922  0.497-  19 2.02  41 2.10  67 2.50 104 2.53
  97  0.526  0.854  0.468-  19 2.08  49 2.09  50 2.12  28 2.13
  98  0.936  0.972  0.350-  23 2.25  41 2.26  36 2.26  40 2.36  35 2.36
  99  0.769  0.653  0.096-  20 2.07  26 2.12  45 2.18  52 2.20  42 2.32
 100  0.842  0.566  0.221-  46 2.25  15 2.26  10 2.26  42 2.36  26 2.36
 101  0.582  0.981  0.107-  44 2.05  45 2.11  18 2.12  38 2.12
 102  0.674  0.897  0.221-  48 2.25  46 2.26  40 2.26  45 2.36  18 2.36
 103  0.768  0.803  0.350-  49 2.25  41 2.26  47 2.26  40 2.36  46 2.36
 104  0.875  0.681  0.466-  47 2.05  31 2.09  50 2.11  41 2.45  96 2.53

  LATTYP: Found a base centered orthorhombic cell.
 ALAT       =    11.8257374459
 B/A-ratio  =     1.6199260857
 C/A-ratio  =     1.9350716598

  Lattice vectors:

 A1 = (  11.2564630382,   0.0000000000,   0.0000000000)
 A2 = (  -5.0445621212, -10.0628203371,   0.0000000000)
 A3 = (   0.0000000000,   0.0000000000, -22.8836493875)

Analysis of symmetry for initial positions (statically):
 Subroutine PRICEL returns:
 Original cell was already a primitive cell.

 Routine SETGRP: Setting up the symmetry group for a
 base centered orthorhombic supercell.

 Subroutine GETGRP returns: Found  1 space group operations
 (whereof  1 operations were pure point group operations)
 out of a pool of  8 trial point group operations.

The static configuration has the point symmetry C_1 .

Analysis of symmetry for dynamics (positions and initial velocities):
 Subroutine PRICEL returns:
 Original cell was already a primitive cell.

 Routine SETGRP: Setting up the symmetry group for a
 base centered orthorhombic supercell.

 Subroutine GETGRP returns: Found  1 space group operations
 (whereof  1 operations were pure point group operations)
 out of a pool of  8 trial point group operations.

The dynamic configuration has the point symmetry C_1 .

 Subroutine INISYM returns: Found  1 space group operations
 (whereof  1 operations are pure point group operations),
 and found     1 'primitive' translations

 KPOINTS: gamma-point-only calculation. no periodi

Automatic generation of k-mesh.
Space group operators:
 irot       det(A)        alpha          n_x          n_y          n_z        tau_x        tau_y        tau_z
    1     1.000000     0.000001     1.000000     0.000000     0.000000     0.000000     0.000000     0.000000

 Subroutine IBZKPT returns following result:

 Found      1 irreducible k-points:

 Following reciprocal coordinates:
            Coordinates               Weight
  0.000000  0.000000  0.000000      1.000000

 Following cartesian coordinates:
            Coordinates               Weight
  0.000000  0.000000  0.000000      1.000000

 SYSTEM =  "Millerite NiS"
 POSCAR =  Type_052 Type_152

 Startparameter for this run:
   NWRITE =      2    write-flag & timer
   PREC   = normal    normal or accurate (medium, high low for compatibility)
   ISTART =      0    job   : 0-new  1-cont  2-samecut
   ICHARG =      2    charge: 1-file 2-atom 10-const
   ISPIN  =      1    spin polarized calculation?
   LNONCOLLINEAR =      F non collinear calculations
   LSORBIT =      F    spin-orbit coupling
   INIWAV =      1    electr: 0-lowe 1-rand  2-diag
   LASPH  =      F    aspherical Exc in radial PAW
   METAGGA=      F    non-selfconsistent MetaGGA calc.

 Electronic Relaxation 1
   ENCUT  =  450.0 eV  33.07 Ry    5.75 a.u.  19.47 19.47 39.58*2*pi/ulx,y,z
   ENINI  =  450.0     initial cutoff
   ENAUG  =  703.4 eV  augmentation charge cutoff
   NELM   =    100;   NELMIN=  2; NELMDL= -5     # of ELM steps
   EDIFF  = 0.1E-03   stopping-criterion for ELM
   LREAL  =      T    real-space projection
   NLSPLINE    = F    spline interpolate recip. space projectors
   LCOMPAT=      F    compatible to vasp.4.4
   GGA_COMPAT  = T    GGA compatible to vasp.4.4-vasp.4.6
   LMAXPAW     = -100 max onsite density
   LMAXMIX     =    2 max onsite mixed and CHGCAR
   VOSKOWN=      0    Vosko Wilk Nusair interpolation
   ROPT   =   -0.00050  -0.00050
 Ionic relaxation
   EDIFFG = 0.1E-02   stopping-criterion for IOM
   NSW    =      0    number of steps for IOM
   NBLOCK =      1;   KBLOCK =      1    inner block; outer block
   IBRION =     -1    ionic relax: 0-MD 1-quasi-New 2-CG
   NFREE  =      0    steps in history (QN), initial steepest desc. (CG)
   ISIF   =      2    stress and relaxation
   IWAVPR =     10    prediction:  0-non 1-charg 2-wave 3-comb
   ISYM   =      2    0-nonsym 1-usesym 2-fastsym
   LCORR  =      T    Harris-Foulkes like correction to forces

   POTIM  = 0.5000    time-step for ionic-motion
   TEIN   =    0.0    initial temperature
   TEBEG  =    0.0;   TEEND  =   0.0 temperature during run
   SMASS  =  -3.00    Nose mass-parameter (am)
[...]
     0.000000000  0.000000000 22.883649388     0.000000000  0.000000000  0.043699324

  length of vectors
    11.256463038 11.256463038 22.883649388     0.099375718  0.099375718  0.043699324

 FORCES acting on ions
    electron-ion (+dipol)            ewald-force                    non-local-force                 convergence-correction
   0.176E+03 -.373E+03 -.419E+03   -.176E+03 0.374E+03 0.419E+03   0.768E+00 -.121E+01 0.338E+00   0.170E+00 0.204E-01 -.982E-01
   -.443E+02 -.124E+03 -.320E+04   0.439E+02 0.125E+03 0.319E+04   -.239E+00 -.834E+00 0.104E+01   0.108E+00 -.973E-01 0.491E+00
   -.374E+03 0.458E+03 -.592E+04   0.376E+03 -.458E+03 0.593E+04   -.270E+01 -.178E+01 -.301E+01   0.249E-01 -.252E-01 0.202E+00
   0.328E+03 -.410E+03 0.259E+04   -.330E+03 0.414E+03 -.259E+04   0.186E+01 -.288E+01 -.176E+01   0.309E-01 -.130E+00 -.409E+00
   0.430E+03 0.747E+03 -.534E+04   -.433E+03 -.753E+03 0.534E+04   0.181E+01 0.428E+01 -.165E+01   0.173E-01 0.111E+00 0.254E+00
   0.209E+03 0.766E+03 0.612E+04   -.209E+03 -.767E+03 -.612E+04   -.787E+00 0.530E+00 0.825E+00   0.497E-01 0.996E-01 -.110E+00
   -.138E+03 0.755E+03 0.330E+04   0.139E+03 -.757E+03 -.329E+04   -.108E+01 0.213E+01 -.370E+01   0.298E-01 0.657E-01 -.489E+00
   0.185E+03 0.500E+03 0.661E+03   -.186E+03 -.500E+03 -.662E+03   0.863E+00 0.517E+00 0.137E+01   0.134E+00 -.282E+00 -.285E+00
   0.193E+03 0.326E+03 -.238E+04   -.197E+03 -.326E+03 0.238E+04   0.309E+01 0.111E+01 0.820E+00   0.878E-01 0.336E-01 0.197E+00
   -.462E+03 0.404E+02 0.621E+03   0.463E+03 -.400E+02 -.622E+03   -.991E+00 -.342E+00 0.117E+01   -.974E-01 -.744E-01 -.235E+00
   -.504E+03 0.443E+02 -.222E+04   0.506E+03 -.433E+02 0.221E+04   -.118E+01 -.892E+00 0.234E+01   0.608E-01 -.935E-01 0.311E+00
   -.593E+03 0.477E+03 -.538E+04   0.599E+03 -.479E+03 0.538E+04   -.453E+01 0.106E+01 -.141E+01   0.806E-01 0.109E+00 0.272E+00
   -.916E+03 0.486E+02 0.393E+04   0.917E+03 -.488E+02 -.393E+04   -.180E+01 -.268E-01 -.525E+00   -.485E-01 0.536E-01 -.336E+00
   0.287E+03 -.618E+02 0.619E+04   -.289E+03 0.608E+02 -.620E+04   0.529E+00 0.211E+01 0.559E+01   0.249E-01 -.519E-01 -.122E+00
   0.313E+03 -.385E+03 -.405E+03   -.313E+03 0.386E+03 0.405E+03   0.632E+00 -.119E+01 0.441E+00   -.335E+00 0.101E+00 -.827E-01
   0.410E+03 -.423E+03 -.323E+04   -.409E+03 0.426E+03 0.323E+04   0.185E+00 -.203E+01 0.513E+00   -.753E-01 -.768E-02 0.335E+00
   0.500E+03 -.116E+03 -.596E+04   -.503E+03 0.120E+03 0.596E+04   0.143E+01 -.319E+01 -.454E+01   0.451E-02 0.638E-01 0.288E+00
   0.329E+03 -.588E+03 0.262E+04   -.331E+03 0.591E+03 -.262E+04   0.172E+01 -.297E+01 -.138E+01   -.583E-02 -.348E-01 -.443E+00
   -.126E+03 -.219E+02 -.537E+04   0.122E+03 0.216E+02 0.538E+04   0.350E+01 0.161E+01 -.172E+01   -.357E-01 0.799E-01 0.208E+00
   0.955E+03 -.367E+03 0.608E+04   -.959E+03 0.368E+03 -.608E+04   0.280E+01 0.559E+00 0.481E+01   0.483E-01 0.430E-01 -.120E+00
   0.438E+03 0.740E+03 0.393E+04   -.439E+03 -.743E+03 -.393E+04   0.957E+00 0.248E+01 0.172E+00   -.140E+00 -.347E-01 -.256E+00
   0.294E+03 0.472E+03 0.679E+03   -.294E+03 -.472E+03 -.680E+03   0.600E+00 0.520E+00 0.125E+01   -.268E+00 -.978E-01 -.230E+00
   0.370E+03 0.505E+03 -.224E+04   -.370E+03 -.506E+03 0.223E+04   0.631E+00 0.166E+01 0.192E+01   -.491E-01 -.190E-01 0.131E+00
   -.559E+03 0.721E+01 0.684E+03   0.559E+03 -.644E+01 -.684E+03   -.867E+00 -.675E+00 0.123E+01   0.321E+00 -.867E-01 -.260E+00
   -.592E+03 0.194E+02 -.276E+04   0.595E+03 -.163E+02 0.276E+04   -.192E+01 -.182E+01 0.663E+00   -.702E-02 0.242E-01 0.173E+00
   -.252E+03 0.252E+03 0.322E+04   0.254E+03 -.254E+03 -.321E+04   -.762E+00 0.113E+01 -.322E+01   -.144E-01 0.114E+00 -.513E+00
   0.232E+03 -.373E+03 -.406E+03   -.233E+03 0.374E+03 0.406E+03   0.629E+00 -.123E+01 0.677E-02   0.373E-01 -.194E-01 -.113E+00
   0.258E+03 -.427E+03 -.378E+04   -.260E+03 0.429E+03 0.378E+04   0.119E+01 -.241E+01 -.172E+01   0.497E-01 0.143E-01 0.174E+00
   -.154E+03 -.545E+03 0.512E+04   0.156E+03 0.545E+03 -.512E+04   -.165E+01 -.395E+00 0.434E+01   0.534E-02 -.221E-01 -.278E+00
   -.953E+02 -.292E+03 0.220E+04   0.973E+02 0.292E+03 -.220E+04   -.149E+01 -.513E+00 -.418E+01   0.319E-01 0.110E+00 -.684E+00
   0.431E+03 -.222E+03 -.543E+04   -.434E+03 0.221E+03 0.543E+04   0.195E+01 0.441E+00 -.342E+01   0.681E-01 -.166E+00 0.337E+00
   0.133E+03 0.674E+03 0.393E+04   -.135E+03 -.678E+03 -.393E+04   0.105E+01 0.233E+01 0.109E+01   -.880E-02 -.174E-01 -.321E+00
   0.202E+03 0.449E+03 0.707E+03   -.203E+03 -.449E+03 -.707E+03   0.995E+00 0.672E+00 0.939E+00   0.943E-01 -.247E-01 -.290E+00
   0.202E+03 0.415E+03 -.232E+04   -.204E+03 -.417E+03 0.231E+04   0.206E+01 0.199E+01 0.216E+01   0.333E-01 -.659E-01 0.164E+00
   -.538E+03 -.921E+02 0.598E+03   0.539E+03 0.932E+02 -.597E+03   -.124E+01 -.111E+01 -.211E+00   0.166E+00 0.148E+00 -.324E+00
   -.452E+03 -.117E+03 -.233E+04   0.455E+03 0.117E+03 0.232E+04   -.264E+01 -.146E+00 0.208E+01   0.769E-01 0.424E-01 0.183E+00
   -.368E+03 -.531E+03 -.537E+04   0.372E+03 0.534E+03 0.537E+04   -.323E+01 -.121E+01 -.258E+01   0.146E-01 -.172E+00 0.274E+00
   -.721E+03 0.137E+03 0.394E+04   0.725E+03 -.137E+03 -.393E+04   -.333E+01 0.773E+00 0.697E+00   0.283E-01 -.344E-01 -.295E+00
   -.745E+03 -.363E+03 0.627E+04   0.749E+03 0.362E+03 -.628E+04   -.342E+01 0.102E+01 0.679E+01   -.110E+00 0.680E-01 -.614E-01
   0.243E+03 -.444E+03 -.439E+03   -.243E+03 0.444E+03 0.438E+03   0.482E+00 -.709E+00 0.433E+00   -.129E+00 0.313E+00 -.870E-01
   0.182E+03 -.526E+03 -.377E+04   -.181E+03 0.526E+03 0.377E+04   -.190E+00 -.840E-01 -.776E+00   -.479E-01 0.807E-01 0.199E+00
   0.473E+03 -.587E+03 0.261E+04   -.474E+03 0.590E+03 -.261E+04   0.111E+01 -.266E+01 -.121E+01   -.111E+00 0.420E-01 -.288E+00
   0.261E+03 0.214E+03 -.547E+04   -.266E+03 -.217E+03 0.548E+04   0.395E+01 0.325E+01 -.253E+01   -.131E-01 -.659E-01 0.254E+00
   0.279E+03 -.562E+03 0.620E+04   -.281E+03 0.566E+03 -.620E+04   0.157E+01 -.286E+01 0.423E+01   0.954E-02 -.734E-01 -.822E-01
   0.644E+03 0.264E+03 0.379E+04   -.647E+03 -.267E+03 -.379E+04   0.328E+01 0.164E+01 0.561E+00   0.577E-01 0.111E+00 -.464E+00
   0.298E+03 0.387E+03 0.566E+03   -.300E+03 -.388E+03 -.566E+03   0.156E+01 0.836E+00 0.245E+00   -.125E+00 0.836E-01 -.340E+00
   0.225E+03 0.305E+03 -.231E+04   -.226E+03 -.307E+03 0.231E+04   0.131E+01 0.135E+01 0.277E+01   -.365E-01 -.196E-01 0.331E+00
   -.492E+03 -.112E+02 0.707E+03   0.493E+03 0.118E+02 -.708E+03   -.724E+00 -.658E+00 0.115E+01   0.199E-01 0.113E-03 -.271E+00
   -.447E+03 -.377E+02 -.234E+04   0.449E+03 0.384E+02 0.233E+04   -.236E+01 -.117E+01 0.233E+01   -.376E-01 0.205E-01 0.162E+00
   -.195E+03 -.403E+03 -.558E+04   0.198E+03 0.404E+03 0.558E+04   -.254E+01 -.188E+00 -.199E+01   -.297E-01 -.271E-01 0.299E+00
   -.701E+03 -.362E+03 0.390E+04   0.706E+03 0.363E+03 -.390E+04   -.332E+01 -.180E+01 0.837E+00   -.126E+00 -.543E-01 -.423E+00
   0.110E+03 -.318E+03 0.633E+04   -.112E+03 0.317E+03 -.633E+04   0.201E+01 0.201E+01 0.419E+00   0.153E+00 0.849E-01 -.157E+00
   -.665E+02 0.136E+03 -.106E+03   0.677E+02 -.138E+03 0.104E+03   -.113E+01 0.183E+01 0.153E+01   -.129E-01 -.892E-01 0.254E-01
   -.140E+03 0.257E+03 -.130E+04   0.142E+03 -.258E+03 0.130E+04   -.704E+00 0.293E+00 -.658E+00   0.297E-01 0.112E-01 0.771E-01
   -.502E+03 0.372E+03 0.225E+04   0.506E+03 -.375E+03 -.226E+04   -.220E+01 0.194E+01 0.950E+00   -.325E-01 0.210E-01 -.662E-01
   -.123E+03 0.142E+03 0.108E+04   0.123E+03 -.143E+03 -.108E+04   -.769E+00 0.137E+01 0.209E+01   0.596E-01 -.408E-01 -.181E+00
   -.702E+02 -.183E+03 -.249E+04   0.709E+02 0.184E+03 0.250E+04   -.237E+00 0.125E+00 -.104E+01   -.382E-02 -.116E+00 0.671E-01
   -.782E+02 -.168E+03 -.175E+04   0.793E+02 0.170E+03 0.175E+04   -.888E+00 -.172E+00 -.438E+00   0.102E-01 0.159E-02 0.161E+00
   -.104E+03 -.126E+03 -.583E+03   0.105E+03 0.129E+03 0.583E+03   -.131E+01 -.297E+01 -.485E+00   0.117E+00 -.575E-01 0.105E+00
   -.924E+02 0.169E+02 0.168E+04   0.934E+02 -.164E+02 -.168E+04   -.761E+00 0.266E+00 -.104E+01   0.187E-01 -.241E-02 -.122E+00
[...]
   0.529E+02 -.140E+03 -.193E+04   -.548E+02 0.141E+03 0.193E+04   0.814E+00 -.271E+00 -.138E+01   0.438E-01 -.367E-01 0.921E-01
   -.628E+02 0.117E+03 -.106E+03   0.641E+02 -.119E+03 0.105E+03   -.117E+01 0.190E+01 0.152E+01   -.119E-01 -.132E-01 -.364E-01
   -.302E+02 0.121E+03 -.124E+04   0.312E+02 -.123E+03 0.123E+04   -.728E+00 0.119E+01 0.182E+01   -.242E-01 0.140E-01 0.127E+00
   -.773E+02 -.384E+02 0.247E+04   0.785E+02 0.374E+02 -.247E+04   -.458E+00 0.197E+00 0.227E+01   -.333E-02 -.313E-01 -.286E-01
   -.721E+02 0.186E+02 0.827E+03   0.729E+02 -.194E+02 -.825E+03   -.866E+00 0.692E+00 -.568E+00   0.452E-01 -.802E-02 -.341E+00
   -.136E+03 -.803E+02 -.226E+04   0.137E+03 0.799E+02 0.227E+04   -.788E+00 -.215E+00 -.307E+01   -.278E-01 0.539E-02 0.103E+00
   0.767E+02 -.130E+03 -.204E+04   -.776E+02 0.131E+03 0.204E+04   0.601E+00 0.369E+00 -.216E+01   0.947E-02 -.246E-01 0.103E+00
   -.530E+02 -.167E+03 -.611E+03   0.540E+02 0.170E+03 0.610E+03   -.924E+00 -.287E+01 -.294E+00   0.458E-02 0.574E-01 0.553E-01
   0.167E+03 -.423E+03 0.175E+04   -.168E+03 0.426E+03 -.175E+04   0.165E+00 -.122E+01 0.838E+00   0.371E-01 0.497E-01 -.116E+00
   -.260E+02 -.158E+03 0.506E+03   0.272E+02 0.160E+03 -.506E+03   -.922E+00 -.242E+01 0.495E+00   -.135E+00 0.456E-01 -.196E+00
   0.308E+03 -.226E+02 0.180E+04   -.309E+03 0.231E+02 -.180E+04   -.257E+00 -.320E+00 0.128E+01   0.531E-01 0.681E-02 -.919E-01
   0.200E+03 -.206E+02 0.547E+03   -.202E+03 0.207E+02 -.547E+03   0.277E+01 -.306E+00 0.880E+00   -.661E-01 0.883E-01 -.202E+00
   0.164E+03 -.235E+02 -.593E+03   -.166E+03 0.236E+02 0.593E+03   0.276E+01 -.110E+00 -.679E+00   -.713E-01 0.458E-01 0.946E-01
   0.864E+02 -.152E+03 -.185E+04   -.861E+02 0.151E+03 0.185E+04   -.800E+00 0.207E+01 0.288E+00   -.406E-01 -.325E-01 0.146E+00
   -.574E+01 0.135E+00 -.245E+02   -.298E-12 0.369E-12 0.546E-11   0.541E+01 -.353E+00 0.288E+02   0.128E+00 0.278E+00 -.439E+01

 POSITION                                       TOTAL-FORCE (eV/Angst)
      5.35228      4.81788      6.64784         0.109051     -0.151695     -0.029200
      5.93595      3.87238      9.58390        -0.557591      0.055403     -2.573436
      5.47334      4.07316     11.84057        -0.090159     -1.286387      0.512369
      2.24633      0.73197      3.71178        -0.301413      0.794865      1.745833
      0.62826      0.65926     11.21062        -0.908615     -1.915468      0.355459
      3.71294      3.22560      0.87879        -0.634779     -0.271875     -1.088741
      4.76861      3.35453      2.93606         0.244937     -0.306693      3.510186
      5.35228      2.40903      5.87212         0.080097     -0.079810     -0.002920
      5.93595      1.46353      8.80817        -0.953357      0.667755     -1.506483
      1.87746      3.73836      5.87212        -0.114298     -0.033653     -0.003873
      2.46113      2.79286      8.80817         0.038637     -0.028848     -0.232082
      3.04146      1.97381     11.38554         1.933067     -0.467293      0.417592
      6.92203      4.68386      2.93606        -0.161371     -0.153579      0.410621
      2.53413      0.23078      1.30219        -0.714573      1.122525     -1.951324
     10.98051      4.81788      6.64784         0.043943     -0.172268      0.019225
     11.56418      3.87238      9.58390         0.442766      0.669404     -1.363368
     11.79626      3.27612     11.99807        -0.829264      0.958304      1.045197
      7.87456      0.73197      3.71178        -0.349217      0.699971      2.341558
      6.34749      0.25272     10.83926        -0.624686      1.355728      0.798368
     10.61838      5.26793      1.30419        -0.920293      0.846787     -1.681890
     10.39684      3.35453      2.93606         0.163656     -0.812460      1.237278
     10.98051      2.40903      5.87212        -0.051056      0.012125      0.080873
     11.56418      1.46353      8.80817         0.456217     -0.118779     -1.288536
      7.50570      3.73836      5.87212         0.013294      0.010153      0.114907
      8.08937      2.79286      8.80817         0.197641      1.238538     -0.366674
     12.55026      4.68386      2.93606         0.759806     -0.807223      3.533111
      7.87456      9.84929      6.64784         0.145155     -0.230585     -0.086417
      8.45823      8.90379      9.58390        -0.528043      0.265614     -0.809126
      3.83368      7.10476      2.02007         0.316164     -0.344028     -1.016033
      4.76861      5.76338      3.71178         0.596373     -0.108262      1.349506
      3.41284      5.50315     11.46151        -1.327426     -0.902895      0.890570
      7.29089      8.38594      2.93606        -0.593582     -1.692120      1.840628
      7.87456      7.44044      5.87212         0.064506      0.084778     -0.037725
      8.45823      6.49494      8.80817         0.319854     -0.256058     -1.298023
      4.39975      8.76977      5.87212         0.101031      0.138551      0.096310
      4.98341      7.82427      8.80817         0.028596     -0.260690     -1.257835
      5.69530      7.04863     11.23421         0.327656      1.486429     -0.067036
      9.44431      9.71527      2.93606         1.034722      0.224736      1.797760
      5.15016      5.20924      1.07704        -0.192460      0.765797     -1.877635
     13.50279      9.84929      6.64784         0.156566     -0.268522     -0.133320
     14.08646      8.90379      9.58390         0.054630      0.184017     -0.756409
     10.39684      5.76338      3.71178        -0.016994      0.723474      1.493453
      8.91883      5.54928     11.32548        -0.567257      0.126878      0.785350
      8.07285      0.41568      1.33563        -0.676708      1.109251     -1.837349
     12.91912      8.38594      2.93606        -0.065045     -1.008789      1.499748
     13.50279      7.44044      5.87212        -0.082964      0.045445      0.088740
     14.08646      6.49494      8.80817         0.312138     -0.415815     -1.753592
     10.02798      8.76977      5.87212        -0.206608     -0.002515      0.093419
     10.61165      7.82427      8.80817         0.077787     -0.519249     -1.221747
     11.30087      6.88727     11.36768         0.502053      0.079099      0.758173
     15.07254      9.71527      2.93606         1.018891     -0.187891      1.622473
     13.07896      5.32187      0.76730         0.460634      0.378401     -1.095219
      1.66190      1.67871      7.01153         0.087166     -0.083805     -0.005208
      2.24556      0.73321      9.94759         1.112031     -1.078971     -2.058313
      5.92762      3.36237      1.25570         2.115002     -1.629253     -2.567845
      6.70646      2.62422      4.07548        -0.034935      0.120048      0.298096
      4.99865      5.82029     12.73160         0.412725      0.861104      3.467085
      2.24556      3.80055     10.93537         0.222463      1.940090     -1.464471
      7.29013      4.74605      7.99931        -0.084709     -0.010378     -0.128804
      3.66011      1.63356      2.29563         0.237987      0.759702     -0.370659
[...]
      7.07033      8.08475      7.99931        -0.158932      0.287602     -0.603376
      7.73613      7.17456     10.65868        -0.997120      0.360855      2.050093
      9.81241      6.71012      7.01153         0.177880     -0.253238     -0.102784
     10.39608      5.76462      9.94759         0.302312     -1.117614     -3.198543
     14.18806      8.77888      1.26552         0.740325     -0.884251     -3.494880
     14.85697      7.65563      4.07548        -0.045794     -0.062265      1.013219
     13.04504      9.27714     11.37184         0.586258     -0.618842      2.374338
     10.23469      8.59641     10.71514        -0.290049      1.698912      1.980787
     15.44064      9.77746      7.99931         0.100833      0.028113     -0.913813
     11.95709      6.57345      2.19315        -0.411616      2.080487     -0.522427
     12.33469      5.69156      5.06325         0.091097      0.015016      0.025563
     11.50169      9.87385      2.43819        -1.960497      0.231174     -1.246247
     12.11489      9.03025      5.06325         0.058452     -0.179500      0.526025
     12.69856      8.08475      7.99931        -0.155522     -0.047685     -0.504981
     13.28725      6.85573     10.66463        -0.474733      0.538473      1.910512
    total drift:                               -0.201660      0.059416     -0.124295

  FREE ENERGIE OF THE ION-ELECTRON SYSTEM (eV)
  free  energy   TOTEN  =      -513.43961405 eV

  energy  without entropy=     -512.14372360  energy(sigma->0) =     -512.79166883