 vasp.5.4.4.18Apr17-6-g9f103f2a35 (build Aug 13 2019 17:33:20) gamma-only

 executed on             LinuxIFC date 2020.05.12  13:20:17

 INCAR:
 POTCAR:    PAW_PBE Ni_pv 06Sep2000
 POTCAR:    PAW_PBE S 06Sep2000
 POTCAR:    PAW_PBE Ni_pv 06Sep2000
   VRHFIN =Ni:

   TITEL  = PAW_PBE Ni_pv 06Sep2000
   POMASS =   58.690; ZVAL   =   16.000    mass and valenz
   ENMAX  =  367.986; ENMIN  =  275.989 eV

 POTCAR:    PAW_PBE S 06Sep2000
   VRHFIN =S : s2p4

   TITEL  = PAW_PBE S 06Sep2000
   POMASS =   32.066; ZVAL   =    6.000    mass and valenz
   ENMAX  =  258.689; ENMIN  =  194.016 eV

 Optimization of the real space projectors (new method)

 maximal supplied QI-value         = 18.90
 optimisation between [QCUT,QGAM] = [ 10.77, 21.73] = [ 32.49,132.25] Ry
 Optimized for a Real-space Cutoff    1.38 Angstroem

   l    n(q)    QCUT    max X(q) W(low)/X(q) W(high)/X(q)  e(spline)
   1      8    10.771     2.836    0.40E-04    0.29E-04    0.12E-06
   1      8    10.771     4.023    0.10E-03    0.48E-04    0.29E-06
   2      8    10.771    73.368    0.42E-03    0.97E-04    0.44E-06
   2      8    10.771    69.010    0.42E-03    0.99E-04    0.45E-06
   0      9    10.771    54.797    0.10E-03    0.56E-04    0.74E-07
   0      9    10.771    24.266    0.89E-04    0.49E-04    0.67E-07
 Optimization of the real space projectors (new method)

 maximal supplied QI-value         = 19.84
 optimisation between [QCUT,QGAM] = [ 10.71, 21.63] = [ 32.15,130.99] Ry
 Optimized for a Real-space Cutoff    1.19 Angstroem

   l    n(q)    QCUT    max X(q) W(low)/X(q) W(high)/X(q)  e(spline)
   0      8    10.715   187.594    0.41E-03    0.53E-04    0.66E-07
   0      8    10.715   164.243    0.41E-03    0.53E-04    0.65E-07
   1      7    10.715    67.533    0.19E-03    0.59E-03    0.68E-07
   1      7    10.715    50.729    0.19E-03    0.58E-03    0.67E-07
  PAW_PBE Ni_pv 06Sep2000               :
  PAW_PBE S 06Sep2000                   :

 POSCAR: Type_036 Type_136
  positions in cartesian coordinates
 exchange correlation table for  LEXCH =        8
   RHO(1)=    0.500       N(1)  =     2000
   RHO(2)=  100.500       N(2)  =     4000

 ion  position               nearest neighbor table
   1  0.374  0.751  0.095-  61 2.05  49 2.10  40 2.25  62 2.36  50 2.36  14 2.39
   2  0.525  0.601  0.223-  41 2.25  50 2.26  62 2.26  63 2.36  51 2.36  15 2.53  27 2.53
   3  0.675  0.451  0.351-  42 2.25  63 2.26  51 2.26   4 2.33  64 2.36  52 2.36  28 2.53  16 2.53

   4  0.712  0.370  0.459-  43 2.03  52 2.12  64 2.14   3 2.33
   5  0.563  0.165  0.073-  46 2.08  45 2.08  67 2.22  53 2.25   6 2.35
   6  0.758  0.035  0.138-  67 2.06  53 2.07  46 2.25   5 2.35  54 2.36  68 2.36  29 2.53  20 2.53

[...]

  29  0.982  0.074  0.104-  44 1.97  69 2.23  53 2.30  40 2.36  54 2.36   6 2.53  20 2.53
  30  0.133  0.924  0.232-  70 2.25  54 2.26  40 2.26  55 2.36  41 2.36   8 2.53  17 2.53
  31  0.283  0.774  0.360-  56 2.03  71 2.25  55 2.26  41 2.26  42 2.36   7 2.53  18 2.53
  32  0.439  0.660  0.466-  42 2.03  43 2.08  56 2.10  72 2.12
  33  0.244  0.522  0.044-  57 2.02  61 2.06  60 2.14  45 2.18
  34  0.366  0.358  0.147-  45 2.06  62 2.25  57 2.26  46 2.36  58 2.36  21 2.53   9 2.53
  35  0.516  0.207  0.275-  63 2.25  58 2.26  46 2.26  47 2.36  59 2.36  10 2.53  22 2.53
  36  0.663  0.069  0.389-  47 2.04  64 2.15  59 2.17  48 2.21  11 2.51
  37  0.064  0.262  0.341-  13 2.01  25 2.03  10 2.25  16 2.36  28 2.36
  38  0.763  0.563  0.085-  14 2.05  12 2.11  26 2.24  15 2.26  27 2.26
  39  0.914  0.412  0.213-   9 2.25  16 2.26  28 2.26  27 2.36  15 2.36
  40  0.147  0.846  0.128-   1 2.25  17 2.26  30 2.26  20 2.36  29 2.36
  41  0.297  0.696  0.256-   2 2.25  31 2.26  18 2.26  30 2.36  17 2.36
  42  0.447  0.545  0.384-  19 2.03  32 2.03   3 2.25  31 2.36  18 2.36  43 2.64
  43  0.522  0.455  0.504-   4 2.03  19 2.07  32 2.08  42 2.64
  44  0.973  1.000  0.016-  29 1.97  20 1.99
  45  0.354  0.294  0.052-  34 2.06   5 2.08  21 2.14  33 2.18
  46  0.530  0.129  0.171-   5 2.08   6 2.25  22 2.26  35 2.26  34 2.36  21 2.36
  47  0.680  0.979  0.299-  36 2.04   8 2.25  23 2.26  35 2.36  22 2.36
  48  0.807  0.853  0.415-  24 2.06  23 2.13  36 2.21   7 2.43
  49  0.412  0.934  0.066-   1 2.10  21 2.12  26 2.13  50 2.61
  50  0.528  0.798  0.171-  26 2.04  22 2.25  27 2.26   2 2.26   1 2.36  49 2.61
  51  0.678  0.648  0.299-  23 2.25  28 2.26   3 2.26  27 2.36   2 2.36
  52  0.829  0.497  0.427-  24 2.04  25 2.04   4 2.12  28 2.36   3 2.36
  53  0.750  0.226  0.099-   6 2.07  15 2.16   5 2.25  29 2.30
  54  0.911  0.081  0.214-  16 2.25   8 2.26  30 2.26   6 2.36  29 2.36
  55  0.062  0.931  0.342-  13 2.05  31 2.26   7 2.26  30 2.36   8 2.36
  56  0.219  0.759  0.453-  31 2.03  32 2.10   7 2.11  66 2.74
  57  0.145  0.515  0.129-  33 2.02  12 2.02  17 2.25  34 2.26   9 2.26  60 2.43
  58  0.295  0.364  0.257-  18 2.25  10 2.26  35 2.26   9 2.36  34 2.36
  59  0.445  0.214  0.385-  11 2.06  19 2.14  36 2.17  35 2.36  10 2.36
  60  0.023  0.639  0.032-  20 2.14  33 2.14  12 2.19  57 2.43
  61  0.367  0.636  0.014-   1 2.05  33 2.06  14 2.07  62 2.70
  62  0.477  0.512  0.128-  14 2.04  34 2.25  15 2.26   2 2.26   1 2.36  61 2.70
  63  0.628  0.362  0.256-  35 2.25   3 2.26  16 2.26   2 2.36  15 2.36
  64  0.778  0.212  0.384-  13 2.02   4 2.14  36 2.15  16 2.36   3 2.36
  65  0.011  0.645  0.299-  28 2.25   7 2.26  18 2.26   8 2.36  17 2.36
  66  0.170  0.517  0.418-  25 2.05  18 2.09  19 2.12   7 2.13  56 2.74
  67  0.711  0.946  0.055-   6 2.06  26 2.14  20 2.21   5 2.22
  68  0.861  0.795  0.171-  27 2.25  17 2.26   8 2.26   6 2.36  20 2.36
  69  0.091  0.231  0.097-   9 2.06  29 2.23  12 2.24  21 2.24
  70  0.244  0.079  0.214-  30 2.25  22 2.26  10 2.26   9 2.36  21 2.36
  71  0.395  0.928  0.342-  11 2.03  31 2.25  23 2.26  10 2.36  22 2.36
  72  0.533  0.818  0.461-  24 2.06  11 2.12  32 2.12  23 2.13

  LATTYP: Found a base centered orthorhombic cell.
 ALAT       =    11.4527836704
 B/A-ratio  =     1.4485816945
 C/A-ratio  =     1.7908432109

  Lattice vectors:

 A1 = (  10.0797329849,   0.0000000000,   0.0000000000)
 A2 = (  -3.5732980427,  -9.4251025535,   0.0000000000)
 A3 = (   0.0000000000,   0.0000000000, -20.5101398818)

Analysis of symmetry for initial positions (statically):
 Subroutine PRICEL returns:
 Original cell was already a primitive cell.

 Routine SETGRP: Setting up the symmetry group for a
 base centered orthorhombic supercell.

 Subroutine GETGRP returns: Found  1 space group operations
 (whereof  1 operations were pure point group operations)
 out of a pool of  8 trial point group operations.

The static configuration has the point symmetry C_1 .

Analysis of symmetry for dynamics (positions and initial velocities):
 Subroutine PRICEL returns:
 Original cell was already a primitive cell.

 Routine SETGRP: Setting up the symmetry group for a
 base centered orthorhombic supercell.

 Subroutine GETGRP returns: Found  1 space group operations
 (whereof  1 operations were pure point group operations)
 out of a pool of  8 trial point group operations.

The dynamic configuration has the point symmetry C_1 .

 Subroutine INISYM returns: Found  1 space group operations
 (whereof  1 operations are pure point group operations),
 and found     1 'primitive' translations

 KPOINTS: gamma-point-only calculation. no periodi

Automatic generation of k-mesh.
Space group operators:
 irot       det(A)        alpha          n_x          n_y          n_z        tau_x        tau_y        tau_z
    1     1.000000     0.000000     1.000000     0.000000     0.000000     0.000000     0.000000     0.000000

 Subroutine IBZKPT returns following result:

 Found      1 irreducible k-points:

 Following reciprocal coordinates:
            Coordinates               Weight
  0.000000  0.000000  0.000000      1.000000

 Following cartesian coordinates:
            Coordinates               Weight
  0.000000  0.000000  0.000000      1.000000

 SYSTEM =  "Millerite NiS"
 POSCAR =  Type_036 Type_136

 Startparameter for this run:
   NWRITE =      2    write-flag & timer
   PREC   = normal    normal or accurate (medium, high low for compatibility)
   ISTART =      0    job   : 0-new  1-cont  2-samecut
   ICHARG =      2    charge: 1-file 2-atom 10-const
   ISPIN  =      1    spin polarized calculation?
   LNONCOLLINEAR =      F non collinear calculations
   LSORBIT =      F    spin-orbit coupling
   INIWAV =      1    electr: 0-lowe 1-rand  2-diag
   LASPH  =      F    aspherical Exc in radial PAW
   METAGGA=      F    non-selfconsistent MetaGGA calc.

 Electronic Relaxation 1
   ENCUT  =  450.0 eV  33.07 Ry    5.75 a.u.  17.43 17.43 35.48*2*pi/ulx,y,z
   ENINI  =  450.0     initial cutoff
   ENAUG  =  703.4 eV  augmentation charge cutoff
   NELM   =    100;   NELMIN=  2; NELMDL= -5     # of ELM steps
   EDIFF  = 0.1E-03   stopping-criterion for ELM
   LREAL  =      T    real-space projection
   NLSPLINE    = F    spline interpolate recip. space projectors
   LCOMPAT=      F    compatible to vasp.4.4
   GGA_COMPAT  = T    GGA compatible to vasp.4.4-vasp.4.6
   LMAXPAW     = -100 max onsite density
   LMAXMIX     =    2 max onsite mixed and CHGCAR
   VOSKOWN=      0    Vosko Wilk Nusair interpolation
   ROPT   =   -0.00050  -0.00050
 Ionic relaxation
   EDIFFG = 0.1E-02   stopping-criterion for IOM
   NSW    =      0    number of steps for IOM
   NBLOCK =      1;   KBLOCK =      1    inner block; outer block
   IBRION =     -1    ionic relax: 0-MD 1-quasi-New 2-CG
   NFREE  =      0    steps in history (QN), initial steepest desc. (CG)
   ISIF   =      2    stress and relaxation
   IWAVPR =     10    prediction:  0-non 1-charg 2-wave 3-comb
   ISYM   =      2    0-nonsym 1-usesym 2-fastsym
   LCORR  =      T    Harris-Foulkes like correction to forces

   POTIM  = 0.5000    time-step for ionic-motion
   TEIN   =    0.0    initial temperature
   TEBEG  =    0.0;   TEEND  =   0.0 temperature during run
   SMASS  =  -3.00    Nose mass-parameter (am)
   estimated Nose-frequenzy (Omega)   =  0.10E-29 period in steps =****** mass=  -0.232E-26a.u.
   SCALEE = 1.0000    scale energy and forces
   NPACO  =    256;   APACO  = 16.0  distance and # of slots for P.C.
   PSTRESS=    0.0 pullay stress

  Mass of Ions in am
   POMASS =  58.69 32.07
  Ionic Valenz
   ZVAL   =  16.00  6.00
  Atomic Wigner-Seitz radii
  virtual crystal weights
   VCA    =   1.00  1.00
   NELECT =     792.0000    total number of electrons
   NUPDOWN=      -1.0000    fix difference up-down

 DOS related values:
   EMIN   =  10.00;   EMAX   =-10.00  energy-range for DOS
   EFERMI =   0.00
   ISMEAR =     0;   SIGMA  =   0.20  broadening in eV -4-tet -1-fermi 0-gaus

 Electronic relaxation 2 (details)
   IALGO  =     38    algorithm
   LDIAG  =      T    sub-space diagonalisation (order eigenvalues)
   LSUBROT=      F    optimize rotation matrix (better conditioning)
   TURBO    =      0    0=normal 1=particle mesh
   IRESTART =      0    0=no restart 2=restart with 2 vectors
   NREBOOT  =      0    no. of reboots
   NMIN     =      0    reboot dimension
   EREF     =   0.00    reference energy to select bands
   IMIX   =      4    mixing-type and parameters
[...]
  Fock        0.00000     0.00000     0.00000     0.00000     0.00000     0.00000
  Total      66.54849    62.94807    91.40793     4.64871     1.51708    -1.04356
  in kB      54.71987    51.75941    75.16069     3.82243     1.24743    -0.85807

 VOLUME and BASIS-vectors are now :
  energy-cutoff  :      450.00
  volume of cell :     1948.51
      direct lattice vectors                 reciprocal lattice vectors
    10.079732985  0.000000000  0.000000000     0.099208977 -0.037612667  0.000000000
     3.573298043  9.425102554  0.000000000     0.000000000  0.106099641  0.000000000
     0.000000000  0.000000000 20.510139882     0.000000000  0.000000000  0.048756372

  length of vectors
    10.079732985 10.079732985 20.510139882     0.106099641  0.106099641  0.048756372

 FORCES acting on ions
    electron-ion (+dipol)            ewald-force                    non-local-force                 convergence-correction
   0.472E+03 -.520E+03 0.363E+04   -.475E+03 0.524E+03 -.363E+04   0.343E+01 -.324E+01 0.323E+01   -.143E-01 -.429E-01 0.123E+00
   0.446E+03 -.170E+03 0.300E+03   -.447E+03 0.170E+03 -.300E+03   0.103E+01 -.646E+00 0.248E+00   0.338E-01 -.293E-01 0.246E+00
   0.329E+03 -.784E+02 -.237E+04   -.330E+03 0.795E+02 0.237E+04   0.644E+00 -.541E+00 0.920E-01   0.595E-01 -.543E-01 0.153E+00
   -.240E+03 0.631E+03 -.522E+04   0.238E+03 -.630E+03 0.522E+04   0.329E+01 -.194E+01 -.114E+01   0.452E-01 -.830E-01 -.163E-01
   -.148E+03 -.110E+03 0.489E+04   0.149E+03 0.113E+03 -.490E+04   -.764E+00 -.294E+01 0.636E+01   0.231E-01 0.325E-01 0.802E-01
   0.105E+02 -.359E+02 0.235E+04   -.928E+01 0.343E+02 -.235E+04   -.521E+00 0.578E+00 -.175E+01   0.102E+00 -.519E-01 0.290E+00
   0.471E+03 -.413E+03 -.406E+04   -.474E+03 0.415E+03 0.406E+04   0.200E+01 -.162E+01 -.143E+01   -.964E-01 0.220E-01 0.787E-01
   0.318E+03 -.150E+03 -.748E+03   -.318E+03 0.151E+03 0.747E+03   0.109E+01 -.816E+00 0.713E+00   -.666E-01 0.483E-02 0.247E+00
   0.402E+03 0.233E+02 0.132E+04   -.402E+03 -.236E+02 -.131E+04   0.942E+00 0.309E+00 -.145E+01   -.165E-01 0.998E-02 0.280E+00
   0.546E+03 -.111E+03 -.185E+04   -.548E+03 0.112E+03 0.185E+04   0.120E+01 -.965E+00 0.135E+01   0.656E-01 0.386E-02 0.176E+00
   0.635E+03 -.456E+03 -.483E+04   -.633E+03 0.456E+03 0.483E+04   -.150E+01 0.144E+00 0.520E+00   0.963E-01 0.684E-01 -.557E-02
   0.352E+03 0.198E+03 0.438E+04   -.356E+03 -.198E+03 -.438E+04   0.437E+01 0.515E+00 0.346E+01   -.284E-01 -.716E-02 0.728E-01
   -.274E+03 0.477E+03 -.408E+04   0.274E+03 -.479E+03 0.408E+04   0.249E+00 0.152E+01 0.191E+01   -.372E-01 0.295E-01 0.112E+00
   -.245E+03 0.478E+03 0.526E+04   0.244E+03 -.476E+03 -.526E+04   0.119E+01 -.192E+01 0.147E+01   0.841E-01 -.634E-01 -.333E-01
   -.119E+03 0.597E+03 0.249E+04   0.119E+03 -.600E+03 -.249E+04   -.116E+00 0.280E+01 0.868E-01   0.469E-01 -.354E-02 0.189E+00
   -.587E+02 0.516E+03 -.569E+03   0.581E+02 -.516E+03 0.566E+03   0.663E+00 0.483E+00 0.191E+01   0.848E-02 0.123E-01 0.267E+00
   -.473E+02 0.363E+03 0.135E+04   0.471E+02 -.363E+03 -.135E+04   0.307E+00 -.117E+00 0.125E+01   -.717E-01 -.186E-01 0.244E+00
   0.407E+02 0.389E+03 -.158E+04   -.412E+02 -.390E+03 0.157E+04   0.107E+01 0.169E+01 0.313E+01   -.702E-01 -.726E-01 0.128E+00
   0.462E+03 0.547E+03 -.466E+04   -.463E+03 -.551E+03 0.466E+04   -.368E+00 0.331E+01 -.178E+01   -.465E-01 -.119E+00 0.942E-02
   -.701E+02 0.306E+03 0.458E+04   0.698E+02 -.310E+03 -.459E+04   -.447E+00 0.330E+01 0.453E+01   -.601E-03 -.239E-01 0.102E+00
   0.463E+03 0.492E+03 0.373E+04   -.466E+03 -.496E+03 -.373E+04   0.247E+01 0.341E+01 0.223E+01   -.875E-01 0.345E-01 0.209E+00
   0.913E+02 0.455E+03 0.335E+03   -.924E+02 -.456E+03 -.336E+03   0.863E+00 0.841E+00 0.329E+00   0.412E-01 0.683E-01 0.348E+00
   -.600E+02 0.214E+03 -.255E+04   0.599E+02 -.218E+03 0.254E+04   -.126E+00 0.369E+01 0.125E+01   0.109E+00 0.816E-01 0.117E+00
   -.521E+03 0.192E+02 -.523E+04   0.522E+03 -.203E+02 0.523E+04   -.822E+00 0.889E+00 0.236E+01   0.692E-01 0.437E-01 0.130E-01
   -.353E+03 0.396E+03 -.465E+04   0.355E+03 -.395E+03 0.465E+04   -.227E+01 -.191E+01 0.181E+01   -.323E-01 -.723E-02 0.200E-01
   -.267E+03 -.246E+03 0.439E+04   0.271E+03 0.249E+03 -.439E+04   -.348E+01 -.296E+01 0.350E+01   0.623E-01 -.842E-01 0.843E-01
   -.460E+03 -.220E+03 0.126E+04   0.460E+03 0.220E+03 -.126E+04   -.541E+00 -.171E+00 -.134E+01   0.579E-01 -.151E-01 0.251E+00
   -.438E+03 -.249E+03 -.154E+04   0.438E+03 0.250E+03 0.154E+04   -.617E+00 -.130E+01 0.106E+01   0.236E-01 0.632E-02 0.198E+00
   -.544E+03 -.427E+03 0.372E+04   0.547E+03 0.430E+03 -.372E+04   -.273E+01 -.291E+01 0.222E+01   0.119E-01 0.432E-01 0.165E+00
   -.443E+03 -.312E+03 0.366E+03   0.444E+03 0.313E+03 -.367E+03   -.619E+00 -.123E+01 0.716E+00   -.336E-01 0.366E-01 0.249E+00
   -.240E+03 -.562E+03 -.265E+04   0.242E+03 0.565E+03 0.265E+04   -.136E+01 -.251E+01 0.689E+00   -.308E-01 0.577E-01 0.779E-01
   0.781E+02 -.428E+03 -.511E+04   -.749E+02 0.431E+03 0.512E+04   -.326E+01 -.226E+01 -.353E+01   0.384E-01 0.725E-02 0.430E-01
   0.492E+02 -.471E+02 0.506E+04   -.449E+02 0.505E+02 -.507E+04   -.432E+01 -.426E+01 0.594E+01   -.541E-01 -.876E-02 -.110E-01
   -.303E+03 -.300E+03 0.223E+04   0.303E+03 0.301E+03 -.222E+04   -.233E+00 -.936E+00 -.176E+01   -.270E-01 0.454E-01 0.275E+00
   -.376E+03 -.275E+03 -.673E+03   0.377E+03 0.277E+03 0.672E+03   -.175E+00 -.162E+01 0.469E+00   -.442E-01 -.817E-01 0.307E+00
   -.541E+03 -.158E+03 -.388E+04   0.543E+03 0.160E+03 0.389E+04   -.148E+01 -.173E+01 -.127E+01   -.374E-02 -.370E-02 0.503E-01
   -.177E+03 0.145E+03 -.820E+03   0.178E+03 -.146E+03 0.820E+03   -.468E+00 0.859E+00 -.158E+01   0.108E-01 0.647E-03 0.681E-01
   -.188E+03 0.106E+03 0.173E+04   0.189E+03 -.107E+03 -.173E+04   -.332E+00 0.509E+00 0.277E+01   0.630E-02 -.185E-01 0.222E-01
   -.114E+03 0.745E+02 0.406E+03   0.116E+03 -.745E+02 -.407E+03   -.203E+01 0.191E+00 0.879E+00   0.796E-02 0.144E-01 0.934E-01
   -.152E+03 -.432E+02 0.124E+04   0.154E+03 0.420E+02 -.124E+04   -.131E+01 0.120E+01 0.122E+01   -.359E-01 0.127E-01 0.687E-01
   -.105E+03 -.216E+01 0.427E+02   0.107E+03 0.126E+01 -.442E+02   -.226E+01 0.875E+00 0.119E+01   -.167E-01 -.567E-02 0.767E-01
   -.468E+02 0.257E+02 -.993E+03   0.486E+02 -.255E+02 0.988E+03   -.528E+00 -.342E-01 0.949E+00   0.830E-02 -.474E-01 0.376E-02
   0.643E+02 0.154E+03 -.220E+04   -.639E+02 -.156E+03 0.220E+04   -.395E+00 0.103E+01 -.185E+01   0.136E-01 -.576E-01 0.278E-01
   -.155E+03 -.153E+03 0.223E+04   0.156E+03 0.154E+03 -.223E+04   -.427E+00 -.560E-01 0.951E-01   0.718E-02 0.143E-01 -.253E-01
   0.100E+03 0.561E+02 0.213E+04   -.101E+03 -.568E+02 -.213E+04   0.115E+01 0.846E+00 0.193E+01   -.415E-01 0.371E-01 -.247E-01
   -.715E+02 0.607E+02 0.630E+03   0.723E+02 -.620E+02 -.627E+03   -.121E+01 0.108E+01 -.539E+00   -.655E-02 -.101E-01 0.178E+00
   -.142E+03 0.667E+02 -.313E+03   0.144E+03 -.679E+02 0.310E+03   -.204E+01 0.578E+00 0.354E+00   -.131E-01 0.245E-01 0.108E+00
   -.357E+03 -.111E+03 -.164E+04   0.360E+03 0.111E+03 0.164E+04   0.240E-01 -.335E+00 -.798E+00   -.266E-01 0.259E-01 0.224E-01
   0.139E+03 -.164E+03 0.187E+04   -.140E+03 0.166E+03 -.188E+04   0.472E+00 -.116E+01 0.354E+01   -.646E-02 0.816E-02 -.150E-02
   0.101E+03 -.180E+03 0.572E+03   -.102E+03 0.181E+03 -.570E+03   0.456E-01 -.981E+00 0.104E-01   0.233E-01 0.151E-01 0.121E+00
   0.386E+01 -.175E+03 -.458E+03   -.397E+01 0.178E+03 0.459E+03   0.658E-01 -.243E+01 -.143E+01   0.345E-01 -.888E-03 0.862E-01
   -.142E+03 0.159E+02 -.173E+04   0.143E+03 -.150E+02 0.174E+04   -.118E+01 -.112E+01 -.211E+01   0.109E-01 -.400E-02 0.127E-01
   -.150E+03 -.177E+03 0.159E+04   0.151E+03 0.180E+03 -.159E+04   0.172E+00 -.147E+01 0.201E+01   0.591E-01 0.178E-01 0.560E-01
   -.252E+02 -.152E+03 0.281E+03   0.252E+02 0.154E+03 -.281E+03   0.147E+00 -.276E+01 0.106E+00   -.859E-02 -.932E-02 0.809E-01
   -.101E+02 -.138E+03 -.999E+03   0.972E+01 0.141E+03 0.100E+04   0.355E+00 -.335E+01 -.240E+01   -.267E-01 0.356E-01 0.653E-01
   0.185E+03 -.299E+03 -.209E+04   -.185E+03 0.301E+03 0.209E+04   -.242E+00 -.115E+01 -.154E+01   -.465E-01 0.275E-01 0.350E-01
   0.182E+02 -.144E+03 0.977E+03   -.174E+02 0.145E+03 -.973E+03   -.127E+00 -.679E+00 -.347E-01   -.127E-01 0.964E-02 0.743E-01
   0.333E+02 -.151E+03 -.134E+03   -.333E+02 0.154E+03 0.136E+03   -.116E+00 -.282E+01 -.149E+01   -.286E-02 -.350E-01 0.107E+00
   0.833E+02 -.141E+03 -.137E+04   -.835E+02 0.143E+03 0.137E+04   -.113E+00 -.133E+01 -.177E+01   0.195E-01 -.370E-01 0.610E-02
   0.124E+03 -.441E+02 0.203E+04   -.126E+03 0.461E+02 -.203E+04   0.136E+01 -.181E+01 0.408E+01   -.177E-01 -.766E-02 -.291E-01
   0.770E+02 -.112E+03 0.218E+04   -.770E+02 0.114E+03 -.218E+04   -.215E+00 -.159E+01 0.148E+01   0.238E-02 -.185E-01 -.638E-01
   0.158E+03 0.876E+02 0.104E+04   -.160E+03 -.893E+02 -.104E+04   0.222E+01 0.155E+01 0.144E+00   0.104E-01 -.192E-01 0.629E-01
   0.138E+03 0.849E+02 -.270E+02   -.140E+03 -.860E+02 0.272E+02   0.209E+01 0.118E+01 -.220E+00   -.148E-01 -.207E-01 0.993E-01
   0.496E+02 0.213E+03 -.133E+04   -.501E+02 -.214E+03 0.134E+04   -.661E+00 0.232E+01 -.846E+00   -.159E-01 -.249E-01 0.545E-01
   0.126E+03 0.386E+02 -.427E+03   -.129E+03 -.400E+02 0.427E+03   0.199E+01 0.156E+01 -.449E+00   -.270E-01 -.689E-02 0.650E-01
   0.126E+03 0.712E+02 -.177E+04   -.129E+03 -.734E+02 0.177E+04   0.100E+01 0.100E+01 -.611E+00   -.286E-01 -.258E-01 0.243E-01
   0.669E+02 0.408E+02 0.203E+04   -.690E+02 -.409E+02 -.204E+04   0.158E+01 -.655E+00 0.198E+01   0.286E-01 -.428E-01 -.869E-02
   0.964E+02 0.579E+02 0.705E+03   -.981E+02 -.591E+02 -.706E+03   0.209E+01 0.109E+01 0.110E+01   0.872E-02 -.612E-02 0.994E-01
   0.168E+03 0.128E+03 0.167E+04   -.169E+03 -.128E+03 -.167E+04   0.786E-01 -.270E+00 0.860E+00   -.309E-01 0.137E-02 0.312E-01
   0.183E+03 0.847E+02 0.351E+03   -.185E+03 -.860E+02 -.351E+03   0.225E+01 0.867E+00 0.705E+00   0.214E-01 0.151E-01 0.127E+00
   0.244E+03 0.379E+02 -.800E+03   -.247E+03 -.395E+02 0.799E+03   0.213E+01 0.137E+01 -.611E+00   0.388E-01 0.493E-01 0.328E-01
   0.129E+03 -.174E+03 -.203E+04   -.129E+03 0.174E+03 0.203E+04   -.303E-01 -.764E-01 -.148E+01   0.662E-01 0.345E-01 0.124E-01
   -.475E+01 0.214E+02 -.499E+02   -.455E-12 0.171E-12 0.455E-11   0.460E+01 -.210E+02 0.430E+02   0.215E+00 -.216E+00 0.691E+01

 POSITION                                       TOTAL-FORCE (eV/Angst)
      6.45801      7.08167      1.95077        -0.375177      0.936645      2.026733
      7.43572      5.66537      4.57627         0.129272     -0.055634      0.154177
      8.41343      4.24907      7.20177        -0.381634      0.474110     -1.250718
      8.49719      3.49106      9.40536         0.938117     -0.938598      0.483183
      6.26110      1.55742      1.50056         0.676871      0.243805     -1.053084
      7.76163      0.32617      2.82594         0.784745     -1.002899      2.933987
      3.21062      6.91868      8.07694        -0.804616      0.749259     -0.819422
     12.31264      8.33497      5.45144         0.294633     -0.119680     -0.022971
      2.55881      2.99577      3.70110         0.466836      0.057213      1.572722
      3.53652      1.57947      6.32660         0.004496     -0.225874      0.157469
      4.53673      0.23070      8.63626        -0.221681      0.547359      1.290968
     11.61139      4.39381      1.76089        -0.331201     -0.338332     -1.246604
     10.43933      1.17682      7.94212         0.532579     -0.521431      0.815170
      7.78790      5.32309      1.01889         0.439671     -0.670690     -1.276777
      8.63813      3.92359      3.18892        -0.250372     -0.003480      0.508553
      9.61584      2.50729      5.81443        -0.024669      0.097611     -0.295093
      3.43531      6.59319      4.06409        -0.000340      0.208648      0.288054
      4.41302      5.17689      6.68959         0.497914      0.354744     -1.292344
      5.36971      3.84630      8.99299        -0.953027     -0.791561      0.399620
     12.53733      8.00949      1.43859        -0.752028     -1.410617      1.658835
      3.76121      1.25399      2.31376        -0.586418     -0.016377      0.426890
      8.31222      9.26279      4.93926        -0.155893     -0.088465     -0.097662
      9.28993      7.84650      7.56476        -0.192500      0.220094     -2.608719
     10.03252      6.60765      9.45762         0.459715     -0.168674      1.114052
      1.85084      3.74753      8.55481         0.355651     -0.366551      1.087836
      9.10619      7.45575      1.69854         0.310369     -0.415428     -0.970837
      9.84053      6.03956      3.88260        -0.170762      0.058786      0.058714
     10.81824      4.62327      6.50810        -0.076883      0.189147     -0.394039
     10.16643      0.70036      2.13226         0.373311      1.009692      2.492900
      4.63771      8.70917      4.75776        -0.113202     -0.129171     -0.001892
      5.61542      7.29287      7.38327         0.569261      0.098589     -1.832627
      6.78432      6.21644      9.56601        -0.008218      1.224177      0.529409
      4.32801      4.92006      0.90178        -0.136184     -0.832897     -0.939247
      4.96362      3.36996      3.00743         0.123423      0.168137      1.447931
      5.94133      1.95367      5.63293         0.273594     -0.070579      0.038204
      6.92676      0.64892      7.97605         0.524142      0.302707      1.264078
      1.57981      2.47018      7.00134         1.112631     -0.072931     -1.400909
      9.70412      5.30277      1.75033         0.671641      0.046335     -0.383359
     10.68183      3.88647      4.37584        -0.304993      0.267957      0.375161
      4.50130      7.97237      2.62550         0.091045      0.066828      0.145039
      5.47901      6.55607      5.25100         0.231255     -0.027925     -0.268770
      6.45673      5.13978      7.87651         1.302658      0.162821     -3.301618
      6.88408      4.28555     10.33869         0.048401     -0.776249      3.176813
     13.37635      9.42227      0.32467         0.795979      0.785076     -4.318740
      4.62233      2.76709      1.06299         0.155183      0.135663     -3.333348
      5.80492      1.21687      3.50067        -0.434024     -0.190999      1.830473
     10.35593      9.22568      6.12617        -0.310891     -0.538433     -2.388316
     11.18149      8.04173      8.51882         2.064992     -0.307634      1.471746
      7.49485      8.80297      1.34504        -0.292315      0.831292     -1.868115
      8.17302      7.52069      3.51693        -0.864626     -0.327252      2.587826
      9.15074      6.10439      6.14243        -0.016457     -0.136940     -0.302459
     10.12845      4.68809      8.76794        -0.527823     -0.155411      0.453190
      8.37156      2.12790      2.02184         0.816425      1.632969     -1.613938
      9.47664      0.76519      4.39210         0.124375     -0.104056      0.295456
      3.94792      8.77399      7.01760        -0.059284     -0.401397     -0.677133
      4.92205      7.14962      9.28562        -0.736985      1.682716      3.261449
      3.29611      4.85108      2.64176         0.666589      0.725712      3.241181
      4.27382      3.43479      5.26727        -0.089374      0.002177     -0.084361
      5.25153      2.01849      7.89277        -0.274344      0.620306     -0.315082
      2.51071      6.01987      0.66036        -0.451355      0.108750     -1.497137
      5.97537      5.99221      0.28573        -0.164694      0.121054     -3.379575
      6.64193      4.82628      2.63363        -0.331353     -0.183946      2.117075
      7.61964      3.40999      5.25914         0.035710      0.120401      0.084050
      8.59735      1.99369      7.88464        -1.127277      0.426868      0.560187
      2.41682      6.07959      6.13430        -0.248933      0.157993     -0.343905
      3.56468      4.87455      8.57397        -1.400237     -1.259138      1.778049
     10.54798      8.91996      1.11840        -0.564010     -0.858684     -2.749112
     11.51884      7.49589      3.50880         0.380434     -0.195606      0.451827
      1.74852      2.18139      1.99367        -1.352411     -0.645336     -1.951093
      2.74272      0.74039      4.38397         0.202898     -0.366434      0.668505
      7.29374      8.74919      7.00947        -0.716663     -0.192225     -1.481325
      8.29098      7.70881      9.44599        -0.651961      0.071893      2.512818
    total drift:                                0.069461      0.143660      0.008690

  FREE ENERGIE OF THE ION-ELECTRON SYSTEM (eV)
  free  energy   TOTEN  =      -354.98211951 eV

  energy  without entropy=     -354.11435683  energy(sigma->0) =     -354.54823817