 vasp.5.4.4.18Apr17-6-g9f103f2a35 (build Aug 13 2019 17:33:20) gamma-only

 executed on             LinuxIFC date 2020.05.11  22:44:40

 INCAR:
 POTCAR:    PAW_PBE Ni_pv 06Sep2000
 POTCAR:    PAW_PBE S 06Sep2000
 POTCAR:    PAW_PBE Ni_pv 06Sep2000
   VRHFIN =Ni:

   TITEL  = PAW_PBE Ni_pv 06Sep2000
   POMASS =   58.690; ZVAL   =   16.000    mass and valenz
   ENMAX  =  367.986; ENMIN  =  275.989 eV

 POTCAR:    PAW_PBE S 06Sep2000
   VRHFIN =S : s2p4

   TITEL  = PAW_PBE S 06Sep2000
   POMASS =   32.066; ZVAL   =    6.000    mass and valenz
   ENMAX  =  258.689; ENMIN  =  194.016 eV

 Optimization of the real space projectors (new method)

 maximal supplied QI-value         = 18.90
 optimisation between [QCUT,QGAM] = [ 10.77, 21.73] = [ 32.49,132.25] Ry
 Optimized for a Real-space Cutoff    1.38 Angstroem

   l    n(q)    QCUT    max X(q) W(low)/X(q) W(high)/X(q)  e(spline)
   1      8    10.771     2.836    0.40E-04    0.29E-04    0.12E-06
   1      8    10.771     4.023    0.10E-03    0.48E-04    0.29E-06
   2      8    10.771    73.368    0.42E-03    0.97E-04    0.44E-06
   2      8    10.771    69.010    0.42E-03    0.99E-04    0.45E-06
   0      9    10.771    54.797    0.10E-03    0.56E-04    0.74E-07
   0      9    10.771    24.266    0.89E-04    0.49E-04    0.67E-07
 Optimization of the real space projectors (new method)

 maximal supplied QI-value         = 19.84
 optimisation between [QCUT,QGAM] = [ 10.71, 21.63] = [ 32.15,130.99] Ry
 Optimized for a Real-space Cutoff    1.19 Angstroem

   l    n(q)    QCUT    max X(q) W(low)/X(q) W(high)/X(q)  e(spline)
   0      8    10.715   187.594    0.41E-03    0.53E-04    0.66E-07
   0      8    10.715   164.243    0.41E-03    0.53E-04    0.65E-07
   1      7    10.715    67.533    0.19E-03    0.59E-03    0.68E-07
   1      7    10.715    50.729    0.19E-03    0.58E-03    0.67E-07
  PAW_PBE Ni_pv 06Sep2000               :
  PAW_PBE S 06Sep2000                   :

 POSCAR: Type_037 Type_137
  positions in cartesian coordinates
 exchange correlation table for  LEXCH =        8
   RHO(1)=    0.500       N(1)  =     2000
   RHO(2)=  100.500       N(2)  =     4000

 ion  position               nearest neighbor table
   1  0.780  0.145  0.118-  65 2.08  51 2.08  42 2.25  52 2.36  66 2.36
   2  0.799  0.145  0.279-  66 2.04  52 2.04  43 2.06
   3  0.213  0.626  0.093-  44 2.03  45 2.11  63 2.23  53 2.24   4 2.42  15 2.44
   4  0.297  0.645  0.211-  53 2.13  64 2.14  54 2.14  45 2.25  63 2.26   3 2.42  28 2.53  16 2.53

   5  0.387  0.132  0.125-  47 2.04  48 2.11  69 2.24   6 2.39  55 2.42  18 2.48
   6  0.470  0.145  0.242-  70 2.10  56 2.10  48 2.25  55 2.26  69 2.26   5 2.39  31 2.53  19 2.53

[...]

  38  0.994  0.145  0.349-  10 2.03  27 2.06  14 2.06
  39  0.991  0.145  0.178-  27 2.08  14 2.08  26 2.19  13 2.19   9 2.25
  40  0.469  0.648  0.091-  11 2.00  15 2.01  28 2.14  16 2.17
  41  0.509  0.645  0.271-  17 2.07  29 2.07  11 2.17  12 2.25  28 2.36  16 2.36
  42  0.647  0.145  0.116-  18 2.03  30 2.11   1 2.25  19 2.26  31 2.26  43 2.75
  43  0.677  0.144  0.279-   2 2.06  19 2.11  31 2.12  42 2.75
  44  0.110  0.646  0.031-   3 2.03  32 2.06  20 2.06
  45  0.164  0.645  0.209-  21 2.09  33 2.09   3 2.11   4 2.25  32 2.36  20 2.36
  46  0.077  0.645  0.378-  33 2.05   8 2.05  21 2.05
  47  0.284  0.145  0.062-   5 2.04  34 2.06  22 2.06
  48  0.336  0.145  0.240-  35 2.04  23 2.04   5 2.11   6 2.25  34 2.36  22 2.36
  49  0.819  0.645  0.147-  36 2.20   7 2.25  25 2.26  37 2.26  24 2.46  50 2.73
  50  0.850  0.645  0.309-   8 2.10  37 2.11  25 2.11  49 2.73
  51  0.818  0.291  0.033-  24 2.03  26 2.06   1 2.08
  52  0.829  0.314  0.210-   2 2.04  26 2.10  24 2.14  27 2.17  25 2.25   1 2.36
  53  0.292  0.808  0.123-  15 2.04   4 2.13  22 2.15   3 2.24  28 2.49
  54  0.351  0.794  0.291-  23 2.04  29 2.05  28 2.14   4 2.14
  55  0.484  0.314  0.147-  18 2.04  16 2.25   6 2.26  31 2.26   5 2.42  30 2.49
  56  0.525  0.289  0.320-  17 2.00  31 2.08   6 2.10  70 2.72
  57  0.001  0.814  0.241-  33 2.06   8 2.06  14 2.18  32 2.36   7 2.36  58 2.76
  58  0.967  0.821  0.078-   7 2.07  32 2.09  13 2.10  57 2.76
  59  0.141  0.323  0.108-  34 2.09   9 2.10  20 2.11  60 2.78
  60  0.174  0.314  0.272-  35 2.04  10 2.11  21 2.15   9 2.36  34 2.36  59 2.78
  61  0.657  0.814  0.179-  11 2.25  19 2.25  37 2.26  12 2.26  36 2.31
  62  0.695  0.792  0.343-  37 2.02  12 2.03  72 2.76
  63  0.312  0.477  0.116-  15 2.05   3 2.23  34 2.25   4 2.26  16 2.26
  64  0.350  0.495  0.290-  35 2.04  17 2.05   4 2.14  16 2.15
  65  0.817  0.996  0.035-  36 2.02  13 2.06   1 2.08
  66  0.829  0.977  0.210-   2 2.04  13 2.10  36 2.14  14 2.17  37 2.25   1 2.36
  67  0.001  0.477  0.241-   8 2.06  21 2.06  27 2.18  20 2.36   7 2.36  68 2.76
  68  0.968  0.469  0.078-   7 2.07  20 2.09  26 2.10  67 2.76
  69  0.484  0.977  0.147-  18 2.03   5 2.24  28 2.25   6 2.26  19 2.26
  70  0.527  0.005  0.320-  29 2.00  19 2.06   6 2.10  56 2.72
  71  0.657  0.477  0.179-  30 2.08  24 2.16  11 2.17  31 2.25  25 2.26  12 2.26
  72  0.697  0.504  0.345-  25 2.02  12 2.03  62 2.76
  73  0.139  0.970  0.108-   9 2.08  32 2.11  22 2.11  74 2.78
  74  0.174  0.977  0.272-  23 2.04  10 2.11  33 2.15   9 2.36  22 2.36  73 2.78

  LATTYP: Found a simple orthorhombic cell.
 ALAT       =     9.5784100000
 B/A-ratio  =     1.7276387782
 C/A-ratio  =     1.7627867312

  Lattice vectors:

 A1 = (   0.0000000000,   9.5784100000,   0.0000000000)
 A2 = (   0.0000000000,   0.0000000000, -16.5480325497)
 A3 = ( -16.8846940542,   0.0000000000,   0.0000000000)

Analysis of symmetry for initial positions (statically):
 Subroutine PRICEL returns:
 Original cell was already a primitive cell.

 Routine SETGRP: Setting up the symmetry group for a
 simple orthorhombic supercell.

 Subroutine GETGRP returns: Found  1 space group operations
 (whereof  1 operations were pure point group operations)
 out of a pool of  8 trial point group operations.

The static configuration has the point symmetry C_1 .

Analysis of symmetry for dynamics (positions and initial velocities):
 Subroutine PRICEL returns:
 Original cell was already a primitive cell.

 Routine SETGRP: Setting up the symmetry group for a
 simple orthorhombic supercell.

 Subroutine GETGRP returns: Found  1 space group operations
 (whereof  1 operations were pure point group operations)
 out of a pool of  8 trial point group operations.

The dynamic configuration has the point symmetry C_1 .

 Subroutine INISYM returns: Found  1 space group operations
 (whereof  1 operations are pure point group operations),
 and found     1 'primitive' translations

 KPOINTS: gamma-point-only calculation. no periodi

Automatic generation of k-mesh.
Space group operators:
 irot       det(A)        alpha          n_x          n_y          n_z        tau_x        tau_y        tau_z
    1     1.000000     0.000001     1.000000     0.000000     0.000000     0.000000     0.000000     0.000000

 Subroutine IBZKPT returns following result:

 Found      1 irreducible k-points:

 Following reciprocal coordinates:
            Coordinates               Weight
  0.000000  0.000000  0.000000      1.000000

 Following cartesian coordinates:
            Coordinates               Weight
  0.000000  0.000000  0.000000      1.000000

 SYSTEM =  "Millerite NiS"
 POSCAR =  Type_037 Type_137

 Startparameter for this run:
   NWRITE =      2    write-flag & timer
   PREC   = normal    normal or accurate (medium, high low for compatibility)
   ISTART =      0    job   : 0-new  1-cont  2-samecut
   ICHARG =      2    charge: 1-file 2-atom 10-const
   ISPIN  =      1    spin polarized calculation?
   LNONCOLLINEAR =      F non collinear calculations
   LSORBIT =      F    spin-orbit coupling
   INIWAV =      1    electr: 0-lowe 1-rand  2-diag
   LASPH  =      F    aspherical Exc in radial PAW
   METAGGA=      F    non-selfconsistent MetaGGA calc.

 Electronic Relaxation 1
   ENCUT  =  450.0 eV  33.07 Ry    5.75 a.u.  29.20 16.57 28.62*2*pi/ulx,y,z
   ENINI  =  450.0     initial cutoff
   ENAUG  =  703.4 eV  augmentation charge cutoff
   NELM   =    100;   NELMIN=  2; NELMDL= -5     # of ELM steps
   EDIFF  = 0.1E-03   stopping-criterion for ELM
   LREAL  =      T    real-space projection
   NLSPLINE    = F    spline interpolate recip. space projectors
   LCOMPAT=      F    compatible to vasp.4.4
   GGA_COMPAT  = T    GGA compatible to vasp.4.4-vasp.4.6
   LMAXPAW     = -100 max onsite density
   LMAXMIX     =    2 max onsite mixed and CHGCAR
   VOSKOWN=      0    Vosko Wilk Nusair interpolation
   ROPT   =   -0.00050  -0.00050
 Ionic relaxation
   EDIFFG = 0.1E-02   stopping-criterion for IOM
   NSW    =      0    number of steps for IOM
   NBLOCK =      1;   KBLOCK =      1    inner block; outer block
   IBRION =     -1    ionic relax: 0-MD 1-quasi-New 2-CG
   NFREE  =      0    steps in history (QN), initial steepest desc. (CG)
   ISIF   =      2    stress and relaxation
   IWAVPR =     10    prediction:  0-non 1-charg 2-wave 3-comb
   ISYM   =      2    0-nonsym 1-usesym 2-fastsym
   LCORR  =      T    Harris-Foulkes like correction to forces

   POTIM  = 0.5000    time-step for ionic-motion
   TEIN   =    0.0    initial temperature
   TEBEG  =    0.0;   TEEND  =   0.0 temperature during run
   SMASS  =  -3.00    Nose mass-parameter (am)
   estimated Nose-frequenzy (Omega)   =  0.10E-29 period in steps =****** mass=  -0.652E-26a.u.
   SCALEE = 1.0000    scale energy and forces
   NPACO  =    256;   APACO  = 16.0  distance and # of slots for P.C.
   PSTRESS=    0.0 pullay stress

  Mass of Ions in am
   POMASS =  58.69 32.07
  Ionic Valenz
   ZVAL   =  16.00  6.00
  Atomic Wigner-Seitz radii
  virtual crystal weights
   VCA    =   1.00  1.00
   NELECT =     814.0000    total number of electrons
   NUPDOWN=      -1.0000    fix difference up-down

 DOS related values:
   EMIN   =  10.00;   EMAX   =-10.00  energy-range for DOS
   EFERMI =   0.00
   ISMEAR =     0;   SIGMA  =   0.20  broadening in eV -4-tet -1-fermi 0-gaus

 Electronic relaxation 2 (details)
   IALGO  =     38    algorithm
   LDIAG  =      T    sub-space diagonalisation (order eigenvalues)
   LSUBROT=      F    optimize rotation matrix (better conditioning)
   TURBO    =      0    0=normal 1=particle mesh
   IRESTART =      0    0=no restart 2=restart with 2 vectors
   NREBOOT  =      0    no. of reboots
   NMIN     =      0    reboot dimension
   EREF     =   0.00    reference energy to select bands
   IMIX   =      4    mixing-type and parameters
     AMIX     =   0.40;   BMIX     =  1.00
     AMIX_MAG =   1.60;   BMIX_MAG =  1.00
     AMIN     =   0.10
     WC   =   100.;   INIMIX=   1;  MIXPRE=   1;  MAXMIX= -45

 Intra band minimization:
   WEIMIN = 0.0000     energy-eigenvalue tresh-hold
   EBREAK =  0.51E-07  absolut break condition
   DEPER  =   0.30     relativ break condition

   TIME   =   0.40     timestep for ELM

  volume/ion in A,a.u.               =      36.17       244.06
  Fermi-wavevector in a.u.,A,eV,Ry     =   1.100961  2.080515 16.491830  1.212115
  Thomas-Fermi vector in A             =   2.237381

 Write flags
   LWAVE        =      F    write WAVECAR
[...]
     0.000000000  9.578410000  0.000000000     0.000000000  0.104401461  0.000000000
     0.000000000  0.000000000 16.548032550     0.000000000  0.000000000  0.060430145

  length of vectors
    16.884694054  9.578410000 16.548032550     0.059225237  0.104401461  0.060430145

 FORCES acting on ions
    electron-ion (+dipol)            ewald-force                    non-local-force                 convergence-correction
   0.550E+03 0.211E+03 0.212E+04   -.553E+03 -.212E+03 -.213E+04   0.326E+01 0.208E+00 0.542E+01   -.892E-01 -.126E+00 0.155E+00
   0.377E+03 0.403E+02 -.295E+04   -.381E+03 -.400E+02 0.295E+04   0.357E+01 -.227E+00 0.161E+01   -.213E-01 -.496E-01 0.171E+00
   0.468E+02 0.898E+02 0.308E+04   -.473E+02 -.903E+02 -.308E+04   0.112E+01 0.466E+00 0.811E+01   0.247E+00 0.247E-01 0.187E-01
   0.374E+03 -.163E+01 -.100E+04   -.377E+03 0.945E+00 0.101E+04   0.133E+01 0.281E+00 -.477E+01   0.176E+00 0.137E+00 0.149E+00
   0.242E+01 0.616E+02 0.256E+04   -.257E+01 -.621E+02 -.257E+04   0.846E+00 0.804E+00 0.818E+01   0.782E-01 -.748E-01 0.171E+00
   0.230E+03 0.437E+02 -.171E+04   -.233E+03 -.437E+02 0.172E+04   0.272E+01 0.303E+00 -.598E+01   0.303E-02 -.128E+00 0.232E+00
   0.657E+03 0.641E+01 0.145E+04   -.663E+03 -.638E+01 -.145E+04   0.515E+01 -.902E-01 0.433E+01   -.150E+00 0.372E-01 0.237E+00
   0.651E+03 -.249E+01 -.320E+04   -.656E+03 0.250E+01 0.320E+04   0.344E+01 -.799E-01 -.387E+01   -.597E-01 0.474E-01 0.472E+00
   0.485E+03 0.229E+01 0.967E+03   -.489E+03 -.197E+01 -.969E+03   0.397E+01 -.116E+00 0.269E+01   -.301E-01 -.798E-01 0.185E+00
   0.333E+02 0.364E+01 -.345E+04   -.369E+02 -.358E+01 0.345E+04   0.461E+01 0.796E-01 -.744E-02   0.769E-01 -.128E+00 0.106E+00
   -.321E+03 -.287E+03 0.191E+04   0.324E+03 0.288E+03 -.191E+04   -.216E+01 -.109E+01 0.402E+01   -.504E-01 0.979E-01 0.175E+00
   0.161E+03 -.978E+02 -.228E+04   -.164E+03 0.983E+02 0.229E+04   0.243E+01 -.252E+00 -.683E+01   -.763E-01 0.420E-01 0.127E+00
   -.511E+03 0.224E+03 0.253E+04   0.517E+03 -.226E+03 -.254E+04   -.516E+01 0.265E+01 0.571E+01   -.833E-01 0.948E-01 0.142E+00
   0.609E+02 0.461E+03 -.222E+04   -.592E+02 -.464E+03 0.222E+04   -.256E+01 0.218E+01 -.407E+01   -.104E+00 0.160E-01 0.257E+00
   -.353E+03 -.118E+03 0.406E+04   0.353E+03 0.119E+03 -.406E+04   -.839E-01 -.286E+00 0.410E+01   0.116E+00 0.253E-01 0.454E-01
   -.226E+03 0.514E+03 0.594E+03   0.227E+03 -.517E+03 -.595E+03   -.531E-01 0.337E+01 0.658E+00   -.253E-01 0.724E-01 0.142E+00
   -.178E+03 0.116E+03 -.363E+04   0.180E+03 -.120E+03 0.362E+04   -.232E+01 0.419E+01 0.210E+01   0.231E-01 -.668E-02 0.656E-01
   0.150E+02 0.431E+03 0.362E+04   -.157E+02 -.431E+03 -.363E+04   0.472E+00 0.731E+00 0.588E+01   -.819E-01 -.119E+00 0.206E+00
   -.483E+03 0.628E+03 -.591E+03   0.486E+03 -.634E+03 0.593E+03   -.257E+01 0.559E+01 -.302E+01   -.696E-01 -.295E-01 0.225E+00
   0.913E+02 0.655E+03 0.213E+04   -.917E+02 -.660E+03 -.213E+04   0.127E+00 0.522E+01 0.385E+01   0.288E+00 -.173E+00 0.992E-01
   -.293E+03 0.417E+03 -.265E+04   0.296E+03 -.423E+03 0.265E+04   -.163E+01 0.437E+01 -.361E+01   0.123E-01 0.443E-01 0.294E+00
   0.418E+02 0.392E+03 0.152E+04   -.431E+02 -.394E+03 -.153E+04   0.103E+01 0.138E+01 0.357E+01   0.224E+00 -.132E+00 0.290E+00
   -.747E+02 0.123E+03 -.316E+04   0.753E+02 -.127E+03 0.316E+04   -.635E+00 0.408E+01 0.206E+01   0.155E+00 -.930E-01 0.239E+00
   0.672E+02 -.595E+03 0.252E+04   -.696E+02 0.597E+03 -.253E+04   0.197E+01 -.942E+00 0.787E+01   -.832E-01 0.216E-01 0.763E-01
   -.256E+03 0.261E+03 -.168E+04   0.259E+03 -.264E+03 0.169E+04   -.201E+01 0.259E+01 -.601E+01   -.465E-01 0.344E-01 0.198E+00
   -.536E+03 -.243E+03 0.252E+04   0.541E+03 0.245E+03 -.252E+04   -.488E+01 -.268E+01 0.580E+01   -.159E-01 -.148E+00 0.132E+00
   0.534E+02 -.457E+03 -.222E+04   -.514E+02 0.460E+03 0.223E+04   -.281E+01 -.201E+01 -.414E+01   -.106E+00 -.839E-01 0.256E+00
   -.319E+03 -.588E+03 0.641E+03   0.319E+03 0.592E+03 -.642E+03   -.228E+00 -.364E+01 0.154E+00   -.476E-01 0.451E-01 0.252E+00
   -.220E+03 -.140E+03 -.355E+04   0.223E+03 0.144E+03 0.355E+04   -.247E+01 -.456E+01 0.187E+01   -.117E+00 0.109E+00 0.219E-01
   0.450E+02 -.509E+03 0.354E+04   -.429E+02 0.507E+03 -.354E+04   -.211E+01 0.252E+01 -.699E+00   -.223E-01 0.334E-02 0.618E-01
   -.379E+03 -.287E+03 -.111E+04   0.382E+03 0.291E+03 0.111E+04   -.255E+01 -.422E+01 -.480E+01   -.636E-01 -.120E+00 0.321E+00
   0.153E+02 -.661E+03 0.214E+04   -.154E+02 0.667E+03 -.215E+04   -.114E+00 -.525E+01 0.405E+01   0.288E+00 0.195E+00 0.141E+00
   -.297E+03 -.423E+03 -.264E+04   0.300E+03 0.428E+03 0.264E+04   -.139E+01 -.473E+01 -.404E+01   0.112E+00 0.115E+00 0.316E+00
   -.981E+01 -.388E+03 0.151E+04   0.860E+01 0.391E+03 -.152E+04   0.152E+01 -.253E+01 0.404E+01   0.178E+00 0.343E-02 0.416E-01
   -.755E+02 -.113E+03 -.317E+04   0.760E+02 0.117E+03 0.317E+04   -.475E+00 -.402E+01 0.232E+01   0.136E+00 -.143E+00 0.168E+00
   0.508E+03 0.429E+03 0.265E+04   -.510E+03 -.431E+03 -.266E+04   0.171E+01 0.200E+01 0.781E+01   -.204E+00 0.345E-01 0.643E-01
   -.143E+03 -.354E+03 -.165E+04   0.145E+03 0.356E+03 0.165E+04   -.149E+01 -.286E+01 -.536E+01   -.266E-01 0.660E-01 0.100E+00
   0.109E+03 0.175E+01 -.161E+04   -.108E+03 -.172E+01 0.161E+04   -.112E+01 -.158E-01 -.164E+01   -.616E-01 -.196E-01 0.505E-01
   -.255E+03 0.187E+01 0.409E+03   0.257E+03 -.208E+01 -.412E+03   0.409E-01 0.194E+00 0.532E+00   -.329E-01 -.194E-01 0.105E+00
   -.295E+03 -.531E+02 0.143E+04   0.297E+03 0.528E+02 -.143E+04   -.793E+00 0.110E+00 0.221E+01   -.673E-01 0.253E-01 -.198E-01
   -.158E+03 -.260E+02 -.848E+03   0.158E+03 0.260E+02 0.853E+03   0.114E+01 -.331E-01 -.403E+01   -.390E-01 0.451E-01 0.820E-01
   -.190E+03 0.288E+03 0.960E+03   0.192E+03 -.291E+03 -.964E+03   -.363E+00 0.221E+01 0.189E+01   0.165E-01 -.804E-01 0.776E-01
   -.826E+02 0.351E+02 -.112E+04   0.837E+02 -.350E+02 0.112E+04   -.443E+00 0.617E-01 -.213E+01   -.125E-01 -.256E-01 0.613E-01
   0.864E+02 -.254E+02 0.178E+04   -.867E+02 0.255E+02 -.179E+04   0.355E+00 -.241E-03 0.181E+01   0.771E-01 0.138E-02 -.110E+00
   -.130E+03 -.182E+02 -.230E+03   0.130E+03 0.182E+02 0.233E+03   0.707E+00 -.178E+00 -.294E+01   0.593E-01 0.380E-01 0.117E+00
   -.703E+02 -.195E+00 -.177E+04   0.707E+02 0.168E+00 0.177E+04   0.204E+00 -.224E-01 -.827E+00   0.399E-02 0.314E-01 0.681E-01
   0.631E+02 -.844E+01 0.168E+04   -.638E+02 0.852E+01 -.169E+04   0.108E+01 -.230E-01 0.195E+01   0.663E-01 -.154E-01 -.441E-01
   -.108E+03 -.104E+02 -.558E+03   0.109E+03 0.106E+02 0.563E+03   0.220E+00 -.702E-02 -.442E+01   0.534E-01 -.134E+00 0.978E-01
   -.507E+01 0.329E+02 0.748E+03   0.616E+01 -.332E+02 -.752E+03   -.592E+00 -.114E+00 0.216E+01   -.170E+00 0.441E-01 0.549E-01
   -.257E+02 -.422E+01 -.126E+04   0.276E+02 0.430E+01 0.126E+04   -.100E+01 -.114E+00 -.241E+01   -.637E-02 0.162E-01 0.104E+00
   -.816E+01 -.997E+02 0.175E+04   0.841E+01 0.101E+03 -.176E+04   -.427E+00 -.469E-01 0.276E+01   -.330E-01 -.223E-01 -.874E-01
   0.524E+02 -.157E+03 -.350E+03   -.523E+02 0.157E+03 0.353E+03   -.672E+00 0.755E+00 -.188E+01   -.295E-01 -.547E-01 0.138E+00
   0.351E+02 -.317E+03 0.885E+03   -.361E+02 0.318E+03 -.888E+03   0.932E+00 -.427E+00 0.122E+01   0.852E-01 -.923E-02 0.480E-01
   0.158E+03 0.417E+02 -.114E+04   -.159E+03 -.409E+02 0.115E+04   -.294E+00 -.282E+00 -.253E+01   0.200E-01 0.101E+00 0.731E-01
   0.146E+03 -.245E+03 0.665E+03   -.148E+03 0.248E+03 -.666E+03   0.111E+01 -.117E+01 0.305E+00   -.539E-01 -.204E-02 0.858E-01
   -.153E+03 0.545E+02 -.145E+04   0.154E+03 -.534E+02 0.145E+04   -.670E+00 -.906E+00 -.251E+01   -.679E-02 -.356E-01 0.616E-01
   0.154E+03 -.189E+03 -.415E+03   -.155E+03 0.192E+03 0.415E+03   -.867E-01 -.103E+01 -.631E+00   0.320E-01 0.971E-01 0.211E+00
   0.813E+02 -.693E+02 0.138E+04   -.829E+02 0.687E+02 -.139E+04   0.126E+01 0.114E+01 0.424E+01   -.190E-01 0.143E+00 -.823E-01
   0.117E+03 0.598E+02 0.117E+04   -.118E+03 -.610E+02 -.118E+04   0.240E+00 0.100E+01 0.380E+01   0.208E-01 0.338E-02 -.183E-01
   0.535E+02 -.119E+03 -.783E+03   -.540E+02 0.120E+03 0.785E+03   -.185E+00 -.130E+01 -.817E+00   -.112E-01 0.762E-02 0.888E-01
   0.757E+02 -.108E+03 0.444E+03   -.777E+02 0.110E+03 -.447E+03   0.160E+01 -.145E+01 0.180E+01   0.265E-03 0.398E-01 0.551E-01
   0.142E+02 -.255E+03 -.155E+04   -.150E+02 0.259E+03 0.155E+04   0.361E+00 -.249E+01 -.914E+00   -.225E-01 0.970E-02 0.191E-01
   -.144E+02 0.345E+03 0.972E+03   0.146E+02 -.348E+03 -.975E+03   -.995E+00 0.153E+01 0.281E+01   0.693E-01 0.437E-01 0.731E-02
   0.167E+03 -.404E+02 -.113E+04   -.168E+03 0.398E+02 0.114E+04   -.160E-01 0.696E-01 -.254E+01   0.700E-01 0.632E-01 0.414E-01
   0.883E+02 0.117E+03 0.173E+04   -.883E+02 -.118E+03 -.174E+04   -.334E+00 0.459E+00 0.267E+01   -.661E-01 -.221E-01 -.535E-01
   0.110E+03 0.153E+03 -.332E+03   -.110E+03 -.153E+03 0.336E+03   -.552E+00 -.786E+00 -.222E+01   -.470E-01 0.200E-01 0.110E+00
   0.157E+03 0.188E+03 -.416E+03   -.158E+03 -.190E+03 0.416E+03   0.357E-01 0.765E+00 -.553E+00   0.168E-01 -.764E-01 0.196E+00
   0.907E+02 0.677E+02 0.138E+04   -.925E+02 -.671E+02 -.138E+04   0.123E+01 -.122E+01 0.426E+01   -.928E-04 -.132E+00 -.888E-01
   -.496E+02 0.330E+03 0.727E+03   0.494E+02 -.333E+03 -.730E+03   -.103E+01 0.140E+01 0.232E+01   -.202E-01 -.248E-01 0.901E-01
   -.168E+03 -.364E+02 -.143E+04   0.169E+03 0.352E+02 0.143E+04   -.711E+00 0.101E+01 -.214E+01   -.350E-01 -.136E-01 0.387E-01
   -.772E+01 -.989E+02 0.205E+03   0.594E+01 0.972E+02 -.206E+03   0.974E+00 0.106E+01 -.157E+00   0.383E-02 0.273E-01 0.112E+00
   0.321E+01 0.231E+03 -.159E+04   -.421E+01 -.235E+03 0.159E+04   0.530E+00 0.252E+01 -.660E+00   -.231E-01 -.778E-03 0.388E-01
   0.111E+03 -.398E+02 0.118E+04   -.112E+03 0.407E+02 -.118E+04   0.554E+00 -.792E+00 0.363E+01   0.340E-01 -.587E-02 0.884E-02
   0.540E+02 0.121E+03 -.784E+03   -.547E+02 -.122E+03 0.785E+03   -.120E+00 0.131E+01 -.748E+00   0.110E+00 -.593E-01 0.130E+00
   -.421E+01 -.632E+01 -.508E+02   0.810E-12 -.189E-11 0.784E-11   0.374E+01 0.663E+01 0.427E+02   0.522E+00 -.363E+00 0.822E+01

 POSITION                                       TOTAL-FORCE (eV/Angst)
     13.17084      1.39171      1.94975         0.184320     -0.246131      0.883983
     13.49801      1.39112      4.61729         0.064230      0.011806      0.812061
      3.60291      5.99896      1.53887         0.825213      0.014840     -0.456286
      5.02033      6.18092      3.49202        -0.538234     -0.262562      0.587650
      6.54180      1.26363      2.06074         0.774628      0.175348     -0.144581
      7.93172      1.39171      4.00611        -0.557417      0.092256     -0.888982
     16.08224      6.18092      2.46384        -0.385127     -0.022354      2.168128
     16.44949      6.18071      5.17783        -1.778443     -0.023166      0.465898
      2.10894      1.39171      2.97793        -0.712485      0.124080      0.471605
      1.86889      1.39172      5.33541         1.017984      0.016827      0.972149
      9.61847      6.12881      2.57757         0.793421      0.222574     -0.346333
     10.84312      6.18092      4.52020        -0.814948      0.205046     -1.130749
     15.37167      0.04414      1.89747         0.950023      0.620503      0.058993
     15.93549      0.11983      4.38998        -0.912794     -0.895504      0.069396
      5.97538      6.27938      1.05728        -0.098663      0.420000     -1.651226
      7.17375      4.91558      3.08454         0.415753     -0.350102     -0.791736
      7.84040      4.48042      5.39979         0.004870      0.483296      0.847734
      8.94224      1.38451      1.45516        -0.311475     -0.085594     -2.008989
     10.08514      0.12638      3.59863         0.729016     -0.531398     -1.621029
      1.35096      4.91558      2.05636         0.083840     -0.401200      1.535953
      1.88903      4.84867      4.80993         1.327877     -1.147724      0.458113
      4.26235      0.12638      2.57045        -0.011973     -0.703153      1.029924
      4.91710      9.37574      5.00171         0.089881      0.091979      0.844413
     12.88647      3.97259      1.91315        -0.472608      1.193939      0.066398
     12.99653      4.91558      4.11272         1.125457      0.013766     -1.497484
     15.37326      2.73641      1.90049         0.948295     -0.564452      0.013889
     15.93766      2.66214      4.39206        -0.950315      0.972718      0.010601
      7.17375      7.44626      3.08454         0.090162      0.449404     -1.050543
      7.87009      7.91288      5.36893         0.003372     -0.606216      0.929183
     10.40366      3.37011      1.39209        -0.055978      0.473217     -0.992531
     10.08514      2.65705      3.59863         0.445789      0.077395     -0.113472
      1.35096      7.44626      2.05636         0.117094      0.445469      1.694546
      1.88739      7.51239      4.81280         1.336674      1.197602      0.426318
      4.26235      2.65705      2.57045         0.487123      0.759728      1.235159
      4.90826      2.97062      5.01869         0.139397     -0.034511      0.783673
     13.10595      8.18841      1.90878        -0.878032     -0.709144      0.315498
     12.99653      7.44626      4.11272         0.664614     -0.013444     -1.327460
     16.77800      1.38975      5.78245        -0.178690     -0.004896      3.159862
     16.74052      1.39171      2.94940         1.849000     -0.031086     -2.366197
      7.92706      6.20994      1.51238         1.354692     -0.154031     -3.109922
      8.59001      6.18092      4.49167         1.290507     -0.054791      1.220793
     10.91773      1.39171      1.92122         1.591528     -0.489457     -1.670188
     11.43526      1.37611      4.62163         0.731900      0.098308      2.534064
      1.85463      6.18316      0.51500         0.095020      0.069762     -3.724115
      2.76722      6.18092      3.46349         0.996121     -0.103166      0.144435
      1.30667      6.17922      6.25394         0.538571     -0.016632      4.194133
      4.78963      1.39350      1.03382         0.488841      0.039068     -3.949620
      5.67861      1.39171      3.97758         1.166482      0.053842      1.104357
     13.82913      6.18092      2.43531         0.328785     -0.404128     -1.552136
     14.35396      6.18187      5.11350         0.900831     -0.023019      2.550286
     13.81351      2.79122      0.55225        -0.204306      0.821354     -3.718495
     13.99844      3.00295      3.46826        -0.676166      1.275786      1.789487
      4.93401      7.73638      2.03516        -0.024116      1.261963     -1.126429
      5.92331      7.60831      4.81146        -1.176628      0.619082      1.830872
      8.17565      3.00295      2.44008        -0.939763      1.412403     -0.499636
      8.87202      2.76681      5.28710         0.312422      0.142568      2.709679
      0.02514      7.79215      3.98236        -1.167212      1.609677     -0.588644
     16.33588      7.86509      1.28349        -0.420443      0.698680     -2.838654
      2.37591      3.09485      1.77981        -0.763790     -0.172347     -2.625920
      2.93654      3.00295      4.49645        -0.742552      0.252432      0.901888
     11.08705      7.79215      2.95417        -0.388739      0.819118     -1.018019
     11.73480      7.58764      5.67976        -0.488737      1.191617      3.757737
      5.26426      4.56969      1.92599        -0.705863     -1.747670     -0.604723
      5.90162      4.74192      4.80394        -1.170959     -0.435544      1.880915
     13.78908      9.53771      0.57680        -0.353181     -0.711211     -3.908414
     13.99844      9.35889      3.46826        -0.749026     -1.314750      1.669622
      0.02514      4.56969      3.98236        -1.123794     -1.556554     -0.576368
     16.33888      4.49328      1.28647        -0.574492     -0.756991     -2.826873
      8.17565      9.35889      2.44008        -1.217782     -1.723636     -0.039972
      8.90477      0.04466      5.28841         0.041021     -0.190543      2.824911
     11.08705      4.56969      2.95417        -0.805403     -0.565758     -0.352137
     11.77001      4.82456      5.71149        -0.497005     -1.205459      3.832829
      2.34543      9.28702      1.78183        -0.761255      0.051553     -2.706036
      2.93654      9.35889      4.49645        -0.696361     -0.220679      1.036763
    total drift:                                0.044683     -0.059950      0.067088

  FREE ENERGIE OF THE ION-ELECTRON SYSTEM (eV)
  free  energy   TOTEN  =      -353.59746756 eV

  energy  without entropy=     -352.51522366  energy(sigma->0) =     -353.05634561