 vasp.5.4.4.18Apr17-6-g9f103f2a35 (build Aug 13 2019 17:33:20) gamma-only

 executed on             LinuxIFC date 2020.05.11  11:52:20

 INCAR:
 POTCAR:    PAW_PBE Ni_pv 06Sep2000
 POTCAR:    PAW_PBE S 06Sep2000
 POTCAR:    PAW_PBE Ni_pv 06Sep2000
   VRHFIN =Ni:

   TITEL  = PAW_PBE Ni_pv 06Sep2000
   POMASS =   58.690; ZVAL   =   16.000    mass and valenz
   ENMAX  =  367.986; ENMIN  =  275.989 eV

 POTCAR:    PAW_PBE S 06Sep2000
   VRHFIN =S : s2p4

   TITEL  = PAW_PBE S 06Sep2000
   POMASS =   32.066; ZVAL   =    6.000    mass and valenz
   ENMAX  =  258.689; ENMIN  =  194.016 eV

 Optimization of the real space projectors (new method)

 maximal supplied QI-value         = 18.90
 optimisation between [QCUT,QGAM] = [ 10.77, 21.73] = [ 32.49,132.25] Ry
 Optimized for a Real-space Cutoff    1.38 Angstroem

   l    n(q)    QCUT    max X(q) W(low)/X(q) W(high)/X(q)  e(spline)
   1      8    10.771     2.836    0.40E-04    0.29E-04    0.12E-06
   1      8    10.771     4.023    0.10E-03    0.48E-04    0.29E-06
   2      8    10.771    73.368    0.42E-03    0.97E-04    0.44E-06
   2      8    10.771    69.010    0.42E-03    0.99E-04    0.45E-06
   0      9    10.771    54.797    0.10E-03    0.56E-04    0.74E-07
   0      9    10.771    24.266    0.89E-04    0.49E-04    0.67E-07
 Optimization of the real space projectors (new method)

 maximal supplied QI-value         = 19.84
 optimisation between [QCUT,QGAM] = [ 10.71, 21.63] = [ 32.15,130.99] Ry
 Optimized for a Real-space Cutoff    1.19 Angstroem

   l    n(q)    QCUT    max X(q) W(low)/X(q) W(high)/X(q)  e(spline)
   0      8    10.715   187.594    0.41E-03    0.53E-04    0.66E-07
   0      8    10.715   164.243    0.41E-03    0.53E-04    0.65E-07
   1      7    10.715    67.533    0.19E-03    0.59E-03    0.68E-07
   1      7    10.715    50.729    0.19E-03    0.58E-03    0.67E-07
  PAW_PBE Ni_pv 06Sep2000               :
  PAW_PBE S 06Sep2000                   :

 POSCAR: Type_048 Type_148
  positions in cartesian coordinates
 exchange correlation table for  LEXCH =        8
   RHO(1)=    0.500       N(1)  =     2000
   RHO(2)=  100.500       N(2)  =     4000

 ion  position               nearest neighbor table
   1  0.261  0.479  0.295-  73 2.25  58 2.26  80 2.26  59 2.36  54 2.36   7 2.53  20 2.53
   2  0.355  0.385  0.426-  60 2.12  74 2.25  54 2.26  59 2.26  65 2.36   3 2.41   8 2.53  21 2.53

   3  0.489  0.209  0.492-  60 1.99  65 2.16  62 2.16  22 2.27   2 2.41   8 2.45
   4  0.167  0.073  0.165-  55 2.11  81 2.24  64 2.25  56 2.36  82 2.36  30 2.48  37 2.53  31 2.53

[...]

  49  0.073  0.167  0.311-  25 2.25  10 2.26  19 2.26   9 2.36  18 2.36
  50  0.155  0.069  0.432-  14 2.08   5 2.13  19 2.15  26 2.28  10 2.32
  51  0.348  0.391  0.062-   6 1.99  11 1.99
  52  0.479  0.261  0.181-  15 2.25   7 2.26  20 2.26  11 2.36   6 2.36
  53  0.008  0.411  0.468-  14 2.05  13 2.11  29 2.13  10 2.22  66 2.67
  54  0.436  0.472  0.355-  33 2.25   2 2.26  21 2.26   1 2.36  20 2.36
  55  0.257  0.157  0.108-  30 2.06   4 2.11  37 2.12   6 2.14
  56  0.342  0.066  0.225-   7 2.25  25 2.26  46 2.26   4 2.36  37 2.36
  57  0.083  0.480  0.113-  28 2.06   6 2.08  23 2.10  58 2.73
  58  0.174  0.397  0.225-   9 2.25   1 2.26   7 2.26   6 2.36  28 2.36  57 2.73
  59  0.268  0.303  0.355-  10 2.25   8 2.26   2 2.26   7 2.36   1 2.36  60 2.49
  60  0.314  0.232  0.461-   3 1.99   2 2.12   8 2.17  59 2.49
  61  0.573  0.167  0.311-  38 2.25  21 2.26   8 2.26  20 2.36   7 2.36
  62  0.649  0.086  0.434-  22 2.06   8 2.13   3 2.16  21 2.18  39 2.42
  63  0.885  0.356  0.062-  16 2.01  23 2.06  17 2.07
  64  0.979  0.261  0.181-   4 2.25  18 2.26   9 2.26  23 2.36  17 2.36
  65  0.530  0.378  0.486-  41 1.96  22 2.09   3 2.16  21 2.36   2 2.36
  66  0.936  0.472  0.355-  45 2.25  13 2.26  10 2.26  12 2.36   9 2.36  53 2.67
  67  0.767  0.155  0.099-  42 2.07  48 2.12  24 2.15  17 2.17  15 2.29
  68  0.842  0.066  0.225-  18 2.25  38 2.26  34 2.26  15 2.36  48 2.36
  69  0.583  0.482  0.107-  16 2.06  17 2.12  40 2.12  11 2.14
  70  0.674  0.397  0.225-  20 2.25  12 2.26  18 2.26  17 2.36  40 2.36
  71  0.768  0.303  0.355-  21 2.25  19 2.26  13 2.26  18 2.36  12 2.36
  72  0.862  0.209  0.486-  22 1.96  14 2.06   5 2.14  19 2.36  13 2.36
  73  0.073  0.667  0.311-   1 2.25  35 2.26  45 2.26  34 2.36  44 2.36
  74  0.167  0.573  0.442-  36 2.01  29 2.02   2 2.25  35 2.36  45 2.36
  75  0.384  0.855  0.062-  30 2.01  31 2.05  37 2.06
  76  0.479  0.761  0.181-  40 2.25  32 2.26  46 2.26  37 2.36  31 2.36
  77  0.014  0.837  0.481-  36 2.02   5 2.03  39 2.05  35 2.20  96 2.78
  78  0.436  0.972  0.355-   8 2.25  26 2.26  47 2.26  25 2.36  46 2.36  89 2.49
  79  0.260  0.657  0.113-  28 2.07  11 2.08  31 2.09  80 2.72
  80  0.342  0.566  0.225-  32 2.25   1 2.26  20 2.26  28 2.36  11 2.36  79 2.72
  81  0.078  0.985  0.100-  30 2.05  48 2.15  24 2.15  31 2.21   4 2.24
  82  0.174  0.897  0.225-  34 2.25  25 2.26  32 2.26  31 2.36   4 2.36
  83  0.268  0.803  0.355-  35 2.25  33 2.26  26 2.26  32 2.36  25 2.36
  84  0.362  0.709  0.486-  36 2.04  41 2.08  27 2.14  33 2.36  26 2.36
  85  0.573  0.667  0.311-  12 2.25  47 2.26  33 2.26  46 2.36  32 2.36
  86  0.654  0.592  0.434-  41 2.06  47 2.12  27 2.16  33 2.19  13 2.43
  87  0.888  0.867  0.056-  42 2.02  48 2.06  24 2.11  43 2.24
  88  0.979  0.761  0.181-  28 2.25  44 2.26  34 2.26  48 2.36  43 2.36
  89  0.506  0.925  0.461-  27 1.99  26 2.11  47 2.18  78 2.49
  90  0.936  0.972  0.355-  19 2.25  39 2.26  35 2.26  38 2.36  34 2.36
  91  0.759  0.656  0.108-  16 2.06  23 2.11  40 2.12  43 2.14
  92  0.842  0.566  0.225-  44 2.25  12 2.26   9 2.26  40 2.36  23 2.36
  93  0.583  0.981  0.109-  42 2.06  43 2.10  15 2.11  37 2.13
  94  0.674  0.897  0.225-  46 2.25  38 2.26  44 2.26  43 2.36  15 2.36
  95  0.768  0.803  0.355-  47 2.25  45 2.26  39 2.26  44 2.36  38 2.36  96 2.66
  96  0.842  0.724  0.466-  29 2.01  39 2.09  45 2.10  95 2.66  77 2.78

  LATTYP: Found a base centered orthorhombic cell.
 ALAT       =    11.8257374459
 B/A-ratio  =     1.6199260857
 C/A-ratio  =     1.9043172636

  Lattice vectors:

 A1 = (  11.2564630382,   0.0000000000,   0.0000000000)
 A2 = (  -5.0445621212, -10.0628203371,   0.0000000000)
 A3 = (   0.0000000000,   0.0000000000, -22.5199559732)

Analysis of symmetry for initial positions (statically):
 Subroutine PRICEL returns:
 Original cell was already a primitive cell.

 Routine SETGRP: Setting up the symmetry group for a
 base centered orthorhombic supercell.

 Subroutine GETGRP returns: Found  1 space group operations
 (whereof  1 operations were pure point group operations)
 out of a pool of  8 trial point group operations.

The static configuration has the point symmetry C_1 .

Analysis of symmetry for dynamics (positions and initial velocities):
 Subroutine PRICEL returns:
 Original cell was already a primitive cell.

 Routine SETGRP: Setting up the symmetry group for a
 base centered orthorhombic supercell.

 Subroutine GETGRP returns: Found  1 space group operations
 (whereof  1 operations were pure point group operations)
 out of a pool of  8 trial point group operations.

The dynamic configuration has the point symmetry C_1 .

 Subroutine INISYM returns: Found  1 space group operations
 (whereof  1 operations are pure point group operations),
 and found     1 'primitive' translations

 KPOINTS: gamma-point-only calculation. no periodi

Automatic generation of k-mesh.
Space group operators:
 irot       det(A)        alpha          n_x          n_y          n_z        tau_x        tau_y        tau_z
    1     1.000000     0.000000     1.000000     0.000000     0.000000     0.000000     0.000000     0.000000

 Subroutine IBZKPT returns following result:

 Found      1 irreducible k-points:

 Following reciprocal coordinates:
            Coordinates               Weight
  0.000000  0.000000  0.000000      1.000000

 Following cartesian coordinates:
            Coordinates               Weight
  0.000000  0.000000  0.000000      1.000000

 SYSTEM =  "Millerite NiS"
 POSCAR =  Type_048 Type_148

 Startparameter for this run:
   NWRITE =      2    write-flag & timer
   PREC   = normal    normal or accurate (medium, high low for compatibility)
   ISTART =      0    job   : 0-new  1-cont  2-samecut
   ICHARG =      2    charge: 1-file 2-atom 10-const
   ISPIN  =      1    spin polarized calculation?
   LNONCOLLINEAR =      F non collinear calculations
   LSORBIT =      F    spin-orbit coupling
   INIWAV =      1    electr: 0-lowe 1-rand  2-diag
   LASPH  =      F    aspherical Exc in radial PAW
   METAGGA=      F    non-selfconsistent MetaGGA calc.

 Electronic Relaxation 1
   ENCUT  =  450.0 eV  33.07 Ry    5.75 a.u.  19.47 19.47 38.95*2*pi/ulx,y,z
   ENINI  =  450.0     initial cutoff
   ENAUG  =  703.4 eV  augmentation charge cutoff
   NELM   =    100;   NELMIN=  2; NELMDL= -5     # of ELM steps
   EDIFF  = 0.1E-03   stopping-criterion for ELM
   LREAL  =      T    real-space projection
   NLSPLINE    = F    spline interpolate recip. space projectors
   LCOMPAT=      F    compatible to vasp.4.4
   GGA_COMPAT  = T    GGA compatible to vasp.4.4-vasp.4.6
   LMAXPAW     = -100 max onsite density
   LMAXMIX     =    2 max onsite mixed and CHGCAR
   VOSKOWN=      0    Vosko Wilk Nusair interpolation
   ROPT   =   -0.00050  -0.00050
 Ionic relaxation
   EDIFFG = 0.1E-02   stopping-criterion for IOM
   NSW    =      0    number of steps for IOM
   NBLOCK =      1;   KBLOCK =      1    inner block; outer block
   IBRION =     -1    ionic relax: 0-MD 1-quasi-New 2-CG
   NFREE  =      0    steps in history (QN), initial steepest desc. (CG)
   ISIF   =      2    stress and relaxation
   IWAVPR =     10    prediction:  0-non 1-charg 2-wave 3-comb
   ISYM   =      2    0-nonsym 1-usesym 2-fastsym
   LCORR  =      T    Harris-Foulkes like correction to forces

   POTIM  = 0.5000    time-step for ionic-motion
   TEIN   =    0.0    initial temperature
   TEBEG  =    0.0;   TEEND  =   0.0 temperature during run
   SMASS  =  -3.00    Nose mass-parameter (am)
   estimated Nose-frequenzy (Omega)   =  0.10E-29 period in steps =****** mass=  -0.290E-26a.u.
   SCALEE = 1.0000    scale energy and forces
   NPACO  =    256;   APACO  = 16.0  distance and # of slots for P.C.
   PSTRESS=    0.0 pullay stress

  Mass of Ions in am
   POMASS =  58.69 32.07
  Ionic Valenz
   ZVAL   =  16.00  6.00
  Atomic Wigner-Seitz radii
  virtual crystal weights
   VCA    =   1.00  1.00
   NELECT =    1056.0000    total number of electrons
   NUPDOWN=      -1.0000    fix difference up-down

 DOS related values:
   EMIN   =  10.00;   EMAX   =-10.00  energy-range for DOS
   EFERMI =   0.00
   ISMEAR =     0;   SIGMA  =   0.20  broadening in eV -4-tet -1-fermi 0-gaus

 Electronic relaxation 2 (details)
   IALGO  =     38    algorithm
   LDIAG  =      T    sub-space diagonalisation (order eigenvalues)
   LSUBROT=      F    optimize rotation matrix (better conditioning)
   TURBO    =      0    0=normal 1=particle mesh
   IRESTART =      0    0=no restart 2=restart with 2 vectors
   NREBOOT  =      0    no. of reboots
   NMIN     =      0    reboot dimension
[...]
     0.000000000  0.000000000 22.519955973     0.000000000  0.000000000  0.044405060

  length of vectors
    11.256463038 11.256463038 22.519955973     0.099375718  0.099375718  0.044405060

 FORCES acting on ions
    electron-ion (+dipol)            ewald-force                    non-local-force                 convergence-correction
   0.265E+03 -.393E+03 -.276E+03   -.266E+03 0.395E+03 0.277E+03   0.622E+00 -.140E+01 0.866E-01   0.887E-01 -.101E+00 -.554E+00
   0.421E+03 -.573E+03 -.372E+04   -.421E+03 0.577E+03 0.372E+04   -.367E+00 -.256E+01 -.113E+01   0.111E+00 -.129E+00 -.378E+00
   0.554E+03 0.434E+03 -.603E+04   -.554E+03 -.436E+03 0.603E+04   0.102E+01 0.875E+00 -.297E+01   -.115E-01 -.346E-01 -.240E-01
   0.230E+03 -.530E+03 0.274E+04   -.232E+03 0.534E+03 -.274E+04   0.188E+01 -.271E+01 -.182E+01   0.199E+00 -.584E-01 0.719E-01
   -.499E+02 0.401E+03 -.539E+04   0.503E+02 -.403E+03 0.540E+04   -.221E+00 0.204E+01 -.439E+00   0.702E-01 0.180E+00 -.192E+00
   0.194E+03 0.319E+03 0.438E+04   -.195E+03 -.322E+03 -.438E+04   0.545E+00 0.227E+01 0.444E+01   -.472E-01 0.708E-02 0.126E+00
   0.252E+03 0.418E+03 0.845E+03   -.253E+03 -.419E+03 -.846E+03   0.466E+00 0.473E+00 0.137E+01   0.487E-01 0.464E-02 -.345E+00
   0.390E+03 0.628E+03 -.244E+04   -.392E+03 -.630E+03 0.244E+04   0.122E+01 0.247E+01 0.125E+01   0.604E-02 -.211E-01 -.491E+00
   -.561E+03 -.499E+02 0.816E+03   0.562E+03 0.503E+02 -.816E+03   -.799E+00 -.503E+00 0.116E+01   -.471E-01 0.227E-01 -.316E+00
   -.716E+03 -.481E+02 -.246E+04   0.718E+03 0.485E+02 0.246E+04   -.204E+01 -.489E-02 0.187E+01   -.374E-01 -.660E-01 -.588E+00
   -.374E+03 -.396E+02 0.438E+04   0.378E+03 0.390E+02 -.438E+04   -.224E+01 0.571E+00 0.433E+01   -.702E-01 0.521E-01 0.138E+00
   0.222E+03 -.429E+03 -.339E+03   -.222E+03 0.430E+03 0.339E+03   0.645E+00 -.104E+01 0.252E+00   0.459E-02 0.107E-01 -.464E+00
   0.334E+03 -.705E+03 -.381E+04   -.337E+03 0.706E+03 0.381E+04   0.157E+01 -.395E+00 0.665E+00   -.106E+00 -.463E-01 -.477E+00
   -.601E+03 -.674E+02 -.602E+04   0.603E+03 0.668E+02 0.603E+04   -.189E+01 0.470E+00 -.381E+01   -.217E-01 -.170E-01 -.108E+00
   0.427E+03 -.601E+03 0.273E+04   -.428E+03 0.605E+03 -.272E+04   0.146E+01 -.290E+01 -.138E+01   -.186E+00 -.499E-01 0.221E+00
   0.249E+03 -.476E+03 0.618E+04   -.249E+03 0.477E+03 -.619E+04   -.391E+00 0.571E+00 0.626E+01   0.267E-02 0.137E+00 0.282E+00
   0.336E+03 0.479E+03 0.395E+04   -.338E+03 -.483E+03 -.395E+04   0.127E+01 0.233E+01 0.126E+01   0.489E-01 0.364E+00 0.178E+00
   0.232E+03 0.414E+03 0.788E+03   -.232E+03 -.414E+03 -.789E+03   0.751E+00 0.586E+00 0.121E+01   0.476E-01 0.119E+00 -.224E+00
   0.279E+03 0.288E+03 -.216E+04   -.283E+03 -.290E+03 0.216E+04   0.297E+01 0.190E+01 0.258E+01   -.269E-02 0.106E+00 -.569E+00
   -.462E+03 -.385E+02 0.864E+03   0.463E+03 0.387E+02 -.865E+03   -.773E+00 -.155E+00 0.104E+01   -.374E-01 -.119E-01 -.287E+00
   -.494E+03 -.901E+02 -.226E+04   0.497E+03 0.918E+02 0.225E+04   -.342E+01 -.125E+01 0.228E+01   0.170E-01 0.240E-01 -.512E+00
   -.322E+03 0.328E+03 -.569E+04   0.321E+03 -.327E+03 0.569E+04   0.113E+01 -.778E+00 -.969E+00   -.740E-01 0.849E-01 -.429E-01
   -.874E+03 -.322E+02 0.411E+04   0.881E+03 0.315E+02 -.411E+04   -.519E+01 0.230E+00 0.149E+01   -.999E-01 0.118E+00 0.887E-01
   -.499E+03 -.177E+03 0.610E+04   0.499E+03 0.177E+03 -.610E+04   0.777E+00 0.719E+00 -.745E+00   0.710E-01 -.446E-01 0.322E+00
   0.197E+03 -.394E+03 -.337E+03   -.197E+03 0.395E+03 0.337E+03   0.825E+00 -.932E+00 0.601E+00   0.864E-01 -.707E-01 -.490E+00
   0.317E+03 -.690E+03 -.383E+04   -.320E+03 0.691E+03 0.383E+04   0.179E+01 -.296E+00 -.810E+00   0.871E-01 -.208E-01 -.418E+00
   -.607E+03 -.365E+03 -.602E+04   0.609E+03 0.365E+03 0.603E+04   -.172E+01 -.578E+00 -.285E+01   0.328E-01 -.316E-01 -.506E-01
   0.266E+03 -.390E+03 0.330E+04   -.268E+03 0.395E+03 -.330E+04   0.250E+01 -.398E+01 0.181E+01   -.341E-02 -.971E-01 0.945E-02
   0.293E+03 0.288E+03 -.583E+04   -.296E+03 -.288E+03 0.583E+04   0.255E+01 -.910E+00 -.415E+00   -.784E-01 -.143E+00 -.177E-01
   -.662E+02 -.379E+03 0.612E+04   0.672E+02 0.380E+03 -.613E+04   -.203E+01 0.608E+00 0.557E+01   0.359E+00 -.878E-01 0.309E+00
   0.274E+03 0.810E+03 0.407E+04   -.277E+03 -.816E+03 -.407E+04   0.180E+01 0.493E+01 0.654E+00   0.210E+00 -.486E-01 0.144E+00
   0.245E+03 0.477E+03 0.835E+03   -.246E+03 -.478E+03 -.836E+03   0.892E+00 0.367E+00 0.110E+01   0.112E+00 0.574E-01 -.346E+00
   0.306E+03 0.398E+03 -.227E+04   -.310E+03 -.400E+03 0.226E+04   0.263E+01 0.258E+01 0.233E+01   0.792E-01 -.308E-01 -.531E+00
   -.505E+03 0.577E+02 0.797E+03   0.506E+03 -.572E+02 -.798E+03   -.887E+00 -.450E+00 0.108E+01   -.649E-01 -.454E-01 -.271E+00
   -.463E+03 0.528E+02 -.237E+04   0.465E+03 -.522E+02 0.236E+04   -.249E+01 -.943E+00 0.290E+01   0.128E+00 0.410E-01 -.693E+00
   -.194E+03 0.847E+02 -.577E+04   0.196E+03 -.869E+02 0.577E+04   -.226E+01 0.228E+01 0.114E+01   0.246E+00 -.285E-01 0.934E-02
   -.740E+03 0.299E+02 0.406E+04   0.744E+03 -.305E+02 -.406E+04   -.287E+01 0.389E+00 0.145E+01   -.700E-01 -.707E-01 0.100E+00
   0.288E+03 -.358E+03 -.365E+03   -.288E+03 0.359E+03 0.365E+03   0.528E+00 -.120E+01 0.280E+00   -.518E-01 -.433E-01 -.481E+00
   0.556E+03 -.411E+03 -.392E+04   -.558E+03 0.414E+03 0.392E+04   0.153E+01 -.142E+01 -.407E+00   -.123E+00 0.159E+00 -.514E+00
   0.351E+03 -.558E+03 0.280E+04   -.353E+03 0.562E+03 -.280E+04   0.182E+01 -.295E+01 -.117E+01   0.385E-01 0.408E-01 -.668E-01
   -.146E+03 0.430E+03 -.564E+04   0.146E+03 -.430E+03 0.564E+04   0.218E+00 -.581E+00 -.103E+01   0.707E-01 0.173E-01 -.597E-01
   0.850E+03 -.365E+03 0.601E+04   -.853E+03 0.365E+03 -.602E+04   0.260E+01 0.744E+00 0.553E+01   -.586E+00 -.761E-01 0.372E+00
   0.299E+03 0.814E+03 0.405E+04   -.300E+03 -.817E+03 -.405E+04   0.101E+01 0.267E+01 0.466E+00   -.192E+00 -.162E+00 0.259E+00
   0.238E+03 0.491E+03 0.797E+03   -.239E+03 -.492E+03 -.798E+03   0.682E+00 0.576E+00 0.908E+00   -.558E-01 0.418E-01 -.366E+00
   0.316E+03 0.420E+03 -.239E+04   -.316E+03 -.422E+03 0.239E+04   0.120E+01 0.239E+01 0.218E+01   -.106E+00 -.337E-01 -.774E+00
   -.520E+03 -.108E+02 0.789E+03   0.521E+03 0.114E+02 -.790E+03   -.632E+00 -.527E+00 0.131E+01   -.855E-01 -.394E-01 -.331E+00
   -.745E+03 -.829E+02 -.248E+04   0.749E+03 0.837E+02 0.247E+04   -.352E+01 -.111E+00 0.110E+01   -.424E-01 -.121E-01 -.540E+00
   -.561E+03 0.340E+03 0.346E+04   0.563E+03 -.342E+03 -.345E+04   -.163E+01 0.141E+01 -.334E+01   -.157E+00 -.256E+00 0.709E+00
   -.978E+02 0.108E+03 -.797E+02   0.988E+02 -.110E+03 0.782E+02   -.980E+00 0.202E+01 0.130E+01   0.153E-01 0.267E-02 -.176E+00
   -.344E+03 0.188E+03 -.142E+04   0.346E+03 -.189E+03 0.142E+04   -.730E+00 -.107E+00 0.645E+00   0.176E-01 0.305E-01 -.179E+00
   -.778E+01 0.190E+02 0.240E+04   0.822E+01 -.197E+02 -.241E+04   -.606E-01 0.151E+00 0.700E+00   -.442E-01 0.968E-03 0.108E+00
   -.475E+02 0.879E+02 0.119E+04   0.485E+02 -.894E+02 -.119E+04   -.632E+00 0.128E+01 0.189E+01   -.398E-01 0.880E-02 0.365E-01
   -.133E+03 -.164E+03 -.197E+04   0.133E+03 0.165E+03 0.197E+04   -.386E-01 -.218E+00 0.691E-01   -.578E-01 -.836E-01 -.114E+00
   -.530E+02 -.156E+03 -.568E+03   0.547E+02 0.159E+03 0.569E+03   -.157E+01 -.242E+01 -.450E+00   0.339E-01 -.199E-01 -.240E+00
   -.151E+03 -.342E+03 0.185E+04   0.151E+03 0.344E+03 -.185E+04   0.584E+00 -.410E+00 0.163E+01   0.239E-01 0.338E-02 0.795E-01
   -.896E+02 -.165E+03 0.612E+03   0.907E+02 0.168E+03 -.613E+03   -.947E+00 -.245E+01 0.145E+01   -.576E-02 -.251E-01 -.545E-01
   0.604E+02 -.937E+02 0.196E+04   -.611E+02 0.966E+02 -.196E+04   -.431E+00 -.210E+01 0.367E+01   0.186E-01 -.193E-01 0.796E-01
   0.153E+03 -.145E+02 0.654E+03   -.156E+03 0.145E+02 -.654E+03   0.252E+01 -.245E+00 0.837E+00   0.148E-01 -.156E-01 -.990E-01
   0.183E+03 -.564E+01 -.594E+03   -.186E+03 0.594E+01 0.593E+03   0.283E+01 -.207E-01 0.413E+00   0.360E-02 -.348E-01 -.238E+00
   0.402E+03 0.963E+02 -.193E+04   -.406E+03 -.974E+02 0.193E+04   0.255E+01 0.755E+00 -.140E+01   0.230E-01 -.403E-01 -.764E-01
[...]
   0.158E+03 -.565E+00 -.583E+03   -.161E+03 0.430E+00 0.583E+03   0.274E+01 -.577E-01 -.462E+00   0.461E-01 0.111E-01 -.268E+00
   0.171E+03 -.124E+03 -.204E+04   -.173E+03 0.125E+03 0.204E+04   0.316E+01 0.330E+00 -.133E+01   0.725E-01 -.139E-01 -.430E-01
   -.848E+02 0.114E+03 -.833E+02   0.861E+02 -.116E+03 0.819E+02   -.147E+01 0.189E+01 0.119E+01   -.167E-02 0.869E-02 -.217E+00
   -.352E+03 0.203E+03 -.141E+04   0.354E+03 -.205E+03 0.141E+04   -.478E+00 0.185E+00 0.148E+01   -.202E-01 0.199E-02 -.142E+00
   -.650E+02 0.614E+03 0.226E+04   0.664E+02 -.619E+03 -.226E+04   -.114E+01 0.268E+01 0.125E+01   -.144E+00 -.262E+00 0.151E+00
   -.940E+02 0.204E+03 0.117E+04   0.948E+02 -.205E+03 -.117E+04   -.738E+00 0.106E+01 0.146E+01   -.371E-01 -.506E-01 0.386E-01
   -.245E+03 -.325E+03 -.194E+04   0.247E+03 0.329E+03 0.194E+04   -.147E+01 -.236E+01 -.106E+01   0.132E-01 0.423E-02 -.755E-01
   -.345E+02 -.126E+03 -.559E+03   0.356E+02 0.128E+03 0.559E+03   -.114E+01 -.187E+01 -.352E-01   -.347E-02 0.368E-01 -.259E+00
   -.125E+03 -.269E+03 0.185E+04   0.125E+03 0.271E+03 -.186E+04   0.267E+00 -.835E-01 0.106E+01   -.576E-01 -.424E-01 0.683E-01
   -.955E+02 -.158E+03 0.617E+03   0.967E+02 0.160E+03 -.617E+03   -.109E+01 -.233E+01 0.133E+01   -.331E-01 0.240E-02 -.766E-01
   0.334E+03 -.377E+02 0.181E+04   -.336E+03 0.383E+02 -.182E+04   -.322E+00 -.195E+00 0.773E+00   -.658E-01 -.456E-01 0.118E+00
   0.183E+03 0.115E+02 0.600E+03   -.185E+03 -.113E+02 -.600E+03   0.244E+01 -.380E+00 0.985E+00   -.470E-02 -.195E-01 -.568E-01
   0.184E+03 -.625E+01 -.634E+03   -.187E+03 0.647E+01 0.634E+03   0.273E+01 -.584E-01 -.689E+00   -.436E-01 0.174E-01 -.280E+00
   0.383E+03 -.890E+02 -.200E+04   -.389E+03 0.888E+02 0.201E+04   0.320E+01 0.616E+00 -.598E+00   -.137E+00 0.419E-01 -.946E-01
   -.152E+02 0.947E+01 -.519E+02   0.136E-11 -.426E-13 0.591E-11   0.153E+02 -.903E+01 0.633E+02   -.247E+00 -.367E+00 -.111E+02

 POSITION                                       TOTAL-FORCE (eV/Angst)
      5.35228      4.81788      6.64784         0.061478     -0.107978     -0.194152
      5.93595      3.87238      9.58390        -0.111141      1.563999     -1.003514
      6.55698      2.09869     11.08898         0.320051     -0.319958      1.671996
      2.24633      0.73197      3.71178        -0.716192      0.534203      1.663708
      0.30907      0.13826     10.75006         0.245196      0.199159      1.065858
      4.76861      3.35453      2.93606        -0.503917     -1.345292      2.709822
      5.35228      2.40903      5.87212        -0.022990      0.000630     -0.042133
      5.93595      1.46353      8.80817        -0.744648      0.002051     -1.959906
      1.87746      3.73836      5.87212        -0.111446     -0.081424      0.106509
      2.46113      2.79286      8.80817         0.328409      0.305789     -1.250614
      6.92203      4.68386      2.93606         1.463957     -0.042648      2.625099
     10.98051      4.81788      6.64784         0.160443     -0.168429     -0.092177
     11.56418      3.87238      9.58390        -1.130083      0.798060     -0.879838
      1.55694      2.23129     11.01321         0.529681     -0.127466      1.702678
      7.87456      0.73197      3.71178        -0.013242      0.775530      1.567010
     10.69485      5.28393      1.33758        -0.690172      1.249189     -1.977835
     10.39684      3.35453      2.93606        -0.358048     -1.376819      2.140538
     10.98051      2.40903      5.87212         0.061379      0.117742     -0.017802
     11.56418      1.46353      8.80817        -0.793914      0.545132     -1.987490
      7.50570      3.73836      5.87212        -0.132434      0.040960      0.013722
      8.08937      2.79286      8.80817         0.023273      0.496147     -0.900458
      8.82099      1.94422     11.14162         0.015094     -0.150612      1.057354
     12.55026      4.68386      2.93606         1.370467     -0.385023      2.445532
     10.52276      0.35432      0.83223         1.083809      0.593171     -1.335884
      7.87456      9.84929      6.64784         0.064835     -0.150967     -0.122908
      8.45823      8.90379      9.58390        -1.446118      0.740560     -1.001338
      9.74825      7.56145     11.10241         0.284575     -0.468882      1.639735
      4.76861      5.76338      3.71178        -0.288203      0.550271      2.193380
      3.16988      5.90289     11.17186         0.177982     -1.153436      1.687350
      2.57197      0.26553      1.30154        -0.641630      1.144254     -1.815363
      7.29089      8.38594      2.93606        -0.498078     -0.808754      1.969178
      7.87456      7.44044      5.87212         0.096922      0.113891      0.076618
      8.45823      6.49494      8.80817        -0.434693      0.236419     -0.873812
      4.39975      8.76977      5.87212         0.002113      0.024395     -0.011366
      4.98341      7.82427      8.80817        -0.081991     -0.367930     -0.520251
      5.66243      6.94331     11.31441         0.175582      0.052456      1.263556
      9.44431      9.71527      2.93606         1.269076     -0.197115      2.047288
     13.50279      9.84929      6.64784         0.048933     -0.175571     -0.080423
     14.08646      8.90379      9.58390        -1.023203      0.966601     -1.340430
     10.39684      5.76338      3.71178        -0.481703      0.803973      2.303556
      8.87639      5.46775     11.13667         0.087341     -0.121786      0.938967
      8.09840      0.26923      1.29579        -1.080298      0.970342     -1.788071
     12.91912      8.38594      2.93606         0.300814     -1.057369      1.099002
     13.50279      7.44044      5.87212        -0.067418      0.030338     -0.015756
     14.08646      6.49494      8.80817         0.378198     -0.020416     -1.971749
     10.02798      8.76977      5.87212         0.090403     -0.012230     -0.067892
     10.61165      7.82427      8.80817         0.446845      0.736380     -1.823868
     15.07254      9.71527      2.93606         0.456938     -0.907964      4.245219
      1.66190      1.67871      7.01153        -0.014609      0.091959     -0.365167
      2.09281      0.69366      9.72283         1.342508     -1.545982      0.754683
      5.89485      3.93749      1.40189         0.335881     -0.503745     -4.554455
      6.70646      2.62422      4.07548         0.346599     -0.235308     -0.287160
      2.16524      4.13622     10.54787         0.688397      0.349029      1.970120
      7.29013      4.74605      7.99931         0.170144      0.081490      0.026784
      3.68884      1.58255      2.42681         0.472873      1.862316     -1.448520
      4.18418      0.66015      5.06325         0.094578     -0.156213      0.807357
      3.35348      4.82652      2.53905        -1.196075      0.787595     -2.506687
      3.96438      3.99884      5.06325        -0.163797     -0.353922      0.834761
      4.54805      3.05334      7.99931        -0.009635      0.239508     -1.143048
      4.71106      2.33853     10.37669        -1.918163     -0.340379      1.741881
[...]
      6.48666      9.03025      5.06325        -0.039676     -0.035897      0.270102
      7.07033      8.08475      7.99931        -0.110306     -0.182921     -0.094000
      7.65400      7.13925     10.93537         0.398029      0.501541      0.530309
      9.81241      6.71012      7.01153        -0.195656     -0.091503     -0.422766
     10.34565      5.96131      9.77956         1.405687     -2.016661      0.834555
     14.37477      8.72781      1.26292         0.101114     -2.888003     -2.858488
     14.85697      7.65563      4.07548         0.005703      0.061669     -0.069798
     10.36424      9.30753     10.38224         1.312149      1.458008      1.789415
     15.44064      9.77746      7.99931        -0.036504      0.298102     -0.230021
     11.85057      6.60614      2.42172         0.600216      1.932338     -1.495659
     12.33469      5.69156      5.06325         0.119403     -0.114342      0.774484
     11.50832      9.86749      2.45185        -1.667104      0.367677     -1.205466
     12.11489      9.03025      5.06325         0.140399     -0.221574      0.782425
     12.69856      8.08475      7.99931        -0.107641      0.173751     -1.052729
     13.12735      7.28478     10.49763        -2.685291      0.510410      1.975737
    total drift:                               -0.236605      0.075579      0.249206

  FREE ENERGIE OF THE ION-ELECTRON SYSTEM (eV)
  free  energy   TOTEN  =      -469.66937427 eV

  energy  without entropy=     -468.30080622  energy(sigma->0) =     -468.98509025